<?xml version="1.0"?>
<VTKFile type="UnstructuredGrid"  version="0.1"  >
<UnstructuredGrid>
<Piece  NumberOfPoints="527" NumberOfCells="971">
<Points>
<DataArray  type="Float64"  NumberOfComponents="3"  format="ascii">0.01552943322599933 -0.01039223976967649 0  0.01561231669066057 -0.008674083460499629 0  0.01413052010119659 -0.009389502160894639 0  0.009071852058287186 -0.03111646240531644 0  0.009454590536262899 -0.02926375325908127 0  0.008053957990568473 -0.0299402944179232 0  -0.005263160237910004 -0.02021752904783427 0  -0.007142011617282996 -0.01910283839912953 0  -0.005721283706472954 -0.01885557948612299 0  0.005715900577929808 -0.01040157292959515 0  0.004247300133094481 -0.009831459016042156 0  0.004907604482269278 -0.01163228449796421 0  0.006078421240027776 -0.01533115251916825 0  0.007761962215727216 -0.01436391407193771 0  0.007560746450350726 -0.01596246015309179 0  0.01492528999248245 -0.002433543897202234 0  0.01607090679295778 -0.003444215195152167 0  0.01610599002356381 -0.001455662474053389 0  0.006028532990060553 -0.03846042534778643 0  0.006689526301856015 -0.04071687560886686 0  0.00470687896267873 -0.04007262327868574 0  0.01533845899304755 -0.03450745320159019 0  0.01291635033112928 -0.03408703642975243 0  0.01431567335582407 -0.03550779203295518 0  0.007681421014797305 -0.0335876017633407 0  0.007398918941703169 -0.03180190167941388 0  0.009257982989763691 -0.03352046177391386 0  -7.74643124966494e-05 -0.01210497681433211 0  0.002001407188016981 -0.01282170755437008 0  0.0005044285752298626 -0.01379044141987053 0  -0.00554502207324609 -0.01082482616207859 0  -0.006966384852671079 -0.01037459975243556 0  -0.007325780537656768 -0.01169056999739311 0  0.0002817996959115863 -0.02849048409288438 0  -0.000521210781477624 -0.03017876919236858 0  -0.001093500833290798 -0.02871309477119382 0  -0.002501899107215252 -0.03451361758785813 0  -0.003994222433335283 -0.03302847981728372 0  -0.00237569780992264 -0.03289446498059487 0  -0.002527586879520364 -0.00629891729928651 0  -0.0001503063646937945 -0.006276275587524281 0  -0.001326895479615754 -0.004595719664517121 0  0.003472222222222224 -0.02569444444444444 0  0.0056511112593847 -0.02488019662884799 0  0.003895180821987836 -0.0236393607118779 0  -0.008984816994941665 -0.02386872512578754 0  -0.01047523617110418 -0.02424834223494819 0  -0.008755951219614224 -0.02540612226970509 0  0.001146640918992101 -0.03102340112947342 0  0.002374909778313783 -0.03024414641598028 0  0.0007456373584565139 -0.02974621554810341 0  0.0182766464026848 -0.03019791398854459 0  0.02042604155621803 -0.02955189065163524 0  0.0197299190175258 -0.03137365445772399 0  0.01379230725571167 -0.03273328139531854 0  0.01501791995124707 -0.03322599139945957 0  0.01329990464676595 -0.03651525526650057 0  0.01388418709928712 -0.03784026285822586 0  0.01225930750566253 -0.03749767039702803 0  0.002256955057953323 -0.03542009683155154 0  0.002478844003272855 -0.03693214507778883 0  0.0009942345205310021 -0.03581760440233908 0  7.979462213787225e-05 -0.02582162422291141 0  -0.0009137538293355649 -0.02723890034088429 0  -0.001688252126561377 -0.02596267815987898 0  -0.007685836574511986 -0.007395433330292244 0  -0.009035679641316699 -0.005678099849451732 0  -0.009317707561007742 -0.00723817591573791 0  0.0004382181809313461 -0.04439373199081217 0  0.0007479406588227182 -0.04630941102478892 0  0.001434473698376028 -0.04521553686097385 0  0.009039169047364189 -0.04062936042476101 0  0.007849009582011639 -0.03910743039857202 0  0.009507271836584152 -0.03875260097857094 0  0.0116140763143414 -0.0200294715722589 0  0.01255567389343238 -0.01875669977713929 0  0.01289863565765652 -0.02096070221481863 0  -0.001242692848311552 -0.02453787375321078 0  0.0002330144247192046 -0.02434070912065012 0  -0.005615842898686297 -0.03437124196063728 0  -0.007416067229776028 -0.03518034726825829 0  -0.006054704616810422 -0.03580205691967763 0  -0.004157923962185587 -0.03660884936063957 0  -0.002121340039484437 -0.0366645371443241 0  -0.003389459586812602 -0.03835665334840834 0  0.01436274818423154 -0.02590687146513118 0  0.01376997500590554 -0.02405110063143605 0  0.01312811451181107 -0.02527868237689237 0  0.015181836533936 -0.03191525840546049 0  0.01661043679905785 -0.0331297702723849 0  0.01668600241955626 -0.03097866552280258 0  0.004614118426858764 -0.003565458483726032 0  0.002509334680925278 -0.004358807632452355 0  0.002343081211279474 -0.002873718352678741 0  0.01731419597837964 -0.008924158772178585 0  0.01891769558890485 -0.008130063332440622 0  0.01661233695577045 -0.007784557864161785 0  0.003888413565608712 -0.01876506087328944 0  0.004891551310597494 -0.02075766768178287 0  0.00544129398496433 -0.01923210266410404 0  0.003071894030292726 -0.02042492932582908 0  0.002062167648373497 -0.0188974618762693 0  -0.0057072681558855 -0.02389109188241274 0  -0.007219239710984426 -0.02563954733366955 0  -0.007346103689937933 -0.02388886401972043 0  -0.004305627510404235 -0.01860920323802679 0  -0.003838294149787177 -0.01997663600034633 0  -0.005175004679933259 -0.03128537442936601 0  -0.003579275799392356 -0.02990168269634324 0  -0.003587402364175357 -0.03149153588773727 0  0.003782179117330453 -0.03352803109814534 0  0.001800461004723053 -0.0329743674150207 0  0.009302575519085478 -0.04534992603921641 0  0.009513501161241235 -0.04296668972212099 0  0.01124108542315425 -0.04409850809919492 0  -0.0009083904135866786 -0.008529558496548306 0  0.000950029780725288 -0.009981924865605908 0  0.0008390356868680526 -0.007863289832610657 0  -0.0078125 -0.001818766801925782 0  -0.009005249798019331 -0.003220453989580621 0  -0.006849416828355778 -0.002880654960679921 0  -0.005471962873640671 -0.002483469538180225 0  -0.004703752454419383 -0.003891541969087049 0  -0.006032357434950986 -0.00440111221351207 0  0.015625 0 0  0.0140625 0 0  0.01388737105418562 -0.001431809280784936 0  -0.007999101390003741 -0.03706595863040997 0  -0.002966181741115359 -0.02519100039815357 0  -0.003650638982939926 -0.02687347943237787 0  -0.004763226258762934 -0.02544039938959696 0  -0.00733492014463835 -0.0222500651304849 0  -0.005550790196063865 -0.02199648679170341 0  0.01595944973070434 -0.01665864079534912 0  0.01490811737430122 -0.01815748923040521 0  0.01620791970234805 -0.01795106480095328 0  0.01520615639784498 -0.01268049936812179 0  0.01475119078452227 -0.0148270426093771 0  0.01391218072944126 -0.01352772495826596 0  0.001807424563025037 -0.0170842299175074 0  -8.496028144727461e-05 -0.0173220879651638 0  0.001003955519332805 -0.01812162078302066 0  0.001645105436913761 -0.01133910380044415 0  0.01398706243080254 -0.0221150896608866 0  0.01258564041330076 -0.02332910432433855 0  0.009194419875177533 -0.02206075900562258 0  0.01024587951903527 -0.02330935545630703 0  0.01055332124836828 -0.02122269026435361 0  0.007590321611890428 -0.01002544604880517 0  0.009217381127136798 -0.01087786990918838 0  0.008858123610367597 -0.009584568252459222 0  0.01075672523973394 -0.01188005193203498 0  0.008545263046002623 -0.01258731613206785 0  -0.002401366537453123 -0.02012997179630549 0  -0.003768377061401588 -0.02226186400376761 0  -0.001934031832172576 -0.02146311508091197 0  -0.001242172060814776 -0.02269478175693585 0  -0.002687248212944535 -0.02354019374584471 0  -0.008385574756346015 -0.01083162927881422 0  -0.007996120807677542 -0.009276532098770388 0  0.01135833061239636 -0.03411864136424596 0  0.01234457162076637 -0.03542175489045764 0  0.01484586826671411 -0.03892294491435778 0  0.01682229953162608 -0.03997649591280195 0  0.01537065409622362 -0.04031910134814119 0  0.01953075217518766 -0.02799030610032226 0  -0.006023660024602393 -0.03729834141399786 0  0.01556230856807037 -0.006954656242163968 0  0.01452119780971544 -0.007845376921609476 0  0.01493929066620763 -0.005842453764582118 0  0.00260771577430766 -0.04575534361521472 0  0.001593906033397699 -0.04805586364640495 0  0.003215512932028335 -0.04739683855119951 0  0.01388889061737944 -0.01961056581486995 0  0.00848679002385368 -0.01728089887285961 0  0.01091258567492647 -0.01676505135253015 0  0.009026629356790904 -0.01591729099564875 0  -0.0007291972817302392 -0.03815205647041336 0  -0.0008318520259667226 -0.04038123225473551 0  0.0007661706505117675 -0.03878712621920281 0  0.008592979660450702 -0.03732438270432173 0  0.008168121474082026 -0.03544844926309867 0  0.006801984231713659 -0.03674392697831581 0  0.001825126981212151 -0.008873854041609817 0  0.0004213409092374296 -0.003522267437169826 0  0.001176028743070504 -0.005312707133933157 0  0.003235556574780704 -0.04154949902408906 0  0.005169085000972016 -0.0420044241556977 0  0.01805191463477333 -0.01489685993184803 0  0.02031059517510626 -0.01433651055799742 0  0.01957410453124071 -0.01620020054378964 0  0.01748238166535701 -0.01634392573638821 0  0.01570862682144985 -0.02385902104839043 0  0.01610131562394197 -0.02156661281752332 0  0.01619085190094634 -0.01938421123497572 0  0.01478188997540652 -0.02082974819103365 0  -0.01088465027479771 -0.02276583133720164 0  -0.007808666799817795 -0.01546134924060014 0  -0.005536251248839077 -0.01513289695023397 0  -0.007593318388070634 -0.01416090010898731 0  -0.009529647465935568 -0.008809308805338086 0  0.00648040877914181 -0.009352850839624468 0  0.009688124777025769 -0.01460836901279954 0  0.01107020214776975 -0.01357625950359936 0  0.009744700986594435 -0.01324271814211144 0  -0.008680555555555554 -0.02743055555555555 0  -0.01026658336100219 -0.02577212780879937 0  -0.002375017943413014 -0.02816654106277556 0  0.001823757237959144 -0.02703169908190218 0  0.003833816990584821 -0.02734430907162308 0  0.017292207270899 -0.03696063516466189 0  0.01604828773016203 -0.03791592173361046 0  0.01751563465771312 -0.03854040120278274 0  -0.004350183622882246 -0.01639694235721915 0  -0.00654316002217061 -0.01619168547737489 0  -0.007439175550382293 -0.004187299635792556 0  0.01353758505471251 -0.04075172725089799 0  0.0129699535640053 -0.03896329809606121 0  0.01295019700693523 -0.004018074645617246 0  0.01367471125198932 -0.006003651042213967 0  0.01490393350642042 -0.004430150119241647 0  0.01325127471728254 -0.01078035535382615 0  0.01160890466735436 -0.009467253460253578 0  0.01181262870367104 -0.01089609743297899 0  0.01251763880242438 -0.01249534090464294 0  0.01389748412271922 -0.01207120061770211 0  0.01890612858042567 -0.01350769413274733 0  0.002372579972054182 -0.03854445786472108 0  0.004023056189852434 -0.03857025067839021 0  0.003114706473499972 -0.03995777051533941 0  -0.0003246850471691387 -0.03570390920279574 0  -0.001290325615771404 -0.0462839283737984 0  -0.002476369444715367 -0.04409996895240524 0  -0.0007255791997329603 -0.04506492059329821 0  -0.004628820944440628 -0.03785872961526773 0  0.0009740238364570425 -0.04057252383539692 0  0.003854520584893778 -0.0290332067670757 0  0.005474350329101081 -0.03001705705516488 0  0.005291076006421047 -0.02849341904466964 0  0.01091777409106017 -0.0280645394299259 0  0.01071397635243188 -0.0296750584588346 0  0.01218305236528384 -0.02841967715328659 0  0.01349543494710197 -0.02835109236840971 0  0.01203785301753422 -0.02972580465976876 0  0.01406056210499518 -0.03026474720915921 0  0.009897799835698506 -0.02593741874877344 0  0.0102794120867681 -0.024650879491609 0  0.0112360942535446 -0.02551729151960518 0  0.006053289944438661 -0.01773042807326471 0  0.004282681232920034 -0.01651211237411023 0  0.003032066145106093 -0.01476416779425536 0  0.004178238255297291 -0.01291135386657958 0  0.00625 0 0  0.0078125 0 0  0.00703125 -0.001175802372000723 0  -0.008944539808483216 -0.02059134745263918 0  -0.01100290284122577 -0.01912837588863205 0  -0.01064330761876152 -0.02080195221328036 0  -0.004633061924560681 -0.04286503726771711 0  -0.002815968759843144 -0.04219235082312205 0  -0.004186085956682403 -0.04101701323173293 0  0.008348249874118313 -0.04406451249783304 0  0.01586325646191351 -0.02940933116439079 0  0.01524541998548908 -0.02759607106627833 0  0.01472119155954167 -0.02878658118299003 0  0.01173248358540133 -0.04209249512146222 0  0.01094138566915794 -0.04033826315792242 0  -0.002675293189351801 -0.004919969455286762 0  0.002206599034779407 -0.006587679234291101 0  0.01060337250420406 -0.002506624673742543 0  0.009773582291372453 -0.004482055562056157 0  0.009181655266985632 -0.00312519052495794 0  0.01132099150660987 -0.003970058670724109 0  0.01799242424242424 -0.02474747474747475 0  0.01730766645893324 -0.02312815315616748 0  0.01906426535909785 -0.03892095942952337 0  0.02061657848502845 -0.0377448979680517 0  0.01901818906084091 -0.03708234421174355 0  0.01844493158550458 -0.03273128999182751 0  -0.00896333282529301 -0.01789643597649662 0  -0.007382101428181567 -0.0174872678622514 0  -0.008543755100453731 -0.01924103130799657 0  -0.005750218485470361 -0.01741893530621688 0  0.006957413657597817 -0.02883708546514246 0  0.00678080900962949 -0.03053836179834208 0  0.02021617032392894 -0.01201127655869035 0  0.0015625 -0.001599425074949768 0  0.003505598394455356 -0.001934737956776572 0  0 0 0  0.0001176377263277866 -0.002041981213928114 0  -0.001590844727887034 -0.007321945608138822 0  0.003217462687884581 -0.008639296284935039 0  0.005500468959257323 -0.008501963795935558 0  0.00930059030542134 -0.01950834559488892 0  0.007949055400741029 -0.01873974565668601 0  0.008466167508586328 -0.02075205170812311 0  0.006970197692047868 -0.01994773160433056 0  0.007361318163702384 -0.02176317693532475 0  0.006045634943659542 -0.02145888557579613 0  -0.0002202596667733563 -0.01541961827374851 0  0.001472917788019082 -0.01542441723502727 0  0.01232546520178956 -0.006910001012341708 0  0.01210204930564997 -0.005132263247924163 0  -0.008973633449642084 -0.022229926236552 0  0.007543784155871341 -0.02578379566159266 0  0.005480978277781424 -0.02697059292468355 0  0.007072105158341157 -0.02727616164622629 0  0.008833840897614336 -0.02412832273949905 0  0.01858464894142724 -0.01709297275035205 0  0.02022053591020378 -0.03583808206686418 0  0.01879803401513061 -0.03566655265326275 0  0.00625 -0.01223723723723724 0  0.003112335364914031 -0.01092401204266664 0  0.01001344743614051 -0.03490586023982564 0  0.005434516123797042 -0.03355327467553561 0  0.003898054037233404 -0.03527583152213654 0  0.01983176480334506 -0.003119763773612122 0  0.01875198356834755 -0.004586152238827983 0  0.0184249929446928 -0.0032146264048929 0  -0.001211000384548085 -0.01419183719636728 0  -0.002547470360661643 -0.0150302055800622 0  -0.002066955327357931 -0.01286656187413736 0  -0.006419239975747055 -0.008987657628794282 0  -0.004560476962080258 -0.008160345583815167 0  -0.004106681459255408 -0.009842164957641347 0  0.002058667993639286 -0.02882433183903491 0  0.0004603579899184244 -0.0271348942960017 0  -0.002007622916944294 -0.0313126613245728 0  -0.002023950642007046 -0.02975004713903992 0  -0.00408281669807784 -0.03496615388439835 0  -0.0030137192417262 -0.035713298838925 0  -0.0109375 0 0  -0.009868267605044632 -0.001688086639219139 0  -0.01144562270825399 -0.001692689230605756 0  -0.003124999999999999 -0.003608070794988568 0  -0.00416937455791247 -0.002686403483245581 0  0.0009700756801164876 -0.03717533790260936 0  -0.006972289131149011 -0.03376047104329722 0  -0.005112842310742847 -0.0289173158262394 0  -0.00655528989325412 -0.03036259657956806 0  0.01531958051900442 -0.03652707543072173 0  0.007901954345779465 -0.04168279699993686 0  0.009453103227146445 -0.01819024001306512 0  0.01119184763198969 -0.01518056350921669 0  0.01599060164567829 -0.01532376265634127 0  0.01637740592580826 -0.02551941632336991 0  0.0182833113088956 -0.02166554836851385 0  0.01808757669441668 -0.01974479937204086 0  0.01935715227077945 -0.020585770519418 0  0.006865541483190338 -0.01340042129292434 0  0.005597575358301082 -0.01375277107803309 0  0.004566392742898813 -0.01498775736781872 0  0.0078125 -0.002562274735532483 0  0.005875255702220044 -0.001986073909204611 0  0.006432062839889531 -0.004292081639409267 0  0.00919019775307337 -0.001644856995975223 0  -0.005937315717927029 -0.007018560383058098 0  -0.004062442030978369 -0.006663469005727203 0  -0.002666725578430765 -0.01082245768220869 0  -0.003310052500419488 -0.01212126207328246 0  -0.001379568149766955 -0.01168285622548849 0  0.01130278100659475 -0.03643322737114876 0  0.00147563755691958 -0.02567167109431155 0  -0.004196699527692595 -0.02372045091729928 0  0.0002547620197936792 -0.01919886328694928 0  -0.001480875293647468 -0.01852992586475846 0  -0.002910133850527605 -0.01736173448892657 0  -0.001576348224417626 -0.01637523135305157 0  0.01113027780061732 -0.006140445228874379 0  0.02031211398677475 -0.005153725594588204 0  0.01693476594833477 -0.004704231736989024 0  0.01733939461140231 -0.006494720794806756 0  -0.001776881105324164 -0.00328432861237359 0  -0.005073351869629771 -0.005452378761053507 0  -0.004152535080712006 -0.01330066254671447 0  -0.008645094114120339 -0.03363601830115741 0  0.0109375 0 0  0.01136020289896124 -0.001331926919614055 0  -0.00742579778083521 -0.005801877455452067 0  0.01641853780631685 -0.01405895408180301 0  0.01342542275712887 -0.01575461163169694 0  0.01458450174257419 -0.01681235605018334 0  0.005543834849940803 -0.03520218469044023 0  0.006906748727306251 -0.03478428700252252 0  0.007422463937979502 -0.0378827225670978 0  0.01063000795921785 -0.03274097288862783 0  -0.00262702006299233 -0.04010709393534482 0  -0.002017343008043296 -0.03880026864891686 0  0.006944662348682713 -0.04537749419283783 0  0.005351107762882292 -0.04529114940290142 0  0.006212741685121846 -0.0441373465179553 0  -0.009526740687271501 -0.01613797769472268 0  0.001189133689771877 -0.0207822544774329 0  0.01754214479783012 -0.03475699428813387 0  0.01927739541349182 -0.0343163131815473 0  0.01894698490238263 -0.02628094230654713 0  0.01768401439889246 -0.02600328892920942 0  0.01401993764527138 -0.02716121795864241 0  0.009715766073205602 -0.008552025495673465 0  0.01024112006832257 -0.009880918520390336 0  0.01316725552433098 -0.00805546078058521 0  -0.001420652294158962 -0.03378339845303545 0  0.01744657936988587 -0.002199386109325907 0  0.007922643115429704 -0.005561362357538799 0  0.009148091217578409 -0.006859502157612021 0  0.02017264389999211 -0.04022967569049397 0  0.01884866686088017 -0.04022726654946966 0  0.01846824474048517 -0.04149541481145257 0  0.004865051114871914 -0.04681122195893275 0  0.004571400849083842 -0.04389869517771137 0  0.002440834567595678 -0.04361207119961237 0  0.0009772674552496394 -0.04244465560155624 0  -0.0008783629089698517 -0.04219661564043644 0  0.01722919718652179 -0.0208026205444918 0  0.01200314952501688 -0.03289639638369907 0  -0.0009683491629293051 -0.04374356476373605 0  0.01740167217167078 -0.02878841977084766 0  0.01824139406830936 -0.02778962915114275 0  0.005594154517873918 -0.03190847365283561 0  0.01185122566191796 -0.02215243016907972 0  0.01074102224297309 -0.01850950029058222 0  -0.003189912936622991 -0.001804035397494284 0  0.007129281584464676 -0.04302665811602766 0  0.01016383039410169 -0.04161791886532486 0  0.003991214779116715 -0.04267420696174879 0  0.00581336908738571 -0.02278917431851158 0  -0.0008544995260660769 -0.01041875055942865 0  -0.00736479410276593 -0.02066870850595996 0  -0.005449326641473191 -0.02712634327623572 0  -0.003808826734081279 -0.0283052722319424 0  0.01331794183364191 -0.01736907532119644 0  -0.005468750000000001 -0.001118854010828386 0  -0.00625 0 0  -0.004687500000000001 0 0  0.003410198159186033 -0.03126593908952593 0  0.007536075639824975 -0.01150457939134506 0  0.01733916204031951 -0.01067832291645359 0  0.01637574242877245 -0.01178923016834325 0  -0.004047265904786932 -0.01492423853613324 0  0.002413629182646067 -0.02215367303778921 0  0.0006349826098883259 -0.02275699419100019 0  0.004406006138604878 -0.02220288461203223 0  0.01230080256501586 -0.04015997583352308 0  0.01552549360891595 -0.04180256947377044 0  0.01697713904431841 -0.04145996403843121 0  0.003125 0 0  -0.01084442166676765 -0.003150985364175276 0  -0.01292692362820421 -0.00223473894236906 0  -0.01262065131687715 -0.003881341282303994 0  0.003953152531093245 -0.007001967795568576 0  -0.00696008552075832 -0.01300480365189128 0  -0.005478787468542344 -0.01241708084937931 0  -0.005427134064254985 -0.01377668976714338 0  -0.008852249972948254 -0.01455158431259953 0  -0.006926926387350093 -0.028744389996203 0  -0.007137354881908638 -0.02719801970039498 0  0.008609149293794275 -0.02757134402116044 0  0.01089363691704951 -0.02676800949382877 0  -0.002057969475453554 -0.009468640047966586 0  0.01156601061092586 -0.02426946710582858 0  0.01771724791405982 -0.01239143885572532 0  0.01903178980382707 -0.01021710018987537 0  0.002904484592560335 -0.01785461322363537 0  0.002656953078164313 -0.01604940862488315 0  0.005420776585654884 -0.005968447712568974 0  0.006797058564419497 -0.006535273577976413 0  0.007617018746266475 -0.007777492941435461 0  0.00387324022687192 -0.005329699097450733 0  -0.007036355293206452 -0.0322742398964328 0  -0.005561235067107414 -0.03280462086960199 0  0.01123597488745198 -0.007823072686830339 0  0.003920904463319067 -0.04517746780628811 0  0.01259856518984842 -0.03164933808168655 0  0.01082407152263114 -0.0309953249678435 0  -0.005987914006191487 -0.04112680971077185 0  0.001788336352939884 -0.01413345342884633 0  0.007342667558028294 -0.02341575259150772 0  0.01260757325584043 -0.01435848579679944 0  0.007915342148546729 -0.004060064145743369 0  0.012572992640219 -0.00202607971510129 0  0.0125 0 0  -0.0002419542344551601 -0.03322394734734696 0  -0.0002378071784468202 -0.03168817342482563 0  0.01633901255257336 -0.03552670525145482 0  0.01752296142575204 -0.017898506235741 0  -0.006518133045618423 -0.03864485562360071 0  -0.005153536667873927 -0.03908698774301944 0  0.004687500000000001 0 0  0.01949511126133643 -0.01820257885343882 0  0.009790936811784338 -0.03640157536671814 0  -0.0006451628078857017 -0.0481419641868992 0  -0.003899597816185256 -0.03962012250190584 0  -0.0006467224638149068 -0.02088130124969998 0  0.00172095017090097 -0.02428939573795938 0  0.01710008535326017 -0.02715707086714232 0  0.01621364138106533 -0.005808162180741022 0  -0.01086143623908221 -0.006877234301934964 0  -0.01086327099297992 -0.005014062609857923 0  -0.009620928991571001 -0.004441842148706425 0  0.01117166248865671 -0.03842772965091688 0  -0.002883626972990035 -0.01878773403781771 0  0.005424888289140064 -0.03715591698292275 0  -0.004252948739696259 -0.01117206503553538 0  -0.002713388987052015 -0.008136787412157006 0  0.01916997955773587 -0.006358580516425179 0  -0.001845116800711138 -0.04126355949364575 0  -0.001390842828656197 -0.001952710046892643 0  -0.003125 0 0  -0.0015625 0 0  0.02088585035360697 -0.0333970435687849 0  -0.008835948295637792 -0.01316721719410174 0  -0.009375000000000001 0 0  0.0153284676371892 -0.03060952022661566 0  0.01177134897996472 -0.01773017013442771 0  0.0008495730250705474 -0.03450172124787868 0  0.006554206044728714 -0.03283180022765399 0  0.004007035252137576 -0.03691965068314323 0  -8.169974783342644e-05 -0.004976088639533104 0  0.01764097717984675 -0.01368695392419492 0  0.01902839241071538 -0.001650899173387039 0  0.0171875 0 0  -0.0078125 0 0  0.009375000000000001 0 0  0.0015625 0 0  -0.0125 0 0  0.01212997018887398 -0.01616275875350564 0  0.01223358207289873 -0.02633639384576765 0  </DataArray>
</Points>
<Cells>
<DataArray  type="UInt32"  Name="connectivity"  format="ascii">0 1 2  3 4 5  6 7 8  9 10 11  12 13 14  15 16 17  18 19 20  21 22 23  24 25 26  27 28 29  30 31 32  33 34 35  36 37 38  39 40 41  42 43 44  45 46 47  48 49 50  51 52 53  22 54 55  56 57 58  59 60 61  62 63 64  65 66 67  68 69 70  71 72 73  74 75 76  62 77 78  79 80 81  82 83 84  85 86 87  88 89 90  91 92 93  94 95 96  97 98 99  97 100 101  102 103 104  6 105 106  107 108 109  59 110 111  112 113 114  115 116 117  118 119 120  121 122 123  124 125 126  127 80 81  128 129 130  102 131 132  133 134 135  136 137 138  139 140 141  27 116 142  143 86 144  145 146 147  148 149 150  151 152 149  153 154 155  156 157 155  158 159 31  22 160 161  162 163 164  165 51 52  127 166 81  167 168 169  170 171 172  173 75 76  174 175 176  177 178 179  180 181 182  116 117 183  184 92 185  186 20 187  170 69 70  188 189 190  188 190 191  143 192 193  194 173 195  45 196 46  197 198 199  65 200 67  148 9 201  202 203 204  205 206 47  205 103 47  207 63 64  42 208 209  210 211 212  198 213 214  27 28 142  215 119 120  162 163 211  162 216 217  82 166 81  218 219 220  221 222 223  221 224 225  188 189 226  227 228 229  177 230 83  231 232 233  82 84 234  235 178 179  236 237 238  239 240 241  242 243 244  245 246 247  12 248 249  250 28 251  252 253 254  255 256 257  258 259 260  112 113 261  86 87 144  262 263 264  265 113 114  71 266 73  39 41 267  268 92 185  269 270 271  269 270 272  273 192 274  275 276 277  278 51 53  279 280 281  282 280 8  3 25 26  283 237 284  285 189 226  286 287 93  288 286 289  115 40 290  39 40 290  268 291 183  292 9 10  293 294 295  296 297 298  299 140 300  139 140 300  1 2 168  219 301 302  45 196 303  304 305 306  145 307 146  190 191 308  194 134 135  309 277 310  311 251 11  312 28 251  305 306 238  283 237 238  313 26 160  110 314 315  255 257 303  316 317 318  299 29 319  320 321 319  218 15 220  307 146 246  245 307 246  30 322 31  323 322 324  33 208 325  33 208 326  327 108 328  36 329 330  327 34 328  331 332 333  334 122 335  184 286 289  118 119 332  174 14 176  296 294 295  59 110 315  230 336 61  79 80 337  107 338 339  309 276 277  210 340 211  180 72 73  71 19 341  296 297 295  174 175 342  202 203 343  133 191 344  273 192 345  346 347 348  151 203 204  12 13 349  162 211 57  151 152 204  12 350 351  352 353 354  352 355 271  323 356 357  358 359 360  162 217 57  56 361 161  283 306 238  304 245 307  62 362 326  128 157 363  364 140 365  366 320 367  269 355 271  368 270 272  316 317 369  370 371 317  41 267 372  373 122 267  374 320 321  282 213 214  375 80 337  376 355 377  373 356 378  373 356 357  137 379 344  137 380 381  382 182 383  18 182 384  3 385 26  24 181 383  34 328 35  33 325 50  386 84 387  82 329 330  36 230 83  388 389 390  7 280 281  197 391 280  364 392 101  250 251 351  65 322 159  322 159 31  158 31 32  278 393 394  278 393 89  273 395 396  263 397 264  242 244 264  242 397 264  398 399 150  311 9 11  400 2 168  221 0 2  371 95 96  136 138 225  36 38 401  36 230 401  402 16 17  219 168 169  167 1 168  403 270 404  91 353 354  154 157 363  154 157 155  275 405 406  407 405 406  408 388 389  409 389 390  170 171 69  186 410 411  412 235 178  227 336 60  336 60 61  346 347 413  22 160 414  385 26 160  68 410 411  68 415 233  51 416 417  262 90 416  218 219 302  382 314 315  418 110 314  74 419 147  74 293 420  346 193 274  192 193 274  232 415 233  412 259 415  334 421 335  121 122 335  268 117 183  268 40 185  97 248 249  296 98 99  422 113 261  265 113 423  422 19 341  19 20 187  409 187 424  425 43 44  42 305 43  115 116 426  27 116 426  175 420 342  293 420 342  6 7 427  255 427 281  428 338 429  128 130 363  194 347 413  430 380 381  121 431 120  432 433 431  18 20 228  181 182 383  110 434 111  418 110 434  152 149 435  152 13 349  0 436 437  94 0 436  366 320 213  198 213 438  439 440 392  98 100 441  265 266 423  265 266 442  443 444 164  407 163 444  445 286 287  446 447 448  292 291 449  268 291 449  450 451 452  197 453 199  21 22 55  21 393 89  428 454 455  205 454 455  131 132 427  6 132 427  446 119 332  42 305 209  439 100 441  194 193 195  143 193 195  304 245 456  245 247 457  358 324 458  374 321 359  42 208 362  208 362 326  459 146 246  459 87 144  460 436 437  285 460 461  139 462 463  97 249 462  292 464 465  292 466 465  304 305 43  425 297 298  292 464 449  464 449 467  107 37 109  327 108 109  375 468 337  107 468 469  454 338 339  107 108 338  400 222 470  398 222 470  20 228 229  186 20 229  409 389 471  186 187 424  472 473 414  385 473 414  456 4 5  239 456 4  258 474 260  386 259 260  250 249 463  28 29 475  251 350 351  311 251 350  425 297 476  425 43 476  136 137 379  477 137 138  242 243 241  85 263 397  403 270 478  368 270 404  368 301 302  400 219 301  218 15 479  480 125 126  30 322 324  65 356 378  48 434 111  481 38 482  210 340 483  21 340 483  184 41 372  334 267 372  385 160 414  472 243 473  133 484 191  484 191 308  472 243 244  88 54 55  177 83 387  83 84 387  91 353 287  91 287 93  177 230 336  227 235 179  127 166 485  486 166 485  445 287 487  91 464 354  403 466 465  194 484 347  488 484 347  180 182 384  313 361 489  163 444 164  488 347 348  231 490 69  171 490 69  422 261 390  422 19 187  486 491 234  386 260 491  258 232 259  232 259 415  85 192 86  143 192 86  148 149 435  292 9 201  153 492 365  364 492 365  439 493 440  364 492 392  494 416 417  85 192 345  370 220 495  15 220 16  439 493 44  42 493 44  496 66 497  446 119 498  358 426 360  27 426 360  18 19 72  71 19 72  180 73 489  499 73 489  217 57 58  499 217 58  499 217 442  499 266 442  105 106 500  366 105 500  492 440 392  156 492 440  439 44 441  97 98 100  382 182 501  18 182 501  278 51 90  278 89 90  279 391 280  202 13 176  13 14 176  358 359 502  115 503 458  268 40 117  115 40 117  151 149 399  149 399 150  439 100 392  100 392 101  504 371 95  504 371 317  366 365 367  153 106 500  151 399 223  477 203 343  327 34 482  48 34 482  412 259 505  412 178 505  236 434 49  236 325 49  186 235 411  412 235 411  506 289 372  507 421 508  285 460 226  136 0 437  165 395 417  165 51 417  85 263 345  494 263 345  278 509 53  309 509 394  278 509 394  3 4 240  243 473 240  249 462 463  364 140 141  450 510 199  510 453 199  283 456 5  283 5 284  154 132 363  6 154 132  215 66 498  215 119 498  511 331 332  511 118 332  421 433 431  507 421 433  428 129 130  428 454 338  51 90 416  88 244 512  486 260 491  486 474 260  430 173 134  194 173 134  408 389 471  460 461 436  94 461 436  403 466 404  398 466 404  446 447 333  446 332 333  268 92 467  268 449 467  145 307 476  145 297 476  282 105 213  366 105 213  94 0 1  167 371 96  15 17 126  124 17 126  196 257 303  27 321 319  27 29 319  210 393 310  210 277 310  156 440 78  156 77 78  128 129 64  207 129 64  499 266 73  499 361 489  275 276 405  368 404 470  398 404 470  208 325 209  236 325 209  236 434 237  418 434 237  353 287 487  252 353 487  430 173 75  175 420 513  446 497 448  3 473 240  3 385 473  59 111 514  481 111 514  91 464 467  91 92 467  140 365 367  299 140 367  29 300 475  299 29 300  402 16 318  370 16 318  504 317 369  304 43 476  304 307 476  418 25 515  418 314 515  516 228 60  382 516 315  94 461 95  184 185 517  40 185 517  45 131 303  7 427 281  102 131 104  45 131 104  503 324 458  323 503 324  494 263 416  262 263 416  65 322 356  323 322 356  7 280 8  197 198 214  428 129 429  207 129 429  102 103 130  428 103 130  296 248 99  97 248 99  188 379 518  188 226 518  459 419 146  419 146 147  481 38 401  327 38 482  382 516 501  227 228 60  215 66 378  65 66 378  218 479 272  269 479 272  388 261 390  112 388 261  496 66 67  496 200 67  400 222 2  221 222 2  420 75 513  74 420 75  74 293 147  145 297 295  74 419 76  143 419 76  37 38 109  327 38 109  255 303 427  131 303 427  320 367 319  299 367 319  480 479 377  480 376 377  88 244 54  472 244 54  275 277 212  210 277 212  163 211 212  275 212 406  107 468 339  227 235 229  186 235 229  227 336 179  177 336 179  402 519 520  511 118 521  432 118 521  352 355 254  522 376 355  288 286 523  445 286 523  506 421 508  288 506 508  428 103 455  205 103 455  36 37 329  79 37 329  79 37 469  107 37 469  65 200 159  158 200 159  25 5 284  3 25 5  283 456 306  304 456 306  524 331 333  524 447 333  12 248 14  174 248 14  12 350 349  311 350 349  250 249 351  12 249 351  477 224 203  151 224 203  477 380 525  477 137 380  224 138 225  477 224 138  430 75 513  430 380 525  207 328 35  207 108 328  206 46 47  174 248 294  296 248 294  24 181 26  313 181 26  422 113 341  71 266 423  481 111 482  48 111 482  292 291 10  312 291 10  103 104 47  45 104 47  425 44 441  296 98 298  188 379 344  188 191 344  516 315 60  59 315 60  305 209 238  236 209 238  128 77 157  156 77 157  102 132 363  102 130 363  370 220 16  370 317 318  312 28 142  312 116 142  313 361 160  361 160 161  522 253 355  253 355 254  352 354 478  403 354 478  373 122 123  334 122 267  71 341 423  113 341 423  320 213 438  374 320 438  288 506 289  184 289 372  145 147 295  293 147 295  42 493 362  493 440 78  162 216 164  443 216 164  82 329 81  79 329 81  173 76 195  143 76 195  312 10 11  312 251 11  79 469 337  468 469 337  175 343 176  202 343 176  68 411 415  412 411 415  170 172 471  408 172 471  136 379 437  460 379 437  184 286 93  184 92 93  62 77 64  128 77 64  352 478 271  270 478 271  30 451 502  374 451 452  358 426 458  115 426 458  422 187 390  409 187 390  6 154 106  153 154 106  340 211 57  56 340 57  56 361 58  499 361 58  56 340 23  21 340 23  402 520 17  124 520 17  313 181 489  180 181 489  56 23 161  22 23 161  403 354 465  464 354 465  210 393 483  21 393 483  197 280 214  282 280 214  6 105 8  282 105 8  450 451 32  30 451 32  374 359 502  374 451 502  108 338 429  207 108 429  153 365 500  366 365 500  156 492 155  153 492 155  516 228 501  18 228 501  368 470 301  400 470 301  218 272 302  368 272 302  325 49 50  48 434 49  409 410 471  170 410 471  309 394 310  393 394 310  222 399 223  398 222 399  252 353 254  352 353 254  486 474 485  22 54 414  472 54 414  39 503 290  115 503 290  323 503 357  39 503 357  373 357 267  39 357 267  459 246 247  85 87 397  215 378 123  373 378 123  493 78 362  62 78 362  430 134 381  133 134 381  148 9 435  311 9 435  321 359 360  27 321 360  151 224 223  221 224 223  136 0 225  221 0 225  386 178 387  177 178 387  386 84 491  84 491 234  316 519 318  402 519 318  198 438 452  374 438 452  152 13 204  202 13 204  477 343 525  175 343 525  186 410 424  409 410 424  143 419 144  459 419 144  194 193 413  346 193 413  279 256 281  255 256 281  386 178 505  386 259 505  314 383 515  382 314 383  62 63 326  33 63 326  33 63 35  207 63 35  33 34 50  48 34 50  139 101 462  97 101 462  82 166 234  486 166 234  98 441 298  425 441 298  488 484 308  488 190 308  250 300 475  250 28 475  526 87 247  459 87 247  506 421 372  334 421 372  163 212 406  407 163 406  137 381 344  133 381 344  167 371 495  370 371 495  167 1 96  94 1 96  167 495 169  400 219 168  312 116 183  312 291 183  197 391 453  24 383 515  24 25 515  158 510 32  450 510 32  265 216 442  216 217 442  194 484 135  133 484 135  418 237 284  418 25 284  243 240 241  239 4 240  364 101 141  139 101 141  250 300 463  139 300 463  152 435 349  311 435 349  432 118 431  118 431 120  269 355 377  269 479 377  184 41 517  40 41 517  215 123 120  121 123 120  230 514 401  481 514 401  198 452 199  450 452 199  59 514 61  230 514 61  21 89 55  88 89 55  88 90 512  262 90 512  82 83 330  36 83 330  526 87 397  242 526 397  242 526 241  526 247 457  244 512 264  262 512 264  398 466 150  148 466 150  148 466 201  292 466 201  18 72 384  180 72 384  358 324 502  30 324 502  446 497 498  66 497 498  480 479 126  15 479 126  430 525 513  175 525 513  239 241 457  526 241 457  421 431 335  121 431 335  273 345 396  494 345 396  395 396 417  494 396 417  174 294 342  293 294 342  245 456 457  239 456 457  170 410 70  68 410 70  231 69 233  68 69 233  460 226 518  460 379 518  220 495 169  219 220 169  </DataArray>
<DataArray  type="UInt32"  Name="offsets"  format="ascii">3 6 9 12 15 18 21 24 27 30 33 36 39 42 45 48 51 54 57 60 63 66 69 72 75 78 81 84 87 90 93 96 99 102 105 108 111 114 117 120 123 126 129 132 135 138 141 144 147 150 153 156 159 162 165 168 171 174 177 180 183 186 189 192 195 198 201 204 207 210 213 216 219 222 225 228 231 234 237 240 243 246 249 252 255 258 261 264 267 270 273 276 279 282 285 288 291 294 297 300 303 306 309 312 315 318 321 324 327 330 333 336 339 342 345 348 351 354 357 360 363 366 369 372 375 378 381 384 387 390 393 396 399 402 405 408 411 414 417 420 423 426 429 432 435 438 441 444 447 450 453 456 459 462 465 468 471 474 477 480 483 486 489 492 495 498 501 504 507 510 513 516 519 522 525 528 531 534 537 540 543 546 549 552 555 558 561 564 567 570 573 576 579 582 585 588 591 594 597 600 603 606 609 612 615 618 621 624 627 630 633 636 639 642 645 648 651 654 657 660 663 666 669 672 675 678 681 684 687 690 693 696 699 702 705 708 711 714 717 720 723 726 729 732 735 738 741 744 747 750 753 756 759 762 765 768 771 774 777 780 783 786 789 792 795 798 801 804 807 810 813 816 819 822 825 828 831 834 837 840 843 846 849 852 855 858 861 864 867 870 873 876 879 882 885 888 891 894 897 900 903 906 909 912 915 918 921 924 927 930 933 936 939 942 945 948 951 954 957 960 963 966 969 972 975 978 981 984 987 990 993 996 999 1002 1005 1008 1011 1014 1017 1020 1023 1026 1029 1032 1035 1038 1041 1044 1047 1050 1053 1056 1059 1062 1065 1068 1071 1074 1077 1080 1083 1086 1089 1092 1095 1098 1101 1104 1107 1110 1113 1116 1119 1122 1125 1128 1131 1134 1137 1140 1143 1146 1149 1152 1155 1158 1161 1164 1167 1170 1173 1176 1179 1182 1185 1188 1191 1194 1197 1200 1203 1206 1209 1212 1215 1218 1221 1224 1227 1230 1233 1236 1239 1242 1245 1248 1251 1254 1257 1260 1263 1266 1269 1272 1275 1278 1281 1284 1287 1290 1293 1296 1299 1302 1305 1308 1311 1314 1317 1320 1323 1326 1329 1332 1335 1338 1341 1344 1347 1350 1353 1356 1359 1362 1365 1368 1371 1374 1377 1380 1383 1386 1389 1392 1395 1398 1401 1404 1407 1410 1413 1416 1419 1422 1425 1428 1431 1434 1437 1440 1443 1446 1449 1452 1455 1458 1461 1464 1467 1470 1473 1476 1479 1482 1485 1488 1491 1494 1497 1500 1503 1506 1509 1512 1515 1518 1521 1524 1527 1530 1533 1536 1539 1542 1545 1548 1551 1554 1557 1560 1563 1566 1569 1572 1575 1578 1581 1584 1587 1590 1593 1596 1599 1602 1605 1608 1611 1614 1617 1620 1623 1626 1629 1632 1635 1638 1641 1644 1647 1650 1653 1656 1659 1662 1665 1668 1671 1674 1677 1680 1683 1686 1689 1692 1695 1698 1701 1704 1707 1710 1713 1716 1719 1722 1725 1728 1731 1734 1737 1740 1743 1746 1749 1752 1755 1758 1761 1764 1767 1770 1773 1776 1779 1782 1785 1788 1791 1794 1797 1800 1803 1806 1809 1812 1815 1818 1821 1824 1827 1830 1833 1836 1839 1842 1845 1848 1851 1854 1857 1860 1863 1866 1869 1872 1875 1878 1881 1884 1887 1890 1893 1896 1899 1902 1905 1908 1911 1914 1917 1920 1923 1926 1929 1932 1935 1938 1941 1944 1947 1950 1953 1956 1959 1962 1965 1968 1971 1974 1977 1980 1983 1986 1989 1992 1995 1998 2001 2004 2007 2010 2013 2016 2019 2022 2025 2028 2031 2034 2037 2040 2043 2046 2049 2052 2055 2058 2061 2064 2067 2070 2073 2076 2079 2082 2085 2088 2091 2094 2097 2100 2103 2106 2109 2112 2115 2118 2121 2124 2127 2130 2133 2136 2139 2142 2145 2148 2151 2154 2157 2160 2163 2166 2169 2172 2175 2178 2181 2184 2187 2190 2193 2196 2199 2202 2205 2208 2211 2214 2217 2220 2223 2226 2229 2232 2235 2238 2241 2244 2247 2250 2253 2256 2259 2262 2265 2268 2271 2274 2277 2280 2283 2286 2289 2292 2295 2298 2301 2304 2307 2310 2313 2316 2319 2322 2325 2328 2331 2334 2337 2340 2343 2346 2349 2352 2355 2358 2361 2364 2367 2370 2373 2376 2379 2382 2385 2388 2391 2394 2397 2400 2403 2406 2409 2412 2415 2418 2421 2424 2427 2430 2433 2436 2439 2442 2445 2448 2451 2454 2457 2460 2463 2466 2469 2472 2475 2478 2481 2484 2487 2490 2493 2496 2499 2502 2505 2508 2511 2514 2517 2520 2523 2526 2529 2532 2535 2538 2541 2544 2547 2550 2553 2556 2559 2562 2565 2568 2571 2574 2577 2580 2583 2586 2589 2592 2595 2598 2601 2604 2607 2610 2613 2616 2619 2622 2625 2628 2631 2634 2637 2640 2643 2646 2649 2652 2655 2658 2661 2664 2667 2670 2673 2676 2679 2682 2685 2688 2691 2694 2697 2700 2703 2706 2709 2712 2715 2718 2721 2724 2727 2730 2733 2736 2739 2742 2745 2748 2751 2754 2757 2760 2763 2766 2769 2772 2775 2778 2781 2784 2787 2790 2793 2796 2799 2802 2805 2808 2811 2814 2817 2820 2823 2826 2829 2832 2835 2838 2841 2844 2847 2850 2853 2856 2859 2862 2865 2868 2871 2874 2877 2880 2883 2886 2889 2892 2895 2898 2901 2904 2907 2910 2913 </DataArray>
<DataArray  type="UInt8"  Name="types"  format="ascii">5 5 5 5 5 5 5 5 5 5 5 5 5 5 5 5 5 5 5 5 5 5 5 5 5 5 5 5 5 5 5 5 5 5 5 5 5 5 5 5 5 5 5 5 5 5 5 5 5 5 5 5 5 5 5 5 5 5 5 5 5 5 5 5 5 5 5 5 5 5 5 5 5 5 5 5 5 5 5 5 5 5 5 5 5 5 5 5 5 5 5 5 5 5 5 5 5 5 5 5 5 5 5 5 5 5 5 5 5 5 5 5 5 5 5 5 5 5 5 5 5 5 5 5 5 5 5 5 5 5 5 5 5 5 5 5 5 5 5 5 5 5 5 5 5 5 5 5 5 5 5 5 5 5 5 5 5 5 5 5 5 5 5 5 5 5 5 5 5 5 5 5 5 5 5 5 5 5 5 5 5 5 5 5 5 5 5 5 5 5 5 5 5 5 5 5 5 5 5 5 5 5 5 5 5 5 5 5 5 5 5 5 5 5 5 5 5 5 5 5 5 5 5 5 5 5 5 5 5 5 5 5 5 5 5 5 5 5 5 5 5 5 5 5 5 5 5 5 5 5 5 5 5 5 5 5 5 5 5 5 5 5 5 5 5 5 5 5 5 5 5 5 5 5 5 5 5 5 5 5 5 5 5 5 5 5 5 5 5 5 5 5 5 5 5 5 5 5 5 5 5 5 5 5 5 5 5 5 5 5 5 5 5 5 5 5 5 5 5 5 5 5 5 5 5 5 5 5 5 5 5 5 5 5 5 5 5 5 5 5 5 5 5 5 5 5 5 5 5 5 5 5 5 5 5 5 5 5 5 5 5 5 5 5 5 5 5 5 5 5 5 5 5 5 5 5 5 5 5 5 5 5 5 5 5 5 5 5 5 5 5 5 5 5 5 5 5 5 5 5 5 5 5 5 5 5 5 5 5 5 5 5 5 5 5 5 5 5 5 5 5 5 5 5 5 5 5 5 5 5 5 5 5 5 5 5 5 5 5 5 5 5 5 5 5 5 5 5 5 5 5 5 5 5 5 5 5 5 5 5 5 5 5 5 5 5 5 5 5 5 5 5 5 5 5 5 5 5 5 5 5 5 5 5 5 5 5 5 5 5 5 5 5 5 5 5 5 5 5 5 5 5 5 5 5 5 5 5 5 5 5 5 5 5 5 5 5 5 5 5 5 5 5 5 5 5 5 5 5 5 5 5 5 5 5 5 5 5 5 5 5 5 5 5 5 5 5 5 5 5 5 5 5 5 5 5 5 5 5 5 5 5 5 5 5 5 5 5 5 5 5 5 5 5 5 5 5 5 5 5 5 5 5 5 5 5 5 5 5 5 5 5 5 5 5 5 5 5 5 5 5 5 5 5 5 5 5 5 5 5 5 5 5 5 5 5 5 5 5 5 5 5 5 5 5 5 5 5 5 5 5 5 5 5 5 5 5 5 5 5 5 5 5 5 5 5 5 5 5 5 5 5 5 5 5 5 5 5 5 5 5 5 5 5 5 5 5 5 5 5 5 5 5 5 5 5 5 5 5 5 5 5 5 5 5 5 5 5 5 5 5 5 5 5 5 5 5 5 5 5 5 5 5 5 5 5 5 5 5 5 5 5 5 5 5 5 5 5 5 5 5 5 5 5 5 5 5 5 5 5 5 5 5 5 5 5 5 5 5 5 5 5 5 5 5 5 5 5 5 5 5 5 5 5 5 5 5 5 5 5 5 5 5 5 5 5 5 5 5 5 5 5 5 5 5 5 5 5 5 5 5 5 5 5 5 5 5 5 5 5 5 5 5 5 5 5 5 5 5 5 5 5 5 5 5 5 5 5 5 5 5 5 5 5 5 5 5 5 5 5 5 5 5 5 5 5 5 5 5 5 5 5 5 5 5 5 5 5 5 5 5 5 5 5 5 5 5 5 5 5 5 5 5 5 5 5 5 5 5 5 5 5 5 5 5 5 5 5 5 5 5 5 5 5 5 5 5 5 5 5 5 5 5 5 5 5 5 5 5 5 5 5 5 5 5 5 5 5 5 5 5 5 5 5 5 5 5 5 5 5 5 5 5 5 5 5 5 5 5 5 5 5 5 5 5 5 5 5 5 5 5 5 5 5 5 5 5 5 5 5 5 5 5 5 5 5 5 5 5 5 5 5 5 5 5 5 5 5 5 5 5 5 5 5 5 5 5 5 5 5 5 </DataArray>
</Cells>
<PointData  Scalars=" mean stress"> 
<DataArray  type="Float64"  Name=" mean stress"  format="ascii">6.6609195401208534e+09  6.6609195403209085e+09  6.6609195401008272e+09  6.6609195403780918e+09  6.6609195400817490e+09  6.6609195402619257e+09  6.6609195401672478e+09  6.6609195400406504e+09  6.6609195402259064e+09  6.6609195403847427e+09  6.6609195403367243e+09  6.6609195401424580e+09  6.6609195403975115e+09  6.6609195404546747e+09  6.6609195401567278e+09  6.6609195402854338e+09  6.6609195402827511e+09  6.6609195402987528e+09  6.6609195404988594e+09  6.6609195405406170e+09  6.6609195401229172e+09  6.6609195408973761e+09  6.6609195411024895e+09  6.6609195405914869e+09  6.6609195403459435e+09  6.6609195404303675e+09  6.6609195402698641e+09  6.6609195400282917e+09  6.6609195402881498e+09  6.6609195403321581e+09  6.6609195402520380e+09  6.6609195402990427e+09  6.6609195404496851e+09  6.6609195405990925e+09  6.6609195399480171e+09  6.6609195396219244e+09  6.6609195400136976e+09  6.6609195399919548e+09  6.6609195400676069e+09  6.6609195403461418e+09  6.6609195404561481e+09  6.6609195405800581e+09  6.6609195400884056e+09  6.6609195403726234e+09  6.6609195403586359e+09  6.6609195396608524e+09  6.6609195404196854e+09  6.6609195391315985e+09  6.6609195399027662e+09  6.6609195409016562e+09  6.6609195405797901e+09  6.6609195406056681e+09  6.6609195407491817e+09  6.6609195409536657e+09  6.6609195396791916e+09  6.6609195408911161e+09  6.6609195401842537e+09  6.6609195424958591e+09  6.6609195405717592e+09  6.6609195402432604e+09  6.6609195402096815e+09  6.6609195400720921e+09  6.6609195397941875e+09  6.6609195405635147e+09  6.6609195402939157e+09  6.6609195403340597e+09  6.6609195401070175e+09  6.6609195398954592e+09  6.6609195407302837e+09  6.6609195397742481e+09  6.6609195401388712e+09  6.6609195406612844e+09  6.6609195407153120e+09  6.6609195402519865e+09  6.6609195399541111e+09  6.6609195403093491e+09  6.6609195407432356e+09  6.6609195404750614e+09  6.6609195401259842e+09  6.6609195389551897e+09  6.6609195408867369e+09  6.6609195407657089e+09  6.6609195400630884e+09  6.6609195397904644e+09  6.6609195399909773e+09  6.6609195402317905e+09  6.6609195403913288e+09  6.6609195397036190e+09  6.6609195399505272e+09  6.6609195396507988e+09  6.6609195399428034e+09  6.6609195401933193e+09  6.6609195401372719e+09  6.6609195402513933e+09  6.6609195406199331e+09  6.6609195402942028e+09  6.6609195402903976e+09  6.6609195401669750e+09  6.6609195403190241e+09  6.6609195404976215e+09  6.6609195402499647e+09  6.6609195403777275e+09  6.6609195402615786e+09  6.6609195402254524e+09  6.6609195403358107e+09  6.6609195402851954e+09  6.6609195404694138e+09  6.6609195409650021e+09  6.6609195408783102e+09  6.6609195400998182e+09  6.6609195399925833e+09  6.6609195399860172e+09  6.6609195402528343e+09  6.6609195402302637e+09  6.6609195396908484e+09  6.6609195402575922e+09  6.6609195402758493e+09  6.6609195402576694e+09  6.6609195405195322e+09  6.6609195403594255e+09  6.6609195398752317e+09  6.6609195403534403e+09  6.6609195409520187e+09  6.6609195399463682e+09  6.6609195403041410e+09  6.6609195401514215e+09  6.6609195403159113e+09  6.6609195403633242e+09  6.6609195404344368e+09  6.6609195400971041e+09  6.6609195403848562e+09  6.6609195405506239e+09  6.6609195404030504e+09  6.6609195407846088e+09  6.6609195400661497e+09  6.6609195402425680e+09  6.6609195405807533e+09  6.6609195402062788e+09  6.6609195403704910e+09  6.6609195403983765e+09  6.6609195401989536e+09  6.6609195401748953e+09  6.6609195401753006e+09  6.6609195397922974e+09  6.6609195398772984e+09  6.6609195402013178e+09  6.6609195399130220e+09  6.6609195405706530e+09  6.6609195401534672e+09  6.6609195400739775e+09  6.6609195402643299e+09  6.6609195404492922e+09  6.6609195402050610e+09  6.6609195402389488e+09  6.6609195402742071e+09  6.6609195401660290e+09  6.6609195402075682e+09  6.6609195407155056e+09  6.6609195403925190e+09  6.6609195400571680e+09  6.6609195404899120e+09  6.6609195379402847e+09  6.6609195384627724e+09  6.6609195380229073e+09  6.6609195411222067e+09  6.6609195402620001e+09  6.6609195395403099e+09  6.6609195402811260e+09  6.6609195399662914e+09  6.6609195402912445e+09  6.6609195405910006e+09  6.6609195397619171e+09  6.6609195407269859e+09  6.6609195404190502e+09  6.6609195397328587e+09  6.6609195400668917e+09  6.6609195403189354e+09  6.6609195408115530e+09  6.6609195401405420e+09  6.6609195402918634e+09  6.6609195402609644e+09  6.6609195398561840e+09  6.6609195403672304e+09  6.6609195402348347e+09  6.6609195404364367e+09  6.6609195401379585e+09  6.6609195396764669e+09  6.6609195402594137e+09  6.6609195406321182e+09  6.6609195399879856e+09  6.6609195401834946e+09  6.6609195403219604e+09  6.6609195404382229e+09  6.6609195401196871e+09  6.6609195402675238e+09  6.6609195400370102e+09  6.6609195404013214e+09  6.6609195401821909e+09  6.6609195403408375e+09  6.6609195400447950e+09  6.6609195405610952e+09  6.6609195402746849e+09  6.6609195398757362e+09  6.6609195401246777e+09  6.6609195401325321e+09  6.6609195416181555e+09  6.6609195406534424e+09  6.6609195403470974e+09  6.6609195401169605e+09  6.6609195403443298e+09  6.6609195399890833e+09  6.6609195398816328e+09  6.6609195429893570e+09  6.6609195400961342e+09  6.6609195402227221e+09  6.6609195400791397e+09  6.6609195391059408e+09  6.6609195411713276e+09  6.6609195403228331e+09  6.6609195403826838e+09  6.6609195402709389e+09  6.6609195403987341e+09  6.6609195400249624e+09  6.6609195402495022e+09  6.6609195404502354e+09  6.6609195399130526e+09  6.6609195404472246e+09  6.6609195403947468e+09  6.6609195400648289e+09  6.6609195402666349e+09  6.6609195399616070e+09  6.6609195401769199e+09  6.6609195405833549e+09  6.6609195404225140e+09  6.6609195401984005e+09  6.6609195406519299e+09  6.6609195405815630e+09  6.6609195405058928e+09  6.6609195402865429e+09  6.6609195406008720e+09  6.6609195405017338e+09  6.6609195403642988e+09  6.6609195394574108e+09  6.6609195400229721e+09  6.6609195403433638e+09  6.6609195405927048e+09  6.6609195401169167e+09  6.6609195403917179e+09  6.6609195400624409e+09  6.6609195403124638e+09  6.6609195401002274e+09  6.6609195401741781e+09  6.6609195402083626e+09  6.6609195401748161e+09  6.6609195403009787e+09  6.6609195409045324e+09  6.6609195406004572e+09  6.6609195398881321e+09  6.6609195404370937e+09  6.6609195402382612e+09  6.6609195401041975e+09  6.6609195411071310e+09  6.6609195389777813e+09  6.6609195404477901e+09  6.6609195403577795e+09  6.6609195403668365e+09  6.6609195400699530e+09  6.6609195401408930e+09  6.6609195402994461e+09  6.6609195402823553e+09  6.6609195402623987e+09  6.6609195403102713e+09  6.6609195402660046e+09  6.6609195404140444e+09  6.6609195400320730e+09  6.6609195404759312e+09  6.6609195381039219e+09  6.6609195401234226e+09  6.6609195400002699e+09  6.6609195403656063e+09  6.6609195404014349e+09  6.6609195396692514e+09  6.6609195401703644e+09  6.6609195404795914e+09  6.6609195402682104e+09  6.6609195405429010e+09  6.6609195402413321e+09  6.6609195402910891e+09  6.6609195398712254e+09  6.6609195400411148e+09  6.6609195403052301e+09  6.6609195401373911e+09  6.6609195402159672e+09  6.6609195403962831e+09  6.6609195403053570e+09  6.6609195399917307e+09  6.6609195401045408e+09  6.6609195404739161e+09  6.6609195402945166e+09  6.6609195403455410e+09  6.6609195403916941e+09  6.6609195402844267e+09  6.6609195402180185e+09  6.6609195404837437e+09  6.6609195403233232e+09  6.6609195402898846e+09  6.6609195400725765e+09  6.6609195401873016e+09  6.6609195392602520e+09  6.6609195423549194e+09  6.6609195395121956e+09  6.6609195403804369e+09  6.6609195403660593e+09  6.6609195404351692e+09  6.6609195402527609e+09  6.6609195399747667e+09  6.6609195402422266e+09  6.6609195402100649e+09  6.6609195402826319e+09  6.6609195400545063e+09  6.6609195401455803e+09  6.6609195402615948e+09  6.6609195398845949e+09  6.6609195402069616e+09  6.6609195401649323e+09  6.6609195396187258e+09  6.6609195398660297e+09  6.6609195398485174e+09  6.6609195398857527e+09  6.6609195414415588e+09  6.6609195419781532e+09  6.6609195393591270e+09  6.6609195408183689e+09  6.6609195405404234e+09  6.6609195398405647e+09  6.6609195401651583e+09  6.6609195401020041e+09  6.6609195404510641e+09  6.6609195399581594e+09  6.6609195400478821e+09  6.6609195383252935e+09  6.6609195400083752e+09  6.6609195406538687e+09  6.6609195406163435e+09  6.6609195400114965e+09  6.6609195396628351e+09  6.6609195401394157e+09  6.6609195402469921e+09  6.6609195401994944e+09  6.6609195402810698e+09  6.6609195401990089e+09  6.6609195400763931e+09  6.6609195402060375e+09  6.6609195402162027e+09  6.6609195402060623e+09  6.6609195402657738e+09  6.6609195403042574e+09  6.6609195403175116e+09  6.6609195399638834e+09  6.6609195406147585e+09  6.6609195402860689e+09  6.6609195396268473e+09  6.6609195409833269e+09  6.6609195400330048e+09  6.6609195401813288e+09  6.6609195403443384e+09  6.6609195404201164e+09  6.6609195402676277e+09  6.6609195400903759e+09  6.6609195402501869e+09  6.6609195403234844e+09  6.6609195401456223e+09  6.6609195399921608e+09  6.6609195400541077e+09  6.6609195402176170e+09  6.6609195411303587e+09  6.6609195402720146e+09  6.6609195403091249e+09  6.6609195402602224e+09  6.6609195402049809e+09  6.6609195405431633e+09  6.6609195403284683e+09  6.6609195399526358e+09  6.6609195401988459e+09  6.6609195403323765e+09  6.6609195406790791e+09  6.6609195397361317e+09  6.6609195401256638e+09  6.6609195400091610e+09  6.6609195386892958e+09  6.6609195405747261e+09  6.6609195399872761e+09  6.6609195402115002e+09  6.6609195417151709e+09  6.6609195406107473e+09  6.6609195406714411e+09  6.6609195400221062e+09  6.6609195406310863e+09  6.6609195403595829e+09  6.6609195404048452e+09  6.6609195402874956e+09  6.6609195404364443e+09  6.6609195402483482e+09  6.6609195402220373e+09  6.6609195402171803e+09  6.6609195395170488e+09  6.6609195406263304e+09  6.6609195407805271e+09  6.6609195407658882e+09  6.6609195398115358e+09  6.6609195404735746e+09  6.6609195404047642e+09  6.6609195403947830e+09  6.6609195406541204e+09  6.6609195416227150e+09  6.6609195401774502e+09  6.6609195404610844e+09  6.6609195403826256e+09  6.6609195401154737e+09  6.6609195405821362e+09  6.6609195399975901e+09  6.6609195401956043e+09  6.6609195398979158e+09  6.6609195404786396e+09  6.6609195405368443e+09  6.6609195400896406e+09  6.6609195402341890e+09  6.6609195404300947e+09  6.6609195397285652e+09  6.6609195401786985e+09  6.6609195402735510e+09  6.6609195397419901e+09  6.6609195400777760e+09  6.6609195411814375e+09  6.6609195403180218e+09  6.6609195402394514e+09  6.6609195401547689e+09  6.6609195402845793e+09  6.6609195403477831e+09  6.6609195403181868e+09  6.6609195401569147e+09  6.6609195404121857e+09  6.6609195408242531e+09  6.6609195426869545e+09  6.6609195403901529e+09  6.6609195402070627e+09  6.6609195401499615e+09  6.6609195395297918e+09  6.6609195402953014e+09  6.6609195401833735e+09  6.6609195401144428e+09  6.6609195401549625e+09  6.6609195402167311e+09  6.6609195400464993e+09  6.6609195413673201e+09  6.6609195395729923e+09  6.6609195402607746e+09  6.6609195400060654e+09  6.6609195402482786e+09  6.6609195397617626e+09  6.6609195398383217e+09  6.6609195401819592e+09  6.6609195404525051e+09  6.6609195402097874e+09  6.6609195402623310e+09  6.6609195402178965e+09  6.6609195402890091e+09  6.6609195401953087e+09  6.6609195404456730e+09  6.6609195399558601e+09  6.6609195403488550e+09  6.6609195409444427e+09  6.6609195408564587e+09  6.6609195394150038e+09  6.6609195400334435e+09  6.6609195402903328e+09  6.6609195402128963e+09  6.6609195401346760e+09  6.6609195401485233e+09  6.6609195401934090e+09  6.6609195403297882e+09  6.6609195412951069e+09  6.6609195402133627e+09  6.6609195403185263e+09  6.6609195397210999e+09  6.6609195404706879e+09  6.6609195411493435e+09  6.6609195402530947e+09  6.6609195409274979e+09  6.6609195398409691e+09  6.6609195403171177e+09  6.6609195398236132e+09  6.6609195402826538e+09  6.6609195401128941e+09  6.6609195403593092e+09  6.6609195401130133e+09  6.6609195403455210e+09  6.6609195400175066e+09  6.6609195402906151e+09  6.6609195397279139e+09  6.6609195403231468e+09  6.6609195401343136e+09  6.6609195402275248e+09  6.6609195401495419e+09  6.6609195402248602e+09  6.6609195405227127e+09  6.6609195402641993e+09  6.6609195404036293e+09  6.6609195403201294e+09  6.6609195388918781e+09  6.6609195404051304e+09  6.6609195402880411e+09  6.6609195404361143e+09  6.6609195396809721e+09  6.6609195402944412e+09  6.6609195401907911e+09  6.6609195400261879e+09  6.6609195398591499e+09  6.6609195401191502e+09  6.6609195402668953e+09  6.6609195402799520e+09  6.6609195402314014e+09  6.6609195401931238e+09  6.6609195402070589e+09  6.6609195402738743e+09  6.6609195398029242e+09  6.6609195401155758e+09  </DataArray> 
</PointData> 
</Piece>
</UnstructuredGrid>
</VTKFile>