<?xml version="1.0"?>
<VTKFile type="UnstructuredGrid"  version="0.1"  >
<UnstructuredGrid>
<Piece  NumberOfPoints="842" NumberOfCells="1558">
<Points>
<DataArray  type="Float64"  NumberOfComponents="3"  format="ascii">-0.0276663799715744 -0.01092484037076335 0  -0.02564535436017864 -0.01084511294647212 0  -0.02670367363770539 -0.009673121330096374 0  -0.005263160237910004 -0.02021752904783427 0  -0.007142011617282996 -0.01910283839912953 0  -0.005721283706472954 -0.01885557948612299 0  -0.0281698471591208 -0.02275267842199816 0  -0.02903513146439706 -0.02434883282751898 0  -0.02995923345153408 -0.02281962011159115 0  -0.02194671231853508 -0.02685161179016307 0  -0.01998381313981156 -0.02559788065223443 0  -0.02251591588925926 -0.02534187964809537 0  -0.01232728691104433 -0.02110916578981165 0  -0.01088465027479771 -0.02276583133720164 0  -0.01252602534445095 -0.02273869080129673 0  0.005715900577929808 -0.01040157292959515 0  0.004247300133094481 -0.009831459016042156 0  0.004907604482269278 -0.01163228449796421 0  -0.03410210568064787 -0.008693516596393575 0  -0.03379801363784417 -0.0103885645650361 0  -0.03562726343960552 -0.009426495186475627 0  0.006078421240027776 -0.01533115251916825 0  0.007761962215727216 -0.01436391407193771 0  0.007560746450350726 -0.01596246015309179 0  -7.74643124966494e-05 -0.01210497681433211 0  0.002001407188016981 -0.01282170755437008 0  0.0005044285752298626 -0.01379044141987053 0  -0.00554502207324609 -0.01082482616207859 0  -0.006966384852671079 -0.01037459975243556 0  -0.007325780537656768 -0.01169056999739311 0  0.0002817996959115863 -0.02849048409288438 0  -0.000521210781477624 -0.03017876919236858 0  -0.001093500833290798 -0.02871309477119382 0  -0.03855671686840088 -0.01158279252224793 0  -0.03682332408031391 -0.01225302138555511 0  -0.0368905664630186 -0.01067239776272578 0  -0.03477498087981482 -0.02000619738968918 0  -0.03576754543181598 -0.02199302756157714 0  -0.0368712770501877 -0.02020029047180321 0  -0.04703432812742372 -0.02574389618985774 0  -0.04510990978682888 -0.02604639913600089 0  -0.04632952237384835 -0.02712048465619426 0  -0.002527586879520364 -0.00629891729928651 0  -0.0001503063646937945 -0.006276275587524281 0  -0.001326895479615754 -0.004595719664517121 0  -0.0391644784367541 -0.01475132581728818 0  -0.03830472500445715 -0.01681657123351652 0  -0.03747211747330889 -0.01525838136698858 0  -0.04075246902758298 -0.009218971500852071 0  -0.0390524324035903 -0.007885807867200442 0  -0.03901033695063318 -0.009802432939280079 0  0.003472222222222224 -0.02569444444444444 0  0.0056511112593847 -0.02488019662884799 0  0.003895180821987836 -0.0236393607118779 0  -0.008984816994941665 -0.02386872512578754 0  -0.01047523617110418 -0.02424834223494819 0  -0.008755951219614224 -0.02540612226970509 0  -0.02607827560230913 -0.005825920664671352 0  -0.02366594197767203 -0.005292891736900223 0  -0.0244176916399364 -0.007091582381241824 0  -0.02367778516049199 -0.03017364301424246 0  -0.02386650680183691 -0.02796326546759065 0  -0.02530794991191344 -0.02877131804044909 0  -0.01141704038127351 -0.0167818866184824 0  -0.01018001736303466 -0.01731677346741527 0  -0.01092651995755553 -0.01555498543504074 0  0.001146640918992101 -0.03102340112947342 0  0.002374909778313783 -0.03024414641598028 0  0.0007456373584565139 -0.02974621554810341 0  -0.04340535430000796 -0.0269894710178804 0  -0.04155359187777521 -0.02721283122394998 0  -0.04292416821868097 -0.02527853614675298 0  -0.0359068175526368 -0.02378498890761314 0  -0.0344744899149291 -0.02368696530563707 0  -0.03869629983246461 -0.02993079031598002 0  -0.04001755749432813 -0.03154569960410863 0  -0.03773880776055265 -0.03135466038045543 0  -0.01519286889167067 -0.02524713998052752 0  -0.01372769770201255 -0.02474768454376013 0  -0.01539547060946176 -0.02382892795598995 0  -0.01339366522435274 -0.01536013878562232 0  -0.01394780381623048 -0.01383273374796204 0  -0.01490915618241073 -0.01544996258508927 0  -0.02045411777499171 -0.02137437814389278 0  -0.01808827066958148 -0.02161702253189069 0  -0.01944913613402156 -0.02323068114780422 0  -0.02083333333333333 -0.02916666666666667 0  -0.01996045286964509 -0.02732161636951317 0  -0.01948607568027211 -0.02870451566043084 0  7.979462213787225e-05 -0.02582162422291141 0  -0.0009137538293355649 -0.02723890034088429 0  -0.001688252126561377 -0.02596267815987898 0  -0.02992158084177625 -0.03174834582032531 0  -0.03167994964754182 -0.03258206454415181 0  -0.03225438180362809 -0.03107962040142952 0  -0.0332818926824345 -0.03653956979812621 0  -0.03199324472616771 -0.03821759015296883 0  -0.03208329558284936 -0.0356823713947898 0  -0.04681050916597652 -0.03624892877251493 0  -0.04845991064854558 -0.03673512378254998 0  -0.04871075467533732 -0.03533381496454418 0  -0.01532173405145471 -0.01057512148167935 0  -0.01329391795258302 -0.01114439183113224 0  -0.01330341998558062 -0.00913423680360549 0  -0.007685836574511986 -0.007395433330292244 0  -0.009035679641316699 -0.005678099849451732 0  -0.009317707561007742 -0.00723817591573791 0  -0.001242692848311552 -0.02453787375321078 0  0.0002330144247192046 -0.02434070912065012 0  -0.02842807177184132 -0.008782837269883144 0  -0.02944926228062005 -0.009670420328744092 0  -0.01885631351121119 -0.01192416515989788 0  -0.01691676593555981 -0.01170096973318147 0  -0.01773829605562014 -0.01310079118234815 0  0.004614118426858764 -0.003565458483726032 0  0.002509334680925278 -0.004358807632452355 0  0.002343081211279474 -0.002873718352678741 0  -0.0256811132162094 -0.01574526990493712 0  -0.02690767244945899 -0.01528906187458992 0  -0.02622650184931827 -0.01695490013392893 0  -0.0389700769880035 -0.02479351460937479 0  -0.04037085504457759 -0.02357245548155283 0  -0.03967306021942603 -0.02235634449025938 0  0.003888413565608712 -0.01876506087328944 0  0.004891551310597494 -0.02075766768178287 0  0.00544129398496433 -0.01923210266410404 0  0.003071894030292726 -0.02042492932582908 0  0.002062167648373497 -0.0188974618762693 0  -0.0057072681558855 -0.02389109188241274 0  -0.007219239710984426 -0.02563954733366955 0  -0.007346103689937933 -0.02388886401972043 0  -0.004305627510404235 -0.01860920323802679 0  -0.003838294149787177 -0.01997663600034633 0  -0.04002020625879645 -0.03599772838717169 0  -0.04003280620145459 -0.03837589288876646 0  -0.04154988470785092 -0.03717873950518868 0  -0.0225476961674239 -0.01444132597291705 0  -0.02025701458283329 -0.01494682055541054 0  -0.0216061340761294 -0.01561750970419796 0  -0.02829648461666062 -0.01956624970699918 0  -0.02707115965843617 -0.02111328273495852 0  -0.0292085379373125 -0.02119822803744204 0  -0.04728154767137447 -0.006405108493471457 0  -0.04604470251786473 -0.007179652518545553 0  -0.0465402423867751 -0.005257825588374055 0  -0.046875 0 0  -0.04531250000000001 -0.001756154364948668 0  -0.04771549300742191 -0.002284506992578096 0  -0.0009083904135866786 -0.008529558496548306 0  0.000950029780725288 -0.009981924865605908 0  0.0008390356868680526 -0.007863289832610657 0  -0.0078125 -0.001818766801925782 0  -0.009005249798019331 -0.003220453989580621 0  -0.006849416828355778 -0.002880654960679921 0  -0.02769414424234968 -0.004535329022474685 0  -0.02757189723697045 -0.007051096417690477 0  -0.0448635495855776 -0.02761310087595703 0  -0.03862197093400277 -0.01903101690089815 0  -0.040801568013976 -0.01930730968599865 0  -0.04009200278840774 -0.02061118635583271 0  -0.04746877202505475 -0.0109375 0  -0.04625552207057551 -0.01250248254200394 0  -0.04822282986172321 -0.01254746375338932 0  -0.005471962873640671 -0.002483469538180225 0  -0.004703752454419383 -0.003891541969087049 0  -0.006032357434950986 -0.00440111221351207 0  0.015625 0 0  0.0140625 0 0  0.01388737105418562 -0.001431809280784936 0  -0.01181095915764366 -0.02754518578663798 0  -0.01362705441163126 -0.02658032522347269 0  -0.0131583949593131 -0.02788978773038426 0  -0.01813881802721089 -0.02824236465419501 0  -0.01783316571178066 -0.02961095015928098 0  -0.008680555555555554 -0.02743055555555555 0  -0.01019665171916844 -0.02882888222490615 0  -0.01030008360592415 -0.02730207136590873 0  -0.002966181741115359 -0.02519100039815357 0  -0.003650638982939926 -0.02687347943237787 0  -0.004763226258762934 -0.02544039938959696 0  -0.00733492014463835 -0.0222500651304849 0  -0.005550790196063865 -0.02199648679170341 0  0.001807424563025037 -0.0170842299175074 0  -8.496028144727461e-05 -0.0173220879651638 0  0.001003955519332805 -0.01812162078302066 0  0.001645105436913761 -0.01133910380044415 0  -0.02782210082246164 -0.01245307863511379 0  -0.0272180192319855 -0.01366321175396599 0  -0.02859666188170644 -0.01347995636094129 0  -0.03001746758328084 -0.01854532903596594 0  -0.02875526836452914 -0.01771333367449953 0  -0.03729550197386729 -0.009143045021487963 0  -0.03106530920251624 -0.021416390819467 0  -0.03121801362079181 -0.02311719699921014 0  -0.02412336947070342 -0.002392407656188244 0  -0.02517425035907583 -0.004044451102670074 0  -0.02553047554310944 -0.001551189984565228 0  -0.04332752203014248 -0.02894861994940035 0  -0.03361300586943999 -0.03280621050224407 0  -0.03504726554755612 -0.03214148367483272 0  -0.03446251600527064 -0.03401240796041776 0  -0.02666093500983432 -0.02972007434472025 0  -0.02825737921890155 -0.03078867343507981 0  -0.02691307433272296 -0.03107019967741321 0  -0.02412288540753498 -0.02548656141284193 0  -0.02502601119571767 -0.02452216257656308 0  -0.02523744315919711 -0.0261723293570944 0  0.007590321611890428 -0.01002544604880517 0  0.009217381127136798 -0.01087786990918838 0  0.008858123610367597 -0.009584568252459222 0  0.01075672523973394 -0.01188005193203498 0  0.008545263046002623 -0.01258731613206785 0  -0.002401366537453123 -0.02012997179630549 0  -0.003768377061401588 -0.02226186400376761 0  -0.001934031832172576 -0.02146311508091197 0  -0.001242172060814776 -0.02269478175693585 0  -0.002687248212944535 -0.02354019374584471 0  -0.008385574756346015 -0.01083162927881422 0  -0.007996120807677542 -0.009276532098770388 0  -0.01023147260782108 -0.01443123903053386 0  -0.008835948295637792 -0.01316721719410174 0  -0.008852249972948254 -0.01455158431259953 0  -0.04762019694207349 -0.0231218850193824 0  -0.04566457203134344 -0.02272656090029997 0  -0.04605347562965131 -0.02436958975054641 0  -0.04756411982093869 -0.02159000899858976 0  -0.04889278085727749 -0.02265625 0  -0.04036203350189881 -0.01094579591837372 0  -0.04181505692021518 -0.01036677395063604 0  -0.03822048816628228 -0.01328983962024257 0  -0.03166372724404084 -0.01505525378141499 0  -0.03127593492966751 -0.01307408980407379 0  -0.02986632085140918 -0.01474451861036615 0  -0.03536697670269791 -0.01109850434249643 0  -0.03406415171902555 -0.005928659632161494 0  -0.03261774360550629 -0.005953524245366938 0  -0.03313265160988142 -0.0046701545840845 0  -0.04333844669364704 -0.006107862111736678 0  -0.04257678346715568 -0.008105058671003218 0  -0.04447621313644466 -0.007362489487204959 0  -0.04564909052553461 -0.008584357303211394 0  -0.01984796859913732 -0.00901576274099024 0  -0.01907715725318373 -0.007386385276204514 0  -0.01843747618518335 -0.008686012893299393 0  -0.02631559818440384 -0.01275343005853439 0  -0.02458990459302169 -0.01395065716999198 0  -0.02487829004685309 -0.01218638405632177 0  -0.04137052725919914 -0.02906901041666667 0  -0.04157264112860838 -0.03078731735395774 0  -0.04020806713746475 -0.03004187567265676 0  -0.03844586027904318 -0.03291807771577562 0  -0.03639972338228237 -0.0329599092271206 0  -0.03687910356713085 -0.03424148953860541 0  -0.02247324583786889 -0.02887580874760357 0  -0.02148159270845475 -0.02805317791791226 0  -0.0182716836734694 -0.0253968253968254 0  -0.01806835033675313 -0.02301448872533239 0  -0.04090785771443327 -0.03342100997892745 0  -0.01796181585190262 -0.01924212927022803 0  -0.02020044675472646 -0.01890101845083367 0  -0.01926025695502624 -0.02024713381527585 0  -0.02366071428571428 -0.01123511904761905 0  -0.02345756199964678 -0.00923983469733608 0  -0.02246330246371705 -0.01048285643388703 0  0.00848679002385368 -0.01728089887285961 0  0.01091258567492647 -0.01676505135253015 0  0.009026629356790904 -0.01591729099564875 0  -0.02139430757469193 -0.0200282627794506 0  -0.0230034100467695 -0.02233564167981593 0  -0.02327872370532284 -0.0204749064822993 0  -0.02190538196966722 -0.02138661489270001 0  -0.01813330739190506 -0.003691897662090158 0  -0.0199626386488226 -0.002100013342932867 0  -0.01999959378111354 -0.003989520896316414 0  -0.021875 -0.003591127891060313 0  0.001825126981212151 -0.008873854041609817 0  0.0004213409092374296 -0.003522267437169826 0  0.001176028743070504 -0.005312707133933157 0  -0.04082208142079698 -0.006646537052201919 0  -0.03879982039184723 -0.006487303773393558 0  -0.0365436926664342 -0.006501489865350806 0  -0.03564867900744088 -0.004722767622760547 0  -0.01475694444444444 -0.0282986111111111 0  -0.01642642207788414 -0.02698023489008025 0  -0.01646505658377557 -0.02930317258289109 0  -0.01571003401360544 -0.02162698412698413 0  -0.01408845238396296 -0.02324234790108795 0  -0.01188581710229441 -0.01464633490369723 0  -0.01330868904470321 -0.01759625043133415 0  -0.01267167922899742 -0.01913869642407766 0  -0.01202683269732114 -0.01796962201129237 0  -0.007808666799817795 -0.01546134924060014 0  -0.005536251248839077 -0.01513289695023397 0  -0.007593318388070634 -0.01416090010898731 0  -0.009529647465935568 -0.008809308805338086 0  -0.03671421586198156 -0.0294983731893489 0  0.00648040877914181 -0.009352850839624468 0  0.009688124777025769 -0.01460836901279954 0  0.01107020214776975 -0.01357625950359936 0  0.009744700986594435 -0.01324271814211144 0  -0.01026658336100219 -0.02577212780879937 0  -0.002375017943413014 -0.02816654106277556 0  0.001823757237959144 -0.02703169908190218 0  0.003833816990584821 -0.02734430907162308 0  -0.01755138658310258 -0.005477581116628571 0  -0.01638685209516281 -0.004140814638998176 0  -0.03761497647442349 -0.02322577938762476 0  -0.03876908435004035 -0.02128458370131371 0  -0.03704033263862392 -0.02554861584328849 0  -0.004350183622882246 -0.01639694235721915 0  -0.00654316002217061 -0.01619168547737489 0  -0.01177978240816797 -0.008333185739452647 0  -0.0125701363740569 -0.007056019738187343 0  -0.007439175550382293 -0.004187299635792556 0  -0.02960733622015939 -0.003750246412287103 0  -0.03175523196736907 -0.004792150768004015 0  -0.03155363217738329 -0.002367874221364132 0  -0.02935822174816368 -0.01244339991380455 0  -0.03101652698842962 -0.01980745021631158 0  -0.02964022809517876 -0.01987041530269869 0  -0.01294084919045685 -0.02926347167427638 0  -0.02724267775469163 -0.03241990581187712 0  -0.02891423868135732 -0.0334089350109479 0  -0.02861488921511187 -0.03209151424578396 0  -0.03428734211158037 -0.01808251094087591 0  -0.03295776174512104 -0.01736311449171945 0  -0.0333123316661581 -0.01909272899764753 0  -0.03084674655915128 -0.02446915141992936 0  -0.03015952910991992 -0.02639768144544637 0  -0.03361434880837894 -0.0225374748249856 0  -0.03385416666666667 -0.01614583333333334 0  -0.03451499445757375 -0.01450331771280894 0  -0.03306739144288311 -0.01466579315969477 0  -0.04624075377196257 -0.02081638694163197 0  -0.04464396094594609 -0.01968662991634726 0  -0.04621128641905836 -0.01875831673142408 0  -0.0216400197722568 -0.009333117454196576 0  -0.02006439337858145 -0.005878278553683848 0  -0.020791625174225 -0.007431524084731622 0  -0.04778346819647576 -0.03425366269966739 0  -0.04537228338474871 -0.03462343755055496 0  -0.04623402623092238 -0.03266401947810209 0  0.003854520584893778 -0.0290332067670757 0  0.005474350329101081 -0.03001705705516488 0  0.005291076006421047 -0.02849341904466964 0  -0.03370152792459298 -0.003409778577081043 0  -0.02937182921728408 -0.006349522416206255 0  -0.0302692893790183 -0.005120529616376613 0  -0.03055120968249959 -0.006937373809057813 0  0.006053289944438661 -0.01773042807326471 0  0.004282681232920034 -0.01651211237411023 0  0.003032066145106093 -0.01476416779425536 0  0.004178238255297291 -0.01291135386657958 0  -0.04821170322178767 -0.02463051227106387 0  0.00625 0 0  0.0078125 0 0  0.00703125 -0.001175802372000723 0  -0.02239389172413698 -0.03214132682270486 0  -0.02197424208088658 -0.03046480421711609 0  -0.02060914736844687 -0.03051412993269515 0  -0.02408549265691805 -0.03162660027399105 0  -0.04635508186673168 -0.01694238793953898 0  -0.04796663619607885 -0.0182714680195197 0  -0.04820027677941566 -0.01634659897675718 0  -0.04292674731182796 -0.01875 0  -0.04457448767839942 -0.01777152058751389 0  -0.04158812558539692 -0.01487336154165913 0  -0.04320994843847752 -0.01446751850770368 0  -0.04211675489099382 -0.0164061822458843 0  -0.03312955241389878 -0.03464469574541818 0  -0.02976397368033737 -0.03461936518311927 0  -0.03038129343677714 -0.03327712895669255 0  -0.008944539808483216 -0.02059134745263918 0  -0.01100290284122577 -0.01912837588863205 0  -0.01064330761876152 -0.02080195221328036 0  -0.03123599720664146 -0.03447675554739401 0  -0.0304082508814452 -0.03681610509109751 0  -0.03792073910259548 -0.03512875999774861 0  -0.01428600846173209 -0.004059351323159661 0  -0.01569679686550565 -0.005773881988907636 0  -0.01417692216719546 -0.005586805683508756 0  -0.01875 0 0  -0.01808197497003387 -0.001785868289311572 0  -0.0171875 0 0  -0.01150511102822935 -0.01003251204941401 0  -0.0160309181864688 -0.008793822399631269 0  -0.01461949846168762 -0.008582078836325667 0  -0.0305878892643003 -0.008939556228085193 0  -0.03022410917305148 -0.01077958489493167 0  -0.002675293189351801 -0.004919969455286762 0  0.002206599034779407 -0.006587679234291101 0  0.01060337250420406 -0.002506624673742543 0  0.009773582291372453 -0.004482055562056157 0  0.009181655266985632 -0.00312519052495794 0  0.01132099150660987 -0.003970058670724109 0  -0.00896333282529301 -0.01789643597649662 0  -0.007382101428181567 -0.0174872678622514 0  -0.008543755100453731 -0.01924103130799657 0  -0.005750218485470361 -0.01741893530621688 0  0.006957413657597817 -0.02883708546514246 0  0.00678080900962949 -0.03053836179834208 0  0.0015625 -0.001599425074949768 0  0.003505598394455356 -0.001934737956776572 0  0 0 0  0.0001176377263277866 -0.002041981213928114 0  -0.001590844727887034 -0.007321945608138822 0  0.003217462687884581 -0.008639296284935039 0  0.005500468959257323 -0.008501963795935558 0  -0.04220478711516608 -0.02032757118767607 0  -0.03953630012200467 -0.02884158461804354 0  -0.03673232558409376 -0.02792157104559268 0  -0.03842694931317334 -0.02624887973508009 0  -0.03792142424906161 -0.02872373302430997 0  -0.03565566940890542 -0.0264385640676824 0  -0.03468865480842657 -0.02510657950910184 0  -0.03266896043129133 -0.02538299297309233 0  0.00930059030542134 -0.01950834559488892 0  0.007949055400741029 -0.01873974565668601 0  0.008466167508586328 -0.02075205170812311 0  0.006970197692047868 -0.01994773160433056 0  0.007361318163702384 -0.02176317693532475 0  0.006045634943659542 -0.02145888557579613 0  -0.0002202596667733563 -0.01541961827374851 0  0.001472917788019082 -0.01542441723502727 0  0.01367471125198932 -0.006003651042213967 0  0.01232546520178956 -0.006910001012341708 0  0.01210204930564997 -0.005132263247924163 0  -0.01292692362820421 -0.00223473894236906 0  -0.01262065131687715 -0.003881341282303994 0  -0.0121952947845805 -0.02452876984126983 0  -0.008973633449642084 -0.022229926236552 0  -0.04485176364161111 -0.03598803294599286 0  -0.04412938176942656 -0.03073784977159298 0  -0.04286401382733235 -0.03143461375862805 0  -0.04158645060515324 -0.03458160004992112 0  -0.03979263298807406 -0.03417183048606735 0  0.007543784155871341 -0.02578379566159266 0  0.005480978277781424 -0.02697059292468355 0  0.007072105158341157 -0.02727616164622629 0  -0.04217226075475772 -0.006806952810689778 0  -0.04122660413319494 -0.007944642912515358 0  0.00625 -0.01223723723723724 0  0.003112335364914031 -0.01092401204266664 0  -0.040625 -0.004080718704877302 0  -0.03909323733667611 -0.003633811855998256 0  -0.03994452724310889 -0.005423464180323599 0  -0.03698335100714727 -0.003245082636280113 0  -0.0356071487834854 -0.00334366424231427 0  -0.01996941165388946 -0.01664836497274012 0  -0.02172461481374172 -0.01711947829784683 0  -0.02515071191829004 -0.02065873579545455 0  -0.02587509997074803 -0.02188240880862579 0  -0.01613086540616071 -0.01376007865120706 0  -0.0244769423482411 -0.01014402952874655 0  -0.01432153683528416 -0.01938947725431363 0  -0.01611522880595989 -0.01866240839646446 0  -0.01488096741424671 -0.01819353293922219 0  -0.01761990217337078 -0.01690365482246271 0  -0.01777860943002203 -0.0155586085644253 0  -0.01916592396313204 -0.01563747755766287 0  -0.001211000384548085 -0.01419183719636728 0  -0.002547470360661643 -0.0150302055800622 0  -0.002066955327357931 -0.01286656187413736 0  -0.01405667584064269 -0.007270525683249959 0  -0.01727537722908093 -0.007335299088771311 0  -0.01575257623961155 -0.007296164175747726 0  -0.0103807328230124 -0.01209070427134797 0  -0.009970530576996947 -0.01053039653316624 0  -0.01186391629123227 -0.01169940708761687 0  -0.006419239975747055 -0.008987657628794282 0  -0.004560476962080258 -0.008160345583815167 0  -0.004106681459255408 -0.009842164957641347 0  -0.01525668726170214 -0.01692779996038899 0  -0.01642429537812841 -0.01554553651723728 0  -0.01729762421782824 -0.01434520389238805 0  0.002058667993639286 -0.02882433183903491 0  0.0004603579899184244 -0.0271348942960017 0  -0.002007622916944294 -0.0313126613245728 0  -0.003579275799392356 -0.02990168269634324 0  -0.002023950642007046 -0.02975004713903992 0  -0.03527603687056981 -0.002004255494177421 0  -0.03754615245660891 -0.001671017036253931 0  -0.0109375 0 0  -0.009868267605044632 -0.001688086639219139 0  -0.01144562270825399 -0.001692689230605756 0  -0.003124999999999999 -0.003608070794988568 0  -0.00416937455791247 -0.002686403483245581 0  -0.04448129971537602 -0.01338184642750947 0  -0.04398888004130567 -0.01171461167194711 0  -0.04599424336041202 -0.004005756639587985 0  -0.04606809718672033 -0.02864475622893278 0  -0.0482062415165076 -0.0296875 0  -0.04788253010703496 -0.02763776715267589 0  -0.05 -0.028125 0  -0.05 -0.03750000000000001 0  -0.05 -0.0359375 0  -0.02183868112258066 -0.005422628593680853 0  -0.04062500000000001 0 0  -0.03917649421163367 -0.002040359352438648 0  -0.03906250000000001 0 0  -0.0295481300190568 -0.001605568428320484 0  -0.025 0 0  -0.0234375 0 0  -0.02421875 -0.001070545035041882 0  -0.0237126295053836 -0.003813942834304493 0  -0.02664571389545091 -0.002752788123511608 0  -0.02896391509978198 -0.01118097237867557 0  -0.03238420186843601 -0.008813791608277314 0  -0.0323706799180585 -0.02370408704488055 0  -0.032205672890435 -0.02228196727892393 0  -0.02816365818777272 -0.02594161659920633 0  -0.01672547709762499 -0.02546183219192618 0  -0.01857184297666115 -0.02683671216759523 0  0.009453103227146445 -0.01819024001306512 0  -0.01218643739762308 -0.02606033425052405 0  0.01119184763198969 -0.01518056350921669 0  0.006865541483190338 -0.01340042129292434 0  -0.03201848135430444 -0.01854762601524316 0  -0.03199404761904762 -0.02730654761904763 0  -0.03135176514112224 -0.02573581851368435 0  -0.04538025806170293 -0.01067239477037527 0  -0.04739597694573306 -0.01412128101202742 0  -0.02540759803392521 -0.008771017083722592 0  -0.02591846435863518 -0.007338441210347837 0  -0.02711492748249205 -0.00835453998477486 0  -0.02250615467821772 -0.007474259833856833 0  -0.03497552891545139 -0.0127947567037258 0  -0.03570287219075736 -0.01581613812090303 0  -0.0349457091660247 -0.01691847156036049 0  -0.03621771622695226 -0.0176220580156651 0  -0.03687762651015948 -0.016457578680904 0  0.005597575358301082 -0.01375277107803309 0  0.004566392742898813 -0.01498775736781872 0  -0.02322424533036768 -0.02647110351667633 0  -0.02596951122934762 -0.02725703807182869 0  -0.02877812488334018 -0.02727093212694866 0  -0.02722627102930427 -0.02686568702498211 0  -0.02557386441091057 -0.0232721464929378 0  -0.02393313574179787 -0.02377965025550962 0  0.0078125 -0.002562274735532483 0  0.005875255702220044 -0.001986073909204611 0  0.006432062839889531 -0.004292081639409267 0  0.00919019775307337 -0.001644856995975223 0  -0.0343806477538964 -0.02747953471140603 0  -0.03515806497503981 -0.02924336852339239 0  -0.005937315717927029 -0.007018560383058098 0  -0.004062442030978369 -0.006663469005727203 0  -0.002666725578430765 -0.01082245768220869 0  -0.003310052500419488 -0.01212126207328246 0  -0.001379568149766955 -0.01168285622548849 0  -0.04299297084853178 -0.01291509031253159 0  -0.04178608985389692 -0.01354248668749397 0  -0.04044058995877731 -0.0135355757335078 0  -0.04391555354250181 -0.008728944742396549 0  -0.04335552434796502 -0.01009565848198775 0  -0.01761293579763785 -0.009876960818768901 0  -0.0356633927021142 -0.03486942309328403 0  -0.03433042911074234 -0.03550171087828445 0  -0.03060559263423203 -0.02780320866873975 0  -0.03334473317739382 -0.0298970619099909 0  -0.03114315501734873 -0.0299166562001741 0  -0.03223434777943981 -0.02882863454287903 0  -0.04823289833137026 -0.03226564812069713 0  -0.04093441339034119 -0.02545341886445387 0  -0.04222777187368977 -0.02364333881652475 0  -0.05 -0.025 0  -0.05 -0.0265625 0  -0.04849717608871014 -0.02622561136068444 0  -0.04692492441942633 -0.01555198991361233 0  0.00147563755691958 -0.02567167109431155 0  -0.004196699527692595 -0.02372045091729928 0  0.0002547620197936792 -0.01919886328694928 0  -0.001480875293647468 -0.01852992586475846 0  -0.002910133850527605 -0.01736173448892657 0  -0.001576348224417626 -0.01637523135305157 0  -0.03547953043057522 -0.0188039504032657 0  -0.03717017727870082 -0.01875256932303632 0  0.01113027780061732 -0.006140445228874379 0  -0.04065844936249986 -0.01711493695634566 0  -0.04370193638527292 -0.01606531880661238 0  -0.03505379652213259 -0.007297763486728251 0  -0.02246171357697855 -0.01878061384640486 0  -0.02441926819994185 -0.02244534713065828 0  -0.001776881105324164 -0.00328432861237359 0  -0.005073351869629771 -0.005452378761053507 0  -0.004152535080712006 -0.01330066254671447 0  0.0109375 0 0  0.01136020289896124 -0.001331926919614055 0  -0.0432996659795884 -0.003330149269011446 0  -0.04150577024741103 -0.002078465479772023 0  -0.04363063259869641 -0.001679381850004518 0  -0.04714259602139875 -0.01977422834533823 0  -0.04436969017718883 -0.02424446436705185 0  -0.00742579778083521 -0.005801877455452067 0  -0.03208010982563232 -0.01050883957691983 0  -0.03358403288937022 -0.007317939341477118 0  -0.009526740687271501 -0.01613797769472268 0  -0.01119678122185763 -0.01347635311126762 0  0.001189133689771877 -0.0207822544774329 0  -0.02819796392336018 -0.003039403196102558 0  -0.03847345714847993 -0.005104150288689035 0  -0.01689440984961601 -0.02048977820327376 0  -0.0154908934660711 -0.02021339978610353 0  0.009715766073205602 -0.008552025495673465 0  0.01024112006832257 -0.009880918520390336 0  0.007922643115429704 -0.005561362357538799 0  0.009148091217578409 -0.006859502157612021 0  -0.0396938453902612 -0.02589264518583501 0  -0.04841132672902931 -0.0203125 0  -0.02608520091409566 -0.01827425152674297 0  -0.02424247337532281 -0.01830571464592006 0  -0.02490009183457512 -0.01699082400905695 0  -0.02759514265660335 -0.0167440702989773 0  -0.05 -0.009375000000000001 0  -0.04786629147731509 -0.008749949089647081 0  -0.05 -0.0078125 0  -0.04533659855934521 -0.005903606608529967 0  -0.02504118519307743 -0.03010988493325979 0  -0.02614310396166122 -0.02522771559156139 0  -0.02705008112815516 -0.02390307338923037 0  -0.0421875 0 0  -0.03150412316369681 -0.01683567033967017 0  -0.02973732862474088 -0.01656402049062323 0  -0.02118919747099959 -0.01109633062161632 0  -0.02064560093562051 -0.01326546113657408 0  -0.01905796517262735 -0.01323524953321168 0  0.01295019700693523 -0.004018074645617246 0  -0.0223614275729049 -0.001795563945530156 0  -0.01909048885330749 -0.01038075045799149 0  -0.01474496566722487 -0.01241690582360207 0  -0.03938085204567087 -0.02747490783313469 0  -0.03324021887394879 -0.02666360880445698 0  -0.03356240990687234 -0.02855962757307237 0  -0.003189912936622991 -0.001804035397494284 0  -0.03637472845308664 -0.007977341807336263 0  -0.0376947552168885 -0.007380868257896455 0  -0.0395864440853501 -0.01613856710540749 0  -0.0125 -0.0130952380952381 0  -0.01859603491619182 -0.01447872292041744 0  -0.04641671388903557 -0.03064342081562504 0  0.00581336908738571 -0.02278917431851158 0  -0.03847177245354389 -0.0367681266259752 0  -0.0008544995260660769 -0.01041875055942865 0  -0.02455617661094997 -0.0330603948257714 0  -0.00736479410276593 -0.02066870850595996 0  -0.005449326641473191 -0.02712634327623572 0  -0.005112842310742847 -0.0289173158262394 0  -0.003808826734081279 -0.0283052722319424 0  -0.005468750000000001 -0.001118854010828386 0  -0.00625 0 0  -0.004687500000000001 0 0  -0.04184485273552505 -0.005277499502655519 0  -0.04201301065628849 -0.003886024647874805 0  -0.04310145950794086 -0.004775673202544012 0  -0.04375 0 0  -0.01681445052131316 -0.02363177620642369 0  -0.013994429345538 -0.02152636935281862 0  0.003782179117330453 -0.03352803109814534 0  0.003410198159186033 -0.03126593908952593 0  0.001800461004723053 -0.0329743674150207 0  0.005594154517873918 -0.03190847365283561 0  -0.0189041542433693 -0.01791011461339309 0  -0.02347483932181055 -0.01663019303462746 0  0.007536075639824975 -0.01150457939134506 0  -0.02237970224947478 -0.01258671505642948 0  -0.004047265904786932 -0.01492423853613324 0  -0.01606841351316225 -0.002396772764841773 0  0.002413629182646067 -0.02215367303778921 0  0.0006349826098883259 -0.02275699419100019 0  0.004406006138604878 -0.02220288461203223 0  0.003125 0 0  -0.01264588743686913 -0.005555995017501984 0  -0.01084442166676765 -0.003150985364175276 0  -0.01640625 -0.001094868419028581 0  -0.01448868578038631 -0.002489912979727968 0  0.003953152531093245 -0.007001967795568576 0  -0.0275027243844981 -0.01838645826946021 0  -0.04865188545886912 -0.01002260026600433 0  -0.04668317804350072 -0.009664848823642758 0  -0.05 -0.004687500000000001 0  -0.04797285790821337 -0.004489196288042696 0  -0.0486178043097002 -0.005924987243411842 0  -0.00696008552075832 -0.01300480365189128 0  -0.005478787468542344 -0.01241708084937931 0  -0.005427134064254985 -0.01377668976714338 0  -0.006926926387350093 -0.028744389996203 0  -0.007137354881908638 -0.02719801970039498 0  -0.0453090136960752 -0.03156182868549716 0  -0.04345238095238095 -0.03556995462159739 0  -0.01086143623908221 -0.006877234301934964 0  -0.01086327099297992 -0.005014062609857923 0  -0.03937673028160691 -0.01779294108445469 0  -0.04163428667658449 -0.01815209182324242 0  -0.0328020821736218 -0.02040071651527773 0  -0.03398274365211763 -0.02117466677749693 0  -0.03728676358224478 -0.02171696915022664 0  -0.05 -0.01875 0  -0.0444315381589892 -0.00452711536623563 0  -0.04474168079605727 -0.003100196875639273 0  -0.05 -0.003125 0  -0.002057969475453554 -0.009468640047966586 0  0.002904484592560335 -0.01785461322363537 0  0.002656953078164313 -0.01604940862488315 0  0.005420776585654884 -0.005968447712568974 0  0.006797058564419497 -0.006535273577976413 0  0.007617018746266475 -0.007777492941435461 0  -0.03184688459542486 -0.007177652942204195 0  -0.034375 0 0  -0.0359375 0 0  -0.03125 0 0  -0.03353054569288828 -0.001633571652728954 0  -0.03225239317596309 -0.001220794490442497 0  0.00387324022687192 -0.005329699097450733 0  -0.0436090145507677 -0.02134644443143776 0  -0.04415672363137302 -0.02275152259528935 0  -0.04230293045861905 -0.02166940946024565 0  0.01316725552433098 -0.00805546078058521 0  0.01160890466735436 -0.009467253460253578 0  0.01123597488745198 -0.007823072686830339 0  -0.02121341940121106 -0.02438962613965363 0  -0.02254098991890039 -0.02394067634815586 0  -0.02937121333301117 -0.02860992248655747 0  -0.028125 0 0  -0.02767382147503402 -0.001531408377335797 0  -0.0328125 0 0  -0.05 -0.034375 0  -0.05 -0.0328125 0  -0.04883557194206823 -0.03344670303506517 0  -0.02380946623002438 -0.01519766484533798 0  -0.02890518750060017 -0.01559070312331449 0  -0.008631360214121826 -0.02900494975287651 0  -0.02958273312204632 -0.007830996041134701 0  -0.0289243093072516 -0.005080548087780765 0  0.001788336352939884 -0.01413345342884633 0  -0.0150093489416535 -0.02690200517850585 0  -0.04187803497262769 -0.03249030395020133 0  -0.03316313377816836 -0.0389531888469032 0  0.007342667558028294 -0.02341575259150772 0  -0.05 -0.015625 0  -0.05 -0.0171875 0  0.007915342148546729 -0.004060064145743369 0  0.01492528999248245 -0.002433543897202234 0  0.012572992640219 -0.00202607971510129 0  0.0125 0 0  -0.04315121410305307 -0.01736055703368527 0  -0.04404128047964407 -0.03294702734353837 0  -0.04303676426129536 -0.03409906689063585 0  -0.04476246619738419 -0.02937983187849561 0  -0.04866477715970596 -0.03097197083109107 0  -0.05 -0.03125 0  -0.02371148143016293 -0.01290136534383788 0  -0.03328896778935857 -0.01322605127947291 0  -0.03236866692544504 -0.01200797339654534 0  -0.02759216818471872 -0.0281300920662227 0  -0.04208945395134332 -0.03588750912203393 0  -0.03703019063373934 -0.005142158205268498 0  -0.03607393832401056 -0.03093944141707408 0  -0.0255721201268109 -0.03136727621599002 0  -0.02589244083070881 -0.03271084639239885 0  -0.02638333218351372 -0.004551003248826221 0  -0.04500637905455051 -0.02148603841302748 0  -0.04867203687395884 -0.01491808145734253 0  0.004687500000000001 0 0  -0.04578941960588546 -0.01379160017627219 0  -0.03379645857891649 -0.0313223491249728 0  -0.02967184556625817 -0.0302586090773859 0  -0.02844810693838604 -0.03529440998727736 0  -0.01441004708834846 -0.02983725861480525 0  -0.02007378472222222 -0.03177083333333333 0  -0.0006467224638149068 -0.02088130124969998 0  0.00172095017090097 -0.02428939573795938 0  -0.01892044452244201 -0.004972034808770542 0  -0.0431948865787256 -0.03719475749540319 0  -0.03451268287663042 -0.03865576143836598 0  -0.03513023133539478 -0.03688057799267525 0  -0.0450444253315003 -0.01645498237369299 0  -0.009620928991571001 -0.004441842148706425 0  -0.002883626972990035 -0.01878773403781771 0  -0.02637655158542689 -0.01976379016551376 0  -0.004252948739696259 -0.01117206503553538 0  -0.002713388987052015 -0.008136787412157006 0  -0.0280046762941963 -0.02943939010091041 0  -0.02804513797248458 -0.01464195639358145 0  0.01181262870367104 -0.01089609743297899 0  -0.0002378071784468202 -0.03168817342482563 0  -0.03622089778946982 -0.01401112827966075 0  -0.001390842828656197 -0.001952710046892643 0  -0.003125 0 0  -0.0015625 0 0  -0.02511381329848898 -0.01932118294664953 0  -0.021875 0 0  -0.02109375 -0.001175314518689467 0  -0.0203125 0 0  -0.04096505846019646 -0.02181174912946466 0  0.008609149293794275 -0.02757134402116044 0  0.008053957990568473 -0.0299402944179232 0  -0.009375000000000001 0 0  -0.02701905948190587 -0.03420368227028395 0  -0.01484375 -0.001147707918047826 0  -0.0125 0 0  -0.0140625 0 0  -0.04160180733926341 -0.0122096484813143 0  -0.03638515588252184 -0.0361370125666952 0  -0.0394162094694296 -0.0126387187771779 0  -0.04267887285374643 -0.0114005064776916 0  0.01610599002356381 -0.001455662474053389 0  -0.0478319917926713 -0.03833594505580989 0  -0.01340488405954579 -0.02034264170666708 0  -0.05 -0.00625 0  -0.04852028836730739 -0.007341528403847226 0  -0.03750000000000001 0 0  -8.169974783342644e-05 -0.004976088639533104 0  -0.04548340104735529 -0.01512779942204605 0  -0.05 -0.0015625 0  -0.0484375 0 0  -0.05 0 0  -0.05 -0.0109375 0  -0.04871995566788221 -0.01133305450972619 0  -0.05 -0.03906250000000001 0  -0.0265625 0 0  -0.015625 0 0  -0.0078125 0 0  0.009375000000000001 0 0  0.0015625 0 0  -0.0296875 0 0  -0.05 -0.021875 0  -0.05 -0.0203125 0  -0.05 -0.0296875 0  -0.05 -0.0234375 0  -0.05 -0.0125 0  -0.05 -0.0140625 0  -0.04531250000000001 0 0  -0.02096222256339486 -0.02284965478179757 0  0.007398918941703169 -0.03180190167941388 0  0.009071852058287186 -0.03111646240531644 0  0.01251763880242438 -0.01249534090464294 0  -0.02608854054722983 -0.01426847564777049 0  -0.03383810346267847 -0.01186016152543283 0  -0.01915147569444444 -0.03008897569444444 0  -0.04055047202482187 -0.02803405217659604 0  -0.01158838838891851 -0.02892217401028216 0  -0.0254932930639348 -0.03426607678692898 0  </DataArray>
</Points>
<Cells>
<DataArray  type="UInt32"  Name="connectivity"  format="ascii">0 1 2  3 4 5  6 7 8  9 10 11  12 13 14  15 16 17  18 19 20  21 22 23  24 25 26  27 28 29  30 31 32  33 34 35  36 37 38  39 40 41  42 43 44  45 46 47  48 49 50  51 52 53  54 55 56  57 58 59  60 61 62  63 64 65  66 67 68  69 70 71  37 72 73  74 75 76  77 78 79  80 81 82  83 84 85  86 87 88  89 90 91  92 93 94  95 96 97  98 99 100  101 102 103  104 105 106  89 107 108  109 0 110  111 112 113  114 115 116  117 118 119  120 121 122  123 124 125  123 126 127  128 129 130  3 131 132  133 134 135  136 137 138  139 140 141  142 143 144  145 146 147  148 149 150  151 152 153  57 154 155  40 156 41  157 158 159  160 161 162  163 164 165  166 167 168  169 170 171  172 88 173  174 175 176  177 178 179  128 180 181  182 183 184  24 149 185  186 187 188  139 189 190  191 50 35  192 8 193  194 195 196  69 197 70  198 199 200  201 202 203  204 205 206  207 208 209  210 211 208  212 213 214  215 216 214  217 218 28  219 220 221  222 223 224  222 225 226  48 227 228  45 47 229  230 231 232  233 19 20  234 235 236  237 238 239  240 239 143  241 242 243  244 245 246  247 248 249  250 251 252  86 253 254  255 85 256  250 75 257  258 259 260  261 262 263  264 265 266  259 267 260  268 269 270  271 272 273  274 272 273  149 150 275  276 115 277  278 49 279  280 234 281  282 283 284  285 286 79  54 13 55  63 80 287  288 289 290  291 292 293  104 294 106  74 76 295  75 248 249  207 15 296  297 298 299  174 300 56  174 129 56  301 90 91  51 302 303  271 304 305  306 307 122  306 308 120  292 309 310  24 25 185  103 311 312  313 152 153  314 315 316  317 231 232  192 318 319  282 320 171  321 322 323  324 325 326  327 328 7  329 37 73  330 331 332  333 334 335  262 336 263  337 242 338  98 339 340  341 339 340  342 343 344  345 315 316  346 347 348  21 349 350  351 25 352  39 224 353  306 120 122  354 355 356  357 358 359  60 357 360  361 362 363  364 334 365  366 367 368  198 369 200  322 370 371  372 373 374  63 287 65  375 376 97  250 377 252  378 379 380  381 382 383  384 102 103  101 385 386  387 388 110  317 186 188  42 44 389  390 115 277  391 392 393  391 392 394  395 396 397  398 396 5  399 343 400  401 402 116  403 401 404  148 43 405  42 43 405  390 406 275  407 15 16  157 307 159  364 158 408  74 249 409  410 411 412  410 308 413  414 415 73  416 417 418  419 420 421  422 183 423  182 183 423  424 425 426  378 427 428  429 286 78  54 13 430  98 340 431  432 197 433  434 435 257  436 437 438  48 50 227  238 439 440  441 352 17  442 25 352  443 444 445  446 281 447  437 438 344  399 343 344  448 449 138  450 140 451  452 112 113  261 262 453  454 455 456  457 458 459  372 374 430  429 13 55  422 26 460  461 462 460  463 379 380  464 379 465  463 465 386  466 467 468  27 469 28  470 469 471  472 455 456  473 458 474  30 302 475  30 302 476  477 478 479  477 31 479  446 480 481  482 483 484  485 164 486  276 401 404  487 161 488  151 152 483  489 146 147  490 491 492  493 491 492  494 495 99  274 58 496  497 498 499  314 316 500  501 502 503  264 23 266  419 417 418  194 195 504  505 195 196  0 110 506  18 507 19  508 509 193  6 140 141  510 328 7  6 140 451  77 283 511  172 283 512  419 420 418  264 265 513  429 78 514  282 170 171  297 298 515  210 298 299  21 22 516  36 324 326  517 189 318  414 72 73  518 415 519  520 161 488  521 161 162  522 523 524  525 58 59  233 34 526  330 527 528  529 527 530  330 324 325  210 211 299  21 531 532  9 61 533  534 61 62  510 535 536  327 415 519  537 538 205  204 538 205  244 0 1  244 0 186  539 540 541  539 542 393  410 543 413  410 543 544  525 58 496  241 242 338  470 545 546  547 548 549  367 550 551  45 366 552  240 520 553  554 520 488  464 385 465  555 385 243  556 200 557  198 93 369  92 322 323  375 93 369  518 328 558  559 560 561  490 156 41  341 339 562  563 564 71  563 70 71  565 566 567  172 87 512  9 87 10  399 438 344  247 197 70  74 75 249  361 363 568  334 365 335  89 569 476  177 216 570  571 183 572  573 461 574  527 47 530  529 575 576  391 542 393  577 392 394  578 366 368  579 367 368  33 50 35  280 234 580  240 239 553  238 239 553  581 269 267  268 538 582  44 389 583  584 164 389  585 461 462  398 309 310  586 542 587  588 589 590  333 335 591  592 223 224  584 545 593  584 545 546  31 479 32  30 475 68  594 507 19  18 580 595  4 396 397  291 596 396  384 467 468  219 220 597  571 598 127  351 352 532  327 415 508  517 325 326  314 500 599  314 315 347  104 469 218  469 218 28  217 28 29  466 220 597  278 279 445  600 444 445  317 388 506  330 230 332  285 84 601  454 455 602  603 604 209  441 15 17  605 392 606  114 540 541  213 216 570  213 216 214  306 37 72  120 411 607  222 353 226  608 362 591  609 610 611  612 118 119  613 614 615  616 143 144  201 62 617  60 62 617  534 61 206  534 618 206  537 538 582  537 619 451  497 620 589  446 600 444  330 230 621  622 230 621  376 96 97  111 623 624  111 624 625  136 624 137  624 137 625  626 424 426  194 627 503  111 555 628  101 629 112  308 120 411  630 411 607  543 631 632  518 558 561  485 633 486  163 164 486  58 195 504  57 58 195  274 58 504  83 84 260  83 267 260  280 580 634  280 634 635  234 580 595  234 281 236  390 150 275  390 43 277  45 46 636  366 367 551  637 102 629  472 457 473  457 473 458  638 458 474  341 639 562  490 491 639  123 349 350  419 124 125  640 52 53  51 437 52  133 134 641  148 149 642  24 149 642  60 357 358  643 357 360  63 288 290  454 288 289  384 103 311  217 466 467  3 4 644  372 644 397  645 646 647  177 179 570  163 648 153  649 650 648  651 652 653  654 146 590  217 466 220  384 102 468  285 84 655  84 85 256  169 170 514  12 373 374  285 286 656  657 658 659  660 657 658  448 259 661  581 662 449  211 208 663  211 22 516  556 251 252  133 434 435  109 0 2  388 110 506  623 624 664  136 624 664  573 461 309  292 309 665  271 666 382  379 304 305  667 668 598  124 126 669  670 401 402  378 671 428  672 427 428  666 382 673  378 427 674  271 666 305  464 379 304  407 406 675  390 406 675  609 676 119  581 662 610  614 677 678  240 614 678  679 680 681  489 147 680  682 683 684  291 221 293  645 685 686  174 685 686  180 181 644  3 181 644  341 639 687  688 340 431  672 152 483  689 671 690  51 437 303  667 126 669  429 286 14  429 13 14  48 238 440  191 49 50  46 691 636  364 158 692  578 691 636  157 46 691  36 693 694  157 307 38  37 38 695  306 37 695  696 608 362  443 498 589  497 498 589  588 697 698  443 651 652  699 147 680  699 679 680  547 471 700  585 462 548  51 302 569  302 569 476  182 701 702  123 350 701  407 703 704  407 705 704  172 283 284  286 78 79  345 281 236  706 348 235  707 708 480  709 316 500  316 710 711  345 480 710  160 677 678  160 520 161  436 437 52  640 420 421  407 703 675  703 675 712  713 714 715  592 223 714  716 717 718  603 717 718  719 11 720  87 10 512  92 322 371  721 558 535  722 500 723  500 599 723  707 724 710  707 480 710  725 726 727  117 245 728  136 245 728  622 612 729  622 232 729  493 492 566  529 575 528  157 38 576  174 175 730  346 731 348  346 347 732  351 350 702  25 26 733  352 531 532  441 352 531  77 170 734  282 170 734  735 75 248  250 435 257  95 96 736  446 498 481  345 281 447  640 420 737  640 52 737  362 335 591  738 739 363  739 362 363  696 739 362  328 558 535  510 328 535  605 392 740  577 392 606  142 680 681  489 616 144  172 87 88  255 10 512  278 439 440  237 238 439  577 425 426  716 424 425  626 741 742  743 167 168  86 358 359  86 358 253  27 469 471  104 545 593  706 387 348  387 731 348  66 658 659  579 368 744  487 367 550  735 745 746  341 745 340  432 747 687  490 156 747  639 562 748  749 562 748  261 246 750  522 262 453  594 387 388  751 231 752  510 618 619  534 753 536  563 564 121  563 120 121  276 44 583  485 389 583  735 434 746  133 434 754  192 693 509  192 509 193  529 527 528  36 324 575  446 281 755  280 281 755  237 616 697  489 616 697  756 251 199  250 75 76  321 202 203  643 757 758  525 496 338  525 262 336  495 99 100  98 339 100  114 540 402  114 402 116  505 195 759  57 195 759  713 714 760  364 334 408  223 714 760  333 223 760  63 80 288  472 80 288  414 415 631  518 415 631  522 262 59  525 262 59  521 761 568  738 363 761  670 402 762  114 703 541  605 705 704  521 161 763  487 161 763  622 612 190  622 189 190  452 629 81  637 629 81  689 311 312  463 103 312  101 102 629  452 629 112  756 76 295  756 199 764  92 560 765  92 202 765  198 199 764  198 93 94  375 370 371  766 322 370  69 40 156  592 564 71  282 320 767  768 357 359  432 197 747  247 197 248  207 208 663  407 15 296  212 769 572  571 769 572  667 770 668  571 769 598  101 555 112  111 555 112  464 242 243  101 555 385  337 496 338  271 304 771  522 1 2  57 155 523  133 135 754  688 772 754  369 200 557  95 369 557  95 773 774  381 272 382  271 272 382  337 242 771  464 385 243  579 365 775  361 365 775  667 770 53  51 770 53  689 105 690  672 152 776  231 388 752  317 231 388  547 642 549  24 642 549  131 132 777  573 131 777  769 668 598  215 769 668  667 53 669  123 124 126  395 596 64  395 596 396  297 22 266  22 23 266  139 190 676  139 140 778  547 548 779  148 780 700  390 43 150  148 43 150  210 208 604  208 604 209  201 202 781  201 753 781  667 126 598  126 598 127  450 140 778  581 259 267  337 273 496  274 273 496  472 457 455  258 457 455  622 230 232  782 232 729  247 249 409  563 120 607  573 572 574  212 132 777  210 604 783  261 664 750  245 246 750  477 31 784  66 31 784  623 336 263  241 623 336  342 658 67  342 475 67  361 365 335  361 362 335  330 527 331  785 527 331  786 404 583  787 633 788  581 610 269  450 778 789  790 627 791  790 792 791  793 121 122  793 564 121  350 701 702  571 183 184  682 220 293  220 221 293  399 794 795  399 795 400  213 181 570  3 213 181  95 773 736  313 105 776  313 152 776  796 482 483  796 151 483  133 377 435  250 377 435  633 650 648  787 633 650  592 40 71  69 40 71  645 178 179  645 685 646  751 331 332  785 331 526  345 316 710  724 710 711  321 322 797  766 322 797  33 34 229  33 50 227  517 189 621  622 189 621  581 259 449  448 259 449  427 674 798  799 427 800  785 527 47  785 47 229  605 705 606  603 705 606  306 308 72  414 308 72  452 473 82  452 81 82  672 427 484  672 483 484  801 550 551  801 227 228  713 334 408  793 564 715  390 115 712  390 675 712  197 248 433  735 248 433  377 641 802  133 377 641  33 227 803  33 229 803  554 228 804  801 228 804  448 137 138  638 458 459  398 131 309  573 131 309  741 805 168  166 805 168  494 806 99  98 806 99  454 602 807  285 601 602  12 13 374  13 374 430  378 379 305  378 666 305  24 462 460  24 26 460  215 668 108  215 107 108  177 178 91  301 178 91  588 652 653  588 697 653  237 616 239  616 239 143  39 567 353  565 567 353  327 7 8  329 508 509  785 34 229  785 34 526  45 552 803  45 229 803  577 606 718  603 606 718  302 475 303  342 475 303  342 658 343  660 658 343  620 589 590  654 620 590  60 61 253  60 358 253  540 402 762  354 540 762  719 10 11  268 538 720  594 387 507  706 387 507  751 331 526  594 388 752  671 690 428  672 690 428  189 318 319  139 189 319  12 656 807  12 373 289  114 703 712  114 115 712  384 294 311  689 294 311  183 572 574  422 183 574  26 423 733  422 26 423  39 40 224  592 40 224  436 52 737  534 753 62  201 753 62  219 287 65  637 468 597  808 679 681  808 615 809  414 543 413  414 308 413  708 480 481  810 708 481  489 146 698  489 697 698  135 772 754  191 20 634  18 580 20  269 267 270  83 267 270  455 601 602  258 455 601  84 601 260  258 601 260  276 277 811  43 277 811  54 180 430  4 644 397  128 180 130  54 180 130  780 471 700  470 780 471  258 259 661  258 457 661  9 253 254  9 61 253  104 469 545  470 469 545  487 812 367  579 812 367  4 396 5  291 292 310  638 137 625  452 473 474  645 178 647  301 178 647  128 129 179  645 129 179  419 349 125  123 349 125  12 656 14  286 656 14  80 287 81  637 287 81  699 147 813  145 147 814  147 814 813  815 814 813  580 20 634  233 34 35  217 294 467  384 294 467  364 692 744  578 158 692  313 105 593  104 105 593  626 742 394  391 742 394  505 599 723  537 618 619  6 619 451  627 502 503  790 627 502  510 619 7  6 619 7  6 141 8  192 141 8  255 85 10  719 85 10  816 677 817  363 761 568  689 105 106  689 294 106  92 560 94  559 560 94  372 430 644  180 430 644  494 806 818  461 574 460  422 574 460  464 304 242  304 242 771  525 336 338  241 336 338  666 674 798  378 666 674  233 20 35  191 20 35  446 498 444  443 498 444  743 742 587  743 586 587  282 284 767  197 156 747  69 197 156  174 685 730  314 154 599  505 154 599  505 196 723  501 196 819  196 819 723  722 819 723  382 383 673  820 383 673  498 481 499  810 481 499  562 726 727  749 562 726  796 151 821  649 151 821  539 542 356  822 586 542  403 401 823  670 401 823  786 633 788  403 786 788  709 500 824  722 500 824  825 608 826  696 608 826  491 639 748  493 491 827  272 792 791  381 272 792  222 224 353  825 828 226  613 816 677  613 614 677  521 162 761  829 162 830  145 146 831  654 146 831  522 2 524  155 523 524  645 129 686  174 129 686  104 294 218  217 294 218  48 238 228  554 238 228  538 11 720  204 538 11  719 85 832  83 85 832  833 795 400  834 833 795  399 794 438  436 794 438  554 488 804  487 488 550  799 482 484  799 427 484  21 349 23  264 349 23  21 531 516  441 531 516  351 350 532  21 350 532  210 835 298  559 544 764  756 544 764  250 251 76  756 251 76  756 544 295  410 544 295  307 38 695  306 307 695  285 655 79  255 655 511  77 170 78  170 78 514  492 566 567  39 492 567  828 353 226  565 828 353  241 623 628  111 623 628  301 479 32  301 478 479  429 300 55  300 55 56  264 349 417  419 349 417  637 102 468  466 468 597  614 615 809  142 614 809  689 671 312  378 671 380  782 187 188  244 186 187  117 245 836  244 245 836  261 1 246  244 1 246  66 659 784  174 300 176  169 176 514  39 492 41  490 492 41  407 406 16  442 406 16  517 693 318  192 693 318  129 130 56  54 130 56  640 53 669  419 124 421  437 303 344  342 303 344  300 176 514  429 300 514  385 465 386  463 379 465  177 107 216  215 107 216  128 181 570  128 179 570  472 473 82  472 80 82  233 19 837  233 526 837  630 411 412  410 308 411  442 25 185  442 149 185  517 621 325  330 621 325  522 59 523  57 59 523  612 676 119  612 190 676  201 757 617  643 757 360  721 753 781  721 560 765  162 830 761  738 830 761  609 610 789  609 778 789  822 355 542  355 542 356  539 541 740  605 541 740  592 564 714  564 714 715  584 164 165  485 164 389  461 309 665  585 461 665  361 812 568  521 568 763  160 162 817  160 677 817  160 520 678  240 520 678  403 786 404  276 404 583  51 770 569  770 668 108  594 19 752  751 526 837  554 520 553  554 238 553  745 340 746  688 340 746  442 16 17  442 352 17  662 610 611  117 611 728  274 627 504  194 627 504  265 515 266  297 515 266  560 558 561  721 560 558  721 753 535  753 535 536  414 543 631  559 561 632  198 94 764  559 94 764  222 223 225  333 223 225  276 401 116  276 115 116  671 380 312  463 380 312  251 199 200  556 251 200  556 774 802  556 774 557  95 774 557  588 590 698  146 590 698  375 369 97  95 369 97  375 376 370  766 376 370  230 231 332  751 231 332  191 49 635  191 634 635  662 611 728  136 728 138  89 107 91  177 107 91  539 740 393  392 740 393  27 683 779  585 683 684  547 642 700  148 642 700  241 628 243  555 628 243  92 93 371  375 93 371  751 752 837  19 752 837  688 772 431  446 600 755  49 635 279  271 273 771  337 273 771  3 213 132  212 213 132  109 155 731  346 155 731  490 639 747  639 747 687  341 745 687  432 745 687  432 745 433  735 745 433  280 635 279  280 755 279  283 511 512  255 511 512  86 838 88  838 88 173  314 154 732  314 347 732  605 541 704  703 541 704  600 755 279  600 279 445  291 396 310  398 396 310  3 131 5  398 131 5  682 683 29  27 683 29  585 548 779  585 683 779  478 646 647  301 478 647  158 408 159  793 408 159  77 283 734  282 283 734  630 409 839  247 409 839  212 572 777  573 572 777  215 769 214  212 769 214  268 832 270  83 832 270  443 651 445  278 651 445  74 295 412  410 295 412  662 728 138  662 449 138  172 284 173  285 656 602  656 602 807  578 158 691  157 158 691  45 366 636  578 366 636  578 368 692  368 692 744  577 718 425  716 718 425  626 394 426  577 394 426  579 812 775  361 812 775  579 365 744  364 365 744  307 159 122  793 159 122  475 67 68  66 658 67  719 832 720  268 832 720  38 575 576  36 38 575  529 46 576  157 46 576  415 508 73  329 508 73  36 37 694  329 37 694  693 694 509  329 694 509  725 100 727  725 495 100  175 176 840  169 176 840  443 589 652  588 589 652  717 604 783  603 717 604  261 664 263  623 664 263  354 540 356  539 540 356  320 840 171  169 840 171  321 758 203  321 797 758  18 507 595  706 507 595  109 155 524  109 2 524  797 841 758  643 841 758  42 780 405  148 780 405  470 780 546  42 780 546  584 546 389  42 546 389  655 511 79  77 511 79  36 693 326  517 693 326  313 593 165  584 593 165  101 103 386  463 103 386  757 758 203  201 757 203  770 108 569  89 108 569  345 480 447  446 480 447  721 765 781  202 765 781  427 800 798  820 800 798  812 568 763  487 812 763  268 269 582  450 269 582  207 15 663  441 15 663  462 548 549  24 462 549  192 141 319  139 141 319  139 778 676  609 778 676  210 835 783  274 627 791  274 272 791  142 614 143  240 614 143  489 680 144  142 680 144  808 809 681  142 809 681  292 665 684  585 665 684  522 1 453  261 1 453  801 227 803  801 552 803  768 838 359  86 838 359  211 22 299  297 22 299  518 328 519  327 328 519  518 561 632  518 631 632  321 202 323  92 202 323  74 412 409  630 412 409  373 289 290  395 373 64  395 373 397  372 373 397  608 225 591  333 225 591  237 697 653  237 651 653  608 225 226  825 608 226  109 731 110  387 731 110  793 408 715  713 408 715  713 334 760  333 334 760  709 316 711  709 724 711  735 75 257  735 434 257  89 90 476  30 90 476  30 90 32  301 90 32  30 31 68  66 31 68  46 47 530  529 46 530  182 127 701  123 127 701  324 575 528  330 324 528  373 64 290  63 64 290  124 669 421  640 669 421  255 655 256  84 655 256  366 552 551  801 552 551  351 423 733  351 25 733  377 802 252  556 802 252  537 582 451  450 582 451  666 798 673  820 798 673  339 100 727  339 562 727  786 633 583  485 633 583  537 618 205  618 205 206  346 155 732  154 155 732  442 149 275  442 406 275  12 289 807  454 289 807  454 288 456  472 288 456  219 596 221  291 596 221  596 64 65  219 596 65  637 287 597  219 287 597  563 70 607  630 607 839  217 220 29  682 220 29  543 544 632  559 544 632  660 343 400  660 833 400  571 127 184  182 127 184  351 423 702  182 423 702  448 661 459  457 661 459  315 347 348  315 348 235  757 360 617  60 360 617  211 663 516  441 663 516  117 836 118  782 118 187  649 151 648  151 648 153  391 542 587  391 742 587  276 44 811  43 44 811  313 165 153  163 165 153  292 684 293  682 684 293  434 746 754  688 746 754  136 245 750  136 664 750  70 607 839  247 70 839  603 705 209  207 705 209  207 705 296  407 705 296  450 269 789  610 269 789  547 471 779  27 471 779  672 690 776  105 690 776  743 742 168  741 742 168  633 648 486  163 648 486  491 827 748  749 827 748  234 595 235  706 595 235  315 235 236  345 315 236  278 651 439  237 651 439  48 49 440  278 49 440  86 87 254  9 87 254  9 11 533  204 11 533  327 508 193  327 8 193  638 137 459  448 137 459  452 113 474  638 113 474  638 113 625  111 113 625  264 417 513  416 417 513  505 154 759  57 154 759  317 186 506  0 186 506  609 611 119  117 611 119  829 816 817  829 162 817  836 118 187  244 836 187  317 232 188  782 232 188  612 118 729  782 118 729  61 533 206  204 533 206  534 618 536  510 618 536  488 550 804  801 550 804  501 196 503  194 196 503  </DataArray>
<DataArray  type="UInt32"  Name="offsets"  format="ascii">3 6 9 12 15 18 21 24 27 30 33 36 39 42 45 48 51 54 57 60 63 66 69 72 75 78 81 84 87 90 93 96 99 102 105 108 111 114 117 120 123 126 129 132 135 138 141 144 147 150 153 156 159 162 165 168 171 174 177 180 183 186 189 192 195 198 201 204 207 210 213 216 219 222 225 228 231 234 237 240 243 246 249 252 255 258 261 264 267 270 273 276 279 282 285 288 291 294 297 300 303 306 309 312 315 318 321 324 327 330 333 336 339 342 345 348 351 354 357 360 363 366 369 372 375 378 381 384 387 390 393 396 399 402 405 408 411 414 417 420 423 426 429 432 435 438 441 444 447 450 453 456 459 462 465 468 471 474 477 480 483 486 489 492 495 498 501 504 507 510 513 516 519 522 525 528 531 534 537 540 543 546 549 552 555 558 561 564 567 570 573 576 579 582 585 588 591 594 597 600 603 606 609 612 615 618 621 624 627 630 633 636 639 642 645 648 651 654 657 660 663 666 669 672 675 678 681 684 687 690 693 696 699 702 705 708 711 714 717 720 723 726 729 732 735 738 741 744 747 750 753 756 759 762 765 768 771 774 777 780 783 786 789 792 795 798 801 804 807 810 813 816 819 822 825 828 831 834 837 840 843 846 849 852 855 858 861 864 867 870 873 876 879 882 885 888 891 894 897 900 903 906 909 912 915 918 921 924 927 930 933 936 939 942 945 948 951 954 957 960 963 966 969 972 975 978 981 984 987 990 993 996 999 1002 1005 1008 1011 1014 1017 1020 1023 1026 1029 1032 1035 1038 1041 1044 1047 1050 1053 1056 1059 1062 1065 1068 1071 1074 1077 1080 1083 1086 1089 1092 1095 1098 1101 1104 1107 1110 1113 1116 1119 1122 1125 1128 1131 1134 1137 1140 1143 1146 1149 1152 1155 1158 1161 1164 1167 1170 1173 1176 1179 1182 1185 1188 1191 1194 1197 1200 1203 1206 1209 1212 1215 1218 1221 1224 1227 1230 1233 1236 1239 1242 1245 1248 1251 1254 1257 1260 1263 1266 1269 1272 1275 1278 1281 1284 1287 1290 1293 1296 1299 1302 1305 1308 1311 1314 1317 1320 1323 1326 1329 1332 1335 1338 1341 1344 1347 1350 1353 1356 1359 1362 1365 1368 1371 1374 1377 1380 1383 1386 1389 1392 1395 1398 1401 1404 1407 1410 1413 1416 1419 1422 1425 1428 1431 1434 1437 1440 1443 1446 1449 1452 1455 1458 1461 1464 1467 1470 1473 1476 1479 1482 1485 1488 1491 1494 1497 1500 1503 1506 1509 1512 1515 1518 1521 1524 1527 1530 1533 1536 1539 1542 1545 1548 1551 1554 1557 1560 1563 1566 1569 1572 1575 1578 1581 1584 1587 1590 1593 1596 1599 1602 1605 1608 1611 1614 1617 1620 1623 1626 1629 1632 1635 1638 1641 1644 1647 1650 1653 1656 1659 1662 1665 1668 1671 1674 1677 1680 1683 1686 1689 1692 1695 1698 1701 1704 1707 1710 1713 1716 1719 1722 1725 1728 1731 1734 1737 1740 1743 1746 1749 1752 1755 1758 1761 1764 1767 1770 1773 1776 1779 1782 1785 1788 1791 1794 1797 1800 1803 1806 1809 1812 1815 1818 1821 1824 1827 1830 1833 1836 1839 1842 1845 1848 1851 1854 1857 1860 1863 1866 1869 1872 1875 1878 1881 1884 1887 1890 1893 1896 1899 1902 1905 1908 1911 1914 1917 1920 1923 1926 1929 1932 1935 1938 1941 1944 1947 1950 1953 1956 1959 1962 1965 1968 1971 1974 1977 1980 1983 1986 1989 1992 1995 1998 2001 2004 2007 2010 2013 2016 2019 2022 2025 2028 2031 2034 2037 2040 2043 2046 2049 2052 2055 2058 2061 2064 2067 2070 2073 2076 2079 2082 2085 2088 2091 2094 2097 2100 2103 2106 2109 2112 2115 2118 2121 2124 2127 2130 2133 2136 2139 2142 2145 2148 2151 2154 2157 2160 2163 2166 2169 2172 2175 2178 2181 2184 2187 2190 2193 2196 2199 2202 2205 2208 2211 2214 2217 2220 2223 2226 2229 2232 2235 2238 2241 2244 2247 2250 2253 2256 2259 2262 2265 2268 2271 2274 2277 2280 2283 2286 2289 2292 2295 2298 2301 2304 2307 2310 2313 2316 2319 2322 2325 2328 2331 2334 2337 2340 2343 2346 2349 2352 2355 2358 2361 2364 2367 2370 2373 2376 2379 2382 2385 2388 2391 2394 2397 2400 2403 2406 2409 2412 2415 2418 2421 2424 2427 2430 2433 2436 2439 2442 2445 2448 2451 2454 2457 2460 2463 2466 2469 2472 2475 2478 2481 2484 2487 2490 2493 2496 2499 2502 2505 2508 2511 2514 2517 2520 2523 2526 2529 2532 2535 2538 2541 2544 2547 2550 2553 2556 2559 2562 2565 2568 2571 2574 2577 2580 2583 2586 2589 2592 2595 2598 2601 2604 2607 2610 2613 2616 2619 2622 2625 2628 2631 2634 2637 2640 2643 2646 2649 2652 2655 2658 2661 2664 2667 2670 2673 2676 2679 2682 2685 2688 2691 2694 2697 2700 2703 2706 2709 2712 2715 2718 2721 2724 2727 2730 2733 2736 2739 2742 2745 2748 2751 2754 2757 2760 2763 2766 2769 2772 2775 2778 2781 2784 2787 2790 2793 2796 2799 2802 2805 2808 2811 2814 2817 2820 2823 2826 2829 2832 2835 2838 2841 2844 2847 2850 2853 2856 2859 2862 2865 2868 2871 2874 2877 2880 2883 2886 2889 2892 2895 2898 2901 2904 2907 2910 2913 2916 2919 2922 2925 2928 2931 2934 2937 2940 2943 2946 2949 2952 2955 2958 2961 2964 2967 2970 2973 2976 2979 2982 2985 2988 2991 2994 2997 3000 3003 3006 3009 3012 3015 3018 3021 3024 3027 3030 3033 3036 3039 3042 3045 3048 3051 3054 3057 3060 3063 3066 3069 3072 3075 3078 3081 3084 3087 3090 3093 3096 3099 3102 3105 3108 3111 3114 3117 3120 3123 3126 3129 3132 3135 3138 3141 3144 3147 3150 3153 3156 3159 3162 3165 3168 3171 3174 3177 3180 3183 3186 3189 3192 3195 3198 3201 3204 3207 3210 3213 3216 3219 3222 3225 3228 3231 3234 3237 3240 3243 3246 3249 3252 3255 3258 3261 3264 3267 3270 3273 3276 3279 3282 3285 3288 3291 3294 3297 3300 3303 3306 3309 3312 3315 3318 3321 3324 3327 3330 3333 3336 3339 3342 3345 3348 3351 3354 3357 3360 3363 3366 3369 3372 3375 3378 3381 3384 3387 3390 3393 3396 3399 3402 3405 3408 3411 3414 3417 3420 3423 3426 3429 3432 3435 3438 3441 3444 3447 3450 3453 3456 3459 3462 3465 3468 3471 3474 3477 3480 3483 3486 3489 3492 3495 3498 3501 3504 3507 3510 3513 3516 3519 3522 3525 3528 3531 3534 3537 3540 3543 3546 3549 3552 3555 3558 3561 3564 3567 3570 3573 3576 3579 3582 3585 3588 3591 3594 3597 3600 3603 3606 3609 3612 3615 3618 3621 3624 3627 3630 3633 3636 3639 3642 3645 3648 3651 3654 3657 3660 3663 3666 3669 3672 3675 3678 3681 3684 3687 3690 3693 3696 3699 3702 3705 3708 3711 3714 3717 3720 3723 3726 3729 3732 3735 3738 3741 3744 3747 3750 3753 3756 3759 3762 3765 3768 3771 3774 3777 3780 3783 3786 3789 3792 3795 3798 3801 3804 3807 3810 3813 3816 3819 3822 3825 3828 3831 3834 3837 3840 3843 3846 3849 3852 3855 3858 3861 3864 3867 3870 3873 3876 3879 3882 3885 3888 3891 3894 3897 3900 3903 3906 3909 3912 3915 3918 3921 3924 3927 3930 3933 3936 3939 3942 3945 3948 3951 3954 3957 3960 3963 3966 3969 3972 3975 3978 3981 3984 3987 3990 3993 3996 3999 4002 4005 4008 4011 4014 4017 4020 4023 4026 4029 4032 4035 4038 4041 4044 4047 4050 4053 4056 4059 4062 4065 4068 4071 4074 4077 4080 4083 4086 4089 4092 4095 4098 4101 4104 4107 4110 4113 4116 4119 4122 4125 4128 4131 4134 4137 4140 4143 4146 4149 4152 4155 4158 4161 4164 4167 4170 4173 4176 4179 4182 4185 4188 4191 4194 4197 4200 4203 4206 4209 4212 4215 4218 4221 4224 4227 4230 4233 4236 4239 4242 4245 4248 4251 4254 4257 4260 4263 4266 4269 4272 4275 4278 4281 4284 4287 4290 4293 4296 4299 4302 4305 4308 4311 4314 4317 4320 4323 4326 4329 4332 4335 4338 4341 4344 4347 4350 4353 4356 4359 4362 4365 4368 4371 4374 4377 4380 4383 4386 4389 4392 4395 4398 4401 4404 4407 4410 4413 4416 4419 4422 4425 4428 4431 4434 4437 4440 4443 4446 4449 4452 4455 4458 4461 4464 4467 4470 4473 4476 4479 4482 4485 4488 4491 4494 4497 4500 4503 4506 4509 4512 4515 4518 4521 4524 4527 4530 4533 4536 4539 4542 4545 4548 4551 4554 4557 4560 4563 4566 4569 4572 4575 4578 4581 4584 4587 4590 4593 4596 4599 4602 4605 4608 4611 4614 4617 4620 4623 4626 4629 4632 4635 4638 4641 4644 4647 4650 4653 4656 4659 4662 4665 4668 4671 4674 </DataArray>
<DataArray  type="UInt8"  Name="types"  format="ascii">5 5 5 5 5 5 5 5 5 5 5 5 5 5 5 5 5 5 5 5 5 5 5 5 5 5 5 5 5 5 5 5 5 5 5 5 5 5 5 5 5 5 5 5 5 5 5 5 5 5 5 5 5 5 5 5 5 5 5 5 5 5 5 5 5 5 5 5 5 5 5 5 5 5 5 5 5 5 5 5 5 5 5 5 5 5 5 5 5 5 5 5 5 5 5 5 5 5 5 5 5 5 5 5 5 5 5 5 5 5 5 5 5 5 5 5 5 5 5 5 5 5 5 5 5 5 5 5 5 5 5 5 5 5 5 5 5 5 5 5 5 5 5 5 5 5 5 5 5 5 5 5 5 5 5 5 5 5 5 5 5 5 5 5 5 5 5 5 5 5 5 5 5 5 5 5 5 5 5 5 5 5 5 5 5 5 5 5 5 5 5 5 5 5 5 5 5 5 5 5 5 5 5 5 5 5 5 5 5 5 5 5 5 5 5 5 5 5 5 5 5 5 5 5 5 5 5 5 5 5 5 5 5 5 5 5 5 5 5 5 5 5 5 5 5 5 5 5 5 5 5 5 5 5 5 5 5 5 5 5 5 5 5 5 5 5 5 5 5 5 5 5 5 5 5 5 5 5 5 5 5 5 5 5 5 5 5 5 5 5 5 5 5 5 5 5 5 5 5 5 5 5 5 5 5 5 5 5 5 5 5 5 5 5 5 5 5 5 5 5 5 5 5 5 5 5 5 5 5 5 5 5 5 5 5 5 5 5 5 5 5 5 5 5 5 5 5 5 5 5 5 5 5 5 5 5 5 5 5 5 5 5 5 5 5 5 5 5 5 5 5 5 5 5 5 5 5 5 5 5 5 5 5 5 5 5 5 5 5 5 5 5 5 5 5 5 5 5 5 5 5 5 5 5 5 5 5 5 5 5 5 5 5 5 5 5 5 5 5 5 5 5 5 5 5 5 5 5 5 5 5 5 5 5 5 5 5 5 5 5 5 5 5 5 5 5 5 5 5 5 5 5 5 5 5 5 5 5 5 5 5 5 5 5 5 5 5 5 5 5 5 5 5 5 5 5 5 5 5 5 5 5 5 5 5 5 5 5 5 5 5 5 5 5 5 5 5 5 5 5 5 5 5 5 5 5 5 5 5 5 5 5 5 5 5 5 5 5 5 5 5 5 5 5 5 5 5 5 5 5 5 5 5 5 5 5 5 5 5 5 5 5 5 5 5 5 5 5 5 5 5 5 5 5 5 5 5 5 5 5 5 5 5 5 5 5 5 5 5 5 5 5 5 5 5 5 5 5 5 5 5 5 5 5 5 5 5 5 5 5 5 5 5 5 5 5 5 5 5 5 5 5 5 5 5 5 5 5 5 5 5 5 5 5 5 5 5 5 5 5 5 5 5 5 5 5 5 5 5 5 5 5 5 5 5 5 5 5 5 5 5 5 5 5 5 5 5 5 5 5 5 5 5 5 5 5 5 5 5 5 5 5 5 5 5 5 5 5 5 5 5 5 5 5 5 5 5 5 5 5 5 5 5 5 5 5 5 5 5 5 5 5 5 5 5 5 5 5 5 5 5 5 5 5 5 5 5 5 5 5 5 5 5 5 5 5 5 5 5 5 5 5 5 5 5 5 5 5 5 5 5 5 5 5 5 5 5 5 5 5 5 5 5 5 5 5 5 5 5 5 5 5 5 5 5 5 5 5 5 5 5 5 5 5 5 5 5 5 5 5 5 5 5 5 5 5 5 5 5 5 5 5 5 5 5 5 5 5 5 5 5 5 5 5 5 5 5 5 5 5 5 5 5 5 5 5 5 5 5 5 5 5 5 5 5 5 5 5 5 5 5 5 5 5 5 5 5 5 5 5 5 5 5 5 5 5 5 5 5 5 5 5 5 5 5 5 5 5 5 5 5 5 5 5 5 5 5 5 5 5 5 5 5 5 5 5 5 5 5 5 5 5 5 5 5 5 5 5 5 5 5 5 5 5 5 5 5 5 5 5 5 5 5 5 5 5 5 5 5 5 5 5 5 5 5 5 5 5 5 5 5 5 5 5 5 5 5 5 5 5 5 5 5 5 5 5 5 5 5 5 5 5 5 5 5 5 5 5 5 5 5 5 5 5 5 5 5 5 5 5 5 5 5 5 5 5 5 5 5 5 5 5 5 5 5 5 5 5 5 5 5 5 5 5 5 5 5 5 5 5 5 5 5 5 5 5 5 5 5 5 5 5 5 5 5 5 5 5 5 5 5 5 5 5 5 5 5 5 5 5 5 5 5 5 5 5 5 5 5 5 5 5 5 5 5 5 5 5 5 5 5 5 5 5 5 5 5 5 5 5 5 5 5 5 5 5 5 5 5 5 5 5 5 5 5 5 5 5 5 5 5 5 5 5 5 5 5 5 5 5 5 5 5 5 5 5 5 5 5 5 5 5 5 5 5 5 5 5 5 5 5 5 5 5 5 5 5 5 5 5 5 5 5 5 5 5 5 5 5 5 5 5 5 5 5 5 5 5 5 5 5 5 5 5 5 5 5 5 5 5 5 5 5 5 5 5 5 5 5 5 5 5 5 5 5 5 5 5 5 5 5 5 5 5 5 5 5 5 5 5 5 5 5 5 5 5 5 5 5 5 5 5 5 5 5 5 5 5 5 5 5 5 5 5 5 5 5 5 5 5 5 5 5 5 5 5 5 5 5 5 5 5 5 5 5 5 5 5 5 5 5 5 5 5 5 5 5 5 5 5 5 5 5 5 5 5 5 5 5 5 5 5 5 5 5 5 5 5 5 5 5 5 5 5 5 5 5 5 5 5 5 5 5 5 5 5 5 5 5 5 5 5 5 5 5 5 5 5 5 5 5 5 5 5 5 5 5 5 5 5 5 5 5 5 5 5 5 5 5 5 5 5 5 5 5 5 5 5 5 5 5 5 5 5 5 5 5 5 5 5 5 5 5 5 5 5 5 5 5 5 5 5 5 5 5 5 5 5 5 5 5 5 5 5 5 5 5 5 5 5 5 5 5 5 5 5 5 5 5 5 5 5 5 5 5 5 5 5 5 5 5 5 5 5 5 5 5 5 5 5 5 5 5 5 5 5 5 5 5 5 5 5 5 5 5 5 5 5 5 5 5 5 5 5 5 5 5 5 5 5 5 5 5 5 5 5 5 5 5 5 5 5 5 5 5 5 5 5 5 5 5 5 5 5 5 5 5 5 5 5 5 5 5 5 5 5 5 5 5 5 5 5 5 5 5 5 5 5 5 5 5 5 5 5 5 5 5 5 5 5 5 5 5 5 5 5 5 5 5 5 5 5 5 5 5 5 5 5 5 5 5 5 5 5 5 5 5 5 5 5 5 5 5 5 5 5 5 5 5 5 5 5 5 5 5 5 5 5 5 5 5 5 5 5 5 5 5 5 5 5 5 5 5 5 5 5 5 5 5 5 5 5 5 5 5 5 5 5 5 5 5 5 5 5 5 5 5 5 5 5 5 5 5 5 5 5 5 5 </DataArray>
</Cells>
<PointData  Scalars=" mean stress"> 
<DataArray  type="Float64"  Name=" mean stress"  format="ascii">6.6609195563814573e+09  6.6609195535882635e+09  6.6609195485300398e+09  6.6609195393021269e+09  6.6609195390970831e+09  6.6609195418097591e+09  6.6609195873201780e+09  6.6609195290823717e+09  6.6609195236656761e+09  6.6609195648190346e+09  6.6609195061739626e+09  6.6609195456088009e+09  6.6609195417674799e+09  6.6609195464304094e+09  6.6609195263575392e+09  6.6609195446158209e+09  6.6609195495327902e+09  6.6609195397876244e+09  6.6609195661330681e+09  6.6609194852429333e+09  6.6609195468160391e+09  6.6609195447756376e+09  6.6609195467996588e+09  6.6609195394575949e+09  6.6609195444950809e+09  6.6609195373580418e+09  6.6609195404785728e+09  6.6609195400996609e+09  6.6609195385945635e+09  6.6609195450075912e+09  6.6609195480458012e+09  6.6609195322884493e+09  6.6609195269186716e+09  6.6609195353107681e+09  6.6609195477754850e+09  6.6609195705965538e+09  6.6609195384310055e+09  6.6609196142732115e+09  6.6609195239056892e+09  6.6609195447209148e+09  6.6609195230889521e+09  6.6609195469310188e+09  6.6609195402258043e+09  6.6609195449185104e+09  6.6609195423301287e+09  6.6609194771009827e+09  6.6609196100568933e+09  6.6609196169009094e+09  6.6609195036432085e+09  6.6609195313780174e+09  6.6609195409732609e+09  6.6609195372334881e+09  6.6609195409126663e+09  6.6609195414545660e+09  6.6609195332247534e+09  6.6609195397592716e+09  6.6609195376545267e+09  6.6609195403464899e+09  6.6609195300658245e+09  6.6609195417440195e+09  6.6609195643627310e+09  6.6609195257570152e+09  6.6609195129661942e+09  6.6609195393623438e+09  6.6609195338800907e+09  6.6609195405261097e+09  6.6609195333488379e+09  6.6609195594210892e+09  6.6609195492102079e+09  6.6609195445526543e+09  6.6609195447677889e+09  6.6609195452673664e+09  6.6609195143407001e+09  6.6609195915868578e+09  6.6609195620971670e+09  6.6609195312930107e+09  6.6609195386448555e+09  6.6609195446845121e+09  6.6609195198075018e+09  6.6609195401992311e+09  6.6609195335429640e+09  6.6609195223889055e+09  6.6609195464461575e+09  6.6609196012768126e+09  6.6609195289403343e+09  6.6609195362424726e+09  6.6609194963509235e+09  6.6609196088034220e+09  6.6609195581563177e+09  6.6609195259421921e+09  6.6609195448908710e+09  6.6609195436525335e+09  6.6609195563229618e+09  6.6609195795973463e+09  6.6609195354495478e+09  6.6609195306511250e+09  6.6609195092742481e+09  6.6609195462895594e+09  6.6609195353531332e+09  6.6609195424531479e+09  6.6609195412965403e+09  6.6609195271486797e+09  6.6609195426101885e+09  6.6609195467796831e+09  6.6609195418145628e+09  6.6609195391601772e+09  6.6609195389426842e+09  6.6609195491467266e+09  6.6609195386623297e+09  6.6609195656298723e+09  6.6609195181184664e+09  6.6609195441858263e+09  6.6609195495274763e+09  6.6609195285072947e+09  6.6609195403434086e+09  6.6609195439886236e+09  6.6609195388474874e+09  6.6609195400957279e+09  6.6609195168590450e+09  6.6609196390943251e+09  6.6609195471383057e+09  6.6609195586932325e+09  6.6609195640579691e+09  6.6609195301192741e+09  6.6609195416462803e+09  6.6609195521859703e+09  6.6609195408780174e+09  6.6609195439016132e+09  6.6609195350145035e+09  6.6609195330097933e+09  6.6609195391780443e+09  6.6609195409133034e+09  6.6609195431225033e+09  6.6609195560624037e+09  6.6609194914828243e+09  6.6609195421382055e+09  6.6609195211811743e+09  6.6609195730265169e+09  6.6609195803016624e+09  6.6609194601254292e+09  6.6609195417913904e+09  6.6609195236243773e+09  6.6609195095947371e+09  6.6609195585529613e+09  6.6609195451963463e+09  6.6609195369647179e+09  6.6609195475980339e+09  6.6609195464102840e+09  6.6609195396118546e+09  6.6609195349769878e+09  6.6609195362245522e+09  6.6609195435815477e+09  6.6609195418989458e+09  6.6609195381056509e+09  6.6609195357613964e+09  6.6609195464063416e+09  6.6609195666902533e+09  6.6609195861835451e+09  6.6609195327659712e+09  6.6609195347123461e+09  6.6609195282814322e+09  6.6609195471119833e+09  6.6609195471711798e+09  6.6609195454977741e+09  6.6609195463738146e+09  6.6609195386826487e+09  6.6609195461202202e+09  6.6609195296414528e+09  6.6609195242963428e+09  6.6609195347530298e+09  6.6609195683603506e+09  6.6609195456390142e+09  6.6609195884855709e+09  6.6609194987078772e+09  6.6609195588872814e+09  6.6609195540546598e+09  6.6609195361362133e+09  6.6609195448471489e+09  6.6609195401909733e+09  6.6609195350608225e+09  6.6609195446476860e+09  6.6609195446225233e+09  6.6609195466719275e+09  6.6609195392256985e+09  6.6609195381725101e+09  6.6609195400158091e+09  6.6609195285122509e+09  6.6609195008022633e+09  6.6609195172977152e+09  6.6609195826657495e+09  6.6609195144995594e+09  6.6609195483098812e+09  6.6609194645570755e+09  6.6609196020610895e+09  6.6609195401326628e+09  6.6609195538253298e+09  6.6609195320458574e+09  6.6609195353813210e+09  6.6609195183331833e+09  6.6609195500526648e+09  6.6609195073644562e+09  6.6609195506746197e+09  6.6609195289441748e+09  6.6609195544023352e+09  6.6609195352385521e+09  6.6609195254387121e+09  6.6609195835532579e+09  6.6609195393429327e+09  6.6609195287770586e+09  6.6609195463776016e+09  6.6609195433600798e+09  6.6609195362772341e+09  6.6609195398717318e+09  6.6609195411169729e+09  6.6609195411519337e+09  6.6609195358203049e+09  6.6609195501509047e+09  6.6609195437942848e+09  6.6609195384164762e+09  6.6609195412782850e+09  6.6609195409624605e+09  6.6609195428397398e+09  6.6609195549441891e+09  6.6609195501000490e+09  6.6609195567801437e+09  6.6609195435157833e+09  6.6609195453978786e+09  6.6609195600345173e+09  6.6609195678573866e+09  6.6609195082027578e+09  6.6609195470173788e+09  6.6609194508238773e+09  6.6609195450623398e+09  6.6609195735372801e+09  6.6609195467091360e+09  6.6609195290890598e+09  6.6609195157800694e+09  6.6609195284007263e+09  6.6609195593012209e+09  6.6609195182603779e+09  6.6609195382499886e+09  6.6609195158033447e+09  6.6609195448519258e+09  6.6609195285887384e+09  6.6609195996671028e+09  6.6609195471887045e+09  6.6609194497461586e+09  6.6609195364748011e+09  6.6609195402192240e+09  6.6609195612722578e+09  6.6609195262720680e+09  6.6609195455488033e+09  6.6609195302749357e+09  6.6609195201290884e+09  6.6609194724136868e+09  6.6609195174331837e+09  6.6609195708661871e+09  6.6609195549350529e+09  6.6609195664247074e+09  6.6609194823760986e+09  6.6609195626425047e+09  6.6609195801539297e+09  6.6609195291950903e+09  6.6609195583878117e+09  6.6609195235149813e+09  6.6609195359237843e+09  6.6609195456890173e+09  6.6609195604390421e+09  6.6609195340850258e+09  6.6609195127793608e+09  6.6609195254448528e+09  6.6609195413021402e+09  6.6609195345355873e+09  6.6609195320668373e+09  6.6609195444603195e+09  6.6609195453503571e+09  6.6609195417807589e+09  6.6609195366337223e+09  6.6609195555042152e+09  6.6609195314236746e+09  6.6609195465054960e+09  6.6609195472742958e+09  6.6609195287899122e+09  6.6609195067240591e+09  6.6609195515492830e+09  6.6609195260767078e+09  6.6609195513376036e+09  6.6609195390356617e+09  6.6609195427671623e+09  6.6609195435236263e+09  6.6609195354468298e+09  6.6609195402954559e+09  6.6609195430556879e+09  6.6609195326238098e+09  6.6609195453848848e+09  6.6609195321931171e+09  6.6609195303376303e+09  6.6609195092954226e+09  6.6609195416395607e+09  6.6609195401385584e+09  6.6609195372587223e+09  6.6609195389114485e+09  6.6609195362725353e+09  6.6609195404352036e+09  6.6609195471355562e+09  6.6609195368135805e+09  6.6609195568044605e+09  6.6609194738765821e+09  6.6609194770880966e+09  6.6609195396933851e+09  6.6609195380299063e+09  6.6609195461452894e+09  6.6609195378925066e+09  6.6609195395073633e+09  6.6609195498885183e+09  6.6609195293788223e+09  6.6609195303848743e+09  6.6609195776756697e+09  6.6609196193534956e+09  6.6609196953554125e+09  6.6609195245818157e+09  6.6609195142366810e+09  6.6609195931769733e+09  6.6609195110103455e+09  6.6609195132526731e+09  6.6609195073341866e+09  6.6609196127177563e+09  6.6609194734339476e+09  6.6609195866310501e+09  6.6609193209368372e+09  6.6609195761151104e+09  6.6609195067705708e+09  6.6609196371356201e+09  6.6609195436646223e+09  6.6609195315100889e+09  6.6609195319574947e+09  6.6609195480441961e+09  6.6609195349788990e+09  6.6609195554030542e+09  6.6609195397061901e+09  6.6609195435997038e+09  6.6609195348428888e+09  6.6609195459194555e+09  6.6609195432013206e+09  6.6609195418592319e+09  6.6609195578320417e+09  6.6609195150391645e+09  6.6609195577771788e+09  6.6609195609700079e+09  6.6609195335564747e+09  6.6609195449245052e+09  6.6609195402775002e+09  6.6609195305919733e+09  6.6609195142976685e+09  6.6609195341729794e+09  6.6609195352418375e+09  6.6609195429708595e+09  6.6609195391268835e+09  6.6609194993897934e+09  6.6609195788359766e+09  6.6609195411962633e+09  6.6609195585176325e+09  6.6609195308122044e+09  6.6609195457367010e+09  6.6609195494793100e+09  6.6609195133498602e+09  6.6609196193849678e+09  6.6609195660425882e+09  6.6609195703963127e+09  6.6609195825866871e+09  6.6609195613821526e+09  6.6609194440065994e+09  6.6609195420146618e+09  6.6609195441448097e+09  6.6609195428609076e+09  6.6609195068066969e+09  6.6609195451101637e+09  6.6609195549068279e+09  6.6609195425987988e+09  6.6609195357921400e+09  6.6609195348900414e+09  6.6609195491563511e+09  6.6609195352730265e+09  6.6609195441960459e+09  6.6609195341715708e+09  6.6609195521945696e+09  6.6609195325233536e+09  6.6609195373555241e+09  6.6609195870698557e+09  6.6609195450626421e+09  6.6609195425957232e+09  6.6609195497466993e+09  6.6609195366760187e+09  6.6609195346363363e+09  6.6609195372719278e+09  6.6609195423845377e+09  6.6609195438522606e+09  6.6609195360572519e+09  6.6609195360973415e+09  6.6609195450735207e+09  6.6609195394964666e+09  6.6609195418725853e+09  6.6609195416842642e+09  6.6609195372224522e+09  6.6609195408211107e+09  6.6609195347640152e+09  6.6609195396156054e+09  6.6609195389900236e+09  6.6609195576040068e+09  6.6609194654695311e+09  6.6609195123059683e+09  6.6609195723954401e+09  6.6609195860427065e+09  6.6609195477563047e+09  6.6609195738736639e+09  6.6609195274648628e+09  6.6609195513739519e+09  6.6609195435313873e+09  6.6609195321177578e+09  6.6609195400790491e+09  6.6609195461612482e+09  6.6609195389021101e+09  6.6609195403846588e+09  6.6609195411015110e+09  6.6609195413348093e+09  6.6609195162190838e+09  6.6609195491257067e+09  6.6609195298275700e+09  6.6609195421933413e+09  6.6609195687831354e+09  6.6609195397212286e+09  6.6609195331033268e+09  6.6609195275537653e+09  6.6609195207000008e+09  6.6609195340297623e+09  6.6609195819406376e+09  6.6609195402534361e+09  6.6609195412207651e+09  6.6609195377069540e+09  6.6609195238703604e+09  6.6609195482388010e+09  6.6609195485505648e+09  6.6609195416905890e+09  6.6609195446172123e+09  6.6609195536131887e+09  6.6609195473920660e+09  6.6609195276051054e+09  6.6609195457058468e+09  6.6609195592547407e+09  6.6609195546165924e+09  6.6609195770302153e+09  6.6609194572054214e+09  6.6609195523062429e+09  6.6609195576528683e+09  6.6609195462699022e+09  6.6609195440087347e+09  6.6609195532854128e+09  6.6609195445458784e+09  6.6609195316667328e+09  6.6609195371936016e+09  6.6609195367791014e+09  6.6609195384495020e+09  6.6609195407879734e+09  6.6609195406908808e+09  6.6609195482356443e+09  6.6609195280477314e+09  6.6609195382603531e+09  6.6609195423169050e+09  6.6609195369216290e+09  6.6609195379188366e+09  6.6609195407928038e+09  6.6609195393923817e+09  6.6609195297625008e+09  6.6609195474729033e+09  6.6609195407939863e+09  6.6609195282350769e+09  6.6609195312145052e+09  6.6609195312988977e+09  6.6609195530136909e+09  6.6609195367173662e+09  6.6609195315336504e+09  6.6609195404476137e+09  6.6609195317798519e+09  6.6609195481091299e+09  6.6609195446317272e+09  6.6609195373823137e+09  6.6609195306986475e+09  6.6609195808508196e+09  6.6609195509284840e+09  6.6609195406332235e+09  6.6609195245886393e+09  6.6609195357067099e+09  6.6609195450632677e+09  6.6609195259140444e+09  6.6609195296155510e+09  6.6609195428184814e+09  6.6609195425902672e+09  6.6609195381119051e+09  6.6609195523322554e+09  6.6609195118104477e+09  6.6609195429638834e+09  6.6609195654095488e+09  6.6609195364022818e+09  6.6609195274345732e+09  6.6609195353510571e+09  6.6609195296181431e+09  6.6609195303868303e+09  6.6609194978522167e+09  6.6609196184592314e+09  6.6609195329994249e+09  6.6609195185598011e+09  6.6609195683823118e+09  6.6609195060080843e+09  6.6609195586830235e+09  6.6609195218831778e+09  6.6609195539124708e+09  6.6609195519141073e+09  6.6609194283963194e+09  6.6609194902870131e+09  6.6609195349034700e+09  6.6609195604274549e+09  6.6609195197511015e+09  6.6609195376612787e+09  6.6609195432454004e+09  6.6609194907519264e+09  6.6609195455890102e+09  6.6609194844434080e+09  6.6609194845358162e+09  6.6609195247166281e+09  6.6609194855247650e+09  6.6609195664091234e+09  6.6609195267366333e+09  6.6609195396373377e+09  6.6609195857467461e+09  6.6609195014818211e+09  6.6609195327614136e+09  6.6609195204222527e+09  6.6609195614366341e+09  6.6609195271849499e+09  6.6609195191984730e+09  6.6609195427203751e+09  6.6609195490997620e+09  6.6609195381409483e+09  6.6609195663194065e+09  6.6609195422990561e+09  6.6609195410047913e+09  6.6609195405898323e+09  6.6609195389605618e+09  6.6609195477554312e+09  6.6609195437877045e+09  6.6609195154166460e+09  6.6609195330786543e+09  6.6609195552171965e+09  6.6609195416687469e+09  6.6609195122033367e+09  6.6609195514099617e+09  6.6609195475854139e+09  6.6609195407982063e+09  6.6609195790944157e+09  6.6609195858248177e+09  6.6609195625082626e+09  6.6609195029424963e+09  6.6609195358414469e+09  6.6609195678561153e+09  6.6609195456536465e+09  6.6609195418311529e+09  6.6609195559771442e+09  6.6609195379546270e+09  6.6609195442971382e+09  6.6609195546816063e+09  6.6609195365924006e+09  6.6609195375333881e+09  6.6609195431770172e+09  6.6609195436489687e+09  6.6609195406634521e+09  6.6609195149949532e+09  6.6609195183160028e+09  6.6609195357076473e+09  6.6609194402745047e+09  6.6609194977219353e+09  6.6609195203304348e+09  6.6609195443687582e+09  6.6609195593244047e+09  6.6609195384194727e+09  6.6609195382405767e+09  6.6609195382340536e+09  6.6609195240494137e+09  6.6609195641343918e+09  6.6609195396525955e+09  6.6609195318699074e+09  6.6609195286809187e+09  6.6609195367837276e+09  6.6609195499155350e+09  6.6609195384627466e+09  6.6609195633937712e+09  6.6609195885024223e+09  6.6609195378699856e+09  6.6609195360125999e+09  6.6609195348576965e+09  6.6609195605552254e+09  6.6609195244740906e+09  6.6609195204349566e+09  6.6609195406915722e+09  6.6609195530939837e+09  6.6609195439228964e+09  6.6609195476814699e+09  6.6609195434571581e+09  6.6609194938588963e+09  6.6609195349790735e+09  6.6609194758751249e+09  6.6609195393310347e+09  6.6609195010982952e+09  6.6609195559002314e+09  6.6609195118471394e+09  6.6609195466769762e+09  6.6609195533206873e+09  6.6609195627091131e+09  6.6609195957285280e+09  6.6609195321207914e+09  6.6609195783719339e+09  6.6609195552575989e+09  6.6609195290309000e+09  6.6609195642698240e+09  6.6609195225443621e+09  6.6609195242416687e+09  6.6609195434157085e+09  6.6609195455824871e+09  6.6609195289643736e+09  6.6609195413050241e+09  6.6609195432417240e+09  6.6609195136331081e+09  6.6609195285227823e+09  6.6609195702831993e+09  6.6609195398406973e+09  6.6609195296071119e+09  6.6609195745494576e+09  6.6609195534880667e+09  6.6609195554027739e+09  6.6609195435563240e+09  6.6609195406657476e+09  6.6609195336404495e+09  6.6609194901582689e+09  6.6609195393813829e+09  6.6609195454536495e+09  6.6609195407621317e+09  6.6609195414928026e+09  6.6609195389261427e+09  6.6609195437764893e+09  6.6609195361116304e+09  6.6609195412898121e+09  6.6609195454363527e+09  6.6609195391878099e+09  6.6609195420689373e+09  6.6609195491129847e+09  6.6609195416735220e+09  6.6609195377423525e+09  6.6609195306166782e+09  6.6609195353315620e+09  6.6609195414798880e+09  6.6609195351376152e+09  6.6609195382864685e+09  6.6609195114325151e+09  6.6609195175186014e+09  6.6609195398193426e+09  6.6609195566526566e+09  6.6609195441033649e+09  6.6609195514659719e+09  6.6609195453288479e+09  6.6609195396837673e+09  6.6609195454097891e+09  6.6609195420407343e+09  6.6609195456101561e+09  6.6609195372952633e+09  6.6609195408711452e+09  6.6609195420655766e+09  6.6609195467162275e+09  6.6609194671278534e+09  6.6609195273944836e+09  6.6609195350233412e+09  6.6609195634770231e+09  6.6609195353290558e+09  6.6609195147141266e+09  6.6609195407057524e+09  6.6609195400859613e+09  6.6609195400440159e+09  6.6609195482846336e+09  6.6609195321017666e+09  6.6609195501340933e+09  6.6609195447076998e+09  6.6609195413836317e+09  6.6609195389421787e+09  6.6609195592174721e+09  6.6609195604758453e+09  6.6609195311950464e+09  6.6609196670366335e+09  6.6609194813142157e+09  6.6609195313491106e+09  6.6609195276429472e+09  6.6609195298232422e+09  6.6609195260106936e+09  6.6609195404025726e+09  6.6609195441717482e+09  6.6609195293372145e+09  6.6609195389869471e+09  6.6609195370882721e+09  6.6609195323113174e+09  6.6609195123635406e+09  6.6609195255127840e+09  6.6609195494757767e+09  6.6609195487449732e+09  6.6609195547677984e+09  6.6609195572564030e+09  6.6609195360423145e+09  6.6609195303099041e+09  6.6609195251823349e+09  6.6609195495905457e+09  6.6609195483241968e+09  6.6609195255174417e+09  6.6609195335752182e+09  6.6609195855212536e+09  6.6609194702062149e+09  6.6609194497320480e+09  6.6609195242609234e+09  6.6609195544939651e+09  6.6609195152947063e+09  6.6609195427186422e+09  6.6609195336228724e+09  6.6609195343962784e+09  6.6609195415448341e+09  6.6609194495267982e+09  6.6609195439174728e+09  6.6609195396114435e+09  6.6609195266683025e+09  6.6609195427165203e+09  6.6609195644018574e+09  6.6609195580282221e+09  6.6609195567039738e+09  6.6609195394933872e+09  6.6609195412942572e+09  6.6609195409806910e+09  6.6609195543543072e+09  6.6609195393943577e+09  6.6609195258671169e+09  6.6609195523573475e+09  6.6609195038017311e+09  6.6609195426410494e+09  6.6609195350071173e+09  6.6609195463232851e+09  6.6609195431966896e+09  6.6609195408133888e+09  6.6609195117867489e+09  6.6609196436094275e+09  6.6609195141054316e+09  6.6609195801725512e+09  6.6609195281953707e+09  6.6609195388891401e+09  6.6609195324823856e+09  6.6609195286202288e+09  6.6609195187127056e+09  6.6609195262233429e+09  6.6609195319384623e+09  6.6609195501924858e+09  6.6609195368193331e+09  6.6609195001717615e+09  6.6609195121173429e+09  6.6609195616521616e+09  6.6609195294559250e+09  6.6609195519005442e+09  6.6609195532495403e+09  6.6609195384370356e+09  6.6609195379930487e+09  6.6609195390376673e+09  6.6609195447968378e+09  6.6609195279602718e+09  6.6609195206861668e+09  6.6609195523575487e+09  6.6609195420092010e+09  6.6609195374682064e+09  6.6609196325573902e+09  6.6609195373122969e+09  6.6609195350104723e+09  6.6609195476158686e+09  6.6609196787107897e+09  6.6609195371347733e+09  6.6609195414103518e+09  6.6609195311910086e+09  6.6609195435204172e+09  6.6609195413246670e+09  6.6609195386674042e+09  6.6609196138038759e+09  6.6609195484048328e+09  6.6609195500938053e+09  6.6609195448093815e+09  6.6609195104927759e+09  6.6609195394658375e+09  6.6609195418584175e+09  6.6609195421484165e+09  6.6609195565110664e+09  6.6609195318872290e+09  6.6609195414742975e+09  6.6609195504429836e+09  6.6609195105914888e+09  6.6609195374166508e+09  6.6609195427796354e+09  6.6609194925237694e+09  6.6609195571947727e+09  6.6609195396984415e+09  6.6609195406216717e+09  6.6609195733538656e+09  6.6609195533740501e+09  6.6609195425908089e+09  6.6609195410967894e+09  6.6609195423009844e+09  6.6609195193584290e+09  6.6609195477508879e+09  6.6609195713710814e+09  6.6609195548121204e+09  6.6609195348994474e+09  6.6609195451625690e+09  6.6609195475241547e+09  6.6609195271901655e+09  6.6609195413713865e+09  6.6609195391259060e+09  6.6609195447703753e+09  6.6609195251698704e+09  6.6609195437683296e+09  6.6609195420149069e+09  6.6609195626521120e+09  6.6609195471975994e+09  6.6609195544148979e+09  6.6609195519009027e+09  6.6609195538830347e+09  6.6609195320377111e+09  6.6609195435901318e+09  6.6609195422360735e+09  6.6609195509197102e+09  6.6609194608741598e+09  6.6609195302977591e+09  6.6609195302873545e+09  6.6609195611029921e+09  6.6609195299568796e+09  6.6609195472503052e+09  </DataArray> 
</PointData> 
</Piece>
</UnstructuredGrid>
</VTKFile>