<?xml version="1.0"?>
<VTKFile type="UnstructuredGrid"  version="0.1"  >
<UnstructuredGrid>
<Piece  NumberOfPoints="1661" NumberOfCells="3200">
<Points>
<DataArray  type="Float64"  NumberOfComponents="3"  format="ascii">-0.25 -1 0  -0.225 -1 0  -0.2 -1 0  -0.175 -1 0  -0.15 -1 0  -0.125 -1 0  -0.1 -1 0  -0.07500000000000001 -1 0  -0.04999999999999999 -1 0  -0.02499999999999999 -1 0  0 -1 0  0.02500000000000002 -1 0  0.04999999999999999 -1 0  0.07500000000000001 -1 0  0.09999999999999998 -1 0  0.125 -1 0  0.15 -1 0  0.175 -1 0  0.2 -1 0  0.225 -1 0  0.25 -1 0  -0.25 -0.975 0  -0.225 -0.975 0  -0.2 -0.975 0  -0.175 -0.975 0  -0.15 -0.975 0  -0.125 -0.975 0  -0.1 -0.975 0  -0.07500000000000001 -0.975 0  -0.04999999999999999 -0.975 0  -0.02499999999999999 -0.975 0  0 -0.975 0  0.02500000000000002 -0.975 0  0.04999999999999999 -0.975 0  0.07500000000000001 -0.975 0  0.09999999999999998 -0.975 0  0.125 -0.975 0  0.15 -0.975 0  0.175 -0.975 0  0.2 -0.975 0  0.225 -0.975 0  0.25 -0.975 0  -0.25 -0.95 0  -0.225 -0.95 0  -0.2 -0.95 0  -0.175 -0.95 0  -0.15 -0.95 0  -0.125 -0.95 0  -0.1 -0.95 0  -0.07500000000000001 -0.95 0  -0.04999999999999999 -0.95 0  -0.02499999999999999 -0.95 0  0 -0.95 0  0.02500000000000002 -0.95 0  0.04999999999999999 -0.95 0  0.07500000000000001 -0.95 0  0.09999999999999998 -0.95 0  0.125 -0.95 0  0.15 -0.95 0  0.175 -0.95 0  0.2 -0.95 0  0.225 -0.95 0  0.25 -0.95 0  -0.25 -0.925 0  -0.225 -0.925 0  -0.2 -0.925 0  -0.175 -0.925 0  -0.15 -0.925 0  -0.125 -0.925 0  -0.1 -0.925 0  -0.07500000000000001 -0.925 0  -0.04999999999999999 -0.925 0  -0.02499999999999999 -0.925 0  0 -0.925 0  0.02500000000000002 -0.925 0  0.04999999999999999 -0.925 0  0.07500000000000001 -0.925 0  0.09999999999999998 -0.925 0  0.125 -0.925 0  0.15 -0.925 0  0.175 -0.925 0  0.2 -0.925 0  0.225 -0.925 0  0.25 -0.925 0  -0.25 -0.9 0  -0.225 -0.9 0  -0.2 -0.9 0  -0.175 -0.9 0  -0.15 -0.9 0  -0.125 -0.9 0  -0.1 -0.9 0  -0.07500000000000001 -0.9 0  -0.04999999999999999 -0.9 0  -0.02499999999999999 -0.9 0  0 -0.9 0  0.02500000000000002 -0.9 0  0.04999999999999999 -0.9 0  0.07500000000000001 -0.9 0  0.09999999999999998 -0.9 0  0.125 -0.9 0  0.15 -0.9 0  0.175 -0.9 0  0.2 -0.9 0  0.225 -0.9 0  0.25 -0.9 0  -0.25 -0.875 0  -0.225 -0.875 0  -0.2 -0.875 0  -0.175 -0.875 0  -0.15 -0.875 0  -0.125 -0.875 0  -0.1 -0.875 0  -0.07500000000000001 -0.875 0  -0.04999999999999999 -0.875 0  -0.02499999999999999 -0.875 0  0 -0.875 0  0.02500000000000002 -0.875 0  0.04999999999999999 -0.875 0  0.07500000000000001 -0.875 0  0.09999999999999998 -0.875 0  0.125 -0.875 0  0.15 -0.875 0  0.175 -0.875 0  0.2 -0.875 0  0.225 -0.875 0  0.25 -0.875 0  -0.25 -0.85 0  -0.225 -0.85 0  -0.2 -0.85 0  -0.175 -0.85 0  -0.15 -0.85 0  -0.125 -0.85 0  -0.1 -0.85 0  -0.07500000000000001 -0.85 0  -0.04999999999999999 -0.85 0  -0.02499999999999999 -0.85 0  0 -0.85 0  0.02500000000000002 -0.85 0  0.04999999999999999 -0.85 0  0.07500000000000001 -0.85 0  0.09999999999999998 -0.85 0  0.125 -0.85 0  0.15 -0.85 0  0.175 -0.85 0  0.2 -0.85 0  0.225 -0.85 0  0.25 -0.85 0  -0.25 -0.825 0  -0.225 -0.825 0  -0.2 -0.825 0  -0.175 -0.825 0  -0.15 -0.825 0  -0.125 -0.825 0  -0.1 -0.825 0  -0.07500000000000001 -0.825 0  -0.04999999999999999 -0.825 0  -0.02499999999999999 -0.825 0  0 -0.825 0  0.02500000000000002 -0.825 0  0.04999999999999999 -0.825 0  0.07500000000000001 -0.825 0  0.09999999999999998 -0.825 0  0.125 -0.825 0  0.15 -0.825 0  0.175 -0.825 0  0.2 -0.825 0  0.225 -0.825 0  0.25 -0.825 0  -0.25 -0.8 0  -0.225 -0.8 0  -0.2 -0.8 0  -0.175 -0.8 0  -0.15 -0.8 0  -0.125 -0.8 0  -0.1 -0.8 0  -0.07500000000000001 -0.8 0  -0.04999999999999999 -0.8 0  -0.02499999999999999 -0.8 0  0 -0.8 0  0.02500000000000002 -0.8 0  0.04999999999999999 -0.8 0  0.07500000000000001 -0.8 0  0.09999999999999998 -0.8 0  0.125 -0.8 0  0.15 -0.8 0  0.175 -0.8 0  0.2 -0.8 0  0.225 -0.8 0  0.25 -0.8 0  -0.25 -0.775 0  -0.225 -0.775 0  -0.2 -0.775 0  -0.175 -0.775 0  -0.15 -0.775 0  -0.125 -0.775 0  -0.1 -0.775 0  -0.07500000000000001 -0.775 0  -0.04999999999999999 -0.775 0  -0.02499999999999999 -0.775 0  0 -0.775 0  0.02500000000000002 -0.775 0  0.04999999999999999 -0.775 0  0.07500000000000001 -0.775 0  0.09999999999999998 -0.775 0  0.125 -0.775 0  0.15 -0.775 0  0.175 -0.775 0  0.2 -0.775 0  0.225 -0.775 0  0.25 -0.775 0  -0.25 -0.75 0  -0.225 -0.75 0  -0.2 -0.75 0  -0.175 -0.75 0  -0.15 -0.75 0  -0.125 -0.75 0  -0.1 -0.75 0  -0.07500000000000001 -0.75 0  -0.04999999999999999 -0.75 0  -0.02499999999999999 -0.75 0  0 -0.75 0  0.02500000000000002 -0.75 0  0.04999999999999999 -0.75 0  0.07500000000000001 -0.75 0  0.09999999999999998 -0.75 0  0.125 -0.75 0  0.15 -0.75 0  0.175 -0.75 0  0.2 -0.75 0  0.225 -0.75 0  0.25 -0.75 0  -0.25 -0.725 0  -0.225 -0.725 0  -0.2 -0.725 0  -0.175 -0.725 0  -0.15 -0.725 0  -0.125 -0.725 0  -0.1 -0.725 0  -0.07500000000000001 -0.725 0  -0.04999999999999999 -0.725 0  -0.02499999999999999 -0.725 0  0 -0.725 0  0.02500000000000002 -0.725 0  0.04999999999999999 -0.725 0  0.07500000000000001 -0.725 0  0.09999999999999998 -0.725 0  0.125 -0.725 0  0.15 -0.725 0  0.175 -0.725 0  0.2 -0.725 0  0.225 -0.725 0  0.25 -0.725 0  -0.25 -0.7 0  -0.225 -0.7 0  -0.2 -0.7 0  -0.175 -0.7 0  -0.15 -0.7 0  -0.125 -0.7 0  -0.1 -0.7 0  -0.07500000000000001 -0.7 0  -0.04999999999999999 -0.7 0  -0.02499999999999999 -0.7 0  0 -0.7 0  0.02500000000000002 -0.7 0  0.04999999999999999 -0.7 0  0.07500000000000001 -0.7 0  0.09999999999999998 -0.7 0  0.125 -0.7 0  0.15 -0.7 0  0.175 -0.7 0  0.2 -0.7 0  0.225 -0.7 0  0.25 -0.7 0  -0.25 -0.675 0  -0.225 -0.675 0  -0.2 -0.675 0  -0.175 -0.675 0  -0.15 -0.675 0  -0.125 -0.675 0  -0.1 -0.675 0  -0.07500000000000001 -0.675 0  -0.04999999999999999 -0.675 0  -0.02499999999999999 -0.675 0  0 -0.675 0  0.02500000000000002 -0.675 0  0.04999999999999999 -0.675 0  0.07500000000000001 -0.675 0  0.09999999999999998 -0.675 0  0.125 -0.675 0  0.15 -0.675 0  0.175 -0.675 0  0.2 -0.675 0  0.225 -0.675 0  0.25 -0.675 0  -0.25 -0.65 0  -0.225 -0.65 0  -0.2 -0.65 0  -0.175 -0.65 0  -0.15 -0.65 0  -0.125 -0.65 0  -0.1 -0.65 0  -0.07500000000000001 -0.65 0  -0.04999999999999999 -0.65 0  -0.02499999999999999 -0.65 0  0 -0.65 0  0.02500000000000002 -0.65 0  0.04999999999999999 -0.65 0  0.07500000000000001 -0.65 0  0.09999999999999998 -0.65 0  0.125 -0.65 0  0.15 -0.65 0  0.175 -0.65 0  0.2 -0.65 0  0.225 -0.65 0  0.25 -0.65 0  -0.25 -0.625 0  -0.225 -0.625 0  -0.2 -0.625 0  -0.175 -0.625 0  -0.15 -0.625 0  -0.125 -0.625 0  -0.1 -0.625 0  -0.07500000000000001 -0.625 0  -0.04999999999999999 -0.625 0  -0.02499999999999999 -0.625 0  0 -0.625 0  0.02500000000000002 -0.625 0  0.04999999999999999 -0.625 0  0.07500000000000001 -0.625 0  0.09999999999999998 -0.625 0  0.125 -0.625 0  0.15 -0.625 0  0.175 -0.625 0  0.2 -0.625 0  0.225 -0.625 0  0.25 -0.625 0  -0.25 -0.6 0  -0.225 -0.6 0  -0.2 -0.6 0  -0.175 -0.6 0  -0.15 -0.6 0  -0.125 -0.6 0  -0.1 -0.6 0  -0.07500000000000001 -0.6 0  -0.04999999999999999 -0.6 0  -0.02499999999999999 -0.6 0  0 -0.6 0  0.02500000000000002 -0.6 0  0.04999999999999999 -0.6 0  0.07500000000000001 -0.6 0  0.09999999999999998 -0.6 0  0.125 -0.6 0  0.15 -0.6 0  0.175 -0.6 0  0.2 -0.6 0  0.225 -0.6 0  0.25 -0.6 0  -0.25 -0.575 0  -0.225 -0.575 0  -0.2 -0.575 0  -0.175 -0.575 0  -0.15 -0.575 0  -0.125 -0.575 0  -0.1 -0.575 0  -0.07500000000000001 -0.575 0  -0.04999999999999999 -0.575 0  -0.02499999999999999 -0.575 0  0 -0.575 0  0.02500000000000002 -0.575 0  0.04999999999999999 -0.575 0  0.07500000000000001 -0.575 0  0.09999999999999998 -0.575 0  0.125 -0.575 0  0.15 -0.575 0  0.175 -0.575 0  0.2 -0.575 0  0.225 -0.575 0  0.25 -0.575 0  -0.25 -0.55 0  -0.225 -0.55 0  -0.2 -0.55 0  -0.175 -0.55 0  -0.15 -0.55 0  -0.125 -0.55 0  -0.1 -0.55 0  -0.07500000000000001 -0.55 0  -0.04999999999999999 -0.55 0  -0.02499999999999999 -0.55 0  0 -0.55 0  0.02500000000000002 -0.55 0  0.04999999999999999 -0.55 0  0.07500000000000001 -0.55 0  0.09999999999999998 -0.55 0  0.125 -0.55 0  0.15 -0.55 0  0.175 -0.55 0  0.2 -0.55 0  0.225 -0.55 0  0.25 -0.55 0  -0.25 -0.525 0  -0.225 -0.525 0  -0.2 -0.525 0  -0.175 -0.525 0  -0.15 -0.525 0  -0.125 -0.525 0  -0.1 -0.525 0  -0.07500000000000001 -0.525 0  -0.04999999999999999 -0.525 0  -0.02499999999999999 -0.525 0  0 -0.525 0  0.02500000000000002 -0.525 0  0.04999999999999999 -0.525 0  0.07500000000000001 -0.525 0  0.09999999999999998 -0.525 0  0.125 -0.525 0  0.15 -0.525 0  0.175 -0.525 0  0.2 -0.525 0  0.225 -0.525 0  0.25 -0.525 0  -0.25 -0.5 0  -0.225 -0.5 0  -0.2 -0.5 0  -0.175 -0.5 0  -0.15 -0.5 0  -0.125 -0.5 0  -0.1 -0.5 0  -0.07500000000000001 -0.5 0  -0.04999999999999999 -0.5 0  -0.02499999999999999 -0.5 0  0 -0.5 0  0.02500000000000002 -0.5 0  0.04999999999999999 -0.5 0  0.07500000000000001 -0.5 0  0.09999999999999998 -0.5 0  0.125 -0.5 0  0.15 -0.5 0  0.175 -0.5 0  0.2 -0.5 0  0.225 -0.5 0  0.25 -0.5 0  -0.25 -0.475 0  -0.225 -0.475 0  -0.2 -0.475 0  -0.175 -0.475 0  -0.15 -0.475 0  -0.125 -0.475 0  -0.1 -0.475 0  -0.07500000000000001 -0.475 0  -0.04999999999999999 -0.475 0  -0.02499999999999999 -0.475 0  0 -0.475 0  0.02500000000000002 -0.475 0  0.04999999999999999 -0.475 0  0.07500000000000001 -0.475 0  0.09999999999999998 -0.475 0  0.125 -0.475 0  0.15 -0.475 0  0.175 -0.475 0  0.2 -0.475 0  0.225 -0.475 0  0.25 -0.475 0  -0.25 -0.45 0  -0.225 -0.45 0  -0.2 -0.45 0  -0.175 -0.45 0  -0.15 -0.45 0  -0.125 -0.45 0  -0.1 -0.45 0  -0.07500000000000001 -0.45 0  -0.04999999999999999 -0.45 0  -0.02499999999999999 -0.45 0  0 -0.45 0  0.02500000000000002 -0.45 0  0.04999999999999999 -0.45 0  0.07500000000000001 -0.45 0  0.09999999999999998 -0.45 0  0.125 -0.45 0  0.15 -0.45 0  0.175 -0.45 0  0.2 -0.45 0  0.225 -0.45 0  0.25 -0.45 0  -0.25 -0.425 0  -0.225 -0.425 0  -0.2 -0.425 0  -0.175 -0.425 0  -0.15 -0.425 0  -0.125 -0.425 0  -0.1 -0.425 0  -0.07500000000000001 -0.425 0  -0.04999999999999999 -0.425 0  -0.02499999999999999 -0.425 0  0 -0.425 0  0.02500000000000002 -0.425 0  0.04999999999999999 -0.425 0  0.07500000000000001 -0.425 0  0.09999999999999998 -0.425 0  0.125 -0.425 0  0.15 -0.425 0  0.175 -0.425 0  0.2 -0.425 0  0.225 -0.425 0  0.25 -0.425 0  -0.25 -0.4 0  -0.225 -0.4 0  -0.2 -0.4 0  -0.175 -0.4 0  -0.15 -0.4 0  -0.125 -0.4 0  -0.1 -0.4 0  -0.07500000000000001 -0.4 0  -0.04999999999999999 -0.4 0  -0.02499999999999999 -0.4 0  0 -0.4 0  0.02500000000000002 -0.4 0  0.04999999999999999 -0.4 0  0.07500000000000001 -0.4 0  0.09999999999999998 -0.4 0  0.125 -0.4 0  0.15 -0.4 0  0.175 -0.4 0  0.2 -0.4 0  0.225 -0.4 0  0.25 -0.4 0  -0.25 -0.375 0  -0.225 -0.375 0  -0.2 -0.375 0  -0.175 -0.375 0  -0.15 -0.375 0  -0.125 -0.375 0  -0.1 -0.375 0  -0.07500000000000001 -0.375 0  -0.04999999999999999 -0.375 0  -0.02499999999999999 -0.375 0  0 -0.375 0  0.02500000000000002 -0.375 0  0.04999999999999999 -0.375 0  0.07500000000000001 -0.375 0  0.09999999999999998 -0.375 0  0.125 -0.375 0  0.15 -0.375 0  0.175 -0.375 0  0.2 -0.375 0  0.225 -0.375 0  0.25 -0.375 0  -0.25 -0.35 0  -0.225 -0.35 0  -0.2 -0.35 0  -0.175 -0.35 0  -0.15 -0.35 0  -0.125 -0.35 0  -0.1 -0.35 0  -0.07500000000000001 -0.35 0  -0.04999999999999999 -0.35 0  -0.02499999999999999 -0.35 0  0 -0.35 0  0.02500000000000002 -0.35 0  0.04999999999999999 -0.35 0  0.07500000000000001 -0.35 0  0.09999999999999998 -0.35 0  0.125 -0.35 0  0.15 -0.35 0  0.175 -0.35 0  0.2 -0.35 0  0.225 -0.35 0  0.25 -0.35 0  -0.25 -0.325 0  -0.225 -0.325 0  -0.2 -0.325 0  -0.175 -0.325 0  -0.15 -0.325 0  -0.125 -0.325 0  -0.1 -0.325 0  -0.07500000000000001 -0.325 0  -0.04999999999999999 -0.325 0  -0.02499999999999999 -0.325 0  0 -0.325 0  0.02500000000000002 -0.325 0  0.04999999999999999 -0.325 0  0.07500000000000001 -0.325 0  0.09999999999999998 -0.325 0  0.125 -0.325 0  0.15 -0.325 0  0.175 -0.325 0  0.2 -0.325 0  0.225 -0.325 0  0.25 -0.325 0  -0.25 -0.3 0  -0.225 -0.3 0  -0.2 -0.3 0  -0.175 -0.3 0  -0.15 -0.3 0  -0.125 -0.3 0  -0.1 -0.3 0  -0.07500000000000001 -0.3 0  -0.04999999999999999 -0.3 0  -0.02499999999999999 -0.3 0  0 -0.3 0  0.02500000000000002 -0.3 0  0.04999999999999999 -0.3 0  0.07500000000000001 -0.3 0  0.09999999999999998 -0.3 0  0.125 -0.3 0  0.15 -0.3 0  0.175 -0.3 0  0.2 -0.3 0  0.225 -0.3 0  0.25 -0.3 0  -0.25 -0.275 0  -0.225 -0.275 0  -0.2 -0.275 0  -0.175 -0.275 0  -0.15 -0.275 0  -0.125 -0.275 0  -0.1 -0.275 0  -0.07500000000000001 -0.275 0  -0.04999999999999999 -0.275 0  -0.02499999999999999 -0.275 0  0 -0.275 0  0.02500000000000002 -0.275 0  0.04999999999999999 -0.275 0  0.07500000000000001 -0.275 0  0.09999999999999998 -0.275 0  0.125 -0.275 0  0.15 -0.275 0  0.175 -0.275 0  0.2 -0.275 0  0.225 -0.275 0  0.25 -0.275 0  -0.25 -0.25 0  -0.225 -0.25 0  -0.2 -0.25 0  -0.175 -0.25 0  -0.15 -0.25 0  -0.125 -0.25 0  -0.1 -0.25 0  -0.07500000000000001 -0.25 0  -0.04999999999999999 -0.25 0  -0.02499999999999999 -0.25 0  0 -0.25 0  0.02500000000000002 -0.25 0  0.04999999999999999 -0.25 0  0.07500000000000001 -0.25 0  0.09999999999999998 -0.25 0  0.125 -0.25 0  0.15 -0.25 0  0.175 -0.25 0  0.2 -0.25 0  0.225 -0.25 0  0.25 -0.25 0  -0.25 -0.225 0  -0.225 -0.225 0  -0.2 -0.225 0  -0.175 -0.225 0  -0.15 -0.225 0  -0.125 -0.225 0  -0.1 -0.225 0  -0.07500000000000001 -0.225 0  -0.04999999999999999 -0.225 0  -0.02499999999999999 -0.225 0  0 -0.225 0  0.02500000000000002 -0.225 0  0.04999999999999999 -0.225 0  0.07500000000000001 -0.225 0  0.09999999999999998 -0.225 0  0.125 -0.225 0  0.15 -0.225 0  0.175 -0.225 0  0.2 -0.225 0  0.225 -0.225 0  0.25 -0.225 0  -0.25 -0.2 0  -0.225 -0.2 0  -0.2 -0.2 0  -0.175 -0.2 0  -0.15 -0.2 0  -0.125 -0.2 0  -0.1 -0.2 0  -0.07500000000000001 -0.2 0  -0.04999999999999999 -0.2 0  -0.02499999999999999 -0.2 0  0 -0.2 0  0.02500000000000002 -0.2 0  0.04999999999999999 -0.2 0  0.07500000000000001 -0.2 0  0.09999999999999998 -0.2 0  0.125 -0.2 0  0.15 -0.2 0  0.175 -0.2 0  0.2 -0.2 0  0.225 -0.2 0  0.25 -0.2 0  -0.25 -0.175 0  -0.225 -0.175 0  -0.2 -0.175 0  -0.175 -0.175 0  -0.15 -0.175 0  -0.125 -0.175 0  -0.1 -0.175 0  -0.07500000000000001 -0.175 0  -0.04999999999999999 -0.175 0  -0.02499999999999999 -0.175 0  0 -0.175 0  0.02500000000000002 -0.175 0  0.04999999999999999 -0.175 0  0.07500000000000001 -0.175 0  0.09999999999999998 -0.175 0  0.125 -0.175 0  0.15 -0.175 0  0.175 -0.175 0  0.2 -0.175 0  0.225 -0.175 0  0.25 -0.175 0  -0.25 -0.15 0  -0.225 -0.15 0  -0.2 -0.15 0  -0.175 -0.15 0  -0.15 -0.15 0  -0.125 -0.15 0  -0.1 -0.15 0  -0.07500000000000001 -0.15 0  -0.04999999999999999 -0.15 0  -0.02499999999999999 -0.15 0  0 -0.15 0  0.02500000000000002 -0.15 0  0.04999999999999999 -0.15 0  0.07500000000000001 -0.15 0  0.09999999999999998 -0.15 0  0.125 -0.15 0  0.15 -0.15 0  0.175 -0.15 0  0.2 -0.15 0  0.225 -0.15 0  0.25 -0.15 0  -0.25 -0.125 0  -0.225 -0.125 0  -0.2 -0.125 0  -0.175 -0.125 0  -0.15 -0.125 0  -0.125 -0.125 0  -0.1 -0.125 0  -0.07500000000000001 -0.125 0  -0.04999999999999999 -0.125 0  -0.02499999999999999 -0.125 0  0 -0.125 0  0.02500000000000002 -0.125 0  0.04999999999999999 -0.125 0  0.07500000000000001 -0.125 0  0.09999999999999998 -0.125 0  0.125 -0.125 0  0.15 -0.125 0  0.175 -0.125 0  0.2 -0.125 0  0.225 -0.125 0  0.25 -0.125 0  -0.25 -0.09999999999999998 0  -0.225 -0.09999999999999998 0  -0.2 -0.09999999999999998 0  -0.175 -0.09999999999999998 0  -0.15 -0.09999999999999998 0  -0.125 -0.09999999999999998 0  -0.1 -0.09999999999999998 0  -0.07500000000000001 -0.09999999999999998 0  -0.04999999999999999 -0.09999999999999998 0  -0.02499999999999999 -0.09999999999999998 0  0 -0.09999999999999998 0  0.02500000000000002 -0.09999999999999998 0  0.04999999999999999 -0.09999999999999998 0  0.07500000000000001 -0.09999999999999998 0  0.09999999999999998 -0.09999999999999998 0  0.125 -0.09999999999999998 0  0.15 -0.09999999999999998 0  0.175 -0.09999999999999998 0  0.2 -0.09999999999999998 0  0.225 -0.09999999999999998 0  0.25 -0.09999999999999998 0  -0.25 -0.07499999999999996 0  -0.225 -0.07499999999999996 0  -0.2 -0.07499999999999996 0  -0.175 -0.07499999999999996 0  -0.15 -0.07499999999999996 0  -0.125 -0.07499999999999996 0  -0.1 -0.07499999999999996 0  -0.07500000000000001 -0.07499999999999996 0  -0.04999999999999999 -0.07499999999999996 0  -0.02499999999999999 -0.07499999999999996 0  0 -0.07499999999999996 0  0.02500000000000002 -0.07499999999999996 0  0.04999999999999999 -0.07499999999999996 0  0.07500000000000001 -0.07499999999999996 0  0.09999999999999998 -0.07499999999999996 0  0.125 -0.07499999999999996 0  0.15 -0.07499999999999996 0  0.175 -0.07499999999999996 0  0.2 -0.07499999999999996 0  0.225 -0.07499999999999996 0  0.25 -0.07499999999999996 0  -0.25 -0.05000000000000004 0  -0.225 -0.05000000000000004 0  -0.2 -0.05000000000000004 0  -0.175 -0.05000000000000004 0  -0.15 -0.05000000000000004 0  -0.125 -0.05000000000000004 0  -0.1 -0.05000000000000004 0  -0.07500000000000001 -0.05000000000000004 0  -0.04999999999999999 -0.05000000000000004 0  -0.02499999999999999 -0.05000000000000004 0  0 -0.05000000000000004 0  0.02500000000000002 -0.05000000000000004 0  0.04999999999999999 -0.05000000000000004 0  0.07500000000000001 -0.05000000000000004 0  0.09999999999999998 -0.05000000000000004 0  0.125 -0.05000000000000004 0  0.15 -0.05000000000000004 0  0.175 -0.05000000000000004 0  0.2 -0.05000000000000004 0  0.225 -0.05000000000000004 0  0.25 -0.05000000000000004 0  -0.25 -0.02500000000000002 0  -0.225 -0.02500000000000002 0  -0.2 -0.02500000000000002 0  -0.175 -0.02500000000000002 0  -0.15 -0.02500000000000002 0  -0.125 -0.02500000000000002 0  -0.1 -0.02500000000000002 0  -0.07500000000000001 -0.02500000000000002 0  -0.04999999999999999 -0.02500000000000002 0  -0.02499999999999999 -0.02500000000000002 0  0 -0.02500000000000002 0  0.02500000000000002 -0.02500000000000002 0  0.04999999999999999 -0.02500000000000002 0  0.07500000000000001 -0.02500000000000002 0  0.09999999999999998 -0.02500000000000002 0  0.125 -0.02500000000000002 0  0.15 -0.02500000000000002 0  0.175 -0.02500000000000002 0  0.2 -0.02500000000000002 0  0.225 -0.02500000000000002 0  0.25 -0.02500000000000002 0  -0.25 0 0  -0.225 0 0  -0.2 0 0  -0.175 0 0  -0.15 0 0  -0.125 0 0  -0.1 0 0  -0.07500000000000001 0 0  -0.04999999999999999 0 0  -0.02499999999999999 0 0  0 0 0  0.02500000000000002 0 0  0.04999999999999999 0 0  0.07500000000000001 0 0  0.09999999999999998 0 0  0.125 0 0  0.15 0 0  0.175 0 0  0.2 0 0  0.225 0 0  0.25 0 0  -0.2375 -0.9875 0  -0.2125 -0.9875 0  -0.1875 -0.9875 0  -0.1625 -0.9875 0  -0.1375 -0.9875 0  -0.1125 -0.9875 0  -0.08749999999999999 -0.9875 0  -0.0625 -0.9875 0  -0.03750000000000001 -0.9875 0  -0.01250000000000001 -0.9875 0  0.01250000000000001 -0.9875 0  0.03749999999999998 -0.9875 0  0.0625 -0.9875 0  0.08750000000000002 -0.9875 0  0.1125 -0.9875 0  0.1375 -0.9875 0  0.1625 -0.9875 0  0.1875 -0.9875 0  0.2125 -0.9875 0  0.2375 -0.9875 0  -0.2375 -0.9625 0  -0.2125 -0.9625 0  -0.1875 -0.9625 0  -0.1625 -0.9625 0  -0.1375 -0.9625 0  -0.1125 -0.9625 0  -0.08749999999999999 -0.9625 0  -0.0625 -0.9625 0  -0.03750000000000001 -0.9625 0  -0.01250000000000001 -0.9625 0  0.01250000000000001 -0.9625 0  0.03749999999999998 -0.9625 0  0.0625 -0.9625 0  0.08750000000000002 -0.9625 0  0.1125 -0.9625 0  0.1375 -0.9625 0  0.1625 -0.9625 0  0.1875 -0.9625 0  0.2125 -0.9625 0  0.2375 -0.9625 0  -0.2375 -0.9375 0  -0.2125 -0.9375 0  -0.1875 -0.9375 0  -0.1625 -0.9375 0  -0.1375 -0.9375 0  -0.1125 -0.9375 0  -0.08749999999999999 -0.9375 0  -0.0625 -0.9375 0  -0.03750000000000001 -0.9375 0  -0.01250000000000001 -0.9375 0  0.01250000000000001 -0.9375 0  0.03749999999999998 -0.9375 0  0.0625 -0.9375 0  0.08750000000000002 -0.9375 0  0.1125 -0.9375 0  0.1375 -0.9375 0  0.1625 -0.9375 0  0.1875 -0.9375 0  0.2125 -0.9375 0  0.2375 -0.9375 0  -0.2375 -0.9125 0  -0.2125 -0.9125 0  -0.1875 -0.9125 0  -0.1625 -0.9125 0  -0.1375 -0.9125 0  -0.1125 -0.9125 0  -0.08749999999999999 -0.9125 0  -0.0625 -0.9125 0  -0.03750000000000001 -0.9125 0  -0.01250000000000001 -0.9125 0  0.01250000000000001 -0.9125 0  0.03749999999999998 -0.9125 0  0.0625 -0.9125 0  0.08750000000000002 -0.9125 0  0.1125 -0.9125 0  0.1375 -0.9125 0  0.1625 -0.9125 0  0.1875 -0.9125 0  0.2125 -0.9125 0  0.2375 -0.9125 0  -0.2375 -0.8875 0  -0.2125 -0.8875 0  -0.1875 -0.8875 0  -0.1625 -0.8875 0  -0.1375 -0.8875 0  -0.1125 -0.8875 0  -0.08749999999999999 -0.8875 0  -0.0625 -0.8875 0  -0.03750000000000001 -0.8875 0  -0.01250000000000001 -0.8875 0  0.01250000000000001 -0.8875 0  0.03749999999999998 -0.8875 0  0.0625 -0.8875 0  0.08750000000000002 -0.8875 0  0.1125 -0.8875 0  0.1375 -0.8875 0  0.1625 -0.8875 0  0.1875 -0.8875 0  0.2125 -0.8875 0  0.2375 -0.8875 0  -0.2375 -0.8625 0  -0.2125 -0.8625 0  -0.1875 -0.8625 0  -0.1625 -0.8625 0  -0.1375 -0.8625 0  -0.1125 -0.8625 0  -0.08749999999999999 -0.8625 0  -0.0625 -0.8625 0  -0.03750000000000001 -0.8625 0  -0.01250000000000001 -0.8625 0  0.01250000000000001 -0.8625 0  0.03749999999999998 -0.8625 0  0.0625 -0.8625 0  0.08750000000000002 -0.8625 0  0.1125 -0.8625 0  0.1375 -0.8625 0  0.1625 -0.8625 0  0.1875 -0.8625 0  0.2125 -0.8625 0  0.2375 -0.8625 0  -0.2375 -0.8375 0  -0.2125 -0.8375 0  -0.1875 -0.8375 0  -0.1625 -0.8375 0  -0.1375 -0.8375 0  -0.1125 -0.8375 0  -0.08749999999999999 -0.8375 0  -0.0625 -0.8375 0  -0.03750000000000001 -0.8375 0  -0.01250000000000001 -0.8375 0  0.01250000000000001 -0.8375 0  0.03749999999999998 -0.8375 0  0.0625 -0.8375 0  0.08750000000000002 -0.8375 0  0.1125 -0.8375 0  0.1375 -0.8375 0  0.1625 -0.8375 0  0.1875 -0.8375 0  0.2125 -0.8375 0  0.2375 -0.8375 0  -0.2375 -0.8125 0  -0.2125 -0.8125 0  -0.1875 -0.8125 0  -0.1625 -0.8125 0  -0.1375 -0.8125 0  -0.1125 -0.8125 0  -0.08749999999999999 -0.8125 0  -0.0625 -0.8125 0  -0.03750000000000001 -0.8125 0  -0.01250000000000001 -0.8125 0  0.01250000000000001 -0.8125 0  0.03749999999999998 -0.8125 0  0.0625 -0.8125 0  0.08750000000000002 -0.8125 0  0.1125 -0.8125 0  0.1375 -0.8125 0  0.1625 -0.8125 0  0.1875 -0.8125 0  0.2125 -0.8125 0  0.2375 -0.8125 0  -0.2375 -0.7875 0  -0.2125 -0.7875 0  -0.1875 -0.7875 0  -0.1625 -0.7875 0  -0.1375 -0.7875 0  -0.1125 -0.7875 0  -0.08749999999999999 -0.7875 0  -0.0625 -0.7875 0  -0.03750000000000001 -0.7875 0  -0.01250000000000001 -0.7875 0  0.01250000000000001 -0.7875 0  0.03749999999999998 -0.7875 0  0.0625 -0.7875 0  0.08750000000000002 -0.7875 0  0.1125 -0.7875 0  0.1375 -0.7875 0  0.1625 -0.7875 0  0.1875 -0.7875 0  0.2125 -0.7875 0  0.2375 -0.7875 0  -0.2375 -0.7625 0  -0.2125 -0.7625 0  -0.1875 -0.7625 0  -0.1625 -0.7625 0  -0.1375 -0.7625 0  -0.1125 -0.7625 0  -0.08749999999999999 -0.7625 0  -0.0625 -0.7625 0  -0.03750000000000001 -0.7625 0  -0.01250000000000001 -0.7625 0  0.01250000000000001 -0.7625 0  0.03749999999999998 -0.7625 0  0.0625 -0.7625 0  0.08750000000000002 -0.7625 0  0.1125 -0.7625 0  0.1375 -0.7625 0  0.1625 -0.7625 0  0.1875 -0.7625 0  0.2125 -0.7625 0  0.2375 -0.7625 0  -0.2375 -0.7375 0  -0.2125 -0.7375 0  -0.1875 -0.7375 0  -0.1625 -0.7375 0  -0.1375 -0.7375 0  -0.1125 -0.7375 0  -0.08749999999999999 -0.7375 0  -0.0625 -0.7375 0  -0.03750000000000001 -0.7375 0  -0.01250000000000001 -0.7375 0  0.01250000000000001 -0.7375 0  0.03749999999999998 -0.7375 0  0.0625 -0.7375 0  0.08750000000000002 -0.7375 0  0.1125 -0.7375 0  0.1375 -0.7375 0  0.1625 -0.7375 0  0.1875 -0.7375 0  0.2125 -0.7375 0  0.2375 -0.7375 0  -0.2375 -0.7125 0  -0.2125 -0.7125 0  -0.1875 -0.7125 0  -0.1625 -0.7125 0  -0.1375 -0.7125 0  -0.1125 -0.7125 0  -0.08749999999999999 -0.7125 0  -0.0625 -0.7125 0  -0.03750000000000001 -0.7125 0  -0.01250000000000001 -0.7125 0  0.01250000000000001 -0.7125 0  0.03749999999999998 -0.7125 0  0.0625 -0.7125 0  0.08750000000000002 -0.7125 0  0.1125 -0.7125 0  0.1375 -0.7125 0  0.1625 -0.7125 0  0.1875 -0.7125 0  0.2125 -0.7125 0  0.2375 -0.7125 0  -0.2375 -0.6875 0  -0.2125 -0.6875 0  -0.1875 -0.6875 0  -0.1625 -0.6875 0  -0.1375 -0.6875 0  -0.1125 -0.6875 0  -0.08749999999999999 -0.6875 0  -0.0625 -0.6875 0  -0.03750000000000001 -0.6875 0  -0.01250000000000001 -0.6875 0  0.01250000000000001 -0.6875 0  0.03749999999999998 -0.6875 0  0.0625 -0.6875 0  0.08750000000000002 -0.6875 0  0.1125 -0.6875 0  0.1375 -0.6875 0  0.1625 -0.6875 0  0.1875 -0.6875 0  0.2125 -0.6875 0  0.2375 -0.6875 0  -0.2375 -0.6625 0  -0.2125 -0.6625 0  -0.1875 -0.6625 0  -0.1625 -0.6625 0  -0.1375 -0.6625 0  -0.1125 -0.6625 0  -0.08749999999999999 -0.6625 0  -0.0625 -0.6625 0  -0.03750000000000001 -0.6625 0  -0.01250000000000001 -0.6625 0  0.01250000000000001 -0.6625 0  0.03749999999999998 -0.6625 0  0.0625 -0.6625 0  0.08750000000000002 -0.6625 0  0.1125 -0.6625 0  0.1375 -0.6625 0  0.1625 -0.6625 0  0.1875 -0.6625 0  0.2125 -0.6625 0  0.2375 -0.6625 0  -0.2375 -0.6375 0  -0.2125 -0.6375 0  -0.1875 -0.6375 0  -0.1625 -0.6375 0  -0.1375 -0.6375 0  -0.1125 -0.6375 0  -0.08749999999999999 -0.6375 0  -0.0625 -0.6375 0  -0.03750000000000001 -0.6375 0  -0.01250000000000001 -0.6375 0  0.01250000000000001 -0.6375 0  0.03749999999999998 -0.6375 0  0.0625 -0.6375 0  0.08750000000000002 -0.6375 0  0.1125 -0.6375 0  0.1375 -0.6375 0  0.1625 -0.6375 0  0.1875 -0.6375 0  0.2125 -0.6375 0  0.2375 -0.6375 0  -0.2375 -0.6125 0  -0.2125 -0.6125 0  -0.1875 -0.6125 0  -0.1625 -0.6125 0  -0.1375 -0.6125 0  -0.1125 -0.6125 0  -0.08749999999999999 -0.6125 0  -0.0625 -0.6125 0  -0.03750000000000001 -0.6125 0  -0.01250000000000001 -0.6125 0  0.01250000000000001 -0.6125 0  0.03749999999999998 -0.6125 0  0.0625 -0.6125 0  0.08750000000000002 -0.6125 0  0.1125 -0.6125 0  0.1375 -0.6125 0  0.1625 -0.6125 0  0.1875 -0.6125 0  0.2125 -0.6125 0  0.2375 -0.6125 0  -0.2375 -0.5875 0  -0.2125 -0.5875 0  -0.1875 -0.5875 0  -0.1625 -0.5875 0  -0.1375 -0.5875 0  -0.1125 -0.5875 0  -0.08749999999999999 -0.5875 0  -0.0625 -0.5875 0  -0.03750000000000001 -0.5875 0  -0.01250000000000001 -0.5875 0  0.01250000000000001 -0.5875 0  0.03749999999999998 -0.5875 0  0.0625 -0.5875 0  0.08750000000000002 -0.5875 0  0.1125 -0.5875 0  0.1375 -0.5875 0  0.1625 -0.5875 0  0.1875 -0.5875 0  0.2125 -0.5875 0  0.2375 -0.5875 0  -0.2375 -0.5625 0  -0.2125 -0.5625 0  -0.1875 -0.5625 0  -0.1625 -0.5625 0  -0.1375 -0.5625 0  -0.1125 -0.5625 0  -0.08749999999999999 -0.5625 0  -0.0625 -0.5625 0  -0.03750000000000001 -0.5625 0  -0.01250000000000001 -0.5625 0  0.01250000000000001 -0.5625 0  0.03749999999999998 -0.5625 0  0.0625 -0.5625 0  0.08750000000000002 -0.5625 0  0.1125 -0.5625 0  0.1375 -0.5625 0  0.1625 -0.5625 0  0.1875 -0.5625 0  0.2125 -0.5625 0  0.2375 -0.5625 0  -0.2375 -0.5375 0  -0.2125 -0.5375 0  -0.1875 -0.5375 0  -0.1625 -0.5375 0  -0.1375 -0.5375 0  -0.1125 -0.5375 0  -0.08749999999999999 -0.5375 0  -0.0625 -0.5375 0  -0.03750000000000001 -0.5375 0  -0.01250000000000001 -0.5375 0  0.01250000000000001 -0.5375 0  0.03749999999999998 -0.5375 0  0.0625 -0.5375 0  0.08750000000000002 -0.5375 0  0.1125 -0.5375 0  0.1375 -0.5375 0  0.1625 -0.5375 0  0.1875 -0.5375 0  0.2125 -0.5375 0  0.2375 -0.5375 0  -0.2375 -0.5125 0  -0.2125 -0.5125 0  -0.1875 -0.5125 0  -0.1625 -0.5125 0  -0.1375 -0.5125 0  -0.1125 -0.5125 0  -0.08749999999999999 -0.5125 0  -0.0625 -0.5125 0  -0.03750000000000001 -0.5125 0  -0.01250000000000001 -0.5125 0  0.01250000000000001 -0.5125 0  0.03749999999999998 -0.5125 0  0.0625 -0.5125 0  0.08750000000000002 -0.5125 0  0.1125 -0.5125 0  0.1375 -0.5125 0  0.1625 -0.5125 0  0.1875 -0.5125 0  0.2125 -0.5125 0  0.2375 -0.5125 0  -0.2375 -0.4875 0  -0.2125 -0.4875 0  -0.1875 -0.4875 0  -0.1625 -0.4875 0  -0.1375 -0.4875 0  -0.1125 -0.4875 0  -0.08749999999999999 -0.4875 0  -0.0625 -0.4875 0  -0.03750000000000001 -0.4875 0  -0.01250000000000001 -0.4875 0  0.01250000000000001 -0.4875 0  0.03749999999999998 -0.4875 0  0.0625 -0.4875 0  0.08750000000000002 -0.4875 0  0.1125 -0.4875 0  0.1375 -0.4875 0  0.1625 -0.4875 0  0.1875 -0.4875 0  0.2125 -0.4875 0  0.2375 -0.4875 0  -0.2375 -0.4625 0  -0.2125 -0.4625 0  -0.1875 -0.4625 0  -0.1625 -0.4625 0  -0.1375 -0.4625 0  -0.1125 -0.4625 0  -0.08749999999999999 -0.4625 0  -0.0625 -0.4625 0  -0.03750000000000001 -0.4625 0  -0.01250000000000001 -0.4625 0  0.01250000000000001 -0.4625 0  0.03749999999999998 -0.4625 0  0.0625 -0.4625 0  0.08750000000000002 -0.4625 0  0.1125 -0.4625 0  0.1375 -0.4625 0  0.1625 -0.4625 0  0.1875 -0.4625 0  0.2125 -0.4625 0  0.2375 -0.4625 0  -0.2375 -0.4375 0  -0.2125 -0.4375 0  -0.1875 -0.4375 0  -0.1625 -0.4375 0  -0.1375 -0.4375 0  -0.1125 -0.4375 0  -0.08749999999999999 -0.4375 0  -0.0625 -0.4375 0  -0.03750000000000001 -0.4375 0  -0.01250000000000001 -0.4375 0  0.01250000000000001 -0.4375 0  0.03749999999999998 -0.4375 0  0.0625 -0.4375 0  0.08750000000000002 -0.4375 0  0.1125 -0.4375 0  0.1375 -0.4375 0  0.1625 -0.4375 0  0.1875 -0.4375 0  0.2125 -0.4375 0  0.2375 -0.4375 0  -0.2375 -0.4125 0  -0.2125 -0.4125 0  -0.1875 -0.4125 0  -0.1625 -0.4125 0  -0.1375 -0.4125 0  -0.1125 -0.4125 0  -0.08749999999999999 -0.4125 0  -0.0625 -0.4125 0  -0.03750000000000001 -0.4125 0  -0.01250000000000001 -0.4125 0  0.01250000000000001 -0.4125 0  0.03749999999999998 -0.4125 0  0.0625 -0.4125 0  0.08750000000000002 -0.4125 0  0.1125 -0.4125 0  0.1375 -0.4125 0  0.1625 -0.4125 0  0.1875 -0.4125 0  0.2125 -0.4125 0  0.2375 -0.4125 0  -0.2375 -0.3875 0  -0.2125 -0.3875 0  -0.1875 -0.3875 0  -0.1625 -0.3875 0  -0.1375 -0.3875 0  -0.1125 -0.3875 0  -0.08749999999999999 -0.3875 0  -0.0625 -0.3875 0  -0.03750000000000001 -0.3875 0  -0.01250000000000001 -0.3875 0  0.01250000000000001 -0.3875 0  0.03749999999999998 -0.3875 0  0.0625 -0.3875 0  0.08750000000000002 -0.3875 0  0.1125 -0.3875 0  0.1375 -0.3875 0  0.1625 -0.3875 0  0.1875 -0.3875 0  0.2125 -0.3875 0  0.2375 -0.3875 0  -0.2375 -0.3625 0  -0.2125 -0.3625 0  -0.1875 -0.3625 0  -0.1625 -0.3625 0  -0.1375 -0.3625 0  -0.1125 -0.3625 0  -0.08749999999999999 -0.3625 0  -0.0625 -0.3625 0  -0.03750000000000001 -0.3625 0  -0.01250000000000001 -0.3625 0  0.01250000000000001 -0.3625 0  0.03749999999999998 -0.3625 0  0.0625 -0.3625 0  0.08750000000000002 -0.3625 0  0.1125 -0.3625 0  0.1375 -0.3625 0  0.1625 -0.3625 0  0.1875 -0.3625 0  0.2125 -0.3625 0  0.2375 -0.3625 0  -0.2375 -0.3375 0  -0.2125 -0.3375 0  -0.1875 -0.3375 0  -0.1625 -0.3375 0  -0.1375 -0.3375 0  -0.1125 -0.3375 0  -0.08749999999999999 -0.3375 0  -0.0625 -0.3375 0  -0.03750000000000001 -0.3375 0  -0.01250000000000001 -0.3375 0  0.01250000000000001 -0.3375 0  0.03749999999999998 -0.3375 0  0.0625 -0.3375 0  0.08750000000000002 -0.3375 0  0.1125 -0.3375 0  0.1375 -0.3375 0  0.1625 -0.3375 0  0.1875 -0.3375 0  0.2125 -0.3375 0  0.2375 -0.3375 0  -0.2375 -0.3125 0  -0.2125 -0.3125 0  -0.1875 -0.3125 0  -0.1625 -0.3125 0  -0.1375 -0.3125 0  -0.1125 -0.3125 0  -0.08749999999999999 -0.3125 0  -0.0625 -0.3125 0  -0.03750000000000001 -0.3125 0  -0.01250000000000001 -0.3125 0  0.01250000000000001 -0.3125 0  0.03749999999999998 -0.3125 0  0.0625 -0.3125 0  0.08750000000000002 -0.3125 0  0.1125 -0.3125 0  0.1375 -0.3125 0  0.1625 -0.3125 0  0.1875 -0.3125 0  0.2125 -0.3125 0  0.2375 -0.3125 0  -0.2375 -0.2875 0  -0.2125 -0.2875 0  -0.1875 -0.2875 0  -0.1625 -0.2875 0  -0.1375 -0.2875 0  -0.1125 -0.2875 0  -0.08749999999999999 -0.2875 0  -0.0625 -0.2875 0  -0.03750000000000001 -0.2875 0  -0.01250000000000001 -0.2875 0  0.01250000000000001 -0.2875 0  0.03749999999999998 -0.2875 0  0.0625 -0.2875 0  0.08750000000000002 -0.2875 0  0.1125 -0.2875 0  0.1375 -0.2875 0  0.1625 -0.2875 0  0.1875 -0.2875 0  0.2125 -0.2875 0  0.2375 -0.2875 0  -0.2375 -0.2625 0  -0.2125 -0.2625 0  -0.1875 -0.2625 0  -0.1625 -0.2625 0  -0.1375 -0.2625 0  -0.1125 -0.2625 0  -0.08749999999999999 -0.2625 0  -0.0625 -0.2625 0  -0.03750000000000001 -0.2625 0  -0.01250000000000001 -0.2625 0  0.01250000000000001 -0.2625 0  0.03749999999999998 -0.2625 0  0.0625 -0.2625 0  0.08750000000000002 -0.2625 0  0.1125 -0.2625 0  0.1375 -0.2625 0  0.1625 -0.2625 0  0.1875 -0.2625 0  0.2125 -0.2625 0  0.2375 -0.2625 0  -0.2375 -0.2375 0  -0.2125 -0.2375 0  -0.1875 -0.2375 0  -0.1625 -0.2375 0  -0.1375 -0.2375 0  -0.1125 -0.2375 0  -0.08749999999999999 -0.2375 0  -0.0625 -0.2375 0  -0.03750000000000001 -0.2375 0  -0.01250000000000001 -0.2375 0  0.01250000000000001 -0.2375 0  0.03749999999999998 -0.2375 0  0.0625 -0.2375 0  0.08750000000000002 -0.2375 0  0.1125 -0.2375 0  0.1375 -0.2375 0  0.1625 -0.2375 0  0.1875 -0.2375 0  0.2125 -0.2375 0  0.2375 -0.2375 0  -0.2375 -0.2125 0  -0.2125 -0.2125 0  -0.1875 -0.2125 0  -0.1625 -0.2125 0  -0.1375 -0.2125 0  -0.1125 -0.2125 0  -0.08749999999999999 -0.2125 0  -0.0625 -0.2125 0  -0.03750000000000001 -0.2125 0  -0.01250000000000001 -0.2125 0  0.01250000000000001 -0.2125 0  0.03749999999999998 -0.2125 0  0.0625 -0.2125 0  0.08750000000000002 -0.2125 0  0.1125 -0.2125 0  0.1375 -0.2125 0  0.1625 -0.2125 0  0.1875 -0.2125 0  0.2125 -0.2125 0  0.2375 -0.2125 0  -0.2375 -0.1875 0  -0.2125 -0.1875 0  -0.1875 -0.1875 0  -0.1625 -0.1875 0  -0.1375 -0.1875 0  -0.1125 -0.1875 0  -0.08749999999999999 -0.1875 0  -0.0625 -0.1875 0  -0.03750000000000001 -0.1875 0  -0.01250000000000001 -0.1875 0  0.01250000000000001 -0.1875 0  0.03749999999999998 -0.1875 0  0.0625 -0.1875 0  0.08750000000000002 -0.1875 0  0.1125 -0.1875 0  0.1375 -0.1875 0  0.1625 -0.1875 0  0.1875 -0.1875 0  0.2125 -0.1875 0  0.2375 -0.1875 0  -0.2375 -0.1625 0  -0.2125 -0.1625 0  -0.1875 -0.1625 0  -0.1625 -0.1625 0  -0.1375 -0.1625 0  -0.1125 -0.1625 0  -0.08749999999999999 -0.1625 0  -0.0625 -0.1625 0  -0.03750000000000001 -0.1625 0  -0.01250000000000001 -0.1625 0  0.01250000000000001 -0.1625 0  0.03749999999999998 -0.1625 0  0.0625 -0.1625 0  0.08750000000000002 -0.1625 0  0.1125 -0.1625 0  0.1375 -0.1625 0  0.1625 -0.1625 0  0.1875 -0.1625 0  0.2125 -0.1625 0  0.2375 -0.1625 0  -0.2375 -0.1375 0  -0.2125 -0.1375 0  -0.1875 -0.1375 0  -0.1625 -0.1375 0  -0.1375 -0.1375 0  -0.1125 -0.1375 0  -0.08749999999999999 -0.1375 0  -0.0625 -0.1375 0  -0.03750000000000001 -0.1375 0  -0.01250000000000001 -0.1375 0  0.01250000000000001 -0.1375 0  0.03749999999999998 -0.1375 0  0.0625 -0.1375 0  0.08750000000000002 -0.1375 0  0.1125 -0.1375 0  0.1375 -0.1375 0  0.1625 -0.1375 0  0.1875 -0.1375 0  0.2125 -0.1375 0  0.2375 -0.1375 0  -0.2375 -0.1125 0  -0.2125 -0.1125 0  -0.1875 -0.1125 0  -0.1625 -0.1125 0  -0.1375 -0.1125 0  -0.1125 -0.1125 0  -0.08749999999999999 -0.1125 0  -0.0625 -0.1125 0  -0.03750000000000001 -0.1125 0  -0.01250000000000001 -0.1125 0  0.01250000000000001 -0.1125 0  0.03749999999999998 -0.1125 0  0.0625 -0.1125 0  0.08750000000000002 -0.1125 0  0.1125 -0.1125 0  0.1375 -0.1125 0  0.1625 -0.1125 0  0.1875 -0.1125 0  0.2125 -0.1125 0  0.2375 -0.1125 0  -0.2375 -0.08750000000000002 0  -0.2125 -0.08750000000000002 0  -0.1875 -0.08750000000000002 0  -0.1625 -0.08750000000000002 0  -0.1375 -0.08750000000000002 0  -0.1125 -0.08750000000000002 0  -0.08749999999999999 -0.08750000000000002 0  -0.0625 -0.08750000000000002 0  -0.03750000000000001 -0.08750000000000002 0  -0.01250000000000001 -0.08750000000000002 0  0.01250000000000001 -0.08750000000000002 0  0.03749999999999998 -0.08750000000000002 0  0.0625 -0.08750000000000002 0  0.08750000000000002 -0.08750000000000002 0  0.1125 -0.08750000000000002 0  0.1375 -0.08750000000000002 0  0.1625 -0.08750000000000002 0  0.1875 -0.08750000000000002 0  0.2125 -0.08750000000000002 0  0.2375 -0.08750000000000002 0  -0.2375 -0.0625 0  -0.2125 -0.0625 0  -0.1875 -0.0625 0  -0.1625 -0.0625 0  -0.1375 -0.0625 0  -0.1125 -0.0625 0  -0.08749999999999999 -0.0625 0  -0.0625 -0.0625 0  -0.03750000000000001 -0.0625 0  -0.01250000000000001 -0.0625 0  0.01250000000000001 -0.0625 0  0.03749999999999998 -0.0625 0  0.0625 -0.0625 0  0.08750000000000002 -0.0625 0  0.1125 -0.0625 0  0.1375 -0.0625 0  0.1625 -0.0625 0  0.1875 -0.0625 0  0.2125 -0.0625 0  0.2375 -0.0625 0  -0.2375 -0.03749999999999998 0  -0.2125 -0.03749999999999998 0  -0.1875 -0.03749999999999998 0  -0.1625 -0.03749999999999998 0  -0.1375 -0.03749999999999998 0  -0.1125 -0.03749999999999998 0  -0.08749999999999999 -0.03749999999999998 0  -0.0625 -0.03749999999999998 0  -0.03750000000000001 -0.03749999999999998 0  -0.01250000000000001 -0.03749999999999998 0  0.01250000000000001 -0.03749999999999998 0  0.03749999999999998 -0.03749999999999998 0  0.0625 -0.03749999999999998 0  0.08750000000000002 -0.03749999999999998 0  0.1125 -0.03749999999999998 0  0.1375 -0.03749999999999998 0  0.1625 -0.03749999999999998 0  0.1875 -0.03749999999999998 0  0.2125 -0.03749999999999998 0  0.2375 -0.03749999999999998 0  -0.2375 -0.01249999999999996 0  -0.2125 -0.01249999999999996 0  -0.1875 -0.01249999999999996 0  -0.1625 -0.01249999999999996 0  -0.1375 -0.01249999999999996 0  -0.1125 -0.01249999999999996 0  -0.08749999999999999 -0.01249999999999996 0  -0.0625 -0.01249999999999996 0  -0.03750000000000001 -0.01249999999999996 0  -0.01250000000000001 -0.01249999999999996 0  0.01250000000000001 -0.01249999999999996 0  0.03749999999999998 -0.01249999999999996 0  0.0625 -0.01249999999999996 0  0.08750000000000002 -0.01249999999999996 0  0.1125 -0.01249999999999996 0  0.1375 -0.01249999999999996 0  0.1625 -0.01249999999999996 0  0.1875 -0.01249999999999996 0  0.2125 -0.01249999999999996 0  0.2375 -0.01249999999999996 0  </DataArray>
</Points>
<Cells>
<DataArray  type="UInt32"  Name="connectivity"  format="ascii">0 1 861  0 21 861  1 22 861  21 22 861  1 2 862  1 22 862  2 23 862  22 23 862  2 3 863  2 23 863  3 24 863  23 24 863  3 4 864  3 24 864  4 25 864  24 25 864  4 5 865  4 25 865  5 26 865  25 26 865  5 6 866  5 26 866  6 27 866  26 27 866  6 7 867  6 27 867  7 28 867  27 28 867  7 8 868  7 28 868  8 29 868  28 29 868  8 9 869  8 29 869  9 30 869  29 30 869  9 10 870  9 30 870  10 31 870  30 31 870  10 11 871  10 31 871  11 32 871  31 32 871  11 12 872  11 32 872  12 33 872  32 33 872  12 13 873  12 33 873  13 34 873  33 34 873  13 14 874  13 34 874  14 35 874  34 35 874  14 15 875  14 35 875  15 36 875  35 36 875  15 16 876  15 36 876  16 37 876  36 37 876  16 17 877  16 37 877  17 38 877  37 38 877  17 18 878  17 38 878  18 39 878  38 39 878  18 19 879  18 39 879  19 40 879  39 40 879  19 20 880  19 40 880  20 41 880  40 41 880  21 22 881  21 42 881  22 43 881  42 43 881  22 23 882  22 43 882  23 44 882  43 44 882  23 24 883  23 44 883  24 45 883  44 45 883  24 25 884  24 45 884  25 46 884  45 46 884  25 26 885  25 46 885  26 47 885  46 47 885  26 27 886  26 47 886  27 48 886  47 48 886  27 28 887  27 48 887  28 49 887  48 49 887  28 29 888  28 49 888  29 50 888  49 50 888  29 30 889  29 50 889  30 51 889  50 51 889  30 31 890  30 51 890  31 52 890  51 52 890  31 32 891  31 52 891  32 53 891  52 53 891  32 33 892  32 53 892  33 54 892  53 54 892  33 34 893  33 54 893  34 55 893  54 55 893  34 35 894  34 55 894  35 56 894  55 56 894  35 36 895  35 56 895  36 57 895  56 57 895  36 37 896  36 57 896  37 58 896  57 58 896  37 38 897  37 58 897  38 59 897  58 59 897  38 39 898  38 59 898  39 60 898  59 60 898  39 40 899  39 60 899  40 61 899  60 61 899  40 41 900  40 61 900  41 62 900  61 62 900  42 43 901  42 63 901  43 64 901  63 64 901  43 44 902  43 64 902  44 65 902  64 65 902  44 45 903  44 65 903  45 66 903  65 66 903  45 46 904  45 66 904  46 67 904  66 67 904  46 47 905  46 67 905  47 68 905  67 68 905  47 48 906  47 68 906  48 69 906  68 69 906  48 49 907  48 69 907  49 70 907  69 70 907  49 50 908  49 70 908  50 71 908  70 71 908  50 51 909  50 71 909  51 72 909  71 72 909  51 52 910  51 72 910  52 73 910  72 73 910  52 53 911  52 73 911  53 74 911  73 74 911  53 54 912  53 74 912  54 75 912  74 75 912  54 55 913  54 75 913  55 76 913  75 76 913  55 56 914  55 76 914  56 77 914  76 77 914  56 57 915  56 77 915  57 78 915  77 78 915  57 58 916  57 78 916  58 79 916  78 79 916  58 59 917  58 79 917  59 80 917  79 80 917  59 60 918  59 80 918  60 81 918  80 81 918  60 61 919  60 81 919  61 82 919  81 82 919  61 62 920  61 82 920  62 83 920  82 83 920  63 64 921  63 84 921  64 85 921  84 85 921  64 65 922  64 85 922  65 86 922  85 86 922  65 66 923  65 86 923  66 87 923  86 87 923  66 67 924  66 87 924  67 88 924  87 88 924  67 68 925  67 88 925  68 89 925  88 89 925  68 69 926  68 89 926  69 90 926  89 90 926  69 70 927  69 90 927  70 91 927  90 91 927  70 71 928  70 91 928  71 92 928  91 92 928  71 72 929  71 92 929  72 93 929  92 93 929  72 73 930  72 93 930  73 94 930  93 94 930  73 74 931  73 94 931  74 95 931  94 95 931  74 75 932  74 95 932  75 96 932  95 96 932  75 76 933  75 96 933  76 97 933  96 97 933  76 77 934  76 97 934  77 98 934  97 98 934  77 78 935  77 98 935  78 99 935  98 99 935  78 79 936  78 99 936  79 100 936  99 100 936  79 80 937  79 100 937  80 101 937  100 101 937  80 81 938  80 101 938  81 102 938  101 102 938  81 82 939  81 102 939  82 103 939  102 103 939  82 83 940  82 103 940  83 104 940  103 104 940  84 85 941  84 105 941  85 106 941  105 106 941  85 86 942  85 106 942  86 107 942  106 107 942  86 87 943  86 107 943  87 108 943  107 108 943  87 88 944  87 108 944  88 109 944  108 109 944  88 89 945  88 109 945  89 110 945  109 110 945  89 90 946  89 110 946  90 111 946  110 111 946  90 91 947  90 111 947  91 112 947  111 112 947  91 92 948  91 112 948  92 113 948  112 113 948  92 93 949  92 113 949  93 114 949  113 114 949  93 94 950  93 114 950  94 115 950  114 115 950  94 95 951  94 115 951  95 116 951  115 116 951  95 96 952  95 116 952  96 117 952  116 117 952  96 97 953  96 117 953  97 118 953  117 118 953  97 98 954  97 118 954  98 119 954  118 119 954  98 99 955  98 119 955  99 120 955  119 120 955  99 100 956  99 120 956  100 121 956  120 121 956  100 101 957  100 121 957  101 122 957  121 122 957  101 102 958  101 122 958  102 123 958  122 123 958  102 103 959  102 123 959  103 124 959  123 124 959  103 104 960  103 124 960  104 125 960  124 125 960  105 106 961  105 126 961  106 127 961  126 127 961  106 107 962  106 127 962  107 128 962  127 128 962  107 108 963  107 128 963  108 129 963  128 129 963  108 109 964  108 129 964  109 130 964  129 130 964  109 110 965  109 130 965  110 131 965  130 131 965  110 111 966  110 131 966  111 132 966  131 132 966  111 112 967  111 132 967  112 133 967  132 133 967  112 113 968  112 133 968  113 134 968  133 134 968  113 114 969  113 134 969  114 135 969  134 135 969  114 115 970  114 135 970  115 136 970  135 136 970  115 116 971  115 136 971  116 137 971  136 137 971  116 117 972  116 137 972  117 138 972  137 138 972  117 118 973  117 138 973  118 139 973  138 139 973  118 119 974  118 139 974  119 140 974  139 140 974  119 120 975  119 140 975  120 141 975  140 141 975  120 121 976  120 141 976  121 142 976  141 142 976  121 122 977  121 142 977  122 143 977  142 143 977  122 123 978  122 143 978  123 144 978  143 144 978  123 124 979  123 144 979  124 145 979  144 145 979  124 125 980  124 145 980  125 146 980  145 146 980  126 127 981  126 147 981  127 148 981  147 148 981  127 128 982  127 148 982  128 149 982  148 149 982  128 129 983  128 149 983  129 150 983  149 150 983  129 130 984  129 150 984  130 151 984  150 151 984  130 131 985  130 151 985  131 152 985  151 152 985  131 132 986  131 152 986  132 153 986  152 153 986  132 133 987  132 153 987  133 154 987  153 154 987  133 134 988  133 154 988  134 155 988  154 155 988  134 135 989  134 155 989  135 156 989  155 156 989  135 136 990  135 156 990  136 157 990  156 157 990  136 137 991  136 157 991  137 158 991  157 158 991  137 138 992  137 158 992  138 159 992  158 159 992  138 139 993  138 159 993  139 160 993  159 160 993  139 140 994  139 160 994  140 161 994  160 161 994  140 141 995  140 161 995  141 162 995  161 162 995  141 142 996  141 162 996  142 163 996  162 163 996  142 143 997  142 163 997  143 164 997  163 164 997  143 144 998  143 164 998  144 165 998  164 165 998  144 145 999  144 165 999  145 166 999  165 166 999  145 146 1000  145 166 1000  146 167 1000  166 167 1000  147 148 1001  147 168 1001  148 169 1001  168 169 1001  148 149 1002  148 169 1002  149 170 1002  169 170 1002  149 150 1003  149 170 1003  150 171 1003  170 171 1003  150 151 1004  150 171 1004  151 172 1004  171 172 1004  151 152 1005  151 172 1005  152 173 1005  172 173 1005  152 153 1006  152 173 1006  153 174 1006  173 174 1006  153 154 1007  153 174 1007  154 175 1007  174 175 1007  154 155 1008  154 175 1008  155 176 1008  175 176 1008  155 156 1009  155 176 1009  156 177 1009  176 177 1009  156 157 1010  156 177 1010  157 178 1010  177 178 1010  157 158 1011  157 178 1011  158 179 1011  178 179 1011  158 159 1012  158 179 1012  159 180 1012  179 180 1012  159 160 1013  159 180 1013  160 181 1013  180 181 1013  160 161 1014  160 181 1014  161 182 1014  181 182 1014  161 162 1015  161 182 1015  162 183 1015  182 183 1015  162 163 1016  162 183 1016  163 184 1016  183 184 1016  163 164 1017  163 184 1017  164 185 1017  184 185 1017  164 165 1018  164 185 1018  165 186 1018  185 186 1018  165 166 1019  165 186 1019  166 187 1019  186 187 1019  166 167 1020  166 187 1020  167 188 1020  187 188 1020  168 169 1021  168 189 1021  169 190 1021  189 190 1021  169 170 1022  169 190 1022  170 191 1022  190 191 1022  170 171 1023  170 191 1023  171 192 1023  191 192 1023  171 172 1024  171 192 1024  172 193 1024  192 193 1024  172 173 1025  172 193 1025  173 194 1025  193 194 1025  173 174 1026  173 194 1026  174 195 1026  194 195 1026  174 175 1027  174 195 1027  175 196 1027  195 196 1027  175 176 1028  175 196 1028  176 197 1028  196 197 1028  176 177 1029  176 197 1029  177 198 1029  197 198 1029  177 178 1030  177 198 1030  178 199 1030  198 199 1030  178 179 1031  178 199 1031  179 200 1031  199 200 1031  179 180 1032  179 200 1032  180 201 1032  200 201 1032  180 181 1033  180 201 1033  181 202 1033  201 202 1033  181 182 1034  181 202 1034  182 203 1034  202 203 1034  182 183 1035  182 203 1035  183 204 1035  203 204 1035  183 184 1036  183 204 1036  184 205 1036  204 205 1036  184 185 1037  184 205 1037  185 206 1037  205 206 1037  185 186 1038  185 206 1038  186 207 1038  206 207 1038  186 187 1039  186 207 1039  187 208 1039  207 208 1039  187 188 1040  187 208 1040  188 209 1040  208 209 1040  189 190 1041  189 210 1041  190 211 1041  210 211 1041  190 191 1042  190 211 1042  191 212 1042  211 212 1042  191 192 1043  191 212 1043  192 213 1043  212 213 1043  192 193 1044  192 213 1044  193 214 1044  213 214 1044  193 194 1045  193 214 1045  194 215 1045  214 215 1045  194 195 1046  194 215 1046  195 216 1046  215 216 1046  195 196 1047  195 216 1047  196 217 1047  216 217 1047  196 197 1048  196 217 1048  197 218 1048  217 218 1048  197 198 1049  197 218 1049  198 219 1049  218 219 1049  198 199 1050  198 219 1050  199 220 1050  219 220 1050  199 200 1051  199 220 1051  200 221 1051  220 221 1051  200 201 1052  200 221 1052  201 222 1052  221 222 1052  201 202 1053  201 222 1053  202 223 1053  222 223 1053  202 203 1054  202 223 1054  203 224 1054  223 224 1054  203 204 1055  203 224 1055  204 225 1055  224 225 1055  204 205 1056  204 225 1056  205 226 1056  225 226 1056  205 206 1057  205 226 1057  206 227 1057  226 227 1057  206 207 1058  206 227 1058  207 228 1058  227 228 1058  207 208 1059  207 228 1059  208 229 1059  228 229 1059  208 209 1060  208 229 1060  209 230 1060  229 230 1060  210 211 1061  210 231 1061  211 232 1061  231 232 1061  211 212 1062  211 232 1062  212 233 1062  232 233 1062  212 213 1063  212 233 1063  213 234 1063  233 234 1063  213 214 1064  213 234 1064  214 235 1064  234 235 1064  214 215 1065  214 235 1065  215 236 1065  235 236 1065  215 216 1066  215 236 1066  216 237 1066  236 237 1066  216 217 1067  216 237 1067  217 238 1067  237 238 1067  217 218 1068  217 238 1068  218 239 1068  238 239 1068  218 219 1069  218 239 1069  219 240 1069  239 240 1069  219 220 1070  219 240 1070  220 241 1070  240 241 1070  220 221 1071  220 241 1071  221 242 1071  241 242 1071  221 222 1072  221 242 1072  222 243 1072  242 243 1072  222 223 1073  222 243 1073  223 244 1073  243 244 1073  223 224 1074  223 244 1074  224 245 1074  244 245 1074  224 225 1075  224 245 1075  225 246 1075  245 246 1075  225 226 1076  225 246 1076  226 247 1076  246 247 1076  226 227 1077  226 247 1077  227 248 1077  247 248 1077  227 228 1078  227 248 1078  228 249 1078  248 249 1078  228 229 1079  228 249 1079  229 250 1079  249 250 1079  229 230 1080  229 250 1080  230 251 1080  250 251 1080  231 232 1081  231 252 1081  232 253 1081  252 253 1081  232 233 1082  232 253 1082  233 254 1082  253 254 1082  233 234 1083  233 254 1083  234 255 1083  254 255 1083  234 235 1084  234 255 1084  235 256 1084  255 256 1084  235 236 1085  235 256 1085  236 257 1085  256 257 1085  236 237 1086  236 257 1086  237 258 1086  257 258 1086  237 238 1087  237 258 1087  238 259 1087  258 259 1087  238 239 1088  238 259 1088  239 260 1088  259 260 1088  239 240 1089  239 260 1089  240 261 1089  260 261 1089  240 241 1090  240 261 1090  241 262 1090  261 262 1090  241 242 1091  241 262 1091  242 263 1091  262 263 1091  242 243 1092  242 263 1092  243 264 1092  263 264 1092  243 244 1093  243 264 1093  244 265 1093  264 265 1093  244 245 1094  244 265 1094  245 266 1094  265 266 1094  245 246 1095  245 266 1095  246 267 1095  266 267 1095  246 247 1096  246 267 1096  247 268 1096  267 268 1096  247 248 1097  247 268 1097  248 269 1097  268 269 1097  248 249 1098  248 269 1098  249 270 1098  269 270 1098  249 250 1099  249 270 1099  250 271 1099  270 271 1099  250 251 1100  250 271 1100  251 272 1100  271 272 1100  252 253 1101  252 273 1101  253 274 1101  273 274 1101  253 254 1102  253 274 1102  254 275 1102  274 275 1102  254 255 1103  254 275 1103  255 276 1103  275 276 1103  255 256 1104  255 276 1104  256 277 1104  276 277 1104  256 257 1105  256 277 1105  257 278 1105  277 278 1105  257 258 1106  257 278 1106  258 279 1106  278 279 1106  258 259 1107  258 279 1107  259 280 1107  279 280 1107  259 260 1108  259 280 1108  260 281 1108  280 281 1108  260 261 1109  260 281 1109  261 282 1109  281 282 1109  261 262 1110  261 282 1110  262 283 1110  282 283 1110  262 263 1111  262 283 1111  263 284 1111  283 284 1111  263 264 1112  263 284 1112  264 285 1112  284 285 1112  264 265 1113  264 285 1113  265 286 1113  285 286 1113  265 266 1114  265 286 1114  266 287 1114  286 287 1114  266 267 1115  266 287 1115  267 288 1115  287 288 1115  267 268 1116  267 288 1116  268 289 1116  288 289 1116  268 269 1117  268 289 1117  269 290 1117  289 290 1117  269 270 1118  269 290 1118  270 291 1118  290 291 1118  270 271 1119  270 291 1119  271 292 1119  291 292 1119  271 272 1120  271 292 1120  272 293 1120  292 293 1120  273 274 1121  273 294 1121  274 295 1121  294 295 1121  274 275 1122  274 295 1122  275 296 1122  295 296 1122  275 276 1123  275 296 1123  276 297 1123  296 297 1123  276 277 1124  276 297 1124  277 298 1124  297 298 1124  277 278 1125  277 298 1125  278 299 1125  298 299 1125  278 279 1126  278 299 1126  279 300 1126  299 300 1126  279 280 1127  279 300 1127  280 301 1127  300 301 1127  280 281 1128  280 301 1128  281 302 1128  301 302 1128  281 282 1129  281 302 1129  282 303 1129  302 303 1129  282 283 1130  282 303 1130  283 304 1130  303 304 1130  283 284 1131  283 304 1131  284 305 1131  304 305 1131  284 285 1132  284 305 1132  285 306 1132  305 306 1132  285 286 1133  285 306 1133  286 307 1133  306 307 1133  286 287 1134  286 307 1134  287 308 1134  307 308 1134  287 288 1135  287 308 1135  288 309 1135  308 309 1135  288 289 1136  288 309 1136  289 310 1136  309 310 1136  289 290 1137  289 310 1137  290 311 1137  310 311 1137  290 291 1138  290 311 1138  291 312 1138  311 312 1138  291 292 1139  291 312 1139  292 313 1139  312 313 1139  292 293 1140  292 313 1140  293 314 1140  313 314 1140  294 295 1141  294 315 1141  295 316 1141  315 316 1141  295 296 1142  295 316 1142  296 317 1142  316 317 1142  296 297 1143  296 317 1143  297 318 1143  317 318 1143  297 298 1144  297 318 1144  298 319 1144  318 319 1144  298 299 1145  298 319 1145  299 320 1145  319 320 1145  299 300 1146  299 320 1146  300 321 1146  320 321 1146  300 301 1147  300 321 1147  301 322 1147  321 322 1147  301 302 1148  301 322 1148  302 323 1148  322 323 1148  302 303 1149  302 323 1149  303 324 1149  323 324 1149  303 304 1150  303 324 1150  304 325 1150  324 325 1150  304 305 1151  304 325 1151  305 326 1151  325 326 1151  305 306 1152  305 326 1152  306 327 1152  326 327 1152  306 307 1153  306 327 1153  307 328 1153  327 328 1153  307 308 1154  307 328 1154  308 329 1154  328 329 1154  308 309 1155  308 329 1155  309 330 1155  329 330 1155  309 310 1156  309 330 1156  310 331 1156  330 331 1156  310 311 1157  310 331 1157  311 332 1157  331 332 1157  311 312 1158  311 332 1158  312 333 1158  332 333 1158  312 313 1159  312 333 1159  313 334 1159  333 334 1159  313 314 1160  313 334 1160  314 335 1160  334 335 1160  315 316 1161  315 336 1161  316 337 1161  336 337 1161  316 317 1162  316 337 1162  317 338 1162  337 338 1162  317 318 1163  317 338 1163  318 339 1163  338 339 1163  318 319 1164  318 339 1164  319 340 1164  339 340 1164  319 320 1165  319 340 1165  320 341 1165  340 341 1165  320 321 1166  320 341 1166  321 342 1166  341 342 1166  321 322 1167  321 342 1167  322 343 1167  342 343 1167  322 323 1168  322 343 1168  323 344 1168  343 344 1168  323 324 1169  323 344 1169  324 345 1169  344 345 1169  324 325 1170  324 345 1170  325 346 1170  345 346 1170  325 326 1171  325 346 1171  326 347 1171  346 347 1171  326 327 1172  326 347 1172  327 348 1172  347 348 1172  327 328 1173  327 348 1173  328 349 1173  348 349 1173  328 329 1174  328 349 1174  329 350 1174  349 350 1174  329 330 1175  329 350 1175  330 351 1175  350 351 1175  330 331 1176  330 351 1176  331 352 1176  351 352 1176  331 332 1177  331 352 1177  332 353 1177  352 353 1177  332 333 1178  332 353 1178  333 354 1178  353 354 1178  333 334 1179  333 354 1179  334 355 1179  354 355 1179  334 335 1180  334 355 1180  335 356 1180  355 356 1180  336 337 1181  336 357 1181  337 358 1181  357 358 1181  337 338 1182  337 358 1182  338 359 1182  358 359 1182  338 339 1183  338 359 1183  339 360 1183  359 360 1183  339 340 1184  339 360 1184  340 361 1184  360 361 1184  340 341 1185  340 361 1185  341 362 1185  361 362 1185  341 342 1186  341 362 1186  342 363 1186  362 363 1186  342 343 1187  342 363 1187  343 364 1187  363 364 1187  343 344 1188  343 364 1188  344 365 1188  364 365 1188  344 345 1189  344 365 1189  345 366 1189  365 366 1189  345 346 1190  345 366 1190  346 367 1190  366 367 1190  346 347 1191  346 367 1191  347 368 1191  367 368 1191  347 348 1192  347 368 1192  348 369 1192  368 369 1192  348 349 1193  348 369 1193  349 370 1193  369 370 1193  349 350 1194  349 370 1194  350 371 1194  370 371 1194  350 351 1195  350 371 1195  351 372 1195  371 372 1195  351 352 1196  351 372 1196  352 373 1196  372 373 1196  352 353 1197  352 373 1197  353 374 1197  373 374 1197  353 354 1198  353 374 1198  354 375 1198  374 375 1198  354 355 1199  354 375 1199  355 376 1199  375 376 1199  355 356 1200  355 376 1200  356 377 1200  376 377 1200  357 358 1201  357 378 1201  358 379 1201  378 379 1201  358 359 1202  358 379 1202  359 380 1202  379 380 1202  359 360 1203  359 380 1203  360 381 1203  380 381 1203  360 361 1204  360 381 1204  361 382 1204  381 382 1204  361 362 1205  361 382 1205  362 383 1205  382 383 1205  362 363 1206  362 383 1206  363 384 1206  383 384 1206  363 364 1207  363 384 1207  364 385 1207  384 385 1207  364 365 1208  364 385 1208  365 386 1208  385 386 1208  365 366 1209  365 386 1209  366 387 1209  386 387 1209  366 367 1210  366 387 1210  367 388 1210  387 388 1210  367 368 1211  367 388 1211  368 389 1211  388 389 1211  368 369 1212  368 389 1212  369 390 1212  389 390 1212  369 370 1213  369 390 1213  370 391 1213  390 391 1213  370 371 1214  370 391 1214  371 392 1214  391 392 1214  371 372 1215  371 392 1215  372 393 1215  392 393 1215  372 373 1216  372 393 1216  373 394 1216  393 394 1216  373 374 1217  373 394 1217  374 395 1217  394 395 1217  374 375 1218  374 395 1218  375 396 1218  395 396 1218  375 376 1219  375 396 1219  376 397 1219  396 397 1219  376 377 1220  376 397 1220  377 398 1220  397 398 1220  378 379 1221  378 399 1221  379 400 1221  399 400 1221  379 380 1222  379 400 1222  380 401 1222  400 401 1222  380 381 1223  380 401 1223  381 402 1223  401 402 1223  381 382 1224  381 402 1224  382 403 1224  402 403 1224  382 383 1225  382 403 1225  383 404 1225  403 404 1225  383 384 1226  383 404 1226  384 405 1226  404 405 1226  384 385 1227  384 405 1227  385 406 1227  405 406 1227  385 386 1228  385 406 1228  386 407 1228  406 407 1228  386 387 1229  386 407 1229  387 408 1229  407 408 1229  387 388 1230  387 408 1230  388 409 1230  408 409 1230  388 389 1231  388 409 1231  389 410 1231  409 410 1231  389 390 1232  389 410 1232  390 411 1232  410 411 1232  390 391 1233  390 411 1233  391 412 1233  411 412 1233  391 392 1234  391 412 1234  392 413 1234  412 413 1234  392 393 1235  392 413 1235  393 414 1235  413 414 1235  393 394 1236  393 414 1236  394 415 1236  414 415 1236  394 395 1237  394 415 1237  395 416 1237  415 416 1237  395 396 1238  395 416 1238  396 417 1238  416 417 1238  396 397 1239  396 417 1239  397 418 1239  417 418 1239  397 398 1240  397 418 1240  398 419 1240  418 419 1240  399 400 1241  399 420 1241  400 421 1241  420 421 1241  400 401 1242  400 421 1242  401 422 1242  421 422 1242  401 402 1243  401 422 1243  402 423 1243  422 423 1243  402 403 1244  402 423 1244  403 424 1244  423 424 1244  403 404 1245  403 424 1245  404 425 1245  424 425 1245  404 405 1246  404 425 1246  405 426 1246  425 426 1246  405 406 1247  405 426 1247  406 427 1247  426 427 1247  406 407 1248  406 427 1248  407 428 1248  427 428 1248  407 408 1249  407 428 1249  408 429 1249  428 429 1249  408 409 1250  408 429 1250  409 430 1250  429 430 1250  409 410 1251  409 430 1251  410 431 1251  430 431 1251  410 411 1252  410 431 1252  411 432 1252  431 432 1252  411 412 1253  411 432 1253  412 433 1253  432 433 1253  412 413 1254  412 433 1254  413 434 1254  433 434 1254  413 414 1255  413 434 1255  414 435 1255  434 435 1255  414 415 1256  414 435 1256  415 436 1256  435 436 1256  415 416 1257  415 436 1257  416 437 1257  436 437 1257  416 417 1258  416 437 1258  417 438 1258  437 438 1258  417 418 1259  417 438 1259  418 439 1259  438 439 1259  418 419 1260  418 439 1260  419 440 1260  439 440 1260  420 421 1261  420 441 1261  421 442 1261  441 442 1261  421 422 1262  421 442 1262  422 443 1262  442 443 1262  422 423 1263  422 443 1263  423 444 1263  443 444 1263  423 424 1264  423 444 1264  424 445 1264  444 445 1264  424 425 1265  424 445 1265  425 446 1265  445 446 1265  425 426 1266  425 446 1266  426 447 1266  446 447 1266  426 427 1267  426 447 1267  427 448 1267  447 448 1267  427 428 1268  427 448 1268  428 449 1268  448 449 1268  428 429 1269  428 449 1269  429 450 1269  449 450 1269  429 430 1270  429 450 1270  430 451 1270  450 451 1270  430 431 1271  430 451 1271  431 452 1271  451 452 1271  431 432 1272  431 452 1272  432 453 1272  452 453 1272  432 433 1273  432 453 1273  433 454 1273  453 454 1273  433 434 1274  433 454 1274  434 455 1274  454 455 1274  434 435 1275  434 455 1275  435 456 1275  455 456 1275  435 436 1276  435 456 1276  436 457 1276  456 457 1276  436 437 1277  436 457 1277  437 458 1277  457 458 1277  437 438 1278  437 458 1278  438 459 1278  458 459 1278  438 439 1279  438 459 1279  439 460 1279  459 460 1279  439 440 1280  439 460 1280  440 461 1280  460 461 1280  441 442 1281  441 462 1281  442 463 1281  462 463 1281  442 443 1282  442 463 1282  443 464 1282  463 464 1282  443 444 1283  443 464 1283  444 465 1283  464 465 1283  444 445 1284  444 465 1284  445 466 1284  465 466 1284  445 446 1285  445 466 1285  446 467 1285  466 467 1285  446 447 1286  446 467 1286  447 468 1286  467 468 1286  447 448 1287  447 468 1287  448 469 1287  468 469 1287  448 449 1288  448 469 1288  449 470 1288  469 470 1288  449 450 1289  449 470 1289  450 471 1289  470 471 1289  450 451 1290  450 471 1290  451 472 1290  471 472 1290  451 452 1291  451 472 1291  452 473 1291  472 473 1291  452 453 1292  452 473 1292  453 474 1292  473 474 1292  453 454 1293  453 474 1293  454 475 1293  474 475 1293  454 455 1294  454 475 1294  455 476 1294  475 476 1294  455 456 1295  455 476 1295  456 477 1295  476 477 1295  456 457 1296  456 477 1296  457 478 1296  477 478 1296  457 458 1297  457 478 1297  458 479 1297  478 479 1297  458 459 1298  458 479 1298  459 480 1298  479 480 1298  459 460 1299  459 480 1299  460 481 1299  480 481 1299  460 461 1300  460 481 1300  461 482 1300  481 482 1300  462 463 1301  462 483 1301  463 484 1301  483 484 1301  463 464 1302  463 484 1302  464 485 1302  484 485 1302  464 465 1303  464 485 1303  465 486 1303  485 486 1303  465 466 1304  465 486 1304  466 487 1304  486 487 1304  466 467 1305  466 487 1305  467 488 1305  487 488 1305  467 468 1306  467 488 1306  468 489 1306  488 489 1306  468 469 1307  468 489 1307  469 490 1307  489 490 1307  469 470 1308  469 490 1308  470 491 1308  490 491 1308  470 471 1309  470 491 1309  471 492 1309  491 492 1309  471 472 1310  471 492 1310  472 493 1310  492 493 1310  472 473 1311  472 493 1311  473 494 1311  493 494 1311  473 474 1312  473 494 1312  474 495 1312  494 495 1312  474 475 1313  474 495 1313  475 496 1313  495 496 1313  475 476 1314  475 496 1314  476 497 1314  496 497 1314  476 477 1315  476 497 1315  477 498 1315  497 498 1315  477 478 1316  477 498 1316  478 499 1316  498 499 1316  478 479 1317  478 499 1317  479 500 1317  499 500 1317  479 480 1318  479 500 1318  480 501 1318  500 501 1318  480 481 1319  480 501 1319  481 502 1319  501 502 1319  481 482 1320  481 502 1320  482 503 1320  502 503 1320  483 484 1321  483 504 1321  484 505 1321  504 505 1321  484 485 1322  484 505 1322  485 506 1322  505 506 1322  485 486 1323  485 506 1323  486 507 1323  506 507 1323  486 487 1324  486 507 1324  487 508 1324  507 508 1324  487 488 1325  487 508 1325  488 509 1325  508 509 1325  488 489 1326  488 509 1326  489 510 1326  509 510 1326  489 490 1327  489 510 1327  490 511 1327  510 511 1327  490 491 1328  490 511 1328  491 512 1328  511 512 1328  491 492 1329  491 512 1329  492 513 1329  512 513 1329  492 493 1330  492 513 1330  493 514 1330  513 514 1330  493 494 1331  493 514 1331  494 515 1331  514 515 1331  494 495 1332  494 515 1332  495 516 1332  515 516 1332  495 496 1333  495 516 1333  496 517 1333  516 517 1333  496 497 1334  496 517 1334  497 518 1334  517 518 1334  497 498 1335  497 518 1335  498 519 1335  518 519 1335  498 499 1336  498 519 1336  499 520 1336  519 520 1336  499 500 1337  499 520 1337  500 521 1337  520 521 1337  500 501 1338  500 521 1338  501 522 1338  521 522 1338  501 502 1339  501 522 1339  502 523 1339  522 523 1339  502 503 1340  502 523 1340  503 524 1340  523 524 1340  504 505 1341  504 525 1341  505 526 1341  525 526 1341  505 506 1342  505 526 1342  506 527 1342  526 527 1342  506 507 1343  506 527 1343  507 528 1343  527 528 1343  507 508 1344  507 528 1344  508 529 1344  528 529 1344  508 509 1345  508 529 1345  509 530 1345  529 530 1345  509 510 1346  509 530 1346  510 531 1346  530 531 1346  510 511 1347  510 531 1347  511 532 1347  531 532 1347  511 512 1348  511 532 1348  512 533 1348  532 533 1348  512 513 1349  512 533 1349  513 534 1349  533 534 1349  513 514 1350  513 534 1350  514 535 1350  534 535 1350  514 515 1351  514 535 1351  515 536 1351  535 536 1351  515 516 1352  515 536 1352  516 537 1352  536 537 1352  516 517 1353  516 537 1353  517 538 1353  537 538 1353  517 518 1354  517 538 1354  518 539 1354  538 539 1354  518 519 1355  518 539 1355  519 540 1355  539 540 1355  519 520 1356  519 540 1356  520 541 1356  540 541 1356  520 521 1357  520 541 1357  521 542 1357  541 542 1357  521 522 1358  521 542 1358  522 543 1358  542 543 1358  522 523 1359  522 543 1359  523 544 1359  543 544 1359  523 524 1360  523 544 1360  524 545 1360  544 545 1360  525 526 1361  525 546 1361  526 547 1361  546 547 1361  526 527 1362  526 547 1362  527 548 1362  547 548 1362  527 528 1363  527 548 1363  528 549 1363  548 549 1363  528 529 1364  528 549 1364  529 550 1364  549 550 1364  529 530 1365  529 550 1365  530 551 1365  550 551 1365  530 531 1366  530 551 1366  531 552 1366  551 552 1366  531 532 1367  531 552 1367  532 553 1367  552 553 1367  532 533 1368  532 553 1368  533 554 1368  553 554 1368  533 534 1369  533 554 1369  534 555 1369  554 555 1369  534 535 1370  534 555 1370  535 556 1370  555 556 1370  535 536 1371  535 556 1371  536 557 1371  556 557 1371  536 537 1372  536 557 1372  537 558 1372  557 558 1372  537 538 1373  537 558 1373  538 559 1373  558 559 1373  538 539 1374  538 559 1374  539 560 1374  559 560 1374  539 540 1375  539 560 1375  540 561 1375  560 561 1375  540 541 1376  540 561 1376  541 562 1376  561 562 1376  541 542 1377  541 562 1377  542 563 1377  562 563 1377  542 543 1378  542 563 1378  543 564 1378  563 564 1378  543 544 1379  543 564 1379  544 565 1379  564 565 1379  544 545 1380  544 565 1380  545 566 1380  565 566 1380  546 547 1381  546 567 1381  547 568 1381  567 568 1381  547 548 1382  547 568 1382  548 569 1382  568 569 1382  548 549 1383  548 569 1383  549 570 1383  569 570 1383  549 550 1384  549 570 1384  550 571 1384  570 571 1384  550 551 1385  550 571 1385  551 572 1385  571 572 1385  551 552 1386  551 572 1386  552 573 1386  572 573 1386  552 553 1387  552 573 1387  553 574 1387  573 574 1387  553 554 1388  553 574 1388  554 575 1388  574 575 1388  554 555 1389  554 575 1389  555 576 1389  575 576 1389  555 556 1390  555 576 1390  556 577 1390  576 577 1390  556 557 1391  556 577 1391  557 578 1391  577 578 1391  557 558 1392  557 578 1392  558 579 1392  578 579 1392  558 559 1393  558 579 1393  559 580 1393  579 580 1393  559 560 1394  559 580 1394  560 581 1394  580 581 1394  560 561 1395  560 581 1395  561 582 1395  581 582 1395  561 562 1396  561 582 1396  562 583 1396  582 583 1396  562 563 1397  562 583 1397  563 584 1397  583 584 1397  563 564 1398  563 584 1398  564 585 1398  584 585 1398  564 565 1399  564 585 1399  565 586 1399  585 586 1399  565 566 1400  565 586 1400  566 587 1400  586 587 1400  567 568 1401  567 588 1401  568 589 1401  588 589 1401  568 569 1402  568 589 1402  569 590 1402  589 590 1402  569 570 1403  569 590 1403  570 591 1403  590 591 1403  570 571 1404  570 591 1404  571 592 1404  591 592 1404  571 572 1405  571 592 1405  572 593 1405  592 593 1405  572 573 1406  572 593 1406  573 594 1406  593 594 1406  573 574 1407  573 594 1407  574 595 1407  594 595 1407  574 575 1408  574 595 1408  575 596 1408  595 596 1408  575 576 1409  575 596 1409  576 597 1409  596 597 1409  576 577 1410  576 597 1410  577 598 1410  597 598 1410  577 578 1411  577 598 1411  578 599 1411  598 599 1411  578 579 1412  578 599 1412  579 600 1412  599 600 1412  579 580 1413  579 600 1413  580 601 1413  600 601 1413  580 581 1414  580 601 1414  581 602 1414  601 602 1414  581 582 1415  581 602 1415  582 603 1415  602 603 1415  582 583 1416  582 603 1416  583 604 1416  603 604 1416  583 584 1417  583 604 1417  584 605 1417  604 605 1417  584 585 1418  584 605 1418  585 606 1418  605 606 1418  585 586 1419  585 606 1419  586 607 1419  606 607 1419  586 587 1420  586 607 1420  587 608 1420  607 608 1420  588 589 1421  588 609 1421  589 610 1421  609 610 1421  589 590 1422  589 610 1422  590 611 1422  610 611 1422  590 591 1423  590 611 1423  591 612 1423  611 612 1423  591 592 1424  591 612 1424  592 613 1424  612 613 1424  592 593 1425  592 613 1425  593 614 1425  613 614 1425  593 594 1426  593 614 1426  594 615 1426  614 615 1426  594 595 1427  594 615 1427  595 616 1427  615 616 1427  595 596 1428  595 616 1428  596 617 1428  616 617 1428  596 597 1429  596 617 1429  597 618 1429  617 618 1429  597 598 1430  597 618 1430  598 619 1430  618 619 1430  598 599 1431  598 619 1431  599 620 1431  619 620 1431  599 600 1432  599 620 1432  600 621 1432  620 621 1432  600 601 1433  600 621 1433  601 622 1433  621 622 1433  601 602 1434  601 622 1434  602 623 1434  622 623 1434  602 603 1435  602 623 1435  603 624 1435  623 624 1435  603 604 1436  603 624 1436  604 625 1436  624 625 1436  604 605 1437  604 625 1437  605 626 1437  625 626 1437  605 606 1438  605 626 1438  606 627 1438  626 627 1438  606 607 1439  606 627 1439  607 628 1439  627 628 1439  607 608 1440  607 628 1440  608 629 1440  628 629 1440  609 610 1441  609 630 1441  610 631 1441  630 631 1441  610 611 1442  610 631 1442  611 632 1442  631 632 1442  611 612 1443  611 632 1443  612 633 1443  632 633 1443  612 613 1444  612 633 1444  613 634 1444  633 634 1444  613 614 1445  613 634 1445  614 635 1445  634 635 1445  614 615 1446  614 635 1446  615 636 1446  635 636 1446  615 616 1447  615 636 1447  616 637 1447  636 637 1447  616 617 1448  616 637 1448  617 638 1448  637 638 1448  617 618 1449  617 638 1449  618 639 1449  638 639 1449  618 619 1450  618 639 1450  619 640 1450  639 640 1450  619 620 1451  619 640 1451  620 641 1451  640 641 1451  620 621 1452  620 641 1452  621 642 1452  641 642 1452  621 622 1453  621 642 1453  622 643 1453  642 643 1453  622 623 1454  622 643 1454  623 644 1454  643 644 1454  623 624 1455  623 644 1455  624 645 1455  644 645 1455  624 625 1456  624 645 1456  625 646 1456  645 646 1456  625 626 1457  625 646 1457  626 647 1457  646 647 1457  626 627 1458  626 647 1458  627 648 1458  647 648 1458  627 628 1459  627 648 1459  628 649 1459  648 649 1459  628 629 1460  628 649 1460  629 650 1460  649 650 1460  630 631 1461  630 651 1461  631 652 1461  651 652 1461  631 632 1462  631 652 1462  632 653 1462  652 653 1462  632 633 1463  632 653 1463  633 654 1463  653 654 1463  633 634 1464  633 654 1464  634 655 1464  654 655 1464  634 635 1465  634 655 1465  635 656 1465  655 656 1465  635 636 1466  635 656 1466  636 657 1466  656 657 1466  636 637 1467  636 657 1467  637 658 1467  657 658 1467  637 638 1468  637 658 1468  638 659 1468  658 659 1468  638 639 1469  638 659 1469  639 660 1469  659 660 1469  639 640 1470  639 660 1470  640 661 1470  660 661 1470  640 641 1471  640 661 1471  641 662 1471  661 662 1471  641 642 1472  641 662 1472  642 663 1472  662 663 1472  642 643 1473  642 663 1473  643 664 1473  663 664 1473  643 644 1474  643 664 1474  644 665 1474  664 665 1474  644 645 1475  644 665 1475  645 666 1475  665 666 1475  645 646 1476  645 666 1476  646 667 1476  666 667 1476  646 647 1477  646 667 1477  647 668 1477  667 668 1477  647 648 1478  647 668 1478  648 669 1478  668 669 1478  648 649 1479  648 669 1479  649 670 1479  669 670 1479  649 650 1480  649 670 1480  650 671 1480  670 671 1480  651 652 1481  651 672 1481  652 673 1481  672 673 1481  652 653 1482  652 673 1482  653 674 1482  673 674 1482  653 654 1483  653 674 1483  654 675 1483  674 675 1483  654 655 1484  654 675 1484  655 676 1484  675 676 1484  655 656 1485  655 676 1485  656 677 1485  676 677 1485  656 657 1486  656 677 1486  657 678 1486  677 678 1486  657 658 1487  657 678 1487  658 679 1487  678 679 1487  658 659 1488  658 679 1488  659 680 1488  679 680 1488  659 660 1489  659 680 1489  660 681 1489  680 681 1489  660 661 1490  660 681 1490  661 682 1490  681 682 1490  661 662 1491  661 682 1491  662 683 1491  682 683 1491  662 663 1492  662 683 1492  663 684 1492  683 684 1492  663 664 1493  663 684 1493  664 685 1493  684 685 1493  664 665 1494  664 685 1494  665 686 1494  685 686 1494  665 666 1495  665 686 1495  666 687 1495  686 687 1495  666 667 1496  666 687 1496  667 688 1496  687 688 1496  667 668 1497  667 688 1497  668 689 1497  688 689 1497  668 669 1498  668 689 1498  669 690 1498  689 690 1498  669 670 1499  669 690 1499  670 691 1499  690 691 1499  670 671 1500  670 691 1500  671 692 1500  691 692 1500  672 673 1501  672 693 1501  673 694 1501  693 694 1501  673 674 1502  673 694 1502  674 695 1502  694 695 1502  674 675 1503  674 695 1503  675 696 1503  695 696 1503  675 676 1504  675 696 1504  676 697 1504  696 697 1504  676 677 1505  676 697 1505  677 698 1505  697 698 1505  677 678 1506  677 698 1506  678 699 1506  698 699 1506  678 679 1507  678 699 1507  679 700 1507  699 700 1507  679 680 1508  679 700 1508  680 701 1508  700 701 1508  680 681 1509  680 701 1509  681 702 1509  701 702 1509  681 682 1510  681 702 1510  682 703 1510  702 703 1510  682 683 1511  682 703 1511  683 704 1511  703 704 1511  683 684 1512  683 704 1512  684 705 1512  704 705 1512  684 685 1513  684 705 1513  685 706 1513  705 706 1513  685 686 1514  685 706 1514  686 707 1514  706 707 1514  686 687 1515  686 707 1515  687 708 1515  707 708 1515  687 688 1516  687 708 1516  688 709 1516  708 709 1516  688 689 1517  688 709 1517  689 710 1517  709 710 1517  689 690 1518  689 710 1518  690 711 1518  710 711 1518  690 691 1519  690 711 1519  691 712 1519  711 712 1519  691 692 1520  691 712 1520  692 713 1520  712 713 1520  693 694 1521  693 714 1521  694 715 1521  714 715 1521  694 695 1522  694 715 1522  695 716 1522  715 716 1522  695 696 1523  695 716 1523  696 717 1523  716 717 1523  696 697 1524  696 717 1524  697 718 1524  717 718 1524  697 698 1525  697 718 1525  698 719 1525  718 719 1525  698 699 1526  698 719 1526  699 720 1526  719 720 1526  699 700 1527  699 720 1527  700 721 1527  720 721 1527  700 701 1528  700 721 1528  701 722 1528  721 722 1528  701 702 1529  701 722 1529  702 723 1529  722 723 1529  702 703 1530  702 723 1530  703 724 1530  723 724 1530  703 704 1531  703 724 1531  704 725 1531  724 725 1531  704 705 1532  704 725 1532  705 726 1532  725 726 1532  705 706 1533  705 726 1533  706 727 1533  726 727 1533  706 707 1534  706 727 1534  707 728 1534  727 728 1534  707 708 1535  707 728 1535  708 729 1535  728 729 1535  708 709 1536  708 729 1536  709 730 1536  729 730 1536  709 710 1537  709 730 1537  710 731 1537  730 731 1537  710 711 1538  710 731 1538  711 732 1538  731 732 1538  711 712 1539  711 732 1539  712 733 1539  732 733 1539  712 713 1540  712 733 1540  713 734 1540  733 734 1540  714 715 1541  714 735 1541  715 736 1541  735 736 1541  715 716 1542  715 736 1542  716 737 1542  736 737 1542  716 717 1543  716 737 1543  717 738 1543  737 738 1543  717 718 1544  717 738 1544  718 739 1544  738 739 1544  718 719 1545  718 739 1545  719 740 1545  739 740 1545  719 720 1546  719 740 1546  720 741 1546  740 741 1546  720 721 1547  720 741 1547  721 742 1547  741 742 1547  721 722 1548  721 742 1548  722 743 1548  742 743 1548  722 723 1549  722 743 1549  723 744 1549  743 744 1549  723 724 1550  723 744 1550  724 745 1550  744 745 1550  724 725 1551  724 745 1551  725 746 1551  745 746 1551  725 726 1552  725 746 1552  726 747 1552  746 747 1552  726 727 1553  726 747 1553  727 748 1553  747 748 1553  727 728 1554  727 748 1554  728 749 1554  748 749 1554  728 729 1555  728 749 1555  729 750 1555  749 750 1555  729 730 1556  729 750 1556  730 751 1556  750 751 1556  730 731 1557  730 751 1557  731 752 1557  751 752 1557  731 732 1558  731 752 1558  732 753 1558  752 753 1558  732 733 1559  732 753 1559  733 754 1559  753 754 1559  733 734 1560  733 754 1560  734 755 1560  754 755 1560  735 736 1561  735 756 1561  736 757 1561  756 757 1561  736 737 1562  736 757 1562  737 758 1562  757 758 1562  737 738 1563  737 758 1563  738 759 1563  758 759 1563  738 739 1564  738 759 1564  739 760 1564  759 760 1564  739 740 1565  739 760 1565  740 761 1565  760 761 1565  740 741 1566  740 761 1566  741 762 1566  761 762 1566  741 742 1567  741 762 1567  742 763 1567  762 763 1567  742 743 1568  742 763 1568  743 764 1568  763 764 1568  743 744 1569  743 764 1569  744 765 1569  764 765 1569  744 745 1570  744 765 1570  745 766 1570  765 766 1570  745 746 1571  745 766 1571  746 767 1571  766 767 1571  746 747 1572  746 767 1572  747 768 1572  767 768 1572  747 748 1573  747 768 1573  748 769 1573  768 769 1573  748 749 1574  748 769 1574  749 770 1574  769 770 1574  749 750 1575  749 770 1575  750 771 1575  770 771 1575  750 751 1576  750 771 1576  751 772 1576  771 772 1576  751 752 1577  751 772 1577  752 773 1577  772 773 1577  752 753 1578  752 773 1578  753 774 1578  773 774 1578  753 754 1579  753 774 1579  754 775 1579  774 775 1579  754 755 1580  754 775 1580  755 776 1580  775 776 1580  756 757 1581  756 777 1581  757 778 1581  777 778 1581  757 758 1582  757 778 1582  758 779 1582  778 779 1582  758 759 1583  758 779 1583  759 780 1583  779 780 1583  759 760 1584  759 780 1584  760 781 1584  780 781 1584  760 761 1585  760 781 1585  761 782 1585  781 782 1585  761 762 1586  761 782 1586  762 783 1586  782 783 1586  762 763 1587  762 783 1587  763 784 1587  783 784 1587  763 764 1588  763 784 1588  764 785 1588  784 785 1588  764 765 1589  764 785 1589  765 786 1589  785 786 1589  765 766 1590  765 786 1590  766 787 1590  786 787 1590  766 767 1591  766 787 1591  767 788 1591  787 788 1591  767 768 1592  767 788 1592  768 789 1592  788 789 1592  768 769 1593  768 789 1593  769 790 1593  789 790 1593  769 770 1594  769 790 1594  770 791 1594  790 791 1594  770 771 1595  770 791 1595  771 792 1595  791 792 1595  771 772 1596  771 792 1596  772 793 1596  792 793 1596  772 773 1597  772 793 1597  773 794 1597  793 794 1597  773 774 1598  773 794 1598  774 795 1598  794 795 1598  774 775 1599  774 795 1599  775 796 1599  795 796 1599  775 776 1600  775 796 1600  776 797 1600  796 797 1600  777 778 1601  777 798 1601  778 799 1601  798 799 1601  778 779 1602  778 799 1602  779 800 1602  799 800 1602  779 780 1603  779 800 1603  780 801 1603  800 801 1603  780 781 1604  780 801 1604  781 802 1604  801 802 1604  781 782 1605  781 802 1605  782 803 1605  802 803 1605  782 783 1606  782 803 1606  783 804 1606  803 804 1606  783 784 1607  783 804 1607  784 805 1607  804 805 1607  784 785 1608  784 805 1608  785 806 1608  805 806 1608  785 786 1609  785 806 1609  786 807 1609  806 807 1609  786 787 1610  786 807 1610  787 808 1610  807 808 1610  787 788 1611  787 808 1611  788 809 1611  808 809 1611  788 789 1612  788 809 1612  789 810 1612  809 810 1612  789 790 1613  789 810 1613  790 811 1613  810 811 1613  790 791 1614  790 811 1614  791 812 1614  811 812 1614  791 792 1615  791 812 1615  792 813 1615  812 813 1615  792 793 1616  792 813 1616  793 814 1616  813 814 1616  793 794 1617  793 814 1617  794 815 1617  814 815 1617  794 795 1618  794 815 1618  795 816 1618  815 816 1618  795 796 1619  795 816 1619  796 817 1619  816 817 1619  796 797 1620  796 817 1620  797 818 1620  817 818 1620  798 799 1621  798 819 1621  799 820 1621  819 820 1621  799 800 1622  799 820 1622  800 821 1622  820 821 1622  800 801 1623  800 821 1623  801 822 1623  821 822 1623  801 802 1624  801 822 1624  802 823 1624  822 823 1624  802 803 1625  802 823 1625  803 824 1625  823 824 1625  803 804 1626  803 824 1626  804 825 1626  824 825 1626  804 805 1627  804 825 1627  805 826 1627  825 826 1627  805 806 1628  805 826 1628  806 827 1628  826 827 1628  806 807 1629  806 827 1629  807 828 1629  827 828 1629  807 808 1630  807 828 1630  808 829 1630  828 829 1630  808 809 1631  808 829 1631  809 830 1631  829 830 1631  809 810 1632  809 830 1632  810 831 1632  830 831 1632  810 811 1633  810 831 1633  811 832 1633  831 832 1633  811 812 1634  811 832 1634  812 833 1634  832 833 1634  812 813 1635  812 833 1635  813 834 1635  833 834 1635  813 814 1636  813 834 1636  814 835 1636  834 835 1636  814 815 1637  814 835 1637  815 836 1637  835 836 1637  815 816 1638  815 836 1638  816 837 1638  836 837 1638  816 817 1639  816 837 1639  817 838 1639  837 838 1639  817 818 1640  817 838 1640  818 839 1640  838 839 1640  819 820 1641  819 840 1641  820 841 1641  840 841 1641  820 821 1642  820 841 1642  821 842 1642  841 842 1642  821 822 1643  821 842 1643  822 843 1643  842 843 1643  822 823 1644  822 843 1644  823 844 1644  843 844 1644  823 824 1645  823 844 1645  824 845 1645  844 845 1645  824 825 1646  824 845 1646  825 846 1646  845 846 1646  825 826 1647  825 846 1647  826 847 1647  846 847 1647  826 827 1648  826 847 1648  827 848 1648  847 848 1648  827 828 1649  827 848 1649  828 849 1649  848 849 1649  828 829 1650  828 849 1650  829 850 1650  849 850 1650  829 830 1651  829 850 1651  830 851 1651  850 851 1651  830 831 1652  830 851 1652  831 852 1652  851 852 1652  831 832 1653  831 852 1653  832 853 1653  852 853 1653  832 833 1654  832 853 1654  833 854 1654  853 854 1654  833 834 1655  833 854 1655  834 855 1655  854 855 1655  834 835 1656  834 855 1656  835 856 1656  855 856 1656  835 836 1657  835 856 1657  836 857 1657  856 857 1657  836 837 1658  836 857 1658  837 858 1658  857 858 1658  837 838 1659  837 858 1659  838 859 1659  858 859 1659  838 839 1660  838 859 1660  839 860 1660  859 860 1660  </DataArray>
<DataArray  type="UInt32"  Name="offsets"  format="ascii">3 6 9 12 15 18 21 24 27 30 33 36 39 42 45 48 51 54 57 60 63 66 69 72 75 78 81 84 87 90 93 96 99 102 105 108 111 114 117 120 123 126 129 132 135 138 141 144 147 150 153 156 159 162 165 168 171 174 177 180 183 186 189 192 195 198 201 204 207 210 213 216 219 222 225 228 231 234 237 240 243 246 249 252 255 258 261 264 267 270 273 276 279 282 285 288 291 294 297 300 303 306 309 312 315 318 321 324 327 330 333 336 339 342 345 348 351 354 357 360 363 366 369 372 375 378 381 384 387 390 393 396 399 402 405 408 411 414 417 420 423 426 429 432 435 438 441 444 447 450 453 456 459 462 465 468 471 474 477 480 483 486 489 492 495 498 501 504 507 510 513 516 519 522 525 528 531 534 537 540 543 546 549 552 555 558 561 564 567 570 573 576 579 582 585 588 591 594 597 600 603 606 609 612 615 618 621 624 627 630 633 636 639 642 645 648 651 654 657 660 663 666 669 672 675 678 681 684 687 690 693 696 699 702 705 708 711 714 717 720 723 726 729 732 735 738 741 744 747 750 753 756 759 762 765 768 771 774 777 780 783 786 789 792 795 798 801 804 807 810 813 816 819 822 825 828 831 834 837 840 843 846 849 852 855 858 861 864 867 870 873 876 879 882 885 888 891 894 897 900 903 906 909 912 915 918 921 924 927 930 933 936 939 942 945 948 951 954 957 960 963 966 969 972 975 978 981 984 987 990 993 996 999 1002 1005 1008 1011 1014 1017 1020 1023 1026 1029 1032 1035 1038 1041 1044 1047 1050 1053 1056 1059 1062 1065 1068 1071 1074 1077 1080 1083 1086 1089 1092 1095 1098 1101 1104 1107 1110 1113 1116 1119 1122 1125 1128 1131 1134 1137 1140 1143 1146 1149 1152 1155 1158 1161 1164 1167 1170 1173 1176 1179 1182 1185 1188 1191 1194 1197 1200 1203 1206 1209 1212 1215 1218 1221 1224 1227 1230 1233 1236 1239 1242 1245 1248 1251 1254 1257 1260 1263 1266 1269 1272 1275 1278 1281 1284 1287 1290 1293 1296 1299 1302 1305 1308 1311 1314 1317 1320 1323 1326 1329 1332 1335 1338 1341 1344 1347 1350 1353 1356 1359 1362 1365 1368 1371 1374 1377 1380 1383 1386 1389 1392 1395 1398 1401 1404 1407 1410 1413 1416 1419 1422 1425 1428 1431 1434 1437 1440 1443 1446 1449 1452 1455 1458 1461 1464 1467 1470 1473 1476 1479 1482 1485 1488 1491 1494 1497 1500 1503 1506 1509 1512 1515 1518 1521 1524 1527 1530 1533 1536 1539 1542 1545 1548 1551 1554 1557 1560 1563 1566 1569 1572 1575 1578 1581 1584 1587 1590 1593 1596 1599 1602 1605 1608 1611 1614 1617 1620 1623 1626 1629 1632 1635 1638 1641 1644 1647 1650 1653 1656 1659 1662 1665 1668 1671 1674 1677 1680 1683 1686 1689 1692 1695 1698 1701 1704 1707 1710 1713 1716 1719 1722 1725 1728 1731 1734 1737 1740 1743 1746 1749 1752 1755 1758 1761 1764 1767 1770 1773 1776 1779 1782 1785 1788 1791 1794 1797 1800 1803 1806 1809 1812 1815 1818 1821 1824 1827 1830 1833 1836 1839 1842 1845 1848 1851 1854 1857 1860 1863 1866 1869 1872 1875 1878 1881 1884 1887 1890 1893 1896 1899 1902 1905 1908 1911 1914 1917 1920 1923 1926 1929 1932 1935 1938 1941 1944 1947 1950 1953 1956 1959 1962 1965 1968 1971 1974 1977 1980 1983 1986 1989 1992 1995 1998 2001 2004 2007 2010 2013 2016 2019 2022 2025 2028 2031 2034 2037 2040 2043 2046 2049 2052 2055 2058 2061 2064 2067 2070 2073 2076 2079 2082 2085 2088 2091 2094 2097 2100 2103 2106 2109 2112 2115 2118 2121 2124 2127 2130 2133 2136 2139 2142 2145 2148 2151 2154 2157 2160 2163 2166 2169 2172 2175 2178 2181 2184 2187 2190 2193 2196 2199 2202 2205 2208 2211 2214 2217 2220 2223 2226 2229 2232 2235 2238 2241 2244 2247 2250 2253 2256 2259 2262 2265 2268 2271 2274 2277 2280 2283 2286 2289 2292 2295 2298 2301 2304 2307 2310 2313 2316 2319 2322 2325 2328 2331 2334 2337 2340 2343 2346 2349 2352 2355 2358 2361 2364 2367 2370 2373 2376 2379 2382 2385 2388 2391 2394 2397 2400 2403 2406 2409 2412 2415 2418 2421 2424 2427 2430 2433 2436 2439 2442 2445 2448 2451 2454 2457 2460 2463 2466 2469 2472 2475 2478 2481 2484 2487 2490 2493 2496 2499 2502 2505 2508 2511 2514 2517 2520 2523 2526 2529 2532 2535 2538 2541 2544 2547 2550 2553 2556 2559 2562 2565 2568 2571 2574 2577 2580 2583 2586 2589 2592 2595 2598 2601 2604 2607 2610 2613 2616 2619 2622 2625 2628 2631 2634 2637 2640 2643 2646 2649 2652 2655 2658 2661 2664 2667 2670 2673 2676 2679 2682 2685 2688 2691 2694 2697 2700 2703 2706 2709 2712 2715 2718 2721 2724 2727 2730 2733 2736 2739 2742 2745 2748 2751 2754 2757 2760 2763 2766 2769 2772 2775 2778 2781 2784 2787 2790 2793 2796 2799 2802 2805 2808 2811 2814 2817 2820 2823 2826 2829 2832 2835 2838 2841 2844 2847 2850 2853 2856 2859 2862 2865 2868 2871 2874 2877 2880 2883 2886 2889 2892 2895 2898 2901 2904 2907 2910 2913 2916 2919 2922 2925 2928 2931 2934 2937 2940 2943 2946 2949 2952 2955 2958 2961 2964 2967 2970 2973 2976 2979 2982 2985 2988 2991 2994 2997 3000 3003 3006 3009 3012 3015 3018 3021 3024 3027 3030 3033 3036 3039 3042 3045 3048 3051 3054 3057 3060 3063 3066 3069 3072 3075 3078 3081 3084 3087 3090 3093 3096 3099 3102 3105 3108 3111 3114 3117 3120 3123 3126 3129 3132 3135 3138 3141 3144 3147 3150 3153 3156 3159 3162 3165 3168 3171 3174 3177 3180 3183 3186 3189 3192 3195 3198 3201 3204 3207 3210 3213 3216 3219 3222 3225 3228 3231 3234 3237 3240 3243 3246 3249 3252 3255 3258 3261 3264 3267 3270 3273 3276 3279 3282 3285 3288 3291 3294 3297 3300 3303 3306 3309 3312 3315 3318 3321 3324 3327 3330 3333 3336 3339 3342 3345 3348 3351 3354 3357 3360 3363 3366 3369 3372 3375 3378 3381 3384 3387 3390 3393 3396 3399 3402 3405 3408 3411 3414 3417 3420 3423 3426 3429 3432 3435 3438 3441 3444 3447 3450 3453 3456 3459 3462 3465 3468 3471 3474 3477 3480 3483 3486 3489 3492 3495 3498 3501 3504 3507 3510 3513 3516 3519 3522 3525 3528 3531 3534 3537 3540 3543 3546 3549 3552 3555 3558 3561 3564 3567 3570 3573 3576 3579 3582 3585 3588 3591 3594 3597 3600 3603 3606 3609 3612 3615 3618 3621 3624 3627 3630 3633 3636 3639 3642 3645 3648 3651 3654 3657 3660 3663 3666 3669 3672 3675 3678 3681 3684 3687 3690 3693 3696 3699 3702 3705 3708 3711 3714 3717 3720 3723 3726 3729 3732 3735 3738 3741 3744 3747 3750 3753 3756 3759 3762 3765 3768 3771 3774 3777 3780 3783 3786 3789 3792 3795 3798 3801 3804 3807 3810 3813 3816 3819 3822 3825 3828 3831 3834 3837 3840 3843 3846 3849 3852 3855 3858 3861 3864 3867 3870 3873 3876 3879 3882 3885 3888 3891 3894 3897 3900 3903 3906 3909 3912 3915 3918 3921 3924 3927 3930 3933 3936 3939 3942 3945 3948 3951 3954 3957 3960 3963 3966 3969 3972 3975 3978 3981 3984 3987 3990 3993 3996 3999 4002 4005 4008 4011 4014 4017 4020 4023 4026 4029 4032 4035 4038 4041 4044 4047 4050 4053 4056 4059 4062 4065 4068 4071 4074 4077 4080 4083 4086 4089 4092 4095 4098 4101 4104 4107 4110 4113 4116 4119 4122 4125 4128 4131 4134 4137 4140 4143 4146 4149 4152 4155 4158 4161 4164 4167 4170 4173 4176 4179 4182 4185 4188 4191 4194 4197 4200 4203 4206 4209 4212 4215 4218 4221 4224 4227 4230 4233 4236 4239 4242 4245 4248 4251 4254 4257 4260 4263 4266 4269 4272 4275 4278 4281 4284 4287 4290 4293 4296 4299 4302 4305 4308 4311 4314 4317 4320 4323 4326 4329 4332 4335 4338 4341 4344 4347 4350 4353 4356 4359 4362 4365 4368 4371 4374 4377 4380 4383 4386 4389 4392 4395 4398 4401 4404 4407 4410 4413 4416 4419 4422 4425 4428 4431 4434 4437 4440 4443 4446 4449 4452 4455 4458 4461 4464 4467 4470 4473 4476 4479 4482 4485 4488 4491 4494 4497 4500 4503 4506 4509 4512 4515 4518 4521 4524 4527 4530 4533 4536 4539 4542 4545 4548 4551 4554 4557 4560 4563 4566 4569 4572 4575 4578 4581 4584 4587 4590 4593 4596 4599 4602 4605 4608 4611 4614 4617 4620 4623 4626 4629 4632 4635 4638 4641 4644 4647 4650 4653 4656 4659 4662 4665 4668 4671 4674 4677 4680 4683 4686 4689 4692 4695 4698 4701 4704 4707 4710 4713 4716 4719 4722 4725 4728 4731 4734 4737 4740 4743 4746 4749 4752 4755 4758 4761 4764 4767 4770 4773 4776 4779 4782 4785 4788 4791 4794 4797 4800 4803 4806 4809 4812 4815 4818 4821 4824 4827 4830 4833 4836 4839 4842 4845 4848 4851 4854 4857 4860 4863 4866 4869 4872 4875 4878 4881 4884 4887 4890 4893 4896 4899 4902 4905 4908 4911 4914 4917 4920 4923 4926 4929 4932 4935 4938 4941 4944 4947 4950 4953 4956 4959 4962 4965 4968 4971 4974 4977 4980 4983 4986 4989 4992 4995 4998 5001 5004 5007 5010 5013 5016 5019 5022 5025 5028 5031 5034 5037 5040 5043 5046 5049 5052 5055 5058 5061 5064 5067 5070 5073 5076 5079 5082 5085 5088 5091 5094 5097 5100 5103 5106 5109 5112 5115 5118 5121 5124 5127 5130 5133 5136 5139 5142 5145 5148 5151 5154 5157 5160 5163 5166 5169 5172 5175 5178 5181 5184 5187 5190 5193 5196 5199 5202 5205 5208 5211 5214 5217 5220 5223 5226 5229 5232 5235 5238 5241 5244 5247 5250 5253 5256 5259 5262 5265 5268 5271 5274 5277 5280 5283 5286 5289 5292 5295 5298 5301 5304 5307 5310 5313 5316 5319 5322 5325 5328 5331 5334 5337 5340 5343 5346 5349 5352 5355 5358 5361 5364 5367 5370 5373 5376 5379 5382 5385 5388 5391 5394 5397 5400 5403 5406 5409 5412 5415 5418 5421 5424 5427 5430 5433 5436 5439 5442 5445 5448 5451 5454 5457 5460 5463 5466 5469 5472 5475 5478 5481 5484 5487 5490 5493 5496 5499 5502 5505 5508 5511 5514 5517 5520 5523 5526 5529 5532 5535 5538 5541 5544 5547 5550 5553 5556 5559 5562 5565 5568 5571 5574 5577 5580 5583 5586 5589 5592 5595 5598 5601 5604 5607 5610 5613 5616 5619 5622 5625 5628 5631 5634 5637 5640 5643 5646 5649 5652 5655 5658 5661 5664 5667 5670 5673 5676 5679 5682 5685 5688 5691 5694 5697 5700 5703 5706 5709 5712 5715 5718 5721 5724 5727 5730 5733 5736 5739 5742 5745 5748 5751 5754 5757 5760 5763 5766 5769 5772 5775 5778 5781 5784 5787 5790 5793 5796 5799 5802 5805 5808 5811 5814 5817 5820 5823 5826 5829 5832 5835 5838 5841 5844 5847 5850 5853 5856 5859 5862 5865 5868 5871 5874 5877 5880 5883 5886 5889 5892 5895 5898 5901 5904 5907 5910 5913 5916 5919 5922 5925 5928 5931 5934 5937 5940 5943 5946 5949 5952 5955 5958 5961 5964 5967 5970 5973 5976 5979 5982 5985 5988 5991 5994 5997 6000 6003 6006 6009 6012 6015 6018 6021 6024 6027 6030 6033 6036 6039 6042 6045 6048 6051 6054 6057 6060 6063 6066 6069 6072 6075 6078 6081 6084 6087 6090 6093 6096 6099 6102 6105 6108 6111 6114 6117 6120 6123 6126 6129 6132 6135 6138 6141 6144 6147 6150 6153 6156 6159 6162 6165 6168 6171 6174 6177 6180 6183 6186 6189 6192 6195 6198 6201 6204 6207 6210 6213 6216 6219 6222 6225 6228 6231 6234 6237 6240 6243 6246 6249 6252 6255 6258 6261 6264 6267 6270 6273 6276 6279 6282 6285 6288 6291 6294 6297 6300 6303 6306 6309 6312 6315 6318 6321 6324 6327 6330 6333 6336 6339 6342 6345 6348 6351 6354 6357 6360 6363 6366 6369 6372 6375 6378 6381 6384 6387 6390 6393 6396 6399 6402 6405 6408 6411 6414 6417 6420 6423 6426 6429 6432 6435 6438 6441 6444 6447 6450 6453 6456 6459 6462 6465 6468 6471 6474 6477 6480 6483 6486 6489 6492 6495 6498 6501 6504 6507 6510 6513 6516 6519 6522 6525 6528 6531 6534 6537 6540 6543 6546 6549 6552 6555 6558 6561 6564 6567 6570 6573 6576 6579 6582 6585 6588 6591 6594 6597 6600 6603 6606 6609 6612 6615 6618 6621 6624 6627 6630 6633 6636 6639 6642 6645 6648 6651 6654 6657 6660 6663 6666 6669 6672 6675 6678 6681 6684 6687 6690 6693 6696 6699 6702 6705 6708 6711 6714 6717 6720 6723 6726 6729 6732 6735 6738 6741 6744 6747 6750 6753 6756 6759 6762 6765 6768 6771 6774 6777 6780 6783 6786 6789 6792 6795 6798 6801 6804 6807 6810 6813 6816 6819 6822 6825 6828 6831 6834 6837 6840 6843 6846 6849 6852 6855 6858 6861 6864 6867 6870 6873 6876 6879 6882 6885 6888 6891 6894 6897 6900 6903 6906 6909 6912 6915 6918 6921 6924 6927 6930 6933 6936 6939 6942 6945 6948 6951 6954 6957 6960 6963 6966 6969 6972 6975 6978 6981 6984 6987 6990 6993 6996 6999 7002 7005 7008 7011 7014 7017 7020 7023 7026 7029 7032 7035 7038 7041 7044 7047 7050 7053 7056 7059 7062 7065 7068 7071 7074 7077 7080 7083 7086 7089 7092 7095 7098 7101 7104 7107 7110 7113 7116 7119 7122 7125 7128 7131 7134 7137 7140 7143 7146 7149 7152 7155 7158 7161 7164 7167 7170 7173 7176 7179 7182 7185 7188 7191 7194 7197 7200 7203 7206 7209 7212 7215 7218 7221 7224 7227 7230 7233 7236 7239 7242 7245 7248 7251 7254 7257 7260 7263 7266 7269 7272 7275 7278 7281 7284 7287 7290 7293 7296 7299 7302 7305 7308 7311 7314 7317 7320 7323 7326 7329 7332 7335 7338 7341 7344 7347 7350 7353 7356 7359 7362 7365 7368 7371 7374 7377 7380 7383 7386 7389 7392 7395 7398 7401 7404 7407 7410 7413 7416 7419 7422 7425 7428 7431 7434 7437 7440 7443 7446 7449 7452 7455 7458 7461 7464 7467 7470 7473 7476 7479 7482 7485 7488 7491 7494 7497 7500 7503 7506 7509 7512 7515 7518 7521 7524 7527 7530 7533 7536 7539 7542 7545 7548 7551 7554 7557 7560 7563 7566 7569 7572 7575 7578 7581 7584 7587 7590 7593 7596 7599 7602 7605 7608 7611 7614 7617 7620 7623 7626 7629 7632 7635 7638 7641 7644 7647 7650 7653 7656 7659 7662 7665 7668 7671 7674 7677 7680 7683 7686 7689 7692 7695 7698 7701 7704 7707 7710 7713 7716 7719 7722 7725 7728 7731 7734 7737 7740 7743 7746 7749 7752 7755 7758 7761 7764 7767 7770 7773 7776 7779 7782 7785 7788 7791 7794 7797 7800 7803 7806 7809 7812 7815 7818 7821 7824 7827 7830 7833 7836 7839 7842 7845 7848 7851 7854 7857 7860 7863 7866 7869 7872 7875 7878 7881 7884 7887 7890 7893 7896 7899 7902 7905 7908 7911 7914 7917 7920 7923 7926 7929 7932 7935 7938 7941 7944 7947 7950 7953 7956 7959 7962 7965 7968 7971 7974 7977 7980 7983 7986 7989 7992 7995 7998 8001 8004 8007 8010 8013 8016 8019 8022 8025 8028 8031 8034 8037 8040 8043 8046 8049 8052 8055 8058 8061 8064 8067 8070 8073 8076 8079 8082 8085 8088 8091 8094 8097 8100 8103 8106 8109 8112 8115 8118 8121 8124 8127 8130 8133 8136 8139 8142 8145 8148 8151 8154 8157 8160 8163 8166 8169 8172 8175 8178 8181 8184 8187 8190 8193 8196 8199 8202 8205 8208 8211 8214 8217 8220 8223 8226 8229 8232 8235 8238 8241 8244 8247 8250 8253 8256 8259 8262 8265 8268 8271 8274 8277 8280 8283 8286 8289 8292 8295 8298 8301 8304 8307 8310 8313 8316 8319 8322 8325 8328 8331 8334 8337 8340 8343 8346 8349 8352 8355 8358 8361 8364 8367 8370 8373 8376 8379 8382 8385 8388 8391 8394 8397 8400 8403 8406 8409 8412 8415 8418 8421 8424 8427 8430 8433 8436 8439 8442 8445 8448 8451 8454 8457 8460 8463 8466 8469 8472 8475 8478 8481 8484 8487 8490 8493 8496 8499 8502 8505 8508 8511 8514 8517 8520 8523 8526 8529 8532 8535 8538 8541 8544 8547 8550 8553 8556 8559 8562 8565 8568 8571 8574 8577 8580 8583 8586 8589 8592 8595 8598 8601 8604 8607 8610 8613 8616 8619 8622 8625 8628 8631 8634 8637 8640 8643 8646 8649 8652 8655 8658 8661 8664 8667 8670 8673 8676 8679 8682 8685 8688 8691 8694 8697 8700 8703 8706 8709 8712 8715 8718 8721 8724 8727 8730 8733 8736 8739 8742 8745 8748 8751 8754 8757 8760 8763 8766 8769 8772 8775 8778 8781 8784 8787 8790 8793 8796 8799 8802 8805 8808 8811 8814 8817 8820 8823 8826 8829 8832 8835 8838 8841 8844 8847 8850 8853 8856 8859 8862 8865 8868 8871 8874 8877 8880 8883 8886 8889 8892 8895 8898 8901 8904 8907 8910 8913 8916 8919 8922 8925 8928 8931 8934 8937 8940 8943 8946 8949 8952 8955 8958 8961 8964 8967 8970 8973 8976 8979 8982 8985 8988 8991 8994 8997 9000 9003 9006 9009 9012 9015 9018 9021 9024 9027 9030 9033 9036 9039 9042 9045 9048 9051 9054 9057 9060 9063 9066 9069 9072 9075 9078 9081 9084 9087 9090 9093 9096 9099 9102 9105 9108 9111 9114 9117 9120 9123 9126 9129 9132 9135 9138 9141 9144 9147 9150 9153 9156 9159 9162 9165 9168 9171 9174 9177 9180 9183 9186 9189 9192 9195 9198 9201 9204 9207 9210 9213 9216 9219 9222 9225 9228 9231 9234 9237 9240 9243 9246 9249 9252 9255 9258 9261 9264 9267 9270 9273 9276 9279 9282 9285 9288 9291 9294 9297 9300 9303 9306 9309 9312 9315 9318 9321 9324 9327 9330 9333 9336 9339 9342 9345 9348 9351 9354 9357 9360 9363 9366 9369 9372 9375 9378 9381 9384 9387 9390 9393 9396 9399 9402 9405 9408 9411 9414 9417 9420 9423 9426 9429 9432 9435 9438 9441 9444 9447 9450 9453 9456 9459 9462 9465 9468 9471 9474 9477 9480 9483 9486 9489 9492 9495 9498 9501 9504 9507 9510 9513 9516 9519 9522 9525 9528 9531 9534 9537 9540 9543 9546 9549 9552 9555 9558 9561 9564 9567 9570 9573 9576 9579 9582 9585 9588 9591 9594 9597 9600 </DataArray>
<DataArray  type="UInt8"  Name="types"  format="ascii">5 5 5 5 5 5 5 5 5 5 5 5 5 5 5 5 5 5 5 5 5 5 5 5 5 5 5 5 5 5 5 5 5 5 5 5 5 5 5 5 5 5 5 5 5 5 5 5 5 5 5 5 5 5 5 5 5 5 5 5 5 5 5 5 5 5 5 5 5 5 5 5 5 5 5 5 5 5 5 5 5 5 5 5 5 5 5 5 5 5 5 5 5 5 5 5 5 5 5 5 5 5 5 5 5 5 5 5 5 5 5 5 5 5 5 5 5 5 5 5 5 5 5 5 5 5 5 5 5 5 5 5 5 5 5 5 5 5 5 5 5 5 5 5 5 5 5 5 5 5 5 5 5 5 5 5 5 5 5 5 5 5 5 5 5 5 5 5 5 5 5 5 5 5 5 5 5 5 5 5 5 5 5 5 5 5 5 5 5 5 5 5 5 5 5 5 5 5 5 5 5 5 5 5 5 5 5 5 5 5 5 5 5 5 5 5 5 5 5 5 5 5 5 5 5 5 5 5 5 5 5 5 5 5 5 5 5 5 5 5 5 5 5 5 5 5 5 5 5 5 5 5 5 5 5 5 5 5 5 5 5 5 5 5 5 5 5 5 5 5 5 5 5 5 5 5 5 5 5 5 5 5 5 5 5 5 5 5 5 5 5 5 5 5 5 5 5 5 5 5 5 5 5 5 5 5 5 5 5 5 5 5 5 5 5 5 5 5 5 5 5 5 5 5 5 5 5 5 5 5 5 5 5 5 5 5 5 5 5 5 5 5 5 5 5 5 5 5 5 5 5 5 5 5 5 5 5 5 5 5 5 5 5 5 5 5 5 5 5 5 5 5 5 5 5 5 5 5 5 5 5 5 5 5 5 5 5 5 5 5 5 5 5 5 5 5 5 5 5 5 5 5 5 5 5 5 5 5 5 5 5 5 5 5 5 5 5 5 5 5 5 5 5 5 5 5 5 5 5 5 5 5 5 5 5 5 5 5 5 5 5 5 5 5 5 5 5 5 5 5 5 5 5 5 5 5 5 5 5 5 5 5 5 5 5 5 5 5 5 5 5 5 5 5 5 5 5 5 5 5 5 5 5 5 5 5 5 5 5 5 5 5 5 5 5 5 5 5 5 5 5 5 5 5 5 5 5 5 5 5 5 5 5 5 5 5 5 5 5 5 5 5 5 5 5 5 5 5 5 5 5 5 5 5 5 5 5 5 5 5 5 5 5 5 5 5 5 5 5 5 5 5 5 5 5 5 5 5 5 5 5 5 5 5 5 5 5 5 5 5 5 5 5 5 5 5 5 5 5 5 5 5 5 5 5 5 5 5 5 5 5 5 5 5 5 5 5 5 5 5 5 5 5 5 5 5 5 5 5 5 5 5 5 5 5 5 5 5 5 5 5 5 5 5 5 5 5 5 5 5 5 5 5 5 5 5 5 5 5 5 5 5 5 5 5 5 5 5 5 5 5 5 5 5 5 5 5 5 5 5 5 5 5 5 5 5 5 5 5 5 5 5 5 5 5 5 5 5 5 5 5 5 5 5 5 5 5 5 5 5 5 5 5 5 5 5 5 5 5 5 5 5 5 5 5 5 5 5 5 5 5 5 5 5 5 5 5 5 5 5 5 5 5 5 5 5 5 5 5 5 5 5 5 5 5 5 5 5 5 5 5 5 5 5 5 5 5 5 5 5 5 5 5 5 5 5 5 5 5 5 5 5 5 5 5 5 5 5 5 5 5 5 5 5 5 5 5 5 5 5 5 5 5 5 5 5 5 5 5 5 5 5 5 5 5 5 5 5 5 5 5 5 5 5 5 5 5 5 5 5 5 5 5 5 5 5 5 5 5 5 5 5 5 5 5 5 5 5 5 5 5 5 5 5 5 5 5 5 5 5 5 5 5 5 5 5 5 5 5 5 5 5 5 5 5 5 5 5 5 5 5 5 5 5 5 5 5 5 5 5 5 5 5 5 5 5 5 5 5 5 5 5 5 5 5 5 5 5 5 5 5 5 5 5 5 5 5 5 5 5 5 5 5 5 5 5 5 5 5 5 5 5 5 5 5 5 5 5 5 5 5 5 5 5 5 5 5 5 5 5 5 5 5 5 5 5 5 5 5 5 5 5 5 5 5 5 5 5 5 5 5 5 5 5 5 5 5 5 5 5 5 5 5 5 5 5 5 5 5 5 5 5 5 5 5 5 5 5 5 5 5 5 5 5 5 5 5 5 5 5 5 5 5 5 5 5 5 5 5 5 5 5 5 5 5 5 5 5 5 5 5 5 5 5 5 5 5 5 5 5 5 5 5 5 5 5 5 5 5 5 5 5 5 5 5 5 5 5 5 5 5 5 5 5 5 5 5 5 5 5 5 5 5 5 5 5 5 5 5 5 5 5 5 5 5 5 5 5 5 5 5 5 5 5 5 5 5 5 5 5 5 5 5 5 5 5 5 5 5 5 5 5 5 5 5 5 5 5 5 5 5 5 5 5 5 5 5 5 5 5 5 5 5 5 5 5 5 5 5 5 5 5 5 5 5 5 5 5 5 5 5 5 5 5 5 5 5 5 5 5 5 5 5 5 5 5 5 5 5 5 5 5 5 5 5 5 5 5 5 5 5 5 5 5 5 5 5 5 5 5 5 5 5 5 5 5 5 5 5 5 5 5 5 5 5 5 5 5 5 5 5 5 5 5 5 5 5 5 5 5 5 5 5 5 5 5 5 5 5 5 5 5 5 5 5 5 5 5 5 5 5 5 5 5 5 5 5 5 5 5 5 5 5 5 5 5 5 5 5 5 5 5 5 5 5 5 5 5 5 5 5 5 5 5 5 5 5 5 5 5 5 5 5 5 5 5 5 5 5 5 5 5 5 5 5 5 5 5 5 5 5 5 5 5 5 5 5 5 5 5 5 5 5 5 5 5 5 5 5 5 5 5 5 5 5 5 5 5 5 5 5 5 5 5 5 5 5 5 5 5 5 5 5 5 5 5 5 5 5 5 5 5 5 5 5 5 5 5 5 5 5 5 5 5 5 5 5 5 5 5 5 5 5 5 5 5 5 5 5 5 5 5 5 5 5 5 5 5 5 5 5 5 5 5 5 5 5 5 5 5 5 5 5 5 5 5 5 5 5 5 5 5 5 5 5 5 5 5 5 5 5 5 5 5 5 5 5 5 5 5 5 5 5 5 5 5 5 5 5 5 5 5 5 5 5 5 5 5 5 5 5 5 5 5 5 5 5 5 5 5 5 5 5 5 5 5 5 5 5 5 5 5 5 5 5 5 5 5 5 5 5 5 5 5 5 5 5 5 5 5 5 5 5 5 5 5 5 5 5 5 5 5 5 5 5 5 5 5 5 5 5 5 5 5 5 5 5 5 5 5 5 5 5 5 5 5 5 5 5 5 5 5 5 5 5 5 5 5 5 5 5 5 5 5 5 5 5 5 5 5 5 5 5 5 5 5 5 5 5 5 5 5 5 5 5 5 5 5 5 5 5 5 5 5 5 5 5 5 5 5 5 5 5 5 5 5 5 5 5 5 5 5 5 5 5 5 5 5 5 5 5 5 5 5 5 5 5 5 5 5 5 5 5 5 5 5 5 5 5 5 5 5 5 5 5 5 5 5 5 5 5 5 5 5 5 5 5 5 5 5 5 5 5 5 5 5 5 5 5 5 5 5 5 5 5 5 5 5 5 5 5 5 5 5 5 5 5 5 5 5 5 5 5 5 5 5 5 5 5 5 5 5 5 5 5 5 5 5 5 5 5 5 5 5 5 5 5 5 5 5 5 5 5 5 5 5 5 5 5 5 5 5 5 5 5 5 5 5 5 5 5 5 5 5 5 5 5 5 5 5 5 5 5 5 5 5 5 5 5 5 5 5 5 5 5 5 5 5 5 5 5 5 5 5 5 5 5 5 5 5 5 5 5 5 5 5 5 5 5 5 5 5 5 5 5 5 5 5 5 5 5 5 5 5 5 5 5 5 5 5 5 5 5 5 5 5 5 5 5 5 5 5 5 5 5 5 5 5 5 5 5 5 5 5 5 5 5 5 5 5 5 5 5 5 5 5 5 5 5 5 5 5 5 5 5 5 5 5 5 5 5 5 5 5 5 5 5 5 5 5 5 5 5 5 5 5 5 5 5 5 5 5 5 5 5 5 5 5 5 5 5 5 5 5 5 5 5 5 5 5 5 5 5 5 5 5 5 5 5 5 5 5 5 5 5 5 5 5 5 5 5 5 5 5 5 5 5 5 5 5 5 5 5 5 5 5 5 5 5 5 5 5 5 5 5 5 5 5 5 5 5 5 5 5 5 5 5 5 5 5 5 5 5 5 5 5 5 5 5 5 5 5 5 5 5 5 5 5 5 5 5 5 5 5 5 5 5 5 5 5 5 5 5 5 5 5 5 5 5 5 5 5 5 5 5 5 5 5 5 5 5 5 5 5 5 5 5 5 5 5 5 5 5 5 5 5 5 5 5 5 5 5 5 5 5 5 5 5 5 5 5 5 5 5 5 5 5 5 5 5 5 5 5 5 5 5 5 5 5 5 5 5 5 5 5 5 5 5 5 5 5 5 5 5 5 5 5 5 5 5 5 5 5 5 5 5 5 5 5 5 5 5 5 5 5 5 5 5 5 5 5 5 5 5 5 5 5 5 5 5 5 5 5 5 5 5 5 5 5 5 5 5 5 5 5 5 5 5 5 5 5 5 5 5 5 5 5 5 5 5 5 5 5 5 5 5 5 5 5 5 5 5 5 5 5 5 5 5 5 5 5 5 5 5 5 5 5 5 5 5 5 5 5 5 5 5 5 5 5 5 5 5 5 5 5 5 5 5 5 5 5 5 5 5 5 5 5 5 5 5 5 5 5 5 5 5 5 5 5 5 5 5 5 5 5 5 5 5 5 5 5 5 5 5 5 5 5 5 5 5 5 5 5 5 5 5 5 5 5 5 5 5 5 5 5 5 5 5 5 5 5 5 5 5 5 5 5 5 5 5 5 5 5 5 5 5 5 5 5 5 5 5 5 5 5 5 5 5 5 5 5 5 5 5 5 5 5 5 5 5 5 5 5 5 5 5 5 5 5 5 5 5 5 5 5 5 5 5 5 5 5 5 5 5 5 5 5 5 5 5 5 5 5 5 5 5 5 5 5 5 5 5 5 5 5 5 5 5 5 5 5 5 5 5 5 5 5 5 5 5 5 5 5 5 5 5 5 5 5 5 5 5 5 5 5 5 5 5 5 5 5 5 5 5 5 5 5 5 5 5 5 5 5 5 5 5 5 5 5 5 5 5 5 5 5 5 5 5 5 5 5 5 5 5 5 5 5 5 5 5 5 5 5 5 5 5 5 5 5 5 5 5 5 5 5 5 5 5 5 5 5 5 5 5 5 5 5 5 5 5 5 5 5 5 5 5 5 5 5 5 5 5 5 5 5 5 5 5 5 5 5 5 5 5 5 5 5 5 5 5 5 5 5 5 5 5 5 5 5 5 5 5 5 5 5 5 5 5 5 5 5 5 5 5 5 5 5 5 5 5 5 5 5 5 5 5 5 5 5 5 5 5 5 5 5 5 5 5 5 5 5 5 5 5 5 5 5 5 5 5 5 5 5 5 5 5 5 5 5 5 5 5 5 5 5 5 5 5 5 5 5 5 5 5 5 5 5 5 5 5 5 5 5 5 5 5 5 5 5 5 5 5 5 5 5 5 5 5 5 5 5 5 5 5 5 5 5 5 5 5 5 5 5 5 5 5 5 5 5 5 5 5 5 5 5 5 5 5 5 5 5 5 5 5 5 5 5 5 5 5 5 5 5 5 5 5 5 5 5 5 5 5 5 5 5 5 5 5 5 5 5 5 5 5 5 5 5 5 5 5 5 5 5 5 5 5 5 5 5 5 5 5 5 5 5 5 5 5 5 5 5 5 5 5 5 5 5 5 5 5 5 5 5 5 5 5 5 5 5 5 5 5 5 5 5 5 5 5 5 5 5 5 5 5 5 5 5 5 5 5 5 5 5 5 5 5 5 5 5 5 5 5 5 5 5 5 5 5 5 5 5 5 5 5 5 5 5 5 5 5 5 5 5 5 5 5 5 5 5 5 5 5 5 5 5 5 5 5 5 5 5 5 5 5 5 5 5 5 5 5 5 5 5 5 5 5 5 5 5 5 5 5 5 5 5 5 5 5 5 5 5 5 5 5 5 5 5 5 5 5 5 5 5 5 5 5 5 5 5 5 5 5 5 5 5 5 5 5 5 5 5 5 5 5 5 5 5 5 5 5 5 5 5 5 5 5 5 5 5 5 5 5 5 5 5 5 5 5 5 5 5 5 5 5 5 5 5 5 5 5 5 5 5 5 5 5 5 5 5 5 5 5 5 5 5 5 5 5 5 5 5 5 5 5 5 5 5 5 5 5 5 5 5 5 5 5 5 5 5 5 5 5 5 5 5 5 5 5 5 5 5 5 5 5 5 5 5 5 5 5 5 5 5 5 5 5 5 5 5 5 5 5 5 5 5 5 5 5 5 5 5 5 5 5 5 5 5 5 5 5 5 5 5 5 5 5 5 5 5 5 5 5 5 5 5 5 5 5 5 5 5 5 5 5 5 5 5 5 5 5 5 5 5 5 5 5 5 5 5 5 5 5 5 5 5 5 5 5 5 5 5 5 5 5 5 5 5 5 5 5 5 5 5 5 5 5 5 5 5 5 5 5 5 5 5 5 5 5 5 5 5 5 5 5 5 5 5 5 5 5 5 5 5 5 5 5 5 5 5 5 5 5 5 5 5 5 5 5 5 5 5 5 5 5 5 5 5 5 5 5 5 5 5 5 5 5 5 5 5 5 5 5 5 5 5 5 5 5 5 5 5 5 5 5 5 5 5 5 5 5 5 5 5 5 5 5 5 5 5 5 5 5 5 5 5 5 5 5 5 5 5 5 5 5 5 5 5 5 5 5 5 5 5 5 5 5 5 5 5 5 5 5 5 5 5 5 5 5 5 5 5 5 5 5 5 5 5 5 5 5 5 5 5 5 5 5 5 5 5 5 5 5 5 5 5 5 5 5 5 5 5 5 5 5 5 5 5 5 5 5 5 5 5 5 5 5 5 5 5 5 5 5 5 5 5 5 5 5 5 5 5 5 5 5 5 5 5 5 5 5 5 5 5 5 5 5 5 5 5 5 5 5 5 5 5 5 5 5 5 5 </DataArray>
</Cells>
<PointData  Scalars=" mean stress"> 
<DataArray  type="Float64"  Name=" mean stress"  format="ascii">5.9561693480167827e+06  5.9561693399564000e+06  5.9561693390273638e+06  5.9561693389249584e+06  5.9561693389381142e+06  5.9561693389361734e+06  5.9561693389364583e+06  5.9561693389364062e+06  5.9561693389363894e+06  5.9561693389363699e+06  5.9561693389363606e+06  5.9561693389363522e+06  5.9561693389363419e+06  5.9561693389363280e+06  5.9561693389363503e+06  5.9561693389360551e+06  5.9561693389380071e+06  5.9561693389248215e+06  5.9561693390272465e+06  5.9561693399562780e+06  5.9561693480166383e+06  5.9597373418539157e+06  5.9597372988050282e+06  5.9597372966094064e+06  5.9597372966674045e+06  5.9597372966570631e+06  5.9597372966586677e+06  5.9597372966584209e+06  5.9597372966584358e+06  5.9597372966584489e+06  5.9597372966584191e+06  5.9597372966584079e+06  5.9597372966584200e+06  5.9597372966584116e+06  5.9597372966584237e+06  5.9597372966583697e+06  5.9597372966586147e+06  5.9597372966569969e+06  5.9597372966673346e+06  5.9597372966093356e+06  5.9597372988049481e+06  5.9597373418538524e+06  5.9705606485736808e+06  5.9705604487046441e+06  5.9705604465489956e+06  5.9705604465202736e+06  5.9705604465252291e+06  5.9705604465242680e+06  5.9705604465244263e+06  5.9705604465244189e+06  5.9705604465244208e+06  5.9705604465244189e+06  5.9705604465244086e+06  5.9705604465244068e+06  5.9705604465244012e+06  5.9705604465243965e+06  5.9705604465244375e+06  5.9705604465242568e+06  5.9705604465252189e+06  5.9705604465202847e+06  5.9705604465489825e+06  5.9705604487046320e+06  5.9705606485736631e+06  5.9889998755696723e+06  5.9889993971510977e+06  5.9889993943544459e+06  5.9889993943495061e+06  5.9889993943479070e+06  5.9889993943483140e+06  5.9889993943482190e+06  5.9889993943482470e+06  5.9889993943482284e+06  5.9889993943482190e+06  5.9889993943482284e+06  5.9889993943482284e+06  5.9889993943482237e+06  5.9889993943482526e+06  5.9889993943482079e+06  5.9889993943483233e+06  5.9889993943479303e+06  5.9889993943495145e+06  5.9889993943544962e+06  5.9889993971511340e+06  5.9889998755696798e+06  6.0156653249664046e+06  6.0156644082147274e+06  6.0156644045467805e+06  6.0156644045339013e+06  6.0156644045342198e+06  6.0156644045341266e+06  6.0156644045341341e+06  6.0156644045341378e+06  6.0156644045341248e+06  6.0156644045341630e+06  6.0156644045341434e+06  6.0156644045341322e+06  6.0156644045341453e+06  6.0156644045341164e+06  6.0156644045341490e+06  6.0156644045341527e+06  6.0156644045342496e+06  6.0156644045339292e+06  6.0156644045468252e+06  6.0156644082147963e+06  6.0156653249664977e+06  6.0514308592299838e+06  6.0514292918013781e+06  6.0514292868626965e+06  6.0514292868475076e+06  6.0514292868474238e+06  6.0514292868474135e+06  6.0514292868474759e+06  6.0514292868474359e+06  6.0514292868474796e+06  6.0514292868474601e+06  6.0514292868474862e+06  6.0514292868475243e+06  6.0514292868474759e+06  6.0514292868475020e+06  6.0514292868475271e+06  6.0514292868474843e+06  6.0514292868475094e+06  6.0514292868475746e+06  6.0514292868627738e+06  6.0514292918014312e+06  6.0514308592300210e+06  6.0974533486327650e+06  6.0974508414268913e+06  6.0974508347274587e+06  6.0974508347079298e+06  6.0974508347079670e+06  6.0974508347079214e+06  6.0974508347079782e+06  6.0974508347079325e+06  6.0974508347079242e+06  6.0974508347079307e+06  6.0974508347079474e+06  6.0974508347079614e+06  6.0974508347079698e+06  6.0974508347079698e+06  6.0974508347080210e+06  6.0974508347080247e+06  6.0974508347080396e+06  6.0974508347080471e+06  6.0974508347275760e+06  6.0974508414269900e+06  6.0974533486328861e+06  6.1551976338329306e+06  6.1551937911681058e+06  6.1551937820825148e+06  6.1551937820581235e+06  6.1551937820580592e+06  6.1551937820581244e+06  6.1551937820580946e+06  6.1551937820581393e+06  6.1551937820580387e+06  6.1551937820581365e+06  6.1551937820580965e+06  6.1551937820580835e+06  6.1551937820581011e+06  6.1551937820581514e+06  6.1551937820581561e+06  6.1551937820581421e+06  6.1551937820581207e+06  6.1551937820581617e+06  6.1551937820825772e+06  6.1551937911682110e+06  6.1551976338330265e+06  6.2264669239134472e+06  6.2264612052262491e+06  6.2264611929716133e+06  6.2264611929416377e+06  6.2264611929415762e+06  6.2264611929416386e+06  6.2264611929415446e+06  6.2264611929416163e+06  6.2264611929416787e+06  6.2264611929415790e+06  6.2264611929416433e+06  6.2264611929416340e+06  6.2264611929416582e+06  6.2264611929416303e+06  6.2264611929416126e+06  6.2264611929416917e+06  6.2264611929417057e+06  6.2264611929417383e+06  6.2264611929716952e+06  6.2264612052263888e+06  6.2264669239135562e+06  6.3134384556125859e+06  6.3134301271630730e+06  6.3134301107790107e+06  6.3134301107432721e+06  6.3134301107432768e+06  6.3134301107432628e+06  6.3134301107433178e+06  6.3134301107432712e+06  6.3134301107433084e+06  6.3134301107432386e+06  6.3134301107432982e+06  6.3134301107432470e+06  6.3134301107432861e+06  6.3134301107432665e+06  6.3134301107432954e+06  6.3134301107433224e+06  6.3134301107432982e+06  6.3134301107433112e+06  6.3134301107790954e+06  6.3134301271631075e+06  6.3134384556126986e+06  6.4187041099970927e+06  6.4186921850473704e+06  6.4186921633893028e+06  6.4186921633480685e+06  6.4186921633481300e+06  6.4186921633481262e+06  6.4186921633481598e+06  6.4186921633481495e+06  6.4186921633481057e+06  6.4186921633482073e+06  6.4186921633480759e+06  6.4186921633481719e+06  6.4186921633481458e+06  6.4186921633481663e+06  6.4186921633481225e+06  6.4186921633481011e+06  6.4186921633481691e+06  6.4186921633481150e+06  6.4186921633893587e+06  6.4186921850474849e+06  6.4187041099971849e+06  6.5453154981015921e+06  6.5452986646530051e+06  6.5452986364042601e+06  6.5452986363588795e+06  6.5452986363590397e+06  6.5452986363589540e+06  6.5452986363589363e+06  6.5452986363589270e+06  6.5452986363589866e+06  6.5452986363590257e+06  6.5452986363589447e+06  6.5452986363590574e+06  6.5452986363590090e+06  6.5452986363590211e+06  6.5452986363589996e+06  6.5452986363589894e+06  6.5452986363590695e+06  6.5452986363589382e+06  6.5452986364043187e+06  6.5452986646530842e+06  6.5453154981016731e+06  6.6968327786953934e+06  6.6968093148761215e+06  6.6968092785910098e+06  6.6968092785441978e+06  6.6968092785443198e+06  6.6968092785443403e+06  6.6968092785444120e+06  6.6968092785443338e+06  6.6968092785442546e+06  6.6968092785442909e+06  6.6968092785443980e+06  6.6968092785443198e+06  6.6968092785442853e+06  6.6968092785443207e+06  6.6968092785443915e+06  6.6968092785443738e+06  6.6968092785443012e+06  6.6968092785442267e+06  6.6968092785911700e+06  6.6968093148762481e+06  6.6968327786955172e+06  6.8773761484366572e+06  6.8773438272068435e+06  6.8773437813930353e+06  6.8773437813486094e+06  6.8773437813488115e+06  6.8773437813488804e+06  6.8773437813487686e+06  6.8773437813488599e+06  6.8773437813488124e+06  6.8773437813487202e+06  6.8773437813487537e+06  6.8773437813487183e+06  6.8773437813488711e+06  6.8773437813488012e+06  6.8773437813488627e+06  6.8773437813488850e+06  6.8773437813489446e+06  6.8773437813487509e+06  6.8773437813931145e+06  6.8773438272069097e+06  6.8773761484367549e+06  7.0916785373919811e+06  7.0916345243881764e+06  7.0916344676353289e+06  7.0916344675990306e+06  7.0916344675991433e+06  7.0916344675991414e+06  7.0916344675991768e+06  7.0916344675990492e+06  7.0916344675991796e+06  7.0916344675991489e+06  7.0916344675991293e+06  7.0916344675991591e+06  7.0916344675991656e+06  7.0916344675991796e+06  7.0916344675992392e+06  7.0916344675993035e+06  7.0916344675992345e+06  7.0916344675990781e+06  7.0916344676354872e+06  7.0916345243883226e+06  7.0916785373921217e+06  7.3451375428849971e+06  7.3450782938760817e+06  7.3450782250332227e+06  7.3450782250117594e+06  7.3450782250119494e+06  7.3450782250119774e+06  7.3450782250118898e+06  7.3450782250119876e+06  7.3450782250119857e+06  7.3450782250120016e+06  7.3450782250120156e+06  7.3450782250120025e+06  7.3450782250119476e+06  7.3450782250120230e+06  7.3450782250119280e+06  7.3450782250119438e+06  7.3450782250119895e+06  7.3450782250118256e+06  7.3450782250334313e+06  7.3450782938761869e+06  7.3451375428851992e+06  7.6438640365359746e+06  7.6437852038584976e+06  7.6437851222521393e+06  7.6437851222530296e+06  7.6437851222533416e+06  7.6437851222533071e+06  7.6437851222532289e+06  7.6437851222532857e+06  7.6437851222533444e+06  7.6437851222533165e+06  7.6437851222533267e+06  7.6437851222533071e+06  7.6437851222533807e+06  7.6437851222534003e+06  7.6437851222533984e+06  7.6437851222533220e+06  7.6437851222535027e+06  7.6437851222531479e+06  7.6437851222521057e+06  7.6437852038586484e+06  7.6438640365362028e+06  7.9947241827274794e+06  7.9946205427791998e+06  7.9946204484543679e+06  7.9946204484851444e+06  7.9946204484852673e+06  7.9946204484852934e+06  7.9946204484853838e+06  7.9946204484853353e+06  7.9946204484853279e+06  7.9946204484854024e+06  7.9946204484853502e+06  7.9946204484853307e+06  7.9946204484853214e+06  7.9946204484852832e+06  7.9946204484854061e+06  7.9946204484854043e+06  7.9946204484853614e+06  7.9946204484852869e+06  7.9946204484543456e+06  7.9946205427793534e+06  7.9947241827274337e+06  8.4053708185236622e+06  8.4052362343603466e+06  8.4052361283147708e+06  8.4052361283814013e+06  8.4052361283815261e+06  8.4052361283815596e+06  8.4052361283815168e+06  8.4052361283816174e+06  8.4052361283816099e+06  8.4052361283816341e+06  8.4052361283815205e+06  8.4052361283816639e+06  8.4052361283816509e+06  8.4052361283816472e+06  8.4052361283815913e+06  8.4052361283817627e+06  8.4052361283817124e+06  8.4052361283815615e+06  8.4052361283149403e+06  8.4052362343604639e+06  8.4053708185237702e+06  8.8842592828237116e+06  8.8840867165447623e+06  8.8840866009207666e+06  8.8840866010271572e+06  8.8840866010271721e+06  8.8840866010272522e+06  8.8840866010272335e+06  8.8840866010272484e+06  8.8840866010272652e+06  8.8840866010271218e+06  8.8840866010272410e+06  8.8840866010272689e+06  8.8840866010272093e+06  8.8840866010272335e+06  8.8840866010272857e+06  8.8840866010271981e+06  8.8840866010272279e+06  8.8840866010272168e+06  8.8840866009210236e+06  8.8840867165449187e+06  8.8842592828240003e+06  9.4406418782659750e+06  9.4404234667615201e+06  9.4404233449604232e+06  9.4404233451065682e+06  9.4404233451064210e+06  9.4404233451064005e+06  9.4404233451065198e+06  9.4404233451064248e+06  9.4404233451065402e+06  9.4404233451065309e+06  9.4404233451066297e+06  9.4404233451065123e+06  9.4404233451065402e+06  9.4404233451066278e+06  9.4404233451066092e+06  9.4404233451065812e+06  9.4404233451066669e+06  9.4404233451067060e+06  9.4404233449607156e+06  9.4404234667615816e+06  9.4406418782661110e+06  1.0084534254335649e+07  1.0084261458972825e+07  1.0084261335663110e+07  1.0084261335845510e+07  1.0084261335845493e+07  1.0084261335845299e+07  1.0084261335845521e+07  1.0084261335845498e+07  1.0084261335845366e+07  1.0084261335845623e+07  1.0084261335845456e+07  1.0084261335845711e+07  1.0084261335845407e+07  1.0084261335845636e+07  1.0084261335845534e+07  1.0084261335845612e+07  1.0084261335845597e+07  1.0084261335845802e+07  1.0084261335663427e+07  1.0084261458973056e+07  1.0084534254336037e+07  1.0826646189931480e+07  1.0826310026136212e+07  1.0826309907145258e+07  1.0826309907357175e+07  1.0826309907357067e+07  1.0826309907357128e+07  1.0826309907357052e+07  1.0826309907357087e+07  1.0826309907357145e+07  1.0826309907357084e+07  1.0826309907357110e+07  1.0826309907357005e+07  1.0826309907357160e+07  1.0826309907357164e+07  1.0826309907357236e+07  1.0826309907357130e+07  1.0826309907357045e+07  1.0826309907357495e+07  1.0826309907145370e+07  1.0826310026136486e+07  1.0826646189931618e+07  1.1678268633944007e+07  1.1677859980984906e+07  1.1677859873079527e+07  1.1677859873311624e+07  1.1677859873310981e+07  1.1677859873311121e+07  1.1677859873311115e+07  1.1677859873311065e+07  1.1677859873310981e+07  1.1677859873310992e+07  1.1677859873311285e+07  1.1677859873311276e+07  1.1677859873311413e+07  1.1677859873311298e+07  1.1677859873311216e+07  1.1677859873311268e+07  1.1677859873311246e+07  1.1677859873311708e+07  1.1677859873079930e+07  1.1677859980985414e+07  1.1678268633944584e+07  1.2651108573925667e+07  1.2650618559248749e+07  1.2650618469825234e+07  1.2650618470065271e+07  1.2650618470064808e+07  1.2650618470064947e+07  1.2650618470065018e+07  1.2650618470064828e+07  1.2650618470064957e+07  1.2650618470065044e+07  1.2650618470065013e+07  1.2650618470065117e+07  1.2650618470065100e+07  1.2650618470065031e+07  1.2650618470065031e+07  1.2650618470065117e+07  1.2650618470065132e+07  1.2650618470065566e+07  1.2650618469825707e+07  1.2650618559248872e+07  1.2651108573926043e+07  1.3757063524970183e+07  1.3756483971793408e+07  1.3756483908505207e+07  1.3756483908740250e+07  1.3756483908739880e+07  1.3756483908739759e+07  1.3756483908739693e+07  1.3756483908739747e+07  1.3756483908740025e+07  1.3756483908739766e+07  1.3756483908739956e+07  1.3756483908739934e+07  1.3756483908739937e+07  1.3756483908739964e+07  1.3756483908740222e+07  1.3756483908739984e+07  1.3756483908740208e+07  1.3756483908740398e+07  1.3756483908505432e+07  1.3756483971793901e+07  1.3757063524970466e+07  1.5007928381833840e+07  1.5007252303695321e+07  1.5007252274039701e+07  1.5007252274256354e+07  1.5007252274256011e+07  1.5007252274255887e+07  1.5007252274256054e+07  1.5007252274256071e+07  1.5007252274255961e+07  1.5007252274256133e+07  1.5007252274256021e+07  1.5007252274256172e+07  1.5007252274256129e+07  1.5007252274256328e+07  1.5007252274256134e+07  1.5007252274256349e+07  1.5007252274256263e+07  1.5007252274256816e+07  1.5007252274040045e+07  1.5007252303695729e+07  1.5007928381833918e+07  1.6415029309447635e+07  1.6414251430927305e+07  1.6414251441812195e+07  1.6414251441996505e+07  1.6414251441996109e+07  1.6414251441996129e+07  1.6414251441996085e+07  1.6414251441996131e+07  1.6414251441995904e+07  1.6414251441996075e+07  1.6414251441996077e+07  1.6414251441996088e+07  1.6414251441996140e+07  1.6414251441996269e+07  1.6414251441996461e+07  1.6414251441996502e+07  1.6414251441996444e+07  1.6414251441996749e+07  1.6414251441812543e+07  1.6414251430927517e+07  1.6415029309448108e+07  1.7988782533272889e+07  1.7987899811867580e+07  1.7987899869161896e+07  1.7987899869299021e+07  1.7987899869298398e+07  1.7987899869298860e+07  1.7987899869298436e+07  1.7987899869298615e+07  1.7987899869298607e+07  1.7987899869298413e+07  1.7987899869298622e+07  1.7987899869298525e+07  1.7987899869298805e+07  1.7987899869298607e+07  1.7987899869298723e+07  1.7987899869298514e+07  1.7987899869298682e+07  1.7987899869299315e+07  1.7987899869162284e+07  1.7987899811867956e+07  1.7988782533273030e+07  1.9738180599257037e+07  1.9737192718987077e+07  1.9737192827050086e+07  1.9737192827125072e+07  1.9737192827124197e+07  1.9737192827124208e+07  1.9737192827124421e+07  1.9737192827124260e+07  1.9737192827124353e+07  1.9737192827124529e+07  1.9737192827124316e+07  1.9737192827124517e+07  1.9737192827124316e+07  1.9737192827124637e+07  1.9737192827124402e+07  1.9737192827124849e+07  1.9737192827124689e+07  1.9737192827125315e+07  1.9737192827050127e+07  1.9737192718987197e+07  1.9738180599257268e+07  2.1670215122854076e+07  2.1669124925470870e+07  2.1669125086666081e+07  2.1669125086663119e+07  2.1669125086662821e+07  2.1669125086662520e+07  2.1669125086662732e+07  2.1669125086662635e+07  2.1669125086662654e+07  2.1669125086662896e+07  2.1669125086662736e+07  2.1669125086662989e+07  2.1669125086662851e+07  2.1669125086663146e+07  2.1669125086662993e+07  2.1669125086662963e+07  2.1669125086663194e+07  2.1669125086663578e+07  2.1669125086666651e+07  2.1669124925471265e+07  2.1670215122854676e+07  2.3789253342742946e+07  2.3788067157757878e+07  2.3788067371953487e+07  2.3788067371857397e+07  2.3788067371856805e+07  2.3788067371856753e+07  2.3788067371856872e+07  2.3788067371856809e+07  2.3788067371856883e+07  2.3788067371856783e+07  2.3788067371857010e+07  2.3788067371856958e+07  2.3788067371857211e+07  2.3788067371857032e+07  2.3788067371857140e+07  2.3788067371857136e+07  2.3788067371857278e+07  2.3788067371857613e+07  2.3788067371953838e+07  2.3788067157758225e+07  2.3789253342743501e+07  2.6096395833951958e+07  2.6095123664976064e+07  2.6095123929067429e+07  2.6095123928864550e+07  2.6095123928865321e+07  2.6095123928864919e+07  2.6095123928864874e+07  2.6095123928864859e+07  2.6095123928864956e+07  2.6095123928864930e+07  2.6095123928864952e+07  2.6095123928864982e+07  2.6095123928864915e+07  2.6095123928864993e+07  2.6095123928865276e+07  2.6095123928865224e+07  2.6095123928865559e+07  2.6095123928865224e+07  2.6095123929068189e+07  2.6095123664976299e+07  2.6096395833952077e+07  2.8588854079274170e+07  2.8587509602976475e+07  2.8587509910472307e+07  2.8587509910162050e+07  2.8587509910158820e+07  2.8587509910160471e+07  2.8587509910159539e+07  2.8587509910160113e+07  2.8587509910159912e+07  2.8587509910159677e+07  2.8587509910159953e+07  2.8587509910159979e+07  2.8587509910160158e+07  2.8587509910160288e+07  2.8587509910159871e+07  2.8587509910160515e+07  2.8587509910159245e+07  2.8587509910162441e+07  2.8587509910472192e+07  2.8587509602977306e+07  2.8588854079274338e+07  3.1259398320841469e+07  3.1257998658000212e+07  3.1257998998868659e+07  3.1257998998410776e+07  3.1257998998426571e+07  3.1257998998420708e+07  3.1257998998422861e+07  3.1257998998421948e+07  3.1257998998422451e+07  3.1257998998422302e+07  3.1257998998422354e+07  3.1257998998422351e+07  3.1257998998422239e+07  3.1257998998422146e+07  3.1257998998422287e+07  3.1257998998421188e+07  3.1257998998426951e+07  3.1257998998411208e+07  3.1257998998869184e+07  3.1257998658000432e+07  3.1259398320842203e+07  3.4095936630741939e+07  3.4094501860094748e+07  3.4094502220287047e+07  3.4094502219932593e+07  3.4094502219858900e+07  3.4094502219881065e+07  3.4094502219877444e+07  3.4094502219877616e+07  3.4094502219877720e+07  3.4094502219877794e+07  3.4094502219878040e+07  3.4094502219878159e+07  3.4094502219878100e+07  3.4094502219877988e+07  3.4094502219877899e+07  3.4094502219881497e+07  3.4094502219859667e+07  3.4094502219932929e+07  3.4094502220287710e+07  3.4094501860094734e+07  3.4095936630742058e+07  3.7081293068551689e+07  3.7079845466633290e+07  3.7079845831775382e+07  3.7079845830250315e+07  3.7079845830572315e+07  3.7079845830513023e+07  3.7079845830514714e+07  3.7079845830516748e+07  3.7079845830516167e+07  3.7079845830516577e+07  3.7079845830516398e+07  3.7079845830516085e+07  3.7079845830515757e+07  3.7079845830516748e+07  3.7079845830514841e+07  3.7079845830513209e+07  3.7079845830572419e+07  3.7079845830250457e+07  3.7079845831775218e+07  3.7079845466633670e+07  3.7081293068551831e+07  4.0193252862891257e+07  4.0191815924137339e+07  4.0191816260763519e+07  4.0191816264893435e+07  4.0191816263932981e+07  4.0191816263912581e+07  4.0191816263944820e+07  4.0191816263936244e+07  4.0191816263937935e+07  4.0191816263938144e+07  4.0191816263937414e+07  4.0191816263937898e+07  4.0191816263938129e+07  4.0191816263935916e+07  4.0191816263945378e+07  4.0191816263913639e+07  4.0191816263933092e+07  4.0191816264893837e+07  4.0191816260763988e+07  4.0191815924137898e+07  4.0193252862891793e+07  4.3404932105410188e+07  4.3403529162752546e+07  4.3403529542594127e+07  4.3403529522532530e+07  4.3403529521030940e+07  4.3403529521646887e+07  4.3403529521514222e+07  4.3403529521538906e+07  4.3403529521535054e+07  4.3403529521535054e+07  4.3403529521535262e+07  4.3403529521535166e+07  4.3403529521535233e+07  4.3403529521538898e+07  4.3403529521514274e+07  4.3403529521646187e+07  4.3403529521030590e+07  4.3403529522532441e+07  4.3403529542593926e+07  4.3403529162752517e+07  4.3404932105409987e+07  4.6685503520631641e+07  4.6684157571096018e+07  4.6684157301543824e+07  4.6684157238551743e+07  4.6684157249675207e+07  4.6684157247941397e+07  4.6684157248210624e+07  4.6684157248168580e+07  4.6684157248175301e+07  4.6684157248173729e+07  4.6684157248174705e+07  4.6684157248174347e+07  4.6684157248175107e+07  4.6684157248168595e+07  4.6684157248211160e+07  4.6684157247941218e+07  4.6684157249675199e+07  4.6684157238551795e+07  4.6684157301543601e+07  4.6684157571096070e+07  4.6685503520631775e+07  4.9201753794217408e+07  4.9200459652314581e+07  4.9200457291895002e+07  4.9200457452309862e+07  4.9200457434470780e+07  4.9200457436830416e+07  4.9200457436493538e+07  4.9200457436543524e+07  4.9200457436536074e+07  4.9200457436538510e+07  4.9200457436537154e+07  4.9200457436537094e+07  4.9200457436537258e+07  4.9200457436544366e+07  4.9200457436494999e+07  4.9200457436831065e+07  4.9200457434470728e+07  4.9200457452310450e+07  4.9200457291894317e+07  4.9200459652313463e+07  4.9201753794216581e+07  5.9562296944137961e+06  5.9562296990338890e+06  5.9562296998134237e+06  5.9562296998237791e+06  5.9562296998231523e+06  5.9562296998232175e+06  5.9562296998231784e+06  5.9562296998231690e+06  5.9562296998231607e+06  5.9562296998231420e+06  5.9562296998231336e+06  5.9562296998231336e+06  5.9562296998231234e+06  5.9562296998231187e+06  5.9562296998231113e+06  5.9562296998230396e+06  5.9562296998236636e+06  5.9562296998132998e+06  5.9562296990337670e+06  5.9562296944136648e+06  5.9633676687229723e+06  5.9633676897707880e+06  5.9633676908494150e+06  5.9633676908434452e+06  5.9633676908446141e+06  5.9633676908444660e+06  5.9633676908444781e+06  5.9633676908444576e+06  5.9633676908444539e+06  5.9633676908444483e+06  5.9633676908444352e+06  5.9633676908444334e+06  5.9633676908444203e+06  5.9633676908444399e+06  5.9633676908444148e+06  5.9633676908445563e+06  5.9633676908433856e+06  5.9633676908493666e+06  5.9633676897707321e+06  5.9633676687229201e+06  5.9778822192179188e+06  5.9778822763057938e+06  5.9778822775521968e+06  5.9778822775597498e+06  5.9778822775590448e+06  5.9778822775591575e+06  5.9778822775591277e+06  5.9778822775591230e+06  5.9778822775591426e+06  5.9778822775591807e+06  5.9778822775591677e+06  5.9778822775591835e+06  5.9778822775591817e+06  5.9778822775591519e+06  5.9778822775591873e+06  5.9778822775590913e+06  5.9778822775597870e+06  5.9778822775522210e+06  5.9778822763058366e+06  5.9778822192179523e+06  6.0002561022348031e+06  6.0002562193241809e+06  6.0002562209445108e+06  6.0002562209492605e+06  6.0002562209494831e+06  6.0002562209494468e+06  6.0002562209494840e+06  6.0002562209495185e+06  6.0002562209494980e+06  6.0002562209494878e+06  6.0002562209495325e+06  6.0002562209494971e+06  6.0002562209494794e+06  6.0002562209494868e+06  6.0002562209494542e+06  6.0002562209495399e+06  6.0002562209493360e+06  6.0002562209445629e+06  6.0002562193242060e+06  6.0002561022348115e+06  6.0312273359639021e+06  6.0312275440250095e+06  6.0312275461832359e+06  6.0312275461902525e+06  6.0312275461902143e+06  6.0312275461902162e+06  6.0312275461902060e+06  6.0312275461901529e+06  6.0312275461901762e+06  6.0312275461901790e+06  6.0312275461901240e+06  6.0312275461902209e+06  6.0312275461902637e+06  6.0312275461902516e+06  6.0312275461903112e+06  6.0312275461902590e+06  6.0312275461902590e+06  6.0312275461833058e+06  6.0312275440250728e+06  6.0312273359639393e+06  6.0718058652200149e+06  6.0718062061300967e+06  6.0718062090476407e+06  6.0718062090563327e+06  6.0718062090563839e+06  6.0718062090563904e+06  6.0718062090563448e+06  6.0718062090563718e+06  6.0718062090563970e+06  6.0718062090563374e+06  6.0718062090563290e+06  6.0718062090561986e+06  6.0718062090562405e+06  6.0718062090564035e+06  6.0718062090563457e+06  6.0718062090563895e+06  6.0718062090563998e+06  6.0718062090476677e+06  6.0718062061301647e+06  6.0718058652201295e+06  6.1232957718769908e+06  6.1232963027570955e+06  6.1232963067133203e+06  6.1232963067243407e+06  6.1232963067243015e+06  6.1232963067243109e+06  6.1232963067243872e+06  6.1232963067243267e+06  6.1232963067243174e+06  6.1232963067243900e+06  6.1232963067244086e+06  6.1232963067244729e+06  6.1232963067244068e+06  6.1232963067242932e+06  6.1232963067243369e+06  6.1232963067243062e+06  6.1232963067243109e+06  6.1232963067134153e+06  6.1232963027572082e+06  6.1232957718770877e+06  6.1873229764908385e+06  6.1873237753981194e+06  6.1873237807453666e+06  6.1873237807588605e+06  6.1873237807588587e+06  6.1873237807588829e+06  6.1873237807589164e+06  6.1873237807589239e+06  6.1873237807589266e+06  6.1873237807589620e+06  6.1873237807590021e+06  6.1873237807590207e+06  6.1873237807589760e+06  6.1873237807590170e+06  6.1873237807590179e+06  6.1873237807590459e+06  6.1873237807590468e+06  6.1873237807453796e+06  6.1873237753982125e+06  6.1873229764909940e+06  6.2658683118675677e+06  6.2658694849737445e+06  6.2658694921478294e+06  6.2658694921643194e+06  6.2658694921643427e+06  6.2658694921643352e+06  6.2658694921642840e+06  6.2658694921643939e+06  6.2658694921644283e+06  6.2658694921643948e+06  6.2658694921643613e+06  6.2658694921643510e+06  6.2658694921644293e+06  6.2658694921643753e+06  6.2658694921644097e+06  6.2658694921643976e+06  6.2658694921643455e+06  6.2658694921479188e+06  6.2658694849738190e+06  6.2658683118675277e+06  6.3613057416509539e+06  6.3613074322033683e+06  6.3613074417303419e+06  6.3613074417496603e+06  6.3613074417496845e+06  6.3613074417496789e+06  6.3613074417496501e+06  6.3613074417495746e+06  6.3613074417496063e+06  6.3613074417496677e+06  6.3613074417496733e+06  6.3613074417496361e+06  6.3613074417495932e+06  6.3613074417496165e+06  6.3613074417495932e+06  6.3613074417495746e+06  6.3613074417497525e+06  6.3613074417305700e+06  6.3613074322034428e+06  6.3613057416510992e+06  6.4764453423450943e+06  6.4764477415958969e+06  6.4764477540906090e+06  6.4764477541122017e+06  6.4764477541121980e+06  6.4764477541122129e+06  6.4764477541121831e+06  6.4764477541121608e+06  6.4764477541121552e+06  6.4764477541120639e+06  6.4764477541120769e+06  6.4764477541121924e+06  6.4764477541122297e+06  6.4764477541122679e+06  6.4764477541122856e+06  6.4764477541122856e+06  6.4764477541122269e+06  6.4764477540906342e+06  6.4764477415960999e+06  6.4764453423452294e+06  6.6145804536915757e+06  6.6145838138619931e+06  6.6145838300135797e+06  6.6145838300366066e+06  6.6145838300365433e+06  6.6145838300365228e+06  6.6145838300365787e+06  6.6145838300365983e+06  6.6145838300366169e+06  6.6145838300365796e+06  6.6145838300364772e+06  6.6145838300364166e+06  6.6145838300364912e+06  6.6145838300366057e+06  6.6145838300366178e+06  6.6145838300366271e+06  6.6145838300366821e+06  6.6145838300136728e+06  6.6145838138619643e+06  6.6145804536915114e+06  6.7795381197627708e+06  6.7795427688886514e+06  6.7795427894301033e+06  6.7795427894528965e+06  6.7795427894527400e+06  6.7795427894527009e+06  6.7795427894527083e+06  6.7795427894526636e+06  6.7795427894526403e+06  6.7795427894527530e+06  6.7795427894527800e+06  6.7795427894527707e+06  6.7795427894527419e+06  6.7795427894526795e+06  6.7795427894527242e+06  6.7795427894527996e+06  6.7795427894529393e+06  6.7795427894300874e+06  6.7795427688888041e+06  6.7795381197631508e+06  6.9757315809663469e+06  6.9757379391697058e+06  6.9757379648235897e+06  6.9757379648436150e+06  6.9757379648436066e+06  6.9757379648435926e+06  6.9757379648435954e+06  6.9757379648436317e+06  6.9757379648434939e+06  6.9757379648435954e+06  6.9757379648437547e+06  6.9757379648437425e+06  6.9757379648436038e+06  6.9757379648434734e+06  6.9757379648435013e+06  6.9757379648435488e+06  6.9757379648436969e+06  6.9757379648237601e+06  6.9757379391697943e+06  6.9757315809663590e+06  7.2082131258594776e+06  7.2082217221986735e+06  7.2082217536023734e+06  7.2082217536168257e+06  7.2082217536166953e+06  7.2082217536168145e+06  7.2082217536167158e+06  7.2082217536166562e+06  7.2082217536168089e+06  7.2082217536166450e+06  7.2082217536165584e+06  7.2082217536166767e+06  7.2082217536167381e+06  7.2082217536167540e+06  7.2082217536168331e+06  7.2082217536168024e+06  7.2082217536169095e+06  7.2082217536025178e+06  7.2082217221988058e+06  7.2082131258595120e+06  7.4827250638751490e+06  7.4827365524775498e+06  7.4827365900830524e+06  7.4827365900878962e+06  7.4827365900878562e+06  7.4827365900877658e+06  7.4827365900877025e+06  7.4827365900879353e+06  7.4827365900880340e+06  7.4827365900880583e+06  7.4827365900879437e+06  7.4827365900878645e+06  7.4827365900879996e+06  7.4827365900881039e+06  7.4827365900880340e+06  7.4827365900879940e+06  7.4827365900880545e+06  7.4827365900830934e+06  7.4827365524774007e+06  7.4827250638750931e+06  7.8057459320651190e+06  7.8057611057898495e+06  7.8057611497506015e+06  7.8057611497426936e+06  7.8057611497424990e+06  7.8057611497424971e+06  7.8057611497426694e+06  7.8057611497425567e+06  7.8057611497425493e+06  7.8057611497427002e+06  7.8057611497426704e+06  7.8057611497425549e+06  7.8057611497424887e+06  7.8057611497425670e+06  7.8057611497424003e+06  7.8057611497424217e+06  7.8057611497429023e+06  7.8057611497508092e+06  7.8057611057900935e+06  7.8057459320653137e+06  8.1845283032221347e+06  8.1845481027318174e+06  8.1845481527838511e+06  8.1845481527592819e+06  8.1845481527592596e+06  8.1845481527594896e+06  8.1845481527593667e+06  8.1845481527591813e+06  8.1845481527591450e+06  8.1845481527591851e+06  8.1845481527593536e+06  8.1845481527595418e+06  8.1845481527594933e+06  8.1845481527594589e+06  8.1845481527596302e+06  8.1845481527595483e+06  8.1845481527593201e+06  8.1845481527838716e+06  8.1845481027321285e+06  8.1845283032224122e+06  8.6271237304866482e+06  8.6271492463869303e+06  8.6271493017423935e+06  8.6271493016993031e+06  8.6271493016993422e+06  8.6271493016989622e+06  8.6271493016990032e+06  8.6271493016993403e+06  8.6271493016993050e+06  8.6271493016991653e+06  8.6271493016991429e+06  8.6271493016991261e+06  8.6271493016991038e+06  8.6271493016991150e+06  8.6271493016991876e+06  8.6271493016992770e+06  8.6271493016992602e+06  8.6271493017424997e+06  8.6271492463868726e+06  8.6271237304866239e+06  9.1423894686180167e+06  9.1424219343631417e+06  9.1424219936357215e+06  9.1424219935725834e+06  9.1424219935726002e+06  9.1424219935729429e+06  9.1424219935729206e+06  9.1424219935727753e+06  9.1424219935728479e+06  9.1424219935729709e+06  9.1424219935729355e+06  9.1424219935728572e+06  9.1424219935728889e+06  9.1424219935728572e+06  9.1424219935727511e+06  9.1424219935730007e+06  9.1424219935731534e+06  9.1424219936359748e+06  9.1424219343633987e+06  9.1423894686183538e+06  9.7399706951971129e+06  9.7400114687802289e+06  9.7400115299536996e+06  9.7400115298718736e+06  9.7400115298721623e+06  9.7400115298721530e+06  9.7400115298719984e+06  9.7400115298719201e+06  9.7400115298719332e+06  9.7400115298719127e+06  9.7400115298718810e+06  9.7400115298718363e+06  9.7400115298719015e+06  9.7400115298719201e+06  9.7400115298720077e+06  9.7400115298719723e+06  9.7400115298716500e+06  9.7400115299540050e+06  9.7400114687806349e+06  9.7399706951972302e+06  1.0430251078648362e+07  1.0430301611695010e+07  1.0430301672148621e+07  1.0430301672050059e+07  1.0430301672049984e+07  1.0430301672049982e+07  1.0430301672050202e+07  1.0430301672049951e+07  1.0430301672049919e+07  1.0430301672049958e+07  1.0430301672050193e+07  1.0430301672050403e+07  1.0430301672050308e+07  1.0430301672050418e+07  1.0430301672050234e+07  1.0430301672050169e+07  1.0430301672050186e+07  1.0430301672148572e+07  1.0430301611694938e+07  1.0430251078648744e+07  1.1224263793947201e+07  1.1224325587642903e+07  1.1224325644233320e+07  1.1224325644122541e+07  1.1224325644122707e+07  1.1224325644122437e+07  1.1224325644122472e+07  1.1224325644122804e+07  1.1224325644122655e+07  1.1224325644122850e+07  1.1224325644122882e+07  1.1224325644122729e+07  1.1224325644122662e+07  1.1224325644122625e+07  1.1224325644122882e+07  1.1224325644122683e+07  1.1224325644122576e+07  1.1224325644233705e+07  1.1224325587643422e+07  1.1224263793947494e+07  1.2133554593553085e+07  1.2133629141774388e+07  1.2133629190966913e+07  1.2133629190848898e+07  1.2133629190848954e+07  1.2133629190849310e+07  1.2133629190849224e+07  1.2133629190849094e+07  1.2133629190849204e+07  1.2133629190849151e+07  1.2133629190848963e+07  1.2133629190848945e+07  1.2133629190849204e+07  1.2133629190849429e+07  1.2133629190849403e+07  1.2133629190849490e+07  1.2133629190849153e+07  1.2133629190966766e+07  1.2133629141774312e+07  1.2133554593553293e+07  1.3169988460014695e+07  1.3170077180956135e+07  1.3170077218995180e+07  1.3170077218877045e+07  1.3170077218877492e+07  1.3170077218877560e+07  1.3170077218877535e+07  1.3170077218877411e+07  1.3170077218877491e+07  1.3170077218877306e+07  1.3170077218877411e+07  1.3170077218877748e+07  1.3170077218877593e+07  1.3170077218877370e+07  1.3170077218877345e+07  1.3170077218877360e+07  1.3170077218877444e+07  1.3170077218996225e+07  1.3170077180956773e+07  1.3169988460014803e+07  1.4345491896801440e+07  1.4345596055289546e+07  1.4345596078396184e+07  1.4345596078283338e+07  1.4345596078283507e+07  1.4345596078283202e+07  1.4345596078283256e+07  1.4345596078283839e+07  1.4345596078283828e+07  1.4345596078284046e+07  1.4345596078283945e+07  1.4345596078283418e+07  1.4345596078283643e+07  1.4345596078284100e+07  1.4345596078284133e+07  1.4345596078284172e+07  1.4345596078283725e+07  1.4345596078396097e+07  1.4345596055289883e+07  1.4345491896801878e+07  1.5671724292252967e+07  1.5671844915716939e+07  1.5671844920296084e+07  1.5671844920196038e+07  1.5671844920196163e+07  1.5671844920196455e+07  1.5671844920196509e+07  1.5671844920195878e+07  1.5671844920196317e+07  1.5671844920196367e+07  1.5671844920196239e+07  1.5671844920196703e+07  1.5671844920196675e+07  1.5671844920196310e+07  1.5671844920196239e+07  1.5671844920196332e+07  1.5671844920196170e+07  1.5671844920296630e+07  1.5671844915717404e+07  1.5671724292253468e+07  1.7159674284909997e+07  1.7159812076745342e+07  1.7159812059611425e+07  1.7159812059531506e+07  1.7159812059531670e+07  1.7159812059531018e+07  1.7159812059530925e+07  1.7159812059531678e+07  1.7159812059531797e+07  1.7159812059531938e+07  1.7159812059531808e+07  1.7159812059531808e+07  1.7159812059531685e+07  1.7159812059531786e+07  1.7159812059532091e+07  1.7159812059531894e+07  1.7159812059531547e+07  1.7159812059611559e+07  1.7159812076745547e+07  1.7159674284910109e+07  1.8819180945231721e+07  1.8819336200035986e+07  1.8819336158638854e+07  1.8819336158585690e+07  1.8819336158586044e+07  1.8819336158586334e+07  1.8819336158586439e+07  1.8819336158586565e+07  1.8819336158586010e+07  1.8819336158585932e+07  1.8819336158586603e+07  1.8819336158586554e+07  1.8819336158586670e+07  1.8819336158586897e+07  1.8819336158586871e+07  1.8819336158587046e+07  1.8819336158586707e+07  1.8819336158639371e+07  1.8819336200036731e+07  1.8819180945232779e+07  2.0658385125416949e+07  2.0658557651360121e+07  2.0658557584025312e+07  2.0658557584007833e+07  2.0658557584008180e+07  2.0658557584008988e+07  2.0658557584008906e+07  2.0658557584007651e+07  2.0658557584007852e+07  2.0658557584008258e+07  2.0658557584008086e+07  2.0658557584008589e+07  2.0658557584009103e+07  2.0658557584008697e+07  2.0658557584008113e+07  2.0658557584008139e+07  2.0658557584008366e+07  2.0658557584026091e+07  2.0658557651360240e+07  2.0658385125416763e+07  2.2683123697565969e+07  2.2683312751997989e+07  2.2683312658174809e+07  2.2683312658199862e+07  2.2683312658199996e+07  2.2683312658199143e+07  2.2683312658199042e+07  2.2683312658199999e+07  2.2683312658200305e+07  2.2683312658199776e+07  2.2683312658199750e+07  2.2683312658199620e+07  2.2683312658199091e+07  2.2683312658199396e+07  2.2683312658199817e+07  2.2683312658200022e+07  2.2683312658199739e+07  2.2683312658174697e+07  2.2683312751998056e+07  2.2683123697566383e+07  2.4896288628574554e+07  2.4896492873668615e+07  2.4896492754170604e+07  2.4896492754245020e+07  2.4896492754244883e+07  2.4896492754245613e+07  2.4896492754245851e+07  2.4896492754245359e+07  2.4896492754245408e+07  2.4896492754245941e+07  2.4896492754245698e+07  2.4896492754245441e+07  2.4896492754245818e+07  2.4896492754245803e+07  2.4896492754245769e+07  2.4896492754245609e+07  2.4896492754245460e+07  2.4896492754170913e+07  2.4896492873668958e+07  2.4896288628574923e+07  2.7297183691805169e+07  2.7297401177519757e+07  2.7297401034747574e+07  2.7297401034876999e+07  2.7297401034877617e+07  2.7297401034876544e+07  2.7297401034876589e+07  2.7297401034876790e+07  2.7297401034876399e+07  2.7297401034876239e+07  2.7297401034876660e+07  2.7297401034876883e+07  2.7297401034876607e+07  2.7297401034876812e+07  2.7297401034876708e+07  2.7297401034876950e+07  2.7297401034876782e+07  2.7297401034748081e+07  2.7297401177520160e+07  2.7297183691804830e+07  2.9880923449328277e+07  2.9881151630813103e+07  2.9881151468904886e+07  2.9881151469093103e+07  2.9881151469090827e+07  2.9881151469092060e+07  2.9881151469092015e+07  2.9881151469092563e+07  2.9881151469092246e+07  2.9881151469092324e+07  2.9881151469092425e+07  2.9881151469092328e+07  2.9881151469092496e+07  2.9881151469091978e+07  2.9881151469092615e+07  2.9881151469092134e+07  2.9881151469093923e+07  2.9881151468904920e+07  2.9881151630813546e+07  2.9880923449329071e+07  3.2637930739331171e+07  3.2638166534771323e+07  3.2638166359691516e+07  3.2638166359909717e+07  3.2638166359920070e+07  3.2638166359917261e+07  3.2638166359917417e+07  3.2638166359916240e+07  3.2638166359917134e+07  3.2638166359917037e+07  3.2638166359916363e+07  3.2638166359916311e+07  3.2638166359916441e+07  3.2638166359916616e+07  3.2638166359915890e+07  3.2638166359919496e+07  3.2638166359909479e+07  3.2638166359692089e+07  3.2638166534771312e+07  3.2637930739331082e+07  3.5553598312342934e+07  3.5553838205163918e+07  3.5553838024274267e+07  3.5553838024681322e+07  3.5553838024628527e+07  3.5553838024637923e+07  3.5553838024637930e+07  3.5553838024638481e+07  3.5553838024638377e+07  3.5553838024638198e+07  3.5553838024638653e+07  3.5553838024638958e+07  3.5553838024638832e+07  3.5553838024639212e+07  3.5553838024639145e+07  3.5553838024629757e+07  3.5553838024682961e+07  3.5553838024274714e+07  3.5553838205164723e+07  3.5553598312344119e+07  3.8608184653630488e+07  3.8608424836600445e+07  3.8608424660471648e+07  3.8608424659980051e+07  3.8608424660158828e+07  3.8608424660169795e+07  3.8608424660163961e+07  3.8608424660165288e+07  3.8608424660165131e+07  3.8608424660165094e+07  3.8608424660164751e+07  3.8608424660164677e+07  3.8608424660164930e+07  3.8608424660163358e+07  3.8608424660170063e+07  3.8608424660159126e+07  3.8608424659979388e+07  3.8608424660470881e+07  3.8608424836599819e+07  3.8608184653630123e+07  4.1777009741262235e+07  4.1777246311645553e+07  4.1777246136468574e+07  4.1777246141067035e+07  4.1777246141534425e+07  4.1777246141410604e+07  4.1777246141431756e+07  4.1777246141428173e+07  4.1777246141428471e+07  4.1777246141429201e+07  4.1777246141428962e+07  4.1777246141428590e+07  4.1777246141427882e+07  4.1777246141431719e+07  4.1777246141410895e+07  4.1777246141533494e+07  4.1777246141066901e+07  4.1777246136469409e+07  4.1777246311645865e+07  4.1777009741262391e+07  4.5030999293799736e+07  4.5031228411962681e+07  4.5031228405106656e+07  4.5031228423464216e+07  4.5031228421338052e+07  4.5031228421582535e+07  4.5031228421552658e+07  4.5031228421558604e+07  4.5031228421557881e+07  4.5031228421556808e+07  4.5031228421557464e+07  4.5031228421557635e+07  4.5031228421558522e+07  4.5031228421554491e+07  4.5031228421584234e+07  4.5031228421339437e+07  4.5031228423464641e+07  4.5031228405106544e+07  4.5031228411963202e+07  4.5030999293800041e+07  4.8737358367875509e+07  4.8737582484519094e+07  4.8737583117608070e+07  4.8737583094931275e+07  4.8737583096453704e+07  4.8737583096314661e+07  4.8737583096329480e+07  4.8737583096326493e+07  4.8737583096326947e+07  4.8737583096327469e+07  4.8737583096327178e+07  4.8737583096327677e+07  4.8737583096327506e+07  4.8737583096329369e+07  4.8737583096314445e+07  4.8737583096453354e+07  4.8737583094931707e+07  4.8737583117608599e+07  4.8737582484518863e+07  4.8737358367875546e+07  </DataArray> 
</PointData> 
</Piece>
</UnstructuredGrid>
</VTKFile>