<?xml version="1.0"?>
<VTKFile type="UnstructuredGrid"  version="0.1"  >
<UnstructuredGrid>
<Piece  NumberOfPoints="654" NumberOfCells="1220">
<Points>
<DataArray  type="Float64"  NumberOfComponents="3"  format="ascii">-0.05 0 0  -0.05 -0.1 0  0.05 -0.1 0  0.05 0 0  0 -0.1 0  0.05 -0.05 0  0 0 0  -0.05 -0.05 0  0 -0.05 0  -0.025 -0.1 0  -0.025 0 0  -0.05 -0.025 0  0.025 -0.1 0  0.05 -0.025 0  0.025 0 0  0.025 -0.06875000000000001 0  0.025 -0.03750000000000001 0  -0.02083333333333333 -0.02916666666666667 0  -0.05 -0.07500000000000001 0  -0.02083333333333333 -0.07083333333333333 0  0.05 -0.07500000000000001 0  0.003472222222222224 -0.02569444444444444 0  0.002378144654088049 -0.07627751572327045 0  -0.02083333333333333 -0.05 0  0.03125 -0.01875 0  -0.01233019290593089 -0.08678347112328397 0  -0.0125 -0.0130952380952381 0  -0.03690476190476191 -0.03750000000000001 0  -0.03541666666666667 -0.06041666666666666 0  -0.03385416666666667 -0.01614583333333334 0  0.05 -0.08750000000000001 0  0.03750000000000001 -0.1 0  -0.03385416666666666 -0.08385416666666666 0  0.03348214285714286 -0.08348214285714287 0  0.0125 0 0  0.0125 -0.1 0  0.01719551374627341 -0.0830513925183794 0  0.01029527261028368 -0.06231463651962176 0  0.0328125 -0.05312500000000001 0  -0.01041666666666666 -0.03958333333333333 0  -0.01041666666666667 -0.06041666666666667 0  0.01470753125203114 -0.04816506250406229 0  0.01799242424242424 -0.02474747474747475 0  0.03750000000000001 -0.03125 0  0.05 -0.0625 0  0.00625 -0.01223723723723724 0  0.05 -0.0125 0  0.03750000000000001 0 0  0.03765012642225032 -0.07127449431099875 0  0.02021617032392894 -0.01201127655869035 0  0.006028532990060553 -0.03846042534778643 0  -0.05 -0.0625 0  -0.03750000000000001 0 0  -0.05 -0.03750000000000001 0  -0.0125 -0.1 0  -0.0125 0 0  -0.05 -0.0125 0  -0.03750000000000001 -0.1 0  0.05 -0.03750000000000001 0  -0.05 -0.08750000000000001 0  -0.008680555555555554 -0.02743055555555555 0  0.006250000000000001 -0.08914373740925415 0  -0.009584768711776409 -0.07507825100308022 0  -0.03268229166666667 -0.07200520833333332 0  0.03939012096774194 -0.04309475806451613 0  0.02190003906503893 -0.05743439453251947 0  -0.03834537706133037 -0.04910019455252918 0  0.01284084887861751 -0.07298400536762802 0  -0.02264613483542079 -0.0820413651645792 0  -0.02366071428571428 -0.01123511904761905 0  -0.03199404761904762 -0.02730654761904763 0  -0.0244047619047619 -0.06041666666666667 0  -0.01041666666666666 -0.05 0  -0.02083333333333332 -0.03958333333333333 0  2.405987640392848e-05 -0.0604407265430706 0  -0.002910133850527605 -0.01736173448892657 0  -0.02961483445283294 -0.04429487938443922 0  0.0390625 -0.0109375 0  0.040625 -0.021875 0  0.028125 -0.028125 0  -0.04176917540113871 -0.06803243885869564 0  0.03965658412817928 -0.06102022076500465 0  0.01533845899304755 -0.03450745320159019 0  0.02948377458963575 -0.008744075527611174 0  0.02448333984417315 -0.04800472330961902 0  -0.002638588467448458 -0.08480290334513936 0  0.01875 -0.09260679016400503 0  0.02801599660666901 -0.09111197895245939 0  0.0427726833976834 -0.08125000000000002 0  0.04010991573299855 -0.09061756875992701 0  -0.03125000000000001 -0.09292674731182796 0  -0.04078102849914793 -0.09075246902758297 0  -0.04292674731182795 -0.08125000000000002 0  -0.04292674731182796 -0.01875 0  -0.04075246902758298 -0.009218971500852071 0  -0.002501899107215252 -0.03451361758785813 0  -0.01875 -0.09331034417873318 0  -0.04137052725919914 -0.02906901041666667 0  -0.02515071191829004 -0.02065873579545455 0  -0.004560476962080258 -0.008160345583815167 0  -0.01571003401360544 -0.02162698412698413 0  -0.006250000000000001 -0.09347094524847423 0  -0.03184688459542486 -0.007177652942204195 0  -0.043423574176247 -0.05645164743293771 0  -0.002931194584325539 -0.06897337298686135 0  0.04141166808534667 -0.05159229946940671 0  0.03072628767995273 -0.06184751883997637 0  0.01331794183364191 -0.01736907532119644 0  -0.02991071428571428 -0.05329326110353833 0  0.0302193738423544 -0.07555280640245397 0  -0.02844810693838604 -0.03529440998727736 0  -0.05 -0.04375 0  0.009435764744425919 -0.08043238240966273 0  0.02057363836381549 -0.07561467685960577 0  0.025334823172674 -0.08341820123348352 0  0.005194622404326759 -0.06864849887959712 0  0.01732194592699554 -0.06627651681808928 0  0.006285662925187238 -0.05520590615175079 0  -0.01875 0 0  0.03186492887377232 -0.04533174938342453 0  -0.0008783629089698517 -0.04219661564043644 0  0.05 -0.00625 0  0.03375689409777979 -0.03792049068961304 0  0.05 -0.06875000000000001 0  0.01439721346977286 -0.05583102001882564 0  0.007184194424042271 -0.04772337119454249 0  0.01846824474048517 -0.04149541481145257 0  -0.01682300313953808 -0.07723258764373991 0  0.01091777409106017 -0.0280645394299259 0  -0.01562499999999999 -0.034375 0  -0.005184328773648671 -0.055232337893018 0  -0.015625 -0.05520833333333333 0  -0.01562499999999999 -0.04479166666666667 0  -0.01741071428571429 -0.06383928571428571 0  -0.01017446891572471 -0.06775731747543173 0  0.02462121212121212 -0.02174873737373738 0  -0.01727537722908093 -0.007335299088771311 0  -0.04246234479210493 -0.04269936147867359 0  0.02155204304257197 -0.03095624460965786 0  0.01316725552433098 -0.00805546078058521 0  0.01875 0 0  -0.02717633928571428 -0.0671875 0  -0.02899339936689958 -0.07835247286481212 0  0.034375 -0.025 0  0.04269000268040276 -0.03649499463919448 0  0.04375 0 0  0.04375 -0.02812499999999999 0  -0.03761497647442349 -0.02322577938762476 0  0.05 -0.05625 0  -0.02487731781150031 -0.08912078797260026 0  -0.03695888676976247 -0.07756467740738612 0  0.002206599034779407 -0.006587679234291101 0  0.003888413565608712 -0.01876506087328944 0  0.04375 -0.1 0  0.05 -0.09375 0  -0.008944539808483216 -0.02059134745263918 0  -0.04331057662916364 -0.07455691519284439 0  0.0439453125 -0.0158203125 0  -0.0001289479518082485 -0.09093484953796985 0  -0.04345238095238095 -0.03556995462159739 0  -0.01996941165388946 -0.01664836497274012 0  -0.04375 -0.1 0  -0.05 -0.09375 0  -0.04375 0 0  -0.05 -0.00625 0  0.005594154517873918 -0.03190847365283561 0  0.01173248358540133 -0.04209249512146222 0  0.03419217537052396 -0.09402564429600242 0  0.01187454317038147 -0.09313287027544383 0  0.00625 -0.1 0  0.02629142191479375 -0.01446643061282435 0  0.021875 -0.005713666436405997 0  0.04321758283034931 -0.06704044172466167 0  0.03164035608931087 -0.06843232885197728 0  0.04337196116786825 -0.07463925880684733 0  0.03637679552963742 -0.07765509762578199 0  0.003626010873625676 -0.08324593924595615 0  -0.01086143623908221 -0.006877234301934964 0  0.05 -0.04375 0  0.01179919481827354 -0.08623489346281316 0  -0.01250448524457812 -0.09373974299368953 0  -0.05 -0.06875000000000001 0  -0.03125 0 0  -0.03125 -0.1 0  0.03125 0 0  0.05 -0.03125 0  -0.05 -0.03125 0  0.03125 -0.1 0  -0.00625 -0.1 0  -0.01875 -0.1 0  -0.05 -0.01875 0  0.01875 -0.1 0  -0.00625 0 0  0.00625 0 0  0.05 -0.01875 0  -0.05 -0.05625 0  -0.05 -0.08125000000000002 0  0.05 -0.08125000000000002 0  -0.005208333333333331 -0.04663513209089385 0  -0.008645094114120339 -0.03363601830115741 0  -0.01475694444444444 -0.0282986111111111 0  -0.002375017943413014 -0.02816654106277556 0  0.01949511126133643 -0.01820257885343882 0  -0.01184447766846871 -0.08072281861600734 0  -0.003534735552586339 -0.07499381884380991 0  -7.74643124966494e-05 -0.01210497681433211 0  -0.0189894669743643 -0.08708512345290294 0  -0.03573478741405032 -0.06660859450219164 0  0.04359375 -0.006406250000000002 0  0.03517259397916334 -0.00591284371726238 0  0.01965556274601837 -0.05175082112889391 0  0.0278582381998454 -0.05655080703154879 0  0.02250150625287546 -0.06335204673888746 0  -0.04398521510889171 -0.06244044890584508 0  -0.04409485128436456 -0.05055827494263457 0  -0.03770557434490081 -0.05497182533168162 0  -0.03656642640981419 -0.04343156897269072 0  0.009194419875177533 -0.02206075900562258 0  0.04451331908599852 -0.04636519166703897 0  -0.01485520520633521 -0.0715431557666749 0  0.03646473132841593 -0.0487266977067035 0  0.04405668594067944 -0.05696201317865261 0  -0.005203169869815907 -0.063408387077611 0  -0.02247505510150612 -0.07631841748069951 0  -0.02804244587606518 -0.08423194559419436 0  -0.02935822174816368 -0.01244339991380455 0  -0.03106530920251624 -0.021416390819467 0  -0.02607827560230913 -0.005825920664671352 0  -0.03361300586943999 -0.03280621050224407 0  -0.02666093500983432 -0.02972007434472025 0  0.02285652838955744 -0.08859591663874328 0  0.03188089108105607 -0.03248232675683183 0  0.004333204611837944 -0.09457186870462708 0  -0.02704324561419352 -0.07289471972323462 0  0.007922643115429704 -0.005561362357538799 0  0.0335055138043014 -0.01319301380430141 0  0.03678783220616013 -0.0177615033815196 0  -0.02428736139211932 -0.05463634003970875 0  -0.02991071428571428 -0.06211553281168236 0  0.01197199101441062 -0.06755294829741498 0  0.007340105850365504 -0.07377496925579345 0  0.0155154430127655 -0.07780260757679426 0  0.03658895737846099 -0.06574341599602251 0  -0.02410709817404581 -0.09456977129140082 0  0.01071697988857716 -0.05184278466318995 0  0.01728938824664831 -0.06065342293474459 0  -0.001242172060814776 -0.02269478175693585 0  -0.03834687844188856 -0.07228526864991387 0  0.03504935696459177 -0.08867226036471411 0  0.03924608506562968 -0.08530978616477196 0  0.04446421559415197 -0.08718473081338503 0  0.02679267124047066 -0.0428532372923227 0  -0.007808666799817795 -0.01546134924060014 0  -0.02636641232583814 -0.04890574755055194 0  -0.02267804660897878 -0.04479166666666666 0  0.03489498531895979 -0.05823382415106163 0  3.608994237358591e-05 -0.05522030782704834 0  0.005332838990544739 -0.06042849285714701 0  -0.04436969017718883 -0.02424446436705185 0  -0.01009042364871584 -0.04479166666666667 0  -0.01041666666666667 -0.05520833333333333 0  -0.015625 -0.05 0  -0.01562499999999999 -0.03958333333333334 0  -0.02083333333333332 -0.034375 0  0.04436432681906392 -0.09436432681906393 0  -0.02240513392857143 -0.06518787202380952 0  0.04537177463340432 -0.04110310095312193 0  -0.01934692347958504 -0.05893848545414168 0  0.01001344743614051 -0.03490586023982564 0  0.01586325646191351 -0.02940933116439079 0  0.02022053591020378 -0.03583808206686418 0  0.04471567469374729 -0.06209102384433118 0  -0.006496208247169712 -0.07958930721574266 0  -0.01759557435166128 -0.08222716640716513 0  -0.0258732841832878 -0.04072911010428665 0  -0.03288263125611565 -0.04869148482773185 0  -0.03263969202788681 -0.04023215505700068 0  -0.0004136896689272414 -0.08037340396772195 0  -0.007739794146129868 -0.08454340960557974 0  -0.005153536667873927 -0.03908698774301944 0  0.02019517427329467 -0.07051123899821848 0  0.04583333333333334 -0.021875 0  0.02619510373908494 -0.03269003457969499 0  0.0296875 -0.0234375 0  0.0390625 -0.0265625 0  0.02670820946356766 -0.004645696321677782 0  -0.04062500000000001 -0.09590293078204457 0  -0.03564280613591997 -0.09534312690398471 0  -0.04448129971537602 -0.01338184642750947 0  -0.0391644784367541 -0.01475132581728818 0  -0.03536697670269791 -0.01109850434249643 0  0.0246546870714087 -0.009801696230090574 0  0.01693476594833477 -0.004704231736989024 0  0.02805149774555685 -0.05153506231567133 0  0.01957205274891251 -0.04665925415381995 0  -0.03920906758509401 -0.08540401702208963 0  -0.04459789183327253 -0.08648620389067757 0  -0.03546142078996733 -0.08941071919400739 0  -0.040625 -0.004080718704877302 0  0.00260771577430766 -0.04575534361521472 0  0.03956847501260272 -0.09552117233795018 0  -0.04564909052553461 -0.008584357303211394 0  0.02264451502733982 -0.02620512014018021 0  0.001001636024309939 -0.06555740150324908 0  -0.01885631351121119 -0.01192416515989788 0  -0.04499819577901031 -0.09345781847661469 0  0.0155715347117314 -0.09625819711534236 0  0.021875 -0.09630339508200252 0  0.01807873790021638 -0.08781185019060267 0  0.02541211245660132 -0.07801680524060067 0  0.0294294739969754 -0.08077554116165468 0  0.0212171018061149 -0.08039258342290792 0  -0.03673232558409376 -0.02792157104559268 0  -0.02412288540753498 -0.02548656141284193 0  -0.03844586027904318 -0.03291807771577562 0  -0.0256811132162094 -0.01574526990493712 0  0.00848679002385368 -0.01728089887285961 0  -0.02045411777499171 -0.02137437814389278 0  0.02970767836655067 -0.09552881632074735 0  -0.04643569916713384 -0.07809368021565474 0  0.04527103964454355 -0.01105720832240294 0  0.002256955057953323 -0.03542009683155154 0  -0.004463009310811217 -0.089129126936575 0  0.02938595614515601 -0.08632050280733992 0  -0.021875 -0.003591127891060313 0  0.04650608071264184 -0.07812500000000001 0  -0.003124999999999999 -0.003608070794988568 0  0.007129281584464676 -0.04302665811602766 0  0.01520615639784498 -0.01268049936812179 0  -0.0365436926664342 -0.006501489865350806 0  0.03925290019911523 -0.0559919664295034 0  0.02605302166616394 -0.07334573645615944 0  -0.03082945889391246 -0.08814284502455727 0  -0.03925333539581527 -0.06332368724566637 0  0.01398706243080254 -0.0221150896608866 0  -0.04584180981523835 -0.03953521125648374 0  -0.01551784317154422 -0.09006879589254792 0  0.04661131594773271 -0.05312500000000001 0  -0.0182716836734694 -0.0253968253968254 0  -0.0121952947845805 -0.02452876984126983 0  -0.01525668726170214 -0.01692779996038899 0  -0.008385574756346015 -0.01083162927881422 0  -0.001826518818718755 -0.09549248911561954 0  -0.01494018809894989 -0.06003035061353305 0  0.03842786925093422 -0.03848878006528625 0  -0.00895230330735379 -0.08982008961627093 0  -0.007026717534073515 -0.07118798342763594 0  0.0001411412619572883 -0.0723218451829247 0  -0.04672559722717761 -0.046875 0  -0.03333335481254267 -0.05633735472828818 0  -0.02825670442395904 -0.05770439695761035 0  0.04670555193272041 -0.034375 0  -0.04606809718672033 -0.02864475622893278 0  -0.02830308489895125 -0.09646337365591398 0  0.02697244171743559 -0.06455983431862716 0  0.01075672523973394 -0.01188005193203498 0  0.009375 -0.09682257628260371 0  0.04684624656174251 -0.07187500000000001 0  -0.04569647882374624 -0.07054893266310153 0  -0.009375000000000001 -0.09686763094218352 0  -0.01584244881786312 -0.09665517208936659 0  0.03949793158361206 -0.004200900444856822 0  -0.04599424336041202 -0.004005756639587985 0  0.04672247023809524 -0.003277529761904764 0  -0.0057072681558855 -0.02389109188241274 0  0.001146640918992101 -0.03102340112947342 0  0.02944299575463769 -0.03636599160900477 0  -0.01428600846173209 -0.004059351323159661 0  -0.05 -0.065625 0  0.007616524711816953 -0.08500313843252691 0  -0.01993674705883108 -0.05462803045825988 0  0.02533618313706692 -0.06007453909491395 0  -0.05 -0.059375 0  -0.03862197093400277 -0.01903101690089815 0  -0.004292724759871009 -0.0509312120011487 0  0.0468279944940574 -0.09080811063091072 0  -0.03140806455272695 -0.06619583248002962 0  0.03421885564815121 -0.07390709677899014 0  0.03102548386801434 -0.004710932028832613 0  0.002309432914435064 -0.08736431641512733 0  0.03037840052113319 -0.04053315527075563 0  0.02389766944944421 -0.05336055352824819 0  -0.03954777047483198 -0.05894977680820387 0  0.04184946453364417 -0.03213642906728832 0  0.02243926545212522 -0.04334647355665038 0  -0.004152535080712006 -0.01330066254671447 0  -0.007439175550382293 -0.004187299635792556 0  0.01484586826671411 -0.03892294491435778 0  0.04038356695604921 -0.04718651728124535 0  -0.03370152792459298 -0.003409778577081043 0  0.02125959124306701 -0.08464957731246456 0  -0.005175004679933259 -0.03128537442936601 0  -0.04563130928453093 -0.06632786681052066 0  -0.046875 -0.1 0  -0.01291276579588407 -0.06417334401545016 0  0.004992029923702567 -0.06453392731290926 0  -0.04663456907220346 -0.05383247499981354 0  0.01344500085629343 -0.08135860767901475 0  0.00624679979509361 -0.0777776748102709 0  0.01052907079969781 -0.07642967685518529 0  -0.02973732862474088 -0.01656402049062323 0  -0.006320936408913722 -0.05931776496665621 0  0.03859993140651855 -0.08118688326132042 0  0.01427753806508674 -0.08965722182118722 0  0.01683718122662454 -0.07391739294871101 0  0.05 -0.065625 0  0.01017345837010273 -0.05769818894326342 0  0.003154828149147135 -0.05258846815707424 0  -0.03738360545745725 -0.08168537983806289 0  -0.01748218666510975 -0.06813878302001214 0  0.0463863416988417 -0.08342845367255949 0  -0.01133532489479995 -0.03054855906973371 0  -0.02407557688892508 -0.03697916666666667 0  0.04073902625376655 -0.07773311114842162 0  0.01295019700693523 -0.004018074645617246 0  0.01731419597837964 -0.008924158772178585 0  -0.02816365818777272 -0.02594161659920633 0  0.01395860158789553 -0.06402955474289401 0  0.01533533535351063 -0.06979991037261025 0  0.003235556574780704 -0.04154949902408906 0  0.0256560691365745 -0.09454823090098792 0  -0.04196241070174674 -0.04690222551838178 0  -0.0328148615078059 -0.07632783935745614 0  0.05 -0.096875 0  -0.03477498087981482 -0.02000619738968918 0  -0.03540046447454039 -0.05174997538409749 0  0.03218160891894395 -0.02842571783788788 0  0.05 -0.059375 0  -0.05 -0.021875 0  -0.001290325615771404 -0.0462839283737984 0  -0.0007291972817302392 -0.03815205647041336 0  0.0314309378115113 -0.04933875006157912 0  0.03580429802300419 -0.04480791474934491 0  0.02812989034564535 -0.04654605366445282 0  -0.02250615467821772 -0.007474259833856833 0  -0.04623402623092238 -0.03266401947810209 0  0.007543784155871341 -0.02578379566159266 0  0.01259856518984842 -0.03164933808168655 0  -0.02960733622015939 -0.003750246412287103 0  0.0376081921684235 -0.05245551308128505 0  -0.04676105644177232 -0.089859296733659 0  -0.04121081180579638 -0.05321468881729818 0  0.008907581557938372 -0.07010677444136433 0  0.02238005005866955 -0.01540092856280071 0  0.003032066145106093 -0.01476416779425536 0  -0.009032574167746762 -0.06404679485097063 0  -0.04624075377196257 -0.02081638694163197 0  0.003125 0 0  -0.02455617661094997 -0.0330603948257714 0  0.01354726629139471 -0.05961923898792222 0  -0.05 -0.015625 0  -0.04635508186673168 -0.01694238793953898 0  0.03470250342566425 -0.06222309747987002 0  0.007976246520282971 -0.09318351454674861 0  0.01809300284513205 -0.05689299134079161 0  0.01454995940546648 -0.05199794358506395 0  0.02166562205297151 -0.0393857222105142 0  0.01628826452041482 -0.04466129449473814 0  0.03647494009737834 -0.03506024984948551 0  0.03451316441232027 -0.02102466779383987 0  -0.021875 -0.1 0  0.03262097952842365 -0.07858713204909264 0  -0.03920905544327313 -0.04060687021800941 0  -0.02992158084177625 -0.03174834582032531 0  0.008357511167758609 -0.06633127955364289 0  0.04318756780435637 -0.0708420282370337 0  -0.03392289579707979 -0.08000975380228131 0  -0.01141704038127351 -0.0167818866184824 0  -0.01348793190251895 -0.07520106923253567 0  -0.02005005659770492 -0.07925494045119626 0  -0.01924800164333928 -0.07429606467324316 0  -0.004633061924560681 -0.04286503726771711 0  0.006752171710484152 -0.05146670928303395 0  0.01093796665936654 -0.04807871261706882 0  0.01436274818423154 -0.02590687146513118 0  -0.05 -0.08437500000000001 0  -0.04636382294280632 -0.08303782715171144 0  0.02105361757021209 -0.06683669802742299 0  -0.0332818926824345 -0.03653956979812621 0  -0.0180063433845188 -0.003666373956224432 0  -0.01532173405145471 -0.01057512148167935 0  0.02714155416761251 -0.018494096081304 0  0.03535908927063413 -0.009786505825259039 0  0.03188613320287887 -0.09091108404481391 0  0.02958027680234551 -0.07172324007054222 0  0.003165765980874975 -0.05733491440340072 0  -0.02200371590623956 -0.09149352860606418 0  -0.02733319341238323 -0.09224685596870097 0  -0.02443859886710142 -0.08536775035015338 0  0.04178251006096394 -0.04010753294115062 0  0.03988127463270016 -0.01500153786729983 0  -0.007788495440315336 -0.05260416666666667 0  -0.04634456533037547 -0.04319777722919801 0  0.01117166248865671 -0.03842772965091688 0  -0.02842807177184132 -0.008782837269883144 0  -0.0203125 -0.09665517208936659 0  -0.002568132041306103 -0.05782452981072803 0  -0.01822916666666666 -0.0421875 0  -0.01822916666666666 -0.04739583333333333 0  -0.01822916666666665 -0.03697916666666667 0  -0.01746961805555555 -0.03101128472222222 0  -0.01193516091817964 -0.03589349425151298 0  -0.01302083333333332 -0.0421875 0  -0.01302083333333333 -0.04739583333333334 0  -0.01302083333333333 -0.05260416666666667 0  0.004614118426858764 -0.003565458483726032 0  -0.006399704118556011 -0.06745326068235465 0  -0.0108014823312422 -0.07149204022071302 0  0.00391242037377193 -0.07219730356656646 0  -0.0262424283318852 -0.08092416785272258 0  0.03011436735525412 -0.01505282433074386 0  -0.01384023034695557 -0.06772003352402545 0  -0.02949155392278313 -0.07009665308484649 0  -0.02377517751687289 -0.06861085723659542 0  -0.02579055059523809 -0.06380208333333333 0  0.02113537664400663 -0.0228691300296542 0  0.02637310606060607 -0.02493686868686869 0  -0.03063337228909436 -0.08163436478301857 0  0.03119026483577081 -0.05817143789660971 0  0.009375000000000001 0 0  -0.04675660524288705 -0.0578125 0  0.03391867257094834 -0.04162042413407832 0  0.02253985872597661 -0.09237936377706879 0  0.03976053609378098 -0.07423312666419081 0  0.01953075217518766 -0.02799030610032226 0  0.01844493158550458 -0.03273128999182751 0  0.02477819668651615 -0.02940057345809435 0  -0.005263160237910004 -0.02021752904783427 0  0.034375 0 0  0.003270918576756519 -0.07971358497895784 0  0.04470330169115787 -0.05001170287587115 0  -0.03189871520790222 -0.09646337365591398 0  -0.03326072659634353 -0.06320106822207454 0  -0.03987331178654424 -0.07550873862683773 0  -0.03998764652264281 -0.07933474367595365 0  0.009071852058287186 -0.03111646240531644 0  -0.03307175953143342 -0.04371127095975504 0  0.04678717767873879 -0.06718750000000001 0  0.04169457139716228 -0.06387802551592327 0  0.04025169088499745 -0.0689179365835467 0  0.01805191463477333 -0.01489685993184803 0  0.04636190916549267 -0.03071368166901467 0  -0.05 -0.096875 0  0.04635416666666667 -0.02552083333333333 0  0.03750000000000001 -0.0234375 0  0.03568276492406011 -0.02825236753796995 0  0.046875 -0.1 0  0.0421875 -0.02499999999999999 0  -0.01416772838726675 -0.08358641717367554 0  -0.02052291899646267 -0.06223597710653215 0  -0.02612280024318982 -0.0442131766919299 0  0.0004213409092374296 -0.003522267437169826 0  -0.001339741874458022 -0.006673482592109841 0  0.005500468959257323 -0.008501963795935558 0  -0.04096505846019646 -0.02181174912946466 0  -0.04093441339034119 -0.02545341886445387 0  -0.03468865480842657 -0.02510657950910184 0  0.00151209537569981 -0.09676345022395004 0  0.002413629182646067 -0.02215367303778921 0  0.0002547620197936792 -0.01919886328694928 0  0.009715766073205602 -0.008552025495673465 0  0.03243759091146019 -0.06496581287053931 0  0.02632268052734591 -0.08803624812100705 0  0.04017693787036055 -0.01844651389955829 0  0.04693170099101154 -0.0140854731306681 0  0.01062026499317763 -0.08969717114352656 0  -0.03755774753270519 -0.09231560011783839 0  0.04654809241258794 -0.03784003959864843 0  0.003349497921029682 -0.04913441612359354 0  -0.03564751029865867 -0.07439774731271727 0  -0.01084442166676765 -0.003150985364175276 0  -0.01247062026737503 -0.02017281328735759 0  0.034375 -0.1 0  0.03633226476455039 -0.09674364023168498 0  0.03742838561857629 -0.09280317640226764 0  -0.02604880752883145 -0.0763273395550257 0  -0.0468677039081697 -0.03605489738465316 0  -0.04187803497262769 -0.03249030395020133 0  -0.04002020625879645 -0.03599772838717169 0  0.0004792449209903669 -0.06892790187802005 0  -0.04531250000000001 -0.09690794883681851 0  -0.0291441807065349 -0.03895148488387536 0  0.00581336908738571 -0.02278917431851158 0  0.05 -0.028125 0  0.01288758180323906 -0.04529163942662504 0  0.01619085190094634 -0.01938421123497572 0  0.02335162743397513 -0.03453698569167468 0  0.04029076905329756 -0.007634519053297562 0  -0.04333844669364704 -0.006107862111736678 0  0.04683437186992465 -0.007865496666910285 0  0.02376408744140826 -0.01848181687442775 0  0.01536691765402977 -0.09287098896883215 0  0.04645246119281046 -0.01836022603485839 0  0.04345783710819453 -0.09110483561269606 0  -0.04239048565366835 -0.03923582153557398 0  -0.03134471120132367 -0.05906217432111517 0  -0.03014613125358451 -0.07424633768158163 0  -0.04243247311896794 -0.07132005085618823 0  -0.04671548310472585 -0.07386967347769566 0  -0.04301769881032727 -0.07789766764724927 0  0.04213910500613365 -0.01243215922992873 0  -0.01566894448496811 -0.08673308468003743 0  0.0328125 -0.0970578397322078 0  -0.007991049607539828 -0.04204578031173471 0  0.02827918548571119 -0.06773428714866543 0  0.03433598323828143 -0.07050733890753118 0  0.003112335364914031 -0.01092401204266664 0  0.03659766263330574 -0.01443476744203068 0  0.003218881760534197 -0.09060326877388235 0  -0.00309787103652196 -0.09242398777139789 0  -0.001397007629438716 -0.08787429497970135 0  -0.034375 -0.1 0  0.04333146078111694 -0.01962237814076521 0  -0.01302083333333333 -0.05729813187281795 0  0.05 -0.046875 0  -0.03698335100714727 -0.003245082636280113 0  -0.01221663460613567 -0.09043120000023412 0  -0.002465900339390573 -0.06553713662061939 0  0.003854520584893778 -0.0290332067670757 0  0.005543834849940803 -0.03520218469044023 0  0.02862374473330777 -0.01201592999484019 0  -0.02246171357697855 -0.01878061384640486 0  -0.0225476961674239 -0.01444132597291705 0  -0.0177476972726508 -0.01905894355937543 0  -0.02210730136496472 -0.05712062142212219 0  -0.02355932395340094 -0.07300565754440523 0  -0.006110152293423535 -0.09673547262423712 0  -0.02958927181873421 -0.04772658399709136 0  -0.008984816994941665 -0.02386872512578754 0  0.02382519025293929 -0.00306887430494123 0  0.01983176480334506 -0.003119763773612122 0  0.02059820391388823 -0.008744628494184007 0  0.02265668847927564 -0.07289444853882621 0  0.03513111227785506 -0.080668788795191 0  -0.01092133630370761 -0.08384712114495881 0  0.028125 0 0  0.028125 -0.1 0  -0.005082576649742099 -0.08257729360451677 0  1.734414940744201e-05 -0.01596316135134052 0  0.01507821859840985 -0.08646886045700236 0  -0.007999101390003741 -0.03706595863040997 0  0.015625 0 0  0.0006259511825795283 -0.0845565019574057 0  0.006221822967568033 -0.08120096840325083 0  0.01122555704573599 -0.02472696173642344 0  0.002380395979881509 -0.06264225605256551 0  -0.01214928144463336 -0.009862760737696942 0  -0.007685836574511986 -0.007395433330292244 0  -0.03503584361707746 -0.04627955698369435 0  -0.03969267205397397 -0.04450107246028451 0  0.04659205713076703 -0.05924310166845191 0  0.04351553199404762 -0.003199311755952383 0  0.03613651006745784 -0.05529063340608956 0  0.03981046946253874 -0.03478997461063087 0  </DataArray>
</Points>
<Cells>
<DataArray  type="UInt32"  Name="connectivity"  format="ascii">84 293 381  92 534 599  23 237 253  7 214 396  69 225 494  22 240 398  149 224 488  126 387 457  144 489 567  139 292 415  24 235 510  268 437 535  116 280 418  43 284 383  75 246 527  98 313 416  17 313 338  108 275 627  112 397 399  19 265 513  143 426 545  12 191 307  71 267 549  100 340 571  19 513 625  151 505 553  29 289 290  103 213 382  89 248 249  114 323 562  114 309 311  88 249 402  255 452 518  49 415 631  45 316 355  168 403 565  179 403 639  15 212 354  280 404 418  124 406 449  41 473 584  23 253 254  8 407 568  222 401 445  303 395 645  140 292 630  50 321 619  82 387 493  165 268 535  178 218 266  81 242 452  99 326 552  252 341 385  83 209 482  174 325 413  33 248 249  24 236 459  235 510 620  95 365 391  95 321 430  156 533 597  66 215 441  94 288 289  29 373 424  76 276 581  11 258 352  25 278 345  243 486 487  263 412 448  99 326 386  93 288 289  94 288 301  91 295 296  92 295 296  57 161 286  21 558 582  60 201 391  158 232 557  257 485 645  141 238 514  224 488 509  28 333 532  220 388 432  106 452 518  15 280 477  38 255 518  137 421 492  22 347 508  36 311 390  273 548 601  68 488 509  227 324 434  110 448 463  17 338 500  40 343 613  71 238 350  279 471 603  132 497 498  215 349 425  108 237 253  347 508 579  8 299 568  340 467 571  165 321 365  73 274 412  76 536 627  157 320 564  236 490 607  24 235 236  157 490 563  138 302 526  82 269 525  148 221 337  81 255 452  138 282 586  82 268 437  292 415 631  38 211 293  119 251 433  62 468 507  25 345 616  86 308 403  167 248 483  89 300 574  87 323 562  89 250 593  90 353 487  96 360 495  247 533 597  156 533 599  258 554 555  147 424 556  198 259 603  95 321 365  101 342 609  186 352 435  97 312 314  100 340 623  304 340 480  192 386 570  100 317 338  17 229 313  101 322 345  25 548 601  10 227 438  80 213 333  28 333 382  219 507 511  104 347 579  144 344 489  105 220 388  106 354 371  116 280 477  21 201 246  42 269 474  213 333 382  71 238 514  113 309 311  33 310 323  70 229 463  276 478 581  53 186 576  67 404 418  115 508 579  33 310 461  109 310 461  114 230 390  114 311 390  67 240 442  37 406 449  116 245 417  124 449 454  74 256 485  117 244 406  26 340 480  136 480 646  64 388 432  122 366 380  120 299 419  50 268 493  208 361 587  83 235 482  16 282 586  122 231 366  20 197 325  172 271 537  244 472 473  245 449 454  244 455 473  125 472 473  84 294 384  16 282 366  127 468 470  219 468 507  217 334 644  21 246 558  73 263 499  279 603 640  72 198 259  131 267 343  131 261 504  131 267 370  72 503 504  120 279 471  133 394 511  219 409 511  134 445 506  74 222 617  42 334 474  202 443 590  69 227 494  160 304 340  103 215 441  27 276 478  79 516 526  269 524 525  151 505 551  171 292 631  14 285 629  150 422 569  142 466 517  233 575 625  92 295 408  43 458 653  78 544 547  144 351 383  146 284 383  208 361 651  46 121 589  185 351 541  98 226 400  147 373 424  81 221 271  32 295 297  90 297 332  150 422 466  63 422 569  152 558 582  152 558 559  89 249 250  264 375 593  154 264 423  155 364 527  246 364 527  63 247 569  181 358 598  77 482 587  169 232 356  85 278 637  159 577 578  27 216 462  160 621 622  98 315 400  162 305 580  161 393 580  56 164 301  52 163 298  301 362 588  163 298 362  201 365 391  165 321 619  166 327 584  41 455 473  232 356 453  158 342 557  4 342 557  170 443 590  170 510 620  83 285 291  171 285 629  148 427 650  48 377 605  109 309 331  175 413 523  174 357 465  174 413 523  175 402 633  109 309 310  85 610 642  61 369 379  99 205 385  192 326 386  5 148 337  112 179 369  179 369 565  96 180 336  54 189 360  181 358 392  52 389 615  227 438 494  9 183 353  57 286 287  171 285 291  83 285 378  146 383 541  58 185 351  11 186 352  97 258 352  12 307 420  187 318 636  54 180 359  54 188 359  189 360 495  9 243 353  93 446 554  56 288 301  86 306 307  35 169 356  99 386 647  6 192 326  34 414 641  157 592 612  13 194 281  51 213 520  66 214 441  59 296 475  18 181 598  30 197 410  88 249 250  72 198 374  198 471 603  129 411 500  95 199 640  200 411 500  60 339 411  60 201 364  201 246 364  202 515 585  107 328 355  62 203 272  62 204 272  22 204 277  204 272 277  75 559 638  151 205 606  68 223 469  68 206 273  207 333 532  141 238 376  46 320 589  208 320 589  209 361 587  47 209 361  124 244 455  65 245 454  65 211 381  211 293 381  212 354 371  38 211 518  181 368 392  7 111 348  7 214 348  108 275 425  108 349 425  216 648 649  66 214 421  334 474 644  107 217 334  64 218 266  119 220 432  19 219 409  127 469 470  38 293 431  330 439 652  105 221 337  81 255 330  130 401 496  40 394 445  223 469 470  223 575 625  32 224 517  142 422 466  225 315 400  69 225 315  29 289 373  70 226 556  10 118 324  10 227 324  97 258 555  27 228 314  70 229 416  229 313 416  86 230 308  231 426 545  79 231 426  232 453 608  158 232 608  141 265 513  233 575 596  45 355 560  139 328 355  157 563 612  77 490 607  284 544 547  78 236 544  131 343 613  23 237 370  108 349 350  28 215 349  67 239 442  22 240 508  240 398 399  67 240 399  112 398 399  36 241 397  172 538 539  81 271 538  189 460 495  117 244 472  124 244 406  116 212 245  65 212 245  75 246 559  246 558 559  63 207 247  80 207 247  33 402 633  33 249 402  30 250 410  88 250 410  250 375 593  154 264 375  84 251 384  126 294 384  26 480 646  26 252 341  110 478 581  76 274 550  261 498 503  73 254 497  105 330 439  255 330 652  130 374 491  74 256 496  257 395 645  115 303 395  11 428 446  72 259 503  261 503 504  130 256 496  72 374 491  132 498 503  23 261 498  129 411 501  129 263 499  73 263 412  76 274 581  31 153 300  153 264 300  133 409 511  133 267 549  58 178 266  351 383 541  267 370 624  71 267 624  82 268 493  166 387 493  138 524 525  42 269 524  166 387 457  16 270 456  172 271 538  44 271 537  25 278 634  272 278 637  203 273 548  127 203 273  254 274 550  73 254 274  216 276 536  66 275 648  27 216 276  76 276 536  176 379 642  22 398 529  278 322 345  85 278 322  95 279 640  39 603 640  113 280 404  309 331 632  146 543 547  13 281 543  231 282 366  79 231 282  135 481 590  79 283 516  143 284 544  43 231 545  14 285 635  91 295 297  91 297 566  183 531 611  90 287 531  190 428 446  94 298 329  94 289 290  29 225 290  102 225 290  170 481 590  83 235 620  139 292 414  84 251 433  84 293 433  41 210 294  84 210 294  32 224 332  32 297 332  91 305 440  91 286 305  90 287 566  90 297 566  52 182 389  329 389 615  120 299 429  8 299 429  167 573 574  31 300 573  298 362 588  164 301 362  135 283 516  42 515 585  74 303 617  104 579 617  136 304 480  69 227 434  59 162 440  162 305 440  35 191 306  191 306 307  87 318 420  87 420 522  168 403 591  86 403 591  15 331 632  113 309 632  114 309 310  114 310 323  113 241 311  36 241 311  228 312 314  70 228 312  313 317 338  98 313 317  314 577 578  27 314 578  160 621 623  69 315 622  107 217 316  107 316 355  160 340 623  98 317 621  167 573 602  87 323 483  18 196 319  196 475 476  281 592 612  46 320 564  120 419 430  50 327 419  158 342 609  85 322 610  248 323 483  33 248 323  118 324 479  118 367 479  174 325 357  88 325 413  151 551 552  6 326 551  299 327 419  125 299 327  107 328 540  49 328 540  94 290 329  102 290 329  81 221 330  105 221 330  15 354 604  15 331 484  149 486 487  149 224 332  80 207 333  207 376 532  42 334 585  107 334 585  53 111 335  214 348 421  206 273 601  96 206 336  5 337 530  105 337 530  200 338 500  100 338 339  200 338 339  200 339 411  26 252 467  26 340 467  99 341 385  177 386 647  188 342 626  4 188 342  133 267 343  40 401 445  122 344 458  64 344 521  180 345 616  101 180 345  62 204 346  104 204 346  104 204 347  22 204 347  348 421 492  111 348 492  349 350 595  238 350 595  71 237 350  108 237 350  144 351 567  58 351 567  97 314 577  97 352 577  243 353 487  173 561 604  106 452 561  234 553 560  45 553 560  35 306 356  168 306 356  20 325 357  20 123 357  156 358 598  80 247 597  101 342 626  101 180 359  54 180 360  96 180 360  145 361 651  47 145 361  0 163 362  0 164 362  3 121 363  3 145 363  60 339 628  60 364 628  21 201 618  201 365 618  16 251 380  16 366 380  55 118 367  136 367 479  51 213 392  51 368 392  176 529 643  176 369 379  131 261 370  23 261 370  65 211 371  65 212 371  51 372 520  195 372 520  93 289 373  147 554 555  130 256 374  8 256 374  30 154 375  30 250 375  63 207 376  141 233 512  173 484 605  109 331 484  83 209 378  184 378 528  158 322 610  61 453 608  119 251 380  64 432 521  84 210 381  65 210 381  28 215 382  103 215 382  344 458 653  43 383 653  126 384 456  126 270 456  75 252 385  205 444 638  177 367 570  177 386 570  126 270 387  82 270 387  178 218 614  64 218 388  102 329 389  10 182 438  36 308 390  230 308 390  199 411 501  95 199 391  80 358 392  80 213 392  1 393 542  40 343 394  133 343 394  239 442 464  37 257 395  7 195 396  103 213 520  112 179 397  36 308 639  112 398 643  398 529 643  241 397 399  67 241 399  29 225 400  29 226 400  130 260 401  40 260 401  88 402 413  175 402 413  308 403 639  179 403 565  67 241 404  113 241 404  44 405 537  123 405 537  117 257 406  37 257 406  8 256 407  117 257 485  32 295 408  32 466 517  133 265 409  19 265 409  197 325 410  88 325 410  199 391 411  60 391 411  229 448 463  110 412 448  48 377 523  175 377 523  193 234 519  139 355 560  139 328 415  49 328 415  98 226 416  70 226 416  37 239 417  116 239 417  116 239 418  67 239 418  50 321 419  321 419 430  86 307 522  307 420 522  66 421 649  137 421 649  142 422 596  63 422 596  2 423 546  226 424 556  29 226 424  66 275 425  66 215 425  143 283 426  79 283 426  44 271 650  44 427 650  190 450 451  190 446 451  198 374 429  8 374 429  95 279 430  120 279 430  38 220 431  119 220 431  119 380 521  119 432 521  293 431 433  119 431 433  69 304 434  136 304 434  186 435 576  159 435 576  165 365 618  128 437 535  82 269 437  128 269 437  182 389 438  102 389 438  105 220 439  38 220 439  91 296 440  59 296 440  214 396 441  103 396 441  115 395 464  115 442 464  170 291 443  49 291 443  152 316 444  45 316 444  134 394 445  222 445 506  11 258 446  258 446 554  193 234 505  193 447 505  17 263 448  17 229 448  37 417 449  245 417 449  288 450 451  56 288 450  93 446 451  93 288 451  173 242 561  242 452 561  168 356 453  61 369 565  65 210 454  124 454 455  210 454 455  41 210 455  251 384 456  16 251 456  41 294 457  126 294 457  43 231 458  122 231 458  24 283 459  143 283 459  243 460 495  9 243 460  175 377 461  109 377 461  137 335 594  137 462 594  70 228 463  110 228 463  37 239 464  37 395 464  172 465 537  48 242 539  150 408 466  32 408 466  155 467 571  155 252 467  127 203 468  62 203 468  68 273 469  127 273 469  219 468 470  19 219 470  198 429 471  120 429 471  407 472 568  117 407 472  327 473 584  125 327 473  128 474 644  128 269 474  92 319 476  196 319 476  296 475 476  92 296 476  15 212 477  116 212 477  110 228 478  27 228 478  324 434 479  136 434 479  177 367 646  136 367 646  135 283 481  24 283 481  77 482 607  209 482 587  87 318 483  167 318 483  109 377 484  377 484 605  117 407 485  256 407 485  96 206 486  149 206 486  149 332 487  90 332 487  149 206 488  68 206 488  64 344 489  64 266 489  157 490 600  77 490 600  72 260 491  130 260 491  137 335 492  111 335 492  50 327 493  166 327 493  102 438 494  102 225 494  96 486 495  243 486 495  222 401 496  74 222 496  132 262 497  73 262 497  254 497 498  23 254 498  73 262 499  129 262 499  17 263 500  129 263 500  129 262 501  39 262 501  39 262 502  132 262 502  259 502 503  132 502 503  40 260 613  72 260 504  326 551 552  234 505 553  134 346 506  104 346 506  62 346 507  134 346 507  240 442 508  115 442 508  68 223 509  142 575 596  170 481 510  24 481 510  134 507 511  134 394 511  141 376 512  63 376 512  141 233 513  233 513 625  141 265 514  71 265 514  42 302 515  135 302 515  135 302 516  302 516 526  224 509 517  142 509 517  211 371 518  106 371 518  234 414 519  34 414 519  103 396 520  195 396 520  122 344 521  122 380 521  114 230 562  86 230 522  174 465 523  48 523 539  138 302 524  42 302 524  82 270 525  138 270 525  138 282 526  79 282 526  75 252 527  155 252 527  209 378 528  47 209 528  22 277 529  176 277 529  218 388 530  105 388 530  183 353 531  90 353 531  238 376 532  28 349 595  533 534 599  150 533 534  92 408 534  150 408 534  128 436 535  165 535 618  275 536 648  275 536 627  357 465 537  123 357 537  81 242 538  242 538 539  465 523 539  172 465 539  202 443 540  49 443 540  146 284 547  162 542 580  393 542 580  146 541 543  13 543 583  236 459 544  143 459 544  43 284 545  143 284 545  264 423 546  153 264 546  281 543 547  78 281 547  25 548 634  203 548 634  71 265 549  133 265 549  108 253 627  253 254 550  447 505 551  6 447 551  99 205 552  151 205 552  151 553 606  45 553 606  147 373 554  93 373 554  97 312 555  147 312 555  147 312 556  70 312 556  4 169 557  169 232 557  217 316 582  152 316 582  152 444 638  152 559 638  139 414 560  234 414 560  106 354 561  354 561 604  230 522 562  87 522 562  236 490 563  78 236 563  194 281 592  46 194 564  61 453 565  168 453 565  91 286 566  286 287 566  266 489 567  58 266 567  125 472 568  125 299 568  247 533 569  150 533 569  55 192 570  55 367 570  100 339 571  155 364 628  300 573 574  187 572 602  572 573 602  31 572 573  89 248 574  167 248 574  142 509 575  223 509 575  53 335 576  159 335 576  352 435 577  159 435 577  462 578 594  27 462 578  115 303 579  303 579 617  161 286 580  286 305 580  274 412 581  110 412 581  21 436 582  217 436 582  541 543 583  185 541 583  41 457 584  166 457 584  202 540 585  107 540 585  138 270 586  16 270 586  157 320 600  208 320 587  94 301 588  94 298 588  121 363 589  208 363 589  202 515 590  135 515 590  168 306 591  86 306 591  194 564 592  157 564 592  89 300 593  264 300 593  159 578 594  159 335 594  28 532 595  238 532 595  233 512 596  63 512 596  80 358 597  156 358 597  18 319 598  156 319 598  156 319 599  92 319 599  320 587 600  77 587 600  206 336 601  25 336 601  167 318 602  187 318 602  39 502 603  259 502 603  15 484 604  173 484 604  48 242 605  173 242 605  205 444 606  45 444 606  235 482 607  235 236 607  61 379 608  158 379 608  158 322 609  101 322 609  158 379 610  379 610 642  287 531 611  57 287 611  78 563 612  78 281 612  260 504 613  131 504 613  218 530 614  5 530 614  52 298 615  298 329 615  25 336 616  180 336 616  222 506 617  104 506 617  436 535 618  21 436 618  50 268 619  165 268 619  83 291 620  170 291 620  315 621 622  98 315 621  160 304 622  69 304 622  317 621 623  100 317 623  237 370 624  71 237 624  223 470 625  19 470 625  101 359 626  188 359 626  253 550 627  76 550 627  155 571 628  339 571 628  14 140 629  171 292 630  171 629 630  140 629 630  49 291 631  171 291 631  15 280 632  113 280 632  175 461 633  33 461 633  272 278 634  203 272 634  285 378 635  184 378 635  318 420 636  12 420 636  85 277 637  272 277 637  205 385 638  75 385 638  36 397 639  179 397 639  199 501 640  39 501 640  292 414 641  140 292 641  176 277 642  85 277 642  176 369 643  112 369 643  217 436 644  128 436 644  74 485 645  74 303 645  26 341 646  177 341 646  177 341 647  99 341 647  216 536 648  66 648 649  216 462 649  137 462 649  148 221 650  221 271 650  208 363 651  145 363 651  38 439 652  38 255 652  144 344 653  144 383 653  </DataArray>
<DataArray  type="UInt32"  Name="offsets"  format="ascii">3 6 9 12 15 18 21 24 27 30 33 36 39 42 45 48 51 54 57 60 63 66 69 72 75 78 81 84 87 90 93 96 99 102 105 108 111 114 117 120 123 126 129 132 135 138 141 144 147 150 153 156 159 162 165 168 171 174 177 180 183 186 189 192 195 198 201 204 207 210 213 216 219 222 225 228 231 234 237 240 243 246 249 252 255 258 261 264 267 270 273 276 279 282 285 288 291 294 297 300 303 306 309 312 315 318 321 324 327 330 333 336 339 342 345 348 351 354 357 360 363 366 369 372 375 378 381 384 387 390 393 396 399 402 405 408 411 414 417 420 423 426 429 432 435 438 441 444 447 450 453 456 459 462 465 468 471 474 477 480 483 486 489 492 495 498 501 504 507 510 513 516 519 522 525 528 531 534 537 540 543 546 549 552 555 558 561 564 567 570 573 576 579 582 585 588 591 594 597 600 603 606 609 612 615 618 621 624 627 630 633 636 639 642 645 648 651 654 657 660 663 666 669 672 675 678 681 684 687 690 693 696 699 702 705 708 711 714 717 720 723 726 729 732 735 738 741 744 747 750 753 756 759 762 765 768 771 774 777 780 783 786 789 792 795 798 801 804 807 810 813 816 819 822 825 828 831 834 837 840 843 846 849 852 855 858 861 864 867 870 873 876 879 882 885 888 891 894 897 900 903 906 909 912 915 918 921 924 927 930 933 936 939 942 945 948 951 954 957 960 963 966 969 972 975 978 981 984 987 990 993 996 999 1002 1005 1008 1011 1014 1017 1020 1023 1026 1029 1032 1035 1038 1041 1044 1047 1050 1053 1056 1059 1062 1065 1068 1071 1074 1077 1080 1083 1086 1089 1092 1095 1098 1101 1104 1107 1110 1113 1116 1119 1122 1125 1128 1131 1134 1137 1140 1143 1146 1149 1152 1155 1158 1161 1164 1167 1170 1173 1176 1179 1182 1185 1188 1191 1194 1197 1200 1203 1206 1209 1212 1215 1218 1221 1224 1227 1230 1233 1236 1239 1242 1245 1248 1251 1254 1257 1260 1263 1266 1269 1272 1275 1278 1281 1284 1287 1290 1293 1296 1299 1302 1305 1308 1311 1314 1317 1320 1323 1326 1329 1332 1335 1338 1341 1344 1347 1350 1353 1356 1359 1362 1365 1368 1371 1374 1377 1380 1383 1386 1389 1392 1395 1398 1401 1404 1407 1410 1413 1416 1419 1422 1425 1428 1431 1434 1437 1440 1443 1446 1449 1452 1455 1458 1461 1464 1467 1470 1473 1476 1479 1482 1485 1488 1491 1494 1497 1500 1503 1506 1509 1512 1515 1518 1521 1524 1527 1530 1533 1536 1539 1542 1545 1548 1551 1554 1557 1560 1563 1566 1569 1572 1575 1578 1581 1584 1587 1590 1593 1596 1599 1602 1605 1608 1611 1614 1617 1620 1623 1626 1629 1632 1635 1638 1641 1644 1647 1650 1653 1656 1659 1662 1665 1668 1671 1674 1677 1680 1683 1686 1689 1692 1695 1698 1701 1704 1707 1710 1713 1716 1719 1722 1725 1728 1731 1734 1737 1740 1743 1746 1749 1752 1755 1758 1761 1764 1767 1770 1773 1776 1779 1782 1785 1788 1791 1794 1797 1800 1803 1806 1809 1812 1815 1818 1821 1824 1827 1830 1833 1836 1839 1842 1845 1848 1851 1854 1857 1860 1863 1866 1869 1872 1875 1878 1881 1884 1887 1890 1893 1896 1899 1902 1905 1908 1911 1914 1917 1920 1923 1926 1929 1932 1935 1938 1941 1944 1947 1950 1953 1956 1959 1962 1965 1968 1971 1974 1977 1980 1983 1986 1989 1992 1995 1998 2001 2004 2007 2010 2013 2016 2019 2022 2025 2028 2031 2034 2037 2040 2043 2046 2049 2052 2055 2058 2061 2064 2067 2070 2073 2076 2079 2082 2085 2088 2091 2094 2097 2100 2103 2106 2109 2112 2115 2118 2121 2124 2127 2130 2133 2136 2139 2142 2145 2148 2151 2154 2157 2160 2163 2166 2169 2172 2175 2178 2181 2184 2187 2190 2193 2196 2199 2202 2205 2208 2211 2214 2217 2220 2223 2226 2229 2232 2235 2238 2241 2244 2247 2250 2253 2256 2259 2262 2265 2268 2271 2274 2277 2280 2283 2286 2289 2292 2295 2298 2301 2304 2307 2310 2313 2316 2319 2322 2325 2328 2331 2334 2337 2340 2343 2346 2349 2352 2355 2358 2361 2364 2367 2370 2373 2376 2379 2382 2385 2388 2391 2394 2397 2400 2403 2406 2409 2412 2415 2418 2421 2424 2427 2430 2433 2436 2439 2442 2445 2448 2451 2454 2457 2460 2463 2466 2469 2472 2475 2478 2481 2484 2487 2490 2493 2496 2499 2502 2505 2508 2511 2514 2517 2520 2523 2526 2529 2532 2535 2538 2541 2544 2547 2550 2553 2556 2559 2562 2565 2568 2571 2574 2577 2580 2583 2586 2589 2592 2595 2598 2601 2604 2607 2610 2613 2616 2619 2622 2625 2628 2631 2634 2637 2640 2643 2646 2649 2652 2655 2658 2661 2664 2667 2670 2673 2676 2679 2682 2685 2688 2691 2694 2697 2700 2703 2706 2709 2712 2715 2718 2721 2724 2727 2730 2733 2736 2739 2742 2745 2748 2751 2754 2757 2760 2763 2766 2769 2772 2775 2778 2781 2784 2787 2790 2793 2796 2799 2802 2805 2808 2811 2814 2817 2820 2823 2826 2829 2832 2835 2838 2841 2844 2847 2850 2853 2856 2859 2862 2865 2868 2871 2874 2877 2880 2883 2886 2889 2892 2895 2898 2901 2904 2907 2910 2913 2916 2919 2922 2925 2928 2931 2934 2937 2940 2943 2946 2949 2952 2955 2958 2961 2964 2967 2970 2973 2976 2979 2982 2985 2988 2991 2994 2997 3000 3003 3006 3009 3012 3015 3018 3021 3024 3027 3030 3033 3036 3039 3042 3045 3048 3051 3054 3057 3060 3063 3066 3069 3072 3075 3078 3081 3084 3087 3090 3093 3096 3099 3102 3105 3108 3111 3114 3117 3120 3123 3126 3129 3132 3135 3138 3141 3144 3147 3150 3153 3156 3159 3162 3165 3168 3171 3174 3177 3180 3183 3186 3189 3192 3195 3198 3201 3204 3207 3210 3213 3216 3219 3222 3225 3228 3231 3234 3237 3240 3243 3246 3249 3252 3255 3258 3261 3264 3267 3270 3273 3276 3279 3282 3285 3288 3291 3294 3297 3300 3303 3306 3309 3312 3315 3318 3321 3324 3327 3330 3333 3336 3339 3342 3345 3348 3351 3354 3357 3360 3363 3366 3369 3372 3375 3378 3381 3384 3387 3390 3393 3396 3399 3402 3405 3408 3411 3414 3417 3420 3423 3426 3429 3432 3435 3438 3441 3444 3447 3450 3453 3456 3459 3462 3465 3468 3471 3474 3477 3480 3483 3486 3489 3492 3495 3498 3501 3504 3507 3510 3513 3516 3519 3522 3525 3528 3531 3534 3537 3540 3543 3546 3549 3552 3555 3558 3561 3564 3567 3570 3573 3576 3579 3582 3585 3588 3591 3594 3597 3600 3603 3606 3609 3612 3615 3618 3621 3624 3627 3630 3633 3636 3639 3642 3645 3648 3651 3654 3657 3660 </DataArray>
<DataArray  type="UInt8"  Name="types"  format="ascii">5 5 5 5 5 5 5 5 5 5 5 5 5 5 5 5 5 5 5 5 5 5 5 5 5 5 5 5 5 5 5 5 5 5 5 5 5 5 5 5 5 5 5 5 5 5 5 5 5 5 5 5 5 5 5 5 5 5 5 5 5 5 5 5 5 5 5 5 5 5 5 5 5 5 5 5 5 5 5 5 5 5 5 5 5 5 5 5 5 5 5 5 5 5 5 5 5 5 5 5 5 5 5 5 5 5 5 5 5 5 5 5 5 5 5 5 5 5 5 5 5 5 5 5 5 5 5 5 5 5 5 5 5 5 5 5 5 5 5 5 5 5 5 5 5 5 5 5 5 5 5 5 5 5 5 5 5 5 5 5 5 5 5 5 5 5 5 5 5 5 5 5 5 5 5 5 5 5 5 5 5 5 5 5 5 5 5 5 5 5 5 5 5 5 5 5 5 5 5 5 5 5 5 5 5 5 5 5 5 5 5 5 5 5 5 5 5 5 5 5 5 5 5 5 5 5 5 5 5 5 5 5 5 5 5 5 5 5 5 5 5 5 5 5 5 5 5 5 5 5 5 5 5 5 5 5 5 5 5 5 5 5 5 5 5 5 5 5 5 5 5 5 5 5 5 5 5 5 5 5 5 5 5 5 5 5 5 5 5 5 5 5 5 5 5 5 5 5 5 5 5 5 5 5 5 5 5 5 5 5 5 5 5 5 5 5 5 5 5 5 5 5 5 5 5 5 5 5 5 5 5 5 5 5 5 5 5 5 5 5 5 5 5 5 5 5 5 5 5 5 5 5 5 5 5 5 5 5 5 5 5 5 5 5 5 5 5 5 5 5 5 5 5 5 5 5 5 5 5 5 5 5 5 5 5 5 5 5 5 5 5 5 5 5 5 5 5 5 5 5 5 5 5 5 5 5 5 5 5 5 5 5 5 5 5 5 5 5 5 5 5 5 5 5 5 5 5 5 5 5 5 5 5 5 5 5 5 5 5 5 5 5 5 5 5 5 5 5 5 5 5 5 5 5 5 5 5 5 5 5 5 5 5 5 5 5 5 5 5 5 5 5 5 5 5 5 5 5 5 5 5 5 5 5 5 5 5 5 5 5 5 5 5 5 5 5 5 5 5 5 5 5 5 5 5 5 5 5 5 5 5 5 5 5 5 5 5 5 5 5 5 5 5 5 5 5 5 5 5 5 5 5 5 5 5 5 5 5 5 5 5 5 5 5 5 5 5 5 5 5 5 5 5 5 5 5 5 5 5 5 5 5 5 5 5 5 5 5 5 5 5 5 5 5 5 5 5 5 5 5 5 5 5 5 5 5 5 5 5 5 5 5 5 5 5 5 5 5 5 5 5 5 5 5 5 5 5 5 5 5 5 5 5 5 5 5 5 5 5 5 5 5 5 5 5 5 5 5 5 5 5 5 5 5 5 5 5 5 5 5 5 5 5 5 5 5 5 5 5 5 5 5 5 5 5 5 5 5 5 5 5 5 5 5 5 5 5 5 5 5 5 5 5 5 5 5 5 5 5 5 5 5 5 5 5 5 5 5 5 5 5 5 5 5 5 5 5 5 5 5 5 5 5 5 5 5 5 5 5 5 5 5 5 5 5 5 5 5 5 5 5 5 5 5 5 5 5 5 5 5 5 5 5 5 5 5 5 5 5 5 5 5 5 5 5 5 5 5 5 5 5 5 5 5 5 5 5 5 5 5 5 5 5 5 5 5 5 5 5 5 5 5 5 5 5 5 5 5 5 5 5 5 5 5 5 5 5 5 5 5 5 5 5 5 5 5 5 5 5 5 5 5 5 5 5 5 5 5 5 5 5 5 5 5 5 5 5 5 5 5 5 5 5 5 5 5 5 5 5 5 5 5 5 5 5 5 5 5 5 5 5 5 5 5 5 5 5 5 5 5 5 5 5 5 5 5 5 5 5 5 5 5 5 5 5 5 5 5 5 5 5 5 5 5 5 5 5 5 5 5 5 5 5 5 5 5 5 5 5 5 5 5 5 5 5 5 5 5 5 5 5 5 5 5 5 5 5 5 5 5 5 5 5 5 5 5 5 5 5 5 5 5 5 5 5 5 5 5 5 5 5 5 5 5 5 5 5 5 5 5 5 5 5 5 5 5 5 5 5 5 5 5 5 5 5 5 5 5 5 5 5 5 5 5 5 5 5 5 5 5 5 5 5 5 5 5 5 5 5 5 5 5 5 5 5 5 5 5 5 5 5 5 5 5 5 5 5 5 5 5 5 5 5 5 5 5 5 5 5 5 5 5 5 5 5 5 5 5 5 5 5 5 5 5 5 5 5 5 5 5 5 5 5 5 5 5 5 5 5 5 5 5 5 5 5 5 5 5 5 5 5 5 5 5 5 5 5 5 5 5 5 5 5 5 5 5 5 5 5 5 5 5 5 5 5 5 5 5 5 5 5 5 5 5 5 5 5 5 5 5 5 5 5 5 5 5 5 5 5 5 5 5 5 5 5 5 5 5 5 5 5 5 5 5 5 5 5 5 5 5 5 5 5 5 5 5 5 5 5 5 5 5 5 5 5 5 5 5 5 5 5 5 5 5 5 5 5 5 5 5 5 5 5 5 5 5 5 5 5 5 5 5 5 5 5 5 5 5 5 5 5 5 5 5 5 5 5 5 5 5 5 5 5 5 5 5 5 5 5 5 5 5 5 5 5 5 5 5 5 5 5 5 5 5 5 5 5 5 5 5 5 5 5 5 5 5 5 5 5 5 </DataArray>
</Cells>
<PointData  Scalars=" mean stress"> 
<DataArray  type="Float64"  Name=" mean stress"  format="ascii">1.6565332682662733e+09  1.2893119768644087e+09  1.2891331832708673e+09  1.6581387239145238e+09  1.2888194470263014e+09  1.3979711404951236e+09  1.6584110504859197e+09  1.3988000864921696e+09  1.3990046994172542e+09  1.2891945128930910e+09  1.6575723728929536e+09  1.5219342731161771e+09  1.2893216301858239e+09  1.5265672423254466e+09  1.6584377598185022e+09  1.3337896534755790e+09  1.4561053959701903e+09  1.4981931582171912e+09  1.3179637480103302e+09  1.3288819732352681e+09  1.3182506583919475e+09  1.5178154799532096e+09  1.3145974449390829e+09  1.3987732495515590e+09  1.5591228393827608e+09  1.2970958076379259e+09  1.5887301939199679e+09  1.4546275974332061e+09  1.3604111057254062e+09  1.5723229719967499e+09  1.2961410893799584e+09  1.2889958215207884e+09  1.3007413792411625e+09  1.3014347705640237e+09  1.6604156722807567e+09  1.2891397796388621e+09  1.3024165216747377e+09  1.3524318198965592e+09  1.3856454916653383e+09  1.4472993130782900e+09  1.3600937726092644e+09  1.4071768022610908e+09  1.5244465131556883e+09  1.4908740166138058e+09  1.3520658628972111e+09  1.5941742818831353e+09  1.5942679132626045e+09  1.6539176739965458e+09  1.3280029917732780e+09  1.5942264465657215e+09  1.4513626162716749e+09  1.3529416112523911e+09  1.6597652933769951e+09  1.4559757249268851e+09  1.2894223587013767e+09  1.6610717628023214e+09  1.5966834605051830e+09  1.2889625102809112e+09  1.4572298336631446e+09  1.2958459270081418e+09  1.5090033110595062e+09  1.2944979206073816e+09  1.3165212004314005e+09  1.3263828361658192e+09  1.4307529838748426e+09  1.3699708717159917e+09  1.4026956784758124e+09  1.3231316560495846e+09  1.3039345717889318e+09  1.6015714588625574e+09  1.5079484096560636e+09  1.3605410885416665e+09  1.4007247099295180e+09  1.4473847288423586e+09  1.3589146910060914e+09  1.5635903487537794e+09  1.4275135022338009e+09  1.6006655624281752e+09  1.5384354760543075e+09  1.5051502736395972e+09  1.3362828151287224e+09  1.3583126736927152e+09  1.4726334436739390e+09  1.6135623937082219e+09  1.4086639171812124e+09  1.2996149238407748e+09  1.2916082935281057e+09  1.2928171199853592e+09  1.3043844640465114e+09  1.2930836771487854e+09  1.2913067283106925e+09  1.2929790451073320e+09  1.3046870189929988e+09  1.5586883630705106e+09  1.6120180050382128e+09  1.4727972037181139e+09  1.2915133109349935e+09  1.5005515132458448e+09  1.5450065957300019e+09  1.6171925150244179e+09  1.5426048901184523e+09  1.2909889200146923e+09  1.6223856011896350e+09  1.3719442042635763e+09  1.3314541614650381e+09  1.3923096194953468e+09  1.3548753259691472e+09  1.5654295379261160e+09  1.3872198566522253e+09  1.3162590099617476e+09  1.4669269087830257e+09  1.4277118407309902e+09  1.3061894005851595e+09  1.3166824800615072e+09  1.3016200811336989e+09  1.3342554021774235e+09  1.3415155396007383e+09  1.3780612464723399e+09  1.6614574876425445e+09  1.4206545614312615e+09  1.4335167734877121e+09  1.6305234447312808e+09  1.4567887420399890e+09  1.3321301107003264e+09  1.3771480057916570e+09  1.4098802110944560e+09  1.4382255750592785e+09  1.3119968789327714e+09  1.5060170475055096e+09  1.4701952724252739e+09  1.3800550122717547e+09  1.3792446096650801e+09  1.4247816945784953e+09  1.3487877866495485e+09  1.3363237871699212e+09  1.5408069663076675e+09  1.6242270168415086e+09  1.4306766882274358e+09  1.4896972715007799e+09  1.6188037144739063e+09  1.6578613191755610e+09  1.3383609437678318e+09  1.3111937275148165e+09  1.5221120725127680e+09  1.4612557178561206e+09  1.6593252500954795e+09  1.5043540678316882e+09  1.5322253654824243e+09  1.3766138157023826e+09  1.2948492045003304e+09  1.3122777262344024e+09  1.6248020641317000e+09  1.5554279062609189e+09  1.2891334474771488e+09  1.2913995344026082e+09  1.5486411197054639e+09  1.3193642887490494e+09  1.5728096593989160e+09  1.2924574155349450e+09  1.4658163563226707e+09  1.5704417408032012e+09  1.2890070332470016e+09  1.2912706010243239e+09  1.6590372984871533e+09  1.6295925550767019e+09  1.4835064158608408e+09  1.4362973854975326e+09  1.2909530783703680e+09  1.2912793236313560e+09  1.2890227484204867e+09  1.5821805684827371e+09  1.6297222545621014e+09  1.3398434948732059e+09  1.3345339293199437e+09  1.3186212396391315e+09  1.3122408231073825e+09  1.3019422730286942e+09  1.6233430774654155e+09  1.4297740386989257e+09  1.2982566375615616e+09  1.2906526445242112e+09  1.3321409460346994e+09  1.6607722581588964e+09  1.2890268459460676e+09  1.6559765945096879e+09  1.4855649036999342e+09  1.4882954587099252e+09  1.2891804414633560e+09  1.2890993362974501e+09  1.2891563964168458e+09  1.5579217419381132e+09  1.2891013985055187e+09  1.6596339696443946e+09  1.6565712851183770e+09  1.5563232297784028e+09  1.3778340123151445e+09  1.3060308988325999e+09  1.3046228841345921e+09  1.4144261910531793e+09  1.4765105590855067e+09  1.5053513077118075e+09  1.5071142587110801e+09  1.5586838806835322e+09  1.3075019551993806e+09  1.3179698231934378e+09  1.5977048737979405e+09  1.2965172737598944e+09  1.3382887203755732e+09  1.6260411910148277e+09  1.6355297229631374e+09  1.3916465596976860e+09  1.3746694868164673e+09  1.3506571104615855e+09  1.3536971915861044e+09  1.3969237805891039e+09  1.3801343239560962e+09  1.4317043950042303e+09  1.5393720915869257e+09  1.4158278251266730e+09  1.3259905343851986e+09  1.4051040512005904e+09  1.3723638867305717e+09  1.3508443355447068e+09  1.3138940174092979e+09  1.3000330209931846e+09  1.5937048531264830e+09  1.5415389663255844e+09  1.6335891191730504e+09  1.4818178087270131e+09  1.4960911549830515e+09  1.2951559318216290e+09  1.4811490544434369e+09  1.2902672766865664e+09  1.3240214293902893e+09  1.6381568473797288e+09  1.5887113701498842e+09  1.5608115099549990e+09  1.3810329992148845e+09  1.3540537840989661e+09  1.3364221336463792e+09  1.3204230141445394e+09  1.3113517807448390e+09  1.3418242386267779e+09  1.2901703824195135e+09  1.3899741914452288e+09  1.3569489077203727e+09  1.5338226600351894e+09  1.3253814367576306e+09  1.2950085863579385e+09  1.2988564298015163e+09  1.2970663756663520e+09  1.4324469431540964e+09  1.5746058352302506e+09  1.4038806439273458e+09  1.4230837644222286e+09  1.3678163098704565e+09  1.3798502069312716e+09  1.3600248879991710e+09  1.5255598840553255e+09  1.4203114911361125e+09  1.3781159037247083e+09  1.3970025197624567e+09  1.4477244912978966e+09  1.4726446940986261e+09  1.2903036551883125e+09  1.3436938339454851e+09  1.4367463079477587e+09  1.3641841843121455e+09  1.4693475607160752e+09  1.4973998131461446e+09  1.4641571634111223e+09  1.3538414721936333e+09  1.3082669667041359e+09  1.3032598514976516e+09  1.4401776981415586e+09  1.4068029369158568e+09  1.4431882311151788e+09  1.3069232876715906e+09  1.2999159703510182e+09  1.4500402171246581e+09  1.3286859147791522e+09  1.5376811475683541e+09  1.4803157035365167e+09  1.5310420020081687e+09  1.5097577645961118e+09  1.6400888595544684e+09  1.2899255622549319e+09  1.2900406525500150e+09  1.5871476976833205e+09  1.5803819042552040e+09  1.6012041245966284e+09  1.6082207449743435e+09  1.6400653156960654e+09  1.3931277534886706e+09  1.4138116412846997e+09  1.2985611119502704e+09  1.2979295596362281e+09  1.2946820466804950e+09  1.6447925006495445e+09  1.4173081634977779e+09  1.2899501645909927e+09  1.6143201206390121e+09  1.5144828498531110e+09  1.3430736514537072e+09  1.5969115437208602e+09  1.2909581932441473e+09  1.2895980034448853e+09  1.2896037273497570e+09  1.2958138722734625e+09  1.3114315578776503e+09  1.3059213310516589e+09  1.3067448069477923e+09  1.5040123138286614e+09  1.5210712196425254e+09  1.4815675397529674e+09  1.5737373955977499e+09  1.5656763667720695e+09  1.5407275286230872e+09  1.2899643123105443e+09  1.3103235056857944e+09  1.6032343979772055e+09  1.4665873874973233e+09  1.2945520533848143e+09  1.2978012599511175e+09  1.6486660505923274e+09  1.3115445697697713e+09  1.6480746368217306e+09  1.4295878644511757e+09  1.5927116261849318e+09  1.6275121632272213e+09  1.3753673819451134e+09  1.3216154607204051e+09  1.2955607681625297e+09  1.3493800631179628e+09  1.5385925506133175e+09  1.4464035120948761e+09  1.2932399047591741e+09  1.3858976166993496e+09  1.5191960315561271e+09  1.5237787458882744e+09  1.5701468171158426e+09  1.6024223053766840e+09  1.2899432757309916e+09  1.3605166778973806e+09  1.4509449040245039e+09  1.2939639001878080e+09  1.3275839975197973e+09  1.3248211022785590e+09  1.4128388941203730e+09  1.3748363626804588e+09  1.3686623544688413e+09  1.4715907448814523e+09  1.5028958730410283e+09  1.2896368605021217e+09  1.3463407672369254e+09  1.5949202071498587e+09  1.2894438685444677e+09  1.3245865596675532e+09  1.3286779256723104e+09  1.2894463120254269e+09  1.2892259720394681e+09  1.6472539637582655e+09  1.6472377902184544e+09  1.6496748121125846e+09  1.5258247909314690e+09  1.4881838371693482e+09  1.4633944577350669e+09  1.6423319555597630e+09  1.3452887047710264e+09  1.2994429850662789e+09  1.3825097439767501e+09  1.3595533544459121e+09  1.3591812656849785e+09  1.5548630344987290e+09  1.3951598937033653e+09  1.2925542172240572e+09  1.3402430401604755e+09  1.3192885538509474e+09  1.6436658152808974e+09  1.2965545566737316e+09  1.4407678737134273e+09  1.3861052967350521e+09  1.3647506437262592e+09  1.4852942127933705e+09  1.4274623640600395e+09  1.5896328282795718e+09  1.6431213028595092e+09  1.4481828880156162e+09  1.4113122554271545e+09  1.6494525593946457e+09  1.2997690901761529e+09  1.4878453673408351e+09  1.3400365988283932e+09  1.2894039222232437e+09  1.3474626578351090e+09  1.3453231748597541e+09  1.3840481172445562e+09  1.3049454383135605e+09  1.3123932916278796e+09  1.3143445243883283e+09  1.5693389229046090e+09  1.3630118943870993e+09  1.3058728643824935e+09  1.2936029136436255e+09  1.3206511819959157e+09  1.3453256204680078e+09  1.3708647639475033e+09  1.3887851693089941e+09  1.3049735299587762e+09  1.3352793109251266e+09  1.3018003825515809e+09  1.4923679737174387e+09  1.4602750881369987e+09  1.3118758172273262e+09  1.6448841251555758e+09  1.6136492185560107e+09  1.5186885897784641e+09  1.3493053421856561e+09  1.3298852648418255e+09  1.4395578387916074e+09  1.2900705274326394e+09  1.4143270710769434e+09  1.3151462740808129e+09  1.2890579970972948e+09  1.5483595451139171e+09  1.3905925761239486e+09  1.5046194677891870e+09  1.3631033035353351e+09  1.5383827692521615e+09  1.4163207586335287e+09  1.4529113731725338e+09  1.4035523059718938e+09  1.4214535668849888e+09  1.4124705133612609e+09  1.6202730122141860e+09  1.4807009430421250e+09  1.5144840400722339e+09  1.4858799968214986e+09  1.6465236453971446e+09  1.3901033287973008e+09  1.2935282003796477e+09  1.3885507939118195e+09  1.3297399239794016e+09  1.5791761028817401e+09  1.5797284729637225e+09  1.3474020129287019e+09  1.5453918172031267e+09  1.6600796729514987e+09  1.4791986682465875e+09  1.3612203244143088e+09  1.5717269050003729e+09  1.5678600853015265e+09  1.3533101928035738e+09  1.2913075894225085e+09  1.3744918100339904e+09  1.3906556747849040e+09  1.4483267312430675e+09  1.4247082512605488e+09  1.4682784564258132e+09  1.5418294974537616e+09  1.2891621165370893e+09  1.3107741212084312e+09  1.4426585265694332e+09  1.4874708077443545e+09  1.3413737461064978e+09  1.3275352729532690e+09  1.3071487379940691e+09  1.5678133704568090e+09  1.3171425555490680e+09  1.3101715822678554e+09  1.3191499181773508e+09  1.4301903548012681e+09  1.3942215062718151e+09  1.4093475527622533e+09  1.5175606137101982e+09  1.2998824015427930e+09  1.3025670251166542e+09  1.3383944423874052e+09  1.4626858666004748e+09  1.6460462955875783e+09  1.5987732710645440e+09  1.5580299455538399e+09  1.6075165916120851e+09  1.2925256958544309e+09  1.3259292866299069e+09  1.3700338098888543e+09  1.2921114912728810e+09  1.2917187250845103e+09  1.2989693880888286e+09  1.4460762313213396e+09  1.5787277419829829e+09  1.3872775298913331e+09  1.4296974830476618e+09  1.4524814213586242e+09  1.6149866343084133e+09  1.2895319497259192e+09  1.3669068451950080e+09  1.4307279134130359e+09  1.4128336570093756e+09  1.4594262642651320e+09  1.4918745627208338e+09  1.4661580967806957e+09  1.4324194028183510e+09  1.4111359731360407e+09  1.3893901591164637e+09  1.6467984623250091e+09  1.3372880979774132e+09  1.3267131130888193e+09  1.3242654804927466e+09  1.3061657843428710e+09  1.5761516436537242e+09  1.3360416466682048e+09  1.3295930865457747e+09  1.3325010233533075e+09  1.3477403267208557e+09  1.5363062475648298e+09  1.5203668143027036e+09  1.3050188925083842e+09  1.3681836717747207e+09  1.6572799003878798e+09  1.3683488918000638e+09  1.4365633537391269e+09  1.2917591783178074e+09  1.3195628637464118e+09  1.5040805200637589e+09  1.4834548298345218e+09  1.5012007125609345e+09  1.5513589662900479e+09  1.6549705739101412e+09  1.3080489083785555e+09  1.4015884143701367e+09  1.2895530298101125e+09  1.3515711093211646e+09  1.3165974564219310e+09  1.3094194740938020e+09  1.4918699749328120e+09  1.4249504252198594e+09  1.3385938179751282e+09  1.3466325780327728e+09  1.3329355271372130e+09  1.5786974203423157e+09  1.4946452154748495e+09  1.2891707145199487e+09  1.5165337639016883e+09  1.5352667436337764e+09  1.5040599983099139e+09  1.2894576952145550e+09  1.5242936865837562e+09  1.3000723861169722e+09  1.3538112916655567e+09  1.4246084088319838e+09  1.6505204167887166e+09  1.6243372375643861e+09  1.6159427702401633e+09  1.5389368180881329e+09  1.5205638006733770e+09  1.5252028938190596e+09  1.2897596578480248e+09  1.5386162682092521e+09  1.5548090715669427e+09  1.6157250541240833e+09  1.3449028913335590e+09  1.2954918928432446e+09  1.5586473826031370e+09  1.5804581899064722e+09  1.2937198708387198e+09  1.2912911988894637e+09  1.4564919362301030e+09  1.4034400505794852e+09  1.3170074138017845e+09  1.6513919180379002e+09  1.5469063214941397e+09  1.2893170599143291e+09  1.2894705143764338e+09  1.2911992684404428e+09  1.3140410518037853e+09  1.4658954842969995e+09  1.4820166432608063e+09  1.4633510903605239e+09  1.3330461880977323e+09  1.2893082468020821e+09  1.4485941335917575e+09  1.5368088395243294e+09  1.5044851834978421e+09  1.4181155335473936e+09  1.5518654337566619e+09  1.4734639543142760e+09  1.6190696747562280e+09  1.6287415339337573e+09  1.6193861097188528e+09  1.5566733258469331e+09  1.2915805279636242e+09  1.5619100520983715e+09  1.2925223022882767e+09  1.4497971401537309e+09  1.3626202809763935e+09  1.3184358474485765e+09  1.3252195090268025e+09  1.3212402875843790e+09  1.3117355495873260e+09  1.5954076294982762e+09  1.2982678279752846e+09  1.2891560036912527e+09  1.4366919356893644e+09  1.3360662901541536e+09  1.3294588023396237e+09  1.6034136903926294e+09  1.5849448317521513e+09  1.2931168173619828e+09  1.2916529059074862e+09  1.2962595330735581e+09  1.2892240523949180e+09  1.5540347881131365e+09  1.3712895289799256e+09  1.4108898025760717e+09  1.6490455305759978e+09  1.2934735243577380e+09  1.3435031891645145e+09  1.5016966513250806e+09  1.4702785947053189e+09  1.5968030184632900e+09  1.5606266283809862e+09  1.5781305671194298e+09  1.5518148936545236e+09  1.3700696737430699e+09  1.3230907066013467e+09  1.2895312507915921e+09  1.4073885448118303e+09  1.5289464614866099e+09  1.6532327472199559e+09  1.6520415542539344e+09  1.6171209331834989e+09  1.3220035163067467e+09  1.3059103604654088e+09  1.3007731770007582e+09  1.6591193997369337e+09  1.2891586496906104e+09  1.3028557694008820e+09  1.5722559545519300e+09  1.2977860554715822e+09  1.4566949894701431e+09  1.6596668478929036e+09  1.2999744907490563e+09  1.3052833781287131e+09  1.5227057885141964e+09  1.3534924313834152e+09  1.6129914912836349e+09  1.6236704800495231e+09  1.4154597603476920e+09  1.4221153387315638e+09  1.3627424251715770e+09  1.6504176871947048e+09  1.3783553585897362e+09  1.4694788972881012e+09  </DataArray> 
</PointData> 
</Piece>
</UnstructuredGrid>
</VTKFile>