<?xml version="1.0"?>
<VTKFile type="UnstructuredGrid"  version="0.1"  >
<UnstructuredGrid>
<Piece  NumberOfPoints="15776" NumberOfCells="31038">
<Points>
<DataArray  type="Float64"  NumberOfComponents="3"  format="ascii">-0.05 0 0  -0.05 -0.1 0  0.05 -0.1 0  0.05 0 0  0 -0.1 0  0.05 -0.05 0  0 0 0  -0.05 -0.05 0  0 -0.05 0  -0.025 -0.1 0  -0.025 0 0  -0.05 -0.025 0  0.025 -0.1 0  0.05 -0.025 0  0.025 0 0  0.025 -0.06875000000000001 0  0.025 -0.03750000000000001 0  -0.02083333333333333 -0.02916666666666667 0  -0.05 -0.07500000000000001 0  -0.02083333333333333 -0.07083333333333333 0  0.05 -0.07500000000000001 0  0.003472222222222224 -0.02569444444444444 0  0.002378144654088049 -0.07627751572327045 0  -0.02083333333333333 -0.05 0  0.03125 -0.01875 0  -0.01233019290593089 -0.08678347112328397 0  -0.0125 -0.0130952380952381 0  -0.03690476190476191 -0.03750000000000001 0  -0.03541666666666667 -0.06041666666666666 0  -0.03385416666666667 -0.01614583333333334 0  0.05 -0.08750000000000001 0  0.03750000000000001 -0.1 0  -0.03385416666666666 -0.08385416666666666 0  0.03348214285714286 -0.08348214285714287 0  0.0125 0 0  0.0125 -0.1 0  0.01719551374627341 -0.0830513925183794 0  0.01029527261028368 -0.06231463651962176 0  0.0328125 -0.05312500000000001 0  -0.01041666666666666 -0.03958333333333333 0  -0.01041666666666667 -0.06041666666666667 0  0.01470753125203114 -0.04816506250406229 0  0.01799242424242424 -0.02474747474747475 0  0.03750000000000001 -0.03125 0  0.05 -0.0625 0  0.00625 -0.01223723723723724 0  0.05 -0.0125 0  0.03750000000000001 0 0  0.03765012642225032 -0.07127449431099875 0  0.02021617032392894 -0.01201127655869035 0  0.006028532990060553 -0.03846042534778643 0  -0.05 -0.0625 0  -0.03750000000000001 0 0  -0.05 -0.03750000000000001 0  -0.0125 -0.1 0  -0.0125 0 0  -0.05 -0.0125 0  -0.03750000000000001 -0.1 0  0.05 -0.03750000000000001 0  -0.05 -0.08750000000000001 0  -0.008680555555555554 -0.02743055555555555 0  0.006250000000000001 -0.08914373740925415 0  -0.009584768711776409 -0.07507825100308022 0  -0.03268229166666667 -0.07200520833333332 0  0.03939012096774194 -0.04309475806451613 0  0.02190003906503893 -0.05743439453251947 0  -0.03834537706133037 -0.04910019455252918 0  0.01284084887861751 -0.07298400536762802 0  -0.02264613483542079 -0.0820413651645792 0  -0.02366071428571428 -0.01123511904761905 0  -0.03199404761904762 -0.02730654761904763 0  -0.0244047619047619 -0.06041666666666667 0  -0.01041666666666666 -0.05 0  -0.02083333333333332 -0.03958333333333333 0  2.405987640392848e-05 -0.0604407265430706 0  -0.002910133850527605 -0.01736173448892657 0  -0.02961483445283294 -0.04429487938443922 0  0.0390625 -0.0109375 0  0.040625 -0.021875 0  0.028125 -0.028125 0  -0.04176917540113871 -0.06803243885869564 0  0.03965658412817928 -0.06102022076500465 0  0.01533845899304755 -0.03450745320159019 0  0.02948377458963575 -0.008744075527611174 0  0.02448333984417315 -0.04800472330961902 0  -0.002638588467448458 -0.08480290334513936 0  0.01875 -0.09260679016400503 0  0.02801599660666901 -0.09111197895245939 0  0.0427726833976834 -0.08125000000000002 0  0.04010991573299855 -0.09061756875992701 0  -0.03125000000000001 -0.09292674731182796 0  -0.04078102849914793 -0.09075246902758297 0  -0.04292674731182795 -0.08125000000000002 0  -0.04292674731182796 -0.01875 0  -0.04075246902758298 -0.009218971500852071 0  -0.002501899107215252 -0.03451361758785813 0  -0.01875 -0.09331034417873318 0  -0.04137052725919914 -0.02906901041666667 0  -0.02515071191829004 -0.02065873579545455 0  -0.004560476962080258 -0.008160345583815167 0  -0.01571003401360544 -0.02162698412698413 0  -0.006250000000000001 -0.09347094524847423 0  -0.03184688459542486 -0.007177652942204195 0  -0.043423574176247 -0.05645164743293771 0  -0.002931194584325539 -0.06897337298686135 0  0.04141166808534667 -0.05159229946940671 0  0.03072628767995273 -0.06184751883997637 0  0.01331794183364191 -0.01736907532119644 0  -0.02991071428571428 -0.05329326110353833 0  0.0302193738423544 -0.07555280640245397 0  -0.02844810693838604 -0.03529440998727736 0  -0.05 -0.04375 0  0.009435764744425919 -0.08043238240966273 0  0.02057363836381549 -0.07561467685960577 0  0.025334823172674 -0.08341820123348352 0  0.005194622404326759 -0.06864849887959712 0  0.01732194592699554 -0.06627651681808928 0  0.006285662925187238 -0.05520590615175079 0  -0.01875 0 0  0.03186492887377232 -0.04533174938342453 0  -0.0008783629089698517 -0.04219661564043644 0  0.05 -0.00625 0  0.03375689409777979 -0.03792049068961304 0  0.05 -0.06875000000000001 0  0.01439721346977286 -0.05583102001882564 0  0.007184194424042271 -0.04772337119454249 0  0.01846824474048517 -0.04149541481145257 0  -0.01682300313953808 -0.07723258764373991 0  0.01091777409106017 -0.0280645394299259 0  -0.005208333333333333 -0.05520833333333334 0  -0.01562499999999999 -0.034375 0  -0.015625 -0.05520833333333333 0  -0.01562499999999999 -0.04479166666666667 0  -0.01741071428571429 -0.06383928571428571 0  -0.01017446891572471 -0.06775731747543173 0  0.02462121212121212 -0.02174873737373738 0  -0.01727537722908093 -0.007335299088771311 0  -0.04246234479210493 -0.04269936147867359 0  0.02155204304257197 -0.03095624460965786 0  0.01316725552433098 -0.00805546078058521 0  0.01875 0 0  -0.02717633928571428 -0.0671875 0  -0.02899339936689958 -0.07835247286481212 0  0.034375 -0.025 0  0.04269000268040276 -0.03649499463919448 0  0.04375 0 0  0.04375 -0.02812499999999999 0  -0.03761497647442349 -0.02322577938762476 0  0.05 -0.05625 0  -0.02487731781150031 -0.08912078797260026 0  -0.03695888676976247 -0.07756467740738612 0  0.002206599034779407 -0.006587679234291101 0  0.003888413565608712 -0.01876506087328944 0  0.04375 -0.1 0  0.05 -0.09375 0  -0.008944539808483216 -0.02059134745263918 0  -0.04331057662916364 -0.07455691519284439 0  0.0439453125 -0.0158203125 0  -0.0001289479518082485 -0.09093484953796985 0  -0.04345238095238095 -0.03556995462159739 0  -0.01996941165388946 -0.01664836497274012 0  -0.04375 -0.1 0  -0.05 -0.09375 0  -0.04375 0 0  -0.05 -0.00625 0  0.005594154517873918 -0.03190847365283561 0  0.01173248358540133 -0.04209249512146222 0  0.03419217537052396 -0.09402564429600242 0  0.01187454317038147 -0.09313287027544383 0  0.00625 -0.1 0  0.02629142191479375 -0.01446643061282435 0  0.021875 -0.005713666436405997 0  0.04321758283034931 -0.06704044172466167 0  0.03164035608931087 -0.06843232885197728 0  0.04337196116786825 -0.07463925880684733 0  0.03637679552963742 -0.07765509762578199 0  0.003626010873625676 -0.08324593924595615 0  -0.01086143623908221 -0.006877234301934964 0  0.05 -0.04375 0  0.01179919481827354 -0.08623489346281316 0  -0.01250448524457812 -0.09373974299368953 0  -0.05 -0.06875000000000001 0  -0.03125 0 0  -0.03125 -0.1 0  0.03125 0 0  0.05 -0.03125 0  -0.05 -0.03125 0  0.03125 -0.1 0  -0.00625 -0.1 0  -0.01875 -0.1 0  -0.05 -0.01875 0  0.01875 -0.1 0  -0.00625 0 0  0.00625 0 0  0.05 -0.01875 0  -0.05 -0.05625 0  -0.05 -0.08125000000000002 0  0.05 -0.08125000000000002 0  -0.005208333333333331 -0.04663513209089385 0  -0.008645094114120339 -0.03363601830115741 0  -0.01475694444444444 -0.0282986111111111 0  -0.002375017943413014 -0.02816654106277556 0  0.01949511126133643 -0.01820257885343882 0  -0.01184447766846871 -0.08072281861600734 0  -0.003534735552586339 -0.07499381884380991 0  -7.74643124966494e-05 -0.01210497681433211 0  -0.0189894669743643 -0.08708512345290294 0  -0.03573478741405032 -0.06660859450219164 0  0.04359375 -0.006406250000000002 0  0.03517259397916334 -0.00591284371726238 0  0.01965556274601837 -0.05175082112889391 0  0.0278582381998454 -0.05655080703154879 0  0.02250150625287546 -0.06335204673888746 0  -0.04398521510889171 -0.06244044890584508 0  -0.04409485128436456 -0.05055827494263457 0  -0.03770557434490081 -0.05497182533168162 0  -0.03656642640981419 -0.04343156897269072 0  0.009194419875177533 -0.02206075900562258 0  0.04451331908599852 -0.04636519166703897 0  -0.01485520520633521 -0.0715431557666749 0  0.03646473132841593 -0.0487266977067035 0  0.04405668594067944 -0.05696201317865261 0  -0.005203169869815907 -0.063408387077611 0  -0.02247505510150612 -0.07631841748069951 0  -0.02804244587606518 -0.08423194559419436 0  -0.02935822174816368 -0.01244339991380455 0  -0.03106530920251624 -0.021416390819467 0  -0.02607827560230913 -0.005825920664671352 0  -0.03361300586943999 -0.03280621050224407 0  -0.02666093500983432 -0.02972007434472025 0  0.02285652838955744 -0.08859591663874328 0  0.03188089108105607 -0.03248232675683183 0  0.004333204611837944 -0.09457186870462708 0  -0.02704324561419352 -0.07289471972323462 0  0.007922643115429704 -0.005561362357538799 0  0.0335055138043014 -0.01319301380430141 0  0.03678783220616013 -0.0177615033815196 0  -0.02428736139211932 -0.05463634003970875 0  -0.02991071428571428 -0.06211553281168236 0  0.01197199101441062 -0.06755294829741498 0  0.007340105850365504 -0.07377496925579345 0  0.0155154430127655 -0.07780260757679426 0  0.03658895737846099 -0.06574341599602251 0  -0.02410709817404581 -0.09456977129140082 0  0.01071697988857716 -0.05184278466318995 0  0.01728938824664831 -0.06065342293474459 0  -0.001242172060814776 -0.02269478175693585 0  -0.03834687844188856 -0.07228526864991387 0  0.03504935696459177 -0.08867226036471411 0  0.03924608506562968 -0.08530978616477196 0  0.04446421559415197 -0.08718473081338503 0  0.02679267124047066 -0.0428532372923227 0  -0.007808666799817795 -0.01546134924060014 0  -0.02636641232583814 -0.04890574755055194 0  -0.02267804660897878 -0.04479166666666666 0  0.03489498531895979 -0.05823382415106163 0  1.202993820196636e-05 -0.0552203632715353 0  0.005332838990544739 -0.06042849285714701 0  -0.04436969017718883 -0.02424446436705185 0  -0.01009042364871584 -0.04479166666666667 0  -0.01041666666666667 -0.05520833333333333 0  -0.015625 -0.05 0  -0.01562499999999999 -0.03958333333333334 0  -0.02083333333333332 -0.034375 0  0.04436432681906392 -0.09436432681906393 0  -0.02240513392857143 -0.06518787202380952 0  0.04537177463340432 -0.04110310095312193 0  -0.01934692347958504 -0.05893848545414168 0  0.01001344743614051 -0.03490586023982564 0  0.01586325646191351 -0.02940933116439079 0  0.02022053591020378 -0.03583808206686418 0  0.04471567469374729 -0.06209102384433118 0  -0.006496208247169712 -0.07958930721574266 0  -0.01759557435166128 -0.08222716640716513 0  -0.0258732841832878 -0.04072911010428665 0  -0.03288263125611565 -0.04869148482773185 0  -0.03263969202788681 -0.04023215505700068 0  -0.0004136896689272414 -0.08037340396772195 0  -0.007739794146129868 -0.08454340960557974 0  -0.005153536667873927 -0.03908698774301944 0  0.02019517427329467 -0.07051123899821848 0  0.04583333333333334 -0.021875 0  0.02619510373908494 -0.03269003457969499 0  0.0296875 -0.0234375 0  0.0390625 -0.0265625 0  0.02670820946356766 -0.004645696321677782 0  -0.04062500000000001 -0.09590293078204457 0  -0.03564280613591997 -0.09534312690398471 0  -0.04448129971537602 -0.01338184642750947 0  -0.0391644784367541 -0.01475132581728818 0  -0.03536697670269791 -0.01109850434249643 0  0.0246546870714087 -0.009801696230090574 0  0.01693476594833477 -0.004704231736989024 0  0.02805149774555685 -0.05153506231567133 0  0.01957205274891251 -0.04665925415381995 0  -0.03920906758509401 -0.08540401702208963 0  -0.04459789183327253 -0.08648620389067757 0  -0.03546142078996733 -0.08941071919400739 0  -0.040625 -0.004080718704877302 0  0.00260771577430766 -0.04575534361521472 0  0.03956847501260272 -0.09552117233795018 0  -0.04564909052553461 -0.008584357303211394 0  0.02264451502733982 -0.02620512014018021 0  0.001001636024309939 -0.06555740150324908 0  -0.01885631351121119 -0.01192416515989788 0  -0.04499819577901031 -0.09345781847661469 0  0.0155715347117314 -0.09625819711534236 0  0.021875 -0.09630339508200252 0  0.01807873790021638 -0.08781185019060267 0  0.02541211245660132 -0.07801680524060067 0  0.0294294739969754 -0.08077554116165468 0  0.0212171018061149 -0.08039258342290792 0  -0.03673232558409376 -0.02792157104559268 0  -0.02412288540753498 -0.02548656141284193 0  -0.03844586027904318 -0.03291807771577562 0  -0.0256811132162094 -0.01574526990493712 0  0.00848679002385368 -0.01728089887285961 0  -0.02045411777499171 -0.02137437814389278 0  0.02970767836655067 -0.09552881632074735 0  -0.04643569916713384 -0.07809368021565474 0  0.04527103964454355 -0.01105720832240294 0  0.002256955057953323 -0.03542009683155154 0  -0.004463009310811217 -0.089129126936575 0  0.02938595614515601 -0.08632050280733992 0  -0.021875 -0.003591127891060313 0  0.04650608071264184 -0.07812500000000001 0  -0.003124999999999999 -0.003608070794988568 0  0.007129281584464676 -0.04302665811602766 0  0.01520615639784498 -0.01268049936812179 0  -0.0365436926664342 -0.006501489865350806 0  0.03925290019911523 -0.0559919664295034 0  0.02605302166616394 -0.07334573645615944 0  -0.03082945889391246 -0.08814284502455727 0  -0.03925333539581527 -0.06332368724566637 0  0.01398706243080254 -0.0221150896608866 0  -0.04584180981523835 -0.03953521125648374 0  -0.01551784317154422 -0.09006879589254792 0  0.04661131594773271 -0.05312500000000001 0  -0.0182716836734694 -0.0253968253968254 0  -0.0121952947845805 -0.02452876984126983 0  -0.01525668726170214 -0.01692779996038899 0  -0.008385574756346015 -0.01083162927881422 0  -0.001826518818718755 -0.09549248911561954 0  -0.01494018809894989 -0.06003035061353305 0  0.03842786925093422 -0.03848878006528625 0  -0.009517823528847204 -0.09033425564884409 0  -0.007026717534073515 -0.07118798342763594 0  0.0001411412619572883 -0.0723218451829247 0  -0.04672559722717761 -0.046875 0  -0.03333335481254267 -0.05633735472828818 0  -0.02825670442395904 -0.05770439695761035 0  0.04670555193272041 -0.034375 0  -0.04606809718672033 -0.02864475622893278 0  -0.02830308489895125 -0.09646337365591398 0  0.02697244171743559 -0.06455983431862716 0  0.01075672523973394 -0.01188005193203498 0  0.009375 -0.09682257628260371 0  0.04684624656174251 -0.07187500000000001 0  -0.04569647882374624 -0.07054893266310153 0  -0.009375000000000001 -0.09686763094218352 0  -0.01584244881786312 -0.09665517208936659 0  0.03949793158361206 -0.004200900444856822 0  -0.04599424336041202 -0.004005756639587985 0  0.04672247023809524 -0.003277529761904764 0  -0.0057072681558855 -0.02389109188241274 0  0.001146640918992101 -0.03102340112947342 0  0.02944299575463769 -0.03636599160900477 0  -0.01428600846173209 -0.004059351323159661 0  -0.05 -0.065625 0  0.007616524711816953 -0.08500313843252691 0  -0.01993674705883108 -0.05462803045825988 0  0.02533618313706692 -0.06007453909491395 0  -0.05 -0.059375 0  -0.03862197093400277 -0.01903101690089815 0  0.0468279944940574 -0.09080811063091072 0  -0.03140806455272695 -0.06619583248002962 0  0.03421885564815121 -0.07390709677899014 0  -0.004286600621219742 -0.05092173271211359 0  0.03102548386801434 -0.004710932028832613 0  0.002309432914435064 -0.08736431641512733 0  0.03037840052113319 -0.04053315527075563 0  0.02389766944944421 -0.05336055352824819 0  -0.03954777047483198 -0.05894977680820387 0  0.04184946453364417 -0.03213642906728832 0  0.02243926545212522 -0.04334647355665038 0  -0.004152535080712006 -0.01330066254671447 0  -0.007439175550382293 -0.004187299635792556 0  0.01484586826671411 -0.03892294491435778 0  0.04038356695604921 -0.04718651728124535 0  -0.03370152792459298 -0.003409778577081043 0  0.02125959124306701 -0.08464957731246456 0  -0.005175004679933259 -0.03128537442936601 0  -0.04563130928453093 -0.06632786681052066 0  -0.046875 -0.1 0  -0.01291276579588407 -0.06417334401545016 0  0.004992029923702567 -0.06453392731290926 0  -0.04663456907220346 -0.05383247499981354 0  -0.006315940723374573 -0.05930905927662544 0  0.01344500085629343 -0.08135860767901475 0  0.00624679979509361 -0.0777776748102709 0  0.01052907079969781 -0.07642967685518529 0  -0.02973732862474088 -0.01656402049062323 0  0.03859993140651855 -0.08118688326132042 0  0.01427753806508674 -0.08965722182118722 0  0.01683718122662454 -0.07391739294871101 0  0.05 -0.065625 0  0.01017345837010273 -0.05769818894326342 0  0.003142831462593618 -0.0526029530758754 0  -0.03738360545745725 -0.08168537983806289 0  -0.01748218666510975 -0.06813878302001214 0  0.0463863416988417 -0.08342845367255949 0  -0.01133532489479995 -0.03054855906973371 0  -0.02407557688892508 -0.03697916666666667 0  0.04073902625376655 -0.07773311114842162 0  0.01295019700693523 -0.004018074645617246 0  0.01731419597837964 -0.008924158772178585 0  -0.02816365818777272 -0.02594161659920633 0  0.01395860158789553 -0.06402955474289401 0  0.01533533535351063 -0.06979991037261025 0  0.003235556574780704 -0.04154949902408906 0  0.0256560691365745 -0.09454823090098792 0  -0.04196241070174674 -0.04690222551838178 0  -0.0328148615078059 -0.07632783935745614 0  0.05 -0.096875 0  -0.03477498087981482 -0.02000619738968918 0  -0.03540046447454039 -0.05174997538409749 0  0.03218160891894395 -0.02842571783788788 0  0.05 -0.059375 0  -0.05 -0.021875 0  -0.001290325615771404 -0.0462839283737984 0  -0.0007291972817302392 -0.03815205647041336 0  0.0314309378115113 -0.04933875006157912 0  0.03580429802300419 -0.04480791474934491 0  0.02812989034564535 -0.04654605366445282 0  -0.02250615467821772 -0.007474259833856833 0  -0.05 -0.034375 0  -0.04623402623092238 -0.03266401947810209 0  0.007543784155871341 -0.02578379566159266 0  0.01259856518984842 -0.03164933808168655 0  -0.02960733622015939 -0.003750246412287103 0  0.0376081921684235 -0.05245551308128505 0  -0.04676105644177232 -0.089859296733659 0  -0.04121081180579638 -0.05321468881729818 0  0.008907581557938372 -0.07010677444136433 0  0.02238005005866955 -0.01540092856280071 0  0.003032066145106093 -0.01476416779425536 0  -0.009032574167746762 -0.06404679485097063 0  -0.04624075377196257 -0.02081638694163197 0  0.003125 0 0  -0.02455617661094997 -0.0330603948257714 0  0.01354726629139471 -0.05961923898792222 0  -0.05 -0.015625 0  -0.04635508186673168 -0.01694238793953898 0  0.03470250342566425 -0.06222309747987002 0  0.007976246520282971 -0.09318351454674861 0  0.01809300284513205 -0.05689299134079161 0  0.01454995940546648 -0.05199794358506395 0  0.02166562205297151 -0.0393857222105142 0  0.01628826452041482 -0.04466129449473814 0  0.03647494009737834 -0.03506024984948551 0  0.03451316441232027 -0.02102466779383987 0  -0.021875 -0.1 0  0.03262097952842365 -0.07858713204909264 0  -0.03920905544327313 -0.04060687021800941 0  -0.02992158084177625 -0.03174834582032531 0  0.008357511167758609 -0.06633127955364289 0  0.04318756780435637 -0.0708420282370337 0  -0.03392289579707979 -0.08000975380228131 0  -0.01141704038127351 -0.0167818866184824 0  -0.01348793190251895 -0.07520106923253567 0  -0.02005005659770492 -0.07925494045119626 0  -0.01924800164333928 -0.07429606467324316 0  -0.004633061924560681 -0.04286503726771711 0  0.006734928674614752 -0.05146463867314664 0  0.01093796665936654 -0.04807871261706882 0  0.01436274818423154 -0.02590687146513118 0  -0.05 -0.08437500000000001 0  -0.04636382294280632 -0.08303782715171144 0  0.02164306295595804 -0.06702658770968295 0  -0.0332818926824345 -0.03653956979812621 0  -0.01813330739190506 -0.003691897662090158 0  -0.01532173405145471 -0.01057512148167935 0  0.02714155416761251 -0.018494096081304 0  0.03535908927063413 -0.009786505825259039 0  0.002672434464373351 -0.05782442806434116 0  0.03188613320287887 -0.09091108404481391 0  0.02958027680234551 -0.07172324007054222 0  -0.02200371590623956 -0.09149352860606418 0  -0.02733319341238323 -0.09224685596870097 0  -0.02443859886710142 -0.08536775035015338 0  0.04178251006096394 -0.04010753294115062 0  0.03988127463270016 -0.01500153786729983 0  -0.002604194452793989 -0.05783658766253126 0  -0.04634456533037547 -0.04319777722919801 0  0.01117166248865671 -0.03842772965091688 0  -0.02842807177184132 -0.008782837269883144 0  -0.0203125 -0.09665517208936659 0  -0.01822916666666666 -0.0421875 0  -0.007812499999999997 -0.05260416666666667 0  -0.01822916666666666 -0.04739583333333333 0  -0.01822916666666665 -0.03697916666666667 0  -0.01746961805555555 -0.03101128472222222 0  -0.01193516091817964 -0.03589349425151298 0  -0.01302083333333332 -0.0421875 0  -0.01302083333333333 -0.04739583333333334 0  -0.01302083333333333 -0.05260416666666667 0  0.004614118426858764 -0.003565458483726032 0  -0.006399704118556011 -0.06745326068235465 0  -0.0108014823312422 -0.07149204022071302 0  0.00391242037377193 -0.07219730356656646 0  -0.0262424283318852 -0.08092416785272258 0  0.03011436735525412 -0.01505282433074386 0  -0.01384023034695557 -0.06772003352402545 0  -0.02949155392278313 -0.07009665308484649 0  -0.02377517751687289 -0.06861085723659542 0  -0.02579055059523809 -0.06380208333333333 0  0.02113537664400663 -0.0228691300296542 0  0.02637310606060607 -0.02493686868686869 0  -0.03063337228909436 -0.08163436478301857 0  0.03119026483577081 -0.05817143789660971 0  0.009375000000000001 0 0  -0.04675660524288705 -0.0578125 0  0.03574277499268416 -0.04107817866960801 0  0.02253985872597661 -0.09237936377706879 0  0.03976053609378098 -0.07423312666419081 0  0.01953075217518766 -0.02799030610032226 0  0.01844493158550458 -0.03273128999182751 0  0.02477819668651615 -0.02940057345809435 0  -0.005263160237910004 -0.02021752904783427 0  0.034375 0 0  0.003270918576756519 -0.07971358497895784 0  0.04639215996395622 -0.04948754313912715 0  -0.03189871520790222 -0.09646337365591398 0  -0.03326072659634353 -0.06320106822207454 0  -0.03987331178654424 -0.07550873862683773 0  -0.03998764652264281 -0.07933474367595365 0  0.009071852058287186 -0.03111646240531644 0  -0.0332339944804733 -0.04501762745857527 0  0.04678717767873879 -0.06718750000000001 0  0.04169457139716228 -0.06387802551592327 0  0.04025169088499745 -0.0689179365835467 0  0.01805191463477333 -0.01489685993184803 0  0.04636190916549267 -0.03071368166901467 0  -0.05 -0.096875 0  0.04635416666666667 -0.02552083333333333 0  0.03750000000000001 -0.0234375 0  0.03568276492406011 -0.02825236753796995 0  0.046875 -0.1 0  0.0421875 -0.02499999999999999 0  -0.01416772838726675 -0.08358641717367554 0  -0.02052291899646267 -0.06223597710653215 0  -0.02612280024318982 -0.0442131766919299 0  0.0004213409092374296 -0.003522267437169826 0  -0.0009083904135866786 -0.008529558496548306 0  0.005500468959257323 -0.008501963795935558 0  -0.04096505846019646 -0.02181174912946466 0  -0.04093441339034119 -0.02545341886445387 0  -0.03468865480842657 -0.02510657950910184 0  0.00151209537569981 -0.09676345022395004 0  0.002413629182646067 -0.02215367303778921 0  0.0002547620197936792 -0.01919886328694928 0  0.009715766073205602 -0.008552025495673465 0  0.03243759091146019 -0.06496581287053931 0  0.02632268052734591 -0.08803624812100705 0  0.04017693787036055 -0.01844651389955829 0  0.05 -0.015625 0  0.01008019185444602 -0.0897030704995445 0  -0.03755774753270519 -0.09231560011783839 0  0.003880552158806201 -0.04910058949648512 0  0.04654809241258794 -0.03784003959864843 0  -0.03564751029865867 -0.07439774731271727 0  -0.01084442166676765 -0.003150985364175276 0  -0.01232728691104433 -0.02110916578981165 0  0.034375 -0.1 0  0.03633226476455039 -0.09674364023168498 0  0.03742838561857629 -0.09280317640226764 0  -0.02604880752883145 -0.0763273395550257 0  -0.04681050916597652 -0.03624892877251493 0  -0.04187803497262769 -0.03249030395020133 0  -0.04002020625879645 -0.03599772838717169 0  0.0004792449209903669 -0.06892790187802005 0  -0.04531250000000001 -0.09690794883681851 0  -0.0291441807065349 -0.03895148488387536 0  0.00581336908738571 -0.02278917431851158 0  0.05 -0.046875 0  0.05 -0.028125 0  0.01294720684058621 -0.04526242816933366 0  0.01619085190094634 -0.01938421123497572 0  0.02335162743397513 -0.03453698569167468 0  0.04029076905329756 -0.007634519053297562 0  -0.04333844669364704 -0.006107862111736678 0  0.04683437186992465 -0.007865496666910285 0  0.02287424020830859 -0.01879598699512286 0  0.01536691765402977 -0.09287098896883215 0  0.04645246119281046 -0.01836022603485839 0  0.04345783710819453 -0.09110483561269606 0  -0.04234286589330184 -0.0389410914161027 0  -0.03134471120132367 -0.05906217432111517 0  -0.03014613125358451 -0.07424633768158163 0  -0.04243247311896794 -0.07132005085618823 0  -0.04665725025786571 -0.07474883737689871 0  -0.04301769881032727 -0.07789766764724927 0  0.04243261704036487 -0.01283323142094308 0  -0.01566894448496811 -0.08673308468003743 0  0.03269497038987057 -0.09699996023166203 0  -0.007991049607539828 -0.04204578031173471 0  0.02827918548571119 -0.06773428714866543 0  0.03433598323828143 -0.07050733890753118 0  0.003112335364914031 -0.01092401204266664 0  0.03686427007144817 -0.01349487103951888 0  0.003218881760534197 -0.09060326877388235 0  -0.00309787103652196 -0.09242398777139789 0  -0.001397007629438716 -0.08787429497970135 0  -0.034375 -0.1 0  0.04322916666666667 -0.01979114533068931 0  -0.01302083333333333 -0.05729813187281795 0  0.0469387100245506 -0.0140625 0  -0.03698335100714727 -0.003245082636280113 0  -0.002465900339390573 -0.06553713662061939 0  0.003854520584893778 -0.0290332067670757 0  0.005543834849940803 -0.03520218469044023 0  0.02753723635762974 -0.01140979530594316 0  -0.02246171357697855 -0.01878061384640486 0  -0.0225476961674239 -0.01444132597291705 0  -0.01796181585190262 -0.01924212927022803 0  -0.02249350916210405 -0.05756412936044115 0  -0.02355932395340094 -0.07300565754440523 0  -0.03607761693082144 -0.04669842058826586 0  -0.005068232253255459 -0.09673547262423712 0  -0.02965977176321958 -0.04987064838119242 0  -0.008984816994941665 -0.02386872512578754 0  0.02382519025293929 -0.00306887430494123 0  0.01983176480334506 -0.003119763773612122 0  0.02059820391388823 -0.008744628494184007 0  0.02265668847927564 -0.07289444853882621 0  0.03534066958936554 -0.08077288883349856 0  -0.01092133630370761 -0.08384712114495881 0  0.028125 0 0  0.028125 -0.1 0  -0.005082576649742099 -0.08257729360451677 0  -0.0002202596667733563 -0.01541961827374851 0  0.01522637390923149 -0.08587889648352846 0  -0.007999101390003741 -0.03706595863040997 0  0.015625 0 0  0.0006259511825795283 -0.0845565019574057 0  0.006221822967568033 -0.08120096840325083 0  0.01156601061092586 -0.02426946710582858 0  0.002380395979881509 -0.06264225605256551 0  -0.01405667584064269 -0.007270525683249959 0  -0.01150511102822935 -0.01003251204941401 0  -0.007685836574511986 -0.007395433330292244 0  -0.03969267205397397 -0.04450107246028451 0  0.04717288172427113 -0.0578125 0  0.04351553199404762 -0.003199311755952383 0  0.0355189199794279 -0.05500064388548929 0  0.03981046946253874 -0.03478997461063087 0  0.03265025574499339 -0.007975600687729479 0  0.0359375 -0.002799447894997724 0  -0.01613086540616071 -0.01376007865120706 0  7.979462213787225e-05 -0.02582162422291141 0  -0.005449326641473191 -0.02712634327623572 0  -0.03438518618490685 -0.09242829621017326 0  -0.002007622916944294 -0.0313126613245728 0  0.009302575519085478 -0.04534992603921641 0  -0.01822916666666666 -0.05189635881276239 0  0.04280954853836666 -0.04338616974694096 0  0.01871950842402656 -0.09680502977818994 0  0.01090408508113698 -0.08321690027238231 0  0.0180017596950669 -0.07990004588807104 0  -0.01560580637870667 -0.09321325796656943 0  -0.009371678091270902 -0.09373482168466116 0  -0.01250512983472899 -0.0968698735654266 0  0.04686470104227086 -0.07501026143783775 0  -0.034375 0 0  -0.05 -0.07187500000000001 0  0.05 -0.07187500000000001 0  0.05 -0.034375 0  0.05 -0.07812500000000001 0  -0.05 -0.07812500000000001 0  -0.015625 0 0  -0.015625 -0.1 0  0.015625 -0.1 0  -0.05 -0.003125 0  -0.009375000000000001 -0.1 0  0.009375000000000001 -0.1 0  -0.003125 0 0  -0.05 -0.009375000000000001 0  0.05 -0.009375000000000001 0  0.05 -0.003125 0  0.003125 -0.1 0  -0.003125 -0.1 0  -0.009375000000000001 0 0  -0.046875 0 0  0.04062500000000001 0 0  -0.028125 -0.1 0  -0.05 -0.028125 0  0.05 -0.05312500000000001 0  -0.05 -0.046875 0  -0.05 -0.04062500000000001 0  -0.021875 0 0  0.021875 -0.1 0  0.04062500000000001 -0.1 0  -0.04062500000000001 0 0  -0.04062500000000001 -0.1 0  0.05 -0.021875 0  0.05 -0.04062500000000001 0  0.046875 0 0  -0.05 -0.05312500000000001 0  -0.028125 0 0  0.021875 0 0  -0.05 -0.09062500000000001 0  0.05 -0.08437500000000001 0  0.05 -0.09062500000000001 0  -0.0383975460870244 -0.06882264732476462 0  -0.03559526782924639 -0.07051332367535623 0  0.0116140763143414 -0.0200294715722589 0  0.04011794680046625 -0.02951848226682208 0  -0.02019356336663567 -0.08411067913544694 0  -0.02184104554911863 -0.08837005495056514 0  -0.01915213733148524 -0.09020859710840197 0  0.03062350339451905 -0.01195958995920541 0  0.01244313478621703 -0.09620954969326342 0  -0.003254498278864994 -0.07842638807391374 0  0.002372579972054182 -0.03854445786472108 0  -0.005615842898686297 -0.03437124196063728 0  -0.00820794034987752 -0.03052213559803195 0  -0.007177217032376036 -0.04930089304245042 0  0.017292207270899 -0.03696063516466189 0  0.02436828498060588 -0.0409137505577845 0  -0.02664571389545091 -0.002752788123511608 0  0.02773332907776751 -0.03893832827712083 0  0.04341178859188766 -0.08427626842755569 0  0.04670060681091085 -0.09670060681091086 0  -0.03208010982563232 -0.01050883957691983 0  0.02842511037654411 -0.05962096314605676 0  -0.01435467494444197 -0.03141355422222469 0  -0.02829648461666062 -0.01956624970699918 0  -0.0281698471591208 -0.02275267842199816 0  -0.003121695101070578 -0.06098724657882475 0  -0.008876122871155826 -0.08154428741213174 0  -0.009513487161208471 -0.07834228915192777 0  -0.01519286889167067 -0.02524713998052752 0  0.03207920091081376 -0.08782980447886177 0  0.0421875 -0.09726738951485452 0  0.009039169047364189 -0.04062936042476101 0  0.006970197692047868 -0.01994773160433056 0  0.0177044701318127 -0.04923635389027163 0  0.02104348967564478 -0.05448768578423942 0  0.02255522939491745 -0.05050381790686167 0  -0.02396027380289268 -0.05127523849128713 0  -0.0270349353787649 -0.0519910321998235 0  -0.01181095915764366 -0.02754518578663798 0  -0.01509078928180511 -0.08005757066612777 0  -0.001680304984140507 -0.05261406763445607 0  0.04287639350961021 -0.04892765567354836 0  0.04737815799762457 -0.04531250000000001 0  -0.007450830811539287 -0.08780052063043026 0  0.01260757325584043 -0.01435848579679944 0  0.0007125495420706774 -0.09384324413309353 0  -0.0005048909647391475 -0.07529755637084348 0  -0.006570383963086597 -0.07427420518847908 0  -0.002888703325889899 -0.07201810765589113 0  0.0182833113088956 -0.02166554836851385 0  0.03660603257347798 -0.08363301208285871 0  -0.04364710778737727 -0.08947610695391849 0  0.02321875647614017 -0.01248000396173524 0  0.04249012844476732 -0.009768964521796483 0  0.01719655043988758 -0.05381209088541083 0  -0.02795214444640037 -0.08923288448888515 0  0.0305796626780135 -0.05519119088158705 0  0.0247793305670809 -0.05631957595084435 0  -0.04115546407675838 -0.08773718571542828 0  -0.01789083831616858 -0.0715804492939822 0  -0.04698277454417332 -0.06346337902817656 0  -0.04283499587290376 -0.06521972076452692 0  -0.0441628656802633 -0.05940305190338293 0  -0.03293339707392893 -0.06890569867093572 0  0.006078421240027776 -0.01533115251916825 0  -0.01253972891058217 -0.09069641732879728 0  0.03295147424067876 -0.01620437186370464 0  -0.03625638963978759 -0.06329372195147459 0  0.04356688067402686 -0.05386698249152345 0  0.04127455092651954 -0.05835999367817182 0  0.02717161535066178 -0.09714682300539645 0  -0.03201848135430444 -0.01854762601524316 0  -0.03084674655915128 -0.02446915141992936 0  -0.04739597694573306 -0.01412128101202742 0  -0.02371813824993677 -0.07914528814128459 0  0.01914387172830702 -0.06345432668240811 0  0.02073553625659391 -0.06054214652517984 0  0.04738013284461021 -0.0607763902832027 0  -0.03619427440804578 -0.04043490771729352 0  -0.03841233467410524 -0.08892743622036749 0  -0.04123325213729569 -0.04977742938180724 0  -0.04710124285237324 -0.05084838857927226 0  -0.02540759803392521 -0.008771017083722592 0  0.01552549360891595 -0.04180256947377044 0  -0.03328896778935857 -0.01322605127947291 0  -0.03622089778946982 -0.01401112827966075 0  -0.04046411166833808 -0.05609992161415166 0  -0.03835467963807643 -0.05207188167515018 0  -0.03681366160742916 -0.05780040947227882 0  0.04143681828516032 -0.09324577512300852 0  0.00937142623768376 -0.05467081314875569 0  0.02435012462147645 -0.06588475561500517 0  -0.0234375 -0.0974683995124514 0  -0.02084933550610458 -0.06779624883491528 0  0.009688124777025769 -0.01460836901279954 0  -0.02367778516049199 -0.03017364301424246 0  -0.02937121333301117 -0.02860992248655747 0  -0.04746877202505475 -0.0109375 0  -0.02121341940121106 -0.02438962613965363 0  -0.02745567243460438 -0.05488837648264838 0  -0.01627524721575662 -0.07415843609645587 0  -0.02631559818440384 -0.01275343005853439 0  -0.03101456860513305 -0.08506243057068434 0  0.02353466441496152 -0.07572444547906115 0  0.004838106794281582 -0.08590305935398432 0  0.0078125 -0.002562274735532483 0  -0.04749704730819466 -0.0859375 0  -0.008920107390041239 -0.0578125 0  -0.03607393832401056 -0.03093944141707408 0  -0.03365282590339484 -0.08692313372691331 0  -0.02006439337858145 -0.005878278553683848 0  0.04364884417698481 -0.07754216050898051 0  0.0328125 -0.002435282534944978 0  -0.002666725578430765 -0.01082245768220869 0  -0.02537348128175745 -0.05770105077827665 0  -0.02885323885326535 -0.06481848691319395 0  -0.02715773809523809 -0.06126609973917451 0  -0.01237230481131435 -0.07787446962520275 0  -0.03626410942535615 -0.08555335993659173 0  0.02497095433840309 -0.09067786736464709 0  0.006304566599482847 -0.09692823385086635 0  0.03290049244401597 -0.04238139970258363 0  -0.03855671686840088 -0.01158279252224793 0  -0.04160180733926341 -0.0122096484813143 0  -0.01984796859913732 -0.00901576274099024 0  0.02898661751586405 -0.03117970907714113 0  0.03484682924326655 -0.032579234853951 0  0.03222597270841256 -0.03540594825148793 0  0.007689198339020257 -0.06353312172101469 0  0.02385922456033941 -0.08589388241306306 0  0.0205136122279402 -0.09030479355788322 0  -0.04413627809979717 -0.04502964300775884 0  -0.0356633927021142 -0.03486942309328403 0  -0.03123599720664146 -0.03447675554739401 0  -0.03334473317739382 -0.0298970619099909 0  0.01263888697332505 -0.07850851049115726 0  0.01329990464676595 -0.03651525526650057 0  0.03734499105360459 -0.02057427279907137 0  0.03904496538490771 -0.04997518719354045 0  0.03376937833342308 -0.0475650196274826 0  0.03412629080650415 -0.05050042814080002 0  -0.02636486843652749 -0.07002373806295548 0  -0.03240958358817524 -0.05164653054890251 0  -0.04412938176942656 -0.03073784977159298 0  0.0472227281394374 -0.06404123962307648 0  -0.04340535430000796 -0.0269894710178804 0  -0.04703432812742372 -0.02574389618985774 0  -0.0007186150205133175 -0.06323434354291074 0  -0.01813881802721089 -0.02824236465419501 0  -0.005015728865723714 -0.08634823644151865 0  0.04713827720273221 -0.0936545628539331 0  -0.04740381643251513 -0.06061656177347158 0  -0.04741890746035055 -0.09497667512158858 0  -0.04169755012647256 -0.06078275479302762 0  0.02936982526912081 -0.04400853552888472 0  0.0255527363169952 -0.04539075542789079 0  -0.02330132606289943 -0.04794327437354243 0  -0.02781678701797331 -0.04647784327427693 0  0.03877430556551383 -0.06380497802573268 0  0.03416965415424481 -0.06718908816428884 0  0.03745485763761926 -0.06844462290941347 0  0.006957413657597817 -0.02883708546514246 0  -0.03869629983246461 -0.02993079031598002 0  0.0253163763831596 -0.05095008515408326 0  -0.04370193638527292 -0.01606531880661238 0  -0.002966181741115359 -0.02519100039815357 0  -0.002401366537453123 -0.02012997179630549 0  0.03156544554052803 -0.02561616337841591 0  -0.0402432460185276 -0.08258896938814769 0  -0.04272282085000126 -0.08419985995772811 0  -0.03621771622695226 -0.0176220580156651 0  0.01113027780061732 -0.006140445228874379 0  -0.03245711989207727 -0.0904101968537093 0  -0.03955829636164478 -0.06618721975980241 0  0.0275480447128144 -0.02141205273024368 0  0.008313665520766877 -0.06005709425733914 0  0.009998823053273579 -0.07274207918096709 0  0.004988822785881403 -0.07528340220169344 0  0.03694482364888862 -0.07483282559208632 0  0.02465272733345908 -0.006813979148103671 0  0.02831316747097568 -0.08353943177895332 0  0.04729359985643771 -0.08626263164979399 0  0.04210310889254143 -0.08866781429134733 0  0.0296875 -0.002286349604441829 0  -0.0306236382517573 -0.04695778648572668 0  0.01349267938609449 -0.07577377880835154 0  -0.02299098630487812 -0.04174997663113473 0  -0.02724267775469163 -0.03241990581187712 0  -0.002503198620986505 -0.0487871269947849 0  0.03686548041120438 -0.06032818054708596 0  0.02477813524465676 -0.01678535620910663 0  0.01793647152075774 -0.07645880114393216 0  0.0146952927267462 -0.06711727581620536 0  0.01133194838764618 -0.06487031374101007 0  0.01172901776142153 -0.07037684730407788 0  -0.04065844936249986 -0.01711493695634566 0  0.0296645300907328 -0.06530783576791964 0  -0.03729550197386729 -0.009143045021487963 0  -0.007913035375586628 -0.0615410109990858 0  0.02697966311363632 -0.07071490726518369 0  -0.04394888681628328 -0.05329359490712169 0  0.01916997955773587 -0.006358580516425179 0  -0.02655975358989152 -0.03809414110415243 0  -0.04335552434796502 -0.01009565848198775 0  -0.02134487277949115 -0.09413554396678402 0  0.01255584133251271 -0.05383806074028234 0  -0.0230034100467695 -0.02233564167981593 0  0.03742133235740961 -0.09005672929239181 0  0.03456343899118452 -0.09133977312687541 0  0.03493211955874389 -0.08587598383283301 0  0.006438787158181507 -0.07122082143268887 0  0.00548065821795564 -0.09210893861383912 0  0.02736491626781095 -0.07590524263897044 0  0.02416154146863935 -0.08070016162395202 0  0.03740436742805774 -0.007746716644852467 0  -0.002527586879520364 -0.00629891729928651 0  0.008879001341242969 -0.04982449862656423 0  0.0317442483092402 -0.02151891610308007 0  -0.005750218485470361 -0.01741893530621688 0  -0.02465929534460305 -0.0919349906262335 0  -0.01132550522400622 -0.03325578701101733 0  0.01060337250420406 -0.002506624673742543 0  0.03949346768185091 -0.08799370978142433 0  0.0409381800584552 -0.08321804043590277 0  -0.0432996659795884 -0.003330149269011446 0  -0.0436090145507677 -0.02134644443143776 0  -0.007997422520404125 -0.04663513209089385 0  -0.03017331152357771 -0.04155326275987558 0  0.02448380865041682 -0.09697315767464136 0  0.03300996418550588 -0.06014215241574811 0  0.01688858667846797 -0.09056366599870737 0  0.04393709534775342 -0.03399416543518065 0  -0.005073351869629771 -0.005452378761053507 0  0.01595944973070434 -0.01665864079534912 0  0.008592979660450702 -0.03732438270432173 0  0.007681421014797305 -0.0335876017633407 0  0.04057402117478928 -0.0716280096305667 0  0.04782260116022668 -0.0421875 0  0.01270832488148558 -0.05007117248908488 0  0.03923212804694486 -0.06644261451986548 0  -0.007167853846899673 -0.07694061186932949 0  0.0002817996959115863 -0.02849048409288438 0  0.005363731792782494 -0.05773591768994214 0  0.00926086646052551 -0.08713687094856779 0  0.04553386586880761 -0.08075612830980353 0  0.01573948411344071 -0.05812163885551944 0  0.02804257120035339 -0.07849071976552029 0  -0.00262702006299233 -0.04010709393534482 0  -0.004157923962185587 -0.03660884936063957 0  0.004571400849083842 -0.04389869517771137 0  0.01975484871262398 -0.0439202870505573 0  0.03307580228966352 -0.05623244866465846 0  0.04407962921535674 -0.038793729700096 0  -0.01526909278343185 -0.06545177245391921 0  -0.01800168213955276 -0.056558826662899 0  -0.01805064029380073 -0.06125922871855271 0  -0.03410210568064787 -0.008693516596393575 0  0.02678920754351109 -0.08117814292469792 0  -0.03064489608958556 -0.05646333971108008 0  -0.00896333282529301 -0.01789643597649662 0  -0.01023147260782108 -0.01443123903053386 0  0.003579743803523502 -0.05527424030410576 0  -0.01968629679893771 -0.06533436414150393 0  -0.0221148827041951 -0.05315128995528665 0  0.001807424563025037 -0.0170842299175074 0  0.02715803001780751 -0.04902590298277322 0  -0.02649300547176505 -0.08702975760517451 0  0.02985897032777792 -0.08923737705678422 0  6.014905217140199e-06 -0.05783057262954643 0  -0.002597801562376596 -0.05506240796404691 0  -0.01453932758484631 -0.03697916666666667 0  0.01649073826091686 -0.06319659086967212 0  0.02197300492838798 -0.07785849992225746 0  0.04458359100409873 -0.05142183950571137 0  0.03288892842300365 -0.01064996769981432 0  0.003414444410662295 -0.06667387755197443 0  -0.01302083333333332 -0.04479166666666667 0  0.04322916666666667 -0.02252604166666666 0  -0.0078125 -0.05520833333333333 0  -0.02007378472222222 -0.03177083333333333 0  -0.01302083333333333 -0.03958333333333334 0  -0.01822916666666666 -0.03958333333333333 0  -0.01822916666666666 -0.034375 0  -0.01041666666666667 -0.05260416666666667 0  -0.01562499999999999 -0.05260416666666667 0  -0.01302083333333333 -0.05 0  -0.01562499999999999 -0.0421875 0  -0.02083333333333332 -0.03697916666666667 0  -0.01822916666666665 -0.04479166666666667 0  -0.01562499999999999 -0.04739583333333333 0  0.02861389331433733 -0.03382572902088683 0  0.02685755858161543 -0.008306392113406861 0  -0.03146202181458926 -0.07916958962906337 0  -0.00675359315146465 -0.09072502720106822 0  0.04634644145807459 -0.02811727479140793 0  -0.02479073660714285 -0.06618768601190475 0  -0.02309462031080122 -0.06267221001724381 0  -0.03361434880837894 -0.0225374748249856 0  0.04365050686181107 -0.05962103976805405 0  0.04464334080337827 -0.06477056026673604 0  0.03089170025005584 -0.08297349663535204 0  -0.02937182921728408 -0.006349522416206255 0  -0.002439376396341518 -0.08212944253333339 0  0.03834433292200496 -0.04551514685666501 0  -0.04735919859670042 -0.09238337749511671 0  -0.00554502207324609 -0.01082482616207859 0  -0.00696008552075832 -0.01300480365189128 0  0.04791666666666667 -0.0234375 0  -0.02086032995459787 -0.04678858387113149 0  -0.02070962714040792 -0.0430522056134849 0  0.0264432480919265 -0.03530514244235578 0  -0.03796623051245858 -0.09711529642088305 0  -0.04002932937973015 -0.09330729124163918 0  -0.04218750000000001 -0.09795146539102229 0  0.02813840376686446 -0.06221970629838743 0  -0.04082208142079698 -0.006646537052201919 0  0.0455282229587063 -0.06954748671798064 0  0.03221917584393987 -0.07213630776030797 0  0.015181836533936 -0.03191525840546049 0  0.01710008535326017 -0.02715707086714232 0  0.01349543494710197 -0.02835109236840971 0  -0.02804513797248458 -0.01464195639358145 0  0.0192363369162766 -0.06806970979678284 0  0.0228268035387522 -0.07025594341422257 0  0.02008778750363996 -0.07308495478143924 0  -0.009770499137943315 -0.08620544990365804 0  0.03154646546994392 -0.09357356139794663 0  -0.01432153683528416 -0.01938947725431363 0  -0.03540625492015637 -0.04917958860963134 0  0.02185322155471688 -0.04796886364206988 0  0.02665356197710891 -0.05399279460074238 0  -0.01044694576611617 -0.04742611243278284 0  -0.0007656570617667821 -0.07784098487437843 0  0.01341369481270771 -0.08398209451144213 0  -0.02167019220196275 -0.05996837577158052 0  0.03377947849199351 -0.01859924109768971 0  -0.03407175445567694 -0.04248394790801638 0  0.02088585035360697 -0.0333970435687849 0  0.02251525404402428 -0.03694228892791127 0  0.007590321611890428 -0.01002544604880517 0  0.01325127471728254 -0.01078035535382615 0  0.01771724791405982 -0.01239143885572532 0  -0.01754533292962527 -0.08487053535373217 0  -0.006602877926868728 -0.04449340407173932 0  -0.0002419542344551601 -0.03322394734734696 0  0.01744657936988587 -0.002199386109325907 0  0.01556230856807037 -0.006954656242163968 0  -0.0105007046245358 -0.04230250143321448 0  -0.03383223677127735 -0.05380273720232678 0  0.03725367478098609 -0.08684679329590744 0  -0.0175665061321935 -0.07963205450646992 0  -0.01932369407189244 -0.07682812267195151 0  0.03031862075128205 -0.05266953722613586 0  0.04764436228095684 -0.01024096174632309 0  0.005420776585654884 -0.005968447712568974 0  -0.04301418522453009 -0.09191095606957841 0  -0.04319253299670486 -0.09536169458309335 0  -0.003768377061401588 -0.02226186400376761 0  -0.03938085204567087 -0.02747490783313469 0  0.01906426535909785 -0.03892095942952337 0  0.03169978531106885 -0.08534923982812244 0  -0.04733123582182492 -0.06841265744836797 0  0.04803314357756933 -0.0203125 0  -0.04762019694207349 -0.0231218850193824 0  0.004865051114871914 -0.04681122195893275 0  0.001593906033397699 -0.04805586364640495 0  0.0004382181809313461 -0.04439373199081217 0  -0.007626619839192271 -0.03955527372186517 0  0.03286588766232278 -0.08106730239336332 0  -0.0257700475618113 -0.09648057567556882 0  0.04537400846160149 -0.04368490069063215 0  0.001362183232235219 -0.08215278158424759 0  0.02391051495112717 -0.03172421071075449 0  -0.0003246850471691387 -0.03570390920279574 0  -0.02995940549281657 -0.090759898399386 0  0.03869863810845114 -0.05851213874557144 0  0.02884403036520363 -0.006188288310987947 0  0.0265625 -0.002062373214280957 0  0.02086070271392733 -0.02034412888449655 0  0.03274916427480829 -0.07601810316947165 0  -0.0454731864633624 -0.08055228347657478 0  -0.02608520091409566 -0.01827425152674297 0  0.02909730130695492 -0.02584493376898498 0  0.03665506623101503 -0.02597230130695492 0  0.04140625 -0.02734374999999999 0  0.03984375 -0.02421875 0  -0.0304082508814452 -0.03681610509109751 0  -0.04728154767137447 -0.006405108493471457 0  -0.02194671231853508 -0.02685161179016307 0  -0.02596951122934762 -0.02725703807182869 0  -0.02557386441091057 -0.0232721464929378 0  0.03342833160640403 -0.03055758844544694 0  0.03906250000000001 -0.09800455576342267 0  0.008497692516520911 -0.08270643594827216 0  0.02674041402623413 -0.08553220886045218 0  0.01291635033112928 -0.03408703642975243 0  0.0177806445325376 -0.07005043122102393 0  -0.04114192345110528 -0.07340769301380801 0  0.0224843414054342 -0.08250864398128172 0  0.04101455865131804 -0.05412690199292355 0  -0.02327795588347301 -0.03930652618770811 0  0.0009740238364570425 -0.04057252383539692 0  -0.03917649421163367 -0.002040359352438648 0  0.02191349065759114 -0.02853819219671415 0  0.02040180503127184 -0.02521033163928926 0  0.02402590108513215 -0.02415126658793294 0  -0.03166372724404084 -0.01505525378141499 0  -0.01543676622175152 -0.05764123715386302 0  0.0182766464026848 -0.03019791398854459 0  -0.03451268287663042 -0.03865576143836598 0  -0.0015625 -0.0980093277066027 0  -0.02024136941885794 -0.0816792763271345 0  -0.02118919747099959 -0.01109633062161632 0  -0.01859603491619182 -0.01447872292041744 0  0.01492528999248245 -0.002433543897202234 0  -0.02790939322406831 -0.04251978473572695 0  0.003782179117330453 -0.03352803109814534 0  -0.02412336947070342 -0.002392407656188244 0  -0.01284710189675378 -0.0700299830030869 0  0.02063243529930224 -0.08719964433792667 0  0.01760679597515644 -0.08543724855596233 0  0.0140625 -0.09815104259024744 0  0.01746426634563599 -0.0946966824898527 0  0.02000489244543809 -0.09471513491297798 0  0.01091258567492647 -0.01676505135253015 0  0.002897196322976608 -0.06025581740440485 0  -0.03423696779068536 -0.09746140864191191 0  0.0007305907770002724 -0.0523166969602299 0  0.01933763519132608 -0.08192062756666578 0  -0.03797281206231607 -0.09469750596259088 0  -0.03777505276601351 -0.0612893992546924 0  0.007768576962588843 -0.05771474349345229 0  -0.029014141687396 -0.0864879890541629 0  -0.02490618477734652 -0.08296964750437723 0  0.003905346744474977 -0.09693263402959533 0  0.01570862682144985 -0.02385902104839043 0  -0.03852757389427703 -0.04665666493922895 0  0.01681181088971954 -0.04700595347504409 0  -0.01761293579763785 -0.009876960818768901 0  0.01585119923990406 -0.08102865178890535 0  -0.002476369444715367 -0.04409996895240524 0  -0.03704033263862392 -0.02554861584328849 0  -0.0343806477538964 -0.02747953471140603 0  0.0385769480595515 -0.0766296156204922 0  0.02507311958935473 -0.06271161136998743 0  -0.005471962873640671 -0.002483469538180225 0  -0.001390842828656197 -0.001952710046892643 0  -0.04435012479767778 -0.04795947098448357 0  -0.04820398217175099 -0.07968750000000002 0  -0.02366594197767203 -0.005292891736900223 0  -0.0199626386488226 -0.002100013342932867 0  0.03503329596179407 -0.0150307462328856 0  -0.01808827066958148 -0.02161702253189069 0  -0.02538422566144643 -0.04667184908299045 0  -0.04010064634197606 -0.07057924971757969 0  -0.03847345714847993 -0.005104150288689035 0  -0.03406415171902555 -0.005928659632161494 0  0.0296875 -0.09803737827954483 0  -0.0001503063646937945 -0.006276275587524281 0  0.0445610019488413 -0.008586154002764853 0  0.002898360813300214 -0.06982488289344184 0  -0.004140512629137462 -0.09455347035957071 0  0.02497985483238342 -0.02695583927646755 0  -0.03309403619249091 -0.09441630934773308 0  0.037033205797572 -0.05682482417137066 0  0.02856154711422706 -0.07386136174728263 0  0.04385526423731859 -0.03063080462925618 0  0.02801963102625338 -0.09364296901250888 0  -0.04158812558539692 -0.01487336154165913 0  0.04767128262860884 -0.05537540323700023 0  -0.01339366522435274 -0.01536013878562232 0  -0.01761990217337078 -0.01690365482246271 0  -0.04488879840437942 -0.07631145991727138 0  -0.04823144178603957 -0.07656250000000001 0  -0.0482062415165076 -0.0296875 0  -0.02913846372609745 -0.05988943405697848 0  0.03522211623769801 -0.05262690406106997 0  0.04076461966201733 -0.03793157928028473 0  0.03617813686813972 -0.03749978253916017 0  0.03820043002416379 -0.04093979798944077 0  0.006053289944438661 -0.01773042807326471 0  0.006944662348682713 -0.04537749419283783 0  0.009513501161241235 -0.04296668972212099 0  0.006689526301856015 -0.04071687560886686 0  -0.002299877347774154 -0.09004134586305897 0  -0.01327801739692436 -0.0549511492697423 0  0.005480978277781424 -0.02697059292468355 0  -0.0476616637262557 -0.0976616637262557 0  0.04825304035632092 -0.07968750000000002 0  -0.02611593292414339 -0.03575810370803955 0  0.04205467609998415 -0.06146564627654705 0  -0.04003280620145459 -0.03837589288876646 0  0.000950029780725288 -0.009981924865605908 0  0.04464737632136512 -0.01358821399255391 0  -0.04508450624939216 -0.07289877322312201 0  -0.04751964814708928 -0.07227835219822679 0  -0.04369140176135249 -0.06935533520403792 0  -0.02239389172413698 -0.03214132682270486 0  -0.04190903846551838 -0.05835755722580445 0  0.02307251020656784 -0.04577510415514846 0  -0.008795611762974567 -0.07281100336912592 0  -0.005257823305172458 -0.06956496348614596 0  -0.009032588102341152 -0.06986902027922305 0  0.04179234449180785 -0.004845763719566826 0  0.03721979924877703 -0.0047651458494762 0  0.03906250000000001 -0.001832435588952629 0  0.04127086549924796 -0.002575004667092041 0  -0.01100290284122577 -0.01912837588863205 0  0.04506655393040218 -0.03603661755370521 0  0.00930059030542134 -0.01950834559488892 0  -0.009529647465935568 -0.008809308805338086 0  0.01508100831621847 -0.06135689589379626 0  0.01270302026515522 -0.06191011911327859 0  -0.0438314147239337 -0.04077480326900374 0  -0.0478319917926713 -0.03833594505580989 0  -0.04482032718854358 -0.03744819497318877 0  0.02296439983425035 -0.05960527101824267 0  -0.03185122144028658 -0.04315507194033506 0  -0.00733492014463835 -0.0222500651304849 0  -0.007219239710984426 -0.02563954733366955 0  0.01388889061737944 -0.01961056581486995 0  0.01066098305406274 -0.05999515557027461 0  0.01257096511573747 -0.05741073122222133 0  0.01966146317941159 -0.06575257497470399 0  -0.007255992924199247 -0.09568128265964732 0  -0.0078125 -0.001818766801925782 0  -0.01506155066908195 -0.06265730892296595 0  -0.01270776862701663 -0.06160195615556448 0  0.0379771404208144 -0.02861644968655365 0  0.04830565797386636 -0.0515625 0  0.004007035252137576 -0.03691965068314323 0  0.01686434304608255 -0.05145915617355584 0  -0.02903316073856 -0.09407563321714714 0  -0.0296875 -0.09830588198273575 0  -0.02665141823057518 -0.07860444913168425 0  -0.02796267299524422 -0.07502143545925727 0  0.04237763270340716 -0.0175875744465049 0  -0.04531250000000001 -0.001756154364948668 0  0.04590894030015769 -0.005592720062062457 0  0.03143045878689962 -0.03761358300069494 0  0.0478534430747842 -0.08861656394375685 0  0.04228103944033501 -0.08633007149251014 0  -0.03372314059514642 -0.05870992193834693 0  -0.0355828001796937 -0.05585738108842084 0  -0.0417358971971203 -0.06313720314441586 0  -0.01157990020702555 -0.0737556443498108 0  0.03034478515829682 -0.07792111926930155 0  -0.0103807328230124 -0.01209070427134797 0  -0.01716350222641328 -0.08847206318215058 0  -0.01402328543009905 -0.08832981739043477 0  -0.01728097270858844 -0.09154294495133486 0  -0.001203767192213281 -0.07047405324104514 0  0.02680283228650296 -0.03047836992429558 0  -0.02198204977555222 -0.08586721360680016 0  0.02236002896120308 -0.01029553220276665 0  -0.03283032834564539 -0.06088737538203123 0  0.02967174557690675 -0.020460286008102 0  -0.01681445052131316 -0.02363177620642369 0  -0.01026658336100219 -0.02577212780879937 0  -0.01408845238396296 -0.02324234790108795 0  0.03830062369057925 -0.07890970096328502 0  0.03707928880466434 -0.04292150796345522 0  0.04453850817680629 -0.09773611086664115 0  0.02927604820970935 -0.01733332384151461 0  0.001485836510060817 -0.07417176389937385 0  0.03268702905163733 -0.04002775902553578 0  0.04787256437880699 -0.0697568753502885 0  0.04835277596636021 -0.0328125 0  0.04812684259495236 -0.03617568424280593 0  -0.00437146378688408 -0.08041247112977327 0  0.003410198159186033 -0.03126593908952593 0  0.04733901150449811 -0.03996872119408579 0  -0.0112338405684588 -0.08880426352507724 0  -0.04836279861358881 -0.0484375 0  -0.04836279861358881 -0.04531250000000001 0  -0.02020044675472646 -0.01890101845083367 0  0.008545263046002623 -0.01258731613206785 0  -0.0263560920378603 -0.09429152410769577 0  -0.01199280378786997 -0.06630852687098966 0  0.04223301087510136 -0.04569262834787229 0  0.01981701831826052 -0.05842591866861049 0  -0.03792073910259548 -0.03512875999774861 0  -0.0185830705936188 -0.04964609607304786 0  -0.02124337509794409 -0.07311533094672913 0  -0.0276663799715744 -0.01092484037076335 0  -0.01454856551814738 -0.07721315778584886 0  -0.0007406986754659077 -0.06701309114243058 0  0.02264625626357764 -0.007822965885707606 0  0.02055120955905793 -0.09815169754100125 0  0.008695080668314235 -0.07807940410525299 0  0.008329705248451892 -0.07582893826919467 0  -0.002964528929047374 -0.06322766455051167 0  0.04817596241299683 -0.02682448595513778 0  0.04771258783191607 -0.01632642762110901 0  -0.00389942537751756 -0.05317855198573967 0  -0.04763939076069156 -0.04115424900657132 0  -0.01807747440893156 -0.09566187359880164 0  -0.02064560093562051 -0.01326546113657408 0  0.02454468748321089 -0.07169143887984709 0  0.01552943322599933 -0.01039223976967649 0  -0.002547470360661643 -0.0150302055800622 0  0.01961158282036853 -0.07814826220849896 0  0.04837176309953894 -0.0296875 0  -0.01708984054418851 -0.05920016068972921 0  -0.01606841351316225 -0.002396772764841773 0  0.02880183116468505 -0.01324826702959288 0  0.004891551310597494 -0.02075766768178287 0  0.0109375 -0.09841128814130186 0  0.009943033197573756 -0.094515888507514 0  0.04838162252857063 -0.0484375 0  0.001216006264426132 -0.07885623266149576 0  0.02536904143262138 -0.01190876469961677 0  -0.02854321643310659 -0.08062812693318151 0  0.01687118283617986 -0.09811091032189435 0  0.01353758505471251 -0.04075172725089799 0  0.01682229953162608 -0.03997649591280195 0  -0.01338306645712827 -0.03416952975589617 0  0.0015625 -0.001599425074949768 0  0.04526414745193471 -0.07345199743417498 0  0.03967473226682208 -0.03169321453364416 0  0.01372421108604545 -0.09438191840234079 0  -0.01264588743686913 -0.005555995017501984 0  -0.01292692362820421 -0.00223473894236906 0  -0.01569679686550565 -0.005773881988907636 0  -0.007359549443967588 -0.09798193050432225 0  0.04842312328087126 -0.07343340336823168 0  -0.0171875 -0.09842209667188512 0  -0.01407998855053607 -0.09530448390134375 0  0.003217462687884581 -0.008639296284935039 0  -0.02219397713976584 -0.05536716655114788 0  -0.04775140250111554 -0.06557707220582805 0  -0.02347483932181055 -0.01663019303462746 0  0.04531250000000001 -0.001569598433868441 0  0.04843040156613156 -0.004687500000000001 0  -0.0109375 -0.09843381547109176 0  -0.01094118519517169 -0.09530513027748749 0  -0.04786629147731509 -0.008749949089647081 0  0.04825304035632092 -0.07674812451049505 0  -0.01426834662565368 -0.09823232115357076 0  0.04827186180649485 -0.09827186180649485 0  -0.04771549300742191 -0.002284506992578096 0  0.04829175301492614 -0.001708246985073856 0  -0.005536251248839077 -0.01513289695023397 0  -0.01100785173289259 -0.06303134294335709 0  -0.02424120674399909 -0.07083644762466612 0  0.007964066885959199 -0.090800007287408 0  0.009910112500182363 -0.09198184781439322 0  -0.03751342210215539 -0.06518999255878076 0  -0.01094049694662549 -0.092199764100019 0  -0.004696030535063632 -0.0487673722035586 0  0.01754214479783012 -0.03475699428813387 0  0.01512933394003292 -0.07220768844695416 0  0.02071711975785969 -0.04185595588832063 0  0.02461490540344126 -0.04309047366990028 0  -0.004158904612006597 -0.06705751061355915 0  -0.006926926387350093 -0.028744389996203 0  0.0200352813999171 -0.04944197410413204 0  0.04546530640752131 -0.05503961419206276 0  -0.03763515525863475 -0.07542966980725627 0  0.03655015477421705 -0.06349859748793012 0  -0.007142011617282996 -0.01910283839912953 0  0.03455716392834415 -0.06440960832956279 0  -0.006818132723183277 -0.05716888666069714 0  0.03343311926020712 -0.02297719743685536 0  0.00707564389875579 -0.08712042819884332 0  0.005722521619303644 -0.08389459632661429 0  -0.04404128047964407 -0.03294702734353837 0  0.02031059517510626 -0.01433651055799742 0  -0.009035679641316699 -0.005678099849451732 0  -0.0203195083958392 -0.05687598774678908 0  -0.01770064247689481 -0.05432205180650591 0  0.00172095017090097 -0.02428939573795938 0  -0.03090854679733271 -0.06406424919807802 0  -0.02935275660865959 -0.06695007019514555 0  -0.03353512095382387 -0.06678277612275996 0  0.0078125 -0.1 0  0.02638631360909955 -0.06665729319815682 0  -0.01088465027479771 -0.02276583133720164 0  0.02619917778579364 -0.05802778737135143 0  0.04494656968390805 -0.02386179956896552 0  0.04500704918173798 -0.08941332064415353 0  0.04534211210420257 -0.09241021952437389 0  0.03494853149871441 -0.07598220592097449 0  0.03610885884382378 -0.07281806235528819 0  -0.03077727556795677 -0.07710071965064633 0  -0.03501579601208976 -0.07651430571098827 0  -0.0323448338179271 -0.07417890614554705 0  0.02934782918035935 -0.04845372965486152 0  0.0006228490319552355 -0.08883039163880933 0  0.00438078453746174 -0.08803020941665367 0  0.002769388932803984 -0.0852417240201073 0  -0.0390524324035903 -0.007885807867200442 0  0.01610131562394197 -0.02156661281752332 0  -0.004708137834667687 -0.07318108813697204 0  0.03296231347017226 -0.005783649247675699 0  -0.01238686341793463 -0.05941531470360887 0  0.01437979286162626 -0.04363939227738707 0  -0.040801568013976 -0.01930730968599865 0  -0.03830472500445715 -0.01681657123351652 0  -0.03876908435004035 -0.02128458370131371 0  -0.05 -0.0703125 0  0.04842398688702478 -0.09539376514909893 0  -0.008394306691838096 -0.06627418597509678 0  0.0300036120570274 -0.09202382523642311 0  -0.01930199195450573 -0.06930668040294462 0  -0.01639204530414448 -0.07001331675167811 0  -0.01762923752875039 -0.06598599581991983 0  0.009897799835698506 -0.02593741874877344 0  -0.03576754543181598 -0.02199302756157714 0  0.04648463936199585 -0.04730543295253205 0  -0.04841132672902931 -0.0203125 0  -0.006438560568070953 -0.06524235317574646 0  0.02506777052236345 -0.01949136815485643 0  -0.04502369135433298 -0.09113362707149364 0  -0.0421875 0 0  -0.04150577024741103 -0.002078465479772023 0  0.02821806380327154 -0.04112526145165905 0  0.03709819261857074 -0.01563306269828154 0  -0.004760658602505579 -0.05781510592441898 0  0.03439717889519368 -0.03580736362607197 0  0.02192539567822046 -0.05254357819150626 0  -0.05 -0.004687500000000001 0  0.02628176258387535 -0.09237996689571155 0  0.009978301654176555 -0.08513321670006388 0  -0.005795874220342064 -0.06136858202269977 0  -0.002066955327357931 -0.01286656187413736 0  0.001823757237959144 -0.02703169908190218 0  0.04137242529330159 -0.05622945225612468 0  0.01185122566191796 -0.02215243016907972 0  0.01903178980382707 -0.01021710018987537 0  -0.02704811784898468 -0.09817297732786791 0  0.004282681232920034 -0.01651211237411023 0  -0.04202665503908833 -0.04477870163161874 0  0.03802183224270649 -0.03343339623286132 0  0.01216681726782447 -0.08857720631714282 0  0.01204980799896014 -0.09085690702402351 0  0.0161096756288325 -0.088593513415249 0  -0.04368737896364353 -0.06715100763497707 0  -0.04477892619379116 -0.06439657994007053 0  0.05 -0.08281250000000001 0  0.04789537474810155 -0.08184523728436024 0  0.045415435492664 -0.08530155539871791 0  0.03008316329650259 -0.02922154578063855 0  0.007617018746266475 -0.007777492941435461 0  0.01132326291384637 -0.05562964572743351 0  -0.03471210836225053 -0.06474919990103387 0  0.03830218669869181 -0.04764628620883111 0  0.0307535640137839 -0.007068270551687916 0  0.03421085901935263 -0.004025902711367846 0  0.04184507626816236 -0.03424321588601483 0  -0.01642642207788414 -0.02698023489008025 0  -0.03047893372488195 -0.07206737163976487 0  -0.03175523196736907 -0.004792150768004015 0  -0.0328125 0 0  -0.03155363217738329 -0.002367874221364132 0  0.04418402777777777 -0.0259548611111111 0  -0.04538025806170293 -0.01067239477037527 0  0.0288473930302381 -0.06975562013235019 0  0.0056511112593847 -0.02488019662884799 0  0.002509334680925278 -0.004358807632452355 0  -0.003994222433335283 -0.03302847981728372 0  -0.007036355293206452 -0.0322742398964328 0  -0.003579275799392356 -0.02990168269634324 0  -0.004887894648158978 -0.07683201566298457 0  -0.04222777187368977 -0.02364333881652475 0  0.01160890466735436 -0.009467253460253578 0  -0.01944913613402156 -0.02323068114780422 0  -0.03114315501734873 -0.0299166562001741 0  0.03867852709227757 -0.08328665052822476 0  0.04068741440010788 -0.08114525616141474 0  0.03871450400010972 -0.01695559461235079 0  0.02335217755244849 -0.09453533706230265 0  0.05 -0.09218750000000001 0  -0.0295481300190568 -0.001605568428320484 0  0.00470687896267873 -0.04007262327868574 0  -0.0359375 0 0  0.002440834567595678 -0.04361207119961237 0  0.002880492093639446 -0.06466240859797964 0  0.02283195883726561 -0.05556565878898524 0  -0.02310197483629177 -0.03487090733741901 0  0.01063000795921785 -0.03274097288862783 0  -0.0319113690678641 -0.05474106353327082 0  -0.02426505803403166 -0.07507046582579038 0  0.008637288779891891 -0.05258740018528525 0  0.004061781978905796 -0.07767408277344473 0  0.01170516222480349 -0.07472039534385352 0  0.04439608695310726 -0.01807389191733877 0  0.04188153632174605 -0.01556855420569994 0  0.03895981700495387 -0.01307268484765471 0  -0.05 -0.0546875 0  -0.04777996547369351 -0.05578923811648107 0  -0.04557500350783505 -0.05594441180996359 0  -0.03599322360724295 -0.08337896242457203 0  -0.03782581641576385 -0.07955756239714482 0  -0.03806191498716771 -0.08365977489794321 0  0.02735587750689656 -0.01634530536429414 0  -0.04778346819647576 -0.03425366269966739 0  -0.03619635067639472 -0.09830927380456798 0  -0.01093037404325239 -0.05723565380233147 0  0.01124108542315425 -0.04409850809919492 0  -0.04015951585833528 -0.04797506718973076 0  0.0355531396566855 -0.03038059089848231 0  0.008609149293794275 -0.02757134402116044 0  -0.02458990459302169 -0.01395065716999198 0  -0.02759514265660335 -0.0167440702989773 0  0.003473413581608735 -0.09267254255615398 0  0.005783754170669378 -0.06253278840008002 0  0.006082007269868802 -0.06654253260679399 0  0.03878857822445099 -0.006173037334646442 0  0.01441797626428604 -0.07954436576737998 0  0.01156618300102526 -0.08035095936378936 0  -0.04788253010703496 -0.02763776715267589 0  -0.0368712770501877 -0.02020029047180321 0  -0.03593530277956502 -0.05378398284441666 0  0.04234720518929534 -0.07278592856382902 0  0.04441800636074661 -0.08248315021781349 0  -0.01022556594809819 -0.03734731333884097 0  0.02860271266695176 -0.05463752982112181 0  0.01598440846056885 -0.07579471522088828 0  0.006493707933382986 -0.0947671815035926 0  -0.005987914006191487 -0.04112680971077185 0  -0.03995330963589321 -0.09795146539102229 0  -0.01019665171916844 -0.02882888222490615 0  -0.0097601714696916 -0.0318918470421802 0  -0.01294084919045685 -0.02926347167427638 0  -0.02769414424234968 -0.004535329022474685 0  0.0362914884698174 -0.05081955536680351 0  0.04499894173488171 -0.07594873062552117 0  0.03546014347486393 -0.02326403694972784 0  0.002001407188016981 -0.01282170755437008 0  0.004178238255297291 -0.01291135386657958 0  0.04238696200114518 -0.09514928859220396 0  0.03750237676704516 -0.09494644472428324 0  -0.01362705441163126 -0.02658032522347269 0  -0.04001755749432813 -0.03154569960410863 0  -0.02032767693433566 -0.05204186930350106 0  0.004893507670104913 -0.05368798872985404 0  0.002176752981164273 -0.0505705863148308 0  0.001811822894538167 -0.05419202517156339 0  -0.03199324472616771 -0.03821759015296883 0  -0.03098430819195358 -0.06821858047141556 0  0.01400809758125955 -0.08758125694359854 0  0.0450552879070476 -0.03228428374499481 0  -0.03527603687056981 -0.002004255494177421 0  0.008833840897614336 -0.02412832273949905 0  -0.05 -0.0171875 0  -0.04796663619607885 -0.0182714680195197 0  0.03327830445947197 -0.02671285891894394 0  -0.03015952910991992 -0.02639768144544637 0  -0.001324185801125433 -0.09348673451877551 0  0.01475119078452227 -0.0148270426093771 0  0.01223358207289873 -0.02633639384576765 0  0.009773582291372453 -0.004482055562056157 0  -0.04797285790821337 -0.004489196288042696 0  0.04181753717862587 -0.07945588747012097 0  0.04210124169070797 -0.07622511749289544 0  -0.001509271377939272 -0.07352152061436136 0  -0.01996045286964509 -0.02732161636951317 0  -0.04798790651721243 -0.08174933607839745 0  -0.04257678346715568 -0.008105058671003218 0  0.01309868800687886 -0.06586646235564859 0  0.01646203234597888 -0.06811342443084387 0  0.01570123454296709 -0.06506178719416507 0  0.01337340521578251 -0.06909593087496524 0  0.01367471125198932 -0.006003651042213967 0  0.012572992640219 -0.00202607971510129 0  -0.02386650680183691 -0.02796326546759065 0  -0.006419239975747055 -0.008987657628794282 0  -0.0305878892643003 -0.008939556228085193 0  0.001800461004723053 -0.0329743674150207 0  -0.009938338049518693 -0.03527745757266531 0  0.03938396939179221 -0.09346492064721051 0  -0.004739577134292894 -0.09117395033683964 0  0.02989783634292364 -0.0506778933481624 0  0.03185172221986971 -0.05133039393955258 0  0.03107876921314726 -0.04727360457566997 0  0.04133630972986371 -0.06599851068428712 0  -0.03856837426047758 -0.05679879609287397 0  -0.04548340104735529 -0.01512779942204605 0  -0.04537228338474871 -0.03462343755055496 0  -0.04641671388903557 -0.03064342081562504 0  -0.04823289833137026 -0.03226564812069713 0  0.02139928780926671 -0.01727718666003668 0  0.02431018836113115 -0.01482674916194362 0  -0.02564535436017864 -0.01084511294647212 0  0.01531958051900442 -0.03652707543072173 0  0.02259667042204397 -0.02143272767893613 0  -0.03127593492966751 -0.01307408980407379 0  -0.04633859521710209 -0.08775005593094791 0  -0.05 -0.08906250000000002 0  -0.02614310396166122 -0.02522771559156139 0  -0.03149733507170478 -0.0703244164319516 0  0.03530867441197051 -0.01196661860082494 0  0.01880866011394939 -0.07464213673518118 0  -0.03781067312019949 -0.08693959536004083 0  0.001651664196585815 -0.09184633625947922 0  -0.0389700769880035 -0.02479351460937479 0  -0.001326895479615754 -0.004595719664517121 0  0.0234375 -0.1 0  0.0228072476115245 -0.09808787309309817 0  0.03270661615787385 -0.06211766788261659 0  0.02181696579411069 -0.00219096412418401 0  0.02871424332948464 -0.004118098239242162 0  -0.04622692699250715 -0.04892659559611262 0  -0.04547259668133894 -0.05200334988537312 0  -0.007916122742627684 -0.09235736941075472 0  0.0074377824083204 -0.06839309802506011 0  0.01045204583924731 -0.06884457195979436 0  -0.02618825764425157 -0.05952228886785037 0  -0.02421749084074458 -0.04341310688442842 0  0.007568250967829863 -0.07972718160884765 0  0.01711132032047017 -0.07193570335093875 0  0.03571224102426247 -0.01943612484271547 0  -0.02616591748975199 -0.09063616528954077 0  0.03567804538662531 -0.04684423509208469 0  0.03373646600975794 -0.04433173846458283 0  0.04087499337498022 -0.04913801795025204 0  -0.002364697597239828 -0.07662602014906746 0  -0.02370273983607125 -0.08735593136558728 0  -0.04158645060515324 -0.03458160004992112 0  -0.0328020821736218 -0.02040071651527773 0  -0.03428734211158037 -0.01808251094087591 0  0.01063628931142468 -0.07857606263072298 0  -0.01384411344556504 -0.0922333898441426 0  0.03788556172893791 -0.06203052595151176 0  -0.03564867900744088 -0.004722767622760547 0  -0.03691169684024852 -0.05046817990735917 0  0.04576264938668641 -0.05940030221300573 0  0.01203785301753422 -0.02972580465976876 0  0.03065198177290116 -0.07351249963421311 0  -0.03978145327372433 -0.06138564745740099 0  -0.005774835880252975 -0.05233867240154536 0  -0.03455208564641323 -0.08194382303888702 0  -0.04533659855934521 -0.005903606608529967 0  -0.01285352492073821 -0.07211050370584039 0  -0.03639972338228237 -0.0329599092271206 0  0.01957410453124071 -0.01620020054378964 0  -0.04189181960277685 -0.07611574955633513 0  0.03923171642400429 -0.03668144702800514 0  -0.01151099163260198 -0.07594555876568515 0  -0.0255721201268109 -0.03136727621599002 0  0.01406056210499518 -0.03026474720915921 0  0.03040673456957986 -0.03464600775368622 0  -0.03558005079508717 -0.08742320875628713 0  -0.002121340039484437 -0.0366645371443241 0  0.01581567795051093 -0.04979263651326838 0  -0.02769324017627955 -0.06319132472393739 0  -0.02216606059871321 -0.09594332330793436 0  -0.02345756199964678 -0.00923983469733608 0  -0.0006451628078857017 -0.0481419641868992 0  -0.003294269781653621 -0.04595817884714862 0  -0.006849782627148672 -0.08158497641100902 0  -0.03255269639564686 -0.08229603199409749 0  -0.05 -0.0359375 0  -0.03593112769716648 -0.0802736608055495 0  0.02752240560059278 -0.04467751135304849 0  0.02630020162048067 -0.04725935534445889 0  -0.003354915068307088 -0.08746351270592086 0  0.02971390183888059 -0.03864436635289215 0  -0.04032619584755282 -0.04244526482711061 0  -0.04123372212274881 -0.04063516216236385 0  0.01448543107539198 -0.07407078558366757 0  0.005875255702220044 -0.001986073909204611 0  -0.04229970360231513 -0.05150309473625565 0  -0.03957748206893596 -0.05433122165241096 0  -0.04253870861486015 -0.0546817415870929 0  -0.03245696719907393 -0.0983935818689624 0  0.01921813111793967 -0.08404606885628335 0  0.0009700756801164876 -0.03717533790260936 0  -0.02517425035907583 -0.004044451102670074 0  -0.001860837244262322 -0.05065094456623151 0  -0.04438609023385556 -0.04308382609380654 0  -0.009320310705092061 -0.08838540211273728 0  -0.001089762867184308 -0.08357416106821879 0  -0.03497293050757541 -0.06853622981877409 0  0.01919850894978513 -0.05370296074729841 0  -0.04464396094594609 -0.01968662991634726 0  -0.04566457203134344 -0.02272656090029997 0  -0.0144283523491819 -0.07346809443868002 0  -0.01330868904470321 -0.01759625043133415 0  0.03100947326480808 -0.01001304034284496 0  0.02574373313225683 -0.03940295267576162 0  0.03762419922489806 -0.05459874974087802 0  0.0396437922234081 -0.05261372697940805 0  0.04217360646347159 -0.0294463346820855 0  0.03055812711423551 -0.02730942100275788 0  0.01516358539601881 -0.08294372670880212 0  -0.03266896043129133 -0.02538299297309233 0  0.04031932057730703 -0.04493236495192904 0  0.0372198611846347 -0.01157707748388981 0  -0.0244176916399364 -0.007091582381241824 0  -0.04814070747145686 -0.08848603760412735 0  -0.05 -0.06718750000000001 0  0.03083821191399366 -0.04255063245582474 0  -0.03846145324388974 -0.04299613830584857 0  0.04795541017044352 -0.01227431611697052 0  0.008299592740779536 -0.0888576775342028 0  0.0003224400063211396 -0.08664706812346534 0  -0.03475740194999832 -0.07246715544710758 0  -0.02213458157985328 -0.08392313018197853 0  0.03113792071697103 -0.07040805974324374 0  -0.007169687901432507 -0.06341678026929995 0  -0.03394779918807175 -0.05046150297907088 0  0.01355441016226922 -0.09211750166649731 0  0.009545372500945179 -0.06410691866077223 0  0.03545802496863729 -0.007840422211871917 0  -0.04820027677941566 -0.01634659897675718 0  0.03344377044608085 -0.08975779854861986 0  -0.04541256861990934 -0.06100003793299257 0  -0.04457664116340198 -0.08227588074917039 0  -0.04479628068135219 -0.08441144033909778 0  -0.04805644002680714 -0.08404760835015655 0  0.008194986331135287 -0.07203719082326678 0  -0.04763076898789871 -0.07033549727209086 0  0.03443564012900872 -0.07786624700091113 0  0.03105330150307663 -0.07972227990463757 0  -0.03514621395138069 -0.0784736619178216 0  -0.04126307166040279 -0.08566896203137637 0  -0.006023660024602393 -0.03729834141399786 0  -0.03777337320219138 -0.03926372678835471 0  0.032001952132051 -0.01447302962147942 0  0.04109068711050484 -0.01127537238731049 0  0.0234375 0 0  0.003505598394455356 -0.001934737956776572 0  0.006432062839889531 -0.004292081639409267 0  -0.008230463910710783 -0.05962648781174959 0  0.01349893281808287 -0.07116271226355417 0  -0.02899502477229902 -0.04803478075179329 0  0.005107731349712518 -0.09844334110145009 0  -0.04625552207057551 -0.01250248254200394 0  0.03493431590337418 -0.06030576554095572 0  -0.03001746758328084 -0.01854532903596594 0  0.01752296142575204 -0.017898506235741 0  0.02754571401182582 -0.03695931156073004 0  -0.01329391795258302 -0.01114439183113224 0  -0.01330341998558062 -0.00913423680360549 0  -0.01474496566722487 -0.01241690582360207 0  0.03359921814481532 -0.03405083402893039 0  -0.03515806497503981 -0.02924336852339239 0  0.008168121474082026 -0.03544844926309867 0  -0.01272466569573101 -0.03766583575956905 0  0.01627110583161184 -0.05627153061145702 0  0.01792103282159441 -0.05882232399720749 0  0.02011131338754623 -0.05635649609181516 0  -0.03315565034205377 -0.0782329654471511 0  0.03113256618912302 -0.01683006945928067 0  0.01802508509917169 -0.04550425595558605 0  0.01482417316162727 -0.04610922598797052 0  0.01782868919038702 -0.04338851755545801 0  0.01808757669441668 -0.01974479937204086 0  0.0007479406588227182 -0.04630941102478892 0  -0.02825737921890155 -0.03078867343507981 0  -0.03167994964754182 -0.03258206454415181 0  -0.02891423868135732 -0.0334089350109479 0  -0.04510990978682888 -0.02604639913600089 0  -0.01692708333333333 -0.03290140568996416 0  -0.01646505658377557 -0.02930317258289109 0  -0.01915147569444444 -0.03008897569444444 0  0.01447237992915706 -0.05391443372326251 0  0.02473351446176172 -0.004832147234690878 0  0.03759210355280668 -0.00967538398276712 0  0.02543721539204963 -0.07608124881349417 0  0.02344062010589608 -0.03863349163125446 0  0.02061657848502845 -0.0377448979680517 0  0.005169085000972016 -0.0420044241556977 0  -0.03905880867494414 -0.07744778978776083 0  0.04119780571004474 -0.04209087172511992 0  0.03511731072848739 -0.04293786140075419 0  -0.003389459586812602 -0.03835665334840834 0  -0.01095681711124807 -0.06954729451736746 0  -0.04332752203014248 -0.02894861994940035 0  0.01030285546695638 -0.06653351258750856 0  -0.02596190748504787 -0.05362607240081219 0  -0.002815968759843144 -0.04219235082312205 0  -0.05 -0.06406249999999999 0  0.01376997500590554 -0.02405110063143605 0  0.04382140937462677 -0.07954037552804112 0  0.005715900577929808 -0.01040157292959515 0  -8.496028144727461e-05 -0.0173220879651638 0  -0.02191168765981841 -0.08012306100411121 0  -0.02169964726589925 -0.07814763171216711 0  -0.02103221323394636 -0.07503488050239412 0  -0.01784284706265305 -0.07560523021790183 0  -0.0006467224638149068 -0.02088130124969998 0  0.04495896917553115 -0.07156372452692503 0  0.04233932498560593 -0.06893441927875556 0  0.04588066889095144 -0.01568840097202207 0  0.0213724062387126 -0.04492151990354357 0  0.03458684542327604 -0.09791093581449198 0  0.03454043599267424 -0.09595295895008756 0  -0.004687500000000001 -0.1 0  -0.003561234859124687 -0.0980490469500612 0  0.01524541998548908 -0.02759607106627833 0  0.02062850538455265 -0.09221938595856524 0  0.02242496556936416 -0.09046477137638677 0  -0.004535409698083313 -0.06519127478822383 0  -0.002444152277402757 -0.08018925365413369 0  -0.007183493015576356 -0.06924166753497944 0  -0.01691676593555981 -0.01170096973318147 0  -0.0160309181864688 -0.008793822399631269 0  0.0149418154682035 -0.004443419854330772 0  0.03473191852987378 -0.01692937153329831 0  -0.01999959378111354 -0.003989520896316414 0  -0.0263406063065554 -0.08511740888024559 0  -0.02757189723697045 -0.007051096417690477 0  -0.02787221863249389 -0.04050912559888084 0  0.02342170207661852 -0.06156375004236837 0  -0.0378169977058336 -0.04487993423739384 0  0.03158523513293739 -0.0234101749700282 0  0.02250509796962503 -0.06529043073346426 0  0.02309723803175772 -0.06832518233624925 0  0.02097971601908238 -0.06879409185499595 0  0.005649608925003106 -0.07293541457290909 0  0.002005314181027703 -0.07160953721069377 0  0.004677058389338459 -0.07046753579911269 0  -0.04162924258494996 -0.09430629850905355 0  -0.005734486656667935 -0.08447491398799457 0  0.02247248496586275 -0.04111275187432602 0  0.01076081280599701 -0.04995683503768592 0  0.009116470808511714 -0.04731590763080268 0  0.01282123189459499 -0.04818811416515179 0  0.0126651499294337 -0.05195595515888823 0  0.0203125 0 0  -0.009002868201787797 -0.04869624625281631 0  0.007007747100380582 -0.04959979123964301 0  0.004639589519810899 -0.05108934613081326 0  0.00688671743750553 -0.05338047456655459 0  -0.02759311677901748 -0.0823328070769328 0  -0.02433746493959434 -0.08113892035160643 0  -0.03440704696785221 -0.04757780627344368 0  -0.04545628490651841 -0.06867150143263602 0  0.0330193319246762 -0.09240855817298908 0  0.02372950319315786 -0.05788378649075276 0  -0.04154988470785092 -0.03717873950518868 0  -0.03312955241389878 -0.03464469574541818 0  -0.03513023133539478 -0.03688057799267525 0  -0.04059962096452922 -0.06462831544853724 0  -0.01808197497003387 -0.001785868289311572 0  -0.01755138658310258 -0.005477581116628571 0  0.02922924679413061 -0.01060176832331283 0  0.02441072590370595 -0.0929054837984588 0  -0.04457448767839942 -0.01777152058751389 0  -0.04113485614380685 -0.0778406702871829 0  -0.04202545149712906 -0.0795481471424079 0  -0.02081249562573519 -0.04491928487043712 0  0.0362103552727993 -0.06995216967840789 0  -0.03757994444917041 -0.06709771965607905 0  -0.04489297269573284 -0.05768354644037484 0  0.04804717473543341 -0.08445910057906754 0  0.02791118593724227 -0.08916569610710105 0  0.001725762828597449 -0.05613056723892249 0  0.003895180821987836 -0.0236393607118779 0  0.03689126886104027 -0.03958225453654791 0  0.03452944604412104 -0.03963793777041164 0  -0.03010090005342674 -0.09570758959765244 0  0.0406510059578619 -0.009463672917302822 0  -0.02308076237772397 -0.08987146331792781 0  -0.02311982562460343 -0.09298760371372063 0  -0.02043462979439462 -0.09250539937549747 0  -0.01086327099297992 -0.005014062609857923 0  -0.01072184893710808 -0.06490390539331976 0  0.04358182320191761 -0.04058844132853304 0  0.03983623436998167 -0.03985552902859401 0  0.03083889026180251 -0.03093085025667259 0  0.001342218073462028 -0.05912647428938291 0  -0.0282840145203564 -0.03722042418493871 0  -0.0308179112039103 -0.03979386714996321 0  0.02084932671181944 -0.0642776468381467 0  0.02088671269095009 -0.06240702469651116 0  -0.02795423492382869 -0.068944265535142 0  -0.02859225517188646 -0.07177993488201392 0  0.0276807663764732 -0.02341452437181051 0  -0.03022410917305148 -0.01077958489493167 0  -0.0008544995260660769 -0.01041875055942865 0  0.007849009582011639 -0.03910743039857202 0  0.01130278100659475 -0.03643322737114876 0  0.0129699535640053 -0.03896329809606121 0  0.01094138566915794 -0.04033826315792242 0  0.03304454983566926 -0.05808833194342944 0  0.03115040578880909 -0.06003372802837696 0  0.02974088823444093 -0.05691571609443512 0  0.002166785001710686 -0.0680872968997762 0  -0.004305627510404235 -0.01860920323802679 0  -0.001302111183492056 -0.05652244654083724 0  -0.00174307297143201 -0.05959585781395205 0  -0.04604771420796538 -0.04508688933511684 0  -0.04817228266518774 -0.04347388861459901 0  -0.0457818271107923 -0.0414092342755501 0  0.03014510288300454 -0.06719090746275916 0  0.0006349826098883259 -0.02275699419100019 0  0.003071894030292726 -0.02042492932582908 0  0.006801984231713659 -0.03674392697831581 0  0.01661043679905785 -0.0331297702723849 0  -0.01911675057012764 -0.06710909061847127 0  0.002371752748221169 -0.09495851800919096 0  -0.01907578470877056 -0.09811482038481674 0  -0.02160812755138953 -0.09808730016286227 0  -0.03136339580500359 -0.04496180428920909 0  -0.03253597616052476 -0.04680460049942522 0  -0.03486554116454695 -0.04415175536736717 0  0.004015410055563474 -0.06174715230690764 0  -0.009526740687271501 -0.01613797769472268 0  -0.01638424712575648 -0.03773841379242317 0  0.007761962215727216 -0.01436391407193771 0  -0.01263405330530349 -0.0848315206294608 0  -0.01612535708344472 -0.08352138452691246 0  -0.0137118687932259 -0.08158202687391057 0  -0.01951263242126264 -0.07246687456873804 0  -0.02262334712157918 -0.06708620392140682 0  -0.02200116590139829 -0.06932090215010388 0  -0.02547575840129358 -0.06789917861829771 0  -0.03267454249919952 -0.0885362165723278 0  -0.04811912640459025 -0.05253610701182041 0  0.03005566214225856 -0.04572933401449195 0  -0.01155562849102458 -0.045934726191113 0  -0.01692708333333332 -0.03567708333333333 0  -0.01692708333333333 -0.04088541666666667 0  -0.01169960070699664 -0.04090456595967001 0  -0.01993372702819347 -0.04128789369486014 0  -0.01692708333333332 -0.04348958333333333 0  -0.01432291666666665 -0.04348958333333334 0  -0.01692708333333333 -0.04869791666666667 0  -0.009114583333333332 -0.05130208333333334 0  -0.01432291666666666 -0.04869791666666667 0  -0.01171875 -0.05130208333333333 0  -0.009114583333333332 -0.05390625 0  -0.01432291666666666 -0.04609375 0  -0.01432291666666666 -0.05130208333333334 0  -0.01171875 -0.05390625 0  -0.01692708333333332 -0.04609375 0  -0.01953124999999999 -0.03567708333333333 0  -0.01953124999999999 -0.03828125 0  -0.01432291666666666 -0.04088541666666667 0  -0.04839656261803055 -0.07397023150741729 0  -0.04024433245980837 -0.05148967613615939 0  0.04621734313295655 -0.08776214201113207 0  0.003438601733579284 -0.07409333596484037 0  -0.02707115965843617 -0.02111328273495852 0  -0.002713388987052015 -0.008136787412157006 0  0.0008390356868680526 -0.007863289832610657 0  0.03002222490798922 -0.08459454247838608 0  0.009217381127136798 -0.01087786990918838 0  -0.02986151651701308 -0.08345542126252224 0  -0.01561760000785632 -0.06830868095647734 0  0.02701815453383859 -0.006466445647937935 0  -0.04307114537544563 -0.0876468265152662 0  0.02218416859839353 -0.02440402431130564 0  0.01945651314421965 -0.02362861589860546 0  -0.02759216818471872 -0.0281300920662227 0  0.001189133689771877 -0.0207822544774329 0  -0.02424247337532281 -0.01830571464592006 0  -0.02699880677727343 -0.06528383311259306 0  -0.02400770812296918 -0.06427478421164157 0  -0.02487746278307013 -0.06219950913893558 0  -0.004617915384628734 -0.07131753241807326 0  -0.02425969061239081 -0.07722039592232906 0  0.01733939461140231 -0.006494720794806756 0  -0.0199341123853538 -0.04838661920330159 0  0.02304765214605689 -0.08425167778391449 0  -0.02183868112258066 -0.005422628593680853 0  0.00657822564587902 -0.05909631678341087 0  0.01114396811523596 -0.04610080669206599 0  0.04477319463199774 -0.04833527611651616 0  0.04650173795584447 -0.05130627156956358 0  -0.01611522880595989 -0.01866240839646446 0  -0.02986632085140918 -0.01474451861036615 0  -0.04155359187777521 -0.02721283122394998 0  -0.001480875293647468 -0.01852992586475846 0  -0.01171875 -0.04872819576611618 0  0.02684519161778724 -0.0267528581889257 0  0.02562509219183402 -0.02327250315801261 0  0.01251763880242438 -0.01249534090464294 0  -0.02237970224947478 -0.01258671505642948 0  0.01864804858229055 -0.08969135130938187 0  0.04156726546556366 -0.07442715079550234 0  0.04030153452271364 -0.07596865022997004 0  0.03807023319162758 -0.07320682963349499 0  -0.000521210781477624 -0.03017876919236858 0  -0.0008318520259667226 -0.04038123225473551 0  0.05 -0.03906250000000001 0  0.04833425710906481 -0.03828125 0  0.02962943596218294 -0.06340401516288652 0  -0.03774064596242072 -0.05942192948826657 0  -0.004736142985695312 -0.04474595625622255 0  -0.0216400197722568 -0.009333117454196576 0  0.002610590174447866 -0.09823618844184204 0  -0.0446792114989837 -0.0788237445915069 0  -0.01584360230718867 -0.08171913003789963 0  0.05 -0.0859375 0  0.03264524664241122 -0.09511094245967713 0  0.002058667993639286 -0.02882433183903491 0  -0.04621128641905836 -0.01875831673142408 0  -0.03570287219075736 -0.01581613812090303 0  0.0009772674552496394 -0.04244465560155624 0  -0.04263708544801918 -0.04860338475299016 0  -0.004469892028437501 -0.05967434978696924 0  -0.003189912936622991 -0.001804035397494284 0  0.01641853780631685 -0.01405895408180301 0  -0.03286485146038919 -0.06502660822956426 0  -0.01968877658969745 -0.09485076374227272 0  0.02615798433030357 -0.04116160286013801 0  0.02730891305492326 -0.09532550536422786 0  -0.02524111840554497 -0.09820880144307526 0  -0.04820422536218279 -0.05895509481281207 0  0.02892546366582221 -0.07680880088540872 0  -0.007416067229776028 -0.03518034726825829 0  -0.02327872370532284 -0.0204749064822993 0  -0.01248023965029664 -0.08291617032045073 0  -0.03657362796921994 -0.07280026623072221 0  -0.0223614275729049 -0.001795563945530156 0  0.02098557230407688 -0.0269196954330644 0  0.02042604155621803 -0.02955189065163524 0  0.01894698490238263 -0.02628094230654713 0  0.03238172151111507 -0.07419518219958977 0  -0.04037085504457759 -0.02357245548155283 0  0.0236515119744492 -0.07882937295138227 0  0.02574660752638188 -0.09831523885802962 0  0.0359375 -0.1 0  -0.03645178277391214 -0.09373543951171236 0  -0.0392441922137852 -0.09168828583715734 0  -0.03713983575549166 -0.09040833437869993 0  0.02643712606206802 -0.02872481488326032 0  0.02305230917876158 -0.02994446202994329 0  -0.01438092441757664 -0.08541614012962434 0  0.01637740592580826 -0.02551941632336991 0  0.005553999783467427 -0.04846385751927914 0  0.0197299190175258 -0.03137365445772399 0  0.01927739541349182 -0.0343163131815473 0  0.009454590536262899 -0.02926375325908127 0  0.0421875 0 0  -0.02621466914110428 -0.0745150346076927 0  -0.02783287143956791 -0.07688658815954594 0  0.04808091073522938 -0.06576331931689557 0  0.04836048200187842 -0.06803682448734552 0  0.04502387202811982 -0.06659229383285178 0  0.000289870335839082 -0.09816393003171772 0  4.55158174537929e-05 -0.09559543642801521 0  0.002062167648373497 -0.0188974618762693 0  0.04625377189293482 -0.02013714359690263 0  0.0482779894677455 -0.01808402818078748 0  -0.008835948295637792 -0.01316721719410174 0  0.007398918941703169 -0.03180190167941388 0  -0.03937241971298458 -0.07377278315003569 0  -0.005550790196063865 -0.02199648679170341 0  -0.03439629177627788 -0.04069628585823265 0  -0.009005249798019331 -0.003220453989580621 0  -0.0109375 0 0  0.04001413922274079 -0.07947217220789768 0  0.03293360810408181 -0.02017879740592817 0  0.0323993317698328 -0.06678194662539473 0  0.03141556794674372 -0.06349796956950662 0  -0.02888891546908775 -0.05600262202540805 0  0.04815155286411878 -0.006537230068970651 0  -0.03979263298807406 -0.03417183048606735 0  0.009823839215686508 -0.07468518131042275 0  -0.004687500000000001 0 0  0.003064372432994686 -0.08151837324937494 0  0.005082367405831703 -0.07924292674814079 0  -0.04292416821868097 -0.02527853614675298 0  -0.01257981661239014 -0.03190670487596735 0  0.0393525547522352 -0.0202977721447639 0  0.03855653359238993 -0.02194449202410435 0  0.03833722078461083 -0.01875961474328846 0  -0.01155562849102458 -0.0437547763421078 0  -0.005112842310742847 -0.0289173158262394 0  0.007880566689766753 -0.09806057982495789 0  -0.03451499445757375 -0.01450331771280894 0  0.007439342558511924 -0.06169412881990842 0  0.01668600241955626 -0.03097866552280258 0  0.007808664082198944 -0.09597107339876711 0  0.04287097502754967 -0.008031497897653516 0  0.04505180385920117 -0.02932542691051523 0  0.03013279554826485 -0.03287534219077422 0  0.02701766583748812 -0.0607808737247923 0  0.04295599148530863 -0.06529341667744347 0  0.004205271826810189 -0.05906909110223223 0  -0.04117118886765164 -0.08109015000601548 0  -0.03319390416988301 -0.001721343837275143 0  -0.02701905948190587 -0.03420368227028395 0  0.02224586268577287 -0.003945727523529723 0  0.02755543059494003 -0.07239631376986599 0  -0.03170383056757221 -0.06229380722247076 0  -0.03433327775466556 -0.0618046716509543 0  -0.04044058995877731 -0.0135355757335078 0  -0.006510416666666663 -0.05397463149222155 0  0.02979794365197661 -0.09377144891582417 0  0.03595819105513484 -0.06743500493875221 0  -0.004186085956682403 -0.04101701323173293 0  0.0008454012759008301 -0.07713798760675823 0  0.02448412737790592 -0.08766283926071572 0  0.02774713882407576 -0.08698701816670062 0  -0.03150412316369681 -0.01683567033967017 0  0.0392376343509131 -0.07041275145907266 0  0.04313110864619899 -0.06285939600837437 0  0.04026188792608635 -0.06274413791360257 0  0.01490811737430122 -0.01815748923040521 0  -0.0152166235939798 -0.07557541333693718 0  -0.03905902267393366 -0.08092371160810416 0  0.036644526860098 -0.05856190909012812 0  0.04839932524844279 -0.00865770455526617 0  -0.02172461481374172 -0.01711947829784683 0  0.03502888246203005 -0.02662618376898498 0  0.03393218692150203 -0.02833904268792891 0  -0.04031540873094189 -0.04618575276504919 0  -0.0140625 0 0  0.01908514024155837 -0.0863776329894482 0  -0.01971410706487271 -0.06066598098012783 0  -0.01923030513155376 -0.06354909259591518 0  -0.02100580641446529 -0.06400409913127297 0  -0.003668691440773998 -0.05644703739332368 0  -0.00832488572051532 -0.04489703146947994 0  0.003215512932028335 -0.04739683855119951 0  -0.02681638173272521 -0.05659216526083696 0  0.04606007517071044 -0.00949294628814989 0  -0.02937321394763507 -0.07605669221292236 0  -0.02486310391344979 -0.03854942208631368 0  0.03657577998010641 -0.0794522873883559 0  -0.03747211747330889 -0.01525838136698858 0  0.03828125 -0.025 0  0.04140624999999999 -0.0234375 0  0.040625 -0.02578125 0  -0.02615669686418445 -0.04245978113438763 0  -0.02786854094272811 -0.04426584180680408 0  0.01733916204031951 -0.01067832291645359 0  0.03395898426311517 -0.07970718585064725 0  -0.0009523537286110506 -0.08539467671252784 0  0.009148091217578409 -0.006859502157612021 0  -0.01384839395707845 -0.07882051771324676 0  -0.02528234839396254 -0.07235550507120665 0  -0.02233884747918685 -0.07174065242471543 0  0.04072790672843414 -0.01341255486193027 0  0.02210989970907484 -0.08621085361415046 0  -0.01639534084371667 -0.09488806700279183 0  -0.0359068175526368 -0.02378498890761314 0  -0.01642429537812841 -0.01554553651723728 0  -0.009868267605044632 -0.001688086639219139 0  -0.04398888004130567 -0.01171461167194711 0  -0.007990798452478709 -0.08950458135796664 0  -0.003437109196252027 -0.09614075558673832 0  -0.005666423106406058 -0.09836509116565961 0  -0.04416341710664264 -0.03906320589793816 0  -0.04220478711516608 -0.02032757118767607 0  -0.0007304231120516056 -0.06525483325129498 0  0.04571692188981746 -0.03936013908857622 0  -0.04493199712142847 -0.09520323073982323 0  -0.04400286876361785 -0.0981869685901494 0  -0.04611548536493325 -0.09844299093013048 0  0.02424416368163389 -0.07395314126881693 0  0.04273820921911557 -0.001646689439467858 0  0.03805162365117582 -0.003242539141854859 0  -0.03996948399416095 -0.06794165841102252 0  -0.03836933328569094 -0.07055391585998522 0  0.003953152531093245 -0.007001967795568576 0  -0.02462792886427298 -0.04510439228218247 0  0.03853826123790701 -0.09142709347427863 0  0.03559757304728373 -0.09285131497116357 0  0.03730020894457873 -0.09823408971538854 0  -0.04614292548179974 -0.05943086762223604 0  0.04845381131058759 -0.09140625000000001 0  -0.04157264112860838 -0.03078731735395774 0  -0.03847177245354389 -0.0367681266259752 0  0.007361318163702384 -0.02176317693532475 0  0.0331891491596804 -0.0863907328258092 0  -0.03901033695063318 -0.009802432939280079 0  -0.04036203350189881 -0.01094579591837372 0  0.04127822573223301 -0.02004610997813836 0  0.04048457735268253 -0.01668493531816347 0  -0.009125167787780534 -0.04335417144227315 0  -0.009011029966651778 -0.04062461271253701 0  0.02260012015781724 -0.03292575221530523 0  -0.04322364711379952 -0.09363010836805206 0  0.02361539460291784 -0.02807397355620422 0  0.021948443670012 -0.01369612401697987 0  -0.02025701458283329 -0.01494682055541054 0  0.02568662278239495 -0.07977783084146924 0  0.01904183715184792 -0.06150750363943223 0  0.02164218989516194 -0.09394860151095942 0  0.01349963178219429 -0.08593027521196091 0  0.01659128493613079 -0.086935787868913 0  0.01610567133630874 -0.08439183027780817 0  -0.004350183622882246 -0.01639694235721915 0  -0.005020893858596579 -0.07860214411608571 0  -0.02959427836944091 -0.09244514061195841 0  0.01788910098074691 -0.07818094157394692 0  0.007993421264563998 -0.05588916711182773 0  -0.03953798887753968 -0.08710807575083515 0  0.0328125 -0.1 0  0.01561231669066057 -0.008674083460499629 0  0.04624245369656037 -0.01248351009290188 0  0.04849423386419199 -0.01479500671681712 0  -0.03665051076150527 -0.06909466619449049 0  0.03577825599618199 -0.09473416596371731 0  0.0140625 0 0  0.03485503062124005 -0.06881802734275347 0  -0.009611286302971518 -0.06197293762347012 0  -0.02368776097536214 -0.05628240572005599 0  -0.02320806809876556 -0.05915191765246207 0  -0.04297218382007404 -0.08590741434631835 0  0.03805996984719173 -0.09658899459631076 0  0.02667407024001682 -0.06835345269888123 0  0.02802231520188002 -0.06598384331538472 0  0.04422463877887573 -0.04239499431466224 0  0.04372382808221951 -0.04483999600157954 0  -0.03053860460529459 -0.05152671902895579 0  -0.03151498146247666 -0.0499473597007698 0  -0.02880624554896211 -0.05190583657473875 0  -0.02799984682747062 -0.04943340599058696 0  -0.03395211491563267 -0.07495322214508 0  0.02161956820536196 -0.0715028446507561 0  0.02145706001699292 -0.07413349296672617 0  -0.04845991064854558 -0.03673512378254998 0  0.04238670623435169 -0.03849883917796157 0  -0.006440170767260289 -0.0427836613889092 0  -0.013994429345538 -0.02152636935281862 0  -0.01064330761876152 -0.02080195221328036 0  -0.03719639944185629 -0.04183189413046079 0  -0.01638685209516281 -0.004140814638998176 0  -0.002446866923003689 -0.06726113607087911 0  0.0005044285752298626 -0.01379044141987053 0  0.02837774763271969 -0.01493633431010062 0  -0.04136249049824998 -0.0662651475401172 0  -0.03594650483111415 -0.09166923023850253 0  0.01901818906084091 -0.03708234421174355 0  0.02309902270528202 -0.01710210864759389 0  -0.01225479836007614 -0.06840686575111941 0  0.006670677870514775 -0.06492304541841983 0  0.0005042659000463546 -0.0706442070080241 0  -0.001229707650287227 -0.0686706673061121 0  -0.008951299015395937 -0.03848096315329933 0  0.04406047400327841 -0.06858191706433066 0  -0.03472060866939086 -0.05732774700086921 0  -0.02198366889865391 -0.05136841954478753 0  -0.0226351749814931 -0.04965302998553064 0  -0.02452596372911724 -0.04940506484590565 0  -0.02584715216581398 -0.05063333194324765 0  0.03275835058135572 -0.069768389810276 0  0.034502599027716 -0.07221497567281093 0  0.03930204089053368 -0.0542859178917327 0  0.01889464267855688 -0.07174607330256361 0  0.04828802975071082 -0.02511248811016336 0  -0.001242692848311552 -0.02453787375321078 0  -0.0009137538293355649 -0.02723890034088429 0  0.01575076539894387 -0.09454758560601403 0  0.01708041860072189 -0.09302008585267084 0  0.01499662781635355 -0.09120498855657148 0  0.009507271836584152 -0.03875260097857094 0  0.02400641451116654 -0.03611273235146416 0  0.02186046696683286 -0.03536654226812179 0  0.02509809964215037 -0.0341134549293664 0  0.04176420716056679 -0.08470734628804 0  0.04830565797386635 -0.05326240436848726 0  0.05 -0.0546875 0  -0.04184485273552505 -0.005277499502655519 0  -0.04447621313644466 -0.007362489487204959 0  -0.01359216724184967 -0.06573184823031608 0  0.006579345813181347 -0.07604559218577921 0  0.04432424193266164 -0.004784010123448441 0  -0.05 -0.0421875 0  0.03888199781909199 -0.008576355142667918 0  0.04185052397125599 -0.09040327906227953 0  0.04367823081550155 -0.09279933892086459 0  -0.05 -0.0265625 0  0.01730766645893324 -0.02312815315616748 0  -0.02439932044318716 -0.05292897854278673 0  0.04504539898905737 -0.09601953464091741 0  0.01827448861120927 -0.0551693132493233 0  -0.0224544551111292 -0.03772394202527515 0  -0.0323706799180585 -0.02370408704488055 0  -0.0203125 -0.1 0  -0.02095870557061441 -0.05843796894332276 0  -0.02981756157736552 -0.05834495495195317 0  -0.03203978345072137 -0.0574813644810117 0  -0.0306656133500556 -0.06060665342614047 0  0.04001564851502092 -0.06494806546295115 0  -0.02162303747948496 -0.04829808182490296 0  -0.03682332408031391 -0.01225302138555511 0  -0.03822048816628228 -0.01328983962024257 0  0.02017264389999211 -0.04022967569049397 0  -0.01870389848681355 -0.08091703316106207 0  0.04636594091932174 -0.06552590861214863 0  0.00498724098516013 -0.09039851202762172 0  0.002948124312125419 -0.08893213744979264 0  -0.006978633775604707 -0.0510518097878812 0  0.0418469330939094 -0.006602750271804416 0  0.01123597488745198 -0.007823072686830339 0  0.003833816990584821 -0.02734430907162308 0  0.005474350329101081 -0.03001705705516488 0  -0.04363063259869641 -0.001679381850004518 0  0.01770106090999505 -0.06452207583910662 0  -0.02197424208088658 -0.03046480421711609 0  0.004687500000000001 0 0  -0.04164168012530915 -0.06976888025874925 0  -0.04407716976055878 -0.07098822230412045 0  -0.04334072568701926 -0.07281119722011131 0  -0.04498843852561831 -0.07457396944552638 0  -0.04656123168016195 -0.07642217900715381 0  0.04050282158225466 -0.03318702209918079 0  0.04307310692518929 -0.01438544383158779 0  0.0439292245043755 -0.01206891365451549 0  0.04116776264904067 -0.03578177035499202 0  0.03815781162724478 -0.03511154933377432 0  -0.01624188870473453 -0.06128649604741916 0  -0.02393313574179787 -0.02377965025550962 0  -0.01849801913488358 -0.03232939818436738 0  0.04667998275850164 -0.032698523333252 0  -0.03238420186843601 -0.008813791608277314 0  -0.03379801363784417 -0.0103885645650361 0  -0.01733984272086032 -0.08680877316203015 0  -0.00855263833068491 -0.06824491119945986 0  -0.01438973284788936 -0.05633649444322268 0  -0.0139058884867534 -0.05871666257001249 0  0.01074102224297309 -0.01850950029058222 0  0.02061992817115868 -0.08305880541037541 0  0.03647630359014919 -0.09143238887055696 0  -0.04505074541686856 -0.0464356147604848 0  0.04427076816633617 -0.02115859349867799 0  -0.01262065131687715 -0.003881341282303994 0  -0.0111073150847093 -0.07911313484190831 0  -0.0292085379373125 -0.02119822803744204 0  0.03144151863431595 -0.09824423985325063 0  0.03128628044983588 -0.09609187721646688 0  -0.01267167922899742 -0.01913869642407766 0  -0.04823870987525258 -0.09084204344005208 0  -0.05 -0.09218750000000001 0  0.01082407152263114 -0.0309953249678435 0  0.0008495730250705474 -0.03450172124787868 0  0.00387324022687192 -0.005329699097450733 0  -0.01177978240816797 -0.008333185739452647 0  0.02646635899959049 -0.05225988253257415 0  -0.01463379778004665 -0.06978387898440573 0  -0.004710164979473496 -0.0928383885994004 0  -0.001537361812977841 -0.09183103635621589 0  0.02559563796227064 -0.003412678834729784 0  -0.01458010073025769 -0.05390625 0  0.02137183393822077 -0.0590085221583143 0  -0.001576348224417626 -0.01637523135305157 0  0.001472917788019082 -0.01542441723502727 0  -0.03128470574248483 -0.07549155118447134 0  -0.006160787771090825 -0.04799163790095413 0  -0.01614194471910262 -0.07875854659460224 0  -0.04605347562965131 -0.02436958975054641 0  -0.005724784492378706 -0.09504408502530426 0  -0.03201932651192579 -0.08072863592367834 0  0.02809922881818916 -0.03539914196053316 0  -0.01824735094828979 -0.07810616174342117 0  -0.05 -0.08281250000000001 0  -0.0484375 -0.1 0  -0.05 -0.09843750000000001 0  0.02633057604140265 -0.08970693951336907 0  0.01875198356834755 -0.004586152238827983 0  0.02031211398677475 -0.005153725594588204 0  -0.003585642758517219 -0.08338818138219124 0  0.00504386143190748 -0.08237570705313864 0  0.007109546604199071 -0.02394156082783119 0  0.04661292163665418 -0.09835954698075154 0  -0.03460962354126274 -0.0459361565652129 0  -0.03732164590094677 -0.04779530473807354 0  -0.01931431280249884 -0.04609375 0  -0.02864174901762227 -0.07347143860603883 0  0.01902839241071538 -0.001650899173387039 0  0.01520891698279912 -0.05969829059136152 0  -0.02530794991191344 -0.02877131804044909 0  0.0264178067266797 -0.01002883224072992 0  0.02673016435351893 -0.01286305161803762 0  0.02801013737214825 -0.009488451471686223 0  -0.01018722003888862 -0.08050813238189689 0  -0.01082108198347993 -0.08211896678223678 0  0.001231783166669173 -0.08050704845728653 0  0.04531250000000001 -0.1 0  0.04302272686433369 -0.04721706120608084 0  -0.01188581710229441 -0.01464633490369723 0  -0.04154547299768868 -0.09265981917192742 0  0.04835277596636021 -0.03446202104544018 0  0.005434516123797042 -0.03355327467553561 0  0.003898054037233404 -0.03527583152213654 0  0.0353858097709929 -0.05665174961851906 0  0.0337884473891351 -0.05460718489330078 0  0.01090240955478674 -0.05402031770188526 0  -0.001837979309356759 -0.06202291504743938 0  0.03726988593031999 -0.001707338135519202 0  0.0359375 0 0  0.01891769558890485 -0.008130063332440622 0  0.02112680287951949 -0.007182894483686506 0  0.02069438039481685 -0.01041153970082536 0  0.03633440168772156 -0.03337776180406733 0  -0.05 -0.0078125 0  -0.03565566940890542 -0.0264385640676824 0  0.02421875 -0.001460230416916121 0  -0.03754615245660891 -0.001671017036253931 0  0.03423230346285393 -0.08200465277485418 0  0.03686505600937307 -0.08180844633712978 0  0.03659060654472844 -0.02205092307513984 0  0.04040482344991982 -0.00576821452723559 0  0.04535451674945223 -0.007143268229559786 0  0.04830480312230745 -0.04673855680545282 0  0.05 -0.04531250000000001 0  -0.0444315381589892 -0.00452711536623563 0  -0.0431948865787256 -0.03719475749540319 0  -0.03505379652213259 -0.007297763486728251 0  -0.02139430757469193 -0.0200282627794506 0  -0.01689440984961601 -0.02048977820327376 0  -0.01926025695502624 -0.02024713381527585 0  0.001176028743070504 -0.005312707133933157 0  0.03652800755960622 -0.08532088284622794 0  -0.008973633449642084 -0.022229926236552 0  -0.007346103689937933 -0.02388886401972043 0  -0.01201346281496784 -0.05600016096740288 0  -0.02827478243375398 -0.05346223359486457 0  0.002062866900193093 -0.08375674361525162 0  -0.03376689891210815 -0.07053315088253943 0  0.009055756797516006 -0.06787879444454123 0  -0.0008112247513520484 -0.08196121507575886 0  -0.04837833124261903 -0.05420737633353581 0  -0.006218008262450061 -0.08905196907834839 0  -0.008068072222769229 -0.08621390726582412 0  0.04651019676850526 -0.06237066804404576 0  0.04824838298132056 -0.06261653776768819 0  0.05 -0.06406249999999999 0  -0.004106681459255408 -0.009842164957641347 0  -0.00890551402543094 -0.07669621454400365 0  -0.007835891214994095 -0.07539078090646457 0  -0.007818588748072135 -0.078515126908775 0  0.05 -0.0109375 0  -0.0189041542433693 -0.01791011461339309 0  -0.02247324583786889 -0.02887580874760357 0  -0.03009377107138142 -0.08008127034164512 0  0.01235630417055644 -0.06354714744631179 0  0.0321356245381919 -0.05463308953185839 0  0.01740167217167078 -0.02878841977084766 0  -0.03140647901326347 -0.09461924433069703 0  0.03399725732966128 -0.007049178102690275 0  0.03377610246494524 -0.009222958628701677 0  0.03257971230527298 -0.004189583003874742 0  -0.02096979882015976 -0.08998140219805049 0  -0.01987472757735599 -0.08860499188337605 0  -0.009412779212734913 -0.08457092472189479 0  0.04578782911147741 -0.05675321623119051 0  -0.005937315717927029 -0.007018560383058098 0  0.03095360720879473 -0.08134694916299613 0  -0.04320994843847752 -0.01446751850770368 0  0.02525718221910314 -0.0644224883416977 0  -0.03011227582015611 -0.05491663657011954 0  0.01634023559849552 -0.07934726015341267 0  0.01966105568371081 -0.07980930110890679 0  0.01743531432448149 -0.08143393452012881 0  -0.034033509518539 -0.09580073297977609 0  -0.007382101428181567 -0.0174872678622514 0  0.01422104128432557 -0.0574728398015178 0  -0.05 -0.0578125 0  0.04103588953293331 -0.08741094323461297 0  -0.01773829605562014 -0.01310079118234815 0  -0.003650638982939926 -0.02687347943237787 0  -0.004763226258762934 -0.02544039938959696 0  -0.0404026554108089 -0.08424502195583609 0  0.01084917183279576 -0.08758400344942135 0  0.00544129398496433 -0.01923210266410404 0  0.01890612858042567 -0.01350769413274733 0  -0.02265507431745275 -0.07446773357752805 0  0.01024587951903527 -0.02330935545630703 0  -0.01252602534445095 -0.02273869080129673 0  -0.00237569780992264 -0.03289446498059487 0  -0.01447986801704288 -0.01407701566498049 0  0.01817339165028255 -0.05243337564121595 0  0.03339926813488541 -0.04595197897302176 0  -0.02071990452125918 -0.08705149989171444 0  -0.0484375 0 0  -0.05 -0.0015625 0  0.05 -0.0578125 0  0.04846232952183962 -0.05680668843943944 0  0.04858644086213557 -0.05859375 0  0.004023056189852434 -0.03857025067839021 0  -0.005676921037278333 -0.05006987330783291 0  -0.03280372381096185 -0.08532634000866818 0  -0.03193082135181895 -0.0868146634836381 0  -0.03562726343960552 -0.009426495186475627 0  0.001392706148559648 -0.06395873884350574 0  0.001515819937990297 -0.0612058482045145 0  0.04300194989211428 -0.05554265833234732 0  -0.0152889295503948 -0.03276598026243307 0  -0.0102806688794698 -0.05876271795700176 0  -0.01897546044124709 -0.05332939113838762 0  -0.01719468109916456 -0.0505807019136397 0  0.04162765205608168 -0.07039326929532935 0  -0.009970530576996947 -0.01053039653316624 0  -0.04211675489099382 -0.0164061822458843 0  -0.00742579778083521 -0.005801877455452067 0  0.03675018171955668 -0.08848243759361456 0  0.01199697692997241 -0.058984518130708 0  -0.02343960577684467 -0.04627849195122235 0  -0.01595884200481777 -0.08511847584202997 0  0.03281432534522703 -0.0244960134078878 0  0.03972114507343055 -0.04145797640088977 0  0.04047475625143419 -0.09699905835395513 0  0.01132099150660987 -0.003970058670724109 0  0.04345356682255066 -0.03218454146111794 0  -0.01860487144251813 -0.08356851163246476 0  -0.01913402485374281 -0.08541270285671435 0  0.01580235143200802 -0.05300845566202771 0  -0.008658337353509663 -0.07992113794005237 0  0.04512082117182855 -0.003163798472886603 0  -0.04824013816220669 -0.06219479755577102 0  -0.05 -0.0609375 0  -0.02553047554310944 -0.001551189984565228 0  -0.007889471604407871 -0.08288528921728427 0  -0.03682646495098911 -0.08849489999692289 0  0.0344724171911955 -0.001781402336893533 0  0.02812085621797527 -0.0198449645944733 0  -0.05 -0.09531249999999999 0  -0.04848284495899206 -0.09623395036876084 0  -0.03421037190493038 -0.0906652369292074 0  0.04107518642763387 -0.06006088126008405 0  0.02928820413208159 -0.06103137109926614 0  -0.04420723403974034 -0.05495928525957663 0  0.02853879771183543 -0.04983387946955761 0  -0.02705008112815516 -0.02390307338923037 0  -0.04527895952621557 -0.08905921897824556 0  -0.02530150539289243 -0.0559379938151277 0  -0.03906250000000001 -0.1 0  0.02030037282362401 -0.09657382979855417 0  0.017187626952706 -0.09628922367456179 0  0.01895748524496576 -0.09840038922915406 0  -0.04831281068804488 -0.05732918706356061 0  -0.004334433772085752 -0.06204994588123335 0  -0.0209080875417459 -0.07662713977876906 0  -0.035630119228791 -0.04213895560518201 0  -0.0234375 0 0  0.03387767081518499 -0.04110627416298633 0  -0.02903513146439706 -0.02434883282751898 0  -0.02995923345153408 -0.02281962011159115 0  0.03628106215458459 -0.06191242066797646 0  -0.01998381313981156 -0.02559788065223443 0  0.001334417297316143 -0.09027110744211292 0  0.01956686700026423 -0.08838706227765243 0  0.02119360057420755 -0.08877653688992992 0  -0.04822282986172321 -0.01254746375338932 0  0.01897132622274226 -0.04818917069836885 0  0.01877450229532074 -0.05042027151892382 0  0.008348249874118313 -0.04406451249783304 0  0.01926151962723087 -0.05992447340815192 0  0.04303551740281419 -0.05221208762095242 0  0.04316771177950235 -0.05055961249403544 0  -0.01124882790205732 -0.08561550864396875 0  -0.03487102961521734 -0.09394739526994358 0  -0.03284347077283539 -0.0928402886718603 0  0.02855580875793202 -0.02965235453857057 0  0.0275586803855839 -0.03187539353157028 0  0.01278171761862835 -0.04367259786063482 0  -0.002230859590362405 -0.08633941226890038 0  -0.009317707561007742 -0.00723817591573791 0  -0.04628542534931894 -0.06488542422453999 0  -0.04559969230894314 -0.06261287802265146 0  -0.03549333970893096 -0.05877650436040723 0  0.03814432517406528 -0.01443672202163861 0  -0.03148070364568636 -0.083510801724224 0  0.01413052010119659 -0.009389502160894639 0  -0.0008098319324114447 -0.08950509539502496 0  0.0377031595873759 -0.0370840210891445 0  0.01255567389343238 -0.01875669977713929 0  0.01055332124836828 -0.02122269026435361 0  0.01289863565765652 -0.02096070221481863 0  -0.03225438180362809 -0.03107962040142952 0  0.04639081665769942 -0.09510162937447562 0  -0.05 -0.0515625 0  0.04704792278427633 -0.04367142859359522 0  0.02378330144214598 -0.0516705092605356 0  0.02095559199324484 -0.05077897888898596 0  0.02315483332411409 -0.04897308783439056 0  0.04241574490566732 -0.02115859349867798 0  -0.003587402364175357 -0.03149153588773727 0  0.04842312328087126 -0.07133135235647224 0  -0.02463755003151842 -0.04181950812358058 0  -0.00736479410276593 -0.02066870850595996 0  -0.05 -0.03906250000000001 0  -0.0485852101327898 -0.03984375000000001 0  0.02939035834365174 -0.01890737620210475 0  0.02801635613930165 -0.05314150680701443 0  -0.001211000384548085 -0.01419183719636728 0  0.0015625 -0.1 0  0.02527409159762613 -0.03090956966262978 0  -0.02944273228431295 -0.08497307522931515 0  0.009913388722874238 -0.0819599169338949 0  0.01192214909772467 -0.08194264601442183 0  0.01149399840999109 -0.08468367462389963 0  0.04315901838865836 -0.09852489975759293 0  0.04112155663477325 -0.09847090778665886 0  -0.01907715725318373 -0.007386385276204514 0  -0.020791625174225 -0.007431524084731622 0  -0.01718230745399733 -0.09311916639269495 0  -0.01570447163329778 -0.09163703652520934 0  -0.01448868578038631 -0.002489912979727968 0  -0.0368905664630186 -0.01067239776272578 0  -0.01558909581522321 -0.08849582318267966 0  -0.03909323733667611 -0.003633811855998256 0  0.0109375 0 0  0.02363332196680728 -0.02020887579161902 0  -0.02456146086752418 -0.03547584742454928 0  -0.01441004708834846 -0.02983725861480525 0  -0.01592686498882853 -0.0313263909649317 0  -0.04628737598600092 -0.03802364185023785 0  -0.003588698982274615 -0.04756559079455246 0  0.03946078836391552 -0.02808670649690729 0  0.03880897340023313 -0.03038424113341104 0  0.04118823599515461 -0.03069217870496654 0  0.01379230725571167 -0.03273328139531854 0  -0.04235961703442911 -0.0904411189668541 0  0.02600046219069722 -0.0208487298006807 0  0.01604828773016203 -0.03791592173361046 0  0.01751563465771312 -0.03854040120278274 0  0.05 -0.0609375 0  0.01246317096784876 -0.09783892639182749 0  0.04685549256184014 -0.07344263060849651 0  0.04843233713110724 -0.07500103950459711 0  0.04669563736793854 -0.07656881046473733 0  -0.0448635495855776 -0.02761310087595703 0  0.0303485822656615 -0.01350285709122089 0  0.03224605108635349 -0.01215211084696151 0  -0.03236092371431418 -0.05322606872761087 0  0.0450942789909098 -0.0535172481422591 0  0.004651453956349963 -0.08080425705427573 0  0.02809350089032027 -0.002613848436000562 0  -0.007780810481280456 -0.09395812364190835 0  -0.00937478388821158 -0.09530122478136763 0  -0.008925148480947664 -0.09843381547109176 0  0.00953723451419417 -0.05624681382709083 0  -0.0125025649173645 -0.09843493678271331 0  -0.01250625114682754 -0.09530480798227495 0  0.01218563796599231 -0.09466625734625071 0  0.01079579989760286 -0.09594917086750764 0  0.0140118064601774 -0.09594630830018949 0  -0.01093934259758584 -0.09686947287428962 0  0.0312815578304427 -0.001698650759440839 0  0.00383292788642815 -0.06335465307256435 0  0.031751809693708 -0.04128127335665044 0  -0.01904969928192487 -0.09177225797015963 0  0.03505406134441619 -0.08335106406575787 0  -0.008631360214121826 -0.02900494975287651 0  -0.00655528989325412 -0.03036259657956806 0  0.0483838270237088 -0.02189024158716728 0  0.03197162211996991 -0.04371228374323241 0  0.003114706473499972 -0.03995777051533941 0  0.0007661706505117675 -0.03878712621920281 0  0.04792915697358666 -0.04998992446796235 0  -0.04801152874030919 -0.07812318825209462 0  -0.02819796392336018 -0.003039403196102558 0  -0.0265625 0 0  -0.02767382147503402 -0.001531408377335797 0  0.04843574459790702 -0.03125044642586997 0  0.05 -0.0171875 0  0.05 -0.0703125 0  0.05 -0.06718750000000001 0  -0.0171875 0 0  0.05 -0.09531249999999999 0  0.05 -0.09843750000000001 0  -0.0171875 -0.1 0  0.0171875 -0.1 0  -0.05 -0.0484375 0  0.05 -0.0359375 0  0.05 -0.0328125 0  0.05 -0.07656250000000001 0  0.05 -0.07343750000000002 0  0.03906250000000001 0 0  0.05 -0.07968750000000002 0  -0.05 -0.07656250000000001 0  -0.05 -0.07968750000000002 0  -0.0359375 -0.1 0  -0.03906250000000001 0 0  0.03906250000000001 -0.1 0  0.0171875 0 0  0.0328125 0 0  -0.05 -0.0859375 0  0.05 -0.0515625 0  0.05 -0.08906250000000002 0  0.05 -0.0484375 0  0.0484375 -0.1 0  0.0484375 0 0  -0.05 -0.0328125 0  -0.0328125 -0.1 0  -0.05 -0.07343750000000002 0  -0.0078125 0 0  0.0078125 0 0  0.05 -0.0078125 0  -0.0078125 -0.1 0  0.05 -0.004687500000000001 0  0.004687500000000001 -0.1 0  0.0015625 0 0  -0.0015625 0 0  -0.0015625 -0.1 0  0.05 -0.0015625 0  0.05 -0.0140625 0  -0.0296875 0 0  -0.0265625 -0.1 0  -0.05 -0.0203125 0  -0.0140625 -0.1 0  -0.0109375 -0.1 0  0.0109375 -0.1 0  0.0203125 -0.1 0  -0.0296875 -0.1 0  -0.05 -0.0296875 0  -0.0203125 0 0  0.0140625 -0.1 0  0.0296875 -0.1 0  0.0265625 0 0  -0.05 -0.0234375 0  0.05 -0.0203125 0  0.05 -0.0296875 0  0.05 -0.0265625 0  0.05 -0.0234375 0  0.0296875 0 0  -0.05 -0.0109375 0  -0.0234375 -0.1 0  -0.05 -0.0140625 0  0.0265625 -0.1 0  0.0421875 -0.1 0  -0.04531250000000001 -0.1 0  0.04531250000000001 0 0  -0.04828980144547906 -0.046875 0  -0.05 -0.04531250000000001 0  -0.04531250000000001 0 0  -0.0421875 -0.1 0  0.05 -0.0421875 0  -0.04350328610589898 -0.04664713184197014 0  0.02779487632895533 -0.05814991770040182 0  0.02990164109359961 -0.05907542879269979 0  -0.02670367363770539 -0.009673121330096374 0  0.008077948192471374 -0.08120277742142985 0  -0.01082815750210981 -0.07740721925116081 0  0.01423898291326179 -0.04967510961170915 0  -0.006270092188113956 -0.07265295559972625 0  -0.005185696578509045 -0.07519564196168514 0  -0.03064233491194916 -0.04857987595260207 0  -0.0291331646370734 -0.08207404126858019 0  -0.007137354881908638 -0.02719801970039498 0  0.04347531149161154 -0.09632022083863682 0  -0.00408281669807784 -0.03496615388439835 0  -0.005561235067107414 -0.03280462086960199 0  -0.0294589887983631 -0.06853848769108088 0  -0.007996120807677542 -0.009276532098770388 0  0.04052428824504536 -0.06735802078731445 0  0.0213075702412433 -0.01884184167804088 0  0.03992904443228919 -0.05746170664391857 0  0.04250893229238192 -0.05734918076717702 0  -0.04642259794281899 -0.08468613198907844 0  -0.004206593417692549 -0.08482821629435755 0  -0.04181505692021518 -0.01036677395063604 0  -0.02251591588925926 -0.02534187964809537 0  -0.02096222256339486 -0.02284965478179757 0  0.008053957990568473 -0.0299402944179232 0  0.007072105158341157 -0.02727616164622629 0  -0.04299297084853178 -0.01291509031253159 0  0.03648657869273611 -0.05353556811035854 0  -0.002966979231171331 -0.05174252990113383 0  -0.0003357016084768636 -0.05359356816884088 0  0.03586457582985461 -0.08999972363457429 0  0.02399582230499316 -0.07726175314528801 0  -0.01144562270825399 -0.001692689230605756 0  0.03108390978108366 -0.06594845893192823 0  0.04288194444444444 -0.02682291666666666 0  -0.01092434872686286 -0.09375245084398459 0  0.02839758296251583 -0.04272523029463079 0  -0.01972389457358588 -0.03328573546580597 0  0.02657608507230502 -0.06228073040903606 0  0.02458065007288347 -0.01327378600570061 0  0.03120413667150149 -0.0391813675738139 0  0.02564964903404511 -0.08663710682039144 0  0.0007697088755072002 -0.06739682057966744 0  0.007091941563112777 -0.0165415380695558 0  0.005597575358301082 -0.01375277107803309 0  0.004566392742898813 -0.01498775736781872 0  0.03572997258672492 -0.004335921057158636 0  -0.02173722956220891 -0.03567708333333334 0  0.02365737289113519 -0.04432573430007727 0  0.01993957569756668 -0.02172177097381336 0  -0.009791801592684404 -0.03033377223533558 0  0.01107020214776975 -0.01357625950359936 0  0.01119184763198969 -0.01518056350921669 0  0.01391218072944126 -0.01352772495826596 0  0.01342542275712887 -0.01575461163169694 0  0.04289163259494302 -0.0828054988215063 0  0.04393038059928881 -0.0857332574576833 0  0.04455745188301122 -0.04987112856468235 0  -0.0214381564438239 -0.04167905004622655 0  0.03009279832707366 -0.06877511020030626 0  -0.03504726554755612 -0.03214148367483272 0  -0.03773880776055265 -0.03135466038045543 0  -0.03671421586198156 -0.0294983731893489 0  -0.02515036422374465 -0.07979337743849195 0  0.02505789171550941 -0.05462571702396751 0  0.02637310899341614 -0.0557118438524549 0  0.03040971863707885 -0.08765127485705719 0  0.03194967090723326 -0.08936837677953377 0  0.03357330044966135 -0.08821922624794785 0  -0.03828125 -0.09864623864459726 0  0.02117147262782209 -0.04651482738331746 0  -0.03728676358224478 -0.02171696915022664 0  -0.01672547709762499 -0.02546183219192618 0  -0.01372769770201255 -0.02474768454376013 0  0.03352088685144456 -0.01473415368338696 0  0.002653876252636861 -0.078301224027588 0  -0.0005909679910356918 -0.05152402771642645 0  0.01288299677436642 -0.05538292627510294 0  -0.01404672761175191 -0.09376243329298516 0  0.003659636270468597 -0.06848156242143461 0  0.009384824821511163 -0.09844694649135766 0  -0.02641690638079461 -0.08911716870020704 0  -0.02828917535674729 -0.09087263718574345 0  -0.02917939020522033 -0.08812981407843191 0  -0.04849717608871014 -0.02622561136068444 0  -0.04821170322178767 -0.02463051227106387 0  0.03531896729860391 -0.01351198182519367 0  -0.04841681310967421 -0.0641385014986621 0  -0.0343124140077627 -0.08834484197931138 0  -0.03453986567279773 -0.08544024026264552 0  -0.009505264079531138 -0.08299362991627983 0  -0.01758742265040871 -0.08999353463296318 0  -0.01909048885330749 -0.01038075045799149 0  -0.01643711158614313 -0.06698598095229531 0  0.00510312290071183 -0.09593056082040648 0  0.02343128371951996 -0.02272891002004046 0  -0.002023950642007046 -0.02975004713903992 0  -0.01047523617110418 -0.02424834223494819 0  0.02252270839478682 -0.05405612285092389 0  0.007949055400741029 -0.01873974565668601 0  0.009257982989763691 -0.03352046177391386 0  0.04629286966941011 -0.0423330834347514 0  0.03131936381797591 -0.07668203462385646 0  0.007901954345779465 -0.04168279699993686 0  -1.171743393922728e-05 -0.07384664225686761 0  0.04403762685149307 -0.01007408063750094 0  0.0465880270625827 -0.03629696852344722 0  -0.01186391629123227 -0.01169940708761687 0  0.04582695928401598 -0.06096336740357781 0  -0.001357467990443886 -0.07199769182136564 0  0.0324533095215602 -0.01771284205542287 0  -0.04852028836730739 -0.007341528403847226 0  0.02552036911905659 -0.04930190513611023 0  0.01763933584190689 -0.06216030655882796 0  -0.04341206272821396 -0.05806950327702889 0  -0.01417692216719546 -0.005586805683508756 0  -0.02782210082246164 -0.01245307863511379 0  -0.02608854054722983 -0.01426847564777049 0  -0.02487829004685309 -0.01218638405632177 0  0.04504564565950661 -0.02725565690967909 0  -0.0002378071784468202 -0.03168817342482563 0  -0.02268977356564392 -0.04325592999463841 0  -0.01030008360592415 -0.02730207136590873 0  -0.04642677160471106 -0.0271528768483557 0  0.004247300133094481 -0.009831459016042156 0  -0.03101652698842962 -0.01980745021631158 0  -0.02196367501802426 -0.06154088797967752 0  -0.006553205246168954 -0.08653794703836644 0  0.0243061130580264 -0.08923839991388484 0  -0.02644896307900695 -0.08349215788540743 0  -0.03893084400845775 -0.0505842199270596 0  0.04595814727921839 -0.04587261548790202 0  0.04851011493380533 -0.04423095207836731 0  -0.008755951219614224 -0.02540612226970509 0  0.004406006138604878 -0.02220288461203223 0  0.01748238166535701 -0.01634392573638821 0  0.0350781665010486 -0.03443848821556448 0  0.002478844003272855 -0.03693214507778883 0  0.005473354598902103 -0.02849381561364428 0  -0.002019557690615327 -0.07514313826325041 0  -0.003041562021786418 -0.07354290472983405 0  -0.003280546808918943 -0.07050091225617311 0  0.04478397469179577 -0.01959257586412686 0  -0.0110100633931997 -0.09067147777676819 0  -0.01409530199547408 -0.09069823017126406 0  -0.04337105816452184 -0.06088063454299558 0  -0.01780358103167474 -0.07332099473903625 0  -0.01632599156523281 -0.07243771640431323 0  0.03147362087845901 -0.05656070851086208 0  -0.01218643739762308 -0.02606033425052405 0  0.04542281870194612 -0.06345085768052849 0  0.00495579046143639 -0.05615428398934548 0  -0.03620280653591001 -0.04507706299564021 0  0.02172582668705357 -0.01219206649937197 0  0.02371707621461897 -0.01102309074556652 0  -0.04131209162125814 -0.08928752582225011 0  -0.01575257623961155 -0.007296164175747726 0  -0.01352109593546236 -0.03575546477317889 0  -0.02127151809726676 -0.06627988887730912 0  -0.002687248212944535 -0.02354019374584471 0  -0.004196699527692595 -0.02372045091729928 0  0.02647889789113758 -0.03805884955208177 0  -0.01929422949427301 -0.07093964108098835 0  0.01203391992632195 -0.07620585356677018 0  -0.03497552891545139 -0.0127947567037258 0  0.04535460376886166 -0.07919470684593669 0  0.0009893486840984126 -0.07561681737863528 0  0.01608811232282635 -0.003428988928479668 0  -0.03842694931317334 -0.02624887973508009 0  -0.01956052884285847 -0.0440518897098715 0  -0.009425279281761734 -0.09222041163288958 0  0.001645105436913761 -0.01133910380044415 0  -0.0001024440023580193 -0.09250311526682992 0  -0.03265455562853239 -0.04180396985109423 0  0.03092429330964216 -0.003185304766192637 0  -0.03295776174512104 -0.01736311449171945 0  -0.02591846435863518 -0.007338441210347837 0  -0.04563143953971756 -0.05035729203162162 0  -0.04865512206953464 -0.05078125 0  -0.03608409179926118 -0.03885478264740441 0  0.00685814413130739 -0.08271200955063131 0  -0.02875526836452914 -0.01771333367449953 0  0.000178097442323428 -0.0619772044517423 0  -0.02408549265691805 -0.03162660027399105 0  -0.03642046936984299 -0.09673272371012673 0  0.01355286895323156 -0.0423139200217296 0  0.01135833061239636 -0.03411864136424596 0  0.04497005514864892 -0.09093463669157506 0  -0.02967184556625817 -0.0302586090773859 0  -0.01405557437125477 -0.03844189099402853 0  -0.03999424963106689 -0.07222431123065605 0  -0.00265713263927073 -0.09421868436771301 0  0.01209909079558958 -0.06050787089223954 0  0.02814040517327717 -0.09840897789012983 0  0.0287187101773846 -0.09677522339481145 0  0.02588616763557324 -0.09615527638917935 0  -0.04338913199914524 -0.06382140482297914 0  -0.04867203687395884 -0.01491808145734253 0  0.008569491346674844 -0.01571180188708702 0  -0.02637655158542689 -0.01976379016551376 0  -0.02758628374191479 -0.08598038504817176 0  0.009461554335003694 -0.05904950974817084 0  0.00898403585512136 -0.06146713264626857 0  0.006434078170407102 -0.09090751688231391 0  -0.009114583333333334 -0.05619215744469705 0  -0.04340011400537071 -0.07606345743554926 0  0.0329327393431024 -0.09849296744620988 0  -0.02215660612617937 -0.04033657149359295 0  0.00919019775307337 -0.001644856995975223 0  0.007915342148546729 -0.004060064145743369 0  -0.01136428170910901 -0.03837616954571553 0  0.04638335129310345 -0.02331178160919541 0  -0.04191966032299371 -0.0825902023120562 0  0.006442707408104593 -0.0696318791525664 0  0.002101067848587104 -0.09327696322437283 0  0.04367940145364908 -0.0885562994627993 0  0.03698171217628897 -0.02979609909365584 0  0.04547064047372797 -0.06803667987104589 0  0.0294409264687639 -0.0792052488136499 0  -0.03775939852961618 -0.06285504039389087 0  -0.03627204387618492 -0.06172808081227613 0  -0.03475873843657866 -0.06324156506234664 0  -0.04415672363137302 -0.02275152259528935 0  -0.004703752454419383 -0.003891541969087049 0  -0.01793807861968628 -0.07003498595859788 0  -0.03990019363191689 -0.05749084722564603 0  -0.04353098224731951 -0.07984041100116517 0  -0.03389514102314488 -0.05198399850718498 0  0.02411024678398856 -0.08233455566936589 0  0.04378724903266659 -0.07319966236418132 0  0.02345839484023584 -0.005772730985249703 0  0.01822882244495401 -0.07317561356252467 0  0.01016383039410169 -0.04161791886532486 0  -0.004047265904786932 -0.01492423853613324 0  -0.03989411454897821 -0.08858632008775882 0  -0.0393594916169445 -0.09014779937299078 0  0.04486258744491921 -0.08391151056177516 0  0.02414717730575611 -0.008308169938046369 0  0.03729721828543561 -0.006256851438550704 0  0.04362225730130988 -0.02456476251140257 0  0.02955910556991629 -0.04178102143050885 0  -0.01086879991566452 -0.0872984144533092 0  0.04850343288718726 -0.003191248544224789 0  0.04679550155915094 -0.001781278306129555 0  0.02940888324032909 -0.0823746023468222 0  0.02680418453963673 -0.08396552000116861 0  0.02856782985571023 -0.08503864443391608 0  -0.04196791266596861 -0.0560732588624199 0  -0.04103490761722963 -0.05470840433882466 0  0.03720001892537535 -0.04655850289330472 0  -0.04692492441942633 -0.01555198991361233 0  0.03021945174911681 -0.02194603640930591 0  0.02436733001795869 -0.07015802637527714 0  0.04849135601461235 -0.08722130628128009 0  0.04459093783640754 -0.05840415891792513 0  -0.02365739763306762 -0.09599254256928379 0  -0.04865188545886912 -0.01002260026600433 0  -0.04668317804350072 -0.009664848823642758 0  0.0001176377263277866 -0.002041981213928114 0  0.04081367777890351 -0.04352865775540111 0  0.008466167508586328 -0.02075205170812311 0  0.0002330144247192046 -0.02434070912065012 0  0.03949842572283077 -0.04854765949591838 0  -0.03236866692544504 -0.01200797339654534 0  -0.04837393025731316 -0.09365735019915272 0  -0.02772777262491462 -0.05918827740577445 0  -0.0368728613793078 -0.05195415959969768 0  -0.0375032710003626 -0.0534039253458081 0  0.0486900664223051 -0.06007569514160135 0  0.04724493089539553 -0.05929665313224221 0  0.04079321027527798 -0.07312602426129099 0  0.02875062544373486 -0.07533420221239408 0  0.0333620841728586 -0.03258513616480065 0  0.03616776194751524 -0.03190333461293948 0  0.02377902455312172 -0.091562360964996 0  -0.03714982708085986 -0.05635149799767274 0  0.02797489430216643 -0.0800951407392209 0  0.01560046342236387 -0.05491844306998859 0  -0.01955957048208396 -0.05076810645225169 0  0.01299207281128868 -0.07994763844795164 0  0.02054820010084714 -0.05309092403919604 0  0.02206053129225047 -0.07549746227010537 0  -0.03777992308356823 -0.07384224644201948 0  -0.04421236657091408 -0.06576555653762778 0  0.02490772122899659 -0.02541584861942825 0  0.01406480858169313 -0.07810520662859874 0  0.02273768120710101 -0.08008342737753131 0  0.03788412871595651 -0.08460068356336395 0  0.03638456321916869 -0.02447391068803118 0  0.03904784869560212 -0.07198245226397448 0  -0.02458387340884331 -0.04000276088388564 0  0.01618198998394108 -0.04835219780658245 0  -0.005285849783066591 -0.08784729817967621 0  0.01581228221592142 -0.04325717251071701 0  0.01697713904431841 -0.04145996403843121 0  0.01537065409622362 -0.04031910134814119 0  -0.03366797019368069 -0.0734877242641562 0  0.03311732503601984 -0.04913370444965118 0  0.03479367289758345 -0.04895195240542109 0  0.02395307914750756 -0.06369744912982594 0  0.03698455239653924 -0.02746015096144202 0  0.03094836143538501 -0.008534846609531528 0  0.04649096474250307 -0.08923185806345743 0  -0.006054704616810422 -0.03580205691967763 0  -0.01486405801939752 -0.01550355763030055 0  0.04678157935782826 -0.06874321586485946 0  -0.04391555354250181 -0.008728944742396549 0  0.01478188997540652 -0.02082974819103365 0  -0.008543640773396793 -0.07131017138907891 0  -0.0460284746910707 -0.08611148978223808 0  -0.04855714944737088 -0.08702531037495559 0  -0.02507002297670019 -0.06931729764977544 0  -0.02650543793888476 -0.07150616010731288 0  0.02151442938367597 -0.04940906557037485 0  -0.04303676426129536 -0.03409906689063585 0  -0.0377191374380416 -0.08513456326342751 0  0.02425762309203308 -0.09845112215652949 0  0.04261681674198856 -0.01128989603364795 0  0.02869654931054103 -0.02234156522773673 0  0.03364747500351112 -0.06325105457070009 0  0.04028474823910268 -0.09217836090091314 0  0.04215449354704975 -0.0918988737706147 0  0.04052182971336245 -0.09439922506797535 0  0.03313206677965407 -0.03657759807042333 0  0.03088995013016309 -0.03604675466608279 0  0.0321298013877258 -0.03393512344096119 0  0.004907604482269278 -0.01163228449796421 0  -0.03050405156059626 -0.03833351545139891 0  -0.01030858530652727 -0.07292718465895769 0  0.0334287803019305 -0.0684594667057779 0  0.04673823607916674 -0.079826857186824 0  0.04866400152933909 -0.08990156932924832 0  0.04851077385564646 -0.07821781225524754 0  -0.04325023819755165 -0.0968739896865731 0  0.02430216515723209 -0.06740195582118068 0  -0.02490009183457512 -0.01699082400905695 0  -0.04835104669863648 -0.06711484730031633 0  -0.0237126295053836 -0.003813942834304493 0  0.03966425888618426 -0.08219839935352347 0  -0.0213186881416905 -0.08269091676529608 0  -0.01420791088841157 -0.08687369141249776 0  0.03328223773659549 -0.05171902792461655 0  -0.03049505744952699 -0.08644975935774846 0  0.007568916227461957 -0.07713354619579388 0  -0.01436635818450746 -0.09675603822996481 0  -0.005457084367215793 -0.06633089904461736 0  -0.02370390793156908 -0.08397986239660224 0  -0.006972289131149011 -0.03376047104329722 0  0.01149171032184903 -0.07201869888808959 0  0.01024567414151233 -0.07100052562916147 0  -0.0009683491629293051 -0.04374356476373605 0  0.02422079995321464 -0.04997777337998972 0  -0.03060559263423203 -0.02780320866873975 0  -0.02877812488334018 -0.02727093212694866 0  0.04502846083275963 -0.03757817576580018 0  0.01340659475050054 -0.04674776374188788 0  0.005351107762882292 -0.04529114940290142 0  -0.03230480967684501 -0.06758079308903506 0  0.01637574242877245 -0.01178923016834325 0  -0.01571496645927461 -0.09852651303321659 0  0.03821948520829777 -0.08878625345726171 0  0.03311297132996835 -0.08491400694606925 0  0.03205910429062608 -0.08387876979707351 0  0.03243162425094744 -0.08246417709341107 0  -0.01377213706105751 -0.03275743891948677 0  -0.03902209244775693 -0.09590926643158716 0  0.02890982094386123 -0.08799498718573706 0  -0.03223434777943981 -0.02882863454287903 0  -0.03371249243643488 -0.03133009222312332 0  0.03753100792087776 -0.06460438765438026 0  0.003503398582339111 -0.08651191191359328 0  0.006175460256179339 -0.08529300011325083 0  0.004104097144746454 -0.08463287146049833 0  -0.04269681783608784 -0.05007981684325864 0  -0.03978421980167891 -0.05288071803706946 0  -0.04756411982093869 -0.02159000899858976 0  0.02536319024778134 -0.0815558767553736 0  0.02093749816297855 -0.01566161699728076 0  0.002343081211279474 -0.002873718352678741 0  0.01920820947190402 -0.091131264789238 0  -0.02703095132911369 -0.09564516741633013 0  0.02619491424319022 -0.0173145931035252 0  0.0450928172781495 -0.07775830671609242 0  0.0421967587521993 -0.07768066254010801 0  -0.0426040047811229 -0.05963998163222089 0  0.02353555540376851 -0.04211043040913431 0  0.006557460500688355 -0.05673792934065559 0  -0.03878380025205282 -0.08237313226105691 0  0.007927373114962557 -0.04646231940317579 0  0.04354979210673399 -0.07608378292408841 0  -0.01231663678753175 -0.006976962414206049 0  -0.03446251600527064 -0.03401240796041776 0  -0.03638515588252184 -0.0361370125666952 0  -0.03433042911074234 -0.03550171087828445 0  -0.04474168079605727 -0.003100196875639273 0  -0.02805522113751388 -0.07041115517668045 0  -0.00993691746656615 -0.06623253819673186 0  -0.03208329558284936 -0.0356823713947898 0  -0.02976397368033737 -0.03461936518311927 0  -0.02109822763807408 -0.03280530166237346 0  -0.03311133025873148 -0.01489277833452916 0  0.02810798947459298 -0.007488551531561166 0  -0.02591086477320179 -0.09282295834762741 0  -0.01239315970166911 -0.09214278956462488 0  0.02522643562136178 -0.08512845143297179 0  -0.03637472845308664 -0.007977341807336263 0  -0.02775465187039698 -0.08777892456703472 0  -0.02954702840681301 -0.0635315830133297 0  -0.03004654616220725 -0.06566316629528131 0  0.04271421134815041 -0.04185440108138126 0  -0.02380946623002438 -0.01519766484533798 0  -0.0005412096827243987 -0.0969471249365923 0  -0.01794864954210933 -0.09714392486344528 0  -0.001688252126561377 -0.02596267815987898 0  -0.02481643742317179 -0.07372899787113088 0  0.0140972685623759 -0.06251577742337738 0  0.02847304643420735 -0.06437756525728731 0  0.02905392491140644 -0.03993783795948484 0  -0.01285008560124585 -0.07650437124779053 0  0.009181655266985632 -0.00312519052495794 0  -0.001844436945664815 -0.064194394566195 0  -0.03651305338164292 -0.07894876873083592 0  0.02039596393456947 -0.04786566231201216 0  -0.003310052500419488 -0.01212126207328246 0  -0.002057969475453554 -0.009468640047966586 0  -0.01843747618518335 -0.008686012893299393 0  -0.04096347412610508 -0.04376716850115309 0  0.005501002598881168 -0.05231690257809077 0  -0.03038129343677714 -0.03327712895669255 0  -0.001331788691409099 -0.07921033706327198 0  0.03816037607351712 -0.04399954029136344 0  -0.02057930391940452 -0.08550669885265837 0  -0.02816272306545877 -0.06613540002135666 0  -0.03978172746268 -0.04939103576868267 0  -0.02482912482301639 -0.05903745656683532 0  -0.02393003451341329 -0.05770538177866265 0  -0.03383810346267847 -0.01186016152543283 0  0.04854573789335198 -0.09684326913835573 0  0.04169513728893515 -0.04789386373683985 0  -0.02642426781006279 -0.06250720233413445 0  -0.02865335630700225 -0.06130472067239684 0  -0.02572600137580493 -0.06102044162657785 0  0.03750541490048975 -0.0498664427448615 0  0.02819816450921766 -0.08155934902603874 0  -0.03914413830697622 -0.06478332168464747 0  0.006212741685121846 -0.0441373465179553 0  0.03564208961088893 -0.07419254478978593 0  0.03639778858618781 -0.07619102435699082 0  0.0384705842660954 -0.07508656202965074 0  -0.03056748779074848 -0.0971138589142973 0  -0.04485176364161111 -0.03598803294599286 0  -0.02233078370831773 -0.03361433025256604 0  0.008111938790276571 -0.06491104320025259 0  0.03065193331477824 -0.02450488542779667 0  0.02629553281523661 -0.0748373994305143 0  0.02687859119369121 -0.07741425412276508 0  -0.03712942616889704 -0.07140365684837471 0  0.03826844779895317 -0.06064429269585924 0  0.02195348156519519 -0.06138198038091803 0  0.02660658049802087 -0.05940487796758724 0  0.02789245218445322 -0.02491915572590865 0  0.04783709110198724 -0.02828586366224952 0  -0.04321812433164417 -0.04392282215568063 0  0.03621946658567904 -0.07138723595955106 0  0.002654735185721245 -0.07289022779884889 0  0.03997754446209789 -0.0511507576845467 0  0.03818936626079255 -0.05113586732882421 0  -0.0376947552168885 -0.007380868257896455 0  -0.01892044452244201 -0.004972034808770542 0  0.01473201805325772 -0.07656091781105955 0  -0.02516067097704365 -0.04810301033751866 0  -0.04699147020905693 -0.08060267170308927 0  0.04570059797652071 -0.09381127969636116 0  0.04859267503896548 -0.09299653148765692 0  0.04723752683076229 -0.09220360639007909 0  -0.003838294149787177 -0.01997663600034633 0  -0.01302602072814836 -0.0738287545008543 0  0.03572407467196949 -0.08724337604866823 0  -0.02958273312204632 -0.007830996041134701 0  0.01388418709928712 -0.03784026285822586 0  0.01225930750566253 -0.03749767039702803 0  0.01431567335582407 -0.03550779203295518 0  0.02112479457827937 -0.06568717069536983 0  -0.04653326332694324 -0.09369973026754475 0  -0.04624067904338708 -0.09580594967545454 0  -0.007768366186919541 -0.06471573790457479 0  0.01610599002356381 -0.001455662474053389 0  0.0130937603945388 -0.07438901543404451 0  -0.00818324430161799 -0.09093699029359885 0  -0.04476246619738419 -0.02937983187849561 0  -0.04501815363274733 -0.03187963921864212 0  -0.04286401382733235 -0.03143461375862805 0  0.009790936811784338 -0.03640157536671814 0  0.008807657208403598 -0.07361424015389169 0  -0.04880768956846945 -0.06953125 0  -0.03703019063373934 -0.005142158205268498 0  0.01657103350655779 -0.05927906558593418 0  0.02598372025486592 -0.01588172067947947 0  -0.01857184297666115 -0.02683671216759523 0  -0.01948607568027211 -0.02870451566043084 0  -0.02923548165964452 -0.04662851706305639 0  0.01234457162076637 -0.03542175489045764 0  0.03248820903133344 -0.03856650560391017 0  -0.0302692893790183 -0.005120529616376613 0  0.006797058564419497 -0.006535273577976413 0  0.006466082503665017 -0.09325555268472102 0  0.00579688305402835 -0.08777872249611265 0  -0.03595736135174399 -0.08169973588794081 0  0.008847539815939054 -0.08415804916342749 0  0.03316432186112452 -0.02158139636433319 0  0.03201928783414298 -0.02995112197871371 0  0.01633901255257336 -0.03552670525145482 0  -0.03931650942234405 -0.006379759924159348 0  0.04695488083913109 -0.02941189961646568 0  -0.00654316002217061 -0.01619168547737489 0  -0.005721283706472954 -0.01885557948612299 0  -0.006966384852671079 -0.01037459975243556 0  -0.005478787468542344 -0.01241708084937931 0  0.02043968071079144 -0.00183314548060526 0  -0.003808826734081279 -0.0283052722319424 0  0.01940439622597383 -0.0203671705027472 0  0.04002436738325291 -0.05907558486843306 0  0.03762726532015887 -0.06985439905083647 0  0.03896878548975456 -0.06799871834625124 0  0.03734748158521295 -0.06698965326129386 0  -0.03607483855613859 -0.06521062682989759 0  -0.04009200278840774 -0.02061118635583271 0  -0.03642910979197705 -0.07622226076359578 0  -0.007442863711833376 -0.0584444859742923 0  0.01186406041631937 -0.06896606418534836 0  0.0001953966879261854 -0.08296557081668744 0  0.02144004037962496 -0.0558523815223985 0  -0.03882629768826652 -0.06033597897025076 0  -0.04690288817489252 -0.06702647912750681 0  -0.01273075515225664 -0.08916786604196794 0  0.003621073244015077 -0.05672544031758242 0  -0.02652877195264674 -0.04567539734737942 0  -0.02750450954286838 -0.04793845836071478 0  -0.0150093489416535 -0.02690200517850585 0  -0.04864459419859899 -0.07136808783533648 0  -0.04042808620847633 -0.06009446899103022 0  0.0262147056797273 -0.04414252020313481 0  0.03072615116502058 -0.04446503378680532 0  0.02686043623786068 -0.04592574657780447 0  0.02500654499424886 -0.04669303744947168 0  -0.006437602762216429 -0.0831725758938133 0  -0.02439817206615653 -0.09049921416500074 0  -0.04020806713746475 -0.03004187567265676 0  0.001428735088225348 -0.08574036635359568 0  -0.01546527967522581 -0.03583680365810751 0  0.03503690139297801 -0.06589324526528077 0  0.03353474093578226 -0.06589739558154034 0  -0.03121734171721906 -0.07329504990619225 0  0.02947198197416255 -0.04703183627915615 0  -0.002883626972990035 -0.01878773403781771 0  -0.001934031832172576 -0.02146311508091197 0  0.03643253019171284 -0.008865521129537226 0  -0.02190538196966722 -0.02138661489270001 0  0.03152780438252187 -0.02012898166648427 0  0.04871237267374176 -0.03964148316068863 0  -0.04186418346088788 -0.07466554608392408 0  0.04557265674790806 -0.01715141471048685 0  -0.03818593071041289 -0.02846518290672053 0  -0.02515295517350838 -0.08766404995986644 0  0.02572154300234203 -0.005864985651098285 0  0.01547274264922956 -0.09854397794575435 0  -0.01650756529327169 -0.06270882810053884 0  -0.0159277171981917 -0.06409808450719884 0  -0.01442190898791696 -0.06420251517566759 0  0.01973533618750502 -0.055002062568316 0  0.04413667084473984 -0.08091023419382859 0  0.0457909677211155 -0.08214624565084092 0  -0.0223085865704006 -0.0158333956881654 0  0.005424888289140064 -0.03715591698292275 0  0.04081805015808211 -0.08590236120651633 0  0.007923460709825157 -0.05442157387604762 0  0.03590397053560741 -0.001399723947498862 0  0.00650287107904633 -0.09831514562787187 0  -0.04186886118471261 -0.09657434587063937 0  -0.01782006793377549 -0.02965572743315922 0  -0.0154908934660711 -0.02021339978610353 0  -0.02931434635270624 -0.04038860082729592 0  -0.0303747380627551 -0.04302198425974124 0  0.005847482655375444 -0.05038242974200069 0  -0.02564089098094346 -0.05224578075926426 0  0.02677174314827488 -0.05083202728684691 0  -0.03937673028160691 -0.01779294108445469 0  -0.0395864440853501 -0.01613856710540749 0  -0.04163428667658449 -0.01815209182324242 0  -0.02272950369110577 -0.09433027741385717 0  0.01232546520178956 -0.006910001012341708 0  0.01210204930564997 -0.005132263247924163 0  -0.0450444253315003 -0.01645498237369299 0  0.02502149670340228 -0.05243561046763882 0  0.04300691710824583 -0.0350916713936363 0  0.0452650986211254 -0.03459330749936797 0  -0.0432294664476327 -0.01738315203030498 0  -0.01810273063025461 -0.05807177066942823 0  0.005200995621757338 -0.07674075792086842 0  0.003841185932096495 -0.07619460654981434 0  0.006022056605162462 -0.07430720645903363 0  0.02286879863971965 -0.07432437058595016 0  -0.03967306021942603 -0.02235634449025938 0  0.008444268623215768 -0.09461046788110308 0  -0.006542558752200613 -0.09210546188593584 0  -0.03153578033004083 -0.08935369833457305 0  -0.03132441499241915 -0.09141465583312987 0  0.002374909778313783 -0.03024414641598028 0  0.02942781441876999 -0.09065673612076443 0  -0.03936986629352589 -0.09454795064526877 0  -0.03853744781120753 -0.0933719971113597 0  0.02609227306527468 -0.0696292428199545 0  0.0283397006815403 -0.07106502082293563 0  0.02620327403968029 -0.07192005164236906 0  -0.009275188160840026 -0.04597596902572449 0  -0.006602877926868728 -0.04666859936192611 0  -0.007767041211246885 -0.04802330953810529 0  0.04083982813554821 -0.0893700658764271 0  0.03991960992134876 -0.01204878068465692 0  0.02716872115611415 -0.08256983251605732 0  -0.02254098991890039 -0.02394067634815586 0  -0.04263792540377773 -0.0620701115857645 0  -0.03547953043057522 -0.0188039504032657 0  -0.03717017727870082 -0.01875256932303632 0  0.008089094200042267 -0.0229510327431063 0  -0.002582241316322907 -0.08865209398644351 0  -0.008149608434891721 -0.0502978982031889 0  0.03190841513955275 -0.02696645140373315 0  -0.02679509387602945 -0.05805767104796359 0  -0.0344744899149291 -0.02368696530563707 0  -0.03398274365211763 -0.02117466677749693 0  -0.032205672890435 -0.02228196727892393 0  0.04222830252022487 -0.05338402691110991 0  -0.01646475746272006 -0.05649703910590612 0  -0.04871075467533732 -0.03533381496454418 0  0.02317961095949602 -0.08712881835118516 0  0.003920904463319067 -0.04517746780628811 0  0.01819856148758126 -0.04688538582679262 0  -0.003155412518487575 -0.05005451447533863 0  -0.001251599310493253 -0.04939356349739246 0  -0.002173769532013984 -0.04740130948385577 0  0.01309433409399386 -0.07710744596856833 0  -0.01158838838891851 -0.02892217401028216 0  0.01879803401513061 -0.03566655265326275 0  -0.04201301065628849 -0.003886024647874805 0  0.01648358902614845 -0.07065139077457983 0  0.0199696387685163 -0.08525850927813482 0  0.04861206813000137 -0.06395989746230757 0  0.01024112006832257 -0.009880918520390336 0  0.02223729763868419 -0.02007735592040821 0  -0.02246330246371705 -0.01048285643388703 0  0.01785689970612189 -0.06858119646279974 0  0.00703125 -0.001175802372000723 0  0.008198980554370038 -0.05115703087512043 0  0.02310001131869954 -0.06660459701709798 0  -0.03106418930335175 -0.09860376206640165 0  -0.02791307051867987 -0.07932111193727406 0  -0.0131583949593131 -0.02788978773038426 0  -0.003645632290883063 -0.08610219562075258 0  0.02865698293175518 -0.001313524863023452 0  0.02415753622188035 -0.01810443022954481 0  0.01923138543540909 -0.07596279202513538 0  0.01750832445589532 -0.07513554285106323 0  0.01681418227641503 -0.0772896522997877 0  -0.006518133045618423 -0.03864485562360071 0  -0.007719632046298653 -0.04360410284872696 0  -0.0254932930639348 -0.03426607678692898 0  0.02402039043792186 -0.03315936589267958 0  0.0173327693122942 -0.08924900611095755 0  -0.03358403288937022 -0.007317939341477118 0  -0.01371390137945372 -0.08019799797490412 0  -0.01249578478729848 -0.07945091382624224 0  -0.02033237362257078 -0.07789314005603901 0  0.01565133948007531 -0.08991376897577232 0  0.01764947219127456 -0.09173994572038108 0  0.01625296255263216 -0.09179990316518254 0  -0.02559891268363141 -0.07766469078334412 0  0.04669872692324387 -0.084778557186234 0  0.01211399676467706 -0.03295207062202074 0  -0.02711492748249205 -0.00835453998477486 0  -0.02589244083070881 -0.03271084639239885 0  -0.0471967790471788 -0.0398382451868504 0  0.03237159268593923 -0.04790386528912333 0  0.02087353251721647 -0.07894193214074256 0  0.03597191436116644 -0.02080382493591919 0  0.01164419527569009 -0.06621348589862695 0  0.01592861848971372 -0.06644696208461183 0  0.01331714780186112 -0.06723201092575762 0  0.01096748237301182 -0.0635300590930688 0  0.01511687555852838 -0.06843436180250123 0  -0.02999508784681845 -0.08931860754664636 0  -0.001590844727887034 -0.007321945608138822 0  -0.004062442030978369 -0.006663469005727203 0  -0.002675293189351801 -0.004919969455286762 0  0.0338514560775198 -0.01176286534847487 0  0.02616381899708543 -0.03668584428056718 0  0.01312811451181107 -0.02527868237689237 0  -0.01539547060946176 -0.02382892795598995 0  -0.0333123316661581 -0.01909272899764753 0  -0.008521420841060251 -0.07417740458912883 0  0.01160410178989929 -0.07754957646168527 0  -0.006103654004212412 -0.00374169978172948 0  -0.03815365687164306 -0.05811009355121944 0  -0.00837256186896145 -0.0318999694534214 0  0.007166413714995213 -0.09207177097492115 0  -0.01470902126211158 -0.009299361284553987 0  -0.02767665875454236 -0.03905127284535213 0  -0.02691307433272296 -0.03107019967741321 0  0.03882487160038817 -0.09005312480687201 0  0.02878725049417261 -0.03759925500359943 0  0.01940286560347775 -0.04527237940774339 0  0.01904305817301197 -0.04274419001873621 0  0.02108525693081831 -0.04357817678416295 0  -0.008501717870512352 -0.06278098507669308 0  -0.007114488049480601 -0.06042503513785562 0  0.00147563755691958 -0.02567167109431155 0  -0.0356071487834854 -0.00334366424231427 0  -0.03197065214805533 -0.05611144475796671 0  0.02874328291835636 -0.04531361131670119 0  0.001994302623944012 -0.0666776633106078 0  -0.005725964164990273 -0.08075492813571426 0  -0.0280046762941963 -0.02943939010091041 0  -0.04257819627472822 -0.05331150292808438 0  -0.0436582517988568 -0.05190653127214841 0  -0.04521403321496557 -0.05395025162491224 0  -0.004291643758027883 -0.068493869243352 0  -0.01484375 -0.001147707918047826 0  0.006989203146472206 -0.06040171345298542 0  -0.04578941960588546 -0.01379160017627219 0  -0.02441926819994185 -0.02244534713065828 0  0.01458450174257419 -0.01681235605018334 0  0.007536075639824975 -0.01150457939134506 0  -0.02786748425052475 -0.05084429816322013 0  -0.0187022681159755 -0.05532589189681572 0  0.04345056050076136 -0.06150011966148285 0  0.04141227934714236 -0.001174692987670773 0  0.03594570646200972 -0.09805421444443425 0  -0.00638951643614123 -0.07815274845279134 0  0.02070031550459481 -0.08167682264990829 0  0.004222237490897974 -0.09153014189824367 0  -0.001379568149766955 -0.01168285622548849 0  -0.02964022809517876 -0.01987041530269869 0  -0.01350821235199411 -0.060367617048519 0  -0.01449929794418107 -0.0613670018143473 0  0.009750555553376528 -0.05087683900338227 0  -0.005130147380120063 -0.0538218352432504 0  -0.02864959427372138 -0.04539072218881361 0  -0.0275027243844981 -0.01838645826946021 0  -0.003119604242850829 -0.05917925312848381 0  0.01181262870367104 -0.01089609743297899 0  0.01389748412271922 -0.01207120061770211 0  0.04860490583514159 -0.08575133884125646 0  0.02265625 -0.001116944397946154 0  0.0269435244416797 -0.04004845471237795 0  -0.002017343008043296 -0.03880026864891686 0  -0.003899597816185256 -0.03962012250190584 0  -0.02109375 -0.001175314518689467 0  0.01448547405983569 -0.06574069725137739 0  0.01470208406690262 -0.08456538963721666 0  -0.02176361222591008 -0.09283680961390532 0  -0.02598789598765231 -0.0393520641347064 0  -0.02543224383865986 -0.03728137136311969 0  -0.04604470251786473 -0.007179652518545553 0  -0.04676632694632088 -0.005136526318459027 0  -0.0486178043097002 -0.005924987243411842 0  -0.03147907798136204 -0.04103388315951349 0  -0.02294854673113928 -0.07759808723589043 0  -0.01839281710289768 -0.06482379034979131 0  -0.009075125393985226 -0.06070894058626603 0  -0.04748534113380012 -0.04951386322293044 0  0.0184249929446928 -0.0032146264048929 0  -0.00749817861157403 -0.07326392163760513 0  -0.04471262741225696 -0.0493070180338773 0  0.004719118187944253 -0.09325290342309187 0  0.02492128034734876 -0.05869428615775265 0  -0.005427134064254985 -0.01377668976714338 0  0.0488790143169173 -0.01328125 0  -0.01850044351671485 -0.08891935072852815 0  -0.0244769423482411 -0.01014402952874655 0  0.01163639784179195 -0.05284043446951496 0  -0.03981021634922172 -0.01225861567408707 0  -0.02060914736844687 -0.03051412993269515 0  0.04191675983708544 -0.06758785365567151 0  0.009870764207177933 -0.01292085749355577 0  -0.04874852365409733 -0.08528019323028041 0  0.03706153770456986 -0.01924068673760442 0  0.0255026127989756 -0.008680574981781977 0  0.01154189102213652 -0.07337401456509736 0  0.02068209441525208 -0.0771053089164877 0  0.03434674109387816 -0.08710213257910124 0  0.007718688476586653 -0.07076463777040837 0  0.01212997018887398 -0.01616275875350564 0  -0.02091719731974153 -0.09542021937800599 0  0.0394739904630113 -0.07822641714535092 0  -0.01201051053034036 -0.03448676986635683 0  -0.01004455228822577 -0.0338635994180621 0  -0.01122185646978805 -0.03190177927611371 0  -0.03135176514112224 -0.02573581851368435 0  0.003162219820589176 -0.05397115596816577 0  -0.03380938931123894 -0.02619891888004139 0  -0.01702037201341482 -0.08093589058181354 0  0.03410734113242967 -0.05712229038656746 0  -0.02325462549410211 -0.06988144610147026 0  -0.03698701389292729 -0.04911185626077293 0  -0.01033657179326501 -0.04094459561679405 0  -0.03012770256616742 -0.04557590285140815 0  0.003991214779116715 -0.04267420696174879 0  -0.02861488921511187 -0.03209151424578396 0  -0.01676445532429217 -0.05788928003768851 0  -0.02181186590751757 -0.04582897306433298 0  0.03569195647923176 -0.03882961277107981 0  -0.04675508849090426 -0.05247227307696226 0  0.008058659295311346 -0.04875210669172132 0  0.009636352617008884 -0.04863065616000869 0  0.01258564041330076 -0.02332910432433855 0  -0.03489161592695806 -0.0546732075058699 0  0.006920603710509551 -0.07248150249158494 0  -0.02065248208502501 -0.06914237928233581 0  0.008913529471802819 -0.06286170111229263 0  -0.01710990869201323 -0.05292291380210293 0  -0.01636282771158449 -0.05406261749834036 0  -0.01505084738911576 -0.06704231096192763 0  0.04704264542344939 -0.02124778172415548 0  0.03607353200362581 -0.01657049900482526 0  0.04178869705860652 -0.05022403725139264 0  -0.001262677958067677 -0.05464227349399545 0  0.04829208008188312 -0.04092308629865739 0  -0.03953630012200467 -0.02884158461804354 0  -0.01783142320596798 -0.09431957001296812 0  0.03873723952744301 -0.08671005016132827 0  0.01722919718652179 -0.0208026205444918 0  -0.01018001736303466 -0.01731677346741527 0  -0.008543755100453731 -0.01924103130799657 0  0.009765258461052893 -0.08838972595063958 0  0.008755690703289153 -0.08582571525815827 0  -0.02296002108214967 -0.06054129392594212 0  -0.04714259602139875 -0.01977422834533823 0  0.02333713946452375 -0.09602387838051908 0  0.02464134855747922 -0.09551351530253756 0  -0.04310145950794086 -0.004775673202544012 0  0.04212719544500373 -0.01895066796841477 0  -0.02462888102440885 -0.09330387145205768 0  -0.02334075013612524 -0.09165865000213567 0  0.03545837611503284 -0.01809033916850814 0  -0.04657650282086135 -0.06168227206177233 0  0.03983269565509991 -0.08405404463172585 0  0.04172497548734894 -0.08211241580126424 0  -0.04652447528722782 -0.06948892031579375 0  0.04227722683976635 -0.05933964711533517 0  -0.02660892302130463 -0.0686732810860967 0  -0.003673196336026328 -0.09027706621813725 0  -0.04889278085727749 -0.02265625 0  -0.001845116800711138 -0.04126355949364575 0  0.04365272640103044 -0.03748240550007423 0  -0.02765200007799374 -0.09365500813952127 0  -0.02944926228062005 -0.009670420328744092 0  0.03227961528278879 -0.009356511952444956 0  0.02692633027643879 -0.07924727288233709 0  -0.04230293045861905 -0.02166940946024565 0  -0.04500637905455051 -0.02148603841302748 0  0.03324542520983827 -0.09108539986379308 0  0.0446044087050219 -0.02249315565342094 0  0.03168778796663628 -0.09223868535998714 0  0.03287129673084799 -0.09378803694925819 0  0.03078886942429655 -0.09470334864373889 0  0.03389359847080847 -0.05912983108016167 0  0.03216091555036667 -0.05910065327901588 0  0.03389318735474586 -0.06115256873292087 0  0.01639245671587064 -0.06165579617455268 0  0.04271200477951022 -0.09379815254870968 0  -0.00381630162417183 -0.0820268413935732 0  0.02880607124562031 -0.01189118815555686 0  -0.01093796488695264 -0.06167297216559548 0  -0.01174939485577319 -0.06059996510613559 0  -0.04121157456806031 -0.05721273929625772 0  0.009959575780119079 -0.0530039437794678 0  0.04728475614638013 -0.00546067617800606 0  -0.04090785771443327 -0.03342100997892745 0  0.006906748727306251 -0.03478428700252252 0  0.02945001669058807 -0.007399522190517364 0  0.01209524096209623 -0.0470539473633381 0  0.0004603579899184244 -0.0271348942960017 0  -0.001093500833290798 -0.02871309477119382 0  0.0007456373584565139 -0.02974621554810341 0  -0.02297234225085233 -0.0362097083521903 0  -0.03687762651015948 -0.016457578680904 0  0.02671306888268997 -0.02247302817420477 0  -0.04326203886288612 -0.08255043871960106 0  0.03146866924785702 -0.05342779445805713 0  0.00320362956218583 -0.01748425034459187 0  0.002964491550869994 -0.01613388169179741 0  -0.04887034021820032 -0.06015624999999999 0  0.04605668764667573 -0.07078516954377073 0  0.0442176959167907 -0.06994126340647705 0  0.02663968425685113 -0.09104954368369947 0  0.02336897399648027 -0.009405599063654402 0  0.02884697827313352 -0.03250930053378113 0  0.02709159779311099 -0.03392429435376489 0  -0.0349457091660247 -0.01691847156036049 0  0.03092928272861228 -0.0717409516666772 0  0.03315091878951795 -0.07309860138482303 0  0.0331004334231496 -0.07109162604577643 0  0.004779010705117206 -0.06723343326758101 0  0.004898532170245292 -0.06588470706159105 0  -0.004628820944440628 -0.03785872961526773 0  -0.01202683269732114 -0.01796962201129237 0  -0.03359749136079223 -0.0437324752844079 0  -0.01318464496589453 -0.03064304399330927 0  0.04252843717040538 -0.03095207954348413 0  -0.04727381726150329 -0.04449616340304716 0  0.006207234530640336 -0.0210619590413115 0  0.001339144751192679 -0.05779281334888991 0  -0.03893481148791845 -0.05550852643598728 0  0.03739221201018043 -0.08054788774758258 0  0.01514639389519581 -0.06337512058463936 0  -0.03339906579048692 -0.08124954414524603 0  0.01374541725684064 -0.05092342067182177 0  0.0116812777207984 -0.05092171251653491 0  0.01182500023256633 -0.04907329480983055 0  -0.01806835033675313 -0.02301448872533239 0  0.01358657366658138 -0.05291876102951504 0  0.03521582301933308 -0.07905042923647784 0  -0.04178608985389692 -0.01354248668749397 0  0.02754413796728077 -0.0477468577007026 0  0.03478582833323535 -0.0457668432680237 0  0.01858464894142724 -0.01709297275035205 0  0.01535380637842265 -0.08747509280206515 0  0.02593217854056089 -0.007298640338292072 0  -0.0444663546677324 -0.08789766690658822 0  0.02291163946968791 -0.03985558349001685 0  0.04148782147467181 -0.09613305849344565 0  -0.01854337497166536 -0.06001205240872771 0  -0.01912626035578934 -0.06215389835699 0  -0.01783421636512431 -0.06257493779141814 0  -0.006484767223577413 -0.07564668136663837 0  0.001850995182313014 -0.01414617652561969 0  0.0170548312770772 -0.05777278503495575 0  -0.01895583700819579 -0.08225403098520362 0  0.005197036146910621 -0.07168819358774206 0  -0.04064634904129751 -0.07659774092198518 0  0.01006387666446325 -0.02462233242359934 0  0.02551730029560318 -0.06142426381158862 0  -0.03612416057573538 -0.0678768575088063 0  -0.03687910356713085 -0.03424148953860541 0  0.04587433118138107 -0.05807525716567661 0  -0.04589876211816877 -0.09230546183629434 0  0.02761860744214063 -0.01384831615626987 0  0.04559745347591572 -0.05227341975285568 0  -0.04868571586823864 -0.09236790174993188 0  -0.02587509997074803 -0.02188240880862579 0  -0.002579244647705928 -0.09715473835514117 0  -0.02265625 -0.09891602704949953 0  -0.02398607553034597 -0.09869907737105003 0  -0.0398087584547433 -0.005138039760471739 0  -0.01683338303916457 -0.001294302766423864 0  -0.004989542892197091 -0.05651258636365587 0  0.04697736302490561 -0.01138346259984465 0  0.02275870652995723 -0.07679503783168412 0  0.02295612571718715 -0.0715890179003351 0  0.02149024602692701 -0.07016977016464357 0  -0.04893118013529444 -0.03359375000000001 0  -0.001776881105324164 -0.00328432861237359 0  -0.02175705224179269 -0.06287838730337446 0  -0.02834774772119232 -0.09863782941015335 0  0.01824390730559319 -0.04008725667911644 0  -0.02550850615665724 -0.08614596759352909 0  -0.02505022850774142 -0.02448520327050793 0  0.04150193952327128 -0.008346038716796421 0  0.023467678865262 -0.00445070551192909 0  -0.04038166727952713 -0.06924321820725853 0  -0.0289243093072516 -0.005080548087780765 0  -0.04582307178039813 -0.08182925147135996 0  -0.04421869910016088 -0.08096950824226239 0  -0.04626986394388692 -0.07944646530852552 0  -0.0101560484593628 -0.07626965048233054 0  0.03556210456271347 -0.08208668761276301 0  0.01599060164567829 -0.01532376265634127 0  0.03135886702893642 -0.08667068424418148 0  0.02317806061277227 -0.04726948819474937 0  -0.008654040168126367 -0.03583050722838884 0  0.03705087258972067 -0.04524572627403632 0  0.03958486887912816 -0.04608128953380339 0  0.01621364138106533 -0.005808162180741022 0  0.01661233695577045 -0.007784557864161785 0  0.01452119780971544 -0.007845376921609476 0  0.001825126981212151 -0.008873854041609817 0  0.02969512228739365 -0.00509576713021739 0  0.02778956775368434 -0.005398372891070042 0  -0.03207272217326608 -0.07744363638199843 0  -0.01340488405954579 -0.02034264170666708 0  -0.01488096741424671 -0.01819353293922219 0  -0.009011616214249089 -0.01492641163811305 0  -0.01092651995755553 -0.01555498543504074 0  -0.01119678122185763 -0.01347635311126762 0  -0.03750527779181587 -0.04055239168073697 0  0.006554206044728714 -0.03283180022765399 0  -0.02301284861321418 -0.05218893874021024 0  -0.02297126563706357 -0.05423007177403463 0  -0.02070882477747547 -0.05342211195205833 0  -0.0396938453902612 -0.02589264518583501 0  -0.007325780537656768 -0.01169056999739311 0  -0.03356240990687234 -0.02855962757307237 0  -0.02306101221900478 -0.08078277576814318 0  -0.01357201996747527 -0.06282692134022616 0  0.04314457413404128 -0.08733994989002175 0  0.01219429715956761 -0.04082873830378512 0  -0.03402394514244342 -0.0601050243684261 0  0.03071003455387907 -0.09027106838440507 0  0.01694267651455774 -0.05512039677925556 0  0.01621970242615224 -0.01807003008394113 0  -0.02426402488128636 -0.06739133708457148 0  -0.01950027312030912 -0.04253128250710889 0  -0.01653128691163007 -0.07545366078605902 0  0.02191067360507438 -0.08763305709140826 0  -0.02018174058057156 -0.09106123402191657 0  -0.03347328151857137 -0.08957849075309424 0  0.00678080900962949 -0.03053836179834208 0  -0.04044787658513885 -0.06260822474208487 0  0.01071397635243188 -0.0296750584588346 0  0.01217113856664886 -0.0835593255588078 0  0.01382111719697175 -0.08267502607532953 0  0.001003955519332805 -0.01812162078302066 0  0.01913325967068864 -0.06951923219896647 0  0.01816465710605705 -0.06729533536873264 0  0.02045783962522107 -0.0675900012484083 0  0.03224791464263742 -0.04659226769389873 0  -0.01194978015110659 -0.05813092485382412 0  0.02332186392374201 -0.01385922635918935 0  0.0476981558346735 -0.08316803029933817 0  -0.04715929032803928 -0.07353832403414237 0  0.02679150137209148 -0.01977826735803137 0  0.03429324813307534 -0.09271847386402299 0  -0.02741121811358063 -0.03617606647412757 0  -0.003933352255038046 -0.05459359061609313 0  -0.002593592784878362 -0.05366790263728731 0  0.02739870531859049 -0.06331168630336985 0  -0.01777860943002203 -0.0155586085644253 0  -0.04886542801464947 -0.07270203010579421 0  -0.02876017094983727 -0.05468931887890455 0  0.03962211318754 -0.02284278772918 0  0.04262059409927532 -0.03319143324697806 0  -0.04566904772101787 -0.04770459256664169 0  0.02929039821632578 -0.05350507509749888 0  0.0004169406339232401 -0.05652640796766786 0  -0.001298043422479227 -0.05828764182548833 0  3.695705182295165e-05 -0.05913549804748571 0  -0.03055120968249959 -0.006937373809057813 0  -0.02504118519307743 -0.03010988493325979 0  0.007293301966436299 -0.01309630471183589 0  -0.01692708333333332 -0.0390404971257565 0  -0.02701584535353941 -0.01552083953395175 0  -0.02274987711968633 -0.06393004102052667 0  -0.006294894144434694 -0.09720979621642205 0  0.03485571814437382 -0.02927005326181082 0  -0.01516351268873077 -0.09444526774015644 0  -0.005468750000000001 -0.001118854010828386 0  -0.01302083333333332 -0.04348958333333334 0  -0.01863164369486013 -0.04088541666666667 0  0.04714592043842467 -0.02448704449548516 0  -0.006510416666666667 -0.0552786099465325 0  -0.01692708333333333 -0.034375 0  -0.007810704405064272 -0.05390625 0  -0.01302083333333333 -0.04088541666666667 0  -0.01432291666666665 -0.0421875 0  -0.01562499999999999 -0.04088541666666667 0  -0.01953124999999999 -0.03989410127096433 0  -0.01822916666666665 -0.03828125 0  -0.02121677367915418 -0.03828125 0  -0.01953124999999999 -0.03697916666666666 0  -0.01837686978809309 -0.04348958333333334 0  -0.01692708333333332 -0.04479166666666666 0  -0.01041666666666667 -0.05390625 0  -0.01302083333333333 -0.05130208333333334 0  -0.01432291666666666 -0.04479166666666667 0  -0.01171875 -0.05260416666666666 0  -0.01041666666666667 -0.05130208333333333 0  -0.01432291666666666 -0.05 0  -0.01302083333333333 -0.04869791666666667 0  -0.01562499999999999 -0.05130208333333333 0  -0.01432291666666666 -0.05260416666666667 0  -0.01692708333333333 -0.04739583333333334 0  -0.01562499999999999 -0.04348958333333333 0  -0.01692708333333333 -0.0421875 0  -0.01822916666666665 -0.03567708333333333 0  -0.01285816229205341 -0.04609375000000001 0  -0.01562499999999999 -0.04609375 0  -0.01432291666666666 -0.04739583333333333 0  -0.01562499999999999 -0.04869791666666667 0  -0.009114583333333337 -0.05260416666666667 0  0.01136020289896124 -0.001331926919614055 0  -2.060902250599055e-05 -0.004762827651404471 0  -0.04873594677383015 -0.09494096656149946 0  -0.0453151101858084 -0.04400389013742394 0  -0.001046833268015675 -0.03443845768053057 0  -0.04250175668804106 -0.04127816219517189 0  0.01032852482152762 -0.08638888954386247 0  0.03202687516019807 -0.06100224316397799 0  0.04673685577414285 -0.08125246976157782 0  -0.04110126888482655 -0.071469937850955 0  -0.03035062755068117 -0.0783896821573377 0  -0.03268498819409774 -0.07961155343193971 0  0.04296678057957412 -0.08967962912694677 0  -0.007811476910989137 -0.01408554012410985 0  -0.02696300220994829 -0.04143920032497576 0  -0.04868150858564149 -0.07528977496459738 0  -0.04208945395134332 -0.03588750912203393 0  0.0009942345205310021 -0.03581760440233908 0  -0.02371148143016293 -0.01290136534383788 0  0.01531325195471382 -0.03320814720630465 0  0.0153284676371892 -0.03060952022661566 0  -0.03200408477178797 -0.001106708282407161 0  0.04627075439353075 -0.02681881737774086 0  -0.03164997158731451 -0.04775710916347287 0  -0.003117665531593286 -0.03583334725563549 0  0.03435149007396673 -0.05581356516228301 0  -0.0469737145708167 -0.09114181475835657 0  0.007382729841747624 -0.07843031623139499 0  0.01346840276312653 -0.02696550999158375 0  0.01218305236528384 -0.02841967715328659 0  0.01472119155954167 -0.02878658118299003 0  -0.04055047202482187 -0.02803405217659604 0  0.004747482998592124 -0.07399306103161217 0  -0.03809676946130407 -0.03800870557768996 0  -0.02363550833345763 -0.08867396749658046 0  0.04563100200720536 -0.08659226661341388 0  0.04156614902351785 -0.04458256775216247 0  0.02552912797393988 -0.001222199883976643 0  0.02696883416911955 -0.003335225231616728 0  0.02734375 -0.001031186607140479 0  0.02188209759705885 -0.03809156131062245 0  0.01282145055273654 -0.08704292897369291 0  -0.02613573958779039 -0.06632443281051695 0  -0.02366296493185428 -0.06553261521492443 0  -0.02513547979825775 -0.0649298550086219 0  0.02750816082082267 -0.06944601456135706 0  -0.02235703811543911 -0.04702670609214048 0  -0.005575075933632889 -0.09018004236044995 0  0.008858123610367597 -0.009584568252459222 0  0.00648040877914181 -0.009352850839624468 0  0.04695814363714483 -0.04121382184397417 0  0.007422463937979502 -0.0378827225670978 0  -0.02511381329848898 -0.01932118294664953 0  -0.004252948739696259 -0.01117206503553538 0  -0.03322753170044795 -0.05500012028855297 0  -0.03487647265140326 -0.05297507909080673 0  -0.02526342680097977 -0.08428393986825121 0  0.03838815330162575 -0.01570549833339427 0  -0.009620928991571001 -0.004441842148706425 0  0.03651143508404636 -0.01045112975123414 0  0.01388737105418562 -0.001431809280784936 0  0.01199510121129013 -0.01754557698504827 0  0.001308113759988759 -0.04944700849509293 0  0.002603650539220802 -0.04934298948539233 0  0.003194450007892418 -0.09396352210130467 0  0.03769074722308389 -0.05932798700863462 0  0.03841317868273451 -0.05712832193281868 0  0.00348797663566396 -0.07097579292827857 0  0.001542585041404355 -0.06977073503056669 0  0.04875951498222904 -0.0613965786157492 0  -0.004095724321492558 -0.002739813920321446 0  -0.04198435812826528 -0.08674340103462484 0  0.02550856618343053 -0.07080299179281248 0  -0.04774736234627217 -0.03098145646018958 0  0.02357812572436731 -0.01589710415824382 0  0.001368184370152505 -0.07273761881543414 0  -0.04860885759464057 -0.04215256349085633 0  -0.0410704048179466 -0.09871957002456642 0  -0.04296875000000001 -0.09897573269551115 0  -0.02631025361033481 -0.08221101335682317 0  0.02035059643400206 -0.07180682211235186 0  0.02136116550709479 -0.07284039360863423 0  0.0201836820135381 -0.07437805413953116 0  0.04401605677651377 -0.001297662503700671 0  -0.01043180621639142 -0.04871305621639142 0  -0.009140632701867943 -0.0472831723453644 0  -0.01173424170530498 -0.04744090801607592 0  -0.01173388954972476 -0.05001513954972475 0  -0.03261774360550629 -0.005953524245366938 0  -0.03313265160988142 -0.0046701545840845 0  -0.04217226075475772 -0.006806952810689778 0  -0.04122660413319494 -0.007944642912515358 0  -0.006774589326273711 -0.002617173953090439 0  0.0198843768200231 -0.0933592360882854 0  0.01865147947957028 -0.09398662648254312 0  0.01868831902934955 -0.09539575994032286 0  -0.01229861730104331 -0.06303802816932867 0  -4.344270907899272e-05 -0.07913724241410267 0  0.03157230138205727 -0.0753068283577082 0  0.03317084538661543 -0.07732685585411815 0  0.03343821757718572 -0.0749307191270363 0  -0.03565096212565738 -0.04791438863072444 0  -0.03524296294619921 -0.05046442066265832 0  -0.0341623397623512 -0.04884300625235058 0  0.01768401439889246 -0.02600328892920942 0  0.01836305585675033 -0.02743472424448002 0  0.00988236616720857 -0.01592402434283695 0  -0.03318798211528796 -0.09153975802489656 0  -0.02148159270845475 -0.02805317791791226 0  -0.02322424533036768 -0.02647110351667633 0  -0.03117749370798285 -0.0232276721304891 0  -0.01916592396313204 -0.01563747755766287 0  -0.01730267166009669 -0.0143278896225651 0  -0.01925576228854935 -0.01325540267135039 0  0.009453103227146445 -0.01819024001306512 0  -0.02638333218351372 -0.004551003248826221 0  0.02524907476044632 -0.03578208996369481 0  0.02945311104349747 -0.02804999152510938 0  0.04094015573610303 -0.05281683503128017 0  0.04024748446222535 -0.05516688225348838 0  0.01342546329525158 -0.0907431903154927 0  -0.02896391509978198 -0.01118097237867557 0  0.001434473698376028 -0.04521553686097385 0  -0.0007255791997329603 -0.04506492059329821 0  -0.02627123776929727 -0.01694775210455565 0  -0.04871995566788221 -0.01133305450972619 0  0.02729742967311976 -0.07365149246096568 0  -0.02727057691323978 -0.01361507866775395 0  -0.02859666188170644 -0.01347995636094129 0  -0.02890518750060017 -0.01559070312331449 0  0.02863881104177476 -0.0923765822506227 0  0.0286429905605477 -0.01620375056504841 0  -0.03694772237777565 -0.09552525477644315 0  -0.04103251764637762 -0.03929330409938821 0  -0.02523744315919711 -0.0261723293570944 0  -0.02722627102930427 -0.02686568702498211 0  -0.04276627226628706 -0.01125954673101993 0  -0.03316313377816836 -0.0389531888469032 0  0.04451023070087207 -0.06066269773936521 0  -0.002066590380152405 -0.07789342273516638 0  -0.0003488571704173114 -0.07659863563213469 0  -0.04144874622756445 -0.04809030996400333 0  -0.005786842487529789 -0.04548693776817563 0  -0.005577326050312767 -0.04372838708356372 0  0.03159319789079013 -0.005970770335785537 0  -0.02312075775827212 -0.08517695976552687 0  0.04898813103050487 -0.08359375000000001 0  0.04553300962663592 -0.004372376934526998 0  0.01102710299995029 -0.06124145245848025 0  -0.02886358470891671 -0.04162013231574103 0  -0.02043880192230154 -0.05960917457031006 0  0.02089898729559453 -0.003941425490012048 0  -0.01173032520072404 -0.03961405782706073 0  0.02214318431107229 -0.03411974979078199 0  0.006406568269736172 -0.06366136684406197 0  -0.02421875 -0.001070545035041882 0  0.01764097717984675 -0.01368695392419492 0  -0.01157247934779495 -0.03711707048113283 0  0.02896495603620748 -0.05587996185574331 0  0.02372177137702914 -0.03738089056427373 0  0.02125876221668762 -0.03661698079560467 0  0.01493054811390352 -0.005728909037365004 0  -0.02127686026446567 -0.02573689477712586 0  -0.03535732743477943 -0.005983905936783913 0  -0.02825333330839577 -0.09514267733972362 0  0.01502431152821773 -0.05080431612469408 0  0.04329693780352138 -0.05837596141497661 0  -0.03510552397780878 -0.09651219595776604 0  -0.03315816447076626 -0.09675077740361024 0  -0.03378250816378063 -0.09875916755176303 0  0.009429760370115602 -0.06547453251974471 0  -0.04239887132958607 -0.02981909280669477 0  -0.01684592013783925 -0.06498125592493353 0  0.03422009285837812 -0.0104808575314733 0  0.01842762780390004 -0.0113363776455888 0  0.03653622517024985 -0.09371133451967185 0  0.0201243674134509 -0.01930749418033869 0  0.02122174199863099 -0.02158229473729602 0  -0.02125146970804417 -0.002458540458183734 0  0.04175506994156589 -0.01424958263275727 0  0.01916051892550781 -0.0292400050606792 0  0.0184593985209245 -0.03145805163120703 0  -0.0345344684839694 -0.03035544383999093 0  0.01653515647533563 -0.06938187805737624 0  -0.006401041619181601 -0.03991745372401429 0  -0.00734822752212987 -0.04086792654761368 0  -0.03208146359151062 -0.03695151500282604 0  -0.03907957885335404 -0.0235051294421654 0  0.03280756792682593 -0.05041816825070188 0  0.02931574025463293 -0.05184114819067465 0  -0.02377375051522717 -0.06153805925731483 0  0.03230133062760441 -0.03123592891333121 0  0.005010085162985903 -0.004769424559191132 0  0.005220443238135993 -0.007242760660773825 0  0.03984375000000001 -0.09900227788171134 0  0.01049145051820599 -0.09324152961786486 0  -0.0388607416072705 -0.06727610993654791 0  0.03414632145215689 -0.01981195444576479 0  -0.008416023906852626 -0.01675159214239176 0  -0.01805717766290948 -0.07685374236305258 0  -0.01911972810607756 -0.07556705959653391 0  -0.02486282869336675 -0.0955910927004167 0  -0.02456461650151217 -0.09688202554443591 0  0.04304905373167539 -0.004436068218574014 0  0.04224337755174201 -0.003425833204032312 0  0.006249482105909384 -0.07987430642831503 0  -0.03424813787148097 -0.07754942080531232 0  -0.004528542899915599 -0.02124903684174351 0  -0.003231712118344738 -0.02110176104698488 0  -0.02034768992586111 -0.09862866999774451 0  0.01364074218682452 -0.002855601744441325 0  0.008605208028443492 -0.03236179789541018 0  -0.003592815741434863 -0.07713911227004371 0  0.02884403521623661 -0.09460345432772685 0  0.02667389790651899 -0.09366753475567963 0  -0.00234375 -0.09900466385330135 0  -0.0007812500000000002 -0.09900466385330135 0  0.02050971323323964 -0.03460571220399654 0  0.01976612095981776 -0.0326948503661685 0  0.02149280381432796 -0.03225139076509032 0  0.03611383071235718 -0.06869062629615665 0  0.04891130058011334 -0.04295859219391228 0  -0.03646064729364689 -0.05964359658843866 0  -0.02711757063005969 -0.0969085424243199 0  0.03444967071844199 -0.0845872793242216 0  0.04069077569450226 -0.02838886483131087 0  0.006091995596052906 -0.04636580157696927 0  -0.00990896070693684 -0.01976874516148478 0  0.02046219439167734 -0.03899936135779371 0  -0.03107688060778995 -0.01177700186775934 0  0.01287403408234828 -0.009568538305005012 0  -0.01177187661912244 -0.04248841231715898 0  -0.009274882688392497 -0.04189058812168735 0  -0.03506891724848339 -0.08427025897440037 0  -0.04340185835288792 -0.01992141461757871 0  -0.03255536560158797 -0.01606907719591126 0  -0.03255187731384452 -0.03350998082313712 0  -0.04520155373919921 -0.07760243618826815 0  0.003817572466823271 -0.09884109477962963 0  0.0113357327688114 -0.09715323278725581 0  -0.0293927573799892 -0.05715812076180872 0  -0.001001578058788076 -0.08666552721903509 0  -0.02736508407094573 -0.00578019305242813 0  -0.01908825101835326 -0.05724610195692782 0  -0.02531779477657411 -0.002792881608726256 0  0.03047570407955542 -0.06434064921348497 0  0.0306733576248822 -0.0972178635592076 0  0.003314293606984882 -0.05127565473503385 0  -0.03439516198649189 -0.004481423825499872 0  -0.03729309160967311 -0.04611991981756625 0  -0.01444872407041858 -0.03487575594506258 0  0.0486439092294222 -0.0455041139600379 0  -0.0290733265711178 -0.04310833108816751 0  0.009237452798823721 -0.09305626098957827 0  0.008616100058151601 -0.09191947641767456 0  0.009318954258427582 -0.09079199029164829 0  -0.04360830250675023 -0.09076570631160927 0  -0.04402510974141399 -0.09266012139724018 0  0.02610269310371785 -0.06346618551223898 0  -0.004029967324438383 -0.06398547231887458 0  -0.0008426121339137368 -0.09467312359092363 0  -0.01341177983204074 -0.06890429274100807 0  -0.01169857664507878 -0.07058511834328619 0  -0.01363923103908285 -0.07106780779260902 0  0.005964166650269928 -0.08653250992754455 0  0.04431125566649288 -0.05567127039689208 0  0.00206468578259953 -0.04688968375212091 0  -0.04613089543005702 -0.07191667720212576 0  -0.03974768947848552 -0.03282280835793109 0  -0.002651619877573456 -0.09124849321760553 0  0.03249990374915421 -0.01898351880040928 0  0.0313009379636345 -0.01555331789354023 0  -0.01883977373769139 -0.07965089599896288 0  0.04880908426087914 -0.01927006716682545 0  0.04722999291871425 -0.01934673435791611 0  0.004203494958316629 -0.08933740797062283 0  0.02165344791542613 -0.0914718130564066 0  0.04470011733504312 -0.07465453735689499 0  0.02555154878768206 -0.06760983836910162 0  0.0242878124926066 -0.04542282436339327 0  0.0489502092064367 -0.01015625 0  0.01422087245469097 -0.04494287975057059 0  -0.01472923525316768 -0.08240468000708978 0  0.03872850461627689 -0.06510028164023809 0  -0.02168785760607143 -0.04401619242757263 0  0.04379889597400877 -0.02937805926318367 0  0.04511159327818128 -0.03058130818756076 0  0.0003308123345745562 -0.08140347283758367 0  -0.02238081833933543 -0.08714507189086418 0  -0.01358629657341346 -0.001163908011646137 0  -0.008620460789191809 -0.08734217304402921 0  -0.03078114439356181 -0.001380936166175876 0  -0.03203896022054332 -0.06350818969625713 0  0.01300705578363377 -0.08953763602636647 0  -0.006748464301412283 -0.01477127633268258 0  0.02560384305188584 -0.06564998683457883 0  -0.04880238701919695 -0.08963855503740603 0  -0.03915151313715642 -0.04190046166685747 0  -0.002330177164487084 -0.08338017570885939 0  0.01465614044994954 -0.07531115630817482 0  -0.04032973650143438 -0.002755987959280372 0  -0.03984375000000001 -0.0009797159032093733 0  -0.03815867170224736 -0.0027860800878334 0  0.03312501291299753 -0.02932221322051379 0  -0.01689158446498496 -0.05530094859752473 0  0.003525850745776431 -0.09564470085231722 0  -0.03879831040126967 -0.06215871622437003 0  0.04214131104104783 -0.07154332130963777 0  -0.04041813235009118 -0.09211886216569007 0  -0.01258121376359388 -0.03316564401066542 0  -0.03033026268956186 -0.09386526329698264 0  0.04403495976075587 -0.04362993375720231 0  -0.008054055515203022 -0.05688671323046033 0  -0.001202556463308374 -0.01975483795269455 0  0.0382963571459956 -0.09900227788171134 0  0.03829154108087073 -0.05352208750160169 0  -0.0473874439537363 -0.04248178624905796 0  0.03922355280538951 -0.03291975362222534 0  0.01734017931472401 -0.0320785255769431 0  0.04199429575677797 -0.02233494568022261 0  0.03271865149047998 -0.07982966436727885 0  0.004337292433707592 -0.04794063567043756 0  -0.03112125752325849 -0.05272867211841903 0  0.02194196373108312 -0.008994286290260445 0  0.002054769314369111 -0.03419236779911242 0  -0.04243304685785465 -0.06694923198371074 0  0.03515625 -0.0990239507218217 0  0.04668101288972421 -0.05446700198475989 0  0.04896481927976488 -0.05546875 0  0.04722850051520042 -0.05655436300778519 0  0.0002876768670207433 -0.06453558670244443 0  -0.03582427558741149 -0.07176809736368082 0  -0.03268678379797102 -0.05041550003396029 0  0.04261049298907801 -0.02381194100546099 0  0.02301943938239701 -0.05682589084992745 0  -0.003768413976596941 -0.04385570715441281 0  -0.002166241187265823 -0.04534557984913586 0  -0.03515625 -0.09901521224091347 0  0.02491296471415239 -0.04431027304833571 0  0.04721945354367159 -0.009046627724896261 0  -0.02941331486650914 -0.03773851262307067 0  0.01383325020057008 -0.03148888797353741 0  -0.04230072180693045 -0.02822363340721653 0  0.03046875 -0.09902645559171293 0  -0.02921508383432405 -0.03632975209507314 0  -0.03084269701125872 -0.03565370977778447 0  -0.0002788801040064458 -0.03696897045822142 0  0.03901791701166146 -0.06257317183134896 0  0.0227869686472203 -0.03116920126228433 0  0.02508237415625393 -0.03213718915296115 0  -0.01736330219332458 -0.08364028711401138 0  0.0303605794153652 -0.02604564441994421 0  0.02911614978449319 -0.02457349211302522 0  0.03788102514121579 -0.02617667492939211 0  0.02872964110668745 -0.0270354954265807 0  0.03551503311550751 -0.02548615065347747 0  -0.04900431405099505 -0.05546875 0  -0.03358335909733472 -0.0245473641927461 0  -0.02107156403646102 -0.01604732403266496 0  -0.02019664208204682 -0.0120002700148299 0  -0.02059679951987983 -0.01000562477069826 0  0.02321778669932731 -0.02509921780849994 0  0.02740247589001225 -0.0549973773621846 0  -0.0393614183899297 -0.08350955148002361 0  0.01792637620528365 -0.001027915515890235 0  -0.00172225947877985 -0.03548480274202483 0  0.03154455206726769 -0.0111306786257619 0  -0.007274885352599469 -0.04559910617284488 0  0.04247891865079365 -0.02803199404761904 0  0.04182581018518518 -0.02618152006172839 0  0.04019154605608694 -0.02708161183173919 0  0.041015625 -0.024609375 0  0.038671875 -0.02382812500000001 0  0.039453125 -0.025390625 0  -0.02480252927306754 -0.005874302821802789 0  -0.02281490984320699 -0.006239417185355445 0  -0.02269307569117956 -0.004523460884753814 0  0.0256331482494224 -0.04232339870454255 0  -0.02629939038059567 -0.0475478432958647 0  -0.03872951572757587 -0.07616887691430133 0  0.03455775145800284 -0.03127359668348176 0  -0.0309300470784624 -0.05399089958602941 0  0.04285107725167885 -0.07874855423988181 0  0.03051206675486491 -0.08574752017474846 0  -0.04146703243998352 -0.04196061392263599 0  -0.04887913119379533 -0.09741190029412047 0  -0.04871575085139657 -0.09871575085139658 0  -0.04728476904012275 -0.09883636166269053 0  -0.04657029169999551 -0.09702545950044444 0  0.005076747929030477 -0.0549172953183758 0  0.008779083982709763 -0.07934602861169886 0  0.009867587233142587 -0.07753859080905516 0  0.0221834232659223 -0.08125136953735196 0  0.02176955364842607 -0.0835205240764659 0  -0.006795133260958383 -0.0621831732399714 0  -0.0192423581345594 -0.02452136912448099 0  -0.005196107594362013 -0.009233986268878632 0  -0.01330752911746267 -0.08602777061779533 0  -0.02874692241759559 -0.06253994713448797 0  -0.02691121356500828 -0.05001132772396945 0  0.0408320319299789 -0.04090518146652444 0  -0.006023189692356051 -0.02514586382748307 0  0.01635315085807559 -0.02813870791710531 0  0.02135682463265156 -0.04058198816893171 0  0.001882947872270196 -0.03970306290003639 0  0.001912138697593971 -0.04150696716897623 0  0.0001578081035669337 -0.04151000668776764 0  -0.0103453122305361 -0.04352466021443175 0  0.04470138019807922 -0.04006469260821306 0  -0.03810156053062245 -0.09119702380240177 0  -0.03671784224492148 -0.08439276183737165 0  0.02415911138195798 -0.0396700196758585 0  -0.02702182558379253 -0.04337252486884703 0  0.03813046682425351 -0.03969724440414177 0  0.03700321765108745 -0.04157047649639811 0  0.03828799576171199 -0.04229733245242575 0  0.04491853855469405 -0.04518850588355116 0  -0.01994217119425263 -0.09364006899039849 0  -0.01072650058289941 -0.03622294331279508 0  0.03411158202741389 -0.05333201666209409 0  -0.04665529379175146 -0.00137769850969023 0  -0.04642723888228229 -0.002717502514448372 0  -0.02369920778348049 -0.03815053743053326 0  -0.02339449280184788 -0.04055878950364673 0  -0.03136446543047207 -0.005983324884474762 0  0.009653859984776778 -0.08318336781217246 0  0.007643406541879057 -0.08372316112080255 0  -0.04855803216604428 -0.06832708064260508 0  0.009878221299451408 -0.005780590078184935 0  0.01412813930479524 -0.03429301238589488 0  -0.01424915025216534 -0.03965709974783466 0  0.03571351830787091 -0.03620543372684237 0  0.03473567483644352 -0.03706349684929379 0  0.03719753960458023 -0.03823418539050433 0  -0.007471301625578421 -0.08044570523847996 0  -0.003819476535228773 -0.005433209445820898 0  0.04630602369150016 -0.0446744846015719 0  0.0007641612244241926 -0.01643086835551135 0  0.01860193421217502 -0.04434201600440003 0  -0.001294959773292754 -0.0323122192474747 0  -0.04208981319120318 -0.07255094401783478 0  -0.04042610050297037 -0.07440899577322206 0  -0.02701422417617213 -0.02233929579575948 0  0.04649789539999938 -0.006677706107371048 0  0.04477293177562217 -0.006060917491891529 0  0.02122024711207452 -0.09517922284132635 0  0.02097507670325933 -0.02410442930760899 0  0.01917911246188084 -0.0250726127076844 0  0.02148446911432735 -0.02579495297539319 0  0.0237332110523965 -0.02682615193204663 0  0.02526017551271015 -0.02820964616679695 0  -0.04398536318006561 -0.07714244631355144 0  0.002561923830122885 -0.082636799670656 0  0.01015360669671326 -0.03763795933128713 0  0.02539827994416437 -0.01828229987070731 0  0.0119412816454068 -0.03962955319568696 0  0.0168632572002185 -0.02427052075501467 0  0.01523569483131376 -0.02501439413424173 0  0.01466160746924623 -0.02317090390498708 0  -0.03921447713144303 -0.04563527214235313 0  -0.03854853935847246 -0.0478867855620044 0  0.03926685076487507 -0.09679704321941399 0  0.02375805890484675 -0.05465315836291167 0  0.006176107862612785 -0.06134825405086106 0  -0.03517722614609853 -0.03971192273788027 0  -0.03405973765223044 -0.03750318376387945 0  -0.006430493278645864 -0.004986286414591355 0  -0.02160296443819511 -0.05427891249522705 0  -0.03074823295058772 -0.01587054706780275 0  -0.03227379496070811 -0.01396068523529442 0  -0.0392476356964379 -0.06970236455515599 0  0.02222464773671323 -0.06918728178633617 0  -0.006730538099557571 -0.001167724571443783 0  -0.01926170944330773 -0.0960083908216139 0  -0.01689608144409721 -0.09601478577561605 0  0.01338435073637124 -0.09701278725313547 0  -0.03553488592425742 -0.09289783690688079 0  0.02163872006502229 -0.02973316040097814 0  0.02253111094696447 -0.02745064951444512 0  0.02070081214878688 -0.02835692244737124 0  0.04898831646063876 -0.01640625 0  -0.01859795143243149 -0.006205228722714972 0  -0.03805160257148282 -0.07827433756382421 0  -0.0008457253093366716 -0.06130388608033081 0  -0.04905315471271367 -0.00390625 0  -0.02386491405169361 -0.08228942010902868 0  -0.02203006472246187 -0.07055030650287941 0  -0.01167423475787105 -0.06410955714105482 0  0.04905148463939272 -0.01171875 0  0.03590878992660015 -0.05955090279602789 0  0.02900009169276368 -0.06673442795476375 0  0.04405152799223511 -0.0658447908181732 0  0.002809974680238777 -0.06148610666216546 0  0.00411884912635382 -0.06028811102275502 0  0.00297101959387791 -0.05902290969431079 0  0.01329088303287346 -0.06082575825228405 0  0.0115498804820896 -0.06241435438022442 0  -0.04710298060245842 -0.04570938179103157 0  0.04351405052814792 -0.06411025679710558 0  -0.02426823982409773 -0.04718545381918379 0  -0.0157598533914659 -0.05895455464623622 0  0.04184229601666056 -0.05506774679202702 0  0.0401448484091172 -0.001172961478719271 0  0.02462986947047138 -0.07513538420006448 0  -0.04650319871306311 -0.03395160452905883 0  0.04277742753079827 -0.06047831617608881 0  0.04152541277711114 -0.06261970789287322 0  0.04079209278511617 -0.06158500723356028 0  -0.007717952641579004 -0.03831403823895072 0  0.04421971578730512 -0.05262045845053385 0  -0.01533477595577462 -0.003396983141936339 0  -0.01705480566968284 -0.003117763065403271 0  -0.0277681862760824 -0.07810730190900213 0  -0.02845488163663941 -0.06780788052373091 0  0.04485335890355246 -0.01487946148332404 0  0.03245569233496705 -0.001217641267472489 0  0.01289729539144031 -0.06465245425749808 0  0.0146266798107344 -0.05862476119017337 0  -0.01302067218881606 -0.01419855344916813 0  -0.01267988169312176 -0.0164526841997577 0  -0.01402247257593418 -0.01650370501719876 0  -0.04067748484175318 -0.05845064284782123 0  -0.04247663377193157 -0.05725387859112988 0  0.02432901447087162 -0.08421301748972158 0  -0.04899056330631719 -0.00234375 0  -0.04453920722345977 -0.009782591749273034 0  0.008347320783250933 -0.02875951443393319 0  0.01476070033645028 -0.08853904411265444 0  0.03463163502406728 -0.09010428705247489 0  0.04333536339007452 -0.07205951904915978 0  -0.03098975331989636 -0.003635286344152141 0  -0.03234191475083041 -0.003477728134748936 0  -0.030212692705281 -0.002660378660647374 0  -0.01530539228615521 -0.03837311611583583 0  0.0432856575856821 -0.01857442873857615 0  -0.0198740182023016 -0.08048854877634132 0  -0.02151226138275223 -0.08140532553038726 0  -0.02001184436750024 -0.08289093480708112 0  0.03455920140159877 -0.02232511247845695 0  0.03586408018915292 -0.06463320118066053 0  0.004622042087540984 -0.03264427143422441 0  0.03025457202001289 -0.01805343878867817 0  0.02987101233043814 -0.01625770041809275 0  0.02835962469920684 -0.01819105281441103 0  -0.002221244434474495 -0.001041808314220664 0  0.001884377433477147 -0.05290083375277618 0  0.0005645570182731337 -0.05109550957134902 0  0.03874013374619364 -0.06924617039437619 0  -0.02289080258291265 -0.002902644224853007 0  -0.01422391070371019 -0.05754204824300912 0  0.01471791076545263 -0.08170272334401785 0  0.01641852547906163 -0.08210969289830113 0  -0.008021558027779008 -0.09679947768335276 0  -0.04591449849604167 -0.07378672362651122 0  0.002496473374006905 -0.07498544135180354 0  -0.0390899401122453 -0.03929532218769465 0  0.03772917097130733 -0.07768365980454513 0  0.02921025996571702 -0.03489168101035621 0  0.03612614502831438 -0.006756566469094057 0  -0.03111396866900893 -0.03150463811627635 0  -0.04098780865925238 -0.01593796044897187 0  -0.04037948892813129 -0.0147490510454929 0  0.02404219744063553 -0.06038623595753859 0  -0.01606077935975143 -0.07121739093502763 0  -0.01919091764815905 -0.003060221883232358 0  -0.01953125 -0.0009489941237141176 0  0.02415730158002126 -0.03044059554231862 0  0.01888148311767368 -0.0807703179911847 0  0.0182079711911838 -0.08237499197679528 0  0.01790768845460149 -0.08415700250028342 0  0.01643058434435249 -0.08573352738713613 0  0.01776749656693474 -0.08663950903773919 0  0.00219870199465493 -0.0100684730591086 0  0.01308442427430836 -0.09890918961286267 0  0.01503716301382548 -0.09738012675174813 0  0.04382989884502773 -0.0360149727309356 0  -0.02851664838711885 -0.08311702699322643 0  -0.01284180085903794 -0.08792336777734965 0  0.02186626105517994 -0.06011247048097859 0  0.02246997271729118 -0.05850132269557838 0  0.0112538570314089 -0.09194034324802779 0  0.01078342313521034 -0.09076064454159216 0  0.01150196674585575 -0.08968593500238987 0  -0.04721141538912739 -0.007667928146329543 0  0.04549848852520572 -0.05063084202012447 0  0.01532645910576562 -0.07101185238268788 0  0.01389696874004496 -0.07233607231414572 0  0.01562395595250125 -0.07342145202703954 0  0.02085266355912684 -0.01308980783841613 0  -0.02420661673777592 -0.03426889163323928 0  -0.04736015488719793 -0.03310052788448457 0  -0.00476167912872554 -0.08374832402396032 0  0.003877903104733792 -0.05790605727200929 0  -0.02129864521160281 -0.03155024528759198 0  0.0133606250289152 -0.05838169876875839 0  0.01141115894041322 -0.05787929452578608 0  0.0134292867855513 -0.05655752037662641 0  -0.02090861730111345 -0.06092415375713309 0  -0.04415832006305731 -0.0736984366409939 0  -0.04853582946579822 -0.01371602247859921 0  0.004669781347648931 -0.03101752180273077 0  -0.001935563403796397 -0.04301965594820351 0  -0.005835651178695127 -0.07150070042329126 0  -0.04412572221226103 -0.08340133178897634 0  0.001134720456688326 -0.09500701945478164 0  0.000861675425260322 -0.03220393984842913 0  -0.001717028145382355 -0.0811575641159526 0  0.03356604088442973 -0.01724382271358605 0  -0.01722583228429945 -0.008553193661148168 0  0.03822225575557547 -0.0009665216127764321 0  0.03993372579512732 -0.002896523149674314 0  0.04081577583244519 -0.003916205619563343 0  -0.04840268659038389 -0.00124534423939145 0  0.04308710242968629 -0.03948482374889627 0  -0.02161380303903306 -0.05656516736366929 0  -0.02071025424143932 -0.05565288999381927 0  -0.03777854950398322 -0.006138000247961884 0  -0.0425246329869326 -0.08882421318574428 0  0.03909119521134221 -0.007364748846000402 0  0.007796918748792907 -0.05894274724918259 0  0.008968640927136685 -0.05736119704044223 0  0.03974158575375988 -0.07704395521980052 0  -0.0254934587516829 -0.05474254255203893 0  -0.03249524026580072 -0.05862484039970144 0  -0.03326768378006707 -0.05756644601965719 0  0.03726695098538411 -0.03245975590678591 0  0.01989767009205577 -0.007365919636020117 0  0.0488436754776052 -0.09421874578713656 0  0.03994713049080543 -0.08686186448000197 0  0.01553679090036362 -0.04718088496211495 0  0.01735714631027839 -0.048081529209244 0  0.01609919315098319 -0.04593429450089966 0  0.03968882319329583 -0.03859843002552184 0  0.04154176558631957 -0.03696460943106063 0  0.04129844495927808 -0.03900791743792875 0  -0.04751592904797914 -0.07559353729107883 0  -0.03861592083245848 -0.07471879956454858 0  -0.009608501443480338 -0.06881585793869603 0  -0.006094672665585516 -0.0686528995205392 0  -0.006169326379718077 -0.07034698575286087 0  -0.007863566894486576 -0.07027591946202918 0  -0.009712661981251369 -0.07090327220627278 0  0.01565605992724205 -0.07463058051651685 0  0.009257204219200413 -0.09557028412244647 0  0.03848918294936249 -0.03195336524676493 0  0.01020002419467339 -0.0009670851094367711 0  -0.04505337755710596 -0.01230654685666641 0  0.005877626541525966 -0.01652881868445071 0  0.006568094921912041 -0.0188157773171463 0  0.004921642348359589 -0.01814477820147437 0  0.005105359578322327 -0.09715012067533171 0  0.002696116054654498 -0.09702635083894898 0  -0.01943995487036793 -0.03446629512963206 0  -0.03041447696901067 -0.06929794131160431 0  0.02975348485339104 -0.003495841977206755 0  -0.03261029294342761 -0.08407747189550489 0  -0.008797877588916453 -0.001084749125334065 0  0.0183967583645053 -0.06559058997587779 0  -0.0007812499999999999 -0.0009152225101653922 0  0.04574578907988103 -0.09748192626587558 0  0.04537488302587007 -0.09871441910105071 0  0.02957505844387526 -0.06220097581495764 0  0.02694501275950853 -0.09832363944748553 0  -0.01797321947136479 -0.01105932846882128 0  -0.01638873746771234 -0.009968102483796334 0  0.04895833333333334 -0.02408521284179716 0  0.03872267552967559 -0.09456066155996216 0  0.007343316453110902 -0.07503880070158034 0  0.03574804588916098 -0.04972097101167133 0  -0.012249275125212 -0.07485409677041852 0  -0.01041139802292763 -0.07415909272973811 0  -0.01147572787775459 -0.07252582267637762 0  -0.04415609554828701 -0.03457694918918049 0  -0.02482193986907687 -0.07861257164411514 0  -0.03587704359306126 -0.02526083110594471 0  -0.0355690365385311 -0.0276337863082489 0  -0.03728513116640148 -0.0267868575258674 0  -0.03702507562444755 -0.02431234296189872 0  -0.0331985024423274 -0.02723914562616817 0  -0.04875861226345379 -0.02146248571341827 0  0.009548067342425545 -0.04417070098957306 0  0.04681070456075512 -0.01717490917176655 0  0.04704653599278565 -0.01528987291483752 0  0.03639945749124163 -0.05232268163171933 0  0.03532372925319343 -0.0538196242805467 0  0.0344938323270874 -0.05165661582148755 0  -0.01808410282282728 -0.02421298986905859 0  0.04043295057390323 -0.07044071772437678 0  0.03610205032022707 -0.01444552430605028 0  0.0340966592427215 -0.01580252448104799 0  0.0383426115504344 -0.04896629579879229 0  0.04877598180632663 -0.06683178885829567 0  0.02486016565790973 -0.002469619513327433 0  0.007822970693703911 -0.0695498792976782 0  0.02553399820632747 -0.09331119966050322 0  -0.01812069806791608 -0.04598528140124943 0  -0.0419682215765712 -0.009159229345435681 0  0.01796875 -0.09908540236985387 0  0.01069151172544803 -0.04270351621172296 0  0.008316831865131146 -0.04281539730213309 0  0.04419377115999236 -0.007444555933511004 0  0.04571527438007943 -0.008281306386483056 0  -0.0308338298808437 -0.05766910726209005 0  -0.0169018959020878 -0.02227700246103359 0  0.007372060610560895 -0.08969759682245058 0  0.04262974030315995 -0.00569908758903798 0  -0.03478692594365568 -0.08311227844525473 0  0.02366791725470103 -0.09031540718839756 0  -0.01163418480130229 -0.02013943775128609 0  -0.009994358154603856 -0.0184937967275554 0  -0.03793306946552157 -0.004010570172535578 0  0.02987555282057803 -0.07049295856273537 0  -0.04258112599670628 -0.04585821015507052 0  -0.01624138849704342 -0.0600708080152562 0  -0.01002484870426246 -0.01325699430567117 0  -0.0491019910858755 -0.07890625000000002 0  -0.04881887395034682 -0.08079417939065109 0  0.04907561498073269 -0.08828125000000001 0  0.004776088022867309 -0.02586110184974806 0  0.004461960000300819 -0.02470014393746457 0  0.00628616642766257 -0.02598400397217067 0  -0.004363322250861793 -0.00157449426533772 0  -0.004677525506754418 -0.06087784921474847 0  0.01878489314092856 -0.07900414078041322 0  0.0189396081064544 -0.07713935713409155 0  0.02510676705215186 -0.05749160090287937 0  -0.04696559217344296 -0.02951794682660481 0  -0.0491031207582538 -0.03046875 0  -0.0491031207582538 -0.02890625 0  -0.009103431256494994 -0.01190442128479679 0  -0.01808328388472422 -0.02042647479011427 0  -0.01926524373988349 -0.02143768155705227 0  -0.04032412281080267 -0.03718523381187142 0  -0.02594231189918875 -0.0733451440336787 0  0.0415029555837759 -0.04668057137723835 0  0.04335929445922932 -0.04607593764449062 0  0.0009976885592397444 -0.006662501674163779 0  -0.001343027064758018 -0.005859167846318222 0  -0.0003089592370654861 -0.007477063745971159 0  -0.02281123339368499 -0.01763141589263016 0  0.01572820900217291 -0.05181900442996053 0  0.01755260292128486 -0.05044912212370792 0  0.01700294413571009 -0.05263950658218328 0  0.01517121332099561 -0.05674443431679996 0  0.004341745299422326 -0.05262339005221078 0  -0.01942936826088072 -0.04729285417223485 0  -0.0005368269798526519 -0.01320674720901985 0  -0.04906497530747975 -0.02734375 0  -0.04457033239811884 -0.04181843354401871 0  0.00551744337576145 -0.04315576563723515 0  0.01819711445397312 -0.00565251098040237 0  0.003507165892013051 -0.003125803755658085 0  -0.03810053421480782 -0.06407140978570319 0  -0.04583382770278353 -0.06378196036892232 0  -0.02355347207161747 -0.01929828639984939 0  0.005390015952466633 -0.05923373105923693 0  -0.02647631896877671 -0.02854424990736485 0  0.0058050857776268 -0.003223244104974818 0  -0.01304779085328923 -0.007946841998630643 0  0.03012480935865665 -0.07674529089747015 0  0.02915327453338261 -0.0780426158716836 0  0.03139716338697139 -0.07854708250907411 0  0.01047951665617742 -0.01967042786391001 0  -0.004530601587452984 -0.09567583656874824 0  -0.003599129389364982 -0.09349855207982684 0  -0.005183391919555963 -0.09398908797873083 0  0.03795713006508773 -0.05591288199327688 0  0.03671085520355185 -0.05552938183726611 0  -0.04199118379557663 -0.0260701744636111 0  -0.04413519100103938 -0.09608297372572032 0  -0.0323509260274968 -0.09535491058622661 0  -0.04251669562945871 -0.07367008530887795 0  0.004682488428237815 -0.002326851050759245 0  0.01096362451708227 -0.02673444978522338 0  0.01127549179788656 -0.02550456698720337 0  0.009797146148834465 -0.02718316640548965 0  0.01877403947958715 -0.08516045435691114 0  -0.0144170350034745 -0.08950314590548213 0  -0.004796003924344863 -0.03011047813861253 0  0.02949085559467731 -0.07299238729987037 0  0.02962947316704114 -0.074472821828947 0  0.03878680974344645 -0.009771103818844903 0  -0.002478280921265694 -0.05626128132594631 0  -0.04428464156525175 -0.01501124909982394 0  0.03729003031477825 -0.03595016114312902 0  0.04111394739343614 -0.09133167054391919 0  0.04426867101989648 -0.06318725802024666 0  0.01066500105286 -0.05661758171441726 0  -0.02672396498604806 -0.0772988171085663 0  -0.009554869058164644 -0.06511065328987745 0  0.01549984652176272 -0.02638790861567161 0  0.04584370611570276 -0.03354971132166178 0  0.01031338299544791 -0.04701398080073266 0  -0.04189419332005839 -0.09152905712503528 0  -0.01773351150434958 -0.01808127695623045 0  -0.01643650054064611 -0.01674012161959812 0  -0.04600272363173701 -0.05483723823738353 0  0.0179384593675425 -0.06333418017206062 0  0.04282652108994203 -0.01640681903232547 0  0.04115748501948024 -0.01771010306264772 0  -0.04884908372315318 -0.04956695322192863 0  -0.04320199197885724 -0.03976471441767432 0  -0.04478533097566478 -0.0400718382357302 0  0.01269393650924106 -0.08498982980475404 0  0.0224904783819278 -0.04453000493509854 0  -0.02537127157212641 -0.07117823731277152 0  -0.01322446437581371 -0.0561328634007423 0  -0.01445150869846218 -0.05507974130153782 0  -0.01338582154479916 -0.05375175350260455 0  0.03925921127639001 -0.07315369846628103 0  -0.02206449057786 -0.05885447773151713 0  -0.04577989024284788 -0.0755379189396559 0  -0.04911572089301979 -0.07734375000000002 0  -0.002742189545856497 -0.01619388765164797 0  -0.003232293712331968 -0.01405619678342497 0  0.007264519482247178 -0.01774045188290806 0  0.003969337379114932 -0.06514176469356292 0  -0.0410704048179466 -0.09748451641591652 0  -0.04369586664428884 -0.08492974613849406 0  0.008751221486318498 -0.02539432639310113 0  0.0002549811963872377 -0.008956113093261584 0  0.0004946777392912749 -0.01107171228827176 0  0.006529542648381991 -0.05791746028986506 0  -0.0367581291912758 -0.07027650674237405 0  0.03567186225409372 -0.08443556710400299 0  0.008122847489526644 -0.04529772822853308 0  0.04722633352092774 -0.02244375399152354 0  0.02745998986272035 -0.09217148013298308 0  -0.01516896615121481 -0.08422889601867425 0  0.01685377713851168 -0.08040843926422507 0  -0.03007607676398421 -0.01349154857775543 0  -0.03023131888704345 -0.05944841856834775 0  -0.02946057522302715 -0.09670058322342294 0  0.01948919456926568 -0.06691853524832247 0  0.01915888648297137 -0.06465835305426271 0  0.006351151821399249 -0.007652048065837951 0  -0.02679235340204904 -0.07982521132013547 0  -0.04226973102809126 -0.06418675619058209 0  0.03898513376243852 -0.05967941831221794 0  0.02591767830674893 -0.02602461847018961 0  0.04736405076837585 -0.07081818851161291 0  0.04906776554857877 -0.06953125 0  -0.03181986347768527 -0.06019263292230293 0  -0.03316977794006282 -0.06202110845545393 0  -0.0236092725153197 -0.008018955433111312 0  0.02247295770194783 -0.07893054115405453 0  0.04347586708379754 -0.00904047144021857 0  0.03931806565587895 -0.04428492516509273 0  0.007857693733563638 -0.04049447034020099 0  0.006733786914071843 -0.04190520226860273 0  0.006686904661668908 -0.03949260440267072 0  -0.04738704419948742 -0.003440214960570921 0  -0.005203376735719882 -0.06768529990008207 0  -0.04453125000000001 -0.0008780771824743341 0  -0.04081148162786079 -0.04504494454702879 0  -0.04580450961961122 -0.06751915432693277 0  0.04509582529482699 -0.01222049418254831 0  -0.0339009951474271 -0.06563714093055378 0  -0.02301437526085038 -0.03114348041343756 0  -0.023339515832911 -0.03291969386584566 0  0.0004918866309963482 -0.04855439690632157 0  0.03755657152542251 -0.07586847898594123 0  0.001766280824735527 -0.05170255034018244 0  0.009493048197704633 -0.06024304644732787 0  0.01064456850530496 -0.0587984183292908 0  -0.01629950721047947 -0.07996084788342456 0  0.004757360576292401 -0.0499051700862151 0  0.02545650522497619 -0.08887570592842414 0  -0.001288308342788772 -0.09066764070259517 0  0.02089625059159768 -0.05196038843048087 0  0.002213460323967258 -0.03175092119561605 0  0.002950575095858874 -0.03268118067550211 0  0.03623023478702824 -0.005399710350774576 0  0.03672342754749533 -0.003687852747891004 0  0.03847355648526145 -0.004946086613557259 0  0.01725990642989049 -0.003358369193658845 0  -0.01055278248008995 -0.008089519333567531 0  0.03036464846606543 -0.03710461172630022 0  -0.02131675233970657 -0.01430615754040069 0  -0.013728141633587 -0.01310575365421987 0  -0.02062272674718021 -0.01771953448909122 0  0.0427925218603807 -0.085273498902273 0  0.04741383056027146 -0.07886793425469243 0  0.04912652017816047 -0.08046875000000002 0  -0.01706323783023428 -0.05174858458766202 0  0.02091271367358498 -0.08602022109101364 0  0.0149689074095003 -0.01148001623629069 0  0.005207374998917831 -0.02379395731751356 0  0.03779198421680179 -0.0658651489699623 0  -0.03871863979025091 -0.05346882758018808 0  0.04574120849483049 -0.01407577666525803 0  0.04355155627038063 -0.01317681237672632 0  0.03800579048449252 -0.08226047692916488 0  0.0001113754766169788 -0.04325425855587217 0  0.04736854540871739 -0.08755141234674751 0  -0.02988747243544009 -0.0252140286090355 0  0.01744368707658824 -0.04449142101209549 0  -0.04748789555370209 -0.0875102002026354 0  -0.01900661950303587 -0.03126223296518104 0  0.03232901732416033 -0.01333413243716626 0  -0.04303276900295958 -0.06825436972366968 0  -0.04428130720616495 -0.06824924402138151 0  -0.04484151173383324 -0.06970423451845634 0  -0.04309427967582947 -0.070358416928148 0  0.03761867205734468 -0.08573770831125781 0  0.005457274472493349 -0.09418481869012924 0  -0.0346723440686466 -0.06971734121689971 0  -0.02108626855343916 -0.00449159770753056 0  0.01781654144059676 -0.007613512880535471 0  -0.04907045441991924 -0.008593750000000001 0  -0.03922354831478291 -0.0713484935821109 0  0.03046875 -0.0008641327220918237 0  0.0360274822986013 -0.04220895593260174 0  0.003773432352510767 -0.04635238023847437 0  0.02109375 -0.0008667826583518147 0  0.001773367605194971 -0.089158230900772 0  0.04040507320145991 -0.03667347350671449 0  0.02480584193230752 -0.03867269638145213 0  0.02859691652703775 -0.02090720985499374 0  0.03047982315117741 -0.01962263042641589 0  0.0191863495841894 -0.01463722109883336 0  -0.02897979251121666 -0.07717091310272474 0  0.004995349443424121 -0.001164093968468373 0  0.01617220576999601 -0.0227585941261072 0  -0.01416367973666704 -0.01034628863940194 0  -0.006806564976120674 -0.09460290109823415 0  -0.01271006074843173 -0.06728449705136107 0  -0.01141310774492754 -0.06744643211844784 0  -0.01252231408410985 -0.06527089274038178 0  0.04648760415908638 -0.05563321052754592 0  0.03699930213183351 -0.04408281290089609 0  0.0004907378457200287 -0.06314858996049982 0  -0.04887947561933711 -0.03782325785770448 0  -0.04723007413676806 -0.03733706284766942 0  -0.0452398921593351 -0.03853632904834327 0  -0.04574865104749733 -0.03673776183674307 0  -0.009021353411510454 -0.009856529511846329 0  -0.008580853316296823 -0.008137436167982614 0  -0.01047882463142206 -0.009483175826658001 0  -0.0168972176815783 -0.02813419486396799 0  0.03842988291434912 -0.02754194967435875 0  0.0368000759113674 -0.02862268619958023 0  0.03898189639566012 -0.02922326741857611 0  -0.0278996893760988 -0.02476238894368043 0  0.02609673235837524 -0.05685559052863581 0  -0.04418441347708347 -0.09430091546320035 0  0.001433724435344112 -0.09873017584735823 0  0.008816215859873695 -0.01376775641759147 0  -0.007129855563452484 -0.08553077640547706 0  -0.04156838515501236 -0.08451255281801462 0  -0.02743827494902664 -0.08112939830301551 0  -0.03232073819743275 -0.04425106721988959 0  -0.02261701282484298 -0.06828840281657392 0  -0.03632315348587031 -0.001238555836628117 0  -0.006939237362378401 -0.03656887331726807 0  -0.02713327416650169 -0.05375490519972173 0  -0.02011688647506465 -0.07348802986541411 0  -0.02118806835202171 -0.07194743068829031 0  -0.02241304096682339 -0.07330737980923417 0  -0.04643795683230688 -0.03512954826802078 0  0.002358103885502241 -0.007787873089276536 0  -0.009124872192877938 -0.06720721395540799 0  -0.007669188246351179 -0.06732416624385858 0  -0.006929508049766477 -0.06635677672440028 0  -0.02716157987672623 -0.07590277798222894 0  -0.02903006152819068 -0.07456531886532695 0  -0.02757396303379026 -0.07392738107099212 0  -0.04392666304988047 -0.02591972509449649 0  0.0488996927769506 -0.0824332980173421 0  0.01021175124280207 -0.06769973899438804 0  0.01113009021019251 -0.03527112323301286 0  0.03400849823416752 -0.08086628663220069 0  0.01367896243044653 -0.01847057756256614 0  0.01505883684495313 -0.01969026310351408 0  0.02738555494262966 -0.0294419305641389 0  -0.02943227350495468 -0.07260183168722918 0  0.01173309583566455 -0.002860311357951062 0  -0.0154567105228802 -0.0955644352499838 0  -0.008037094208273908 -0.0264639061896168 0  -0.006326806330902824 -0.02637404471148025 0  -0.008155445772271586 -0.02306390327667658 0  -0.006525578062304697 -0.02307502587352875 0  0.00304152031560655 -0.02819859730061238 0  0.01634987407380314 -0.009570740353014055 0  -0.007875026233757198 -0.002973882856299917 0  -0.03380152343934273 -0.09349590014164327 0  -0.03595838254098356 -0.09048533032950666 0  -0.028051078177501 -0.06030750054784671 0  -0.02906636507930019 -0.07952062004440007 0  0.02263965871336921 -0.01146825173796427 0  -0.04880102289514342 -0.04099606743728016 0  -0.02023826324863609 -0.06680916335287435 0  -0.002053870739172697 -0.02705768054077204 0  0.004595954999401756 -0.03435182105989697 0  -0.01596155915867323 -0.07646046912367871 0  -0.0289481488244121 -0.08988268071151209 0  0.01239847665021448 -0.09210238273299041 0  0.0104922725437658 -0.0450656930281409 0  0.0320429658094863 -0.07758484835171005 0  0.01928003352104076 -0.05729391609989931 0  0.02087577208450696 -0.05796638198707758 0  0.01052159833730016 -0.08093130601571129 0  0.01055006391788901 -0.07975227798677345 0  0.009617363215897935 -0.01704759089270029 0  0.03094057473892417 -0.08872427636033653 0  -0.04041555199007622 -0.02684598262174868 0  0.03346950227007411 -0.03917714214818595 0  -0.01568243375835527 -0.07763849716338067 0  0.04752184321427429 -0.05241245218424363 0  0.04915282898693318 -0.05234375 0  0.04896176093069319 -0.05057405983197499 0  0.004865338241165983 -0.036141363638569 0  0.02909562652249997 -0.058049583519234 0  -0.04911086865297647 -0.01796875 0  -0.04884656237568577 -0.01916613374877978 0  0.01715289793735411 -0.02991917855771332 0  0.03195313090431898 -0.03655663305500403 0  0.02243531398781662 -0.09527042100775478 0  0.02450644845273871 -0.09412632994909337 0  0.02273973602698723 -0.09353507255310577 0  0.0294885355873655 -0.08354729477853641 0  -0.006682803059387595 -0.09892390433542696 0  -0.04867797874864965 -0.0828789163716217 0  -0.04752480677101351 -0.08301525223051572 0  0.04838898301862342 -0.05443914778259522 0  -0.02221826375269244 -0.03885239186390198 0  -0.01753525186848113 -0.02630157127257387 0  -0.0002796608461038161 -0.04697402419221662 0  0.02487145554028848 -0.02062538689315861 0  0.02031506048611529 -0.05946277390178351 0  0.02230745418387558 -0.02319401691075445 0  -0.0364450771998318 -0.05493731457698899 0  -0.03612281265770085 -0.05687667090639823 0  -0.03447965387323338 -0.05619848779809492 0  0.00933634499730219 -0.07646994762200901 0  0.01013222353083553 -0.007470883876067914 0  -0.0104548864565767 -0.08965792586762064 0  0.04442298761228588 -0.01689663807466037 0  -0.01807168683450285 -0.09237993183712452 0  -0.0165732445404875 -0.09059795627445746 0  -0.01825574669523244 -0.09093072976984501 0  -0.001933646456402226 -0.06078571362834823 0  0.009342636142433513 -0.07176079866390071 0  0.02491520628045779 -0.09184810194848651 0  0.03889514343973445 -0.07998981994083673 0  -0.009305065036209868 -0.0264401934505075 0  -0.01132059171368034 -0.0252895190503054 0  0.03839038004046127 -0.01197523861898704 0  -0.0149983698310685 -0.07890798238153074 0  0.0062397040828611 -0.06784892137550884 0  0.007303738363966524 -0.06709726020050387 0  0.04882892435179326 -0.03716952260461166 0  0.04762167941479563 -0.03727745555335288 0  0.04728957076218348 -0.03537528916381721 0  0.04479529233909554 -0.08828449392714695 0  0.0441163697531497 -0.09015276969878418 0  0.04585296354186307 -0.09019499866770277 0  0.0258892563191909 -0.02975398562223501 0  0.02790966821211068 -0.03078250996996547 0  0.02627196896130704 -0.03152182669994737 0  -0.003331749659396121 -0.08095756804086501 0  -0.01803457766619888 -0.08772342106821281 0  -0.01646876728107471 -0.08755741527596791 0  -0.01638891861132982 -0.08932015377861015 0  0.02783874051336337 -0.01252797047843192 0  -0.03806179752234283 -0.01050872238238074 0  -0.02125506711962958 -0.06512840305974497 0  0.0301615059519689 -0.04943260452854779 0  0.03072311404317093 -0.04839685468001436 0  0.0312890847068071 -0.06707940156056552 0  -0.00407104460930846 -0.05204637349739533 0  0.03712125851553722 -0.04774056768343438 0  -0.009548229004936626 -0.05965550928706227 0  -0.04526268423979775 -0.03043960031453625 0  0.01616074172065655 -0.0603684335570358 0  -0.01480732480155933 -0.02234239380467024 0  -0.01308167594731671 -0.02379696926437371 0  -0.0284292836122014 -0.0927388654728271 0  -0.001945096772164036 -0.06958283721855149 0  -0.0187810983620167 -0.01674454636591193 0  0.03612592698583798 -0.05753384391350784 0  -0.03291733638031074 -0.05971840798056208 0  0.004366026707693632 -0.008688009714035879 0  0.01850107027426667 -0.02286751574001437 0  -0.03215878021945819 -0.09375707351999929 0  0.01412487929912071 -0.07008749220555438 0  -0.01571574250677919 -0.01170970995557652 0  -0.03890700735356038 -0.03110635354807861 0  -0.009286103449284475 -0.05017152011595115 0  0.04597962373649724 -0.0244087680532215 0  0.04497480251119221 -0.02505752031221419 0  -0.009273712944318141 -0.05504920372234852 0  0.03493846872353248 -0.04777331235467053 0  0.0341016996607156 -0.04228994388875629 0  -0.0002738489523357732 -0.06979721572803675 0  -0.002134527534424879 -0.07114973226043111 0  -0.0004269491987854283 -0.0713219884349721 0  -0.01178887803514859 -0.08982636981191701 0  -0.0145228270600677 -0.06863662236371149 0  -0.04353955867768561 -0.04231446124630161 0  -0.01743941031880036 -0.07446971006844037 0  0.02813526909936769 -0.06106624811966124 0  -0.01195755220642685 -0.08187885939185645 0  -0.0473341295733972 -0.09616470793659342 0  -0.04142838703926976 -0.05944754881735162 0  -0.006019635770636463 -0.07705927921133876 0  -0.00426502988291835 -0.07587337597805055 0  -0.03673091216105322 -0.08734537410278453 0  -0.03162339122836099 -0.09758958987842756 0  0.02389576083280344 -0.07275602997441843 0  -0.01041417711331494 -0.04588727016092738 0  -0.0416735418704936 -0.09544829980275266 0  0.04611167786395982 -0.06438961996960819 0  -0.03266508912304446 -0.07007027859801304 0  0.01814745130843696 -0.09071501041164207 0  -0.004061541487701178 -0.07927964015352221 0  -0.004826611674011326 -0.08146216801481174 0  -0.048988393923554 -0.06310666558304472 0  0.00745754015626878 -0.01546213759933883 0  -0.01874682150552879 -0.0484673815889191 0  -0.01842052862246791 -0.05077349373509458 0  -0.01973922056071691 -0.04962581938690022 0  0.02017767887256974 -0.04286094290269169 0  0.02160884426196876 -0.04256579976551757 0  0.01965156284205058 -0.04130841764357661 0  -0.02378034832355182 -0.0214998619162278 0  0.0376586992636247 -0.05800531033041866 0  0.003513480114897289 -0.03012591549325192 0  0.02791801074658522 -0.02613280406609497 0  0.03948821486249446 -0.01609220994969782 0  0.04756869983736016 -0.03198762348748611 0  -0.003213465162930954 -0.06640749472894371 0  0.02299026807092782 -0.002242896032883973 0  -0.01190411706242946 -0.002734783768880472 0  -0.01353569813639889 -0.003199757474437332 0  -0.03696499340723524 -0.06418876745216036 0  -0.03680745347601208 -0.06612917506364471 0  -0.03851466938816191 -0.06573205720633322 0  -0.01419514547316894 -0.07611386579757912 0  -0.01344063767797714 -0.07747866366593439 0  -0.03117257082997673 -0.04216439319112456 0  -0.02642564274599334 -0.05547372251337351 0  0.04749269507574423 -0.08984182863507378 0  -0.02353627606356655 -0.07180663395347738 0  0.02169648181215464 -0.0987296446673543 0  0.02173415943410077 -0.09751272462172536 0  -0.02690364322424496 -0.01177461270901979 0  -0.02831175816592343 -0.009947905948109848 0  -0.01829272736698553 -0.08618244202271409 0  0.03362199037549386 -0.0009345436713531967 0  0.0067865192038559 -0.005385697783677208 0  -0.04049112946738351 -0.09434835357202168 0  -0.01743235639920733 -0.0602940339730882 0  -0.03891039109476045 -0.03570840403705221 0  -0.0385850001809501 -0.0341188380111459 0  0.02297610135226592 -0.03561695082504591 0  -0.008644060028437629 -0.08373449194859836 0  0.0003127299150164579 -0.02160144095984832 0  -0.02712130491565948 -0.09001379298995106 0  -0.01452533928603059 -0.03368407626248223 0  -0.005423832351707273 -0.05121730829587284 0  0.04679199852719778 -0.03896069060384594 0  0.0141629283622864 -0.09321044571781488 0  0.01302011903773064 -0.09313085310162843 0  -0.0002631831077696151 -0.06805488559748323 0  7.702613731335015e-06 -0.06613830595743582 0  -0.001702281250868981 -0.06639081085318545 0  0.0475704365332094 -0.03363726052272009 0  0.04913511539951101 -0.03363726052272009 0  0.01667456524712475 -0.01291886130687084 0  0.024392964513552 -0.03501840179339341 0  0.002974460018480136 -0.02452093295730577 0  0.002718104261101614 -0.02333160298994864 0  0.04434023724000691 -0.09187813755103888 0  -0.005515962762704241 -0.06011353733427489 0  -0.00970898375444677 -0.07946918694744864 0  -0.04169431299348007 -0.06517278580827754 0  -0.03468339512342364 -0.06730742557268665 0  -0.03385014318689852 -0.06815227228426153 0  -0.04524078559704715 -0.08319503160210569 0  -0.04735499467201626 -0.05472438393923271 0  -0.04672383782220518 -0.05652548900945465 0  0.01962632003137636 -0.09748519137335823 0  -0.02653767823164241 -0.03693631470347108 0  0.03240698945846367 -0.006822779212074888 0  -0.02521362211034821 -0.0942853770222626 0  0.008430895595369735 -0.07469185382100926 0  -0.03050289112887924 -0.01746623575414958 0  -0.0006305201885531098 -0.002966774933945844 0  -0.0216698509866565 -0.006611948316403094 0  -0.005268910912567469 -0.07971276743176858 0  0.03333779779155509 -0.02554342966924356 0  0.007260883786540513 -0.06593046737282497 0  -0.02133403290457363 -0.01889627025800773 0  -0.01907482615853878 -0.01903019466309916 0  0.02822989771234058 -0.04865166959152136 0  -0.04715366764433492 -0.04806545109400436 0  -0.0491813993067944 -0.04453125000000001 0  -0.04914490072273953 -0.04761800645925332 0  -0.04918139930679441 -0.04609375 0  0.01798731361660011 -0.09772967893122594 0  0.01616075558407619 -0.09722706586879026 0  -0.04713056634759709 -0.03194854213586012 0  0.009040263562979477 -0.0419073432032764 0  0.0311585925958141 -0.03335380094478349 0  0.04167133754807274 -0.01669066085010107 0  -0.02127876029198498 -0.01232852853266843 0  0.02538093316697917 -0.02438250753235632 0  0.02455724233019823 -0.02288345026526157 0  0.03474609288627627 -0.00295078481883428 0  -0.01504696751462999 -0.008201996816379269 0  0.04918447393506373 -0.02109375 0  -0.01113610938139162 -0.02651842687141535 0  -0.03813323513515484 -0.0201945068995002 0  -0.03849330444297132 -0.02243429936038399 0  0.01654356890617373 -0.0953570467044364 0  -0.04140625000000001 -0.0008947878865317222 0  -0.04257498720051109 -0.001126773007063383 0  0.0001465934203322323 -0.03976405420589949 0  0.03181871698086085 -0.08058464135104637 0  0.04918588154976947 -0.02890625 0  0.04748985133585668 -0.0304415253569682 0  -0.03828125000000001 -0.0008145682276685083 0  0.02554357705244132 -0.05352229026181991 0  -0.02479950849150368 -0.02725728082712645 0  -0.023644769192448 -0.08620420808902975 0  -0.04144784295574926 -0.06195229461710344 0  0.003117234675796754 -0.01220090161859945 0  0.027425133503494 -0.07477555398328647 0  -0.03798305855049679 -0.07704292322243197 0  0.04732579469992203 -0.004286122680431632 0  -0.04497630073677565 -0.07173499034528755 0  -0.02879250780563623 -0.05881578228949804 0  -0.00452590757662098 -0.09879271847577228 0  0.01439590347089909 -0.01049644383008432 0  -0.02268540732851001 -0.07869397641249463 0  0.01500130743206238 -0.001013382050997601 0  0.003209810225762669 -0.03778997968179027 0  0.01147932657136416 -0.03195178060521118 0  0.009998516882984181 -0.03178715909050458 0  0.0203685130366461 -0.006309210738938801 0  -0.02416797955090825 -0.06312205843171362 0  -0.01512996916629128 -0.07440673637227889 0  0.04710300367912811 -0.04842465444169999 0  0.04593975074606783 -0.04833691356055593 0  0.04899967332714254 -0.0494167233321007 0  0.04919081126428532 -0.04765625 0  0.01640625 -0.09918233222259612 0  0.001556236731205587 -0.003713654937237464 0  0.002292392124765807 -0.005464336769939246 0  0.03582372936294638 -0.03995149185865923 0  -0.04888366044333228 -0.0652276197737236 0  -0.04735994236074485 -0.06452282426276552 0  0.006684422693794134 -0.01404186058178455 0  -0.009744811033396895 -0.08732957723071749 0  0.01440080993249703 -0.0415244529391128 0  0.01392301134319718 -0.0396451012104456 0  -0.03347736729750005 -0.04614250721376185 0  0.007911288084700633 -0.008905122826026528 0  -0.006198942811389736 -0.02097895900639676 0  0.01104841291120004 -0.09482854404972517 0  0.003416608471169329 -0.05014104871992846 0  -0.003901024114336283 -0.06955528895598324 0  -0.04539766614003483 -0.04258500317446008 0  -0.04022867136162709 -0.04009985037422181 0  -0.04024850616102118 -0.04127376043032376 0  -0.04016290819045009 -0.08610367847096223 0  -0.003202274514691005 -0.06211862087449563 0  0.02263354438803724 -0.006631960937280138 0  0.02364263737443785 -0.007304841808883744 0  0.04882882851511115 -0.007532805074227628 0  0.03257632403824216 -0.06377949012838408 0  -0.02521844513889497 -0.08186894238839147 0  0.02480428628344312 -0.07901346201997674 0  0.03772135689360609 -0.06322256091906371 0  0.03564309188978864 -0.06283656540544265 0  -0.04119829380983887 -0.08345165536522313 0  0.03884032584374787 -0.03421166006035892 0  0.03715336023426206 -0.03415646772453092 0  -0.03982698324070095 -0.09677565747128608 0  0.03123583820147323 -0.02909641513540738 0  0.02953489040618332 -0.03020062742888984 0  -0.01009591628700076 -0.03848456998228109 0  -0.009093263110170268 -0.03735754841714777 0  -0.03807095010293654 -0.01798000977287022 0  0.04919165270588133 -0.02578125 0  -0.02719789620923201 -0.09113310969117355 0  -0.008144868112603003 -0.02147440564738788 0  -0.03926713973000814 -0.03755759100756686 0  -0.01980117997927762 -0.0863128271132068 0  0.0474478967272368 -0.0259171599077753 0  0.04888533962752636 -0.02775895817554767 0  -0.01943810100042861 -0.05617687995248721 0  0.02753314851723795 -0.04201216567860307 0  0.03384620415849332 -0.06949942941000267 0  0.01892221206711865 -0.04930907007759995 0  0.01590175892128009 -0.03932276402537528 0  0.01908075811114017 -0.07063981144305771 0  -0.03682721239345978 -0.0745556751984691 0  -0.006192343243133462 -0.0960788976272029 0  -0.03476926095740688 -0.08658421255106252 0  0.0307653365578 -0.02095953478849383 0  0.02527240095121552 -0.0725427072128282 0  0.03044602673040573 -0.005963063837691416 0  0.02200147087122986 -0.06808873496644577 0  0.04895833333333334 -0.02290785458400419 0  0.008013541329103528 -0.006703037508611212 0  0.008751568634741356 -0.007933957590436269 0  -0.03853463852492577 -0.01570070464432754 0  -0.04453125000000001 -0.09918481333376096 0  0.0005858205093609507 -0.0009906302515372979 0  0.00234375 -0.000799712537474884 0  0.001151125710870174 -0.00265533061371602 0  0.02974568618854455 -0.04291867487244688 0  -0.04733420248364793 -0.07723190989324048 0  -0.0382247796310245 -0.09006606450473667 0  -0.0001362852861820872 -0.08782251407904032 0  0.001102641955419383 -0.08767918204317465 0  0.0002424068274047808 -0.08988099739151748 0  -0.02880458007932686 -0.09761200299729325 0  0.003622088346341367 -0.00423906550659249 0  -0.03937441704658574 -0.09891768525394924 0  0.02533140353870042 -0.07425246971979355 0  0.04606443357097378 -0.07423111985909567 0  0.04605520644280106 -0.07266350818357582 0  -0.03934496689923147 -0.0132823594521165 0  0.008800474119169071 -0.0689807337866406 0  0.01469271071907201 -0.09501250123396494 0  -0.0009801142558727564 -0.03925745315401558 0  0.003999046804422845 -0.06956128244783819 0  0.0294462254904967 -0.01415918201005476 0  0.02969043242295395 -0.01257249732997406 0  0.04445162728974898 -0.05455766562934954 0  0.03235186893434926 -0.02252231778688651 0  0.03382854201927246 -0.02402376210236487 0  0.04627992286823767 -0.04032555592080172 0  0.004443551475552769 -0.01973439602509447 0  0.04524278187127698 -0.02061003498338122 0  0.03650538722751812 -0.09902948501350858 0  0.01271649631366108 -0.01986035954445829 0  0.013098122883452 -0.09530713784925621 0  0.02354399948795962 -0.06937207845849552 0  -0.03827228611675183 -0.02735331715211374 0  0.0006426994220929309 -0.0542349942845162 0  0.0341525985961337 -0.07677736218022954 0  -0.03098130077863525 -0.014160296537103 0  0.01014281345967469 -0.09763014706532179 0  0.01193344419056709 -0.09899449207922817 0  -0.04668946708665584 -0.06592846495337024 0  -0.01347398407056945 -0.09743818781932138 0  0.03205162888909366 -0.09918098056451188 0  0.04329109633390522 -0.09741882037921641 0  0.04920380535167011 -0.07734375 0  0.00222479378136233 -0.07932965403852828 0  -0.02615896767162009 -0.0989146928489627 0  -0.04274779646884291 -0.01548446797707737 0  -0.01516030173799468 -0.09755014374637587 0  -0.01097687918922607 -0.01101828048043868 0  0.02543357301821035 -0.01071225955496151 0  0.0242470521467279 -0.01201804143473855 0  0.02647931066057701 -0.01177300539305402 0  0.01434194282039919 -0.06041860650879621 0  -0.04187594805339121 -0.02475906220835137 0  -0.04172925654626621 -0.02263596200312269 0  -0.04338887103229597 -0.02362271655748969 0  -0.04284665346622436 -0.02264564453395273 0  0.04738409001306099 -0.07744230919195008 0  0.04756458771119847 -0.0758746257832823 0  0.04423885005559786 -0.09894821291190582 0  0.01907336815920928 -0.01233245624196697 0  0.02420392440678165 -0.0647816046541934 0  0.003867182932507824 -0.02121768576662796 0  -0.04920834460277488 -0.06640625 0  0.04765625 -0.09920287394839096 0  0.04740295116022142 -0.09756951745718428 0  0.006957774164041519 -0.06269602722128154 0  -0.009819545382395706 -0.06314872629009334 0  -0.03576287480204442 -0.02075401710452291 0  -0.03667002184885394 -0.02264123289858454 0  -0.03464536542627659 -0.02208498332195219 0  -0.01639154789616485 -0.09763259140547366 0  -0.01796875 -0.09921104833594256 0  -0.01329328114582182 -0.09608790505367375 0  -0.01673266429782204 -0.006305302884808372 0  -0.01164754919659724 -0.006073300097217154 0  -0.01339519022355782 -0.006377130508255229 0  -0.01491549085856287 -0.006564673583220661 0  -0.01503531124842078 -0.004880486813912906 0  -0.01342761938050676 -0.004765670192755512 0  -0.04756301583850841 -0.03538101955015192 0  -0.02121836639216016 -0.08457881387512466 0  -0.005887489277709253 -0.08560816614667922 0  0.04079672508323849 -0.03174491815537221 0  0.0400662431787382 -0.03064047508323849 0  0.04765625 -0.0007936850775056096 0  0.02910502788023007 -0.09901868913977241 0  -0.003330246912098487 -0.06793587850577595 0  -0.02271908940315645 -0.02773128064036218 0  -0.02358439809576101 -0.02905242435989191 0  -0.01996583652070982 -0.05793249547577138 0  -0.01088103161743557 -0.03463735751006413 0  0.0182359404936647 -0.03385217251536376 0  0.01646650483713074 -0.03440082677753378 0  0.01767989895661784 -0.03588861282923556 0  0.03990723413149536 -0.06382023295327778 0  0.02780373384889604 -0.03300343424675831 0  0.04921358595998729 -0.07265625000000001 0  0.04790332428560449 -0.07238237786235197 0  0.04764390817524783 -0.07422184180669197 0  -0.01017183626554321 -0.09139904877478894 0  -0.007714766470581522 -0.07212322764507037 0  -0.001347675283829231 -0.07605852440647744 0  -0.02230130428309887 -0.09712310280743219 0  0.04921520078306578 -0.005468750000000001 0  0.04758074073480374 -0.002569513496259311 0  0.04617025728050068 -0.0008609604969169475 0  0.008921804503911845 -0.03460245994998114 0  0.04920954258708696 -0.07421262629981032 0  0.03406207787075895 -0.005940217486738225 0  -0.01482618069089787 -0.09919310593194786 0  -0.001322511228155813 -0.01529544200842528 0  0.02564859246119452 -0.02216445220277463 0  -0.04675103560289387 -0.0223867378453888 0  0.04307698224331927 -0.02570488308720112 0  0.007047184609808772 -0.003367248708009814 0  -0.004044214913056175 -0.01749735911675475 0  0.04921668626148026 -0.07578125000000001 0  -0.01172064289480923 -0.09452024723369483 0  -0.01172243619238624 -0.09608822287585654 0  -0.01015603692505906 -0.09608432008983042 0  -0.01172203623984356 -0.0976511238961402 0  -0.01015625 -0.09921690773554588 0  -0.01171947231977864 -0.09921618711506132 0  -0.01015625033313165 -0.09765072287428969 0  -0.02966262502045073 -0.08110135180023594 0  0.04921566653342277 -0.00234375 0  0.04898205637612681 -0.03541671224042828 0  0.04918588154976947 -0.03043695567132266 0  -0.005505203583568765 -0.06453800516313568 0  -0.02695490227461433 -0.03989013381027687 0  -0.04299606482128607 -0.03254622542121876 0  -0.04521229829274514 -0.03338387259988507 0  0.04240801231887684 -0.08380390178578989 0  0.04921809519769653 -0.03203125 0  0.04447345852867635 -0.06755383311841918 0  0.02321668162196588 -0.08166871612179954 0  -0.04446338117492139 -0.05604572799914519 0  0.01985480472670281 -0.05066190335414079 0  0.002887284165954867 -0.04259969925557176 0  -0.0006147691193247993 -0.02361650510879078 0  0.02151106270193076 -0.01471389331578026 0  -0.0112003317496701 -0.05951966328640174 0  0.008593750000000001 -0.09921849987848866 0  -0.01346590068146278 -0.09903470099857889 0  0.05 -0.00078125 0  0.04921875000000001 0 0  0.04906759926728263 -0.09906759926728263 0  -0.002328855058528404 -0.02249504904801569 0  0.008093256415310654 -0.001490728286279304 0  0.007483530787642623 -0.05236925900980201 0  0.009039822474329294 -0.05361660978805322 0  -0.03576631585923919 -0.07744836840659597 0  -0.03394228983135174 -0.07610284057869095 0  -0.03554724179654533 -0.07552037173604362 0  0.0195774947882725 -0.03027152974114954 0  -0.02294879572167545 -0.0831340575569232 0  0.03333402616838834 -0.03548522467851532 0  -0.03914364214589972 -0.07857811461260818 0  -0.02899854872268218 -0.05078991363545759 0  0.0009920276605771131 -0.09275539890647502 0  -0.03256615844173007 -0.06614660265457921 0  0.04396315128459286 -0.02704250562508624 0  0.03858637639677731 -0.09260152552806185 0  -0.02063423978110445 -0.03547798978110447 0  -0.01869465811566961 -0.06825127221395719 0  -0.0124448364375471 -0.00114036936603315 0  -0.02775600748062349 -0.06437363886759356 0  -0.03530163283077746 -0.0332478277546982 0  -0.03517918999864508 -0.008405593312020775 0  -0.02963725661036126 -0.07125636275095588 0  -0.03158628213098433 -0.07223724125205494 0  -0.0171518804502175 -0.07829433331304135 0  -0.01667046999927822 -0.0127864977802514 0  -0.005043380854293236 -0.04178772829407397 0  -0.005301422551819771 -0.04021705546835631 0  0.04017828689231347 -0.05003381654180993 0  -0.02465199240655876 -0.05684750751773642 0  -0.002975090244467809 -0.06448628000296801 0  0.00390625 -0.0008293577902184768 0  0.0361025336607278 -0.0434376395145399 0  -0.03741118790635844 -0.06823394096645111 0  -0.005440823373158752 -0.01623182874532384 0  -0.01976662746221739 -0.06799833498651259 0  -0.003628484104465042 -0.00881100357471485 0  0.006773170094202278 -0.02499314393419815 0  -0.03048082287544718 -0.02896003342281728 0  -0.03224414702593888 -0.02992965973315278 0  -0.02576818678950057 -0.09169804701603344 0  0.002702002651376557 -0.065786393664535 0  0.01106401653638494 -0.08866961405987024 0  -0.03238522293341234 -0.07529594225132209 0  -0.03262850407277317 -0.07310990141902018 0  0.03533424894054743 -0.07709904214257937 0  0.03453867987962768 -0.07496047962843269 0  -0.04390329678050275 -0.03184003371403402 0  0.04530662186594651 -0.0261470360872522 0  0.002892315050863997 -0.01359365780339333 0  0.0008735428562540791 -0.01271982854339035 0  0.02342447553233123 -0.06269607603766508 0  -0.00720957518362952 -0.05613497943991177 0  -0.005980803646062072 -0.05810141324137086 0  0.01328583467341459 -0.08844598533561437 0  -0.03126697110890506 -0.07439281145859368 0  -0.03432110306885173 -0.001228893668179426 0  -0.03418735348655212 -0.002369347364625911 0  0.00508701221047023 -0.06150032498088265 0  -0.04191811804209951 -0.01923442101512197 0  -0.04042853584203124 -0.01823080354553465 0  -0.03966551128339458 -0.0195340813173071 0  -0.03284461362704993 -0.03201301113716221 0  -0.01010671395357577 -0.02186466358917154 0  -0.01171794963093964 -0.02351498473699087 0  -0.009923678473470563 -0.02329823472634695 0  -0.01169312041360594 -0.02201339101484284 0  0.001282617979018179 -0.06232461154732639 0  -0.008541048449821726 -0.004220319638262329 0  -0.04595988383406797 -0.09469351137250973 0  0.01017899593010135 -0.09920564407065094 0  0.004643028194595484 -0.0836712316289235 0  -0.008440131481500997 -0.03473411655022564 0  -0.03178103838052523 -0.04886447225113932 0  0.02736894035452683 -0.09017476167390458 0  0.01498547389337862 -0.01375521233108975 0  0.01366046375840694 -0.01467931404392555 0  -0.005086268699528641 -0.04773346851192247 0  -0.003601830920685052 -0.04902326925393143 0  -0.004594782968005068 -0.04986421613267102 0  0.006947168011951967 -0.02281905208616049 0  -0.03581632009279225 -0.03776662289033362 0  0.007899331253703155 -0.0247030343292547 0  -0.005043898188186638 -0.02299211608527937 0  0.02366137391851387 -0.08333880175716039 0  -0.043556056973867 -0.04930563003789516 0  0.0335258079905966 -0.06479605324391498 0  0.03208914461060459 -0.05749927850456662 0  -0.03762417169367424 -0.06960182474811132 0  -0.03711413263129595 -0.08288167325940801 0  -0.007675028189123474 -0.0295557317559906 0  -0.005954831298156912 -0.02814841175290131 0  -0.007794339375158463 -0.02807492407645459 0  -0.01013923819579299 -0.09451650442674921 0  0.02352559232757918 -0.04320578435588342 0  0.03134538362124537 -0.01280925130505034 0  -0.03165654959182022 -0.06501328176843187 0  -0.0299269492198892 -0.06456687235193298 0  -0.03042646697528344 -0.06669845563388457 0  -0.03052862598425652 -0.06302895985947475 0  0.04424403174063973 -0.07849731915164722 0  0.03520707844235013 -0.05067228026013237 0  0.02563734930946883 -0.01297391559247248 0  0.002414577420213067 -0.08052979542634732 0  0.0003938901139638044 -0.07813446325328653 0  0.00315595823165987 -0.07705296084958278 0  0.005136979714212762 -0.07809101516833475 0  0.003673653507105222 -0.07869666586958415 0  -0.04231820572784122 -0.002825429345653374 0  -0.04730710250667088 -0.0790038464915154 0  0.04774444892898854 -0.0807117079940116 0  0.01909906763789341 -0.05590808487116887 0  0.0307584432793201 -0.09281521509683971 0  0.03093295674434358 -0.09144729549957054 0  -0.03302917410167543 -0.03786814755482738 0  0.008972144561233865 -0.08973900265739287 0  0.02561097386722192 -0.0481663550149314 0  0.006820797801498325 -0.08819654739393092 0  0.008170697974759281 -0.08680400490681815 0  0.007065355733295768 -0.08599006866392446 0  0.04594011424832786 -0.09147474076724252 0  0.04632908790539174 -0.09290407695882136 0  0.04471362217533154 -0.0933174222619137 0  0.03374262209345745 -0.008121412293595051 0  0.009811890218214957 -0.03030345358219952 0  -0.04148406591200917 -0.04591340138659507 0  0.02747075318582431 -0.08810334414248559 0  -0.00628805968030204 -0.01980425282315327 0  -0.01016707336795175 -0.00594496378032382 0  -0.008287577333209456 -0.006479245693400301 0  0.01717565913148786 -0.02198338725469103 0  0.01512034986889042 -0.02213443392062605 0  0.01587548812933817 -0.02046431043717641 0  -0.03227827080847559 -0.04567412224230926 0  0.04695489063139655 -0.04631949894124585 0  0.0454878960098177 -0.04685854949918822 0  0.01029907909976786 -0.03385142548901654 0  0.02852419066511387 -0.06326475594572351 0  0.001107194933580304 -0.05522679651963732 0  -0.05 -0.09140625000000001 0  -0.01653679774832475 -0.08605557530346122 0  0.03783073453885279 -0.09386219762377881 0  0.01237487733553607 -0.07130827315227727 0  -0.0232032281054208 -0.07545515078355693 0  -0.02539981743144288 -0.07535420189694336 0  -0.02494718412471324 -0.07635904129426556 0  -0.02377495146671832 -0.07408496899958569 0  0.008430542319094006 -0.02646654349778357 0  0.03509297873154744 -0.07323957094970644 0  0.03665796972316527 -0.07377103619536768 0  0.03700071223814761 -0.07216731727789086 0  -0.02088902410673485 -0.04070239522114435 0  0.003140341272600088 -0.03606276724133677 0  -0.005284718549256987 -0.05894491108651316 0  0.03549606440394262 -0.0108803126662593 0  0.0363955813172944 -0.01241610521999158 0  0.03451916482101471 -0.01274459301689148 0  -0.0375113065982278 -0.03617867237429313 0  -0.01122748397468633 -0.0448447512666104 0  -0.01326427290333831 -0.09452141919668439 0  -0.04043093959094977 -0.06690810277309325 0  0.03039824854276745 -0.05399393985861994 0  -0.04672251334728258 -0.07097590934156728 0  0.01482212455390627 -0.08058822248303832 0  -0.01170835946716806 -0.09299288484526048 0  0.01080954823968972 -0.005018690084027186 0  -0.03460051849750745 -0.07406720818123269 0  0.005257709987132561 -0.01270826328266383 0  0.003917426698879198 -0.01406486397275563 0  0.02746727031295478 -0.06695936305716921 0  0.02669217392912497 -0.06561213963354928 0  -0.04427486558406999 -0.07540465034746213 0  -0.03069875794874055 -0.04407869474780472 0  0.03482426392796161 -0.008783759511339213 0  -0.04112032711383378 -0.0381942143246432 0  0.004507006293863632 -0.08694461064302828 0  0.003377176825937221 -0.08759751068721867 0  0.005234235189887144 -0.08872320713826409 0  0.04388308350505314 -0.0234572151938315 0  0.02861820570294454 -0.09567992307661896 0  -0.04013013283398021 -0.008262051776415395 0  0.0122319470665045 -0.05632065463614693 0  0.01041783826155909 -0.0550067297652316 0  0.01198600085665665 -0.05476580913149541 0  0.03442464860664527 -0.01413001415354792 0  0.005171569200728595 -0.08486318300494367 0  -0.04711452318606663 -0.02464948639425782 0  -0.02327825248514451 -0.05527413453803198 0  -0.0379427130439361 -0.08069171597645114 0  -0.03894212604576141 -0.07978955802879784 0  0.04267171770775716 -0.0444872468772536 0  -0.03383499597745195 -0.07171892089251751 0  0.001369477614761208 -0.0218535967787804 0  0.02229736385059763 -0.08509656882450981 0  0.002388940140124232 -0.08627041389026981 0  0.003101586825667931 -0.08420257840167486 0  0.0459734538843411 -0.002491062590462918 0  -0.001797942518719501 -0.06310878347188807 0  0.03160706511903455 -0.04019765220661559 0  0.007426035471679426 -0.09415420584569034 0  0.006689741539897537 -0.09587314217445002 0  -0.02201626529174061 -0.03672839671934812 0  -0.02595389950952877 -0.09533708462617968 0  0.02401908170094432 -0.0191874546907133 0  0.04448696525464058 -0.002278963449866377 0  -0.01661023353289806 -0.06888595030279475 0  -0.01708442695124674 -0.07085141157724961 0  0.04096131509387288 -0.01235279355533934 0  0.04899419852993541 -0.06505237655392618 0  -0.03175274668918201 -0.06914678251000438 0  0.03980607773091625 -0.01014596815618396 0  0.04659120599821966 -0.06982527828491984 0  0.03764445265641383 -0.08786240085614004 0  -0.04586330984843345 -0.05719132075855519 0  -0.04690171104732525 -0.08168694846917493 0  0.006092117656717228 -0.047483838868794 0  -0.03511233353203731 -0.08100200193481272 0  0.01001923361785259 -0.06989099637520138 0  -0.03153218862496292 -0.009535741292405914 0  -0.03103726622564155 -0.007929896541138893 0  -0.006371501476531475 -0.08797021662224834 0  0.01497621040943432 -0.03759283079773493 0  0.03927365950694123 -0.08906058681787685 0  0.01519991361467727 -0.04440081238189361 0  0.01473519558333418 -0.04258534997159064 0  0.01626266901179475 -0.03197493291574752 0  0.02606582343824897 -0.09725137424413798 0  0.01400941490736738 -0.06814392566783739 0  0.01349136570827423 -0.05444701873059545 0  0.04686890204943864 -0.08242505356447101 0  0.0006729951996852296 -0.0474874551927261 0  -0.05 -0.06171875 0  -0.04892199747768481 -0.06128890441802269 0  0.04766839127124749 -0.09618709658959634 0  0.04747930238205635 -0.0947472923412013 0  -0.01598935750339467 -0.02289831065587242 0  0.0317333205433368 -0.02454705415883231 0  -0.02001129170372262 -0.0701265509270856 0  -0.04100434246657816 -0.07540729690858462 0  0.02048052272305778 -0.04561836728507208 0  0.01077484536539789 -0.07415012176068116 0  0.001633490259237717 -0.02320037869885269 0  -0.02537649979422329 -0.04332172379768418 0  -0.03839996824160877 -0.008830252400966751 0  -0.03298549446082334 -0.01111190684691096 0  0.0269290520697252 -0.0153461534545048 0  0.02726951082701889 -0.01742177484365756 0  -0.004456812768352821 -0.07430454643748692 0  -0.005717904662351812 -0.07359366828972964 0  -0.003731918913043447 -0.072703636984127 0  -0.01555261497226262 -0.07327601745848379 0  0.03110693296228866 -0.08442523648705187 0  0.04342300514793861 -0.01730928945035727 0  0.02401068546726669 -0.05929551678944368 0  0.0491978341233768 -0.09770883155689362 0  -0.01751430145943299 -0.06705956077531054 0  -0.0187256241519777 -0.06587438971162406 0  0.02091483351295197 -0.00283380134615488 0  -0.03789190070850468 -0.05103724583688089 0  0.003950959753359851 -0.08218521867667307 0  0.04610944447758525 -0.03530312659369626 0  -0.001204967532714295 -0.01743823817101669 0  -0.02866872330028375 -0.007205366247121126 0  -0.003686069457995278 -0.05819154572569806 0  0.04529963080228915 -0.09494720021474012 0  0.03346672173189708 -0.004819634975997409 0  -0.03887898370918536 -0.09772536231768114 0  -0.003287649945164315 -0.04485198620100961 0  0.03596211529278059 -0.02934949238100604 0  0.02265625 -0.1 0  -0.01566492221419328 -0.0147534945146742 0  -0.02794443490938528 -0.05662006755306921 0  -0.04465928820961418 -0.09003587493658476 0  -0.0460007749260806 -0.0906442510243972 0  0.002906773576382272 -0.04465392500784596 0  0.03751672590824377 -0.01262398424428415 0  -0.03501605664836497 -0.04305731445296641 0  0.02597107968140147 -0.02739246542776493 0  0.02303800312771334 -0.06432024796520261 0  0.02194376427781726 -0.06429384278032556 0  0.02142013091254896 -0.06334769285470514 0  -0.008361060579145331 -0.09574587227431809 0  -0.04213658223347144 -0.04001615842041698 0  0.004990515648333487 -0.06337614111950207 0  -0.006536836399959731 -0.0181533916808823 0  -0.03993271097631655 -0.04344952546374148 0  -0.04635197772832928 -0.08884430345832212 0  -0.04551199520587432 -0.0870578707220838 0  0.03715956056603779 -0.01672885919553873 0  -0.01456698737493007 -0.01134996879251468 0  -0.008022092814739618 -0.05138617516020937 0  0.04241662572709379 -0.06626727603370934 0  0.04024172911006814 -0.06601924433791458 0  0.04115056399983006 -0.06487662122418572 0  0.00165819873660521 -0.07786176694533292 0  0.01950292114701276 -0.01119410238129574 0  0.01994445187256501 -0.009618578473094299 0  0.01845029362710946 -0.009202252363984365 0  -0.01118362588808522 -0.06849657303203027 0  0.003520721084947263 -0.04364683169202096 0  0.001490327737464027 -0.04413305478129453 0  -0.02866523793192533 -0.01664217491464153 0  -0.05 -0.02421875 0  -0.04893285151728748 -0.02377468314487168 0  0.006730427491325039 -0.0843406933508187 0  -0.04029620747328029 -0.05037793490393058 0  -0.04130716614250109 -0.05092411411830911 0  -0.04130313626071085 -0.05207125854869949 0  -0.0447549329041504 -0.06728338944727301 0  0.04353942116987335 -0.09516937098430683 0  -0.04578186101094692 -0.05836841664415144 0  -0.03304450700402378 -0.04280807975999108 0  -0.01584183024709726 -0.02840839912245387 0  -0.02189201804928317 -0.03460484978747752 0  0.04718047377763485 -0.02741722445332391 0  -0.008832266445056166 -0.002159330166699407 0  -0.02890625 0 0  -0.02034348874380768 -0.02029571576327619 0  0.009675642528688902 -0.0118572853637327 0  0.03713530938906191 -0.09598696977717786 0  -0.009298976690084015 -0.0395439323693356 0  0.02229172588949124 -0.04658117163374594 0  -0.01019322173209975 -0.09296841964834196 0  -0.02660337090356351 -0.001673746167223661 0  -0.02708325943667449 -0.02578313138759013 0  0.01018751238129859 -0.003493934757609054 0  0.008953044360465644 -0.005201659753835184 0  -0.004913122073117259 -0.03575125545553703 0  0.01642807125071542 -0.04238019088947911 0  0.023930715611343 -0.04646333165761472 0  -0.001404716706570717 -0.03340262467268588 0  -0.03553417239035715 -0.06250360195237949 0  -0.02757539929426001 -0.04543037068559613 0  0.009595322905981769 -0.02060785353837655 0  0.003902595868570359 -0.07509363995337227 0  0.02826294171822549 -0.04383717746770583 0  -0.04328225411247524 -0.04771915910688203 0  -0.03898438753271756 -0.08802346404192261 0  -0.02815737196714324 -0.02071484058246867 0  0.02021833571875261 -0.08925800546539736 0  -0.002435631067223404 -0.03775023895189512 0  0.003144551299860553 -0.03444804559739144 0  0.01048067173260912 -0.03931358885604627 0  0.03463941814710231 -0.03855598905970841 0  -0.03107253977636193 -0.05545101929028466 0  0.03920037413117522 -0.01414229245678045 0  -0.01933031186672267 -0.07839556502094576 0  -0.04333796099212089 -0.007251511459557988 0  0.00955868616702428 -0.05196951516141066 0  0.0202030450451784 -0.08073061903547897 0  0.007279934945558639 -0.0440844857398739 0  0.03578953990864586 -0.0752789070211575 0  0.02006694055474252 -0.02627905518018164 0  0.01292207821077093 -0.02230159095257571 0  0.01183247303326524 -0.02107980004892785 0  0.01150834199577577 -0.02318396669459083 0  -0.01480193169666703 -0.08127436732542308 0  -0.04585687580536781 -0.05307812799896395 0  -0.03366563254448236 -0.03990544367614952 0  0.02708437211475701 -0.05732095462044262 0  -0.03534048808076178 -0.09759917765066983 0  -0.03671875000000001 -0.1 0  -0.0371694373828069 -0.09890692497335854 0  -0.03702054103790094 -0.09762223364557558 0  0.02157435586859572 -0.05355641933098843 0  0.02263791482998585 -0.05164646901012247 0  0.02287374820441156 -0.05304328171144172 0  0.02798352059267853 -0.07738703368946943 0  0.007344121512439529 -0.09901265705974585 0  -0.02977452380767872 -0.08724068572089382 0  0.03836995559391761 -0.09556784692923231 0  -0.00611493781400577 -0.04907640887290726 0  0.02858286022742419 -0.07210492192129375 0  -0.04027983026921209 -0.08959064470669373 0  -0.03468706839534691 -0.0710751472364701 0  0.03280639927541852 -0.04109244893277565 0  0.0402790980881232 -0.05641026884117033 0  0.04143757033579262 -0.05729996375970161 0  0.03963652431246567 -0.08080758781240786 0  0.03654654875419486 -0.03077055681195798 0  0.005362034483178635 -0.02171990653230129 0  0.03195034246691372 -0.05243208434896176 0  0.01248797130420911 -0.08088763818243593 0  0.01207028401370228 -0.07941095788140773 0  -0.04118402313772964 -0.0207347900801124 0  -0.01708534771619128 -0.03682090228380871 0  0.03935880103874071 -0.04748849086888131 0  0.03860495023633905 -0.04658628734987314 0  0.0433223502401248 -0.06935605372238642 0  0.04129870388936561 -0.06852139081331189 0  -0.00438373669806106 -0.01224490197122255 0  0.02338300258272456 -0.0971356701178802 0  -0.01488187844615359 -0.08769891278700985 0  -0.02969763069054372 -0.0610656467700753 0  0.01952813916289176 -0.0829974189893984 0  0.02027335850729969 -0.08423113057351198 0  -0.03111046464529949 -0.04600313890180432 0  -0.05 -0.05859375 0  -0.0489789682544314 -0.05819025579768798 0  0.006494125522419861 -0.01117067505928908 0  0.01053158583670878 -0.08421872760503957 0  -0.04506546194964797 -0.09826311884372102 0  -0.03833681395043845 -0.04121614619186999 0  0.04887323003492584 -0.04185823425302625 0  -0.004591640244349945 -0.09770994082679077 0  0.04162967587834138 -0.09433839984441653 0  0.02278487050887048 -0.06068710941580286 0  -0.01585760356488696 -0.02607955263853209 0  0.02886632887788329 -0.08971100954034633 0  0.0267314067547109 -0.08661417218369387 0  0.03593755037203571 -0.02720536551346642 0  -0.03554826106258863 -0.07327301640660899 0  -0.03738197154659788 -0.01409758799046491 0  -0.01558910636344386 -0.03015335384668522 0  0.03604207646998372 -0.01550739813939972 0  0.007852765083292914 -0.08787270158299307 0  -0.04217205561023139 -0.0437238521043635 0  -0.005363382352615594 -0.06234892656013664 0  0.04651713889651917 -0.06015211547109042 0  0.04470142676592 -0.0594613798629525 0  -0.04004039299430849 -0.0779424655186584 0  0.01554397874905566 -0.0623520682884487 0  -0.008564912146224566 -0.08524876606444363 0  0.03671875000000001 0 0  0.001205584972197699 -0.02792261034546205 0  0.002468694549276778 -0.02614205041156242 0  -0.03514154013040162 -0.06572394699791605 0  -0.03398943038341044 -0.06397230944776194 0  -0.0356562251561163 -0.06420392989225945 0  0.03357059599992056 -0.04324850428897276 0  0.03474072375139827 -0.04469861989581783 0  0.03289114742240766 -0.04500102257339859 0  0.03336842112322224 -0.09603706998354734 0  0.03382491967302102 -0.09707330027580829 0  0.03388844920874978 -0.09507564901431309 0  -0.02613164067757379 -0.09753629556694354 0  -0.02741899564846572 -0.09918525366771365 0  -0.03706365600678763 -0.03051640629052628 0  -0.006947408965773859 -0.0418510153801262 0  0.02053953086433868 -0.01664915391454974 0  -0.008127714436800148 -0.07746563827663831 0  -0.04008008992675045 -0.08145129510615537 0  -0.03997882239906153 -0.08039542359604146 0  -0.04096133253796085 -0.07987322073574231 0  0.01709936549775395 -0.08821567699913065 0  -0.0491679981589147 -0.04307009363271752 0  -0.04921197917110419 -0.05234375000000001 0  0.03482318102249406 -0.004902373551778525 0  0.03332383746286083 -0.003395729859733413 0  0.02137616760804933 -0.07630554766457881 0  0.04156177699190296 -0.03315602851806338 0  0.04286058337138027 -0.07371204065192503 0  0.0205805158141474 -0.01801420723607258 0  0.02217701301568265 -0.0164892588168659 0  0.02206990768761783 -0.01810151299925786 0  -0.03752418083787896 -0.09372338432772134 0  -0.03527965864358436 -0.02293233918573882 0  -0.0096164331984598 -0.07203129436260185 0  -0.03328999013071412 -0.009422623937034547 0  0.05 -0.00390625 0  -0.03188511319170841 -0.03936328879354926 0  -0.03119049026453371 -0.03752844827126706 0  -0.04724865914809188 -0.05951828369922179 0  0.00234375 -0.1 0  -0.01932916874531016 -0.09707576527738353 0  -0.01217614285012097 -0.05490956861748572 0  -0.04633984166416034 -0.04048912344401965 0  0.02833655526184208 -0.08608825928273146 0  -0.02204754950578986 -0.09035402353179403 0  0.01371252959424198 -0.007101661423614734 0  0.01316781455139231 -0.005063640180959863 0  0.02799709225157113 -0.03996200213455615 0  0.01757837063836352 -0.05596741245727595 0  0.03003686385645624 -0.06019200479784539 0  0.0001438788531279531 -0.08555382921663801 0  -0.0118025867544143 -0.07697210906833847 0  -0.01064136937627142 -0.07530427265103098 0  -0.03100031075728403 -0.09034009948685029 0  -0.01047211764438956 -0.08484483114039731 0  -0.0366567607302194 -0.002240664857529505 0  -0.008146755374489521 -0.01236150688326957 0  -0.02839574047459103 -0.0852578443305765 0  -0.002732102211083598 -0.03053883899774141 0  -0.003017392980693606 -0.02900617946623442 0  -0.01602651520154427 -0.03673843639939617 0  -0.04103361693233053 -0.03554436434156871 0  -0.04205914677234599 -0.0335815314334344 0  0.01682145545232855 -0.0783747156465444 0  0.03703561446798596 -0.07849176397789558 0  0.05 -0.09609375000000001 0  0.04114202673027449 -0.04565014343973206 0  -0.04319459198798366 -0.06621475642499219 0  -0.04436730890790674 -0.06342450408274622 0  -0.04380074928502966 -0.06479348068030347 0  -0.04519054347967558 -0.06536865579739484 0  -0.02003070817785439 -0.02234534333383074 0  -0.02019828667183608 -0.02401260843374949 0  0.03865575714949927 -0.05512103444847857 0  0.04208996742754183 -0.08736759302690721 0  0.04633998158821388 -0.0858105003851229 0  -0.03797830559622355 -0.09575292257015687 0  -0.009623698593672464 -0.03637829177552723 0  -0.02332906959113014 -0.02465560474610226 0  0.0107508283461522 -0.02231777152254133 0  0.02306877736110238 -0.07784609782802643 0  0.009471331143263912 -0.02819801624896438 0  0.02460945674100737 -0.04196964822660726 0  0.01748605012644357 -0.04238753220677075 0  0.04184219961213854 -0.04124281861016284 0  -0.04267298227018455 -0.0768688275110706 0  -0.007760460021362827 -0.03304994989336583 0  -0.006057964836256338 -0.03186962183158425 0  -0.007485992237663372 -0.03130714416746369 0  0.03613823175297826 -0.04585069279484257 0  0.04088785816678853 -0.03474018557751149 0  -0.03724479170755079 -0.06036511709427161 0  -0.01231081998351739 -0.01073114483808772 0  -0.01284094633311413 -0.01209702001321481 0  0.03479117197537379 -0.01891303551317255 0  -0.01621464653886783 -0.02451980585639746 0  -0.02218044354575093 -0.01152520688467034 0  -0.01940067344730463 -0.09914170540758079 0  -0.004471001109996785 -0.03207996587880576 0  -0.004877182589658363 -0.03361272721950195 0  -0.003497841276742843 -0.03402203772432846 0  -0.04562492341176289 -0.009642570486142083 0  -0.04643851269344075 -0.01069467310787594 0  -0.03176359871353969 -0.0764333275625438 0  0.01698949244092091 -0.01495692963399254 0  -0.03652934511207361 -0.09254775413238475 0  -0.02194656491687404 -0.02244869104454021 0  -0.02758252236804163 -0.07138635742428469 0  -0.04905056521986734 -0.087955705174736 0  -0.0432984737302758 -0.0383263103318511 0  -0.03183868427341181 -0.06124746324717379 0  -0.03086207468494528 -0.0616534589867925 0  -0.00949479378311795 -0.07361534647229984 0  0.0449881980726787 -0.00957243071835113 0  0.04474945776425383 -0.08005518284092085 0  -0.008006159557026989 -0.01833551414397899 0  -0.02140067218604625 -0.05230758999100602 0  -0.01929021706457646 -0.05179900616662348 0  -0.02091067364694332 -0.05110269885728257 0  -0.03741230535557283 -0.08938133275599708 0  -0.03592562913939244 -0.05269920543316849 0  0.01076662712084124 -0.008793913182789147 0  0.01230902325760323 -0.008674093392965279 0  -0.03019818743228469 -0.02078589611409924 0  0.0316168069525636 -0.007699835604729572 0  0.01839445784530812 -0.06061090646011411 0  0.01655779032465588 -0.07286893666000832 0  0.02506647970582393 -0.06666675807528666 0  -0.04659931783031449 -0.02344748955668747 0  0.0427427787503425 -0.05452221519528678 0  0.04660145976771293 -0.01039805826219379 0  0.03766040553896323 -0.08356828856937168 0  0.01818494040488299 -0.05134052654131361 0  -0.0201131860854642 -0.07160175887360383 0  -0.02488274722421953 -0.01500165448141518 0  -0.02532281449644951 -0.01316475144545336 0  -0.02356408654715896 -0.01417637216719965 0  0.0401792405009506 -0.09800696406221045 0  0.02448919180030316 -0.06178983265688345 0  0.03715843898524931 -0.05146964318824009 0  0.03400806002053539 -0.09890751639017772 0  0.03518530599106431 -0.09691721220725395 0  0.02836259426003363 -0.06880137008099503 0  -0.04510064278543591 -0.08548741018179704 0  -0.02459405553443719 -0.08673247165172325 0  -0.0109677374631855 -0.01806552867509743 0  0.03944161569623444 -0.005351452272702028 0  -0.02451045325613079 -0.01599956108959202 0  0.009132502825465799 -0.02311518478904674 0  -0.003506557802291495 -0.06539952577927309 0  0.03014625252212456 -0.05805366711994196 0  -0.02432333356308368 -0.0200122750240862 0  -0.03958003673590562 -0.04702313219688243 0  -0.04069587309679321 -0.04887655264910118 0  -0.0408838388094666 -0.0471409912543629 0  -0.04908630829335427 -0.08185938334914218 0  0.01851066855727712 -0.01601628982263548 0  0.006400058768186332 -0.07882579626430854 0  0.03534623931328854 -0.06132824805475066 0  0.01953125 -0.1 0  0.01992187500000001 -0.09900998452425289 0  0.03808415436125284 -0.006949041648559212 0  0.03109658609570912 -0.04615075185514717 0  -0.0464109734038371 -0.01463709151460144 0  -0.02366396660367863 -0.05016496978386165 0  0.04065596531650114 -0.08480196107603011 0  -0.009802568247247484 -0.05709657235056411 0  -0.03293904630719433 -0.02147930261040784 0  -0.003082671671342435 -0.04111699548932604 0  0.01811084029174584 -0.03765053810173109 0  0.01438256816550947 -0.08656213933247375 0  -0.02313662192511623 -0.001039909650541513 0  0.01291077223167543 -0.030514838547404 0  0.01328219567865937 -0.02945433681658592 0  0.01187414791363419 -0.03078429220873478 0  -0.02266478284513947 -0.05652647780010315 0  0.002538488138864847 -0.09599172011810325 0  -0.01635243241333088 -0.09246879506703526 0  0.05 -0.07890625000000001 0  -0.04714100760635951 -0.02843981564920347 0  0.04798446759299486 -0.01385964783243398 0  -0.04233812791715191 -0.03788364393827168 0  0.01983579011835874 -0.0009540579093272166 0  -0.01094253619357023 -0.05615382702838982 0  -0.01198158703301997 -0.05706669557678967 0  -0.006388885408865154 -0.006052166684937574 0  0.02935636274377563 -0.06795783098118799 0  -0.04260512295138071 -0.06925769159702498 0  -0.01150235630680709 -0.004075962811877213 0  0.008263155404013926 -0.09700142411073079 0  0.03277483080941061 -0.03756062207132742 0  -0.03672586419699828 -0.03187082241702682 0  -0.01445779217882013 -0.02043786531436314 0  0.01977310951147302 -0.004207317636397007 0  0.02053464464941362 -0.03070075810459636 0  0.02210326793019837 -0.08940622736563331 0  -0.003699763201167629 -0.0913278755146078 0  -0.04691860547681304 -0.01790066856791324 0  -0.02672074945473667 -0.08808315297658292 0  0.04604781088258441 -0.07571009334999868 0  0.04434390311865415 -0.07676239998244226 0  0.0396965932602454 -0.01745497508295601 0  0.03790566403424581 -0.01772789967797855 0  0.02104869672688466 -0.05682405465868667 0  0.02389318516749096 -0.05571649991829159 0  0.02198074072783067 -0.05495530349336977 0  0.01785499284994417 -0.07415058578416237 0  0.003142192585852278 -0.006094185995027934 0  0.01841908597931767 -0.01863394133058807 0  0.0417581176937954 -0.08063882683192437 0  0.04092071235625693 -0.08000380163752531 0  0.04286797005834547 -0.06802894010731184 0  -0.02565828305951848 -0.009792955821757807 0  -0.03859232606771592 -0.08456028484694861 0  -0.02391817534932485 -0.08017615990592816 0  0.03870378397884866 -0.07405439426389496 0  0.001092572107107152 -0.06019425037920625 0  -0.04079054947566119 -0.03232771245407888 0  -0.02839206322396781 -0.005981650380972384 0  0.03074463275731672 -0.07459816099169204 0  0.03177195767096881 -0.07320746871094391 0  0.02521678640005084 -0.01418460772439585 0  -0.0003011205469398341 -0.05253878971062852 0  0.003173254368786813 -0.09165917247246488 0  -0.02733561966066374 -0.09464826034222616 0  0.005052794056821002 -0.03900836456822895 0  0.005535463489354446 -0.04089556925235285 0  0.003861282787098528 -0.04070153954796845 0  0.03565678108606547 -0.09584876318726533 0  0.01255736048311434 -0.06974428291397659 0  0.01268010514898755 -0.068317712146337 0  -0.008510747232793398 -0.09470924814483524 0  0.01186006485227955 -0.02736958869336894 0  0.03594095327569633 -0.08620473088938695 0  -0.03222245353180909 -0.09197988488176909 0  -0.01640625 -0.1 0  0.001833304943368451 -0.08477652856869553 0  -0.003049277402406126 -0.009836664755862569 0  -0.02085582808108584 -0.008542932024493891 0  -0.01544041302298552 -0.05624657332742128 0  0.002807458194640206 -0.06360851182635197 0  0.001930492799258616 -0.06508771283505481 0  -0.03531346040074875 -0.03585290385485897 0  0.0380273173639256 -0.02966860348391242 0  -0.01400685398651202 -0.07236483128666527 0  -0.03045422630764393 -0.07056471328435064 0  0.04078426559013411 -0.01562772609960111 0  0.05 -0.05390625 0  0.04139480377512954 -0.07227295610047271 0  -0.02020690606709025 -0.07577151089253979 0  0.03511614321698586 -0.07129316475074267 0  0.03216142761069519 -0.07062854197237328 0  -0.002719706977849597 -0.02622681868173751 0  0.008016522514232507 -0.01979500374010774 0  0.0352965007208312 -0.02441883785504458 0  0.002020256014898289 -0.02002263895970158 0  0.04412650745625422 -0.04741839875304454 0  -0.03833043444950778 -0.08600840054281438 0  -0.03696459188924032 -0.08632769681331635 0  -0.03780630504335813 -0.08802589059760897 0  -0.04264305430201926 -0.07535251945746579 0  -0.002327412661336146 -0.07890241098823067 0  0.04536607570508058 -0.01863502392395177 0  -0.01033202918033523 -0.03281575341060556 0  0.03552300983776967 -0.021803546268191 0  0.01487074700098821 -0.09398125820133006 0  -0.04737718586782248 -0.02672721782762585 0  0.03829456572531982 -0.03622634525578992 0  0.03916484367907563 -0.03562670561139895 0  0.01257455919480396 -0.07528842700460182 0  0.0111771717417129 -0.07561635781272759 0  -0.002857137739477701 -0.09525681515653812 0  0.02765076158266154 -0.004151997915115743 0  -0.03563892848327192 -0.06933452719560899 0  0.03865745525382166 -0.0521298123417492 0  0.03499329315980333 -0.0008595530514582251 0  0.002615135264175059 -0.05486488051255955 0  -0.009674624672286022 -0.02491489231490782 0  -0.03808830931934248 -0.0241861660406627 0  -0.03804708319561521 -0.02527809004363807 0  -0.04003370413489898 -0.02488098796646345 0  0.01682502909835026 -0.06525095694110696 0  0.01670521763513543 -0.0642160716229951 0  -0.008173508562027112 -0.02453368279865491 0  0.02602198420450371 -0.08249728984134061 0  -0.001375592766691937 -0.05360842410183413 0  0.04775051349784616 -0.04761482789230582 0  -0.02083740316996076 -0.07999666107419896 0  -0.009079637391882741 -0.03109867321294226 0  -0.01049602371269786 -0.03115955040586144 0  -0.00907095490190305 -0.03267974883214277 0  -0.01094480942438862 -0.0281116666992683 0  0.04480104423310566 -0.02829127883552389 0  -0.01279329628931092 -0.03657324706817239 0  0.03958718282538473 -0.02180306724823185 0  -0.01182927617248081 -0.08769305053190463 0  0.03188548208776138 -0.04266257611940114 0  0.03056862436493528 -0.04155093791497179 0  0.04525241790677603 -0.04215236416859183 0  0.03000310962710076 -0.03172780343406489 0  -0.04458392242138377 -0.07997306815112368 0  -0.007939201911736115 -0.09891169553185719 0  0.03797933587751134 -0.01974252598569507 0  -0.02859451190404534 -0.004005763176082526 0  -0.02702897832149155 -0.003726961041647499 0  0.04031143077115109 -0.04262426826711765 0  0.04206377953671805 -0.04266373514175041 0  -0.0003245304485328402 -0.09377189259008489 0  -0.002353156913781238 -0.09319256837593203 0  0.03987697386858721 -0.006672593692381484 0  -0.01663380904818883 -0.03035338067534252 0  -0.03457925497858694 -0.009653918383302413 0  -0.02295439604699018 -0.05094901254573755 0  -0.03132292237142161 -0.06723375708211468 0  -0.03007918106313244 -0.06769924857699647 0  -0.02338216811258402 -0.04402913026141424 0  -0.02352509629380447 -0.04263990661765259 0  0.01907690654522043 -0.08744206445343548 0  -0.003148351485659092 -0.03695557760075395 0  -0.03334724611879574 -0.04961739659648506 0  -0.04671039086378878 -0.008603720738528766 0  0.03419392007654502 -0.0466186280529025 0  0.01098814711053984 -0.08558883147953408 0  0.01181523319967519 -0.04317595925796212 0  0.01219164658787154 -0.04453754799699629 0  -0.04898877042619616 -0.004948676545334492 0  0.04535525989671365 -0.0492001184391133 0  0.01075107273529624 -0.01081545210480301 0  0.04041224137643309 -0.09337265472385947 0  0.02751739387321322 -0.08477919276580426 0  -0.03367737744931312 -0.04148906182453264 0  0.03638931913720597 -0.08086899119381287 0  -0.005822261553832003 -0.09128899790011059 0  0.005704482995227285 -0.03980852806201335 0  -0.01865608535655751 -0.03339064123574798 0  -0.04427697783816887 -0.0971576405107958 0  0.04069704853311163 -0.08221367820758703 0  -0.00933775885428732 -0.02823905699561855 0  -0.01084135476922751 -0.02963881721973304 0  0.003216849434561129 -0.009896795279433299 0  0.03750650665598168 -0.09112767119454503 0  0.01699218820262717 -0.07603343515047835 0  0.01588175002188474 -0.07682945041736937 0  0.0004607141528190199 -0.09657884478056455 0  0.02661960861085393 -0.02382581106462636 0  0.02775452488272052 -0.09627493106937424 0  -0.02087137034107459 -0.0267391815833455 0  0.03069239148709609 -0.05155029630657311 0  0.03108462318855657 -0.0504521901929924 0  0.005976219077018937 -0.05409234695991876 0  0.004168169453322585 -0.05442441771481334 0  -0.01388202565276493 -0.01845507030080028 0  0.01446604271489916 -0.04712013396753364 0  0.03137139620016176 -0.0649207664175173 0  -0.0314438624167975 -0.08239790726090257 0  0.0349167816206729 -0.05926576767534376 0  0.01493622119565219 -0.07865427616832861 0  0.01354656365032697 -0.07899529622765011 0  -0.04610666183317869 -0.01978906080253935 0  0.03390706717307217 -0.08561337079488833 0  0.02105610378337995 -0.01139101404545786 0  0.0008188137700562215 -0.03342289628230425 0  -0.01097668451262096 -0.06595063533204858 0  -0.02390618481674124 -0.0762332037998753 0  0.04717656668953023 -0.01301461476577476 0  0.04801695492538394 -0.01122443332721065 0  0.0430126693104552 -0.0300410770006659 0  0.04114031794057434 -0.02932687711808753 0  -0.01924361627150414 -0.0450494500928494 0  -0.03195232783386029 -0.07126173954635726 0  -0.01267385649290236 -0.02697777200208443 0  -0.014111592878042 -0.02749234095177253 0  -0.01448912123717282 -0.02600670484715504 0  -0.01392209525840422 -0.02891881813089824 0  -0.01207826703715347 -0.02983127923149365 0  0.02860626967589616 -0.04765414044343009 0  0.04363680294579125 -0.08181125994295477 0  0.04492601495360789 -0.08158738431551529 0  0.04396464900434102 -0.08340762765581708 0  0.04186037048195653 -0.010587163269387 0  -0.002326183236726242 -0.04637287272314253 0  -0.03604571632973989 -0.02870219034102718 0  -0.01289946090205587 -0.08088881782883529 0  -0.01355409399486428 -0.08267194303316491 0  0.01000278239976272 -0.061329061782537 0  -0.02813915587640622 -0.03421767374490585 0  -0.004828955050749796 -0.05274035652296098 0  -0.006838515571171934 -0.05212721470318355 0  -0.03688161702228201 -0.08074879538536148 0  0.01328941088932874 -0.04916109996759927 0  0.03695935354943761 -0.002687302843778955 0  -0.02288353669047493 -0.07976095799283453 0  -0.04775213533090488 -0.08947532274139047 0  0.02955794905600146 -0.05503304502671323 0  0.01402323139817974 -0.003869151415825058 0  -0.02109375 -0.1 0  0.02017445369246528 -0.0615261973568868 0  0.01959266599027144 -0.06245471963173871 0  0.02024630562768606 -0.06334873592616742 0  -0.03743027197715926 -0.03330487563175099 0  -0.02251402783501314 -0.008609144968063387 0  0.02502289231148719 -0.0077737256344008 0  -0.0398774327954479 -0.007254290856252467 0  -0.01346414993521079 -0.08988746582269448 0  0.02719519546337946 -0.04104326372183015 0  -0.02919776769258486 -0.002809701967515502 0  0.0274833205868432 -0.09919820126234331 0  -0.009770573796750783 -0.07731202100116896 0  -0.04394251064473754 -0.03648043399579619 0  -0.01235551928064526 -0.03875612431449846 0  0.02359037557053438 -0.02170967519378264 0  -0.001567172035347483 -0.09698275740040682 0  -0.01709234563417737 -0.06186361850064771 0  -0.03011822040124967 -0.02180740036620666 0  0.01518670877583541 -0.01597280485446899 0  -0.03113094874881293 -0.0267427934568244 0  -0.0292015529530331 -0.02599477561571952 0  0.02042626640252107 -0.06646127965686678 0  0.03650131204302658 -0.02310099092341948 0  -0.02671748157878046 -0.06427973659409499 0  -0.002633211981988568 -0.002687189691918595 0  0.04448386477204672 -0.08486709764884995 0  -0.01626339787896687 -0.06590651167190045 0  0.01674082779783687 -0.04372514295179798 0  0.01878497668989626 -0.05822212003258791 0  0.01182031961236393 -0.0872588201760631 0  -0.04436551979711011 -0.06138989340147926 0  0.02245169061346719 -0.06230464747338581 0  -0.00442327911254924 -0.07775698540840181 0  0.02601839804532326 -0.01910152256049659 0  -0.003279969489266668 -0.0761615944497174 0  0.002517452638811739 -0.08985941485171901 0  -0.02916846442122959 -0.0914707075154083 0  0.02671808547967864 -0.03905204679438408 0  0.02505626938127194 -0.04015858861956812 0  -0.02125652297539161 -0.09710325953435228 0  0.04565162092535164 -0.03145158167601153 0  0.04429558745776198 -0.03157343928085092 0  0.04478728314232432 -0.03332958651274572 0  0.03712387232205118 -0.01459995580872072 0  0.002800655109847768 -0.05602261688252384 0  -0.006074168665640034 -0.02940032431015081 0  -0.01295812871719043 -0.05832262364326324 0  -0.04896952378067741 -0.03886804707447253 0  0.040166217867091 -0.05351793572264378 0  -0.0489851791717073 -0.05336056576723857 0  -0.0231452768693451 -0.05321262672586727 0  -0.01904963544842799 -0.02778199051185409 0  -0.02039689310148921 -0.02824414151808992 0  -0.04083510213034531 -0.005086641285639693 0  -0.001190116184587857 -0.0745130481103372 0  -0.0007525796146662383 -0.07282742632941554 0  -0.002284955663427923 -0.07284869295198408 0  0.03610114981454735 -0.04777302901037595 0  -0.02105785005496163 -0.07897390381296206 0  0.002630610522116434 -0.04828220653825285 0  0.03504797505490834 -0.04185434598516316 0  -0.0408948576648083 -0.07884386333650388 0  0.04503444494762127 -0.05746636110083097 0  0.03877360674691536 -0.06152981503501624 0  0.03102702807209972 -0.06932810835624621 0  -0.03254860200377474 -0.02642094292136087 0  -0.03181186741152071 -0.02481836763084657 0  0.03470960491814801 -0.06335349483735363 0  -0.04897830670689061 -0.0315174733281709 0  0.04212951723628368 -0.09890433502277536 0  0.0315749669925434 -0.05551802818330443 0  -0.02832599860269997 -0.02173276539249398 0  -0.04309877356659426 -0.04495606228916707 0  -0.001274544222441246 -0.0372672364988878 0  0.04230527572064136 -0.05110245900322651 0  -0.04796720628436647 -0.06318169238584483 0  -0.04723100695031925 -0.06246986813283292 0  -0.04654057499484085 -0.04989641855369383 0  -0.0260531140274265 -0.02419327694426271 0  -0.0278875105767896 -0.0619838890248309 0  0.04301391380692636 -0.01540395091176363 0  0.03217556837230156 -0.005129532247435113 0  0.03559679699346015 -0.05164665172768122 0  0.0288759291152338 -0.05089379671972208 0  -0.04425525088318471 -0.02846455434981174 0  0.01290391125032948 -0.08222514304019492 0  0.01436597529685667 -0.08359323834636231 0  0.01616222368382396 -0.08332454328446465 0  0.04746900361992594 -0.06185936786313167 0  -0.007338334389631001 -0.008418893088110955 0  -0.005690860006951266 -0.008122401479288709 0  -0.005966352634931104 -0.009898733737975176 0  -0.02002682328387517 -0.01092874009042084 0  0.002826238490359629 -0.02720439154523532 0  0.03245794816921593 -0.02610817076309184 0  0.03272822328701975 -0.02756817852959606 0  0.03418446573040246 -0.02729304857370044 0  -0.03365430994984123 -0.08269849205240226 0  -0.03412632635912095 -0.09472677095458427 0  0.0003846438744585182 -0.07479064083097328 0  0.03169943286184128 -0.09725056971884054 0  -0.01521031029503975 -0.02920925397745767 0  0.02269045559022845 -0.005106292737568067 0  0.04277588870250756 -0.08009698783651682 0  0.04091006785492186 -0.0788250125030429 0  -0.01766272818773228 -0.02732617551718112 0  0.03951398914310544 -0.07526206238245238 0  0.04275661034955668 -0.07544822093067707 0  0.04289443975356015 -0.07686084660460143 0  0.04111495166927416 -0.0767034340864253 0  0.03178743737103303 -0.002606475877006431 0  -0.0309758110202481 -0.08064510345776707 0  0.04581524646418826 -0.08427178436130345 0  0.003513440496757463 -0.02269454466696809 0  -0.03515625 0 0  -0.004131460546478324 -0.04663550207814817 0  -0.04692649706950817 -0.03883852017588784 0  0.02749058129846393 -0.05004139868409152 0  0.01811306492130649 -0.07104579533152726 0  -0.0461487837233206 -0.03163775451009562 0  -0.03776672570750188 -0.02943282959009941 0  0.03326837995966966 -0.03156721837066463 0  -0.04578506502280632 -0.01160313767317905 0  -0.04318570005944362 -0.05100868793166879 0  0.01711982825052156 -0.06730162919950027 0  0.01561637559929657 -0.06754846335435277 0  0.00589892175935831 -0.03623289718452859 0  0.001030822240309678 -0.08359320533939148 0  -0.009797170470062722 -0.08200569468883941 0  -0.04634485425195446 -0.06047940796011524 0  -0.04514581032385767 -0.0599213232483472 0  -0.02818403946712524 -0.02377759964552151 0  -0.04121663868201975 -0.003253580547376725 0  0.01234379534189263 -0.001019982206890602 0  0.01484375 -0.1 0  -0.005820139710321677 -0.08182105422350484 0  -0.007859580566177813 -0.08139669487060593 0  0.04263509727597769 -0.03751155963783912 0  0.03840665524628404 -0.02085628365220515 0  0.04039234729472643 -0.02076080177372159 0  0.04136893927347877 -0.02113827115810224 0  0.04023843318974178 -0.01958308034918068 0  0.03933518625033449 -0.01906200476619623 0  -0.002218079813183091 -0.01407085857886602 0  -0.04079403200068065 -0.0635979670662269 0  0.03453428052687678 -0.03024617759804421 0  -0.03499689671899567 -0.07960990925341631 0  -0.05 -0.00078125 0  0.01492691994042868 -0.06438191069935179 0  0.01666180952746497 -0.09399816239174179 0  -0.01237800225616961 -0.07302602545016403 0  -0.03765249648601068 -0.05723036509021502 0  -0.03328511788023236 -0.04764225508889136 0  -0.01315402060576577 -0.02563526372599814 0  -0.04260469538578494 -0.03501531561818541 0  0.03884664870408523 -0.08428543160846966 0  0.03090086293440363 -0.0322074437514793 0  0.04427112091305437 -0.03502513112160917 0  0.0127927494002494 -0.02432173711570267 0  -0.00510361243219849 -0.07222797969322094 0  0.01312166550798861 -0.06285401722373961 0  0.005086933488569156 -0.0158732194802787 0  0.04508988142363377 -0.07046631248715407 0  0.02156992330080161 -0.004726802514239507 0  -0.01524721783053216 -0.07060024982632594 0  -0.02666315010452537 -0.01070036006443558 0  -0.02588932209566956 -0.01183128689635307 0  -0.02467296085903382 -0.01114151698012749 0  0.04741287209598716 -0.0537561819897904 0  0.0478489422715509 -0.007803115099090064 0  -0.02699251092344163 -0.06021655940944916 0  -0.02202223812051407 -0.01355400883628025 0  -0.04674511041621793 -0.08682448720077149 0  0.006872265320914775 -0.002178732834791842 0  0.005991558936899125 -0.0009796272470246994 0  -0.0006808306369731128 -0.06424484371984482 0  -0.03948390418377841 -0.05636163804236535 0  0.04773491145828501 -0.06674871901676249 0  -0.004478748080655505 -0.02750662291316391 0  -0.004613340137293279 -0.02647245830602039 0  -0.003784422611012458 -0.02583859112417391 0  0.01532920142166671 -0.03551726601428051 0  0.01430817269562994 -0.0367894072572864 0  0.0163474256893308 -0.03655489234234112 0  -0.01176406252768256 -0.09134842706550625 0  0.04074422418695633 -0.01444128916998891 0  -0.02732612205155118 -0.02012853909746197 0  0.04571485005818578 -0.03682388721427182 0  0.04099790512787418 -0.06960129163006169 0  -0.02904707185069973 -0.02325309017388132 0  -0.0481357066353366 -0.02861564417715661 0  0.00570766278196225 -0.06526208743315282 0  -0.01462210599713511 -0.09290824370329168 0  -0.01307432958129284 -0.09289766142685342 0  -0.01316221971564846 -0.09149011036659575 0  -0.01401083791575521 -0.008360725781080837 0  0.01918345842681174 -0.07364605758929924 0  -0.01896196395579071 -0.05434448593246445 0  0.04047965296334056 -0.09597923398191906 0  0.004543192328689107 -0.05714308743613913 0  -0.0473862747314277 -0.01698082008981325 0  0.04114719870141892 -0.0187174220198824 0  0.05 -0.06328125 0  0.04001421564225464 -0.07247496338717317 0  -0.03033658998320493 -0.09172379536414821 0  0.02706869608379124 -0.02782730867318867 0  0.02327899651197408 -0.01489156346945648 0  0.02491851642845424 -0.01571661254968059 0  0.02335792035704062 -0.09896629851112136 0  -0.02218455036304271 -0.0423717777886598 0  -0.04595246424400623 -0.01601913432368071 0  0.01270024929027439 -0.04172988643740058 0  0.04071557817310899 -0.04814053607268214 0  0.04186128835396936 -0.04889578588163612 0  -0.04771980762718459 -0.005465612546313126 0  0.04465278389140408 -0.07258200703588279 0  -0.03375134763745068 -0.02001750894066556 0  -0.03207091794238066 -0.01961767519484927 0  -0.03177109727289049 -0.02063051519434819 0  -0.02845715038108901 -0.03968861863280505 0  -0.02700060196943613 -0.03523252958556065 0  0.009581515492799605 -0.07865671303272573 0  -0.01313831916160442 -0.01013855634142127 0  -0.01225353721923729 -0.009281622785123855 0  -0.03338493459046278 -0.0235391211685026 0  0.01590610441140237 -0.004819772012298776 0  0.01493125885813149 -0.00343850073629837 0  0.02363794141502017 -0.07085006459556722 0  0.01607612569839927 -0.07174959502941176 0  0.006158963918321765 -0.02773561664286723 0  -0.04361534143719367 -0.07877894501611811 0  -0.03203125 -0.1 0  -0.03331535040489559 -0.09786712188572054 0  -0.02758961754708592 -0.03336930384989891 0  -0.04437498483820466 -0.01078020281392596 0  -0.006188014071730008 -0.06304117584958464 0  0.01091978374919996 -0.08218562502207193 0  -0.04072969210905721 -0.06105302455327773 0  -0.04429623837452516 -0.005601866636597556 0  -0.04576700822222771 -0.004989883740154455 0  -0.04633591728343837 -0.006050249186834539 0  0.02826363312927185 -0.01717006077619749 0  -0.001447889024557916 -0.07707913691572048 0  0.03423782410848156 -0.02599971165806329 0  -0.03534128175885648 -0.0009946486965322627 0  0.03322715137568638 -0.0720925611098686 0  0.01457967470615622 -0.09902204956158726 0  -0.006489907232741464 -0.0642037253288624 0  0.02868502679333564 -0.0233479630730106 0  -0.006748338912123785 -0.084181309326525 0  0.02593686423831464 -0.0463175431972345 0  0.03662308169892264 -0.05452973427581342 0  -0.0244632031047782 -0.009132801917648727 0  -0.02347582769969614 -0.010245959225854 0  -0.03489309242552131 -0.09148773890050532 0  -0.03412503477887339 -0.07856748532307453 0  0.01958643326791629 -0.05276421060275568 0  0.02012775689389541 -0.05407943539875251 0  0.01818212744426421 -0.05347497631043611 0  -0.02521993789596542 -0.03627101785893934 0  0.02091009758943388 -0.0932160377051118 0  0.02968742693452865 -0.09703455083977931 0  -0.007099592008435668 -0.09293889032895397 0  -0.008487149344929982 -0.09321173457971317 0  -0.007359089486392629 -0.09152394096773658 0  0.01995929446512702 -0.01527505170114537 0  0.01969272151240743 -0.01720762723699218 0  0.04229062794201929 -0.05833248779141448 0  -0.0140550613106371 -0.0666836614738138 0  -0.003619365836407994 -0.0008853972413112955 0  -0.05 -0.05703125000000001 0  -0.04898389352715111 -0.05651989043447765 0  0.02606703598123083 -0.03372576579258942 0  0.004469875613912351 -0.02818108760259764 0  0.0284392520219849 -0.008507103559133429 0  0.02869708072935198 -0.03861256919071884 0  0.02999947227370739 -0.03960518301307234 0  0.03054863099044465 -0.03808975814018697 0  0.03062929737416132 -0.02293280957572472 0  0.01220021056799749 -0.06537634910987163 0  -0.04696016658935062 -0.08384176313544643 0  -0.03581333567807481 -0.05782833026493074 0  -0.02897636697061973 -0.01875133355620889 0  -0.03101770635774562 -0.01878004249615999 0  -0.04768642115410771 -0.00973977609569778 0  -0.003625534256472447 -0.0884848778048663 0  -0.002376848264511464 -0.0876731311399396 0  -0.004203568878927862 -0.08693304696502022 0  -0.001575867347041771 -0.04453816254382086 0  0.002331411399493564 -0.09109385734047888 0  0.0005994438837314989 -0.09170689642081394 0  0.03706853918012714 -0.07693282925890846 0  -0.01260029383374655 -0.07110230981440817 0  -0.02392548010881222 -0.0781649953145767 0  -0.003343117429562341 -0.0990245234750306 0  0.01126175465026491 -0.03743209130329052 0  0.0123035009337721 -0.03642169813613692 0  0.03370643201697686 -0.06213493959360907 0  0.03172037213123107 -0.06195385623153833 0  -0.01065894147278964 -0.001006229992773023 0  0.009177101767170445 -0.03558862043170978 0  0.04364478503163819 -0.01105309488347556 0  -0.02548079763128778 -0.005009003786980762 0  0.03076374167995879 -0.05726611647702912 0  -0.003643493954898502 -0.007634150181976671 0  -0.01796875 0 0  -0.04424565190460937 -0.06039836378283035 0  -0.005480259324622048 -0.004531846662985965 0  -0.002635780826269493 -0.06006306661558192 0  0.0196892034849302 -0.09571815459828908 0  -0.04459162427032649 -0.05146396173509734 0  -0.04636860194468965 -0.05154105176308597 0  -0.04486242328858016 -0.05282760012361482 0  -0.04908951880283566 -0.08384740401573594 0  0.04248920577794676 -0.09614551746089869 0  0.00699283717549935 -0.08055342370880188 0  0.04564121811479097 -0.07682263423573311 0  0.01048339873395507 -0.06549525097080962 0  0.002948791052163292 -0.0719361143857534 0  0.0009398406163303916 -0.07161660535347997 0  0.002189006081685087 -0.07058568838527787 0  0.01697131315013542 -0.01874393762607085 0  0.01677315232007687 -0.0172382876080007 0  -0.03448355370558082 -0.08968660967765252 0  -0.02527675006565554 -0.05993007455689673 0  -0.02591571687002064 -0.05855134246641017 0  -0.04492165698822694 -0.02340406628144829 0  -0.04596321271119348 -0.02177465614821635 0  0.04800103272331458 -0.0433710056998352 0  -0.01585511566473913 -0.0009963949528617158 0  -0.02178136417405014 -0.08937899837171724 0  -0.02084102068973276 -0.08896003382536516 0  0.01121821882104004 -0.06820605657225133 0  0.01109788743452664 -0.06960457957289139 0  0.04060018273739111 -0.0749234734749826 0  0.04544012034057785 -0.08308848682560965 0  -0.04298658756461934 -0.009146385123280908 0  0.01334771806378311 -0.03506166070869395 0  0.01904404887206968 -0.01942534128087702 0  0.01328125 0 0  -0.03020053194675956 -0.07533973654265207 0  -0.02503807925962841 -0.0513492536410936 0  -0.0246480786983452 -0.05041244089218293 0  -0.0405311980091531 -0.001746249492947275 0  0.03665878824007354 -0.04059260725943494 0  0.004870293820955867 -0.03800811204455393 0  -0.03634662508935405 -0.004011572713280022 0  -0.03576679751634627 -0.08643147633214857 0  -0.03532521995126609 -0.08840529407655975 0  -0.03863726093529019 -0.04410841656878971 0  -0.03758743796188056 -0.04381406745342322 0  -0.03737534821795421 -0.04282624977827677 0  0.01990522359224372 -0.01341905685963913 0  -0.04100656565904616 -0.0934967585224603 0  0.04661416371570286 -0.03170528521379358 0  0.0241673324155809 -0.04896666662769502 0  0.03506642680524336 -0.02019546596591114 0  -0.01810395356491226 -0.05909166969358531 0  -0.03783715404116238 -0.05000282275494545 0  -0.02532230952943643 -0.09004795810473844 0  0.03286069335133238 -0.08893397158206898 0  -0.02850553576924365 -0.002087411662541481 0  -0.02861342094074301 -0.001025954266247468 0  -0.005083305003436529 -0.03697385486252884 0  -0.005569175965606491 -0.03818321616673676 0  -0.005614915972475546 -0.07614313886588141 0  0.01219503988662397 -0.04600306933300958 0  0.02849056632804775 -0.03665053677807329 0  0.02699091126005216 -0.03613460618622444 0  0.02783071588292289 -0.03793069428205833 0  0.02770391221443823 -0.02239376476446318 0  0.04091378927940758 -0.05071903052194839 0  0.04394031351014196 -0.04900135948705901 0  0.04250026866179201 -0.06991594589628966 0  0.04126113943003187 -0.07567759102985859 0  -0.02181893710892964 -0.0771192432945028 0  -0.01633074498753276 -0.0196503176991168 0  -0.05 -0.01640625 0  -0.04901079122162581 -0.01695827315043404 0  0.0214042839777605 -0.008147137565028014 0  0.004219311000400403 -0.04170474957829028 0  -0.0219352446990382 -0.09495776907323739 0  0.009077562292054963 -0.08138282199129912 0  -0.03041822229827721 -0.01254189885289626 0  -0.001400491412343153 -0.08020846633351794 0  0.04112145226121779 -0.0952011641432917 0  -0.02550032163509528 -0.04564964812273659 0  -0.006243993532841196 -0.01165140693139153 0  0.008402866891359205 -0.08026471750101459 0  0.03741629886952773 -0.06115491833068846 0  -0.03432675117870019 -0.01909617050741903 0  -0.03397238691813453 -0.01713617392658406 0  0.03052998384889034 -0.01092950586327221 0  0.03031065613566326 -0.009301570886876123 0  -0.02114209850985937 -0.05745114311254935 0  0.006714714356447882 -0.03381088980119386 0  -0.02447924528205773 -0.04614231674050888 0  -0.004250653348528456 -0.04563211898129685 0  0.02017777107331084 -0.06946549077846598 0  0.005974393185435741 -0.0200841899466205 0  -0.02266997124556105 -0.08892532471144197 0  -0.02688512324986082 -0.0510066764816265 0  0.02573278781992735 -0.004865228109155038 0  0.02472994312843217 -0.005824564207838505 0  0.02431420438388392 -0.003932557259107237 0  0.02816451042037715 -0.08255468470672804 0  0.006489987316800994 -0.05242939164323149 0  0.04184870545602132 -0.04363190189167458 0  0.00172256375970564 -0.09420045602992852 0  -0.03622794691238029 -0.05119380770797913 0  -0.03622251175793853 -0.04974965624380789 0  0.03383885426440894 -0.002546393839464172 0  0.05 -0.08671875000000001 0  -0.03458905813035084 -0.05925319756781234 0  -0.006718724237725605 -0.007637787922382625 0  -0.021484375 -0.09907953474926669 0  0.00461206402720361 -0.07296399449863562 0  -0.04725069414308183 -0.01202121172106637 0  -0.04731029156399554 -0.01307214874916833 0  0.01376483148058704 -0.04582325943760948 0  0.03396124326888356 -0.07578988667095087 0  0.02252190372697467 -0.04212530747026383 0  0.01592666210621589 -0.0908649663066607 0  -0.002341746596073742 -0.01191555002993943 0  -0.01887443295398149 -0.0223836935429738 0  0.04235635546995373 -0.09287108441051235 0  0.0400609234936304 -0.06008959544759473 0  -0.02855090717243104 -0.06373861563853124 0  0.03970071207450818 -0.009151176415869943 0  -0.0423540300414119 -0.08512570145498739 0  -0.0417751645061722 -0.0540383638461082 0  -0.04327287857451395 -0.05401721065350476 0  -0.04286098551388647 -0.05562676652002358 0  0.02816318926442946 -0.01054499174752068 0  -0.038613265113463 -0.05456893591932972 0  -0.03990456776381916 -0.05527383598951622 0  -0.04047055491685381 -0.05388472931001465 0  -0.00755700273849302 -0.06831601306659699 0  0.03979045895880029 -0.03756120454953166 0  0.03862888925892385 -0.03749575770002413 0  -0.03006275111058694 -0.08246661067103685 0  -0.02901290460156722 -0.08398640139985383 0  -0.03026471830935456 -0.08438328853812067 0  -0.02085724902697739 -0.003413504873303371 0  0.04881398450074404 -0.08142803331558277 0  0.03799861039190445 -0.07221056594017841 0  0.03769382048563494 -0.07414876696654728 0  -0.03137644504579275 -0.08598887667485669 0  -0.03935713896357648 -0.05196783689887088 0  -0.001561566732340805 -0.0826621624676447 0  -0.0004470504967939055 -0.08444109384797087 0  -0.001595066099001453 -0.08452774393277576 0  0.03200184251846588 -0.08156462590224288 0  0.02598771497223037 -0.05019646176651061 0  0.02501115117723657 -0.03312595133982402 0  -0.004241865327965047 -0.05558326374560669 0  0.04609375 -0.1 0  -0.01233916887425257 -0.08578524217169498 0  -0.01309383354842558 -0.08383074641389132 0  -0.01200833195261783 -0.08393804460558789 0  -0.01382309499343739 -0.08455385532443738 0  -0.006913002935731524 -0.03773580131037436 0  0.0186025545549185 -0.06239672510751092 0  0.04017998304111856 -0.0357089274686001 0  0.006920637596550217 -0.05442967997843413 0  -0.02360358680992207 -0.04525605026196372 0  0.008131933982816367 -0.04743238929240128 0  0.009512273404365725 -0.04636157592629402 0  0.03094214546331017 -0.01438522986027703 0  0.03230132428932772 -0.0154348894863788 0  -0.02504568010085602 -0.03220275377088387 0  -0.02598076575862813 -0.03045393553350334 0  -0.0375988633789696 -0.03233203407155979 0  -0.03271049588708008 -0.05415399673762469 0  -0.03803020305158974 -0.05590435620706379 0  0.02970188152084511 -0.01147103367507368 0  -0.03300693370262131 -0.05245545135822756 0  -0.02015428164100246 -0.09764505601407555 0  -0.006564798591546303 -0.03466711987772223 0  0.01841561495650609 -0.02849028254189441 0  -0.005692560930804768 -0.09263742985885791 0  -0.01049480567822987 -0.06391110599645926 0  -0.02610252887448301 -0.02092152823444709 0  0.00771172886196035 -0.03086592221737071 0  0.01643351797334619 -0.002445373981872964 0  0.01699572644608651 -0.0454218515551324 0  -0.01196406044507524 -0.01568964801762925 0  0.03629422629737898 -0.01861775402580912 0  0.003894238763724591 -0.08560132015080539 0  -0.01285540854896464 -0.03501442777452046 0  0.03366618764170525 -0.04014327362575745 0  0.002512160477409394 -0.001893924052015893 0  -0.01389481888742337 -0.0743002186882748 0  0.02996440742541026 -0.03552815594395022 0  0.02964059368727586 -0.03395112261394413 0  0.03144480772828899 -0.03471846895548872 0  -0.03634181222634286 -0.01933625937472462 0  -0.002182017932624416 -0.04971903578050821 0  -0.0009304186221311604 -0.05032547228311576 0  -0.001589153960190818 -0.05161582265885786 0  0.01468431302403289 -0.07309670311220427 0  0.01363774365061199 -0.07356582674779701 0  0.04086828036787075 -0.006816124133583714 0  0.008843751866241293 -0.08803275892922816 0  -0.04765625 0 0  -0.04780320733778727 -0.08500038720850492 0  -0.02907758298267556 -0.0957506621650283 0  -0.04740383401030685 -0.05321519478330055 0  -0.04747118126213624 -0.05177608241960283 0  0.01624718007330396 -0.04078633986774454 0  0.03041369039979908 -0.02828859542982429 0  0.03140545150028726 -0.02781581872417015 0  0.04443481123287674 -0.03679225646327183 0  0.003710598932725064 -0.01548416692912722 0  0.02051137701315816 -0.03201333575093331 0  0.04186231573211056 -0.05246886980588231 0  0.01606211579691981 -0.05080076285145439 0  0.01536202990530814 -0.04891047414233295 0  0.01668096415011335 -0.04924588687661501 0  0.04113297918335981 -0.0884100314434698 0  0.03755265550284655 -0.0216113869220935 0  0.02161082440436366 -0.08205306463741259 0  0.008669741741135365 -0.05836457344221447 0  0.03740998435435691 -0.02445907032282154 0  0.001213555525524625 -0.09773647816921224 0  0.03317527833482235 -0.06746040163237665 0  0.007937351781976878 -0.05337098853986615 0  0.02685000249734106 -0.08886912040499817 0  0.04225468157691997 -0.01992616757518943 0  0.04189504516517859 -0.01198641133656791 0  -0.04572990853185074 -0.0295711298039694 0  0.02008022146806956 -0.02277201065392825 0  0.02316496720819547 -0.02367571229285974 0  -0.001593855955213847 -0.08886627853856879 0  -0.001645575321035679 -0.04825893278380659 0  -0.03913493889215808 -0.02036715675516596 0  -0.008116336358646776 -0.0636868270303555 0  -0.01683796073013182 -0.03185289993855901 0  -0.01605746452870285 -0.03344506580146061 0  -0.017578125 -0.03363820284498208 0  -0.02163674190366279 -0.00794026245163793 0  -0.04398664336741485 -0.07201189304516717 0  0.00130379205849725 -0.08671618290536649 0  -0.03837375468875056 -0.04006085077617708 0  -0.03705937053633981 -0.03851961034599919 0  -0.03679809446511274 -0.03959889908975992 0  0.008593750000000001 0 0  -0.02327210991554648 -0.03390155373278707 0  -0.01956736960489596 -0.01421300326344534 0  0.005754108805235403 -0.05136397085194229 0  -0.03124050623799372 -0.07796914125193592 0  0.02712734238866452 -0.04377745314486874 0  0.02780885167186787 -0.04561740573659612 0  0.04216307178432067 -0.03563855087237284 0  -0.03963554843381811 -0.076617442116199 0  -0.04545932082294492 -0.0173452202219788 0  0.00449280283893866 -0.03005144888575695 0  0.01821718112474354 -0.08879588916192567 0  0.01952075794565922 -0.0901807611818235 0  0.0266580063787932 -0.04817715962060912 0  0.0264419154586677 -0.07644064971819292 0  0.01455015494166061 -0.09227897537458585 0  0.007953873136385672 -0.0625637642492206 0  0.011700861455754 -0.09556440533704884 0  0.03916064329511854 -0.04061236403171763 0  0.04081705271156556 -0.03992221300568562 0  0.006763088044441056 -0.03575922714548509 0  0.03840193858316501 -0.06710245480603749 0  0.03445915105574647 -0.04366676097255688 0  -0.02914220671686069 -0.02227680782944242 0  -0.04433347629508388 -0.04406601571732315 0  -0.007481318130639071 -0.07945098159348717 0  -0.02298359818464275 -0.07093817729126947 0  -0.002665471344134199 -0.05268295032634794 0  0.002597331740813192 -0.04079750353373475 0  0.01366930201163002 -0.04769365063029507 0  -0.03022478969996485 -0.09915294099136789 0  0.01565684952363037 -0.08006031030371219 0  -0.04342237419568448 -0.02998040638813729 0  -0.04325300255034984 -0.02796453895979443 0  -0.01565783617452428 -0.01286157582851567 0  0.007889666130910038 -0.05015939988263709 0  -0.0003434260488421942 -0.04598228870358101 0  0.0258397170365832 -0.08430875865783112 0  0.000219406220862472 -0.03783587778139381 0  0.001828456644297576 -0.03769893766978457 0  0.007289440549954978 -0.09681551894047337 0  0.04342947879197043 -0.04811341323146701 0  0.04903995436192611 -0.08479709380589855 0  0.008668437495097806 -0.01473668043242833 0  -0.03524039822655568 -0.01785334628698796 0  -0.003942860921694439 -0.06298005997035719 0  0.04776710572928066 -0.03908397866821829 0  -0.009519764016014849 -0.08934962342999342 0  -0.01025543314565391 -0.0886937045503645 0  -0.008264386035073734 -0.08848030891182893 0  -0.03690903879495464 -0.03526140981411623 0  -0.002177687840626716 -0.05871820713907318 0  -0.0007457898309069749 -0.05978044156534678 0  -0.01655793685591033 -0.08253060607334511 0  -0.01666836821210359 -0.08437170234825173 0  0.01248362328140478 -0.06671790010198238 0  -0.005819550248710048 -0.05598134363672128 0  0.04553513295490834 -0.02281282251207577 0  -0.02604445950765268 -0.003551816356283888 0  -0.02434174754734149 -0.004574014230220393 0  -0.003235873369038355 -0.08939196855906546 0  0.007613429087836492 -0.02810061181648314 0  -0.04404095906367033 -0.01874968986805316 0  -0.04512630921246197 -0.01870709131020544 0  -0.04416174623929352 -0.02053852194855409 0  -0.04526866029802846 -0.02049701097031409 0  0.01105455824282733 -0.06717890639751944 0  0.009328631953101976 -0.06644731914003062 0  -0.0264593444757813 -0.05278290726486342 0  -0.02496313640634141 -0.05386351883872444 0  -0.0329182408472674 -0.07104345862984728 0  -0.03225149573209459 -0.01298094124997696 0  0.03539676092480289 -0.07808212294179404 0  -0.02162610192521529 -0.07412882248136414 0  0.03696518044353182 -0.07057528912605783 0  0.03515623830102951 -0.06983496996486342 0  -0.007467326608488912 -0.01651266590200947 0  0.02778591682334441 -0.05409474683194683 0  0.04770256633617266 -0.08537431158079753 0  0.002452043966595303 -0.07387920028845042 0  0.003605344495438403 -0.07312778513747596 0  0.02698023966933411 -0.02574839447642367 0  -0.0147770336708969 -0.09194376430060604 0  -0.02356413641866208 -0.06659111779082252 0  -0.007546583706181198 -0.07423953671947756 0  0.00573732121717711 -0.07042461479473354 0  0.02374525193958198 -0.02913306425040096 0  0.03973846752993997 -0.03380787764566594 0  -0.003555899923968183 -0.004488806343168363 0  0.018584095791343 -0.08328848346697211 0  -0.008187037807783961 -0.06932250293205021 0  0.03369958939943907 -0.0786578460449769 0  -0.03712112903772602 -0.09141185168884908 0  -0.02964292652446769 -0.04883846533858639 0  -0.02999443315978048 -0.04777619136580896 0  -0.02829136038685982 -0.04734299618911064 0  -0.01785442322374243 -0.01209165685234669 0  -0.03255103136983583 -0.002494332450194798 0  0.002909032938547234 -0.02933768949148563 0  -0.00170329637878419 -0.05557353236407643 0  0.009571888171968149 -0.03976547463734004 0  -0.02747743991713571 -0.08336289984516308 0  0.01289315613115377 -0.03997196808557107 0  0.0264034805145397 -0.07834375892767298 0  -0.036436761159874 -0.0893892602589286 0  0.009787116610040772 -0.07370244424891124 0  -0.01063426426941824 -0.0705001073680999 0  -0.01194346363160453 -0.06962610200356964 0  -0.009995243539213501 -0.06971139269361722 0  0.03806059358697159 -0.01102511555291855 0  -0.01756782580497354 -0.06912109841279541 0  -0.02980577626072873 -0.09473540726549688 0  -0.03094880597143807 -0.09620680140702777 0  0.01375488131397257 -0.08494303004881412 0  -0.02214220173018693 -0.0849017535517286 0  0.02408641910590221 -0.06836828423992976 0  -0.02381824415433136 -0.006285677622638884 0  -0.02463355361093302 -0.008095804008065702 0  -0.01670959433235515 -0.01777375423368976 0  0.03642617950559505 -0.00768936855299729 0  0.03514792940809 -0.006901418184954312 0  0.001222062670505446 -0.01942953799473372 0  -0.003811541620219541 -0.09707458304892898 0  0.01367176908277369 -0.02305991204096756 0  0.01405605714393418 -0.02498227751193792 0  -0.04460189529329259 -0.02520208183487463 0  -0.04611753230848564 -0.02618405158065326 0  0.0180708001663577 -0.02375989059396303 0  0.01957922582787653 -0.03798816939943908 0  0.02029772820851604 -0.03681658600282646 0  -0.008906864736588128 -0.05884555393406649 0  -0.02402054640218613 -0.08959546070784757 0  0.03695961320466869 -0.06261321945499976 0  -0.04749055952780908 -0.06937258858552253 0  -0.04763836510203674 -0.07131053694887926 0  -0.03157284282451105 -0.0335563255424327 0  -0.01448512791076457 -0.03598878396735106 0  -0.03359375000000001 0 0  0.02718025004781265 -0.04684457553468777 0  -0.03919063477936241 -0.04861800457904984 0  0.0287302056828451 -0.05709109308220087 0  0.04910633099181821 -0.001171875 0  0.02342495349569187 -0.09282142713430719 0  0.02985154582223079 -0.0662629666537659 0  0.03073358573361091 -0.06800330182604504 0  0.02193079697873635 -0.0222761984654395 0  0.01048462283369733 -0.06438105027765445 0  0.008555068798186842 -0.06402128457175363 0  0.009837124138172953 -0.063175966942418 0  -0.005809003915643364 -0.0571049635610007 0  0.006909748054051828 -0.00846490908058415 0  -0.04831743897183213 -0.00308010434353022 0  0.04572344358198306 -0.08861442134627755 0  -0.02958838090413231 -0.03268205116286461 0  -0.02912972184570898 -0.06599936052304727 0  0.01637508093697599 -0.05433147129703294 0  -0.03328958570064248 -0.05119796224323046 0  -0.03455103256456146 -0.05124452525949474 0  -0.03459162057356861 -0.04972337739209414 0  0.04747535055595521 -0.05092993144609696 0  -0.001194884224818238 -0.04732877000032349 0  0.05 -0.01796875 0  0.04902114566246609 -0.01740940495687445 0  0.04126628499903151 -0.09229025745588301 0  -0.0009145830661303896 -0.09598187148119752 0  0.005611983566218643 -0.04943672083699018 0  0.002488312318372692 -0.09236941870832779 0  0.01280193973525393 -0.02767156731341107 0  -0.008111244411988044 -0.06059029765027608 0  -0.007273202317042678 -0.05946777354418751 0  -0.02756010685309786 -0.009216811376946701 0  0.0004685764289680367 -0.04537170085836778 0  0.007149400236491079 -0.08169985484346282 0  0.002023165549639303 -0.0570758238364512 0  -0.02830391471801427 -0.08156907423417586 0  -0.03529355510174911 -0.0615358806594003 0  0.04549551533171278 -0.01310892363870993 0  -0.01370463913171897 -0.03751447368150403 0  0.04491964999724893 -0.01585205951031451 0  -0.04413584852448953 -0.09164269647578013 0  0.01266612698598745 -0.0427088095669507 0  -0.04900322774412143 -0.0253119490320598 0  0.04296270917433023 -0.03411126969932066 0  0.02369638891196629 -0.07982205675189191 0  -0.04903812665298291 -0.01583113745845978 0  0.01387697494410117 -0.08035398943217192 0  0.024844148101298 -0.08604938046216611 0  -0.04220731691186565 -0.09345151655600747 0  0.02339858774553247 -0.06567769410215853 0  0.0221992153824715 -0.06622064109310026 0  -0.0411272284575341 -0.07243869726560072 0  0.03265297885199488 -0.0903182704977985 0  0.03412871595193143 -0.08904072442814844 0  0.03739606564377061 -0.008720995507934967 0  -0.002930990399054944 -0.04319686454182099 0  -0.003896093345209329 -0.04206521924377059 0  -0.04492388917041233 -0.01426183306072958 0  0.01746178573270596 -0.05968839853271623 0  0.007786534448550323 -0.07291542114777567 0  -0.01649861053421398 -0.007913654636500914 0  -0.02228512174953851 -0.02046841848658082 0  0.01443275257717555 -0.0715001273585983 0  -0.003039546326997394 -0.01307942109481736 0  0.03161981224698206 -0.00390534242812998 0  -0.0168943707686611 -0.09405057335836055 0  0.02700433849166348 -0.08022311669394062 0  0.02444733965321334 -0.07610867185928391 0  0.02502143044879334 -0.07704379734540905 0  0.03007674199510285 -0.0799950738864207 0  0.03041748597673768 -0.07893245483186677 0  -0.01702969835609509 -0.01898037586669704 0  -0.01524551276817063 -0.01909287289474553 0  -0.03231716439774932 -0.07871633702476279 0  -0.03328606889595612 -0.07722659299710088 0  -0.04443689917167869 -0.02674329043760179 0  -0.007966282061864904 -0.004999011368548192 0  -0.0003363875999998403 -0.04906429258732658 0  -0.0007456103751852855 -0.06226670754519652 0  -0.03721799007438658 -0.01741968786919331 0  0.001808353256420021 -0.08128939648962449 0  0.01918898250431017 -0.04041974664660994 0  0.03517947682520969 -0.01602718234206413 0  -0.02485892670550449 -0.04415288928130609 0  -0.02852800522389939 -0.03817842407120096 0  -0.02754659762133847 -0.03807280439977722 0  0.04319100133259634 -0.000790715977011375 0  0.01140298968336639 -0.02899409378607812 0  0.01781474695041982 -0.004204616292828508 0  -0.026389613809869 -0.03188234639714043 0  0.008319402560459294 -0.03825696690137619 0  0.008535799264942979 -0.03979667761683702 0  -0.02665069926536779 -0.00665110532640607 0  -0.02801007542801828 -0.007911977880328843 0  -0.01868226872085132 -0.09485730864426981 0  0.03397504549628014 -0.06018978622336912 0  0.03708222559491508 -0.08276994562359878 0  -0.02157441146508343 -0.07587811573801459 0  -0.02022070213763385 -0.07447083951363757 0  -0.04676471804466514 -0.04167592564340225 0  0.01475178194917926 -0.02415395670572998 0  0.005869833234360891 -0.09908153949398085 0  0.004368209788265368 -0.09779808499894835 0  -0.01383263592259707 -0.01202078070267762 0  0.01818958059342471 -0.02070475232941149 0  0.01709179361922008 -0.01981394217431896 0  0.01882477233403406 -0.0460466590453478 0  0.01744716381757899 -0.04627830523816303 0  -0.02474586730077596 -0.02153602449547741 0  -0.0410038150828831 -0.08662232925667615 0  -0.03459236455101222 -0.05828620429071806 0  0.004165962382583707 -0.01088275177836646 0  -0.02684950879121533 -0.09309652763003601 0  0.02871819831022981 -0.005095014500615799 0  0.03281443239736255 -0.03462891470516111 0  0.03409643774020001 -0.03488447046371423 0  0.03410697847758412 -0.03321665214928175 0  0.02445077972250122 -0.07811419633995907 0  0.009035650616966285 -0.07267611923286513 0  0.01730544996961758 -0.07921952577898028 0  0.04919171059077453 -0.0463183953470565 0  0.01455908310513146 -0.0692238459982929 0  0.02286920843972213 -0.03784738272765194 0  0.022488981796571 -0.03885826090367048 0  0.02991190288611659 -0.02516287407974373 0  -0.03417020395439615 -0.02934498164506676 0  -0.03487651139703753 -0.02831422258307322 0  -0.03548915116907165 -0.03015990377991549 0  -0.02053141093190671 -0.04207781397057553 0  -0.01165695179116113 -0.06231696418741319 0  0.021863400486024 -0.07967734226459766 0  0.04645002827536376 -0.004757961251956465 0  -0.03686145409455414 -0.01324835288241482 0  -0.03590142818683324 -0.01309249926501883 0  -0.0357184750568023 -0.01207291417223146 0  -0.03524619331138693 -0.01383523399382968 0  -0.03557485401193824 -0.01480255793099053 0  -0.03654617122665657 -0.01493604637769574 0  0.02942942837093867 -0.0213934419278953 0  0.02287258666837912 -0.02870255718637852 0  -0.02580280084392535 -0.08837506559514016 0  0.04357441472944935 -0.005421953766987754 0  -0.04266033883330923 -0.08030150096064197 0  -0.04264233628392229 -0.07879550745276653 0  0.04016107556985465 -0.08868733872690381 0  0.01373169753708706 -0.06513774335435196 0  0.01621398169849589 -0.05725655008750226 0  -0.03132548805246071 -0.02846599417463169 0  0.01111088848830083 -0.04131731812680332 0  0.01001602237480886 -0.04065204627508463 0  0.04040137689188846 -0.05201700271374318 0  0.04796116527317613 -0.06474811981445218 0  -0.04572652515806843 -0.02528949383955313 0  -0.02750934892983383 -0.05284926064657737 0  -0.01704164107041129 -0.01071603617283058 0  0.01214690266034449 -0.02505782158001745 0  -0.04578975015831411 -0.0008780771824743343 0  0.03145719566492763 -0.01777377001285195 0  0.0321286800457556 -0.0167691415018516 0  0.007840941325071876 -0.0345399510392305 0  0.007869932143935707 -0.03650205996792387 0  -0.009717410758560651 -0.04805265651572889 0  -0.008070026491944214 -0.04893813359985934 0  -0.01727041787978451 -0.03813316618119885 0  -0.02708549370284566 -0.01456024436005555 0  0.03434559527744366 -0.01781558054764119 0  0.002189688366050472 -0.05959478966212982 0  0.01920464174872496 -0.07267089400345014 0  0.01495172185717186 -0.02972240510242955 0  -0.04502242770422973 -0.05896407488909391 0  -0.02741808952284528 -0.06813106184504654 0  -0.02863768182546558 -0.06963413543018818 0  -0.02714876702049376 -0.06946812295430042 0  -0.02772303963466331 -0.03158750131779834 0  -0.02747026137250337 -0.03023778457333011 0  -0.02909475439479373 -0.03125936316686831 0  0.01546210083843989 -0.05393815436631585 0  -0.01845953443455348 -0.07485846001150283 0  -0.01722835018804579 -0.07635337318072026 0  0.03199825465404173 -0.01027929718671592 0  0.03480954552780576 -0.09477315637807983 0  0.03525688870831355 -0.09383410275013189 0  0.0009633377920612019 -0.05328852295624105 0  -0.03182640057027924 -0.05086848606844548 0  -0.04666439077583952 -0.07271526252892116 0  -0.001914382820019705 -0.0854330797695157 0  0.01654832606442673 -0.07500728684225511 0  0.01359215848911285 -0.04420479584620495 0  0.01170714542908748 -0.05188220343339209 0  -0.02166110357533938 -0.02352612782894113 0  -0.03369489245428849 -0.06954286343741109 0  0.01162050930351036 -0.07853453549110871 0  0.02506167472025363 -0.0824680912317987 0  -0.01921043841142368 -0.08439276697800363 0  -0.01868998791821786 -0.02924477857584276 0  0.00809862405410512 -0.06766988744592141 0  -0.02735346383516522 -0.08498591776478434 0  -0.02646594220626743 -0.08606966746437371 0  0.03782269834314116 -0.01353306303606375 0  -0.02004750871787586 -0.02972830531723768 0  -0.01832854101135163 -0.03058294304520984 0  0.01454543103543168 -0.05295757555354946 0  0.01435587420793321 -0.05486963161555365 0  0.02070932431151823 -0.09125379255598649 0  0.0226206776529422 -0.09141377037449004 0  0.01969066953558837 -0.09241995827010933 0  0.02157262898846055 -0.09243740645898535 0  0.02145773583184809 -0.09052281405830333 0  -0.03066721167375868 -0.03235764145368229 0  -0.04364292354058583 -0.08847211117289107 0  -0.04211337935730516 -0.08769358835157705 0  -0.04388394249405358 -0.08713153008974428 0  0.02994948212094168 -0.05595092784141822 0  0.03100575102223902 -0.04352091990895825 0  -0.03266975696523842 -0.007813715323127645 0  0.04366572656933276 -0.04157622768243677 0  -0.04399305479721996 -0.05726466830511618 0  -0.003942163029259652 -0.02475756883176827 0  -0.004880555120888657 -0.02443808137813312 0  -0.02527551052533589 -0.08090348849401376 0  -0.01053091698533663 -0.004100904754178953 0  -0.04128588560840145 -0.02395966392205203 0  -0.04408427096778832 -0.01694600514780783 0  0.002223098846833927 -0.02109142585481159 0  0.001936800983445892 -0.04246643083380615 0  -0.04201326352358806 -0.0988944416822076 0  0.00078125 -0.1 0  0.03553926345774371 -0.0909855595708898 0  -0.03021123936741858 -0.07324088415170246 0  -0.02573838943724809 -0.07899375039892617 0  0.02559863765344747 -0.04333695163689587 0  -0.039490227257665 -0.01135173229980879 0  0.04902284930776908 -0.07906505570169751 0  0.03894613949133554 -0.002816409724935781 0  0.03813467146212361 -0.002221581827158297 0  -0.03818150479426978 -0.04576461259299836 0  -0.01045471587575841 -0.0163941207901394 0  -0.01813164235438528 -0.09826845852835092 0  0.04400925521458612 -0.07135999677365963 0  -0.02063999613443522 -0.08801468090532405 0  -0.04626195652073775 -0.04415267558874417 0  -0.04509548590388337 -0.04494174456262329 0  -0.0461868765372041 -0.04605668210183632 0  0.04902351131858818 -0.07053088089315414 0  -0.02720381759415296 -0.06622482579999719 0  0.005527153984709834 -0.009460957933727641 0  0.01839174772271641 -0.07550356740479032 0  -0.03918138009710116 -0.0320360730516133 0  -0.0106634006103869 -0.06685360625528716 0  0.02945387453102347 -0.04081904138612094 0  -0.02141487929061365 -0.06856641078776997 0  -0.02182802856325927 -0.06767030237372541 0  -0.02125707106894659 -0.06995343494039609 0  -0.02271252149428814 -0.06611424558132013 0  -0.02918637484171258 -0.09915294099136787 0  -0.01886446157052628 -0.0733068402908793 0  -0.01832282252424499 -0.07247456551103419 0  -0.01732461823832543 -0.07244469650407752 0  0.04567760427949592 -0.03835135440212222 0  -0.01798816349573945 -0.05337638014615934 0  -0.003024231439272823 -0.03923883911042013 0  -0.0279099721987117 -0.04156455418056361 0  0.03690534943188761 -0.06922725498327954 0  0.04581393057081235 -0.02991850778421337 0  -0.000275219301957132 -0.01999762435745437 0  -0.00064990264784262 -0.02188475413479433 0  -0.04674056606631844 -0.05552021113555427 0  -0.02803747927000988 -0.07264264373494569 0  -0.01788325542091094 -0.04894814378528024 0  -0.004930781141474912 -0.007205849014960047 0  0.02372797691805691 -0.0747741294247105 0  0.00617219859529182 -0.0236907196438499 0  -0.01649712005494789 -0.06793838504619598 0  0.02961584468722466 -0.02665711623645075 0  0.01268722278596405 -0.002981001623589496 0  6.081560614013172e-05 -0.01826483539192122 0  -0.0005450210058747249 -0.01639876051353054 0  0.03679873504161578 -0.03677136092942714 0  -0.04921687399473985 -0.09317875327857586 0  -0.02541258137298972 -0.04903153442236923 0  -0.02353010859823465 -0.04914427304053856 0  -0.0241990913047847 -0.04839454599441913 0  -0.02433028379767082 -0.09780804339558263 0  -0.04496607132728243 -0.09250463875749358 0  0.03899524660506479 -0.03926923878672098 0  -0.03466033230480076 -0.003549485722289242 0  -0.01794625628652447 -0.002743229329226997 0  -0.01856474994284276 -0.0009485804909970595 0  -0.01904847502719112 -0.00178628192202863 0  0.03038046087493254 -0.07256252139709965 0  0.006424408400823027 -0.02200484851979072 0  0.03028269573747866 -0.08668981743530396 0  -0.004262692600905245 -0.03873879810633778 0  0.02339045601020255 -0.04072813084829614 0  0.02160271990672774 -0.04150305424156062 0  0.04001603345341377 -0.01108823429038843 0  0.02108000105423484 -0.04854692134100253 0  0.01422812041904595 -0.02764374307194315 0  0.01612941302351572 -0.02719347186929723 0  -0.03037077036851321 -0.03090724412117674 0  -0.03859800249429862 -0.007029949963791584 0  -0.05 -0.07421875000000001 0  -0.04754923294961444 -0.07440940919808096 0  -0.04313624342157082 -0.06289312047064687 0  -0.005468750000000001 -0.1 0  0.008892662978552396 -0.00405880770594277 0  0.02775755100998629 -0.02709330042024063 0  0.03655096816951312 -0.02004612514752179 0  0.04473002819370255 -0.0862630622105913 0  0.00865688989829643 -0.07105694121916738 0  0.02054852841023009 -0.05550572905724543 0  -0.02646042967424302 -0.05448297075894218 0  -0.02967786863128086 -0.04236938283076127 0  -0.03976973206416851 -0.009177268872827176 0  -0.00461658137617847 -0.09008046451337737 0  -0.01349295032982937 -0.02241441188530703 0  0.03055204040575473 -0.06288944794775013 0  0.02951463774611886 -0.06435836505570319 0  -0.01447483860925699 -0.02413084139554119 0  -0.004507125352443344 -0.06615666559969312 0  -0.02330550087636761 -0.09509886238014557 0  -0.02007232086196332 -0.04551789177772386 0  -0.02964839228890757 -0.02768630404936083 0  -0.0491223381787618 -0.01293272755434337 0  -0.0395397405288025 -0.06879379717451239 0  -0.04569369379446114 -0.08404995586089919 0  -0.00457408805600836 -0.0703084220621449 0  -0.02453678284179912 -0.003337322567892811 0  0.02217944176335748 -0.04543398892998257 0  0.02043078073945923 -0.0446355261168593 0  -0.04565111734558051 -0.07868405714770221 0  -0.016627927852077 -0.04970084451874367 0  0.004609312691324962 -0.04589170060075277 0  0.02336391394069377 -0.08940767616494048 0  -0.04550672764782264 -0.0269127799672521 0  0.03933409172277712 -0.09198269083422636 0  -0.02424029706828596 -0.06985028399654578 0  -0.03216847464312016 -0.03472196254078903 0  -0.03347720253359072 -0.03375330704870604 0  -0.03304437335362798 -0.03560510459941895 0  0.0005493174042395996 -0.09907828322470738 0  0.03165818238382435 -0.0951752934239635 0  0.02582087977021807 -0.09154261915465076 0  -0.04800130555048843 -0.07309762638715624 0  0.04675343788920257 -0.01621047448165778 0  0.001012619011456792 -0.01459323616885453 0  -0.002266455274126788 -0.07417434859903982 0  -0.0375863451065275 -0.0113788671487747 0  -0.0378913177297409 -0.01233836832339768 0  -0.03833717885010136 -0.01425007783536028 0  0.004735220905848286 -0.06242261805593442 0  -0.03537425550863333 -0.04110883668033533 0  -0.03630909459141757 -0.04141047098547761 0  -0.01894790131432127 -0.08805634455579953 0  -0.01165834442736619 -0.01263593468275342 0  0.03258495679211169 -0.02351710231868935 0  -8.958285925358554e-05 -0.03419888621521829 0  0.0408206157974496 -0.004888878275233425 0  -0.0004554566153229513 -0.003908910569860181 0  -0.02608789832136335 -0.06499759037056502 0  0.0264487615341285 -0.04506629249274142 0  0.04255492643520292 -0.06438105766765526 0  0.04692721892073965 -0.08839031074668123 0  -0.02420957147899235 -0.02646807164530151 0  0.0472237380886561 -0.08398899187439839 0  -0.01426662600872372 -0.01744265354221996 0  0.006383126621359661 -0.02963727494368923 0  0.005862524697869288 -0.03094197226506502 0  -0.02698292289909236 -0.04466206919367471 0  -0.01717487932009995 -0.02452179983031795 0  0.01395223960042539 -0.06652625267125517 0  -0.0198623987950375 -0.08746526387037014 0  0.02952177947891114 -0.0872640598941934 0  0.04642361963486333 -0.06343859674729589 0  0.0473451216018852 -0.06304781200663498 0  -0.03474060253421898 -0.04181306064043848 0  0.0008726826335360019 -0.004395852988681483 0  -0.02684351859675519 -0.01770430768454672 0  0.0203655960600082 -0.06510386362716693 0  0.007300179052080155 -0.07161402087449757 0  0.0373938718280502 -0.04892330244107405 0  0.02183944547771194 -0.05112993126293795 0  -0.04639504690075744 -0.06855139854040652 0  -0.03479025191099309 -0.01186080835524195 0  0.02915950009346701 -0.09157454939689688 0  -0.02703531166760697 -0.0008258265909873926 0  -0.03699718306490742 -0.09454793218101995 0  0.01030137327061868 -0.02880469301748497 0  0.004944708699273662 -0.06956054060546803 0  -0.02795048703198682 -0.01582699928889996 0  -0.02103588901039063 -0.08362250305916248 0  -0.007124474668777071 -0.05325426077284452 0  -0.01171875 0 0  0.03217225200740424 -0.06291179082327657 0  -0.001090245675170998 -0.009480110754222454 0  -0.0190382526222481 -0.004017528394286406 0  -0.0198773940447828 -0.00493920373401465 0  0.03210257682027461 -0.09433744853345451 0  0.03238051290064685 -0.09606307423808685 0  0.002221014789256907 -0.02509104779178116 0  -0.009132843558503904 -0.09126071493969405 0  0.02149258373010109 -0.009856444529117695 0  0.008562379365762882 -0.07709405179297166 0  -0.03521008864432516 -0.04707686078850769 0  0.02009542960534591 -0.06846221784755536 0  0.01385774954740622 -0.02114670248076206 0  0.006507199666406525 -0.07333033994859224 0  0.00605439333804646 -0.07208281060645735 0  0.03832894978694499 -0.02290377563916507 0  -0.04718323430556561 -0.01881920058759833 0  -0.03253581057975256 -0.08946972366645815 0  -0.03173334853770272 -0.08842701753381631 0  -0.03342923716282704 -0.0878907245687115 0  0.01069457154153037 -0.05089877966091214 0  0.009840535541498115 -0.04959733193642754 0  0.01088263475666163 -0.04902090966348621 0  -0.02680930536234954 -0.04666003675116018 0  0.01187970110137977 -0.04813166056078842 0  -0.02622700917382548 -0.02629386303998176 0  0.01151106248263136 -0.09400486464405908 0  -0.04240129222456112 -0.09484820984201839 0  0.002249327173578497 -0.06907534484481434 0  0.001205997052473012 -0.06827268237495725 0  0.002706053406575788 -0.06730594292356223 0  0.01280047863764668 -0.05101616930860007 0  0.01360756788382926 -0.05197635610476043 0  0.01264356190668342 -0.0528989283669301 0  0.04306318221999975 -0.02877928413090293 0  -0.0254201282764292 -0.07021547553067109 0  0.009687409995305618 -0.03267908589574088 0  0.006783988844795588 -0.0505194362014715 0  0.007120138062303013 -0.04866385376551943 0  0.03885385049521441 -0.01793739776695516 0  0.01416875786208595 -0.005079437950269333 0  0.02425051899219098 -0.05709906513470061 0  -0.04207142573145725 -0.07802944083999425 0  -0.04172458074036196 -0.07707091164913726 0  0.01446550526305459 -0.04058365632871429 0  0.03501549499525116 -0.0404596706002494 0  -0.009372634607171314 -0.01397706147777674 0  0.02594255816622789 -0.07723888350299131 0  0.006506568158488819 -0.03764332008967722 0  0.0114594019521124 -0.04517950637947311 0  -0.003862085189493374 -0.06039887220466181 0  0.009906265694967265 -0.07566665609548856 0  0.04531492563229527 -0.0655808871056601 0  0.04060745045836 -0.02286033727081999 0  0.00590151899506045 -0.005068288573708825 0  -0.03834874750330462 -0.08153968196210375 0  0.03013258487192652 -0.00805508530128656 0  -0.01325833336652453 -0.08705166166273834 0  0.01708364622596428 -0.05680254428506996 0  0.02898930230593298 -0.002930986470588723 0  -0.03423223957088024 -0.03656818581061361 0  -0.01232674090114879 -0.02833503647529587 0  -0.02292701748125921 -0.08796996578679697 0  0.02086303050704924 -0.09921070905972626 0  0.004032865171490749 -0.01198096883959997 0  -0.01948475510636413 -0.02645314350799265 0  -0.02285032078172284 -0.02131979970780895 0  0.04589774978876416 -0.07172421411386323 0  0.04609952237796098 -0.02902360782983173 0  -0.01657730022034132 -0.005332856808752643 0  -0.01802106666070995 -0.004642980785121143 0  -0.0254061474997737 -0.08521229751286209 0  -0.04541720696928515 -0.08801071675223403 0  0.03227042315918131 -0.09297528746722793 0  0.03381551345844221 -0.09190902412425926 0  0.03243669673213118 -0.09167195606574829 0  -0.03478084515456193 -0.01599402680889357 0  -0.03587277989592137 -0.01674404724915646 0  0.03524603776447358 -0.03537582717594945 0  0.005230942773610271 -0.0172370022725673 0  0.01754227937874941 -0.03299772239930113 0  0.030745421199946 -0.02995046001493072 0  -0.03697132479672224 -0.0587860046254276 0  -0.03662649231904603 -0.06706583955272194 0  -0.01506550366936382 -0.08328872884611388 0  0.01214089306623708 -0.03846018764596161 0  -0.02081070864908346 -0.04895532823518764 0  -0.02173644362962581 -0.04926887232537092 0  -0.01574691997768739 -0.01777297535975168 0  0.02406992311061433 -0.0868143061162 0  0.02538581181757417 -0.08793616208357846 0  0.02358938195410185 -0.08798818117840176 0  0.01543527305625892 -0.05584305969289456 0  -0.03649739603135942 -0.04249615656022021 0  -0.02979583571832917 -0.01161392291340081 0  -0.03063838146431719 -0.009905513342752637 0  -0.03117872522023871 -0.01082666708211158 0  -0.02339111678337448 -0.0677491677851791 0  -0.04117231568345518 -0.04285192280224437 0  -0.03229720513777752 -0.08767780603277395 0  -0.03172630251435768 -0.084430415469781 0  0.02900372388625908 -0.009624585597665191 0  0.0002490316069650425 -0.09466985079241803 0  -0.02995080473102889 -0.05077742687469285 0  -0.03145897246148516 -0.05182276453368537 0  -0.02979046662647277 -0.05225566287991855 0  -0.02904013730309853 -0.05286838572092736 0  -0.03993650164793016 -0.06531260846344238 0  -0.03980725762357529 -0.06409902866974233 0  0.02335402733504512 -0.07352170037799484 0  -0.02255468957827344 -0.009547788123282259 0  -0.03695250115765111 -0.04450847014984265 0  -0.04043965931668531 -0.08519458576962222 0  -0.03059390568124336 -0.04070957759771651 0  -0.02986953902954508 -0.03959422928280389 0  -0.02040448800366846 -0.06472719556620821 0  0.03533049619260299 -0.03346307341137558 0  0.04914630365298873 -0.06289062500000001 0  -0.03889303694185734 -0.01245938560937505 0  0.03756068102195401 -0.07957034681150893 0  -0.0303510971618226 -0.0236723061687152 0  0.0435645044505058 -0.03312431010799378 0  -0.03616522535255044 -0.005506325121574977 0  0.04237996452850291 -0.05634344833177762 0  -0.02100149203260149 -0.09166191105594915 0  0.01362039433305353 -0.06170592463832091 0  0.03294978194050741 -0.06120465259964299 0  -0.01558423823330282 -0.06935207757527274 0  0.001886945529891158 -0.08821511882547421 0  0.02682569471433121 -0.09613158986263645 0  0.02634056611598118 -0.09906753777004204 0  -0.004916558880928733 -0.01787891012511184 0  -0.004907719249405544 -0.01933994315723186 0  0.004275957726732707 -0.07986049407684445 0  0.0004482107340937543 -0.07995802695365144 0  -0.02818375247992157 -0.09181892537511363 0  -0.01487916677637652 -0.05847481114530208 0  0.04910993139705523 -0.006613416698875603 0  0.04821291012229 -0.005600596340300064 0  0.04666498195413728 -0.06138021186999305 0  -0.00172326406528549 -0.09433966019102226 0  0.03289464954770434 -0.04390632494346224 0  -0.01219145060451515 -0.004725326118245691 0  -0.0266302701600128 -0.03332555695875326 0  0.01704148885002283 -0.001349484001385607 0  -0.02075335239985042 -0.04398616997563229 0  -0.02812034957135561 -0.07596950163326241 0  -0.02764205358144402 -0.08021642785421954 0  -9.876488885921496e-05 -0.02934458678769282 0  0.0003231914658381049 -0.03058039795277918 0  -0.001028267953394167 -0.03105528137551992 0  0.03343113315790159 -0.08729449420614543 0  0.02928853104752132 -0.01551303979824642 0  -0.03282788459233326 -0.06406289832575182 0  -0.01767402003928482 -0.006417652438149254 0  -0.01496530621447331 -0.07250561543777531 0  0.01748438262561231 -0.04065720474377963 0  -0.0386969764070352 -0.05938781893340563 0  -0.008282548404493256 -0.09772213850309849 0  0.0342842885522349 -0.06534060863355841 0  -0.007087890981607483 -0.006675012278423469 0  -0.0198669579619466 -0.05291184225172728 0  -0.02094486113456725 -0.09328969933813547 0  -0.01953574223320931 -0.09278947360258293 0  -0.007778569631509083 -0.036157725992904 0  0.0296212683030506 -0.001324281342074181 0  0.03532841048910324 -0.09192593812251496 0  0.02509843182091249 -0.08974572226686897 0  0.01257495961530174 -0.01531520158349701 0  0.02920645105814327 -0.04613081483329989 0  0.0353578354643892 -0.03795367164331642 0  -0.04513313584988467 -0.04847136557443069 0  -0.002148525032543986 -0.004144751749148507 0  -0.0368451271168144 -0.06251670967846075 0  -0.003793369719209177 -0.07176670001543438 0  0.03592544218942953 -0.08296693896341253 0  0.02141129178269495 -0.02775086744089398 0  0.01302805138952573 -0.01169927498933734 0  0.01174425576979724 -0.01188125891544241 0  0.01292018002319111 -0.01340965316776556 0  -0.04250260131214933 -0.02729289510018227 0  -0.04022674770921472 -0.01000765675524914 0  -0.02259305769995758 -0.09221719407403502 0  -0.02386751806077108 -0.09242905964182128 0  -0.0237609936023243 -0.0936866277216634 0  -0.002617059848491096 -0.09809950414059886 0  -0.009902024132998235 -0.04666794615761185 0  -0.0359596475560881 -0.03395218196303384 0  0.04161997741461495 -0.009318664172140289 0  0.04095498801886317 -0.01034910236429446 0  0.04042206759359106 -0.008558710667980519 0  0.03590859418183569 -0.06052854040231501 0  -0.04718408033615334 -0.02072141556098242 0  0.003262108541058228 -0.06231198324922958 0  0.0396089753380485 -0.08313888457154509 0  -0.026101503867541 -0.0008121978308423247 0  -0.0370945155533531 -0.0542536677467832 0  -0.01504412792731695 -0.09092039554623517 0  0.03208353012691267 -0.06003056860234963 0  0.0312277912122631 -0.05910381270504321 0  0.03070348475982729 -0.0608857057359212 0  0.04444166268379544 -0.0409679725902901 0  0.04268792043867073 -0.0403264593319775 0  0.04164435306362804 -0.02850859069187434 0  -0.002180229063880278 -0.06826117546071656 0  -0.001385278843802583 -0.06772385110413594 0  -0.02320177157400361 -0.01208299863508116 0  0.02004551622594264 -0.08643715444526492 0  0.0490770903693161 -0.02016537718802149 0  -0.03141042456651934 -0.01779706960723104 0  -0.03469999984879381 -0.02656935610064107 0  0.002126241743111922 -0.05859693942348791 0  0.0006849992671489164 -0.05846730223594222 0  -0.04752200820909599 -0.06156229232700389 0  0.04140625000000001 -0.1 0  0.04582223730461169 -0.06713663731254771 0  -0.01903661114704233 -0.04172383802673322 0  -0.03273337015887 -0.006881113896129071 0  -0.02328516351678463 -0.00196773928930235 0  -0.02199936450044021 -0.0009299788599215216 0  0.01037325745867325 -0.04363464777852918 0  -0.0006605452847005307 -0.01898760949298445 0  0.03252589971679373 -0.07511461332844585 0  0.0435167888965369 -0.002227787400059394 0  0.03626363310118495 -0.01146206682000394 0  -0.03277139732006855 -0.02806723521279576 0  0.02230006589042756 -0.02533378028450694 0  -0.0006363148320804592 -0.09808662886916021 0  -0.04772087697825277 -0.01502115253830119 0  0.02286654011873607 -0.003202934349397361 0  0.03340300046118543 -0.08251277699562629 0  -0.01228663028848486 -0.04536114470582806 0  -0.01095436421824341 -0.04664553725481986 0  -0.001539330767261803 -0.02062137848547054 0  -0.04056000713671814 -0.02265567145474869 0  -0.03511108300974933 -0.03115652525849006 0  -0.02876651190585347 -0.02999501399087868 0  0.01197597527725494 -0.01327958617843375 0  0.007116303388808644 -0.02086610878104588 0  0.008258664898024891 -0.0220302651104798 0  0.02556722845726671 -0.01505007606658619 0  -0.03060147146319461 -0.04956812992727216 0  -0.03088528289280505 -0.05064955627957508 0  0.007387462513345955 -0.09511105341226854 0  -0.001720628828709013 -0.010800089548199 0  -0.0005337369109396936 -0.01129308607726869 0  -2.615486604709658e-05 -0.009894973819567766 0  0.00182605609828887 -0.03625563499664994 0  0.006334028947776521 -0.01317160959229366 0  0.0339664214886646 -0.05820363511108297 0  0.03295843442552516 -0.05715867700888664 0  0.03033344600704021 -0.09630302172975089 0  0.0353507796373372 -0.04399161545857351 0  0.007810386482361345 -0.06084029884586934 0  -0.003395146861588674 -0.07998747134834745 0  0.01462859287465156 -0.006917097909391386 0  0.02999611825760449 -0.08158250087816157 0  0.02225676590226494 -0.05629528979475167 0  0.03250892232298233 -0.05548966740732563 0  -0.04132257157575352 -0.01124356107833775 0  0.04334325653600175 -0.02078466591957309 0  0.0441033321530383 -0.02023662090557563 0  -0.009739529730414549 -0.04934847324874356 0  0.03329133905686636 -0.07401516662301685 0  0.01225993236157336 -0.07397003010774279 0  0.01178356894511755 -0.04999986972550764 0  0.00106644793988513 -0.0664999045116909 0  -0.002732332771523338 -0.03197775238081935 0  0.03856897576559262 -0.08792783569860579 0  -0.001680159617580857 -0.03992148122136437 0  -0.03912443289873832 -0.05807548322708439 0  -0.004961999040353305 -0.08540146872473399 0  -0.03063673419157685 -0.07617181181169598 0  0.04200083913778782 -0.06531216657834439 0  0.01995571823274617 -0.0336363817888802 0  0.02959077893597062 -0.04491754472630924 0  -0.01224097136953716 -0.0309679472485145 0  0.03422780473222609 -0.08293335077084869 0  0.03000941117689447 -0.04779512887167854 0  0.00432721572740421 -0.07136867578236723 0  -0.01728617201923137 -0.09516679035493752 0  0.03222167790044101 -0.08618858124987296 0  -0.007779893250011577 -0.01981086759850706 0  0.03120414602524544 -0.05448419573987705 0  -0.04020334418767658 -0.03504777183931556 0  -0.0004415536963045064 -0.05607677620918641 0  -0.001724550034646499 -0.05740602234894641 0  -0.0004962918698547625 -0.05702475331590914 0  0.003014037150459883 -0.01936570382781423 0  0.003004053110595394 -0.01841441847305324 0  -0.04907592409605294 -0.03267002710426911 0  -0.04901743259719168 -0.09144231886555231 0  0.0459844681493162 -0.05383036622211057 0  0.0343341108325836 -0.02323475993077443 0  0.01719294701843624 -0.09722847580443941 0  0.005557672746373326 -0.08052350243854786 0  0.01961196160016123 -0.07511299212938266 0  -0.04819590943985536 -0.04440061669466341 0  -0.0472490718582827 -0.04339773934221837 0  -0.04045368507006387 -0.02895310879656522 0  -0.02044874147870863 -0.07260230241053695 0  0.03034343951031911 -0.04670036900537657 0  -0.04378907613304768 -0.08178944738620587 0  0.01770289946421713 -0.009795886303687761 0  0.04404251332231296 -0.0143467561796311 0  -0.001856383375559823 -0.008542241346029236 0  -0.002807441523988448 -0.007198952015093858 0  -0.03586308173025191 -0.04413906767897585 0  -0.03403084092746925 -0.04454902781651477 0  -0.02032225932088758 -0.04754415382348278 0  -0.04005875255420394 -0.09516863984030709 0  0.02792866755998909 -0.006311449559348149 0  0.02685580369267168 -0.007379257064693779 0  0.02687905472753384 -0.005553368979659828 0  0.0365946468618206 -0.09521123160841082 0  0.0422273144173532 -0.002462980151511083 0  0.01980316650407046 -0.07672905007473299 0  0.02102661245930893 -0.07799768727982689 0  -0.03739505161024376 -0.07231826393969655 0  -0.01001619133718506 -0.01534121219931055 0  -0.008645763076380882 -0.0158553745260683 0  -0.009296773938476974 -0.01703378336489513 0  0.02270961524404061 -0.06746426266052756 0  0.04920115892315069 -0.06765254175758058 0  0.04732831110769806 -0.01797814274634565 0  0.04812123501159599 -0.01716471227947971 0  0.04916128612476049 -0.018359375 0  -0.002005136517277815 -0.01929312126221326 0  -0.00207545035566581 -0.01779894626752748 0  -0.02042417185329419 -0.06589889357522795 0  0.04532354945310373 -0.08752574961750953 0  0.0466628137625122 -0.08694588278366366 0  0.01868540772190198 -0.007193276492523639 0  0.006019230145761215 -0.0821757857263533 0  -0.01654745977045508 -0.03996295689621158 0  0.01802285885672296 -0.09324830752638869 0  -0.03439243321543754 -0.06642532941547927 0  -0.0248173296251506 -0.06126136584804399 0  -0.02483658032508694 -0.06380252332771852 0  -0.02320642102577031 -0.06473132811772554 0  -0.02554611531860646 -0.06287994454322336 0  -0.02966996450485564 -0.008761880201616726 0  -0.04908131991115329 -0.05925397016812488 0  -0.0477005638987621 -0.05810487828865786 0  -0.04903976629536955 -0.07047751606261739 0  -0.01991922391577695 -0.007985040904139887 0  -0.02782707001839867 -0.0975816386512255 0  0.01025269144526194 -0.01772205269568173 0  0.01981568308194647 -0.06066965138537641 0  -0.02511987565207768 -0.06704878437453182 0  -0.02621771003736921 -0.06728445995262927 0  -0.02470533158331304 -0.06844585484348407 0  -0.00225699581000832 -0.0244618613904774 0  -0.0008398284745849344 -0.02544592491264217 0  -0.001605115551312575 -0.02361622527466405 0  -0.007317826685402761 -0.06552035443668416 0  -0.02515788963346684 -0.01794165008438613 0  -0.02404241458860297 -0.01738376567957525 0  0.02494895252685176 -0.097800632421619 0  0.02506012434201328 -0.0990188329226465 0  0.02421875 -0.1 0  0.04908846157743599 -0.02669683748756522 0  0.0198676404541989 -0.02445623958198101 0  -0.02678943434596388 -0.0276775910849086 0  -0.02842289713041276 -0.02858799370454402 0  -0.01927239356679197 -0.06448921258746014 0  -0.01827783927755782 -0.06342663378986554 0  -0.02025033506777995 -0.06326042293130238 0  -0.04423541862142007 -0.05848407418932738 0  -0.01488176736546953 -0.0862146350651974 0  -0.01343351652752321 -0.0315387373507349 0  -0.01190499032632854 -0.03253692413037243 0  0.03466531614838792 -0.01129632244118829 0  -0.01123517501994029 -0.04171933143856084 0  -0.01223630230617879 -0.04167364683826815 0  -0.0110584107045549 -0.04024368065869449 0  -0.02450688262819544 -0.07177067793003981 0  -0.02448507483453285 -0.07285082565392197 0  -0.02621739123341262 -0.07244682564942106 0  0.0319863269032551 -0.0792621253203367 0  -0.04127734757788519 -0.06886922849441746 0  -0.01757812499999999 -0.04674479166666667 0  -0.02002690769785116 -0.03908767563548216 0  -0.008482989141681456 -0.05457673914168145 0  -0.01757812499999999 -0.04283854166666667 0  -0.017578125 -0.048046875 0  -0.01367187499999999 -0.044140625 0  -0.01757812499999999 -0.044140625 0  -0.01367187499999999 -0.04283854166666667 0  -0.01777936351409673 -0.0413352198192366 0  -0.013671875 -0.04934895833333333 0  -0.01124057465081349 -0.05473015798414681 0  -0.01359053947936003 -0.0455240438539733 0  -0.013671875 -0.05065104166666667 0  -0.01627604166666666 -0.04153645833333334 0  -0.01627604166666666 -0.03502604166666666 0  -0.01627604166666666 -0.048046875 0  -0.01497395833333333 -0.048046875 0  -0.01367187499999999 -0.04674479166666667 0  -0.01757812499999999 -0.03502604166666667 0  -0.01627604166666666 -0.04283854166666666 0  -0.01627604166666665 -0.044140625 0  -0.01497395833333332 -0.044140625 0  -0.01627604166666666 -0.04674479166666667 0  -0.02018229166666666 -0.036328125 0  -0.01888020833333333 -0.03893229166666667 0  -0.01746744540998985 -0.04012369540998986 0  -0.008463541666666668 -0.05325520833333333 0  -0.009765625000000002 -0.051953125 0  -0.01497395833333333 -0.04674479166666667 0  -0.013671875 -0.048046875 0  -0.009765625000000002 -0.05325520833333333 0  -0.01106770833333333 -0.05065104166666667 0  -0.01497395833333332 -0.04153645833333334 0  -0.01251231792202582 -0.05339773458869249 0  -0.01496977927369169 -0.04023019594035836 0  -0.01497395833333332 -0.04544270833333333 0  -0.01627604166666666 -0.04544270833333333 0  -0.01888020833333331 -0.036328125 0  -0.01497395833333332 -0.04283854166666667 0  -0.013671875 -0.051953125 0  -0.01497395833333333 -0.051953125 0  -0.01106770833333333 -0.051953125 0  -0.01106770833333334 -0.05325520833333333 0  -0.01888020833333332 -0.03763020833333333 0  -0.02018229166666665 -0.03763020833333333 0  -0.01497395833333333 -0.04934895833333334 0  -0.01497395833333333 -0.05065104166666667 0  -0.013671875 -0.04153645833333333 0  -0.01236979166666667 -0.051953125 0  -0.01170928317462171 -0.0848133165694825 0  -0.04746104087902107 -0.09400185459055481 0  0.04923576224640627 -0.0447983061474632 0  -0.02525496088224053 -0.006686809256179025 0  -0.01144294257651357 -0.08294987635548058 0  0.004187056084757059 -0.0174909013154807 0  0.004956299967612975 -0.02925577465414573 0  -0.02736242880760032 -0.05733300461738427 0  -0.01175255892433954 -0.07153566322158965 0  -0.009907215557868925 -0.00271922808993598 0  -0.01065553210078236 -0.002174656620882461 0  -0.03731603885784353 -0.09642829316066261 0  0.04741128984434471 -0.0381816287621075 0  0.04910751962721693 -0.03879897022804741 0  0.03045076294928691 -0.08378069428065418 0  0.02964450906763172 -0.08543555816283865 0  0.008547418294946854 -0.05512729379109226 0  0.007011634256158509 -0.05586723245959743 0  0.008161969194859299 -0.05683656054974873 0  0.01909632744061199 -0.02213896447480362 0  -0.02117069770551824 -0.02195271586122459 0  -0.04917082857814484 -0.006674685043574075 0  0.03300184241535328 -0.01396868459770104 0  -0.0304453632382944 -0.006023503107314159 0  0.02884092481705424 -0.05266607306474345 0  0.005906017627746972 -0.05315981657006714 0  0.007015645182660467 -0.04630070973840075 0  -0.005527143575489561 -0.07783516448830217 0  -0.05 -0.06796875000000001 0  -0.04914367745764759 -0.06760329557272866 0  -0.001131573063074324 -0.03628387883597454 0  -0.03950015233419265 -0.08441793703780333 0  -0.01158954120258284 -0.06524704405445805 0  0.0489971273512072 -0.05766738729926996 0  -0.04791860752793854 -0.08057022187689659 0  -0.0367421005484798 -0.07983961614989095 0  0.003355089518925556 -0.09768087681371665 0  0.002933241617271911 -0.09909900695621338 0  0.01765008146230513 -0.03093210257742156 0  -0.02289057194609103 -0.09081163489496626 0  -0.01696651777184413 -0.002203310042224891 0  0.008431045040126635 -0.01039975220467283 0  0.00852652615378641 -0.01159309476771739 0  -0.01445280138268001 -0.075044497728118 0  0.01298866585184439 -0.07204024928483399 0  0.02918236004223545 -0.02895079477937653 0  0.03024159431237551 -0.01711737846521972 0  0.04777350262458545 -0.09074675786299151 0  0.03397843688452801 -0.04522730484080808 0  0.04665264325138283 -0.0585815807150986 0  0.01560597746239361 -0.014488830270962 0  0.01585373620070328 -0.01333332409730614 0  0.01727261367685978 -0.005568847373201718 0  0.01648691419436604 -0.00686402622716137 0  0.04717443887674124 -0.06599847813264911 0  0.02442737293368497 -0.02621003297897875 0  0.004173172260262456 -0.03181702341298858 0  -0.004319434823188036 -0.03091278851292261 0  -0.03159209915673612 -0.04681495115331957 0  -0.02182596837141344 -0.05030279387457756 0  -0.02267668764666572 -0.04868455411705862 0  -0.0485360484042188 -0.05170416523643218 0  0.04422128688533682 -0.07544669287636722 0  -0.03554417924957315 -0.08254855618846031 0  0.04453125000000001 0 0  -0.02989366705536821 -0.07752333599082614 0  -0.02189503222795334 -0.06437190593956979 0  -0.04227251181741274 -0.06602073635719527 0  -0.03637762433288267 -0.02704675532664336 0  -0.04911572089301979 -0.07615926293935203 0  0.03914040245714838 -0.0009162177944763145 0  0.01638820915775221 -0.01082683169439529 0  -0.02101893657790409 -0.005912904601708919 0  -0.02000249222973641 -0.08962716657860358 0  0.02324013575194717 -0.08517819357985239 0  0.02268261783386994 -0.08340710714917614 0  0.03892980741767132 -0.07748175676879636 0  0.03651214130114392 -0.09279537354833878 0  0.008876672169122534 -0.03645368536902902 0  0.01167622455946482 -0.0184284631975052 0  -0.03719375151033824 -0.02871537563391759 0  0.02756253558773641 -0.05911998553816599 0  0.001910886714655236 -0.01799420495528897 0  0.01533979653135636 -0.01734214000398227 0  -0.04309518438180893 -0.09806921699058585 0  0.04522567478343634 -0.05597186860377051 0  -0.04229932594961471 -0.04775297254932513 0  -0.04176602501860894 -0.04898815780149983 0  0.04807724983062204 -0.0576424574166904 0  -0.04278624902476532 -0.05235381519330373 0  0.008754958866336232 -0.09777775087637246 0  -0.006989799172729429 -0.08972715648714501 0  -0.007163252806236515 -0.0887501839426406 0  -0.00857702513426767 -0.06529587180790908 0  0.01302257226288 -0.08314314645070235 0  0.01685144169736676 -0.08492142022901721 0  0.01697273737496608 -0.08397707050396494 0  -0.03492498189452839 -0.02118512944297373 0  0.02569445460256214 -0.05921435684405685 0  -0.0363408146020972 -0.06074855536498554 0  -0.01002933970196876 -0.05621018700196125 0  0.03258148795726441 -0.03311001368628642 0  -0.02251979372896711 -0.09801144486310882 0  -0.02713038067529957 -0.07056503179777958 0  0.04081148799535009 -0.06352176223435041 0  0.03993116885564911 -0.06189203431725857 0  0.03738653561137228 -0.02252041259049583 0  0.02735954752085004 -0.09435551890405809 0  0.02632465639863054 -0.0952724974779347 0  -0.03625296173196395 -0.01132950624559119 0  -0.03925490726690933 -0.09268296852545714 0  0.006426234588612804 -0.0751361560113091 0  -0.00925249365205813 -0.03431756836434258 0  -0.02392713814169753 -0.05375536708164139 0  -0.006892311363929759 -0.02473591805601373 0  -0.002199574059710667 -0.09632511156808761 0  -0.02332242402604674 -0.0184024789756507 0  0.02643971428294951 -0.001157808486995301 0  -0.04725515401289984 -0.08870916366185565 0  0.003858714433656477 -0.06753408856041501 0  0.04186024539143762 -0.08304144374605449 0  -0.01575506123522042 -0.08075792536870217 0  0.01124953058036724 -0.01266604704062723 0  -0.02985935474993049 -0.01565834809771138 0  -0.02897388315912116 -0.01437088396303334 0  0.02739225143171005 -0.06164500071229956 0  0.02775162277170303 -0.06023760541326914 0  0.02607853122095558 -0.06066193897917622 0  0.006153460050881457 -0.0599474378364447 0  -0.03869322791692038 -0.06124551923847425 0  -0.024474885871244 -0.08829019519314188 0  -0.004301837917026294 -0.02934060619057389 0  -0.005716258818264001 -0.08699587348292827 0  0.04638235134166641 -0.05040079934677721 0  0.0466302727562305 -0.05221119261612302 0  -0.04516961396824103 -0.02847477888196409 0  -0.0388318987687221 -0.09680796557202236 0  -0.04069817589215834 -0.01194743356881049 0  -0.005449611602497267 -0.02606699672324162 0  0.01934591175507361 -0.00538158737206821 0  -0.02156709863113867 -0.01522925766808925 0  0.0007124044100042229 -0.02513869204425235 0  -0.003334072591147002 -0.01549671548879888 0  -0.006189043680019182 -0.00190957559247397 0  -0.04577067140173482 -0.02778419420951233 0  -0.02506482694149455 -0.09111960363648083 0  -0.04498787543529217 -0.081460980051362 0  -0.01108284788305809 -0.04807715409944952 0  -0.01236979166666667 -0.04936409788305809 0  -0.01108249982205213 -0.04937924152735712 0  0.0273383432426242 -0.0101251242954566 0  0.02711087235409732 -0.009212342401290286 0  0.0278076298535508 -0.07031525114377787 0  -0.01236979166666667 -0.05066618121639142 0  -0.02148089453193803 -0.01023167216827377 0  -0.02634800912055267 -0.07544098011963203 0  -0.02710557805214817 -0.07470987519253676 0  -0.03380757103458035 -0.05289142692053887 0  -0.02622548734551535 -0.05731648946805566 0  -0.02739938075609426 -0.05583908567569324 0  0.03543552234248128 -0.07217082752449473 0  0.005827975926327362 -0.09770401105252351 0  -0.02181922507498636 -0.01807160158696928 0  0.03768289247939856 -0.08140995371271188 0  -0.03441709308544984 -0.08743241815155996 0  -0.04436808289946071 -0.0779683231248512 0  -0.007622842885336454 -0.0009093834009628908 0  0.005940652857111115 -0.03434779783070278 0  0.006689290754319852 -0.01026023854138922 0  -0.02428832537815496 -0.04092065955469146 0  0.03255076801233658 -0.08704593726284121 0  -0.02255694227446202 -0.01672178999030914 0  -0.004330440125665583 -0.09199919951082243 0  -0.0403595063779132 -0.005862673635045277 0  -0.02698836303498992 -0.02487035190983687 0  0.04168418737858332 -0.07347678215038127 0  0.04246333571974979 -0.0745866169858151 0  -0.02177828770462931 -0.04492063818992848 0  -0.01751945289906649 -0.05735088090544523 0  0.03226415984509906 -0.06771949343136308 0  0.003331776504552923 -0.08063476282725385 0  0.03260725574415967 -0.06587785693951646 0  -0.01879184712982265 -0.07169654774068908 0  -0.003148262898251738 -0.0276536179664952 0  -0.04921875000000001 -0.1 0  -0.01900486556782883 -0.009440565132518949 0  0.0455692934933758 -0.06251090524495348 0  0.03944677929937754 -0.04518380362523058 0  -0.0007321762516870251 -0.04129207349684354 0  -0.02870276140633682 -0.02520178054597902 0  0.02165986433296126 -0.02078282074596426 0  -0.02820224373938455 -0.05540697513817897 0  -0.02974486365525692 -0.05631699227896765 0  0.04196233422980231 -0.07855870194479492 0  0.01838564992466784 -0.05962349123910229 0  -0.03128423440283653 -0.02231194616487875 0  0.01391564546622856 -0.07478113640052553 0  0.03356310256280037 -0.05259432149428797 0  0.02948894867132948 -0.0928491711207496 0  -0.04154924552622057 -0.06715261025810733 0  0.01640625 0 0  -0.004671400010369871 -0.04377116190968001 0  -0.03019851957397811 -0.08554778049867537 0  0.005610943761412292 -0.09512478665696447 0  0.04917893564103157 -0.053515625 0  -0.0002977700924714444 -0.08873397370391026 0  0.03811534994489578 -0.09761256028772124 0  0.0372391149331318 -0.0971466880302144 0  -0.01235122334611684 -0.04027446001830694 0  0.04412399610967733 -0.01895226402288812 0  -0.04224572107506803 -0.01738143893829506 0  -0.03633188760714366 -0.07377061158431512 0  -0.02290686180215466 -0.0133312247135152 0  -0.01779812487613693 -0.05522641253309168 0  -0.01121523421311183 -0.07459334994292846 0  -0.02831831320616849 -0.03619231823073368 0  0.03554488966156254 -0.06376055319135462 0  0.04925504419184423 -0.008339985617935955 0  -0.02286906793354997 -0.06176674192714504 0  -0.03519187069262128 -0.04510910969535406 0  -0.03572150436948923 -0.04585541221224169 0  -0.005191657443585949 -0.06859039956001997 0  0.022280618235824 -0.03041838741107348 0  -0.01573777808905109 -0.01614990561580117 0  -0.04794454359688066 -0.01932997427293141 0  -0.02954381444470074 -0.05416301699355854 0  -0.01557125145344772 -0.06067892786921573 0  -0.01538998710239662 -0.06174653771792227 0  -0.005525988404445862 -0.04258833532414186 0  -0.04508476744881246 -0.05671454775400695 0  -0.0336374254521364 -0.08590716923690045 0  -0.03281961723930777 -0.08642766491381801 0  -0.03370616403162318 -0.08485941103441325 0  -0.0001407470028759614 -0.03889688516914318 0  0.001231015952916845 -0.05040417476073338 0  0.003078733012959913 -0.07569022041988729 0  -0.04344373049149773 -0.05997825579261163 0  0.0193266843928993 -0.008946327162994544 0  -0.007603080918921772 -0.06261152536803279 0  0.03570993285230691 -0.07988036971770326 0  -0.02790445774578386 -0.06526719525300489 0  0.01643915231306551 -0.08944757871400438 0  0.002128989392208372 -0.0279034087560167 0  0.001126131302786691 -0.02889213894621216 0  -0.01557215454686337 -0.009575270254539688 0  0.006500753474052131 -0.03192659696621525 0  0.007731646489208511 -0.03266445967413966 0  0.02083675276991681 -0.09436008788028634 0  0.04075294444583654 -0.07403078931767527 0  0.03612625135596374 -0.07864675235882244 0  -0.0248536612260974 -0.0990684728148685 0  0.01661861069968517 -0.01600622100361348 0  0.02514055711015142 -0.08059693934838175 0  -0.05 -0.08671875000000001 0  -0.0490648577525187 -0.08619793514798058 0  -0.01365189123507632 -0.0618532088571431 0  -0.03765260157878168 -0.008297635012379432 0  0.02526309194814631 -0.04103798509117667 0  0.02605772884506995 -0.04025710444293834 0  0.02647897332174739 -0.04200605230186706 0  -0.0395555135310201 -0.07466019467746904 0  -0.0385514817481959 -0.07324148656137597 0  -0.04024300668493484 -0.07352158424578872 0  0.02180201836595711 -0.003124414452453085 0  -0.02808452853205571 -0.08684089300739448 0  0.03961050859403832 -0.09434906016657625 0  0.03981917371753296 -0.07111567167481594 0  0.03828667347267038 -0.07055401535105148 0  0.0396014814592049 -0.06956821240189259 0  -0.04709100259994461 -0.004293609551379085 0  0.02031622463629585 -0.02753389998372997 0  0.01950824708420441 -0.02704222717015124 0  0.02190251940819433 -0.02676548960025934 0  0.0009593077629830046 -0.02380254339584558 0  -0.04083147745875645 -0.06551644463575779 0  0.03314955115610424 -0.04685825721998019 0  -0.007069267580090914 -0.09663029012644513 0  0.0447229037158688 -0.00397408727291413 0  -0.03457714716556041 -0.09830898799870073 0  0.03512216746885117 -0.06688843539661982 0  0.03489907940813013 -0.06784083807915037 0  0.03598485495743507 -0.06648155169692514 0  0.03667716107315687 -0.06798334229922877 0  0.01395988088739715 -0.03874147134799821 0  0.03739040320166066 -0.05370868858500553 0  0.0118674235096243 -0.06156986607905079 0  0.02516075017581893 -0.06966838237079906 0  -0.02046889642500763 -0.09438217564782164 0  -0.02604523117935909 -0.04975103933860806 0  0.02476244712361734 -0.06092983675148752 0  -0.04445031976354009 -0.002183219265254921 0  -0.04577357615208096 -0.03579661466297359 0  -0.01372072683952093 -0.06976374356798766 0  0.03917706719455191 -0.07913096584404163 0  0.01050397219663723 -0.09680312501854929 0  0.02940147327053499 -0.07600469769457917 0  0.0280745603185427 -0.076479007161881 0  -0.01728016062245101 -0.003994478295956245 0  -0.03643920341729294 -0.02137098161746802 0  -0.01816537952398404 -0.007744845613777874 0  -0.01944440009681819 -0.006549604227471968 0  0.02351019334649539 -0.02595232988635264 0  -0.006435233347497548 -0.02217690168670269 0  -0.004661241867227509 -0.02214031300088731 0  -0.04086543829389309 -0.06806419438685285 0  -0.03253100052240614 -0.06266382893094238 0  -0.008593750000000001 -0.1 0  0.03117775299871076 -0.02643333696176148 0  0.03141366362951112 -0.02240478162000668 0  -0.04606643843266762 -0.07722548366784295 0  0.04155153859195505 -0.01303837232049555 0  0.03980506691764234 -0.01344444098598997 0  0.02742274359464184 -0.02047801908430731 0  -0.02433202945900785 -0.02955465209813185 0  -0.03573383006305237 -0.09438155019888234 0  -0.04512092052118385 -0.05513278717795275 0  -0.0400557559888018 -0.09129123293811583 0  -0.03841555667130617 -0.09204115749685682 0  0.01908866971564444 -0.03210190297803899 0  -0.04421588012267802 -0.08566798643458728 0  -0.04261099631992643 -0.08325045357941631 0  -0.01235535219457119 -0.04809211978500933 0  0.01917650689618135 -0.0212402260404311 0  0.04044570370201998 -0.002084525119410684 0  -0.01614053455157795 -0.03244022147715226 0  0.01266898220650464 -0.005963922066417571 0  -0.003547985224182506 -0.01059731982108112 0  -0.03536998648453176 -0.02451238019390068 0  0.02559302695280671 -0.03490982228678972 0  0.0241755281946876 -0.03412178100043151 0  0.03400302909802796 -0.07140177238407068 0  -0.02658920903634909 -0.06339043658536313 0  0.001116596332289955 -0.09592966898735301 0  0.03939180887849981 -0.07618314973978342 0  -0.02986399287504551 -0.03559473001697186 0  0.0480547491801546 -0.09374388335052662 0  0.02866267676696624 -0.08694478601517487 0  -0.0324263209790483 -0.04952762556597728 0  -0.0491019910858755 -0.07981298380630215 0  -0.008717371636395507 -0.07893210137064012 0  -0.04246078735205142 -0.09589171011909275 0  0.00895462794998734 -0.03001681293210664 0  0.003302850061917116 -0.007693717282317922 0  0.004703421224718716 -0.006508576626897263 0  -0.0123820662780605 -0.04414062500000001 0  0.04241789876530538 -0.0088426586008374 0  0.01847909647153631 -0.06406472353754077 0  -0.04008669093836623 -0.02153277592602729 0  -0.004564300317943603 -0.01414256122747523 0  0.02818706554004771 -0.05543273969800163 0  -0.0008753468093717652 -0.02634247217779586 0  0.006113209504919524 -0.06876635937286954 0  -0.03617634793710389 -0.04867227039743334 0  -0.03127764549574918 -0.03647865704558022 0  0.03710937500000001 -0.0008165281730433226 0  -0.00589266794864291 -0.05462662071937703 0  -0.007193045281066459 -0.05455814466712156 0  -0.006232818496791933 -0.05311609856939062 0  0.03132823611605429 -0.08217565950493014 0  -0.0288846223035029 -0.07076191395320768 0  -0.00540272400072078 -0.06543234740165929 0  0.01677493037768062 -0.03906821075874577 0  0.01804322469201782 -0.0722193440913762 0  0.01817960001633601 -0.03667544187536397 0  0.004345571340632281 -0.09242760600907474 0  0.0491360526798647 -0.06597285928157051 0  -0.02438830050587467 -0.03075794971859638 0  0.003706230180595045 -0.0642630857068235 0  0.03372338625820104 -0.02060173259988402 0  0.033312010264447 -0.01936517130526741 0  0.03221013016050953 -0.02073454806075014 0  0.04450182419044288 -0.04439500439409501 0  0.003730940928623299 -0.05327885798719503 0  -0.02617849392669965 -0.0348560654678019 0  0.005210121921706153 -0.04763729108237259 0  0.004794355811157447 -0.04898480336849759 0  0.01905886008320372 -0.03341997013745757 0  0.01846250342654996 -0.03474429941370184 0  0.01974882877826848 -0.03507728245998352 0  0.01606621657493904 -0.02467987403759862 0  0.01683237238252521 -0.02629692711536954 0  0.01717385305118523 -0.02511030209249805 0  0.04578997780728817 -0.09656184638038223 0  0.04437219544285143 -0.09675387163446056 0  -0.01550696086946314 -0.05357974074215639 0  0.001762353031885371 -0.04604780195750905 0  0.02256778370718962 -0.01434497204243271 0  -0.005512657988191125 -0.006231429274875967 0  0.03252882069753836 -0.06882466629933351 0  0.04323486802848484 -0.08638860249478418 0  0.03908196156910405 -0.05132270156572048 0  -0.01709581595271966 -0.01613603044458188 0  0.04634145764338035 -0.01924738115462636 0  0.04616523811705657 -0.02103551109959402 0  0.04713117919932764 -0.02034941422146409 0  0.04908711059303073 -0.06860750958328841 0  0.04775145209444691 -0.06879329215480021 0  0.04741777098690045 -0.06790124853800375 0  0.01757596012850111 -0.03948181300210847 0  -0.04093325692174914 -0.03647479327184884 0  -0.03164021939450171 -0.01595050851019674 0  0.01793855153040856 -0.05792565094267132 0  0.01470071432953303 -0.02685049065398417 0  -0.01718088164544632 -0.02138220608099142 0  0.04318179086538756 -0.05675176315163007 0  -0.007042730200986401 -0.06132007422443664 0  -0.03289604083247243 -0.08049419105790701 0  -0.01551026533083788 -0.0374870958420249 0  0.03183722468374887 -0.06976635317094913 0  -0.0307478381222692 -0.06496021005831028 0  -0.007314143280007164 -0.04723494108651449 0  0.02789062403628742 -0.03446002715547462 0  -0.04914265795050706 -0.06221714657979806 0  0.0158035191679478 -0.06416442118821543 0  -0.01292137532122785 -0.06637765119046234 0  0.008678125075250932 -0.006075668337440838 0  -0.02074033490005543 -0.0809091508387064 0  0.02105778901394871 -0.06137787087850796 0  -0.04105197647238427 -0.07051790730149268 0  -0.01117721637208501 -0.05861059544221207 0  -0.03809250665841985 -0.04212761299847558 0  0.03184658162846551 -0.008568834027125405 0  -0.03473786783194519 -0.005321279215061687 0  -0.03307834606261204 -0.07471163248920815 0  0.0353276962192215 -0.002113791780695356 0  -0.02327219744301301 -0.03736718589645901 0  -0.04169988842229337 -0.08848409874246074 0  0.008713220697724202 -0.04812655699815874 0  0.02702801495272193 -0.05307577559177871 0  0.02757408834927664 -0.05232822541092182 0  -0.000250502697064993 -0.01443039976179049 0  0.02890827719345997 -0.09371426997865893 0  -0.0128541782006884 -0.08207740440719861 0  0.04624331365047702 -0.01484469685908393 0  -0.03234638587731466 -0.08319435335463501 0  -0.01254229259996751 -0.02004272728051041 0  0.01120038109388447 -0.04720921754633984 0  0.02616461477559458 -0.08053570251023076 0  0.02023352870728835 -0.05728490740834487 0  0.02558104182002428 -0.03819862161181947 0  0.009666487124596316 -0.07955750414176974 0  0.00462512324787146 -0.02308987020936766 0  0.03738213678560262 -0.02539009940732636 0  0.000838612865480312 -0.02631350701831064 0  -0.04763199713288371 -0.05670259801453335 0  -0.03340441206287028 -0.07259402443660366 0  0.005529300792863169 -0.09116852355370282 0  0.004074335413889428 -0.0902528018008068 0  0.005460997998340211 -0.08961249923890612 0  -0.0009595677866902185 -0.006676512900857231 0  0.03679273114635394 -0.05944032525671221 0  0.03577794151325132 -0.05835421713496184 0  -0.01746190752954937 -0.02883232832915985 0  0.03363636934489558 -0.0933251755974778 0  -0.02712705713756661 -0.01922836713031903 0  0.04512847991843531 -0.005165068525887718 0  -0.006937844061301949 -0.0138980514720346 0  0.03479249405746773 -0.0279931163794168 0  -0.04195658270348012 -0.05267501750293501 0  0.04331914203728022 -0.007257466256991816 0  -0.03340329475359668 -0.07908715154794445 0  -0.02211670349481677 -0.09366752612013557 0  -0.00448286897299577 -0.08823685925851681 0  0.04530815440978265 -0.06020185726604819 0  -0.01950320664229814 -0.06630736910359844 0  0.0230340793480695 -0.0320837002483125 0  0.02172887176150605 -0.03311006162888067 0  0.02294924114945279 -0.03374379088232839 0  0.0230176983468474 -0.08623524266964774 0  0.02140851789453897 -0.08676105843208112 0  0.01558231406414962 -0.0452069845782682 0  0.02557475495614726 -0.009616349447862469 0  0.02676735591163869 -0.01088967722485335 0  0.002879102599548572 -0.03358310767271801 0  -0.04349186801773584 -0.02454474128011778 0  -0.04306545043164479 -0.02616193391959637 0  -0.004456635148696837 -0.00477423644951869 0  -0.00563977228070006 -0.0304868710102741 0  0.0280304886118329 -0.0731480668262975 0  0.0270674596869892 -0.07162412677699934 0  0.02682237165622689 -0.07289973940453418 0  0.03741487037478477 -0.0991153742772183 0  0.04203889863307599 -0.007546520916665338 0  -0.02194573106000141 -0.07504342443238715 0  -0.008680506307355403 -0.07506762657766779 0  -0.03490800217216054 -0.0378351179850207 0  0.02891858898453563 -0.06582843998782092 0  0.01993756376191267 -0.02881049579802492 0  -0.03431468695277071 -0.01111083369840911 0  -0.04675409616915896 -0.05873708506745311 0  -0.01599051937222643 -0.0940794265214423 0  -0.005817791690865079 -0.07900719058429154 0  -0.05 -0.09609375000000001 0  -0.04919865287354722 -0.09570280563117711 0  0.01452025301737694 -0.0189694255406814 0  0.0154467012018774 -0.0188783267932379 0  0.01413960195791528 -0.01770968770218221 0  0.03404705924993283 -0.03200880906685139 0  0.01433360263503385 -0.01564142681305999 0  0.04706831638947052 -0.0649416862341835 0  -0.04140625000000001 -0.1 0  0.03471674079655892 -0.0545265828082507 0  0.03352962061977841 -0.05546256669522755 0  0.03336746765131136 -0.05382198015170833 0  -0.04774618602735513 -0.09158260003533969 0  -0.04909505975884065 -0.09053636829090672 0  -0.04751344822166227 -0.09033027372021465 0  0.003550343771367911 -0.06098099401409677 0  -0.03654245898589251 -0.009761942424938708 0  -0.03634658206141343 -0.008880169835843658 0  -0.03600320532402708 -0.01047286725425797 0  0.044451606529026 -0.09531245261174845 0  0.02444181133570797 -0.02857144113005456 0  -0.01265629169532858 -0.06069186915065827 0  0.02637368692363896 -0.0216534552937596 0  0.006521670348372019 -0.09000687979398805 0  -0.02791112173884473 -0.05175156924417237 0  -0.04068194520179153 -0.03428910772775323 0  -0.006577357066987901 -0.0804802301719556 0  -0.005557172486622842 -0.08333683011518299 0  0.01615308775372895 -0.03025771830941099 0  -0.03915879596092554 -0.03482946704269065 0  -0.01769955334650191 -0.04983215383255565 0  -0.03331664384352184 -0.09065528356117694 0  -0.02721801817538795 -0.02903020130088578 0  -0.005614633999535187 -0.04461569855485632 0  0.04445888250522116 -0.02998301829011279 0  -0.02291621357973734 -0.02967257636620532 0  -0.0339621712036975 -0.01523509431317152 0  -0.03364924764187642 -0.01410727913441901 0  -0.03422141644684264 -0.01335909245239399 0  -0.01166827129870284 -0.0798298776893093 0  -0.01194285796079622 -0.07870116548773891 0  -0.01028044931112426 -0.07878964142674034 0  -0.02337153489763715 -0.007111056556654464 0  0.000847116974720388 -0.07350226374592003 0  0.0323109442174583 -0.003334286712674017 0  0.03577078878701859 -0.03269483092000226 0  0.006912454885703252 -0.038622678488713 0  0.04298463877253844 -0.09223357096200925 0  0.04773567937066749 -0.04909138454968841 0  -0.04461153551434804 -0.006459146400012089 0  0.03478142731158121 -0.0498647309928988 0  0.03399397414339086 -0.04939769530274421 0  0.03399926127825855 -0.04846694732827247 0  -0.0274136903581564 -0.03706088833368522 0  0.0275060661139826 -0.06526543370444106 0  0.008683214789753526 -0.04599048538030266 0  -0.01502658011320405 -0.07645301921444544 0  -0.007512130867348935 -0.04448937141409796 0  -0.008144102923666649 -0.04576286928523764 0  -0.009220872832805184 -0.04506583804110993 0  -0.01367832038143693 -0.03662813957182298 0  -0.01974715423781219 -0.03075809210602741 0  0.009129997873571239 -0.07523765025446896 0  -0.02327401747671604 -0.03199677040915508 0  -0.02915806997571729 -0.08901868768471116 0  0.01718616564248535 -0.03383864222480824 0  0.03781796668542048 -0.09198176694596953 0  0.03923856961068952 -0.09085630020840536 0  0.01906874345082429 -0.05906056113883906 0  0.00990774980616161 -0.0539228551798576 0  0.03968339546109328 -0.08984358522403722 0  -0.004448603776132219 -0.05864629764954259 0  -0.0334998207416547 -0.000885292869279664 0  -0.02090493133756456 -0.04588124001933209 0  -0.03773755266765243 -0.0161180918345456 0  0.04377650289116329 -0.0649572365924964 0  0.04296875 -0.1 0  -0.04541451006367891 -0.07967012164488023 0  0.004889087697497367 -0.05849338421921477 0  0.03056360887272262 -0.09814844410605487 0  -0.04330534332575674 -0.05900771709503932 0  0.02125452301059818 -0.0896604366259387 0  -0.02017599894342416 -0.06142136413450709 0  -0.01897986829161135 -0.06123597976065134 0  -0.01957396215137126 -0.05979299847202944 0  -0.03153054467531385 -0.08149396174891742 0  0.02124404390527077 -0.02494539097259928 0  -0.0333759761018498 -0.01817853136509487 0  -0.0268210013930852 -0.007519667954307085 0  0.001574941133185845 -0.007349645564470572 0  -0.02306312481928362 -0.09665830842298907 0  -0.01767329968118632 -0.0009924022092051722 0  -0.03918356866746148 -0.07260623943846548 0  -0.02960913313823139 -0.0174487104916469 0  -0.03943530192857474 -0.01867774489334369 0  -0.01990034918537994 -0.08494300119972623 0  0.001016806981942243 -0.04335479295496225 0  0.02463096204004338 -0.01117492057062507 0  -0.009472966958676859 -0.02944109634753145 0  0.0123253576567075 -0.007792122822567474 0  0.02429230351529956 -0.02750841294850063 0  -0.01482647010804964 -0.03064100709164856 0  0.007451680758229911 -0.07591428214637377 0  0.005759388436060955 -0.07571603203458821 0  0.006123626023163861 -0.07685606202983984 0  0.0366115129353432 -0.04997754116097305 0  0.02275081897456592 -0.05766561153849117 0  -0.01106831284251833 -0.04301991525418714 0  -0.04169576005367007 -0.08037312982328708 0  -0.04200901498538785 -0.08160886144251737 0  -0.04084142138003106 -0.08192264748277057 0  0.01429237996173078 -0.09682920098935505 0  -0.04111633491470252 -0.01295593031739723 0  -0.0410492935454514 -0.01417450117617466 0  -0.03977078534145719 -0.01411012560282604 0  0.008005316488309912 -0.02382823620774337 0  -0.007256185740931172 -0.05019656912017962 0  -0.01359965416000519 -0.07315254841899992 0  0.02247726330091953 -0.09438340421355854 0  0.03885852848246423 -0.01495728650651036 0  0.0115399131985292 -0.05695166154903554 0  -0.03046875 0 0  -0.03004561200038049 -0.0008399187625301184 0  -0.007653423836880249 -0.03432687328932336 0  0.03801495601815245 -0.005717749635176388 0  0.01844394677379844 -0.02555784421673096 0  0.0422653853453657 -0.06316076063553139 0  0.04273861309560317 -0.06204997688520459 0  0.04384305605135718 -0.06230953878465263 0  -0.03078040131039585 -0.08297692748702121 0  -0.03402443240123876 -0.0626775556648337 0  -0.03459577885119523 -0.06089274847885678 0  -0.03371231671111485 -0.06113218264931226 0  -0.01649279956347586 -0.09906049479406728 0  -0.01743001223970119 -0.08590794173759672 0  0.03558558198655738 -0.04851572789933088 0  -0.04141917902243663 -0.02818809399814316 0  0.04414599012629678 -0.06672807441021217 0  -0.03630640420650444 -0.07103181959191385 0  0.02823082288364541 -0.02410434386648958 0  -0.04469441604076342 -0.04094717735447418 0  0.03067432365661734 -0.0936912293545028 0  0.02989823330689505 -0.09465760207809605 0  0.034829649852221 -0.07984239545415081 0  0.04900300849018456 -0.03630163696826384 0  0.02695451942459459 -0.05641659990170739 0  0.03050823952884981 -0.003979069915029007 0  0.01021874308806373 -0.07188497971633985 0  -0.009642170719491456 -0.0008380423267618011 0  0.02270232220463509 -0.01321207661741992 0  -0.001937115843764158 -0.04213919856685144 0  0.04729608651014898 -0.007093148782041323 0  -0.01680838870559077 -0.07169389558370433 0  -0.001579229652095518 -0.06551237101637172 0  0.03346487803868005 -0.07029157415470021 0  0.0413849700480759 -0.005737761913594472 0  0.04272831331294347 -0.006575366275031217 0  -0.02290202518086712 -0.07241855897183144 0  -0.02193765523359629 -0.07254477160324399 0  0.001745327669796321 -0.07694565030335344 0  -0.02618252168783701 -0.008239982998559478 0  -0.0373647678907964 -0.07633211965344028 0  -0.03508997925052498 -0.09062971411600199 0  0.004569693563486099 -0.02677089357706049 0  -0.04420456614745816 -0.03813883793934935 0  0.04470812065772274 -0.06919577560194844 0  -0.02006568295175929 -0.09564740001843987 0  0.0359506049842172 -0.08903283974083888 0  0.03591698822836788 -0.08812802511013873 0  0.03665191206804997 -0.08755687153040044 0  0.03665925159074089 -0.08958316125455043 0  -0.005349913389824142 -0.08930446100510742 0  -0.02418762488664457 -0.03917313578584736 0  -0.02448448147646483 -0.03775670070363153 0  -0.02566464251563861 -0.03814742805239698 0  -0.007830709790039568 -0.01319466242797018 0  -0.04113613015159154 -0.0263215216857966 0  -0.01238294378486926 -0.07573993729476404 0  0.02628615726261732 -0.01825452639758525 0  -0.02624459343096718 -0.05160773873159815 0  0.01552397503267423 -0.02842940406385749 0  0.03794520336543708 -0.004172922880203898 0  -0.009341364257213415 -0.07592762913994247 0  -0.007973471476145183 -0.07636897385859874 0  -0.03494069937317248 -0.04843327884502893 0  -0.012356490974902 -0.04681762750362808 0  -0.04546380962899362 -0.09909247031397221 0  0.017570048403677 -0.01152564601289665 0  0.001034871303841009 -0.0414495593658702 0  0.04800332355373568 -0.009440501942885435 0  0.04909361411930778 -0.009253003946763103 0  -0.02529805317240544 -0.05305299053077272 0  -0.04865582966998865 -0.03444286340050935 0  0.04274127010074449 -0.0905545293088017 0  0.04173944244353668 -0.08950099853088166 0  0.04097459264423629 -0.09046471586017521 0  -0.02703859326933029 -0.04232772009380013 0  -0.02609406159731443 -0.04158149703202364 0  -0.01607030475182636 -0.03881842086766219 0  -0.03586392955377146 -0.08472791876807424 0  0.03371336388857545 -0.09807000406762606 0  -0.01488888396761887 -0.07802993874490115 0  0.009934876683496307 -0.09613180281220302 0  0.04905145991871086 -0.003967905522557764 0  0.04478621038396301 -0.0008523247565830362 0  -0.0143722269751517 -0.07953682931568204 0  -0.01313867093142552 -0.07830330444778404 0  0.01124225157861101 -0.01923232167240955 0  0.009978287320539507 -0.01894760648208268 0  -0.03769073966903397 -0.06605820334223127 0  0.03584197434652254 -0.02629924253796995 0  0.03306004535211682 -0.028445948944826 0  0.01008009948624369 -0.04786638734288889 0  0.04185481329096609 -0.06056113996221791 0  0.02915998429671416 -0.08437433916652236 0  0.04371325376750231 -0.05503024190677405 0  0.01055663978359954 -0.03595022216613323 0  0.02110079275665428 -0.01393471625160223 0  -0.04750081469258774 -0.0009395374330285848 0  -0.01040093333028014 -0.06238158510690762 0  -0.01014831785964402 -0.06126432468215798 0  -0.008810503561927948 -0.06156690019003622 0  0.01831615970431817 -0.08595430148374303 0  0.04557583189668018 -0.01022981850963332 0  0.03743741482631725 -0.08918088253376903 0  -0.0156564582246494 -0.0826040201075765 0  -0.02438676623424905 -0.0556047884106927 0  -0.01917223345825472 -0.09410379595573004 0  0.04169238558772646 -0.03788143942261327 0  0.01113276913996388 -0.01772141938198451 0  0.02171263661488006 -0.0502627559907631 0  0.02747156117390004 -0.00193955873275396 0  0.01581998317412998 -0.07863252541606693 0  0.03226085328060539 -0.09792659723818484 0  -0.003372086581196962 -0.05732233276143606 0  -0.004300184658452701 -0.05706281943810244 0  -0.003331611824845174 -0.0556013044337577 0  0.002925797389365701 -0.04657083952324197 0  -0.02387896360284418 -0.0360854395059713 0  0.02577144083031247 -0.002517254423570589 0  0.001741193368302314 -0.08294223897969316 0  0.03054191914413142 -0.06521994025590455 0  -0.01277631496063797 -0.02188128356890954 0  0.04376660971450941 -0.008211830476261783 0  0.02608598875816998 -0.06485112298321315 0  0.008738644345800487 -0.0008780278931393928 0  0.03232094384816771 -0.04962123366330061 0  -0.008465177716663228 -0.03990046886033861 0  -0.0085617132774629 -0.04137874223364552 0  -0.0154544318788198 -0.001773857987718856 0  -0.01584022719447439 -0.07491735002316569 0  -0.03239724109797965 -0.09718200943167619 0  0.01551803565626035 -0.08211590695278244 0  -0.003158926687668784 -0.02430946391769027 0  0.02436553012484222 -0.05091808492364167 0  0.02349236343031154 -0.05057118633721524 0  0.04256730155801004 -0.04796419195861998 0  0.02996421922452862 -0.006692524030001192 0  0.01286572210033756 -0.09404140881349041 0  -0.02890495759419707 -0.04936673797829302 0  0.02593707911052966 -0.01997438346551605 0  -0.005043032241568534 -0.01162013767936027 0  0.005592501500176019 -0.09331940839851863 0  0.03984375 -0.026171875 0  -0.04921875000000001 0 0  0.03867187499999999 -0.02578125 0  0.04182859914471184 -0.02420288792764407 0  0.04062499999999999 -0.023828125 0  0.0390625 -0.02460937500000001 0  0.04092996711217387 -0.02660532894391306 0  0.04140625 -0.02539062499999999 0  0.040234375 -0.025 0  -0.05 -0.09921875000000001 0  0.02758520124151411 -0.06832533388004011 0  0.02696825374513884 -0.05846479136101002 0  -0.03916060951990744 -0.03842462820191643 0  -0.04501535800389028 -0.09607944837504868 0  -0.04405214316702679 -0.09517135423625314 0  -0.04514290031901861 -0.0943372682169786 0  0.005950720326942229 -0.06441527294235624 0  0.04347179763181392 -0.09427492843235653 0  -0.02160995312182202 -0.03750144264579137 0  -0.02874677861723793 -0.04397419732950347 0  -0.0278948741029163 -0.0433929514770706 0  0.0180994843902025 -0.09611377184684491 0  -0.005208771239050227 -0.0919104422510903 0  0.001936677328105941 -0.06043542205171219 0  -0.02675317567080996 -0.084328677593492 0  -0.009798805525952043 -0.003586307545931196 0  1.393175064630251e-05 -0.04063791858278173 0  -0.04283703221892952 -0.07209581525432175 0  0.02466645937051048 -0.07318098330530637 0  -0.03450392246976965 -0.03284882118918198 0  -0.03799421269012375 -0.08277595753996816 0  0.02410428478177285 -0.08505629107170899 0  0.04315158919556238 -0.02164653372501584 0  0.009157803346668755 -0.09399511502629683 0  0.0001066816830092089 -0.04238138964449306 0  0.006291361335987899 -0.0426916947428444 0  0.00568047213787511 -0.08300232270783327 0  -0.01844753236982866 -0.06909592952833776 0  0.01435467566005527 -0.08562472484858463 0  0.04657746749304832 -0.05715588049409842 0  0.0477191090726327 -0.09293502872477505 0  -0.009834258448590599 -0.04023205268359626 0  0.02567653189154501 -0.05179360648011869 0  -0.01133051541422507 -0.02441769150000816 0  -0.0170202513780629 -0.07370474333053362 0  -0.04800677896753174 -0.05997128049015912 0  0.04365180148777324 -0.0604955832445216 0  -0.01619502224729185 -0.003258798768795071 0  0.008713097342757371 -0.09625315132527588 0  0.008291757570480614 -0.03153424711909651 0  -0.04313740720544875 -0.002439055703515819 0  -0.04286795184779223 -0.0867858657144512 0  -0.004750086660172604 -0.01044439444210282 0  -0.03750520974778466 -0.02084187734957345 0  0.02654245803813973 -0.05485707040335465 0  -0.0458629888397195 -0.08975012657194634 0  -0.001200042442263421 -0.01257854660922193 0  -0.02279789527646316 -0.05838182732145666 0  -0.02247422542287733 -0.05962625196889353 0  -0.02363634693386067 -0.05994520899062855 0  0.007245144745993256 -0.004632800582146642 0  -0.03921644280665133 -0.03351576689509658 0  -0.04220825884841872 -0.0704571961717514 0  0.00591107862102466 -0.05853343434606414 0  -0.03312277879158676 -0.09583989225205207 0  0.003519387364792707 -0.04828847890657317 0  0.02777611611184274 -0.01557504133831555 0  0.02847096428806708 -0.01406244891382596 0  0.003921207356781145 -0.08130198272932679 0  0.01833366360957249 -0.08148406763479467 0  0.03150714634896226 -0.01369021736199147 0  -0.01365595664725405 -0.06477670197127014 0  -0.01447852191494244 -0.06507601059564895 0  0.02279648650901364 -0.008710695465674278 0  0.004543440794542933 -0.06807118770537178 0  -0.04480383366032367 -0.00891456554135322 0  0.04037653947927078 -0.03915497880220298 0  0.04335854007516617 -0.04968356819546989 0  -0.04243463079543619 -0.09258899334761174 0  -0.04356464104803695 -0.04573853990716034 0  0.005569647415953349 -0.004079661828590855 0  -0.04389376117661192 -0.01264904086851713 0  0.03459440318339726 -0.007944774406271483 0  -0.04446055434931194 -0.08876674400365699 0  0.04308382594013691 -0.05310933047504768 0  0.0438243160734506 -0.05184588164716251 0  -0.008518284939496606 -0.04401836440008293 0  -0.008797180106664254 -0.08984051740226784 0  -0.04513285100111192 -0.06184976631983545 0  0.001011040304449392 -0.03962735988104245 0  -0.0381403019831584 -0.06776158928405689 0  0.01171875 0 0  0.0461398382388398 -0.01113855380511763 0  -0.01359810858549867 -0.040234375 0  -0.003093026703515541 -0.0468257117171739 0  -0.05 -0.09453125 0  -0.0491628038330779 -0.09412772298014718 0  0.01073735278285315 -0.0773056694771843 0  0.0362522632578873 -0.05633132240380134 0  0.04383678304728946 -0.004026831904489258 0  -0.0110465030358091 -0.00881451046819063 0  0.04226019808902137 -0.0008911199853658963 0  0.05 -0.05703125000000001 0  -0.003735146721672258 -0.09532333175504566 0  -0.01861300656573569 -0.0965852085758032 0  -0.005859398034072587 -0.09921781683791633 0  -0.006488085893959347 -0.09806347999016356 0  -0.005473231356881406 -0.0975114073919181 0  0.02479977559065923 -0.03659395871817336 0  0.004463641893518936 -0.007770533113487474 0  -0.005361775630281972 -0.0707385372284516 0  0.003396454351087721 -0.08969034570988954 0  0.02212187459518433 -0.07078130562778803 0  0.02098793963710464 -0.07089130918761163 0  0.02203358018996253 -0.07227656316957112 0  -0.003398900509592593 -0.01808406595303854 0  -0.04022972478757475 -0.08772344830367437 0  -0.03865710545133419 -0.08720043747063072 0  -0.03930839273054662 -0.08626861898900011 0  0.0475835823800457 -0.003447172060609082 0  0.03756771674830532 -0.03902711246521628 0  -0.04016629494519639 -0.03923383196476902 0  0.03880612028561324 -0.003674419104641369 0  -0.04300104827403363 -0.02070725229723282 0  -0.03933348307083879 -0.04278020583176474 0  0.01454476641804773 -0.03098783485295101 0  -0.03790456473488802 -0.03029214409755376 0  -0.04912352403469401 -0.03613080937326102 0  -0.03485693790782986 -0.0749351259229987 0  -0.003791579370924809 -0.0375661696625753 0  -0.003773562443588207 -0.04298753719255869 0  -0.03780400759682142 -0.01937181730692832 0  0.02568195967724331 -0.07886505000979359 0  0.04918800151377749 -0.04101446626026271 0  0.04135203648804693 -0.0969997669525428 0  -0.01028077505314736 -0.05786101917744194 0  -0.004718162600684488 -0.0155537482412184 0  -0.004978638600619344 -0.01700597270751955 0  -0.003497461020770028 -0.01668127366969863 0  0.0232935586256828 -0.05879515604233487 0  0.01762951688601534 -0.05457489187623831 0  0.01852954285563605 -0.05430572396086153 0  -0.03414880046743988 -0.05529085435697011 0  0.02879329869767521 -0.09772085514874662 0  0.01391149387086903 -0.04853924639762631 0  0.03302974954084138 -0.05896722675588042 0  0.01994479784383769 -0.0642046527806143 0  0.04485501975080791 -0.03920197188280541 0  -0.02670536572723313 -0.07378414917361577 0  -0.04570581297685119 -0.09767974871330416 0  -0.04689406683243329 -0.09806319608461453 0  -0.04609375 -0.1 0  -0.0465061875726227 -0.09921615650820648 0  0.03736702591187249 -0.01841924506343416 0  0.04908098989733659 -0.09072683998296262 0  0.04904555903019953 -0.09215578200874737 0  -0.01627845321760954 -0.05317815901668356 0  -0.01831584588211094 -0.08441543176536977 0  -0.03937874733504715 -0.03664975955791533 0  -0.05 -0.01171875 0  -0.0003242794793838068 -0.02274437981531081 0  -0.00864579155803836 -0.04958664733985177 0  -0.04333215580778282 -0.09449813075894199 0  -0.02535306153221632 -0.03512182235601222 0  0.02973560020618932 -0.06960259861406566 0  -0.009424590380503481 -0.04419593861169126 0  -0.009819437042998235 -0.04283683923849522 0  -0.008705936945629454 -0.04257183781517979 0  -0.0383607223328772 -0.07141962618934178 0  0.03399736511450036 -0.02952838457126651 0  -0.02088766082872426 -0.01689430399186902 0  0.03118470200491015 -0.07770665740017603 0  -0.01046260046821459 -0.08300674831887583 0  -0.009978639781279022 -0.08381632070834773 0  -0.01125517804557079 -0.08136400953361471 0  -0.03421802285641577 -0.08086500759628969 0  -0.0004971475081447366 -0.02803775211765355 0  -0.001586445425045715 -0.02779399129279743 0  0.03572470728819192 -0.07067281514821963 0  -0.02141748724707425 -0.08759427867424914 0  -0.02156397314216339 -0.0866863558170749 0  0.02922808503962675 -0.06881385373900242 0  0.01954051746590213 -0.03638402416150811 0  -0.04092134597814437 -0.03142538073664655 0  -0.04153721475461821 -0.02992044416639027 0  -0.04176216727702267 -0.03163220612621375 0  0.0463326606711959 -0.01341083515805358 0  -0.02419487087140237 -0.02462314759756925 0  -0.01479293627033516 -0.06619667924295729 0  0.03830986195545399 -0.007829890256893492 0  -0.0376441068020267 -0.03703951174266008 0  -0.0232587029034676 -0.05715747053256856 0  0.001309592324966498 -0.01346910098876078 0  -0.01979390118720924 -0.01808950643529184 0  0.03138538104332163 -0.07399669502905029 0  -0.0131734621795356 -0.03842542432329889 0  0.003018849544364898 -0.02149690661539464 0  0.0354768387574326 -0.03129679939134766 0  -0.01096406884708228 -0.07826077719079527 0  -0.0008685844013405344 -0.06612034635814676 0  -0.01208887636378865 -0.08854729192389175 0  -0.04552316008853775 -0.002638858023256834 0  -0.02127154989924052 -0.02993195677121297 0  -0.02213215005889452 -0.03131606080242563 0  -0.000393025458406166 -0.06891750067031437 0  0.005997220408050035 -0.006863321735269256 0  -0.03539261388839048 -0.0856396795414823 0  -0.03680679610055944 -0.05284483224475207 0  -0.03757871317193986 -0.05245430237242223 0  -0.01305352953811942 -0.06807733463845224 0  0.04472719244121182 -0.04310421991179032 0  0.04353889284113079 -0.04292170448341272 0  0.01575375864265688 -0.08518724140482868 0  0.01532826080851997 -0.08386709059693824 0  0.0113711732179918 -0.08123021910918525 0  -0.01647881200782386 -0.05109147022657978 0  0.01266801027986333 -0.08618639621172698 0  -0.04139149564811513 -0.06424421474142682 0  0.04188879691070937 -0.05419229999219031 0  -0.04585905248273384 -0.0468589836088884 0  0.00260740887470751 -0.009267748422512129 0  -0.01773249348339353 -0.03186642701321579 0  0.04297481110074069 -0.01049433424766722 0  -0.01511971768093222 -0.02099471949022323 0  -0.03134284251408578 -0.05697166324133647 0  -0.03269560749959646 -0.0569195795996531 0  -0.03153444087642129 -0.05820238288719495 0  -0.007251614270153296 -0.08347405023256967 0  -0.02498950136992733 -0.07458418165791682 0  0.01383589788258074 -0.07660261604615771 0  0.01619679642809314 -0.08772000177072918 0  0.01590209575180917 -0.08641603830313761 0  0.01732922968037715 -0.08738363575490393 0  -0.04404198665341372 -0.01415692054525453 0  -0.03079956510577669 -0.01500653630173604 0  -0.03620228640973853 -0.03698726447061748 0  0.03082430424395903 -0.0453270251364858 0  -0.03063569719859335 -0.08730154825043496 0  0.05 -0.09140625000000001 0  -0.02047571830440052 -0.01411178247419643 0  -0.02023130178149025 -0.0158175526575962 0  -0.01616737393858753 -0.01082028097745338 0  -0.0227133130681571 -0.01966007878390765 0  -0.011422674320486 -0.08653912725202562 0  0.01016565785854557 -0.0138064131391992 0  0.01164976082630381 -0.01433907863436653 0  -0.04814630997652208 -0.05007733729551775 0  0.01971303492723611 -0.0712261919453934 0  0.02198485928492457 -0.07344424669960156 0  0.02083336623916315 -0.07352963987575883 0  0.02092926074906128 -0.07482273923385076 0  0.04923004036609417 -0.095703125 0  -0.02916762115550722 -0.09321010862014215 0  -0.0304515766564671 -0.09258474051365817 0  -0.009332800009076662 -0.02140400140961917 0  -0.02046280232949223 -0.02485553940996379 0  -0.01914096537284728 -0.02538480109320993 0  -0.03276654321046383 -0.02293752277563521 0  0.01786812131568616 -0.06131309865640307 0  0.0319468458875633 -0.05047317754933753 0  0.007105504809486707 -0.06417353968725568 0  0.01874713905674634 -0.07799578465059988 0  0.01808157003045497 -0.07732451405743859 0  -0.03110524979708353 -0.03896820887247462 0  0.03745481126700482 -0.04024384786452434 0  0.02269089971251446 -0.09660737859442607 0  0.03318212218053847 -0.04819495930689311 0  -0.03239526547904662 -0.00969057750265493 0  -0.03322796391480786 -0.008536695338121342 0  -0.01128179235919322 -0.007629693948978064 0  0.01490248879110945 -0.009789709738265847 0  -0.04060459609806916 -0.05259029846622506 0  -0.01568642201713389 -0.02751105784037266 0  0.01310006346396707 -0.02616207862727057 0  0.02486098453112822 -0.06359977322721273 0  0.046484375 -0.09922124485567346 0  0.03151086542053837 -0.04802835006398748 0  0.01865243877139572 -0.06649357389064203 0  0.0258876427366985 -0.06876537224938757 0  0.02674204889406446 -0.06746943101749459 0  0.02802789613837305 -0.09730547021190919 0  -0.02269972862623019 -0.005385291828740236 0  0.03444848240881961 -0.0879988749415908 0  0.01573929311017335 -0.007809949624389646 0  0.01647551080146656 -0.008715723745610271 0  0.01568687099605593 -0.09367997563184251 0  0.01568461472742031 -0.09540534989043768 0  0.0162454087073038 -0.09269568306551569 0  -0.04761396930500091 -0.03656408436150169 0  -0.04807601548031273 -0.0375081022687177 0  -0.04926337078756997 -0.03705027937153674 0  -0.01177455866565099 -0.06146230802669917 0  0.04791460649758921 -0.01546435034322387 0  0.05 -0.01484375 0  0.04909089578822307 -0.01549341831236934 0  0.0240570001679168 -0.0252882426036247 0  -0.03159291874793364 -0.04017691169272118 0  0.04497154688258715 -0.02169238496432244 0  -0.03635391669035717 -0.01847379058365844 0  0.03220359036645161 -0.07671471926557777 0  0.04328896144474038 -0.03832598092466898 0  0.04210300213226238 -0.03931009450625101 0  0.03210590353711217 -0.04875546061024946 0  0.01874998294053249 -0.02431069347832616 0  -0.04236133707725965 -0.001963212735987018 0  -0.02162625806823926 -0.04310036645011785 0  -0.0007448413233959309 -0.005234978350294764 0  0.04656068430370217 -0.07898431445593765 0  -0.01992294752613811 -0.053769078522448 0  0.04404287004304081 -0.07405310103030731 0  -0.006436422830905793 -0.04364663139108275 0  -0.007335268899881086 -0.04266621959582785 0  -0.02366969443518683 -0.02292796060064901 0  -0.02479336438026802 -0.02365477723410474 0  0.04299600362992303 -0.04529705784768663 0  0.04415506799438073 -0.04558370313769227 0  -0.02131824109203987 -0.09621508965380081 0  0.04259642992878951 -0.04647113138100881 0  0.02539928372659512 -0.05555169481029439 0  0.02586006803873792 -0.0543202004580244 0  0.02468509033919459 -0.05380302119478133 0  0.02872530521102201 -0.08884887301437938 0  -0.02728988240519416 -0.04883910967281553 0  -0.02821447396514484 -0.04853275467848621 0  0.000286986647730161 -0.03631512185820143 0  0.0005898973436690879 -0.06978462369087261 0  -0.006057200915414168 -0.01311984121881471 0  -0.02556068506475995 -0.06568088353800496 0  0.02209485946813885 -0.04013451176290257 0  -0.02650616570853805 -0.02313324531561823 0  -0.01819454928156597 -0.08022201316171751 0  -0.01949238516963652 -0.08125831585402313 0  -0.01828662124596113 -0.08168789927065079 0  -0.02284196169492555 -0.06912249073802222 0  0.03425059764171064 -0.07304256912441316 0  0.04812063955535711 -0.02427093866455749 0  0.04830719213749019 -0.02597340936464211 0  0.02361315855381055 -0.093687918754414 0  -0.02680136202373378 -0.03902809734817499 0  0.04393903056657091 -0.03965007085707544 0  -0.02051560881345748 -0.006613887089740396 0  0.01055835226003716 -0.01458340115278699 0  0.02088550865341904 -0.03974821654900652 0  0.02058964060471733 -0.04099435079626637 0  0.019547603972419 -0.03963532242913779 0  0.02850372223076313 -0.07931380965569246 0  0.0288505423649461 -0.08011817646827753 0  -0.0116347452019035 -0.0008548253544078054 0  0.02011279424853692 -0.0823387353609219 0  0.04634405183948283 -0.06641564821341288 0  0.02115532555484663 -0.09683244661278093 0  0.03203125 0 0  0.03161653897830451 -0.0008428088980155552 0  0.00349104702534594 -0.09477830860137183 0  -0.03641299097336118 -0.07533756960937371 0  0.04047745276656797 -0.04627746490309668 0  0.02255800317505969 -0.03486926247528522 0  0.0181102205599938 -0.02932489969153595 0  -0.03409339481552821 -0.03209717577025889 0  0.04139799891456341 -0.0592365910188721 0  -0.01878891320370126 -0.03502604166666667 0  -0.03816410242488683 -0.009656032760100497 0  -0.01912223270273644 -0.05810686817710355 0  0.04914452126389986 -0.02492366660313841 0  -0.04237648455565309 -0.03676580190097881 0  0.04537565777762288 -0.07518015294184516 0  -0.01144687078161276 -0.02116619227780454 0  -0.01079698919951388 -0.01995955259502681 0  -0.009803246447413696 -0.02062145134257291 0  -0.02991416538669494 -0.07918870333511195 0  0.04427425382788227 -0.03264104292708887 0  -0.02444985866986183 -0.05203041066180426 0  0.01803283314418441 -0.00844800598895765 0  0.02486890624395232 -0.02368802588680283 0  -0.03600395514464414 -0.09914499614718243 0  0.04759012169814039 -0.01462369558530264 0  -0.03772700531638459 -0.03410997381642232 0  -0.03416659982923895 -0.04671481189246338 0  -0.005349546935617297 -0.09592653351067104 0  0.02929886354026182 -0.05971490414260034 0  -0.03958514312719513 -0.06252273734462614 0  0.02588254669998543 -0.09051697459128005 0  -0.02819873305443354 -0.01164264867236607 0  0.01032695345167538 -0.006577390115008737 0  0.007518208033113425 -0.05517635651440368 0  -0.04156727586319911 -0.006136690563479325 0  -0.0424500155827517 -0.005947441656562502 0  0.004799385367352377 -0.01413430140154831 0  0.00541304474806083 -0.01476036115794431 0  0.0232657796951213 -0.01798609159025016 0  0.02399077923204108 -0.01722044728688854 0  -0.03714999037081095 -0.0008458129186661523 0  0.02849319255439783 -0.05872126793991084 0  -0.03672317402322126 -0.02350321330614053 0  0.003566056992679452 -0.05963634725704459 0  0.0002200133179642674 -0.02072575272018705 0  0.04235869568662917 -0.01485489763233505 0  -0.04548045965124865 -0.04058642694511053 0  0.03997854680530004 -0.03250122416838835 0  0.04104702473527908 -0.03387641949522479 0  -0.02355199124995811 -0.08148859511223683 0  -0.03208115051775339 -0.02143183023673336 0  0.0009684464643714712 -0.01726427606174901 0  -0.04021620493190429 -0.09876550047303437 0  -0.007644269180433088 -0.09488662113348136 0  0.03204085166475398 -0.03943765071800869 0  0.01031936275278935 -0.03847534008270726 0  0.03019674943756128 -0.04379479240013934 0  0.03849694197582361 -0.04316888572144267 0  0.03918463760573212 -0.05339090588776512 0  0.01486352186512754 -0.09032590205580594 0  0.01416714059853207 -0.09148995417137915 0  0.01537964215948209 -0.09199400975977819 0  -0.02885555163941241 -0.02021668144468922 0  0.0233141670651031 -0.03662337841602984 0  0.02097206934234137 -0.03536431758020657 0  0.02141815787703437 -0.03461079601726721 0  0.02227794789784968 -0.03611698060806511 0  0.007163389038476986 -0.07010511216223728 0  2.346454996755181e-05 -0.0773660909391035 0  -0.03404429118395708 -0.09163679622209497 0  0.002501291291232223 -0.01156481075109745 0  0.01574145768177174 -0.06903469028954763 0  -0.008256111350145031 -0.03897761509985953 0  -0.003925625522532167 -0.07359587563911943 0  -0.003575251194284834 -0.04041446598185958 0  -0.03270997022163069 -0.02450975726235118 0  -0.03156277444608251 -0.02399511365369035 0  0.03318200791726978 -0.001665906311226834 0  -0.007131522738117865 -0.003391807308459161 0  -0.001746729399059141 -0.08709082574573392 0  -0.006948983350470663 -0.02145181377231347 0  0.005617847132638825 -0.0568269494529503 0  0.006017652958157222 -0.05604357555208243 0  -0.03521780215739505 -0.05663132235890778 0  -0.0339824603852292 -0.05689491244005635 0  0.0315758733550208 -0.03168532600952159 0  -0.006462231785953991 -0.0329939878711106 0  -0.03212934550993712 -0.05939431305177503 0  -0.03564760392073302 -0.01987986395275176 0  0.0235549870603966 -0.04812658546395953 0  0.02270974445102033 -0.04798686929862798 0  -0.007322066682041266 -0.07779860626928288 0  0.001663480184098592 -0.02965748010150454 0  -0.04805521915443587 -0.0223389958231826 0  -0.0314585761009437 -0.08752445246681478 0  0.01298471211706118 -0.09147774946384793 0  -0.001634348787884275 -0.03803937060590552 0  -0.02004622236160083 -0.003132440149641617 0  0.03942002812777588 -0.08616558312513864 0  0.04198004270403462 -0.08553227066072092 0  0.0411519100001997 -0.08407322382289821 0  0.02186723996395654 -0.01103273354757914 0  -0.002790637744510785 -0.009014232874957282 0  -0.03999717897265699 -0.04529736373777103 0  0.01325661611031051 -0.07030183651187494 0  -0.003430770821836183 -0.08430885903706103 0  -0.004346155830800831 -0.08300497516392759 0  -0.002961602095952652 -0.08280517068709906 0  -0.002892401349472177 -0.07764312736033568 0  0.01818387969088407 -0.01051032872824237 0  -0.008918448780997682 -0.08604121471085517 0  -0.007824492323325187 -0.08703251682271784 0  -0.02083319567046883 -0.05475577067055574 0  -0.01947075562286666 -0.08356693840120273 0  0.002420520633834702 -0.07748225627581176 0  0.03039667723955177 -0.001754213765846084 0  -0.04915092968137495 -0.08883023138405657 0  0.03812434687969598 -0.09053967504285762 0  0.02217157821126367 -0.05929765922133069 0  0.04792590069076871 -0.0459706725916996 0  0.02548119576983765 -0.0953803880450422 0  -0.03585154383638672 -0.03178895807674811 0  0.01136623002821041 -0.07673288350674053 0  0.03022199189561738 -0.09097280174227762 0  -0.03063069606678914 -0.09501587400422594 0  -0.03130888489771619 -0.09377478524249717 0  0.01249282066742385 -0.01035183700495691 0  -0.007638211336210963 -0.09028108399012857 0  0.01284598228445366 -0.06010071748028759 0  0.03505334822819212 -0.003774536668292812 0  0.0173575179308198 -0.07321728052463244 0  -0.04922306060979054 -0.07460937500000001 0  -0.002743226642206154 -0.05086302725918936 0  -0.031640625 -0.09923753303870025 0  -0.02209171178984189 -0.002604640879814659 0  0.007918418989585603 -0.08598909805634343 0  0.03400541609880305 -0.09068934635668509 0  -0.03470061721709163 -0.05382577903252203 0  -0.01409129609413267 -0.05963469556215018 0  -0.01323556533964957 -0.05955230963958361 0  -0.02534534655542667 -0.09721582372925555 0  -0.02403969568186046 -0.08315895583474654 0  0.007243915393346279 -0.02964887898517708 0  -0.0423063471495943 -0.01430003441359695 0  -0.02848521783097176 -0.06694082299576526 0  0.008918493919402722 -0.0165169244611955 0  0.008003950022164887 -0.01643515504289396 0  0.02720246188942028 -0.05156428205408623 0  0.009599267456976788 -0.0685852477009785 0  0.008760449227150226 -0.06708075532043652 0  0.04909871475711279 -0.08652885322802623 0  0.001216996359102588 -0.05681005230245885 0  -0.02528653371277756 -0.02531293161481182 0  0.02223568533961294 -0.04881878376555984 0  0.02233733661707196 -0.04967232265455785 0  0.02172746804093427 -0.04414326119481143 0  0.02058483020603603 -0.007884095732784582 0  -0.04567042338567921 -0.06949832536628589 0  -0.02282577263073783 -0.08597471149861186 0  0.0280972814013297 -0.0950087172934071 0  -0.006998945059716521 -0.07874843876889678 0  0.008950215850745995 -0.06477330743002535 0  -0.002255930936890443 -0.001907388097188936 0  0.04808493770661903 -0.09216990768479934 0  0.009292484897627009 -0.03788334253560109 0  -0.006345321537824342 -0.06949054212305732 0  -0.007007497857470089 -0.07009811116478298 0  -0.008060559934319951 -0.05602920459741663 0  -0.05 -0.07109375000000001 0  -0.04422513366714479 -0.07283962609107204 0  -0.02421875 -0.1 0  -0.01877829360695903 -0.04675025361299667 0  -0.0200011408945115 -0.04663291997472056 0  0.003752621285974797 -0.05200700250380313 0  -0.01824509072437584 -0.06659486419722305 0  -0.0183200171803973 -0.06746374111202637 0  0.006293126157087308 -0.04890796433887617 0  -0.01667155570831547 -0.09683233999103463 0  0.03956270802142749 -0.008070024096019377 0  0.03817883037710591 -0.009057538287123594 0  -0.05 -0.08046875000000002 0  0.04915282898693318 -0.0514128590545642 0  0.05 -0.02734375 0  -0.04621714897557518 -0.08103485777793527 0  0.02359320707621787 -0.05253226511842315 0  0.02625829400409135 -0.009092984929715388 0  -0.04531418491853704 -0.00773197545204476 0  0.02636419063479285 -0.06145999844430019 0  0.006875103090672398 -0.09755428991610733 0  0.002187463629099762 -0.01494073111911673 0  0.0006265329220853887 -0.01535009101603777 0  0.001595280761267373 -0.01626337046924479 0  0.01258281493675359 -0.01690491172490989 0  0.04813751710931742 -0.03532639657192972 0  0.003745335311403753 -0.08860964801764543 0  -0.01525347391806923 -0.01364822572855716 0  0.01299698820481434 -0.03317893911644085 0  0.04234759392967768 -0.04958847265113123 0  -0.02941827449193253 -0.073811645638895 0  -0.05 -0.02109375 0  -0.04920566336451466 -0.02070004878741154 0  -0.01648110427881748 -0.01453033058132087 0  0.02550237247586479 -0.07520814504560988 0  -0.005372421016636503 -0.02116767133759016 0  0.04172075963957129 -0.06675876994504799 0  -0.04252227628746679 -0.009873171177649532 0  -0.04336663427376073 -0.05485861025636607 0  0.03142278124437647 -0.07243274575147274 0  -0.04814900446458225 -0.05502473146970945 0  -0.04913934146716672 -0.05461572454750672 0  -0.02117087504621185 -0.04757911050901639 0  -0.02880513118918171 -0.08733825439662271 0  0.02978001685743951 -0.009960041264056953 0  0.0009221505905438675 -0.01184105026906803 0  -0.01561039897597823 -0.07194429239760006 0  0.006419501253885663 -0.06574679849451441 0  -0.05 -0.04140625000000001 0  0.02744482209555309 -0.08607909216409405 0  0.02733591367296495 -0.09306083583159191 0  0.05 -0.01953125 0  0.03679000873283671 -0.08613179029181009 0  0.03651726315245978 -0.08447464735721535 0  0.03565286727778413 -0.08537649783201784 0  -0.04913843422098012 -0.07352373550644242 0  -0.006285413832292499 -0.02734886603405566 0  -0.03572450761616411 -0.006760722931779863 0  -0.03447354711589787 -0.00792445243959927 0  -0.03468661634074792 -0.006520946491732301 0  -0.02217517412246055 -0.08276007752173992 0  0.003428019465205726 -0.02656868921227863 0  -0.03837178291291181 -0.06657489205346344 0  -0.02272121187180894 -0.0457080070120912 0  0.04324242783694178 -0.06608834942461952 0  0.03657271830989964 -0.06112009661855924 0  -0.04575789555535067 -0.02357201230625546 0  -0.04519340147576842 -0.02455169063168786 0  -0.02245849972537956 -0.04786688309948891 0  0.0359975001654946 -0.03425301684194826 0  0.03718141557501953 -0.03330552991046686 0  -0.03355505572662179 -0.08873189896523824 0  -0.005708319402325085 -0.07447987585796524 0  -0.01757812499999999 -0.04533423973458276 0  -0.02017303848249583 -0.05875335314690013 0  -0.02129913392036245 -0.05921029229008315 0  0.04648290407173261 -0.008633424186604817 0  -0.007083732437271129 -0.07496782474333898 0  0.04263453110894073 -0.08801226611114882 0  0.03948089681580429 -0.06562037641680413 0  0.03933225961197927 -0.0644446301277269 0  -0.02904310739949701 -0.05801011804864235 0  -0.02991094121006707 -0.0602290875995935 0  -0.03066713485610687 -0.05852045116829301 0  -0.03104651738962781 -0.05985259745987576 0  0.02207186307958867 -0.03162894873591528 0  0.01211976310866035 -0.003635291198246946 0  0.02413818910775886 -0.03813221046512288 0  0.006329831582245675 -0.09237589536679501 0  0.01144448892980168 -0.006965341025414297 0  0.001354696932076992 -0.07084702068338805 0  -0.04434074413487002 -0.05408569805334688 0  -0.010570904873098 -0.08649945011735047 0  -0.04789334834366464 -0.03924733079877881 0  0.004677853006020086 -0.04097561187420408 0  0.004086528437250946 -0.04713544343181893 0  0.02123838904246563 -0.03864907304542249 0  0.009694972869087227 -0.08403824014796213 0  -0.00108750939379989 -0.06951880409260359 0  0.01077726764102726 -0.05270970971738442 0  -0.02742401807589842 -0.08856422757889355 0  -0.02840251920852754 -0.05018283749344581 0  0.04216866370707813 -0.04719699196754343 0  0.03731568924529004 -0.03510842395524608 0  0.03799602272966976 -0.03428007325683882 0  -0.04340822721182173 -0.0008196405467550199 0  0.03837759190947233 -0.08531539038875727 0  0.007676865839435255 -0.0823996206076693 0  -0.04649612926913448 -0.01331830064238485 0  0.03959229685237894 -0.06730390151240251 0  0.03983315593309068 -0.06814721268598188 0  0.01431728622750128 -0.07729801128750582 0  0.00403103292005622 -0.0937675173512708 0  -0.006180093039875567 -0.05159620422724283 0  -0.04146406346462268 -0.004525583356021231 0  -0.01881656944998328 -0.02379124685905444 0  0.04390515744851954 -0.02202324018400941 0  -0.04280384804631986 -0.03057721411837211 0  -0.01378816738577007 -0.0145927834480921 0  -0.01513617675974196 -0.06359319426344785 0  -0.01429507784658389 -0.06333053360071969 0  -0.03942123458303749 -0.03040751846339269 0  0.004022658777898357 -0.06602761697949321 0  -0.02128452860159345 -0.09081601990100295 0  -0.03830522900902252 -0.06489221879662582 0  0.0003814694510576448 -0.03521907542334491 0  0.001593796128343563 -0.03489879487664695 0  0.04316921825105163 -0.01242815787903313 0  0.04445710744141845 -0.01137336878071849 0  0.04443252663359777 -0.01276039012549768 0  0.0197705415291273 -0.008213338859058603 0  -0.0315218006774591 -0.008659752785890314 0  0.03450808274165414 -0.009671902774564251 0  0.03348679439154436 -0.01003237865650878 0  0.0329846478483694 -0.008805548570448548 0  0.04009196746545578 -0.08544717317133146 0  -0.03719104246888499 -0.07840330766468992 0  -0.00936005335384171 -0.06801353025867082 0  -0.02404874966514262 -0.01199330467033505 0  -0.03375750009068317 -0.03828724753342582 0  -0.0215036939241226 -0.03384039700254844 0  -0.04766192637042128 -0.06649776376214635 0  -0.01489086185973085 -0.0678739186036473 0  -0.02172842888902655 -0.0580705613804602 0  -0.03113113533011526 -0.07151002463756935 0  0.04281431153685094 -0.01358398167785182 0  0.03014741592158904 -0.08844886480253804 0  0.03122576464733916 -0.08791536321914598 0  -0.01794978434908509 -0.08301103671567275 0  -0.01827815720058652 -0.0853218936758441 0  -0.04356211204895906 -0.01099129277650372 0  0.02406564177649914 -0.02097226108845198 0  0.02252293497036274 -0.09887792202872324 0  0.02737966961526877 -0.02422854581624117 0  -0.04414940988772505 -0.07457505339808684 0  -0.04582696737393217 -0.07462205668253113 0  -0.04499744561793869 -0.07373413326043866 0  -0.008279974450878714 -0.08067029262928616 0  -0.04329688675821283 -0.07136263186348715 0  -0.04483251234219486 -0.07056837282455777 0  -0.04408616915219717 -0.07012408399801902 0  -0.03246453861832538 -0.05540360617550538 0  -0.04820435140438319 -0.01738876680078047 0  -0.0174028102774289 -0.05596856215623032 0  0.03230512917025534 -0.02518457615597573 0  0.0042731442265624 -0.001593240497782278 0  -0.04490516278247902 -0.04729167014532612 0  -0.04467922013742823 -0.04567688273464911 0  0.01758680268147367 -0.09006720375838755 0  -0.03186225880588151 -0.01132811010959049 0  0.04668201342825357 -0.03353692568250042 0  0.04592266554668625 -0.03227556877163341 0  0.03695559917943962 -0.007030205850274623 0  0.002002909657921488 -0.06189106690358307 0  0.0007044454326907573 -0.06095098215260562 0  0.01732041822431665 -0.07075732341710517 0  0.04713068286822369 -0.09552539500253583 0  -0.04841467283379512 -0.06610622479721333 0  -0.0425143267273389 -0.06117326041453559 0  -0.04357938559780137 -0.06169942368226863 0  0.01836512312646311 -0.002293243012446731 0  0.01909743397482377 -0.002708295596703712 0  -0.04572452856042507 -0.0763741678646203 0  -0.04661659336258477 -0.07558593008218942 0  0.02710235355984346 -0.03477197839461912 0  -0.03598024486787562 -0.07827792048825361 0  0.04015656022192873 -0.04408613916856687 0  -0.02110222000536117 -0.07755721918337878 0  -0.02973333712956831 -0.02939564339237287 0  -0.03694928795285954 -0.04696371519984546 0  0.0338630452191808 -0.03705429261394107 0  0.02450935786093213 -0.08314119649373244 0  -0.008387006076108769 -0.03780904631060121 0  0.01125236940641847 -0.05938856287311505 0  0.01285877480720648 -0.05909023035652512 0  0.01220228126065188 -0.05816783096160424 0  -0.03648912318427041 -0.04789439815598522 0  -0.01270992371436978 -0.003046161287467489 0  -0.01443823122623172 -0.07081685657839495 0  0.04910936431433002 -0.01414558431409971 0  -0.01275089666590487 -0.05429922786654764 0  0.01342475817822286 -0.02030836726815557 0  -0.03955476217860409 -0.02419436196509326 0  0.04365927624076985 -0.0677527349781219 0  0.02539576573920673 -0.07164769515555401 0  0.01900371454426186 -0.0008061382701984944 0  -0.003118257490292936 -0.02280837419746399 0  0.004688080689728325 -0.005549565006093886 0  0.00305236011251939 -0.005039418095739494 0  0.01915951063094222 -0.003628865601221085 0  -0.0252700042008715 -0.04244125472055589 0  -0.02796953491160415 -0.09008382271209776 0  0.04710501239249149 -0.04275705896057659 0  0.04713068223098361 -0.0445085373504877 0  0.04621218101975635 -0.04382917826195797 0  0.02110029161957704 -0.08792144594142355 0  -0.02899114417746313 -0.03425842316572317 0  -0.02968588417045906 -0.03376730199858499 0  -0.03045914486686392 -0.03412595253461044 0  0.01663243651071725 -0.05012716298039457 0  -0.01643919945228326 -0.05233620649415773 0  -0.007565303463983545 -0.05759373832622062 0  0.01854551095717785 -0.09173437931686056 0  0.01318585357431309 -0.06369401927020658 0  0.01206108166832477 -0.06437669096906883 0  -0.009777036268725333 -0.08534761269507096 0  -0.02874629646480465 -0.07537825297907612 0  -0.03399952068589476 -0.09664769834627675 0  -0.03487393989665719 -0.09569776735169475 0  -0.01370528309061134 -0.05681731315802031 0  -0.01497080061671348 -0.05694268205445869 0  0.02200351838463334 -0.08848785695700627 0  0.02041640356348238 -0.08843072788995697 0  0.00378694637018093 -0.0326916084063312 0  -0.01778086821465424 -0.03280302463362186 0  -0.0192859019285529 -0.03205011575885035 0  0.04862364914557547 -0.08902887729905398 0  -0.03840469901166553 -0.001664220346894167 0  0.02969406273271159 -0.03772859188563258 0  0.02927757378226391 -0.04933974497951683 0  0.03156774959024523 -0.006861152448306049 0  -0.0181754923714998 -0.07407098283770538 0  -0.01772045753507069 -0.05123121538299338 0  -0.009641889557023289 -0.08116567420220977 0  -0.01104150622081528 -0.08041741497766031 0  -0.01051885484185445 -0.07972593675470077 0  0.02790664892555247 -0.01896984945879465 0  -0.01679996746949394 -0.07928378720262039 0  -0.01564868541970495 -0.07943421032598427 0  -0.04251281130540305 -0.01213754695732486 0  -0.01821255130175911 -0.07900547529169483 0  -0.01759239989547406 -0.07757607380100608 0  -0.01895918374197464 -0.07761339679171815 0  -0.05 -0.03828125 0  0.02055846006211754 -0.09574338734666434 0  0.009472196804229111 -0.08630254984581445 0  -0.02343346778156557 -0.04711611620623016 0  -0.05 -0.05390625 0  -0.04919998534417137 -0.05735571755011546 0  -0.04145823677651928 -0.01993918417033283 0  -0.02254787194123953 -0.02307352875787655 0  -0.0448028387938033 -0.01150397043758641 0  0.008503093837411725 -0.08497544071340746 0  0.03919541932770358 -0.04220351731130348 0  0.008005666400559341 -0.07900290539043257 0  0.02890625 0 0  -0.01390866892108448 -0.05440329080792401 0  -0.01510255036512884 -0.05455729166666667 0  -0.0008401601781510605 -0.09137193368490969 0  -0.002353035910845713 -0.09203429627355746 0  -0.001025834280526752 -0.09260674828154662 0  0.03137076111512663 -0.009257743780039261 0  -0.02234740115175057 -0.08124521742328859 0  0.03697620828685049 -0.09210120808878687 0  0.03680349213369532 -0.0906447254440792 0  -0.01183619537884445 -0.01931069802139138 0  -0.01346353188758785 -0.01948169090656374 0  -0.01304773917916566 -0.01839124289974624 0  0.03426857943907705 -0.08376972641983407 0  -0.01849770872834268 -0.07613546390451566 0  0.03762262706210386 -0.04463777114251328 0  0.0289046916315147 -0.02013147684147414 0  0.02834963000295955 -0.06520931183751326 0  -0.01108584658818491 -0.01432957310923329 0  -0.0126630123719328 -0.01495407845663753 0  -0.01224347691917767 -0.01389080989622782 0  -0.02573252969079977 -0.06873974460240534 0  -0.03206251421532701 -0.05242635720036349 0  0.01265195813533857 -0.08787740683368753 0  0.008614313931281765 -0.05922880110288566 0  0.05 -0.07109375000000001 0  0.04914383851856552 -0.07179961042290739 0  0.04815129684430079 -0.0705429064125328 0  0.01033072818202048 -0.09525554828507099 0  0.007525544527436684 -0.05974557615867035 0  -0.03918386061648299 -0.01692801331102685 0  -0.04281408105473174 -0.04050395228020729 0  0.025633975144743 -0.02895767687293693 0  0.0109092686690418 -0.07271885066056939 0  -0.02322005689166472 -0.0767701921583416 0  -0.03387736815680672 -0.06480112130850399 0  0.03669306626073489 -0.06435974388026781 0  0.03796144510066835 -0.0305252537102773 0  -0.03352092280489764 -0.02539715364912534 0  0.002641991501312493 -0.05329428913520293 0  -0.006424047042626608 -0.08495876974594253 0  -0.01702890790334068 -0.01353982915623355 0  -0.0257694733893058 -0.02957596867843607 0  -0.0391562072986596 -0.004526149837432766 0  -0.02162903103329127 -0.02888446335557892 0  -0.02206941337087547 -0.02962184092977802 0  0.02122329296774533 -0.02900856280041476 0  0.01053772028643251 -0.0368539037014813 0  -0.008271659004332979 -0.08213301759792363 0  -0.007056073513557267 -0.08248584035346783 0  0.03648674943601234 -0.001998360201894191 0  -0.003883298907074445 -0.09271179922346832 0  0.04058740215038639 -0.06075863353740729 0  0.02153106131855425 -0.08544749512672871 0  0.008000402005014416 -0.01355531700497738 0  -0.04580112015810822 -0.09146572812652291 0  -0.008963980372129574 -0.03012616630701662 0  -0.01640625 0 0  -0.04036621096407089 -0.08341283149858232 0  0.02191140025688608 -0.07699101041827018 0  0.005317920880606733 -0.08147255242502857 0  0.02619841904340976 -0.08334576797999965 0  -0.000170746940202159 -0.05440887049131854 0  0.01532697763538029 -0.06054162991188553 0  0.01438162635934069 -0.05958446555465156 0  0.01541707290392577 -0.05889074040803121 0  -0.04750769933632833 -0.04648431489124039 0  0.01173385064792111 -0.05397205618665728 0  -0.03492362123787592 -0.002759114122860201 0  -0.04924741758487177 -0.001171875 0  0.03066240432709554 -0.09553200987484209 0  -0.03895191783741989 -0.06814605102117542 0  -0.04061165011159692 -0.05928148675890514 0  0.0270195241740045 -0.08739924911280696 0  -0.01471091473464147 -0.03896052112929201 0  0.0165603765585939 -0.02349506579429885 0  0.02625228712377751 -0.01359400452864303 0  -0.02462324204214233 -0.08375225280907396 0  0.03257248059527085 -0.03202150526268902 0  -0.0131612220466826 -0.02114081349988737 0  0.02201963799026064 -0.08431317495976312 0  0.01883027955329438 -0.07983404518561567 0  0.02055841884784531 -0.07978257378471425 0  0.01961566927134499 -0.07897939670370434 0  -0.01572499188096644 -0.06654686680207544 0  -0.00390625 -0.1 0  0.02607305689315372 -0.004100350377594516 0  0.02512851848522973 -0.004100513136383335 0  0.02638250446248919 -0.04942085398126115 0  0.02510663249631088 -0.05008741152754778 0  0.02495342765889308 -0.04869202894413692 0  0.01313259767069366 -0.03738035980528873 0  -0.01920458275380203 -0.08937275308178837 0  -0.03183586775208899 -0.06829578050175546 0  -0.01689710370052892 -0.08176455142586142 0  -0.04813983563952984 -0.06100482920220352 0  0.02166331183226579 -0.0582306442524255 0  0.02109816017804304 -0.05979378696372549 0  0.01759683157203925 -0.02790878916165637 0  -0.007391270930607479 -0.03034234242452392 0  -0.00271471798655451 -0.02175591823465432 0  0.04928175190278156 -0.06205846885099395 0  0.02110122955562469 -0.005412280645674522 0  0.03173941466779356 -0.07139969408102155 0  0.0001521780492384912 -0.0758786523468363 0  0.03882695013612758 -0.08201371797853722 0  0.03193144638320214 -0.06430534902737292 0  -0.009565623326162427 -0.05833738667361871 0  -0.02552704219881326 -0.05678573280955388 0  0.04657410685352587 -0.09753070267405599 0  -0.04206411019729266 -0.08591053778628825 0  0.03439381096827806 -0.0525494322757084 0  -0.04720435121717111 -0.030330963563342 0  0.01584516171583734 -0.03384772546220418 0  0.0165738037372144 -0.02895353370371487 0  -0.002248905454392117 -0.016860824437612 0  -0.00205003627462624 -0.01569414602820569 0  0.0115518702390141 -0.07118931860807394 0  0.01204063112418632 -0.07267696185101657 0  -0.03892495602451228 -0.01067785128712401 0  0.005397971902001948 -0.04397743882969529 0  -0.03789335565722594 -0.04840079982076489 0  -0.03797682960219329 -0.04728129047931306 0  -0.006042331822480393 -0.09427585751045019 0  -0.004938025661144628 -0.09478141419019588 0  -0.004385890141258454 -0.09376116494298009 0  -0.02662234464679199 -0.09176811838469837 0  0.003190644421095732 -0.03901639511686185 0  0.003944282342192625 -0.03955093938490217 0  0.03679419503918902 -0.02122390802228138 0  -0.02437901115839575 -0.02867712655227193 0  0.04408025160732973 -0.05065474813024873 0  0.04308486952550565 -0.0513845104890608 0  -0.01037438884155694 -0.05958890538401992 0  0.01866589016648149 -0.04349986759597888 0  -0.006778691499089656 -0.04856110925985085 0  -0.005477191512425063 -0.04847161689210323 0  -0.005769864958194402 -0.04725348952077338 0  -0.04528215451141503 -0.01311808753049122 0  0.03116965968037014 -0.03682690706619821 0  0.01349534250934377 -0.0128035946188744 0  0.02014051917291431 -0.02085936128223054 0  0.03470964116397763 -0.0813196237919063 0  0.03353972946580815 -0.0815496309445623 0  0.03492672789948933 -0.05737649779125837 0  0.03521363130560032 -0.05580695033151425 0  0.02098779120335902 -0.08380494530819246 0  -0.04371095577823652 -0.05564970806625492 0  0.02383912446880795 -0.002219818600202534 0  0.02477946268893089 -0.000821115235192124 0  0.02352450951801027 -0.0008925550484700385 0  0.02327940382548245 -0.08078475421476874 0  0.04112119072035578 -0.007607555453680395 0  -0.03254491197210879 -0.08142423259002583 0  -0.03155120388978072 -0.08001684179364185 0  -0.03082226202199302 -0.0477718252592232 0  0.02890588426407719 -0.03569525521276743 0  0.008686855702002136 -0.002382143797707581 0  0.01004672913877962 -0.001829854275544655 0  0.04414891406421397 -0.08928582582745834 0  -0.0135698373729336 -0.08904622530580393 0  0.03257599936249352 -0.04578064361937916 0  0.03333465643068215 -0.0803839580810017 0  0.04839060399211625 -0.07582735412456293 0  -0.007181394725230704 -0.07610619199052719 0  0.04762736405549197 -0.07160246328155623 0  0.02384361924781285 -0.01014965369855886 0  0.01575683559432828 -0.0313187271083812 0  0.03026328195780234 -0.08239429426149252 0  -0.03393687903349502 -0.04545432249186183 0  0.008906953396847411 -0.008752671398459392 0  -0.03582331683834214 -0.07943606340049192 0  -0.03984375000000001 -0.1 0  -0.005981999820433145 -0.01441453984150401 0  -0.03667513101426066 -0.08215428834873122 0  -0.045618527562388 -0.05118673905092257 0  0.0287296618286112 -0.06164136613154203 0  0.02998380501457432 -0.06148074871727612 0  0.02869290751564511 -0.06042637314928901 0  -0.04120724160153249 -0.05559192316629286 0  0.02461349330941234 -0.05171143723814265 0  0.04910919131358942 -0.03796014414565529 0  0.03296456448280465 -0.05478146716922982 0  0.03225413254569993 -0.05378033376108218 0  -0.0008080901939238785 -0.05533432412159003 0  0.04744302579017363 -0.09839962161070374 0  0.004608578907009333 -0.0335255138616847 0  0.00544717992357223 -0.03272435630602238 0  -0.02538464389688326 -0.02790317221962911 0  0.01032099140099782 -0.04618658122668606 0  0.005654467301344869 -0.01124201395604314 0  -0.03147919994372485 -0.09549995814704117 0  0.03728046100638115 -0.01075311080511546 0  0.03314356961107447 -0.01234854753710091 0  0.03303482159201939 -0.01149647332627734 0  0.01396979062557099 -0.01122783137883525 0  0.004789969016289751 -0.05980376403127383 0  -0.01218430026602978 -0.01713837328752441 0  -0.0320124746980839 -0.06676786741620078 0  -0.02193676308133047 -0.07921264526758598 0  -0.01942137212464902 -0.01726622889619898 0  -0.009190482599077406 -0.06586073614319947 0  0.02887875371753806 -0.002110829957887321 0  0.01339815783807992 -0.057384541940436 0  0.01434932007797813 -0.05665624270749352 0  0.01495228367849439 -0.05786272114852579 0  0.0401289899836021 -0.05434624629446699 0  0.001226005238657377 -0.07968162038905059 0  -0.03091503987871302 -0.004516407718743703 0  0.004034130670504416 -0.03774476543977056 0  -0.04790590339836689 -0.06781464204643789 0  -0.03926519084576666 -0.08924325008631694 0  -0.03000519457917429 -0.08803882306707372 0  -0.02845409881243071 -0.08855710997115392 0  0.01010039934922248 -0.08719923751123737 0  0.01111068860759281 -0.08675910868298077 0  -0.008962500202255252 -0.07753166624354806 0  0.02470178471929441 -0.01872436958270004 0  0.04749985589467205 -0.03281251539642687 0  -0.05 -0.03203125 0  0.0491786865965426 -0.03446202104544018 0  0.04752119139901684 -0.03456942317569081 0  -0.04919807245235569 -0.01206323305406598 0  -0.001957397944745742 -0.05419505846538309 0  0.02772665563265049 -0.04320811555453073 0  -0.00255341257567486 -0.06159627782047995 0  -0.002440282509937797 -0.06258879472790195 0  -0.04701752730486179 -0.08526226961364165 0  0.01066553530894381 -0.09407163108432783 0  0.02753329710348025 -0.01471668509793812 0  0.0311502864271394 -0.05265941787252856 0  0.04023959170954117 -0.08763592842866272 0  0.0415357814957785 -0.08672917818568288 0  -0.006536878072218666 -0.07344197605146453 0  -0.006861277122554324 -0.07203041327339292 0  0.02063624403282385 -0.02216301201926328 0  0.02176065546527206 -0.006580558913538391 0  0.02189449458754083 -0.007484022184018827 0  0.024249896102664 -0.06258726399976608 0  -0.04417138684129782 -0.09347404982542978 0  -0.04004608020855229 -0.07140169201111754 0  -0.04403035498732707 -0.02766086504984123 0  -0.04738625170604327 -0.07640841837750915 0  -0.04816117030471798 -0.03594788727524666 0  0.0002105753851655603 -0.08381518915828141 0  -0.05 -0.005468750000000001 0  -0.02435168690625237 -0.04259631842521179 0  -0.02530542117320716 -0.04133097808319806 0  -0.02381095941907053 -0.04186309631602139 0  -0.03300605597368442 -0.06805966032499836 0  0.003963414770048898 -0.03609702043974924 0  0.004724799591310762 -0.03532515883412841 0  -0.04366659919013976 -0.004116812937819727 0  -0.04524079781590035 -0.004350083786387414 0  0.02492707084092214 -0.06517841580894768 0  -0.03711790118930677 -0.0453152296151246 0  -0.04815991263580621 -0.09699822567312184 0  -0.04920206351698119 -0.09664762498975947 0  -0.04809172375829747 -0.09548612405605342 0  0.0253215877237613 -0.02131520869457279 0  -0.00703125 0 0  0.04491639868713969 -0.007841964826694943 0  0.04571785231631929 -0.006398789099036383 0  0.04607681849663405 -0.007540497960103708 0  -0.04821636127930244 -0.03312196312184462 0  -0.03927811444820668 -0.07052605128857305 0  -0.0261977679080467 -0.04339229796905224 0  0.007175977529156254 -0.09052509292814279 0  -0.03632273447156935 -0.02595427793169838 0  -0.03508627152370064 -0.02583492795398738 0  -0.03316411297833034 -0.0833783827485233 0  0.02935403806915764 -0.03316952602989831 0  0.002001906755121466 -0.06338704293398652 0  0.002144910556514393 -0.06429300065224709 0  0.001178288391303872 -0.06475345102631345 0  0.02721779625623869 -0.07847556638634319 0  -0.02402202126217914 -0.0445470972131992 0  -0.04793576975348564 -0.04767449486669609 0  0.04567990239244493 -0.05144418204885838 0  -0.01602604527839032 -0.06511107931156306 0  0.01393227323381267 -0.008517858779325942 0  0.01475432149096571 -0.008789258202201482 0  0.01357848720688243 -0.01001386723050073 0  0.02725474501685788 -0.02862919947388781 0  -0.03483319069803989 -0.01045251147773567 0  -0.03296903188004829 -0.09912280396824957 0  -0.03359375000000001 -0.1 0  0.02134159525859346 -0.01639842084094893 0  -0.04401089246110466 -0.03730040393238854 0  -0.02766329250463924 -0.01757169934091615 0  0.002643600391070799 -0.05186373772680176 0  0.009499009858967133 -0.05820605873809428 0  -0.02784658915276523 -0.05416460007868276 0  0.002819839551052506 -0.08342606348486478 0  -0.00409125858025691 -0.03578883266891077 0  -0.003223496775664176 -0.0349804493501529 0  -0.004767676849826114 -0.03445828675996817 0  -0.03069201288417772 -0.07949653590923071 0  -0.02931851392965587 -0.08035475584835314 0  -0.01695820693448729 -0.009349937269656687 0  -0.003415731381862663 -0.0852404737661117 0  0.00205422639857212 -0.09758891615459139 0  -0.03609783321185978 -0.08808166692123673 0  -0.01453319444930333 -0.03228913723128691 0  -0.01515937061097066 -0.03170547804336893 0  0.0195735872468824 -0.04754275352815865 0  0.01814157008787737 -0.04847524947153977 0  0.01980452892216038 -0.04855975411827877 0  0.04713577862891691 -0.0121918560795569 0  -0.04066872486059544 -0.09674412710584385 0  -0.03645803667041184 -0.05581355196430352 0  0.0106167555257509 -0.07498181666227298 0  0.03811956138253094 -0.06790843037546863 0  -0.01487582361095758 -0.007391799241801673 0  -0.0257364994588384 -0.06192286408201881 0  0.02654638641359645 -0.0944802671395422 0  -0.02596574907157696 -0.08009864440717059 0  -0.003502064277918581 -0.03233643779131982 0  -0.03562344596389539 -0.05960445974649638 0  -0.02076973322207867 -0.01949391822530891 0  -0.01638566088971214 -0.02114528106926837 0  -0.02102388685161884 -0.02077093755896862 0  -0.01970547005173461 -0.01955669752039647 0  -0.01731177492319293 -0.01976642269168777 0  -0.01858639020451588 -0.01977647382436972 0  -0.03850436421106418 -0.0790942568772269 0  -0.04333838130122485 -0.07363368539671129 0  -0.01400559228361827 -0.03067003274499125 0  0.04813810554110531 -0.05936969561109134 0  -0.04622428665098322 -0.04234564703333745 0  -0.001361868075707954 -0.03027737475986701 0  0.03080587593155228 -0.05602005550019724 0  -0.03748306419871567 -0.02758529947731669 0  -0.02267987339983228 -0.04098065316362494 0  -0.03337646051228327 -0.002526994674775814 0  0.04800068745182375 -0.01892012947788057 0  0.03325096084644554 -0.09453367744672975 0  0.04496222736867511 -0.04751545082906688 0  -0.01572456643668532 -0.0859097419367375 0  0.03747869027541881 -0.0506998065191654 0  -0.0432072784298997 -0.04308435445587068 0  0.03718699291868279 -0.07304561315163416 0  0.03840457228402106 -0.05433729563836275 0  -0.02688395469381403 -0.08279698006135562 0  -0.01116934748194393 -0.03546577993651476 0  0.04749533159843889 -0.0545732527413781 0  -0.0208284726694235 -0.0739097518710178 0  0.03553275249678843 -0.01723603066487471 0  0.006498447499032605 -0.08350315267192057 0  -0.008497535905593004 -0.007272845677398549 0  0.0006071059170041379 -0.005924217578682307 0  0.001696768732453807 -0.004631808600606958 0  0.001653803448617501 -0.005980513177309572 0  -0.02489215718843503 -0.00208091697089451 0  -0.02528270795677678 -0.0007696205429333348 0  -0.02599547451025285 -0.002237952577084257 0  0.004392239642004922 -0.08288386718074545 0  0.01967591546641767 -0.04216557218261037 0  -0.01923514044446976 -0.008455573118418833 0  -0.03246225343327337 -0.04762435131681446 0  0.02918135032333007 -0.07097692008266776 0  0.02459206269805398 -0.0798859745813857 0  0.02705215092041244 -0.03257606888536702 0  0.03812201462134478 -0.0896315243226779 0  -0.02297820537953509 -0.03854254639221452 0  -0.00652669201028375 -0.02389445587586496 0  -0.009129052614977051 -0.023048303224147 0  0.02860064265114164 -0.09050829215786768 0  -0.04090152127592462 -0.09510421584310363 0  0.001783940795926935 -0.04069754669982825 0  0.0007430160420095087 -0.02009463566632685 0  -0.0280281585216012 -0.03267095688142475 0  -0.03891100453385358 -0.09088878995153324 0  0.0154139731660449 -0.08909168045000058 0  -0.00863864924005445 -0.0919357076484556 0  0.04241589254460299 -0.09809497914614541 0  -0.04765625 -0.1 0  -0.04803908285174831 -0.09923666896443305 0  0.03659067170961336 -0.04711155865989449 0  -0.009415393635731583 -0.08023387025124883 0  -0.03332437363374088 -0.07552270842630814 0  -0.04643797783901389 -0.06279949319321777 0  0.02433867560110986 -0.04718682870391662 0  -0.0491813993067944 -0.0487544636062999 0  -0.041996077200421 -0.08380416972450931 0  -0.03498092266964802 -0.09479787396365257 0  -0.0007238526295683489 -0.08280682652266151 0  -0.0004749188963363492 -0.0812017445402622 0  -0.009473409758319673 -0.01264251622136316 0  -0.03334769399749168 -0.006333535365349265 0  -0.03332230687922938 -0.005491226655743964 0  0.01986408004097822 -0.01044568483661096 0  -0.008615214055637362 -0.051953125 0  -0.01262084697276751 -0.06914970522939135 0  -0.008198529697641689 -0.01754030252224891 0  0.001975311057866198 -0.04879628605841544 0  0.002847565225846405 -0.05701667659335379 0  -0.02935365507069045 -0.05529410104760574 0  0.01169516819675305 -0.08280511756066387 0  0.01071246289998534 -0.07032738868724156 0  0.03231781307022875 -0.0566069497334593 0  0.04827820693818947 -0.05597420819077545 0  0.04914894186341503 -0.05630123024866399 0  0.02402687269893972 -0.08151393706068767 0  0.02331439003829586 -0.08258126813573226 0  0.01764238956769172 -0.08063886993177502 0  0.01665098833230169 -0.08120107310265914 0  0.01739530565992338 -0.08225450806655044 0  -0.004907759843507922 -0.05189343766165674 0  -0.04268146092135484 -0.01953154191727173 0  -0.02265625 0 0  -0.0375634195233505 -0.07041702175608713 0  0.03342712603869367 -0.006459478266185005 0  0.03314100539804446 -0.007269966048421796 0  -0.0002030433893467892 -0.05079785929509749 0  0.04566002241656106 -0.04289111678716152 0  0.03964395005677276 -0.0493796715951565 0  -0.02943481007697294 -0.02678049507143457 0  0.01180438363674706 -0.03480582041032216 0  -0.003182996202449745 -0.04829814407227907 0  -0.004295333639349376 -0.04802553467885789 0  0.00185912088018692 -0.07557852782257597 0  -0.04441249866321282 -0.03373988279465811 0  0.03144190780476006 -0.01199575468661405 0  0.01361977250133053 -0.08686021084114186 0  0.004419244529952402 -0.05547741030625757 0  0.02342918634041592 -0.04974983613478509 0  0.03054354384750926 -0.07099779679294688 0  -0.006571402560369388 -0.01732790042399086 0  0.04485721171051482 -0.03838104514857337 0  -0.01886045928066383 -0.07012108031714463 0  -0.01841871659385017 -0.07087937952741248 0  0.02578125 -0.1 0  -0.02289446557431358 -0.00372555997421913 0  -0.0245008293461792 -0.01313289178453049 0  0.04737364886856755 -0.006276334829712815 0  0.04834012183692323 -0.05244423430685866 0  0.009586747834201322 -0.02379968132440363 0  0.01092800459985491 -0.02375907993588021 0  0.009791634510299744 -0.02262485892095014 0  -0.0240628931494213 -0.06230715469396162 0  -0.03867246071330669 -0.04496764345347633 0  -0.02340637572361983 -0.06343381384453223 0  0.01233462104998771 -0.06263830398028418 0  -0.01723098742375236 -0.09758227571909361 0  -0.008992000634823177 -0.0569992868102243 0  -0.01577071240006204 -0.0630716793886254 0  0.01749085846267669 -0.0519839011566226 0  0.0188231387046227 -0.0518937563148013 0  -0.009385438090576842 -0.01909334481670165 0  -0.01840836388413931 -0.01855870361425207 0  -0.01827762677111064 -0.01738698080654551 0  0.04054631659363989 -0.06432792730341326 0  -0.04450120696687732 -0.01581906846188244 0  -0.02746044421314448 -0.01008715529292786 0  0.03039740345572864 -0.03364689703786714 0  -0.02166227605020762 -0.07128093605047395 0  -0.03892334634106517 -0.05266960733096755 0  -0.03151031230391185 -0.04415957171814423 0  0.005468750000000001 0 0  0.01849165186026187 -0.01421004351918376 0  0.0184160321607297 -0.0128384337955148 0  -0.005319039555870124 -0.04931879132967319 0  -0.006444680417951605 -0.05040586804160346 0  0.01906069800019468 -0.0309046054356552 0  0.01150275108947399 -0.09635524642819854 0  0.007235001041198665 -0.0583413871267175 0  -0.04266236815601519 -0.02448949706598585 0  0.04922646847913963 -0.05435589493437482 0  -0.002128446896349319 -0.005558778610445462 0  0.01229555071344263 -0.09002829563473037 0  -0.02318227533166474 -0.01580650531755202 0  0.01096146710419377 -0.003238692235836799 0  0.01055347501393204 -0.00424475946838988 0  -0.03297153280663243 -0.04101499473543376 0  -0.007340542308472145 -0.02307391799637947 0  0.01052944543102311 -0.05581399301802334 0  -0.04737306889101364 -0.0798474371566628 0  -0.01485897016054213 -0.09368867535300184 0  -0.009323286804884994 -0.09916715629580101 0  -0.009323287097101576 -0.09770047473031518 0  0.01163034746040321 -0.09793854921008828 0  0.01324188268223744 -0.09810234971018493 0  0.01256237367513748 -0.09702289497206291 0  -0.03739309575081835 -0.009996010135558521 0  -0.04921020285260545 -0.01065059407912464 0  0.01940349300766561 -0.08936705953598478 0  -0.0257842088624462 -0.08291604950008008 0  0.04635079076156882 -0.09593888260183024 0  0.04647337115071861 -0.09422769362492438 0  -0.04767090812515538 -0.09317620599623104 0  -0.006249071800547313 -0.06060876924384152 0  -0.003102568130984983 -0.05436362550580803 0  -0.04106408065597141 -0.009996245502391511 0  -0.02542799795708001 -0.04479483493121309 0  0.04329752929153165 -0.05755973870007753 0  0.03100637709376907 -0.08053479388126505 0  0.02831884484157785 -0.003401060617554229 0  0.0191465061656788 -0.01547276049997173 0  -0.01988997097015064 -0.05546766440349681 0  -0.002517438096417613 -0.08100144689738387 0  0.04470869626285044 -0.06391911295524817 0  0.0002127074939897482 -0.06534830408767708 0  -0.03422224843399306 -0.06889777744763635 0  0.02805055736453134 -0.05068326298791215 0  -0.03843056223800735 -0.06973834569483539 0  0.03363438467912741 -0.08428491774871823 0  0.03286392495324215 -0.08401520782219932 0  -0.05 -0.01953125 0  -0.04188601603932592 -0.05031107753165542 0  -0.02449653464381428 -0.08455607145584534 0  -0.04363637837002142 -0.01343556691782299 0  -0.01044686978179895 -0.08127837724500298 0  -0.04278530720526914 -0.0896676900940149 0  -0.02398627150137211 -0.05863688441887165 0  -0.02465303598771708 -0.05812918139180416 0  0.03588176863732484 -0.02255058730029184 0  -0.009828985760994471 -0.01140168302902971 0  -0.04388206633219472 -0.002763780693430719 0  0.001605196611899942 -0.03890292090593667 0  0.001053102130198991 -0.03800463348460596 0  -0.009480530606579413 -0.02724292459646223 0  -0.02340825687174873 -0.02727620380667789 0  0.003118273794176056 -0.00116905049521571 0  -0.03759179389789043 -0.09820699940641441 0  -0.003162420600753828 -0.03323368680771423 0  -0.002191031161363861 -0.03372335296256596 0  -0.004396418383819089 -0.009081338672071395 0  -0.04477389573141601 -0.06270042432384107 0  0.02629817390909641 -0.03450520380030508 0  0.02502708400127265 -0.09629347078074421 0  0.04189718249837366 -0.07517061148432991 0  0.05 -0.09296875 0  0.04105223113742672 -0.07096916334755073 0  0.04236898988283932 -0.07075189460399796 0  0.02078565008827795 -0.04991071172254326 0  0.02034209617763912 -0.05131375106370384 0  -0.005021909429751716 -0.06161270929315379 0  -0.01845282597388314 -0.01361193829977236 0  -0.01853659348141045 -0.01273984773135653 0  0.03217584128125564 -0.04453898545044988 0  0.0325629064747769 -0.0431353741924602 0  0.004980711544435964 -0.01077029899390609 0  -0.01427721785280029 -0.06239463494372569 0  -0.03179127299448311 -0.05388122951694089 0  -0.04802249868396496 -0.01175650161078713 0  0.02118034274154895 -0.06799199529779312 0  0.03176996209107474 -0.08304628065959842 0  -0.001929893217889375 -0.02889852507789035 0  0.004677409678978139 -0.01895683429047638 0  0.005675869025455813 -0.01845215749771234 0  -0.04297668538751991 -0.01654891325436298 0  -0.04175979792476289 -0.01567172177654908 0  -0.04134476562548331 -0.0166724209183071 0  0.01115582969737145 -0.07920541699306632 0  -0.03844305397438898 -0.0388046031082122 0  -0.02980362228941141 -0.09747077854957303 0  -0.03049952402168869 -0.09796426291722937 0  0.02592633240092975 -0.03746299796580676 0  -0.04122708813047844 -0.05640228396678629 0  0.02955444956469416 -0.07733060422685301 0  -0.002421526119409082 -0.07032013718931464 0  -0.002524668394289037 -0.07580718053764303 0  -0.04792368423901551 -0.0255051535679883 0  -0.04809950905560515 -0.02380422839179878 0  0.02485883527919644 -0.01762885100512781 0  0.04930000895566084 -0.04020678941223942 0  0.006317019265378112 -0.02691260665006476 0  0.007011431430477664 -0.02643626232498568 0  -0.02578822818313613 -0.09366191125083609 0  -0.03957102986525501 -0.05984273510752115 0  0.007519732841956894 -0.08861761754296224 0  0.03324826282222651 -0.09927645459902565 0  -0.02324881014736775 -0.0983640560086099 0  -0.008698237355977115 -0.08292649164056839 0  0.01415805489372807 -0.02942161023492184 0  0.03654906951047904 -0.03879568379714713 0  -0.01367355727863183 -0.06386614946594422 0  -0.01453250783596039 -0.01325973674696309 0  0.03848124536829365 -0.07136735652878567 0  0.04919081126428532 -0.04861142642922801 0  0.02411831683685128 -0.09486422673745651 0  0.0137292172320761 -0.01658564592268584 0  0.03926287497320102 -0.05687777554203728 0  0.03904899330008028 -0.05771851475634669 0  0.03952727954169127 -0.05840380649841174 0  0.04039833657138274 -0.05827906207052057 0  0.02962274124364252 -0.005917148984741719 0  -0.01773638938285794 -0.036328125 0  0.03047260032479355 -0.06994293141237265 0  0.006816026229193175 -0.01489078209670414 0  0.04709103872012236 -0.04995173006623024 0  -0.01390355683914507 -0.05568270153303261 0  0.04589656950889173 -0.003573805863770221 0  -0.00586905631940867 -0.03357815340079642 0  -0.02221376479120106 -0.05234343668702428 0  0.01638181400416704 -0.096157390314696 0  0.01733996284768089 -0.09549538782781018 0  -0.009924754610984809 -0.05455729166666667 0  0.01836254642056745 -0.006447839675258821 0  0.04802453387574784 -0.02262591455097976 0  0.04790492741511326 -0.02116884237845207 0  0.04919209693573031 -0.02190207052071501 0  0.02169966255550151 -0.06508771556337724 0  -0.05 -0.03984375000000001 0  -0.04814495997416142 -0.04052257068766903 0  -0.04924748560874916 -0.04031608322590877 0  -0.00287542753149264 -0.08584615161320758 0  -0.003025407657585951 -0.0866814437479983 0  0.02855018907828421 -0.05383060813868899 0  0.05 -0.08203125000000001 0  0.02229815722026718 -0.01730699137674632 0  -0.01881952057760352 -0.05249975802305134 0  0.01510247903698194 -0.04110008155543951 0  0.003953573114924178 -0.006185468730167517 0  -0.01467259222148595 -0.09594159754809113 0  0.04775642404056119 -0.05842610502508496 0  0.05 -0.05859375 0  0.04911813507592377 -0.05930116668469767 0  0.01704722912345084 -0.08626297362765571 0  0.003089197759962301 -0.03525526758568462 0  -0.03070753223545937 -0.01668099456929725 0  -0.03259433850943211 -0.0434852922517632 0  -0.04357885917245356 -0.08407218455498726 0  -0.01072820497838999 -0.01025061360294815 0  0.02170604318837332 -0.02374402455160785 0  -0.04922455461825544 -0.06443688098864343 0  -0.02329932120688048 -0.02563724138259722 0  -0.02173721030604414 -0.02504008959644431 0  -0.02205259443600278 -0.02602936431398486 0  -0.03936070984844049 -0.04780898784864878 0  -0.001413820214484769 -0.01338377707631612 0  -0.009172087849533567 -0.01064962862994974 0  -0.01106419870140636 -0.07662716127153367 0  0.002721921584547614 -0.0881231396036012 0  0.01878667489761587 -0.09761043968622506 0  0.0191060931378754 -0.09923292695763056 0  0.001213221009969483 -0.09111507680249144 0  -0.0396181866105465 -0.0266997673580406 0  -0.0440056362888641 -0.0398565416611507 0  -0.04179255476714616 -0.05501918878363866 0  -0.0396235223768051 -0.06699687987245079 0  -0.00373365356032528 -0.06151221799444551 0  0.01328407758014279 -0.0320936893964345 0  0.01437240843506145 -0.03212949758169224 0  0.005066120788329439 -0.09926715972714915 0  -0.04477357718997294 -0.06642083518503715 0  0.04670334879929535 -0.09001060436615585 0  0.01028103803855525 -0.08267715796683672 0  0.003257649427971896 -0.09642360451419317 0  -0.04675112216308475 -0.02157357409167832 0  -0.03447111300161119 -0.02287650089141307 0  -0.01270493308378818 -0.05551724871195843 0  0.03791480894287141 -0.0378680623054957 0  0.04332249503488093 -0.04400954472691164 0  0.03563750132931714 -0.008645557643463917 0  0.03271742021877174 -0.08322028094748346 0  0.007111382511079293 -0.01225418106564317 0  0.02833354638547724 -0.0419223597095691 0  0.02890494583962678 -0.04335079001195453 0  -0.03834449606708019 -0.03194009107262229 0  -0.04343673675539644 -0.04850936029919775 0  -0.02987824520078031 -0.0243706822808699 0  0.02619444434742844 -0.0756549369596394 0  -0.0303696783115465 -0.01929300315670299 0  -0.005111292330623397 -0.02807015614372578 0  -0.02685616364590137 -0.0163452486694458 0  -0.03221032018009853 -0.09456134730401478 0  0.01522096945132972 -0.0524476587365288 0  0.01643655819786311 -0.05351938371399013 0  -0.0164035316778969 -0.07799694395753154 0  -0.03808283158387622 -0.05396302709362594 0  0.009441591301382505 -0.07075582196668639 0  -0.04263121832117878 -0.091200834956641 0  -0.04160267418060309 -0.09076082020883466 0  0.0107451252612515 -0.01591868335314901 0  -0.04286230997693206 -0.03612098372130792 0  -0.03168672415385409 -0.03050964673810231 0  -0.03204966656952236 -0.03186238516799931 0  -0.03306454847986401 -0.03073267011818305 0  0.03888357476347377 -0.04142548606930353 0  -0.006867649105054178 -0.0295496133343395 0  0.04915682890942059 -0.03283323344938556 0  -0.01071144375023018 -0.01282906069781234 0  -0.04350631331399319 -0.01521568836964083 0  0.01763082346370976 -0.06532854408064234 0  -0.0347419134992543 -0.07327335431523566 0  0.04066150413477645 -0.09916668245199237 0  0.04156075018139559 -0.0977860903506005 0  -0.01325823674966421 -0.007170118710090569 0  0.02241060388527248 -0.02940336982967176 0  0.002978995905049987 -0.006918411416020518 0  0.007370712551954593 -0.05660833694907999 0  -0.004421260649105425 -0.000765803252097074 0  -0.02951269362696986 -0.05147772039331221 0  -0.04657400671454084 -0.06776397476065234 0  -0.01037336429318097 -0.06854423293963093 0  -0.02189177498382382 -0.004401485480503695 0  -0.03212847764005831 -0.01738178592939637 0  -0.01588690805414283 -0.004831923508833366 0  0.0009755225304670966 -0.08955228587993519 0  -0.008263713421567264 -0.05832069757237705 0  -0.05 -0.03515625 0  0.01533458417296553 -0.06583322543186194 0  0.01441392242803067 -0.03341545907431911 0  0.04051135912931841 -0.04165336980642753 0  0.03998901211711429 -0.04067185826950453 0  0.0334601843581397 -0.04179832572334091 0  -0.007008173250718513 -0.09373725878215262 0  0.02528248194460871 -0.09706867557359662 0  0.02202991236783694 -0.08046303425584644 0  -0.01726787715643982 -0.06108002333518933 0  0.02127719379040287 -0.04571883627570053 0  0.02035738194285818 -0.04642778462678277 0  0.02169559629843502 -0.04715592609384327 0  -0.02812761273371309 -0.005217710081580386 0  0.02762098754026534 -0.0808982331632048 0  -0.0151304961958919 -0.08505851752372151 0  -0.0167827736641409 -0.08519085663866376 0  0.04431573251811709 -0.003071077274348643 0  -0.02535963166347237 -0.03340293720702157 0  -0.04712244893330538 -0.03470963464837662 0  -0.02738920808958597 -0.02311299741822642 0  0.04112194767241942 -0.03248154110437156 0  0.01122992492409546 -0.03029675782729065 0  0.02055248409300256 -0.02342154073639517 0  0.02374583344833944 -0.07649892185121038 0  -0.02903226765545644 -0.09494938329638025 0  -0.00214696703203685 -0.02527833814427115 0  0.04266186680773518 -0.03181537105509687 0  0.04336838197276393 -0.03133372297970868 0  -0.02821202643596899 -0.09429400650859913 0  -7.672346906997655e-05 -0.06371629858671721 0  0.04575498195678921 -0.05306083635542292 0  -0.04527626023683268 -0.006922552353315314 0  -0.003910864741861472 -0.00376936310109325 0  -0.004868850834391711 -0.003068020899931598 0  -0.01376498519398222 -0.002012359618231552 0  -0.02792932240237971 -0.02734738070773696 0  0.02437895887404052 -0.019906924790648 0  0.02327613493251285 -0.0194904216754231 0  0.0232463995121818 -0.02093210560607323 0  0.03320431480091402 -0.06664424157086356 0  -0.02824373479601916 -0.05249568437798162 0  0.0369342591518857 -0.05763320747763784 0  -0.02906624030662331 -0.0906755934303498 0  0.03854915176175686 -0.09343601364467063 0  0.03821340134691047 -0.08045662640795347 0  -0.00719317012896009 -0.009211302123607424 0  -0.008729508261129303 -0.008933373698257408 0  -0.008239863490874175 -0.01004180533931048 0  0.03225846181299916 -0.05829398570464869 0  0.004376629691705165 -0.09544474891166788 0  -0.03982380487417729 -0.09597153665142058 0  -0.03859143109853131 -0.09522200859842285 0  -0.02730768218778561 -0.0870947196812175 0  0.008483285119656205 -0.03387298663500214 0  -0.03027394858630217 -0.04477417488996849 0  0.01979894781030341 -0.002317331405807916 0  0.0220948347612705 -0.09305146825554143 0  -0.02738790462486957 -0.07216736030211336 0  0.0389518822515319 -0.03123051523147475 0  -0.04493762546862715 -0.03928188529236717 0  0.04130152842152214 -0.01501637469740259 0  0.008817853214266456 -0.01878461381238538 0  -0.006106111767649613 -0.04196792720531529 0  0.02952214306757526 -0.00428843008018403 0  0.007817675714363285 -0.04345290489701366 0  0.008847406024886172 -0.04342700490295247 0  0.008737092463757779 -0.04477279058892789 0  0.02175885562569645 -0.03727461964315785 0  0.01156573118666718 -0.08803045724203948 0  -0.04569748448566657 -0.01812510759229996 0  -0.01221465479479279 -0.0432156680523207 0  0.008165284189588803 -0.0899817893306494 0  0.02578125 0 0  0.0091332226021415 -0.08219603279017394 0  0.004699668922980266 -0.04308822352909396 0  0.04216150664577371 -0.02313222120493388 0  0.02796284298881208 -0.05735576244155639 0  0.04547296197861125 -0.04030216774406663 0  -0.03977305799940076 -0.01532400703501026 0  0.02926054868731185 -0.05018788461557448 0  -0.02170307467461945 -0.06077588172082277 0  -0.02115713262190444 -0.06170983406957798 0  0.02167121964266193 -0.07865183785985171 0  0.001543819308739509 -0.0007997125374748839 0  -0.01365019342522889 -0.03492357273874142 0  -0.009733413021096423 -0.005251751083471957 0  -0.0182821251756478 -0.006947070250699764 0  -0.05 -0.02578125 0  0.02890450049490706 -0.08299791266042518 0  0.02915364839608042 -0.08157165258038447 0  0.03799028634631921 -0.01647701242997569 0  -0.009765624999999997 -0.05082256178261781 0  -0.006472035934724511 -0.0953294895534314 0  -0.01519736009017537 -0.02304769345509009 0  -0.04218564594573568 -0.02903146133023195 0  0.01357175453829484 -0.04322282096510378 0  -0.04641833563214336 -0.03721298517884517 0  0.02056674877355658 -0.05870383596822776 0  0.01103924645448561 -0.01005180129542601 0  0.04763641962401608 -0.06000692844135017 0  0.04106426088996919 -0.05542893396569747 0  -0.03739189554230508 -0.002556937893002685 0  0.02053349674043505 -0.09734564150700317 0  0.01948383682601803 -0.09651094117123291 0  0.01307370558210673 -0.001382857913009191 0  0.0300041148897528 -0.03089213120389588 0  0.01823613845454356 -0.04268991129353276 0  -0.03192062028387574 -0.08529253786755595 0  0.03199333405130304 -0.0183659014674017 0  -0.02015670134346883 -0.0770493498888002 0  0.03649430503895513 -0.03603166871484657 0  0.03360421564728059 -0.02479039215925524 0  0.01472920792699167 -0.03980517272219029 0  0.01113980422322132 -0.02067595788728338 0  0.009743627130614503 -0.02143053912151548 0  0.0112459900584122 -0.02162653242599808 0  -0.0132950675398577 -0.09823555899105069 0  -0.0275070792579084 -0.002434450945359731 0  -0.0278326040527473 -0.0007460218218098144 0  0.04922677765079747 -0.09350318934101058 0  -0.0003459996976686348 -0.08619504402430028 0  0.03984375000000001 0 0  0.004674045341117769 -0.04475574539785222 0  0.00613661480887306 -0.04554232223030884 0  0.01912327772412659 -0.05114630431578684 0  0.01944074871082888 -0.04997733328209439 0  0.01828248459921331 -0.04978945049450195 0  -0.03294708832653603 -0.0936317434690097 0  -0.03204034002720046 -0.09276564870777644 0  -0.03363495830271077 -0.09271149122575101 0  0.02461145209866558 -0.05531623315844302 0  0.03344886800520305 -0.07640145435230399 0  -0.03995308167479024 -0.003535209296337014 0  -0.0394392725360976 -0.002852990662987812 0  0.01731608898442382 -0.03776294032046298 0  0.01877805495003968 -0.08821522232928121 0  0.01990044822944454 -0.08761459205626447 0  -0.03967774873421856 -0.05090615785706528 0  -0.0386357644942853 -0.05132534076863123 0  -0.03862014676861178 -0.04984929417481902 0  0.04560800149738985 -0.01962430125008496 0  -0.02280926053586777 -0.08440721807812723 0  0.03023813792333983 -0.08078755930324485 0  0.03410082604098577 -0.06800017310376992 0  0.03322612964755794 -0.01799186269682475 0  -0.03584676706158552 -0.04301442416585684 0  -0.03455124497225673 -0.09321242830316942 0  0.01835671539971684 -0.03845898750409569 0  0.02767561596546415 -0.008192315978287984 0  0.0004895543147889879 -0.09738370281204073 0  -0.03762518509305303 -0.07462844770176356 0  -0.03732843923945765 -0.07314567603829136 0  0.03051463314832464 -0.01576068195024932 0  0.02351320885437192 -0.06762017251502166 0  -0.03650140511640394 -0.04602267886182004 0  -0.009130209569669171 -0.0351685429227459 0  -0.004842036722304463 -0.01289846113337312 0  -0.03903698353153969 -0.001138559220350002 0  -0.01089713619937251 -0.02196869077066001 0  0.01788281522779869 -0.02235881500502017 0  -0.01568183992616144 -0.08770125262305933 0  -0.04496693389055404 -0.005140408048617871 0  0.02548682649594972 -0.04735664417739384 0  -0.03584335706654476 -0.09614329325751061 0  -0.03622819517115718 -0.09750959560061914 0  0.03945372412889288 -0.05507093595188445 0  -0.01328125 0 0  -0.04322739508373863 -0.09267990444227801 0  -0.02926201411037973 -0.06775390009963859 0  -0.02072311953113136 -0.03354920060316625 0  0.02375055082256058 -0.07163799148383937 0  -0.004999808875936844 -0.04097403706068113 0  -0.001130821703601626 -0.0590743305689063 0  0.04930249424320747 -0.09489179366294404 0  0.004148386146332957 -0.02047332823498232 0  0.01289293947757019 -0.03815556019265641 0  0.001753540509226045 -0.06589107018389248 0  -0.02431946353578779 -0.06503638803892998 0  0.02831149263320571 -0.09920622009111908 0  0.02937107687529049 -0.09627729263226703 0  0.01833371479767818 -0.04768618392969155 0  -0.03929476932089108 -0.08171931678051056 0  0.01390942031693218 -0.09515650030770427 0  0.01322976355069965 -0.09609159269293134 0  0.01477410722999428 -0.09619008549032232 0  -0.01464851930794684 -0.03782663439419219 0  0.03222959312175374 -0.04193215626605767 0  -0.04585919321298733 -0.07267568159649652 0  0.01835488213954782 -0.03929365178402553 0  0.03126793740757773 -0.09902435170196654 0  -0.02606320313605242 -0.05618921884084755 0  0.0461680608307724 -0.04111402142377076 0  -0.003553845916386907 -0.03069676004691533 0  -0.02828206619128053 -0.07429187708922642 0  0.02488407553475459 -0.08694224623096054 0  -0.04104866666961752 -0.09155493703057381 0  -0.008129716879975707 -0.02226929048489904 0  -0.04378673750392138 -0.01797644084692988 0  -0.04824799214607485 -0.08626613792979357 0  -0.04620465089448753 -0.08023937201943197 0  0.03773225339747587 -0.01513195080109571 0  0.04349990425716777 -0.0992442628792882 0  0.0439008244426446 -0.09822155354984191 0  -0.008697284795104489 -0.03664475622792867 0  0.006884924275594608 -0.06896805121622832 0  0.01114106996684886 -0.09920564407065094 0  0.0254552285434166 -0.09248211139125136 0  0.04151885026439938 -0.03141430388612743 0  0.04074189335383071 -0.0300243523292715 0  0.04158666058189824 -0.02999470349378256 0  0.02516439014251517 -0.03010964037379218 0  0.02450649575128689 -0.03117326234612546 0  0.02599895777430186 -0.03055391491107261 0  0.02703736975481739 -0.03125445985495173 0  0.02825782612346905 -0.03149712649713417 0  0.03815239079037065 -0.08724975792221469 0  0.03796898521998539 -0.0864642758462785 0  -0.0481818356414392 -0.05342571482964016 0  -0.02578125 -0.1 0  -0.01068537774488939 -0.04425221419383501 0  0.01360711052062755 -0.03369074611991956 0  0.005906683846244955 -0.096185129177141 0  0.03619284286153754 -0.009672216317173864 0  -0.03476624810210918 -0.07574182897881493 0  -0.001023387031531365 -0.0295302839488172 0  -0.03245566487409097 -0.09121236450534086 0  0.001844431910050811 -0.09557367034448086 0  -0.006627690173004356 -0.03122206136477106 0  0.02807565327514647 -0.02896335350935747 0  0.02877121313689804 -0.03041603180785585 0  -0.004989488887125296 -0.05055290532008919 0  -0.0290159680776457 -0.01036444909187761 0  0.01243096600678727 -0.02160581567238022 0  0.01119567343716233 -0.05484561317643064 0  -0.03713985468984416 -0.004022801011449298 0  0.004368751381831596 -0.06885185867845323 0  -0.04384894220155371 -0.007903366403521328 0  -0.04287987480309544 -0.01372704136670167 0  -0.04463391106474687 -0.008139817738390866 0  0.002800697175525691 -0.003574339497066274 0  0.02781389423292711 -0.03617993062231841 0  0.04030852765141736 -0.09518434696714789 0  0.04796763483231275 -0.01306702420544584 0  0.02425843785403557 -0.08843517656515722 0  0.02720052161038112 -0.07668513373764649 0  0.003652273905755764 -0.01984673919499202 0  -0.009368364680463249 -0.008031203853226929 0  -0.009085629002207937 -0.006474600387183917 0  -0.01015631001413321 -0.007343140582881997 0  -0.02666924719794902 -0.05886355326879256 0  0.04027788682699424 -0.01275785540149804 0  0.03019961022852448 -0.01886209109678722 0  0.0433537896132619 -0.0806751049034895 0  -0.03030342721435267 -0.05572260301159285 0  0.005627805702380577 -0.06726007252448424 0  -0.02239009392873383 -0.03522404188484198 0  -0.02131821127861092 -0.03635098463513366 0  0.0001936717050321257 -0.02352843789015312 0  -0.04807924415759297 -0.06485553717287404 0  0.009704020850335865 -0.05543254398957219 0  0.008723638586642718 -0.05624794598194009 0  0.00993495949874052 -0.05693760225725267 0  -0.03125843395885056 -0.06334849630980281 0  0.02411343059925447 -0.00532613069991363 0  0.02387567820193291 -0.00649968433773089 0  0.01783916791583738 -0.02680646634075134 0  0.01792273347460512 -0.09689600298841329 0  -0.04665149101424747 -0.09192248414129212 0  0.03086653175466175 -0.03990323573524565 0  0.03047128760903875 -0.03887882099189061 0  0.03128148005290738 -0.03839230472211026 0  0.01828220541211985 -0.06933986662584486 0  0.01884664763349831 -0.06877042470609439 0  -0.03599497962047021 -0.03965490053573569 0  -0.03532543153177801 -0.03854173958723073 0  0.008756112076269484 -0.05176864907543256 0  -0.04654982704439981 -0.06413307548514312 0  -0.04556639394600023 -0.06453554999348457 0  -0.04594748207099766 -0.06560170929733036 0  0.004403147843241501 -0.07838860051148883 0  -0.002503622758127301 -0.03532413923374218 0  0.0005934015953238548 -0.05729882964761387 0  0.005791393968377542 -0.09034742152262169 0  -0.001593367757823147 -0.08966620665343497 0  -0.0004724769090741349 -0.09022144255585858 0  -0.02428840894258192 -0.02084241833813755 0  0.04080022741793487 -0.0666005753171869 0  0.03097891685305171 -0.0217220049749095 0  0.02987994964660887 -0.02266554402740334 0  -0.04806542910762968 -0.09451629809339179 0  0.02438198219395161 -0.06931845772893618 0  0.04544088957114958 -0.06169430627113046 0  0.0120280812920249 -0.01935106956783559 0  0.01319439601677348 -0.0192271740519744 0  0.01298357574491721 -0.01808857869092806 0  -0.004764470634946674 -0.03282374353652013 0  9.71274434886177e-05 -0.00816926458114008 0  -0.01432647618191488 -0.003266771276385316 0  -0.01528512036196611 -0.002554787118203743 0  0.02190387719459358 -0.0008114977510895872 0  0.008869842498175773 -0.0489815424706211 0  0.003904289694252283 -0.04436417988024701 0  0.01709964538485764 -0.05861801380400061 0  0.02841370028772934 -0.08078867321144262 0  -0.04079093205075084 -0.08855709553250002 0  -0.03803235124832811 -0.06017721979715819 0  -0.04220139552359747 -0.01286688595014017 0  -0.00814922666678887 -0.02051893496082129 0  0.04104197768792748 -0.0499249026669563 0  -0.0004931513957792175 -0.05849523832334991 0  0.007713384269403162 -0.02680769492663831 0  0.01500919743788357 -0.04997713823221046 0  0.0135373837410655 -0.0501194367844407 0  0.01140844243033412 -0.08386606982128564 0  0.01177417983946106 -0.08543418252888878 0  -0.0357110352349839 -0.03257128547473527 0  0.03373245843426659 -0.02219576951649732 0  -0.03097660644749179 -0.02062685876669335 0  -0.04046193738472979 -0.06180763889741292 0  -0.004320856885582313 -0.07508406349662927 0  -0.002440596745948988 -0.0570569786796861 0  -0.03311297955794606 -0.05347256172071186 0  0.03493145480294778 -0.08256754165608453 0  0.04290843613178364 -0.0888549144210056 0  0.04410852578676064 -0.08789152482441409 0  0.03525316297855652 -0.08660307968524733 0  -0.02028558596180445 -0.04017150898958163 0  0.03667880817351991 -0.09772358509384381 0  0.0152027362562828 -0.07940536766701609 0  -0.02389715022476919 -0.03501551441866276 0  -0.049182188670215 -0.01425152882447437 0  -0.05 -0.01484375 0  0.02361798378678582 -0.09792792110054692 0  -0.0176807402763582 -0.0891477407814712 0  -0.01841502763734654 -0.08977186080382418 0  -0.01747970604245203 -0.09077724065848769 0  -0.01793269777076984 -0.0934891001993477 0  -0.01555840755068586 -0.09241909223774439 0  -0.01728176141242528 -0.09233419306995079 0  -0.01640658434863615 -0.09337610887551429 0  -0.0164816265770253 -0.09140408444483773 0  -0.0231874192512436 -0.02836848613857899 0  0.01370754053189178 -0.05537909265355249 0  -0.02611296372141006 -0.009139704808078249 0  -0.02027415104851266 -0.001326912769973081 0  0.02771219305647397 -0.07934770807208849 0  -0.04931380008382442 -0.041796875 0  0.006479344417596185 -0.01705449830495032 0  0.006728086585498407 -0.01581668316840639 0  -0.02782776683153977 -0.00374752760648682 0  -0.02522821198267265 -0.0498315398109203 0  0.02967754997300477 -0.0196572856674231 0  0.02866156600496097 -0.01924883776430182 0  0.02916452401152141 -0.01813259977275597 0  0.01335650942033747 -0.002119504912079727 0  0.01414892153895845 -0.002236451370236793 0  -0.02073020736728314 -0.02752195186360487 0  0.01419999720107572 -0.08109217193048984 0  0.04360856839682646 -0.01653828516119461 0  0.009549077284313749 -0.06724258782084208 0  -0.004097820916476091 -0.0811546468570767 0  0.05 -0.08984375000000001 0  0.0493023196263123 -0.08943477521409905 0  -0.003371093087935155 -0.006160882811804445 0  -0.004438659279458287 -0.00595004783240491 0  0.024155145819584 -0.009138452860851408 0  0.02336697337280892 -0.00815757561978585 0  -0.01221073598843816 -0.001896862657008044 0  -0.01957536600560239 -0.06282188351433667 0  0.04478092401039743 -0.01040682618178147 0  0.04424203281077446 -0.009309968640268722 0  -0.01363191821281052 -0.02966182476853573 0  0.005160730257923556 -0.02773062051660902 0  -0.02011242195872825 -0.03405096067473103 0  0.02750216581207239 -0.05583869667530592 0  -0.03634118303825026 -0.03019540607371079 0  0.00891434036030349 -0.05068231388829476 0  -0.02193866767488155 -0.0194316765256528 0  0.03335241713259643 -0.01551428097498782 0  0.0306943813211909 -0.07619046642770565 0  -0.04376736653207786 -0.09895048956553815 0  0.02374999180361079 -0.01313375528325378 0  0.02415252219301468 -0.01399925708163618 0  0.02495453655698962 -0.01257954542991591 0  -0.0482925804119013 -0.07888260556576922 0  -0.04722164781006397 -0.07821343299673664 0  -0.04811457718632752 -0.07734187072458966 0  -0.04562930685227903 -0.03754355216522729 0  -0.04613597053955427 -0.03880046658045234 0  0.002083504822652602 -0.04470634362459873 0  -0.03570767730707688 -0.05457392006716343 0  -0.02311230990760221 -0.08680832938470123 0  0.02685737213460632 -0.02102928540040169 0  -0.04909614416049253 -0.01991669641897072 0  0.03869576826911331 -0.02828661287608853 0  0.03968516725303751 -0.02885042039403318 0  0.03919490300915132 -0.02734204329517751 0  0.003694294688095502 -0.009268278471713113 0  -0.02807620314217212 -0.05847626651755618 0  -0.02840295196540482 -0.05959954859376767 0  -0.004822401228252256 -0.06411538324633385 0  -0.04880842738632077 -0.02813172875123528 0  -0.03057299858478306 -0.03490939400639061 0  -0.02880252557868677 -0.007990361950303277 0  0.01250203085801128 -0.0705304681650545 0  0.04178329506749622 -0.01822020557038 0  -0.01724665654276104 -0.08768772975411482 0  -0.01637701693866105 -0.08853151449677765 0  -0.01479852205666119 -0.08848515222220446 0  -0.01523368869322419 -0.08926782408133969 0  -0.02942160055247711 -0.08578518085308055 0  0.03864169870949133 -0.07266503979413205 0  0.01211228945754302 -0.05554270743707499 0  0.001958222466375814 -0.07326273375771261 0  0.02787374886901485 -0.04935372093004762 0  0.03051611589428275 -0.05956748898622415 0  0.01579450510257105 -0.07264428762608932 0  -0.02099893293752068 -0.06702094782968077 0  -0.02195238728976047 -0.0658522867450701 0  -0.02184331411332406 -0.0668576064624804 0  0.008403149328244949 -0.003395747434204171 0  0.01882283517175126 -0.05299819222793475 0  0.03134453709502551 -0.06268180778556924 0  -0.04426525248162443 -0.03540015952741059 0  0.02421875 0 0  0.01175726887097153 -0.002044732509034014 0  -0.02704455413607415 -0.00502954307173743 0  -0.004317187974947597 -0.09645032451655176 0  -0.04752574188199473 -0.08672404370655748 0  0.03998643634316509 -0.01421879438400557 0  -0.02236388765666052 -0.06237340911612168 0  0.001053085470199022 -0.009163724200396307 0  -0.0183029560967121 -0.05728507817750204 0  0.0304458964181578 -0.02372165121256586 0  0.02982699636204553 -0.02421933716342845 0  -0.02439861397335986 -0.07954808831727106 0  0.04918410444240148 -0.01252415743120572 0  -0.0464455443986688 -0.007859900734417192 0  -0.03231211263593406 -0.04251473418263182 0  -0.02948915006690216 -0.05918387118535764 0  0.04568236164466877 -0.07839291679450883 0  0.04455731263954519 -0.07923139994185766 0  0.04585572205900616 -0.07992817596599203 0  0.04630989962747693 -0.0805812668247828 0  -0.02367127659407538 -0.05262417164755066 0  0.009255837762212929 -0.01528886507286764 0  0.0454647114632702 -0.0445331640511662 0  -0.03436913264148391 -0.04352591520276868 0  -0.01977636127780385 -0.02084025635100957 0  -0.03635511764420524 -0.09500535116708472 0  0.03984520534299425 -0.092829234920085 0  0.04032065931468452 -0.09138415029011711 0  -0.01995946669710788 -0.06403247903012968 0  0.005192717878304125 -0.01998042913732459 0  -0.02843625283198479 -0.09353258529984022 0  0.0006024236993807593 -0.09059667791555717 0  -0.03941975779861129 -0.02962021549156444 0  -0.04112975110990137 -0.08266150213457443 0  -0.01350445337821702 -0.003984287110392969 0  0.03953109858139402 -0.03005362686416626 0  -0.02410538352811234 -0.09129409668351907 0  0.03859792811719128 -0.0447153995527845 0  0.009612901715946556 -0.03423145380039225 0  0.04290772188143868 -0.06361183205517251 0  -0.01949838053894956 -0.01245705536431704 0  0.0002347126784623708 -0.09321595672077199 0  0.01534761329994474 -0.03830066913694166 0  0.01567075854255661 -0.03722841161610946 0  0.01657873815995102 -0.03731912021891833 0  0.02168364916661797 -0.06257668639125297 0  -0.02311742742764421 -0.07365513575249755 0  -0.004962441136062307 -0.08461654058560888 0  0.04398454405380761 -0.09365589112635914 0  0.03713043131212154 -0.09424195911294363 0  0.03070834865403008 -0.02531348010011112 0  0.04921083184461203 -0.06071058212077248 0  0.02653623441571897 -0.08473925564493724 0  0.02762004308119927 -0.08396980616402951 0  0.0005341730378865496 -0.08220802030182248 0  -0.02597949223449948 -0.06027826528428052 0  0.005931561593282481 -0.0416413999456061 0  0.04747492874780601 -0.07665334413148889 0  0.04631685534223825 -0.07731231125144621 0  0.04921616586065955 -0.07499644053801501 0  0.04764851914186848 -0.07500565985116628 0  0.04684833719554793 -0.07422651510072313 0  0.04763930797656661 -0.07343802636823511 0  0.04712109952837425 -0.0726572214681214 0  0.04607159823354723 -0.07344724469344752 0  -0.005262312960262074 -0.03207189640928435 0  0.03056061627944694 -0.01274450820966901 0  0.02957353154326273 -0.01338573949616535 0  -0.003080812139558336 -0.07922891426621832 0  -0.04269249317303542 -0.08200384104040105 0  0.02089818552483124 -0.01953767266055133 0  0.0220929237095876 -0.0188878778389367 0  0.0226803678062627 -0.02250478334787762 0  -0.04929839437663418 -0.026171875 0  0.03789658556134993 -0.04831933140161925 0  -0.04381571788434672 -0.04156931875224159 0  -0.01989176007971846 -0.09185623730842644 0  -0.01903967769473799 -0.09098641556392398 0  -0.003136635138923575 -0.06973010671313028 0  -0.003991981314111913 -0.0708392108434813 0  -0.002930871284033717 -0.07121980022713624 0  0.04434980672386263 -0.05377608511172645 0  0.04519609955679615 -0.0542988286598822 0  0.02586828115193992 -0.08576208699076222 0  -0.03302836244797818 -0.01017678789094479 0  -0.01328970451772593 -0.0953044597694607 0  0.0463557756923447 -0.06796381558384477 0  -0.009372831133391704 -0.0960844281460987 0  -0.01015799373182329 -0.09529949158690035 0  -0.009276438023429699 -0.09451821514996048 0  0.02073647593737626 -0.009620632434898529 0  0.03450557183932589 -0.07866927114892806 0  -0.01015440539646621 -0.0984338153045254 0  -0.0214394924202792 -0.03905433654386554 0  0.01539228680651793 -0.0228745482739118 0  0.04919370582484751 -0.01092499960397269 0  -0.0385583008296749 -0.06292381076386742 0  -0.03753022591540407 -0.06206985015620846 0  -0.0370742997310265 -0.06330189991614316 0  -0.0369579717072185 -0.06128406171746284 0  0.04842673123270752 -0.07421822817898995 0  -0.02638683432410809 -0.06146402629952084 0  0.02028755617859011 -0.01122911171299678 0  0.04808507181956075 -0.04491923013784441 0  0.04917452989409751 -0.04374101911086223 0  0.03717414573320729 -0.02663775789126039 0  0.01719242356675188 -0.09921323472361876 0  0.01399922934314292 -0.08887348963648023 0  -0.01998464557440202 -0.03503406067848917 0  0.009507519496185383 -0.08914596244688094 0  -0.01250496901964104 -0.09608734025694317 0  -0.01172371771962513 -0.09530277725484124 0  -0.01172003297628724 -0.09843365432394588 0  -0.01250456818046001 -0.0976524063553665 0  -0.01250200426131521 -0.09921746957428913 0  -0.004058163112916582 -0.07847454111171173 0  -0.008605776418793443 -0.01422876006349908 0  -0.04004447921136543 -0.06334401369008155 0  0.0420914877946128 -0.02693427328843995 0  0.04351153956543474 -0.02635671907037432 0  0.0433120980911998 -0.02747654108734827 0  0.03337223929240855 -0.04987476065055427 0  -0.04062672822478975 -0.0009690476595617432 0  0.04835277596636021 -0.03367859065995189 0  -0.01015717129918471 -0.0968685515754967 0  -0.01093842163153279 -0.09765164417308261 0  -0.01094026489398454 -0.09608730157706362 0  -0.0007475004810581862 -0.01817946204407941 0  0.04835092777612851 -0.03202917160255217 0  0.04921786340257747 -0.03121905072669433 0  0.04840440806299513 -0.03046894643171671 0  -0.04839618142694095 -0.04609701473223313 0  0.03127004372066475 -0.04189798330899787 0  0.03105039033797852 -0.04093422796262437 0  0.03112821432330523 -0.08954281926469937 0  0.03149151495616364 -0.09023562549155718 0  -0.04919843315224527 -0.003117926704686903 0  0.02620765163499771 -0.05303924199781522 0  0.02588019546866889 -0.06269008655261379 0  0.02736674759782192 -0.06249351551707653 0  0.009547436095339893 -0.03714438486584653 0  -0.01093786200775488 -0.09921838667687632 0  0.03187921982320697 -0.06554148813091044 0  0.04376874763868113 -0.05623474844020925 0  -0.0255462113748799 -0.07402641658162586 0  -0.03869706770949508 -0.09930858071531708 0  -0.0378476790828278 -0.09929833541363046 0  0.0231690696779693 -0.04497137925873634 0  0.02305403063671873 -0.04382899940777656 0  0.02427902241779748 -0.04381886229269719 0  -0.0117236779945032 -0.09686967375495516 0  -0.02675183970317286 -0.08154252867324975 0  -0.01581560472758919 -0.09079198575877617 0  0.004773626377410049 -0.05191130634457561 0  -0.04883832453609433 -0.07812262281940417 0  0.04903220116852832 -0.07656103223876809 0  -0.02837503217277147 -0.08234789490229692 0  -0.05 -0.08828125000000001 0  0.05 -0.09765625 0  0.05 -0.06640625 0  0.05 -0.06484375000000001 0  -0.05 -0.06640625 0  0.05 -0.07734375000000002 0  -0.05 -0.07734375000000002 0  0.05 -0.08828125000000001 0  -0.05 -0.07890625000000001 0  -0.05 -0.09765625 0  -0.05 -0.07265625000000001 0  0.05 -0.07265625000000001 0  -0.05 -0.06484375000000001 0  0.05 -0.06171875 0  -0.05 -0.03671875000000001 0  -0.02578125 0 0  0.03515625 0 0  -0.01953125 -0.1 0  -0.05 -0.04296875 0  0.008593750000000001 -0.1 0  0.04921875000000001 -0.1 0  0.04765625 0 0  -0.01796875 -0.1 0  0.04765625 -0.1 0  0.04453125000000001 -0.1 0  0.03671875000000001 -0.1 0  0.05 -0.04765625 0  0.05 -0.04921875000000001 0  -0.03828125 0 0  -0.05 -0.04921875000000001 0  -0.05 -0.04765625 0  -0.05 -0.04453125000000001 0  0.05 -0.03984375000000001 0  0.05 -0.03828125 0  0.05 -0.03671875000000001 0  0.05 -0.03515625 0  0.05 -0.03359375000000001 0  0.03359375000000001 0 0  -0.05 -0.01796875 0  0.05 -0.05078125 0  0.05 -0.05234375000000001 0  0.03203125 -0.1 0  0.03046875 0 0  -0.05 -0.008593750000000001 0  -0.04453125000000001 0 0  -0.04899494520755344 -0.0296875 0  -0.05 -0.03046875 0  0.01796875 -0.1 0  0.05 -0.02578125 0  0.05 -0.02421875 0  -0.008593750000000001 0 0  0.03828125 0 0  -0.01953125 0 0  0.01796875 0 0  -0.05 -0.05546875 0  0.03046875 -0.1 0  -0.03515625 -0.1 0  0.05 -0.05546875 0  0.03515625 -0.1 0  0.03828125 -0.1 0  -0.03828125 -0.1 0  -0.03984375000000001 0 0  0.05 -0.04453125000000001 0  0.05 -0.04296875 0  0.03984375000000001 -0.1 0  -0.02421875 0 0  -0.04296875 -0.1 0  -0.03046875 -0.1 0  -0.03203125 0 0  -0.05 -0.03359375000000001 0  -0.05 -0.06015624999999999 0  -0.05 -0.05234375000000001 0  -0.05 -0.05078125 0  0.05 -0.01640625 0  0.01640625 -0.1 0  -0.04453125000000001 -0.1 0  0.05 -0.03203125 0  0.05 -0.03046875 0  0.04296875 0 0  0.05 -0.008593750000000001 0  -0.03671875000000001 0 0  -0.04296875 0 0  0.01953125 0 0  0.03359375000000001 -0.1 0  0.05 -0.06015624999999999 0  -0.00390625 0 0  0.00390625 0 0  -0.05 -0.00390625 0  0.00390625 -0.1 0  0.05 -0.00234375 0  0.00234375 0 0  0.00078125 0 0  -0.00078125 0 0  -0.00234375 0 0  -0.00078125 -0.1 0  -0.0015625 -0.09919572618118247 0  -0.00234375 -0.1 0  -0.05 -0.00234375 0  0.005468750000000001 -0.1 0  -0.01015625 0 0  -0.05 -0.00703125 0  -0.05 -0.01328125 0  0.01015625 -0.1 0  -0.01171875 -0.1 0  -0.01015625 -0.1 0  0.05 -0.00703125 0  0.05 -0.005468750000000001 0  0.01171875 -0.1 0  0.01484375 0 0  -0.00703125 -0.1 0  0.01015625 0 0  0.01328125 -0.1 0  0.05 -0.01171875 0  0.05 -0.01015625 0  -0.005468750000000001 0 0  0.05 -0.01328125 0  -0.01328125 -0.1 0  -0.01484375 0 0  0.00703125 0 0  -0.01484375 -0.1 0  0.00703125 -0.1 0  -0.05 -0.01015625 0  0.02109375 -0.1 0  -0.02734375 0 0  -0.02890625 -0.1 0  0.02734375 -0.1 0  -0.02734375 -0.1 0  0.05 -0.02890625 0  0.05 -0.02265625 0  0.05 -0.02109375 0  0.02109375 0 0  -0.05 -0.02734375 0  -0.05 -0.02890625 0  0.02890625 -0.1 0  0.02734375 0 0  -0.02265625 -0.1 0  -0.05 -0.02265625 0  -0.02109375 0 0  0.02265625 0 0  0.05 -0.04140625000000001 0  -0.05 -0.07578125000000001 0  0.05 -0.06796875000000001 0  -0.05 -0.09296875 0  -0.04609375 0 0  0.05 -0.04609375 0  -0.05 -0.08203125000000001 0  0.05 -0.09921875000000001 0  0.05 -0.07578125000000001 0  0.05 -0.07421875000000001 0  0.04609375 0 0  -0.04140625000000001 0 0  -0.05 -0.04609375 0  -0.04921789789084928 -0.04531250000000001 0  -0.05 -0.06328125 0  0.05 -0.08046875000000002 0  0.05 -0.06953125 0  -0.05 -0.08984375000000001 0  0.05 -0.08515625 0  0.05 -0.08359375000000001 0  -0.05 -0.08515625 0  0.04140625000000001 0 0  -0.05 -0.06953125 0  -0.05 -0.08359375000000001 0  0.05 -0.09453125 0  -0.01811109707026957 -0.0869441272902839 0  0.01574591891144604 -0.0112997915700486 0  0.01346100799272419 -0.04153364760301324 0  0.001953125 -0.09931894411089368 0  -0.03676046879187184 -0.08359643202111869 0  -0.04277953878324439 -0.04705670863196933 0  -0.04430543274697391 -0.04674927201386265 0  0.004595990561943114 -0.09654127288162741 0  -0.02935818186745272 -0.08283810463724092 0  -0.009078602345194539 -0.01981692047483933 0  0.02459424038670863 -0.003203721414532068 0  -0.01360683379876693 -0.08530533700384853 0  -0.04556346101309951 -0.0494897221353406 0  0.009573969933807642 -0.06199250968420549 0  0.008202521145948717 -0.0615182427115703 0  0.008591901191533987 -0.06078918878056761 0  0.008313658092736072 -0.08194739411379257 0  -0.020703125 -0.09932390738431329 0  0.04789510663443016 -0.06361982536463126 0  -0.01828738400210073 -0.01031752269971751 0  -0.01973859196003626 -0.009847735742302108 0  -0.0192433951180491 -0.01119342276943093 0  -0.0251604755779027 -0.02219825149936934 0  0.03364540587122336 -0.01100961234060301 0  0.0344099748065956 -0.03397270968801185 0  0.004442392098576772 -0.06395575210048368 0  -0.007021075047677928 -0.02796969905449921 0  -0.007920276400783542 -0.02723915574882395 0  -0.007109108168370686 -0.02641514820077812 0  -0.001764257268795441 -0.04378093260591959 0  -0.02433484477423856 -0.01922781536329251 0  0.0386895663439677 -0.07822848946498136 0  -0.03591769573464405 -0.02948841813473422 0  -0.02024940283368184 -0.02321379744995139 0  -0.008318233279924956 -0.0474015794144584 0  0.04465498593466272 -0.02657866507266962 0  0.04554167963983762 -0.0279195110803171 0  -0.01271582064324017 -0.03578951289580797 0  0.04314344358819774 -0.08354380735393295 0  0.04255173495982104 -0.0820491933968383 0  0.04366376330291053 -0.08268667500540686 0  0.04157945109974429 -0.03511273587825841 0  0.009276756716882382 -0.02651417994993853 0  -0.008575442515716151 -0.05542569532305662 0  -0.01386975431157951 -0.07682493625851113 0  -0.01879350236051684 -0.02608610027790634 0  0.03578023858218177 -0.06547969214197608 0  0.03513080003178828 -0.06498797023112267 0  0.03428702078775148 -0.06632951065838549 0  -0.02535343624332396 -0.08691032666382011 0  -0.04470278929108817 -0.06892230481412401 0  -0.002806470413855218 -0.02975980004941431 0  -0.03025172098081884 -0.06852191985928541 0  -0.02866250871203993 -0.06857782804733234 0  -0.02936005376636906 -0.06931997839632123 0  -0.01057297647966131 -0.03037351928570679 0  7.780253815453599e-05 -0.06695580914662672 0  0.001564365921008224 -0.06754757627642191 0  0.01131300729199367 -0.03326124919925071 0  0.01213101733961556 -0.03379112919952767 0  0.01073359972991518 -0.03459375967757484 0  -0.02626062192394624 -0.01511054948712248 0  -0.04095701056815785 -0.08998753443750802 0  -0.0419835057822515 -0.0897302468311636 0  0.006443130416820418 -0.06209394691117241 0  0.03520072716695249 -0.08949335308019531 0  0.009481760877532589 -0.002389079820635959 0  0.02069311936838724 -0.0471382323900434 0  -0.04705000330630989 -0.06523771175596889 0  0.03057935840900054 -0.06654312506492401 0  0.03170724400220683 -0.06641945668521773 0  -0.03650603702003766 -0.01574165810843753 0  -0.03981551506291973 -0.06059519707115719 0  0.03694846941667153 -0.05289281848336056 0  0.0357835450534159 -0.05317976203875355 0  -0.04250434823060914 -0.06340688452909282 0  -0.038548440520303 -0.006253084374444369 0  0.005302418084642739 -0.06655157833178751 0  -0.01502904743176567 -0.05924789818568688 0  0.005332371861361769 -0.04618592630854148 0  -0.04077541782007348 -0.03062499406316475 0  0.04922174850495898 -0.07343446460793164 0  0.01593373727651904 -0.0327037695211547 0  -0.0296544461614046 -0.07678256003488049 0  -0.001351883897277694 -0.06026870221372765 0  0.007070378649428163 -0.05734016526071182 0  -0.01579670248147641 -0.06750442397469028 0  -0.01692258075646806 -0.0663541446866667 0  0.04025783795425961 -0.07836783434300913 0  -0.01394004129064827 -0.09146095587582898 0  -0.01331756754736895 -0.0906526223730808 0  -0.01874913941710588 -0.02084455902131855 0  -0.0468227805163478 -0.01137130362079808 0  -0.04923824745714573 -0.05132562330007576 0  -0.04787785479043999 -0.05080723556642917 0  -0.04932756103476732 -0.050390625 0  0.03283516875313192 -0.08566866534645209 0  -0.04502831283197995 -0.06801649974997702 0  0.0175551976075902 -0.01553697380683793 0  0.01776445841610212 -0.01711438247150179 0  0.02718448309787037 -0.0121046478022512 0  -0.04547455147192753 -0.08480060902656932 0  -0.017646100863806 -0.06516513308372927 0  0.008650612864546379 -0.03899547932503776 0  0.0135205109065364 -0.0007429126321601214 0  0.007281802789402092 -0.01919964411048497 0  0.008038671375927954 -0.01794424976773359 0  -0.02025935661168446 -0.03261155138516506 0  -0.04548448674967015 -0.04566259184216529 0  0.01285914983693169 -0.04736440228694758 0  0.01300180111492156 -0.04605925117668933 0  0.04512621677190323 -0.09699106896249726 0  -0.04059104691976233 -0.0243268898592913 0  -0.01262457387384818 -0.05662845887276222 0  -0.03054435349740111 -0.02568613963787807 0  0.01225704294476369 -0.07701782882481398 0  -0.004709739696611502 -0.06279192617488642 0  -0.02104024274575264 -0.06321355173359043 0  -0.007955269061025436 -0.02531001979100847 0  -0.009490440623851831 -0.02567508393436847 0  0.02724799560690844 -0.06618893876913436 0  -0.003659355949910958 -0.05138448872458099 0  0.01037069188128972 -0.02045348787142754 0  -0.04660326814541099 -0.09282636453982428 0  -0.04582487534226302 -0.09320346078616008 0  -0.04675623835966431 -0.09449068088129264 0  -0.02709092559256276 -0.06206390015781527 0  0.01747841705251679 -0.09387023673828924 0  0.01769837862818863 -0.09252823501128235 0  0.01696873079554477 -0.09217784150682645 0  -0.01976728362450028 -0.07511643901214017 0  -0.03893017667793676 -0.02560765167819939 0  -0.03769480390656902 -0.02597565040911703 0  -0.04281925739579037 -0.03332781357679655 0  -0.01269918672325655 -0.008643105537841271 0  0.01972262386737197 -0.09825756523162855 0  0.01016116675454431 -0.09842930645836583 0  0.00940233777446868 -0.09922361511149001 0  -0.0002546117491797449 -0.02681810410993013 0  -0.03206117805963677 -0.06431496183837856 0  -0.01812615290523097 -0.01628150294853615 0  -0.04930008649638725 -0.007451522335171381 0  -0.04839958207104188 -0.008141530029181384 0  -0.04775615076429351 -0.007064823443671443 0  -0.01091571075987351 -0.0945289755095309 0  -0.01997027463809626 -0.04473118066099396 0  0.02832086717280392 -0.04463468580709543 0  0.02592024807294065 -0.0873683855049301 0  0.02683116641979845 -0.07427374922952311 0  0.03427362832315456 -0.08631441983871825 0  0.04734212393065049 -0.09141507051540365 0  -0.008561625303684654 -0.02819858972383619 0  0.03844123102742276 -0.03275202679365746 0  0.007495994994513318 -0.05082822399744162 0  0.02357251923995151 -0.03099369691221151 0  0.02012981684369754 -0.02008345506724675 0  -0.03898408658855223 -0.02821221544501041 0  -0.03850205926432341 -0.02917676405751603 0  0.03844943989561148 -0.06631004064709323 0  -0.00635086164903321 -0.05654818999901573 0  -0.03867836681288461 -0.08314172709775557 0  -0.03295946859461132 -0.08727254287691882 0  0.004417322088882724 -0.06104245864332499 0  0.02930622571156557 -0.05428971299883004 0  -0.02057948243390902 -0.0862854815308754 0  0.001928880667450817 -0.05532797866702755 0  -0.01528782691023523 -0.03354165428044421 0  0.03594690087839966 -0.003582969320737677 0  0.03650649925582059 -0.004440804484311962 0  0.0229992421382747 -0.0751207105622432 0  0.04707417872924924 -0.04198138612322904 0  0.007413441722993749 -0.04229597982118062 0  0.007222299536857559 -0.04129201944735896 0  0.008574932420944047 -0.04126874987354468 0  0.03929277106087607 -0.06870278467340823 0  0.0187451655535916 -0.01788959719251833 0  -0.0147539566292194 -0.09020142787629568 0  0.03335359865788181 -0.06400520202997927 0  -0.04635083195767819 -0.05064925791933152 0  -0.04482143234235102 -0.05013887173160925 0  -0.0140626607320206 -0.07802252678513673 0  -0.0006612263893560775 -0.04298533832149327 0  -0.0002172114455999778 -0.04396512126190017 0  0.002719785177798617 -0.07117600863378513 0  -0.01081705278225551 -0.08810812897436464 0  0.02410176369322603 -0.09922213719423523 0  -0.03513796840574596 -0.0922273880770034 0  0.02821812942648341 -0.06674091921101 0  -0.03531920481241778 -0.06780612657110856 0  -0.007053775316489435 -0.08713243703707287 0  -0.007292849159976813 -0.08629276193223757 0  -0.02669057877424197 -0.04066607036936697 0  -0.01014973198967123 -0.09374188673378593 0  0.01191971639216947 -0.006227271235133587 0  -0.008942732105038053 -0.02465078712363333 0  -0.005510181970902339 -0.03518636208239805 0  0.03791008497507257 -0.04618807838022845 0  0.03767101500064449 -0.04718354141505138 0  0.01992572770095718 -0.09159729912461428 0  -0.00837708400929755 -0.01161388292605721 0  0.0472744895703924 -0.03122756809655231 0  -0.01297174027550167 -0.02456651896707897 0  -0.01438858081412418 -0.02520775417489684 0  -0.01661796672013159 -0.02622930897041844 0  -0.01596511394238035 -0.02531207586003982 0  -0.01749105750295229 -0.02525039472264514 0  0.004160997324184408 -0.05044380379345362 0  -0.02513668397344123 -0.03935547884869707 0  -0.02556492311267935 -0.04001015258610123 0  0.03772438803401468 -0.02719766079909998 0  0.0390700535729978 -0.0988033746433466 0  -0.03384592681159906 -0.0126566375812136 0  -0.03305847101682162 -0.01244350088678977 0  0.01152441587295262 -0.00856139008565685 0  0.01681590696049899 -0.06240231771739912 0  0.03867813567529577 -0.07584744802358669 0  0.03768538754600474 -0.07509388621181609 0  0.007104883234833373 -0.09129802191186698 0  0.007852624216930044 -0.09162788072114364 0  0.007871313467247959 -0.09240912442287497 0  0.01435671518815023 -0.01279490320524748 0  0.01427922502907855 -0.01421125931700622 0  0.04354475066715444 -0.08504972948951492 0  -0.0115480646739398 -0.01857833330860605 0  0.04367121927247345 -0.04678813409359767 0  -0.01716799296756924 -0.06981503283937134 0  0.02979866719171137 -0.07846865834355995 0  0.04573155802622029 -0.04759231102146732 0  -0.04546040422813306 -0.003425111562028614 0  0.03608815780447479 -0.0131908687033327 0  0.03518407232643194 -0.01427285763087582 0  0.03529215025976383 -0.01273944454993895 0  0.01703559230145787 -0.06871669425647578 0  0.02784729605317488 -0.0716715980762537 0  -0.02862302013615605 -0.05701177488158295 0  0.04933111849217481 -0.06367187499999999 0  -0.04004238189392863 -0.09051567385189713 0  0.04395312782623505 -0.05796832536113572 0  0.001574091929941567 -0.008132422131256919 0  -0.04923844211725045 -0.08463981885848687 0  0.0278971785614835 -0.08545237117130287 0  -0.04029878494290896 -0.08694934428943231 0  -3.04439706833815e-05 -0.06122215112518635 0  -0.03742487470853636 -0.02247702905498325 0  -0.03809503029032497 -0.02173083296036466 0  0.002971009590560066 -0.06806557906938172 0  0.003325760704408613 -0.06917972332306167 0  0.03279263138805614 -0.08815350293660218 0  0.03214726287409 -0.08861027312432856 0  0.01314863336625717 -0.006571427009027826 0  0.002121958168439568 -0.08199843336209525 0  -0.01764589530199059 -0.09637098387235858 0  0.02440714289469959 -0.07093038454725845 0  -0.01249246496929714 -0.09451152079742514 0  0.04645629164144628 -0.03706561150485153 0  0.04584642420301124 -0.03605497697575831 0  0.04735059717227735 -0.03614957241998761 0  0.03739132284379799 -0.02913192970195071 0  0.03828697651363648 -0.04975394931943964 0  -0.009892077556534457 -0.06702041816878095 0  -0.01031214447988384 -0.06555803747973697 0  -0.005044572843388671 -0.04583278666346353 0  0.01088919501532303 -0.02476198499409262 0  -0.003443279787483276 -0.05253031144028041 0  0.03197337234824294 -0.07597246914492262 0  0.0213656693565444 -0.08119846669602081 0  0.008238042387118153 -0.004809161680022652 0  -0.01384394491357166 -0.09301135814338468 0  -0.01327711227947308 -0.09364873657645389 0  -0.01403586429398409 -0.09453405161866887 0  -0.003266789151813565 -0.01133396206294369 0  -0.0472934025813928 -0.02386140104248357 0  -0.03487988071180641 -0.05553847726380249 0  0.02562119317298426 -0.02511755579744928 0  0.02457940989654362 -0.02470504009024643 0  0.02389545966984426 -0.02337032930173764 0  0.01582125573645387 -0.0611354937825181 0  -0.02089970056500722 -0.02367917636034559 0  0.004590731327365292 -0.08174504758380639 0  0.002931643596779343 -0.07902084045055316 0  0.001935704102063777 -0.07858070465581661 0  0.003288156137034383 -0.07783124049499963 0  0.03203813446438183 -0.001871915008020702 0  0.01306697959657694 -0.008820978828170607 0  0.0327322535810978 -0.01477324707976284 0  0.03427635048098171 -0.01488622814705675 0  -0.0307733866721065 -0.08898698762922579 0  0.007493716888798019 -0.05159877348436538 0  9.608390603102783e-05 -0.05187656012164155 0  -0.001011642985600922 -0.0521929612187759 0  -0.03154716502959528 -0.02923064634070918 0  -0.03277847529395909 -0.02937434794988434 0  0.007434857349077907 -0.03980357053041533 0  0.0232217241105221 -0.05373114028033407 0  0.02294653486936134 -0.05475574101887288 0  -0.01366460025153953 -0.03912719310819405 0  -0.01866874408268036 -0.09884664693323648 0  -0.01255713452941723 -0.08992238042798639 0  -0.0004651560544588216 -0.02473630578042097 0  -0.0005911703792720693 -0.07207440326641021 0  -0.04252865964233808 -0.05885129347996944 0  -0.04812927445895653 -0.02690532218217164 0  -0.03698173455888445 -0.09317367294428416 0  -0.02511560178878071 -0.007466874510764632 0  -0.02466638374098493 -0.08041004767184512 0  0.02298069051138072 -0.0107672362216793 0  0.02351694731465907 -0.01176831781020077 0  0.02442197758260711 -0.09012800160669145 0  0.0002646939532506079 -0.006941982069173787 0  -0.02360530343137516 -0.09046689738587141 0  -0.02564713571552921 -0.08912902569570705 0  -0.02609162779377319 -0.08984365599242984 0  -0.03252646009044895 -0.06159603981925942 0  -0.04762216506894258 -0.05398193439196511 0  -0.008966593577247725 -0.004888735685465329 0  -0.04924423375735051 -0.02453067188639956 0  0.01234295143840399 -0.07779006928832259 0  0.02816266126624991 -0.08768227278304538 0  0.01274286320316309 -0.05462615199619116 0  -0.04812516337886926 -0.014366595698825 0  -0.03692822672185825 -0.03669860595798367 0  0.03779027533685283 -0.0766197011881752 0  0.04565934461150877 -0.02357212054304753 0  0.0463978833904975 -0.0224825508609518 0  0.04716228653238095 -0.02322489851254966 0  -0.005877426533176714 -0.08261169136228411 0  -0.01622305158723287 -0.0557365837014517 0  -0.01581246041879246 -0.05694488284718496 0  0.02371726598324933 -0.03539516077704305 0  -0.001284389803366994 -0.06472142008594117 0  -0.01056754967432291 -0.02503716103439336 0  -0.009708804600315316 -0.0241418535551057 0  -0.01066508286430157 -0.02350298291039599 0  0.0440923239675968 -0.05899065247974498 0  0.04520004063473074 -0.05887488630113265 0  0.04331394071984698 -0.009797938308072672 0  0.01036879767784541 -0.02532886938242557 0  0.04492187500000001 -0.0993367408344295 0  -0.01542293353960295 -0.004186756187351436 0  0.02479032667710717 -0.05948613688410144 0  -0.0115561562054599 -0.07772890009945763 0  0.03552914082276246 -0.06207562164720874 0  0.01915178549641643 -0.0946785950631877 0  0.0202013320697131 -0.05229710399251966 0  0.03625181900315769 -0.03006105811272385 0  -0.03601051963051252 -0.06864862584990251 0  -0.0270545026810278 -0.01253129355651176 0  -0.02859161025559078 -0.01267820700406333 0  0.005026804398225904 -0.08755518442070166 0  -0.04273431217060744 -0.06041686494635497 0  0.03401528111450357 -0.01659088837700589 0  -0.007197787994500162 -0.005065024422480299 0  0.01838384868580616 -0.08710336140404346 0  -0.02261083000237029 -0.04402324028772447 0  7.229632826385917e-05 -0.0324569033588888 0  0.0005224068225590573 -0.03149738246808332 0  0.03725523180389789 -0.08505335742602986 0  -0.04323489586676728 -0.01187041356230734 0  0.001248117284909355 -0.06905005788839194 0  -0.009691748382640064 -0.02251749441778803 0  -0.02389453426391919 -0.03345104026472075 0  0.009975501356829551 -0.0106322616005212 0  0.04177629441662375 -0.06962871240888857 0  0.04720129364295762 -0.05166849587449329 0  -0.03991201088708084 -0.004374023846661786 0  0.04295061868905209 -0.04108613621447505 0  -0.01108441145473727 -0.03913199082347691 0  -0.01205853749124628 -0.03804793668490096 0  -0.01069130291316963 -0.03797642682667562 0  -0.02532261880789165 -0.09232606451116128 0  0.03232159730053929 -0.01118357080582607 0  -0.0471338500385511 -0.02745777110787444 0  0.04003182389795409 -0.0734510003365576 0  -0.03113966066826145 -0.005249894483846493 0  -0.01484436103023272 -0.053177613177563 0  0.0492600347582314 -0.08728293619017369 0  0.04812335795487596 -0.08645351034162584 0  0.04807319281139962 -0.08787357771324288 0  -0.03510333608916928 -0.004179230783098631 0  0.03164888015585223 -0.0307057951428072 0  0.03233116211313725 -0.02921297058506906 0  0.03262139259309946 -0.03049230771750868 0  -0.01115940028567453 -0.01203558852752512 0  -0.001409438040458167 -0.08601335085962428 0  -0.04412402699492274 -0.07935345759146714 0  -0.043381464265994 -0.08061061885221162 0  0.037291502003478 -0.06386737149436707 0  0.01534961315632837 -0.001744141346067425 0  0.0157398962017295 -0.0007693324611658815 0  -0.03481388126159449 -0.08898650088737216 0  -0.04792955742794909 -0.02091268059689786 0  -0.003211020134551105 -0.06717633500689914 0  -0.009401708547500283 -0.03340000539618008 0  0.01931938476217591 -0.02287340172432777 0  -2.237063582346956e-05 -0.07307551382053433 0  -0.0007419264127819941 -0.07359855476574882 0  -0.003052933419260916 -0.07434831275868228 0  -0.0003461073365867375 -0.07454225455406269 0  -0.000436518632046079 -0.0705509549400242 0  -0.03877867948051405 -0.01827891006720403 0  -0.04738790299280769 -0.09693725246019225 0  0.02716127055292909 -0.03841991646364806 0  0.02711853316864464 -0.03761214648829422 0  0.04482131190325546 -0.05667960858361763 0  -0.02529445952407134 -0.01432064133034562 0  -0.02603763914734072 -0.01348630993999362 0  -0.04710504327805845 -0.03809320159991524 0  0.009892886331137581 -0.09373912343233162 0  -0.01415059099322529 -0.006509403817082801 0  -0.005078125 -0.09933326037113432 0  0.009484618383766482 -0.01003609910615348 0  0.03934796245511568 -0.06327843648283667 0  -0.01209264700554209 -0.02529398402248105 0  -0.01187110824915217 -0.0267704959988 0  -0.03866804356703613 -0.01749700283500473 0  -0.001520505416015084 -0.07275092578123998 0  -0.002121918237856722 -0.07209545899210974 0  -0.001193709668496334 -0.07124463958218744 0  -0.01427058293461038 -0.004825872168627036 0  -0.01341219385338506 -0.005532191038222886 0  -0.01492324293814393 -0.005790969779187386 0  -0.02847329789577473 -0.07776760412988341 0  0.0133312263231125 -0.0536699478078155 0  0.01695301456444724 -0.04296696042404056 0  -0.006764204201621919 -0.01224230278997696 0  -0.02124775079756949 -0.03501926725171368 0  0.03916796391071364 -0.01174233440125862 0  -0.0375488387571904 -0.08431775240553714 0  0.0163540638534671 -0.004171094241428188 0  0.01567710775471828 -0.002732207107627972 0  0.01551380612510476 -0.003934896122359262 0  0.04913842125221508 -0.02967160283566133 0  -0.009222662629419155 -0.08675528813523099 0  -0.01444509796854066 -0.08054697336890367 0  -0.04262498661530174 -0.0580279624874731 0  -0.01036661732769916 -0.02653527597159582 0  -0.01106689783081704 -0.02735292771592129 0  -0.01009601957933919 -0.02805515616558164 0  0.03127710527712671 -0.08365818204111933 0  -0.03583563174186845 -0.07254795136375596 0  0.01425515091435516 -0.07596268600837867 0  -0.01093694063203421 -0.09143387575140022 0  -0.01023603406348547 -0.09062636844103678 0  0.001271749862374138 -0.06310667213226993 0  -0.01859596505897999 -0.06271954867043776 0  -0.01834125061829598 -0.0619826864254531 0  -0.0148670199708196 -0.05573006067818259 0  0.03918169036444545 -0.03802514475103379 0  -0.03912928056604045 -0.005587107690959833 0  -0.03020688927380774 -0.05714965770817872 0  0.03021255261113609 -0.002864251041852744 0  0.03104158358285472 -0.002427236393568722 0  -0.01635851833674235 -0.07324361477025008 0  0.001158232955188235 -0.07640019473555763 0  -0.008716190638427069 -0.09647785093400527 0  -0.04273653389174947 -0.0179909270168525 0  0.02666229959888775 -0.02971732424044275 0  -0.04364533151359239 -0.03361574294397477 0  -0.04340364506696369 -0.03478956295477967 0  -0.04230066152422717 -0.03430743417415356 0  -0.04644733125279941 -0.02502762721431857 0  0.04820696601889862 -0.05070358748861621 0  0.003242127494917087 -0.03682656579956602 0  0.03312421382529587 -0.0791726792378105 0  0.03705462903092586 -0.06184231583413599 0  0.01840302363335929 -0.0648257732946414 0  0.001150600837414062 -0.07486440222985374 0  0.04581612750358365 -0.03759054445943365 0  -0.04647124127031751 -0.04763865279495214 0  0.01730572630596718 -0.06944076102656527 0  0.0363779414322053 -0.08683794370820026 0  -0.01168848539736522 -0.09375677526487046 0  0.01015486626286396 -0.05940361631863737 0  -0.02624985510077728 -0.03408030453232994 0  -0.04696980394606601 -0.07171971679158662 0  0.0003975159586999144 -0.04932877316072869 0  -0.008842159459019608 -0.0889870492913606 0  0.0121640595859544 -0.05973841703838714 0  0.01141890291130516 -0.06014249859166463 0  0.01256975000486979 -0.06113634055900704 0  0.03754367222893217 -0.04353690016128518 0  0.02262364768897175 -0.005867696201648002 0  -0.03164018863646305 -0.01235437287721266 0  0.00223452389402545 -0.01083999279578502 0  0.00154245905564549 -0.01048553410046035 0  0.01516308152143439 -0.08670489518949002 0  0.04620450380183612 -0.04659523031285225 0  0.04524153948719997 -0.04613593467423799 0  0.04667475507123681 -0.04560929630156606 0  -0.04355841450645392 -0.08642238256445105 0  0.01715385618945747 -0.00723499371426975 0  0.01065456545229344 -0.02603658789834409 0  0.04270759531988064 -0.09134006072290125 0  0.04187289451604512 -0.0911774196405002 0  0.02616360141535693 -0.0816969710314252 0  -0.03819546060689109 -0.05290899805150062 0  0.03462764468175632 -0.02397932529045189 0  0.04680848171444396 -0.07577131862056198 0  0.01857598986277497 -0.07005464243182632 0  0.02668561114835291 -0.03327646899871877 0  -0.01937492710460864 -0.04893360049693543 0  -0.03246686319371639 -0.03271624857449686 0  0.04648028680314401 -0.05639762908868164 0  -0.02773924659687085 -0.03491511311234224 0  -0.03185479897409139 -0.04174255529112405 0  0.001913227324554544 -0.01205878369710994 0  -0.003072897872866425 -0.01961349424579671 0  -0.003638666768515941 -0.01904924413927635 0  -0.04905893828956042 -0.04685338286187613 0  -0.01024736608312792 -0.07793729769914372 0  0.005129765229324929 -0.02244783402023869 0  0.004639364698451059 -0.02147711334494299 0  0.04196197458995823 -0.001728887821176196 0  -0.04425913942598295 -0.02190231076269671 0  -0.04497028636413618 -0.02230006071715246 0  -0.04353825337626486 -0.02224615282540551 0  0.04125977125647219 -0.08528002642016309 0  0.04075574013531294 -0.08668137780547158 0  0.01893960271534418 -0.04710210363875125 0  -0.009796443600546663 -0.06433191573971296 0  -0.0344364757379954 -0.03992621070116419 0  0.03738595996376343 -0.02811975258788231 0  0.03639866834414321 -0.02796308457313994 0  0.04705281620602655 -0.02662059679801568 0  -0.004683720142028269 -0.03972318048205371 0  0.01632359077519742 -0.06715393142216486 0  0.03965310389995458 -0.02102185911660749 0  -0.03467016106613446 -0.05201080392795093 0  -0.01652015687625315 -0.007075252594903903 0  -0.01594675587628781 -0.006526886031265258 0  -0.0004181034051946764 -0.03491844181387849 0  0.006166730381747603 -0.02887579535389186 0  -0.005768926253525531 -0.08843648139564869 0  -0.02601604163725181 -0.07072833653674138 0  -0.01887308832486481 -0.04438261816621748 0  -0.02013095039614051 -0.04354730314991618 0  0.012217335455683 -0.08435322631646126 0  0.009534067830569593 -0.02522345479232823 0  0.0359550295085283 -0.05562925463298157 0  -0.03277269425434905 -0.06688803102198086 0  -0.02163933637555537 -0.0409232304131012 0  -0.02252144866774243 -0.03960835769031518 0  -0.02140629385735885 -0.0401157363016361 0  0.03688905237193818 -0.02389841738840898 0  0.03663511473778266 -0.02520229099751582 0  0.03607050067805969 -0.02375577992637085 0  -0.03589099210671877 -0.00256286498748714 0  -0.04070026511876092 -0.02012299976737182 0  -0.001267505656912231 -0.07527215117467304 0  -0.002779211345273321 -0.07508942977080225 0  0.004085133467278081 -0.02618265966263463 0  -0.01176658164287181 -0.09058723721508943 0  -0.04337053039488795 -0.08330409586535951 0  -0.005460705174442134 -0.03629817742300539 0  0.01834684346308142 -0.05614599304748208 0  -0.008495246325970918 -0.07208986359868363 0  -0.007776477088896762 -0.0713571106730716 0  -0.008969586462761877 -0.07065116485438952 0  -0.01918991385850153 -0.04330507828292077 0  -0.02958309306384083 -0.005561618584547221 0  -0.03014181122196827 -0.004337082479304613 0  0.04520095932388055 -0.09166111304317279 0  0.04420226691397466 -0.09091596628879645 0  0.04508607887737643 -0.09017635023715372 0  -0.04934592328207812 -0.034765625 0  0.03898920533364858 -0.09605781760142756 0  -0.03499401220498705 -0.07730036189669746 0  -0.03386893926742163 -0.05457265907200155 0  0.01277329225376542 -0.07602355293318243 0  0.04748440830053306 -0.07963511006569089 0  0.009365618448158215 -0.06949509231865494 0  0.02294011952574926 -0.01634118305579284 0  0.02406298542808279 -0.02230547832516959 0  -0.003345015086534083 -0.09462448948798016 0  0.0284027771530572 -0.08429544563623599 0  0.02096554442343293 -0.0121472149351151 0  0.02198396682867101 -0.01292236256605882 0  0.02249405440074334 -0.01222319697487266 0  -0.0302015022476604 -0.03759088736234451 0  -0.01881284573773219 -0.09255205992378496 0  0.0285123173680566 -0.03937299552396729 0  -0.004241120397978902 -0.02291522333329487 0  -0.003457422232540672 -0.02350095965224724 0  0.04752708573467235 -0.04686005268222888 0  0.04129379830869293 -0.04288672373814657 0  0.01478293242493486 -0.0621008425574739 0  0.01433106187638132 -0.06330043349375199 0  0.008603464746038392 -0.06216592366590659 0  -0.03476284458214737 -0.06244774184898565 0  -0.02083372015307077 -0.09802227978847787 0  0.02713362731134989 -0.02500076641158544 0  0.02839215953333599 -0.02551572554071369 0  -0.04185959350103687 -0.07878307727726186 0  0.009846567094876529 -0.06482107394547872 0  -0.04925930946212584 -0.0981217004751946 0  -0.04747522562277978 -0.08118857182248988 0  -0.04653181435646111 -0.02795320736021054 0  0.04268578709579891 -0.08451632464800356 0  -4.080251393843191e-05 -0.005523378416527418 0  0.008105983255826092 -0.08432682973630357 0  -0.04932900303352528 -0.087109375 0  -0.04831961352880453 -0.0877473165307477 0  -0.01783690390814716 -0.05259211653326107 0  -0.01711878606571922 -0.05374344230736883 0  -0.0001085086506284479 -0.06268111333087172 0  0.003688086733347076 -0.02195558228145852 0  -0.02829264988961181 -0.01835442090938635 0  -0.02380863107453995 -0.09680533279727717 0  0.02430765428529344 -0.06664277122076641 0  0.02477103096038747 -0.06801388487131989 0  -0.02590641974110561 -0.0190824838669283 0  -0.0257801839056283 -0.02023393506914383 0  0.02309817726375652 -0.09082061526695573 0  -0.03379116105245213 -0.03051152994090809 0  -0.02600048544821213 -0.04622414723477281 0  -0.0262821079206246 -0.04495641385170001 0  -0.01038644659219291 -0.07215171154831047 0  -0.009552889817013232 -0.07285878952241416 0  -0.01083883011176738 -0.07350317574368234 0  -0.03180591922905076 -0.007945369485210841 0  0.0406552876068359 -0.05711950339776328 0  -0.001781841459341202 -0.01469159412826686 0  0.03880043771795505 -0.01968752631151501 0  0.04543419306879207 -0.06479857797477551 0  0.007723794609558489 -0.0007885086184944882 0  0.04932324706101546 -0.08550254308834249 0  -0.04481124675752624 -0.03267098914273637 0  -0.04323434748882651 -0.05732909471682402 0  -0.02320001060590407 -0.02353982950597037 0  -0.008656676526803637 -0.08449435688961217 0  -0.01753661151226635 -0.05858239973355842 0  0.03705776033454788 -0.03748651835314744 0  0.01718441742409283 -0.06358295552645477 0  -0.0009474925006750269 -0.05296397745399047 0  0.008609402186924783 -0.03312264902873106 0  -0.04413528221402127 -0.05253055842963515 0  0.01459003672835864 -0.07072598153592626 0  0.01626696528495212 -0.0523824583562094 0  -0.04083919428333021 -0.02961506422153502 0  -0.002245816947615567 -0.05202986168113579 0  -0.04064740339830719 -0.007413053853787403 0  -0.02160134943005725 -0.04695374636207629 0  -0.02836852232455124 -0.08604203644145719 0  0.001969484016597227 -0.03096274240527748 0  0.03962200796645172 -0.09747819517878346 0  -0.009226142117337924 -0.09297151695991095 0  -0.01018289796096855 -0.09221081047130109 0  -0.01095055732830792 -0.09299509881715504 0  0.005551512168277688 -0.02567208642901624 0  0.04032271568531871 -0.08047614790347597 0  0.01710950160874886 -0.06139493628962821 0  0.03793812105601481 -0.06910095282999675 0  -0.008265742503300807 -0.005708998235152076 0  0.001259213542113625 -0.04693334350772622 0  0.03651843278156064 -0.03257451141018917 0  -0.04525394949698851 -0.06329010755184199 0  0.005261191571519655 -0.08682909819129508 0  -0.03472313052090987 -0.01523525930119719 0  -0.03704992019515816 -0.0855465024254686 0  -0.01905370399317935 -0.08616953869157301 0  -0.004952446410457226 -0.08714425561803965 0  -0.0306715894754617 -0.09102540315700998 0  -0.0317125341068106 -0.09071143677941663 0  -0.03110522902025819 -0.09216174581345299 0  0.0231027158780889 -0.07935153904446998 0  0.03184306735660979 -0.08460511574592787 0  0.02507698406837137 -0.08437736389318441 0  0.03290604911048491 -0.06309800885811752 0  0.03286342641306912 -0.0169578335328718 0  -0.04318344936727481 -0.09611928968151774 0  -0.04246459206593965 -0.09716192845865208 0  0.02798268169049478 -0.06379744836834546 0  -0.01665738070360793 -0.0311138282400192 0  0.01107912800058222 -0.04335777928312533 0  0.00981547605473965 -0.08120790167671404 0  0.03019833337301119 -0.0142447563459455 0  -0.005887573603886828 -0.0637396676757172 0  -0.001710001110899766 -0.08191716869177461 0  0.04061654880954666 -0.06813604210387619 0  -0.02754459770175955 -0.09624460777452412 0  -0.02635047775148069 -0.095987372481042 0  -0.02665784531174996 -0.09498613222820487 0  0.025630012488265 -0.01666585475675122 0  0.02678477618763338 -0.01684118449241784 0  0.04798651956923609 -0.06127176449800734 0  -0.03276598160879114 -0.001090770214326838 0  -0.02608382858707832 -0.08766953841007744 0  -0.03329331113365566 -0.04688110940938647 0  -0.01994406913610887 -0.007180571311675212 0  0.04474672669136767 -0.06826059634956834 0  0.04591797487297641 -0.06877613105344038 0  0.007229855405058259 -0.09340172424943995 0  0.006662262570286183 -0.09400803428097142 0  0.04537304166373891 -0.07229501699301415 0  0.03301425616571077 -0.09771454891804437 0  -0.03261338178895679 -0.01805469768435418 0  -0.03334413622349418 -0.01670894383319305 0  -0.01693136996526204 -0.004665053730364042 0  0.008565429455475358 -0.09270937333852225 0  0.02773145283464093 -0.06454039821261383 0  -0.02499251364800125 -0.0406408663096015 0  -0.02888266704415292 -0.02922117921936402 0  -0.002456770930919563 -0.06649899420395776 0  0.02607913816874251 -0.07410703543569865 0  0.02687714375510559 -0.07532433414545484 0  0.01548618601702051 -0.02111835004648989 0  0.01456295718943371 -0.02158278773257674 0  0.01419897881187921 -0.02032007262712742 0  0.03822478800107223 -0.01289169944112925 0  0.0001238212531849369 -0.002812010339599495 0  -0.0006478684349232467 -0.002187713552658686 0  0.0008767111095050632 -0.001940333163543817 0  -0.02150252390115266 -0.05577179124004949 0  -0.0450193594904835 -0.07556183804480604 0  0.03248430541673426 -0.0518290261685465 0  -0.03042221340947737 -0.03015093828856764 0  0.006829318203094202 -0.0744081866476817 0  0.008042665191926658 -0.07653568237668826 0  0.01620504879234063 -0.05546152912786829 0  0.04600106945620289 -0.01647767939461425 0  0.04918677572269985 -0.004712496916372751 0  -0.03391714656296508 -0.03916401123884483 0  0.01255801740822734 -0.02912249570047791 0  0.04142832248131787 -0.003376242053179604 0  0.04069108690416664 -0.003105031373605864 0  0.04154583804334466 -0.004126979350990746 0  0.04229980095162594 -0.004270070220136912 0  -0.01519359627019615 -0.06459108293750712 0  -0.02383119894118993 -0.08491648842884952 0  0.02812186178765157 -0.0899058334535866 0  -0.04351128003198677 -0.07530091874451321 0  -0.04264682222028096 -0.07611427680155285 0  -0.04415070689963716 -0.07614993763343253 0  0.0196053022044379 -0.09406734620220804 0  -0.02481054411517482 -0.03139224606024336 0  -0.02430519503141517 -0.03234863169545592 0  0.04838687072437871 -0.06920282957728421 0  -0.008916393461333241 -0.06912143222025907 0  0.02122053402318852 -0.001657124948019624 0  -0.03042555700244574 -0.0422693472616994 0  -0.008494077271290148 -0.07814382066180132 0  -0.009525183085885063 -0.037982806696719 0  -0.02292112306871455 -0.01138293968972405 0  -0.0321380816821993 -0.08607654478159463 0  -0.03490936943130159 -0.06400076250886118 0  -0.02179699018346364 -0.08210556644973822 0  -0.01612929424798774 -0.09594015295598629 0  0.01114886760177547 -0.09275277890655254 0  -0.04416930284576921 -0.02351138879460987 0  -0.001668227971467532 -0.07853460420462163 0  -0.003909534252237195 -0.0647447905283116 0  -0.04149245728797844 -0.01741168284740123 0  -0.03390315517271792 -0.05797577625503138 0  0.03060629078921552 -0.05866188436938397 0  -0.01765844549701425 -0.03879862051896073 0  0.009222967359958562 -0.0318831840057817 0  0.03634649437302961 -0.05157104513300384 0  0.03547980982180961 -0.03720591384033763 0  0.02487401316011842 -0.03942525625752259 0  0.01884586602827588 -0.03781573110406528 0  -0.01526819938339237 -0.03676785164575693 0  0.03856178022821544 -0.01372405892300357 0  -0.01591259272352026 -0.08436407825459553 0  0.01224226370543444 -0.02044672147314232 0  -0.04281791717986581 -0.07954651292464179 0  -0.02272599686479678 -0.01518852213863665 0  -0.0167101888022144 -0.06420347341230496 0  -0.01642976287680196 -0.06348043259876385 0  0.04002141775769813 -0.04784733156823264 0  0.01427859099133976 -0.0007813409049958406 0  0.04661950820335856 -0.004023866109443389 0  0.008450396544321774 -0.03061294774678632 0  0.007174450189579057 -0.01084037598506657 0  0.02914574091250679 -0.0007258621766650892 0  -0.03706405110425131 -0.05536637453806968 0  0.04280927891825069 -0.09683309992988173 0  -0.04418898909790055 -0.04872534977950514 0  -0.04041902466488313 -0.02609350761471704 0  -0.009781267888379009 -0.009791566483786686 0  -0.04826204098711225 -0.01557483941371842 0  -0.04013911377385695 -0.01894765065904705 0  -0.04310151168732101 -0.064516381061967 0  -0.04267005526802889 -0.05636127551870323 0  0.003915376526772357 -0.07033063335789841 0  0.04435866153431478 -0.02768261730120911 0  0.01089652887305715 -0.07155865479479818 0  0.04564823311081714 -0.0117088596183244 0  -0.01642177257250474 -0.0868028256948707 0  -0.04659657339734462 -0.003491311791450687 0  -0.03667470845252883 -0.07203159435601186 0  0.002229039790540759 -0.04763414787977364 0  0.008455101944889827 -0.09548937613918453 0  -0.02892514421921007 -0.04237033587178897 0  -0.03040202776544568 -0.07131710386060444 0  0.04431858385009937 -0.03784645968379659 0  0.03137487863490746 -0.05192833895403192 0  -0.0493315640530728 -0.068359375 0  -0.03623415018222498 -0.0584984336941607 0  -0.006543435849400138 -0.07651315907013802 0  -0.0474177659329795 -0.01618175496221356 0  -0.04666545954653548 -0.01625762201239538 0  -0.01926977579388029 -0.005766376607788574 0  0.03224493484428766 -0.01975235740114703 0  0.02283279742228046 -0.08782156706877488 0  -0.04049017832953245 -0.04964926477470781 0  0.009730742847492164 -0.00931439584348509 0  0.04821259783987133 -0.003926961063947737 0  -0.01163853366836425 -0.02276529575959625 0  0.02518599580598218 -0.02622559497682985 0  -0.006642579512867865 -0.0585680874631529 0  0.009207833559708374 -0.09478792542570948 0  0.008142703145763206 -0.0939191481855319 0  0.01434133664051059 -0.06149222097636234 0  0.02150841161614237 -0.06077480734997617 0  0.04523952579551847 -0.002319720610101868 0  -0.02462686671090988 -0.07788173071693449 0  0.01030989209729056 -0.01529885815828928 0  -0.01705014495332427 -0.01507136538765206 0  0.01056866730042049 -0.09152993161758025 0  0.04190301122519089 -0.02059886417142898 0  0.03496742575325475 -0.04652458791879202 0  -0.02765373756613691 -0.05012428821850362 0  0.02218970105423859 -0.0762645793463433 0  0.006595505513304093 -0.04692476525932537 0  -0.04011779082323091 -0.0567692904327409 0  -0.03926630699246439 -0.05708319483527048 0  -0.03986797332711371 -0.05825509495634202 0  -0.006756280195555394 -0.06818252657114215 0  0.039653117550846 -0.05184629972560074 0  0.03941505025871625 -0.05063929151832842 0  0.04400144668144264 -0.08655210159976219 0  -0.02065512374610471 -0.005183421277508463 0  -0.04172721070249632 -0.07104275593173934 0  -0.04183048491634164 -0.0718156094356988 0  -0.01783891293619003 -0.03763020833333333 0  0.007616712798472574 -0.01707787754619581 0  0.04704927793353123 -0.02857724787194946 0  0.04814216761344461 -0.02758662786457334 0  0.04774625998785022 -0.02912330922908863 0  -0.03410373220238322 -0.07287350264453592 0  -0.04685631662786705 -0.07020140741844959 0  -0.04028322063985379 -0.0546182587308642 0  0.04431470559889928 -0.006682145261696298 0  0.02762035124343227 -0.08319697166855243 0  -0.04395432496241981 -0.006822502415631973 0  -0.03199721094057308 -0.02808084719258951 0  -0.02204042012813557 -0.06360534113794573 0  0.00570217988770747 -0.06941831452037743 0  0.005044172283615113 -0.05293461836575179 0  -0.03916181178674697 -0.04353679748996518 0  0.006865149366819467 -0.02800198472665858 0  0.001764268678270144 -0.09259686294365618 0  0.00281902627705712 -0.0930469224612593 0  0.001392912942802422 -0.09352603135443496 0  0.03905744283805893 -0.06048173370776231 0  0.01383905854055105 -0.09887275860656339 0  0.02880429175480879 -0.00782523800186978 0  0.04295446266834325 -0.02494583461914165 0  0.04374477687628589 -0.02532381097946204 0  0.04423766077605997 -0.02412520356453322 0  0.007256791337368454 -0.009323752269824443 0  0.01772115419383099 -0.01903055468131414 0  -0.01302954787404326 -0.06229229160882711 0  -0.01301061169847658 -0.06338664475555732 0  -0.02434951339011142 -0.05964477729754907 0  -0.0001315177519171985 -0.01064523945895128 0  0.02795496324041352 -0.07537024541962775 0  0.02832056957148112 -0.07464085449181691 0  -0.03344483836897033 -0.09512130815171609 0  -0.01272508327943093 -0.01570277756227683 0  0.0197870824357148 -0.04592694637218671 0  -0.005720518424961013 -0.03958750026828659 0  0.04843457599676355 -0.0007784692220633384 0  -0.03550125587684404 -0.06344877826355494 0  0.03096353695096887 -0.03414120861130588 0  -0.0352114565194273 -0.03399161042725922 0  -0.04457205901832925 -0.03011764279432326 0  -0.043971228096899 -0.02940969712774815 0  0.04452661304000796 -0.07332047565615551 0  0.04306745039205521 -0.07299201831083074 0  -0.04079869275873986 -0.0927709370765577 0  0.02322168140928887 -0.07233698806423665 0  0.0464145320898405 -0.04308986833295251 0  0.00374329565709057 -0.02440232073402417 0  0.0231815564424299 -0.04651832167427978 0  -0.02122737194205394 -0.04243005114267576 0  0.04832530668100146 -0.002460065723060833 0  0.04606395068305975 -0.001605730644729831 0  0.04925544230259642 -0.003242292129924041 0  0.04672247023809523 -0.002527621722015204 0  0.04754718706872842 -0.001817694758272336 0  -0.03057198114210332 -0.08369822977504363 0  0.0451718684307572 -0.01785179506322811 0  0.02082262738751902 -0.02617440080576273 0  0.01950608971215985 -0.02576188841820724 0  0.00493437921028842 -0.01339101686305579 0  0.04018060429219954 -0.04885707464844175 0  0.03890804790835746 -0.0480866986175929 0  -0.04722620876751873 -0.00914786196268306 0  -0.02148836511733504 -0.08528930730885255 0  -0.008642627522097414 -0.09395822725828666 0  0.007820528175720206 -0.0211557593251987 0  0.008745837750659357 -0.02145340229743056 0  0.008744596821479267 -0.02003708747779563 0  0.01779146739951802 -0.004985200212709494 0  0.04283235026489038 -0.04261537596316656 0  -0.005407055804255273 -0.07291248950019608 0  0.01410524809856417 -0.09039930187476432 0  0.0097242808304429 -0.04223715194919597 0  0.009514070341243483 -0.04122310614054416 0  0.01021758146442497 -0.01134072877647855 0  0.002309949381199255 -0.01651651380044924 0  0.00228674612522999 -0.0157256656361484 0  0.01457585676917864 -0.04896284105379869 0  0.01196318636141218 -0.004382029241051568 0  -0.03556158486008344 -0.09364945136017751 0  0.02912701451754212 -0.04243601321358374 0  -0.003190628893104566 -0.02035353806993835 0  -0.006177785474113405 -0.03655307487556333 0  -0.006697854971444111 -0.03540902026751609 0  -0.0302881813415422 -0.00820132926540665 0  -0.02975878567304376 -0.007050183996839361 0  0.03218686187011491 -0.04067168361528773 0  -0.03888311150327827 -0.02689860421422951 0  -0.04582680443212048 -0.09395442762454057 0  -0.02916804840073676 -0.06188689066272363 0  -0.02876986020670553 -0.06055387219531429 0  -0.02790686602615712 -0.06123433793541758 0  -0.01046956765869197 -0.08571980018252086 0  0.04414730852305434 -0.08413414309278376 0  0.04467992792620589 -0.08318499512480849 0  -0.0009923433717702905 -0.0575957747501601 0  0.003897652444681033 -0.0769423711633678 0  -0.04832628490115662 -0.009344795037231273 0  -0.04935804371219468 -0.009765625000000002 0  -0.04823152195111392 -0.01070143066028785 0  -0.04714317146734225 -0.01025969477122695 0  -0.04617013032500164 -0.009120778641386149 0  0.03462191924512807 -0.03780551039539725 0  -0.02923213453549761 -0.00439810044665614 0  0.01006072540969103 -0.03102574414850649 0  0.0288611156932468 -0.06254664517310321 0  -0.02079714292367414 -0.00186307566298025 0  -0.03481109255640989 -0.03479383223926667 0  -0.03396858266243561 -0.03473888079884559 0  0.04618278491801586 -0.01763192548323331 0  0.0004371303965855442 -0.05979213019284173 0  0.01801981879773269 -0.0789376894708588 0  0.04724705750565338 -0.08908996328492053 0  0.04575387044160473 -0.08936236059952669 0  -0.04341914009959481 -0.0527599031150393 0  0.01658130191055564 -0.06600221667390192 0  0.02047643906915872 -0.07637101050246854 0  0.02028691801235982 -0.07777056632163006 0  0.04084057994981363 -0.04439334230036664 0  0.01126664326227425 -0.03921424088279831 0  0.002985635028654117 -0.002480115525257073 0  0.001869606660034751 -0.002287526879437561 0  -0.04820003710554448 -0.0690292679567317 0  0.02846467462776828 -0.006832003344705516 0  0.02751749094100816 -0.007026100046913965 0  0.007573828237492621 -0.04580427699475523 0  0.03729683671357262 -0.005509009436012721 0  -0.02973491713148912 -0.03844621356062967 0  -0.02675188931075938 -0.04820611547626012 0  -0.0274193104329868 -0.04715655312119398 0  -0.01293363632610497 -0.08010360757591604 0  -0.01329093173631194 -0.07939070984118303 0  -0.02072041696583575 -0.04819646025804299 0  -0.03928752334496034 -0.09343497643280727 0  0.006478472118159028 -0.002843818942658644 0  0.008405855303000953 -0.08349653348859747 0  0.009357710520576839 -0.08470965229382507 0  0.02408691545311137 -0.01646445973993459 0  -0.03367731524279338 -0.07424620764314288 0  -0.03297547599714503 -0.07377411323773543 0  0.03018352122688734 -0.04219098574536641 0  0.02889811534431023 -0.04143365106278488 0  -0.03222615708790918 -0.04109173491050173 0  -0.01377791221683851 -0.06109127689913086 0  -0.01429216132850418 -0.06048753508067083 0  -0.04362160249817572 -0.09752983685993302 0  -0.02559644248840892 -0.01731238365854241 0  -0.02553835757675687 -0.01652340110169747 0  -0.04115362381291358 -0.02317925913386162 0  0.03555638699051127 -0.005067074568575457 0  -0.006550517914263061 -0.04528228913827167 0  0.01051769018531577 -0.0734040220580733 0  -0.02403260185922942 -0.09532867985708063 0  -0.02291834638247257 -0.09576743064642516 0  0.03552671875920785 -0.06917215898017803 0  0.04846361234984538 -0.07746864004782944 0  0.0492658813582551 -0.07833979531424086 0  0.04828112687152609 -0.07893498268468847 0  0.02321143118374914 -0.06359140684564261 0  0.04322480872342509 -0.07009630625534335 0  0.0002123868045740165 -0.01309081838475646 0  -0.03112944158791617 -0.06962811121459722 0  0.02132302907323479 -0.01809509548715824 0  -0.007033825254568936 -0.01984166280978765 0  0.02866650760956976 -0.01113123362557803 0  -0.02153106206688736 -0.05502257309739608 0  0.03642624642612424 -0.08241283352377299 0  0.0177184373404712 -0.04165664142168726 0  0.01607446949729203 -0.04005455194655991 0  0.01622930900998435 -0.04153802007218917 0  -0.03212464006626824 -0.001860794599271977 0  0.01651920633018126 -0.0007710824899972615 0  0.02167951988614218 -0.0748505521974278 0  0.02131755839999852 -0.07556207692972093 0  0.04143012657662649 -0.09922920829754939 0  -0.004387469591725163 -0.08590898219426457 0  -0.03832701645799966 -0.02347168174459426 0  -0.007575436290895406 -0.01091532703399411 0  -0.006338891633753133 -0.01086233764368889 0  0.04542065401049485 -0.03293496801817122 0  0.04023179623091524 -0.004405459839094801 0  0.04009467305823338 -0.003648638427796416 0  0.002437961480241475 -0.09395435645033244 0  0.01460267876064127 -0.001644126904925552 0  0.02023269079043417 -0.07856078569153098 0  0.04543467868236575 -0.02868511158328552 0  -0.04796925190412802 -0.09840816267352426 0  -0.02600430956321005 -0.08443922988050385 0  0.03586226919016018 -0.08371223742539066 0  0.0008762163065614127 -0.06168717592076441 0  0.03406309857434364 -0.003263185030866554 0  -0.04546717383801819 -0.03121510547204669 0  0.04107063194256406 -0.04748219108923946 0  0.01075253505400005 -0.03174701473443738 0  0.03907282265616216 -0.08737693575732949 0  -0.002806420230545155 -0.02697853388203671 0  0.016920816359734 -0.03603607260980258 0  -0.02943543267809235 -0.04510988152059101 0  -0.02941979380388338 -0.04588030346763953 0  -0.03005490710194721 -0.04638196143138738 0  -0.01356736162882319 -0.08773469662947926 0  0.02605458517385703 -0.01114587774209172 0  0.02074740090994203 -0.06997902999673598 0  0.0006503922352691627 -0.06388357686292871 0  0.04723661311571408 -0.06934740487419705 0  -0.03623899810832287 -0.02452991182227306 0  -0.02580512280664965 -0.07180299984337427 0  -0.02862553202738443 -0.04083474196203678 0  0.02386028806197771 -0.09655913952743914 0  0.02319456762595609 -0.09527809141826189 0  -0.04204138449354805 -0.01152587089543896 0  0.007027688646293949 -0.007274768039689246 0  0.007466952963383838 -0.006172099779709559 0  0.006161380815560277 -0.006124477233741857 0  -0.01368353524359069 -0.01385228064788245 0  0.04009434960084375 -0.04333647752897642 0  0.04665303451239256 -0.09172486990768204 0  0.002973034477302455 -0.031906218849424 0  0.02185976348980182 -0.09479870139679195 0  -0.004876909592902015 -0.06681733002519626 0  -0.01851221712543995 -0.097629372624131 0  0.01597903503672353 -0.01256143106529697 0  -0.04680195854559771 -0.03128049235712656 0  0.04692209997314461 -0.001022722331207797 0  0.01017593491193742 -0.06058515802357144 0  -0.02014959006753024 -0.05128078572408799 0  -0.02012912972542691 -0.05027241180636673 0  -0.01916966131737396 -0.05012151403278518 0  -0.036925602859506 -0.05706292821264859 0  -0.01353645620132556 -0.05784385569260698 0  -0.03387603029704492 -0.04813136516343233 0  0.04441140285339889 -0.09262775034018135 0  0.008222683034376553 -0.06844677866985356 0  0.02933205426847602 -0.07375396320566513 0  -0.03643336649099509 -0.09108210523711366 0  -0.01160072006263248 -0.05538116410823912 0  -0.03697559333377989 -0.05121334713610553 0  -0.03612521495790821 -0.05193462017157128 0  -0.03994673600342322 -0.0168196736163277 0  0.02749003333762426 -0.09781836119010849 0  0.01326741985668763 -0.02162490410712951 0  -0.01865209819427336 -0.05611289710341578 0  -0.01375595603708478 -0.009724359827926308 0  0.01548074407345948 -0.04797511272481892 0  0.01666367224102658 -0.04775709741317399 0  0.04679337011925457 -0.009668800655429931 0  -0.01089719040796485 -0.006125885404530673 0  -0.04702567013429114 -0.04885694258825619 0  0.04650109509397358 -0.05930993590839736 0  0.004391985356937354 -0.004305611639481226 0  0.01607725611280265 -0.09802162224844488 0  -0.00789271162346367 -0.02882806048739664 0  -0.03685662066364725 -0.007284913683159575 0  -0.03563425150670717 -0.007793074176039288 0  -0.02057120549518619 -0.009246810235703324 0  -0.006328507872698307 -0.09009751371986038 0  -0.02075826077303912 -0.03206058846568081 0  0.0004828960278387746 -0.06808628287450819 0  0.02257601578156055 -0.009475597534479723 0  0.01677526478444335 -0.01018638835901276 0  0.02266871602725196 -0.09735394092428623 0  0.036395238904997 -0.09592649259420537 0  -0.03912414117351012 -0.07530553622485456 0  -0.03839000468334373 -0.07549182914081935 0  0.02951475247992704 -0.07524360223092007 0  0.03330698539693889 -0.03334608232817058 0  -0.04572950653084493 -0.08259637679906695 0  -0.02356747740466918 -0.07480276798425955 0  -0.03433277126281054 -0.08443814929779762 0  0.04857746125567154 -0.02845261983117273 0  -0.03593664725776723 -0.08883440435856038 0  -0.03947449394135592 -0.02103422745040861 0  -0.002207773339773005 -0.01021505451889355 0  -0.01495730339269673 -0.08695676827727929 0  0.0239663661151691 -0.09229436315332071 0  0.02314142432685531 -0.09194353512336897 0  0.02446407589220574 -0.09124016567106058 0  0.01297356812486407 -0.007315757511282047 0  0.03804110995914808 -0.06403119749674395 0  -0.005800577473827132 -0.02275050616271795 0  -0.0002977192497771204 -0.07842959258765596 0  0.03678677110161158 -0.03148060387575961 0  0.04293906681079097 -0.002712802967361128 0  -0.001764105139696375 -0.006540211562454437 0  -0.01721912049904695 -0.09925002423160363 0  0.02734337780790468 -0.002681762167375511 0  0.02957893004919277 -0.08992747499547542 0  0.02090889904961394 -0.03136388744247601 0  -0.04232997827640499 -0.06854761787464524 0  0.024060610027678 -0.0611802449110993 0  0.04121780946802844 -0.0223783832688277 0  0.04045197308983949 -0.01743976444616116 0  0.01855270856620917 -0.05748962810558017 0  0.01570010029550402 -0.04252371717870216 0  0.01505078941215943 -0.04327870074148174 0  0.01603867094011954 -0.04396316660149188 0  -0.02443864875015822 -0.0874591526672682 0  0.03500372222387726 -0.08748173654352398 0  0.03561160530081429 -0.06811542251129325 0  -0.03108654890172712 -0.0433817536653222 0  -0.030059071969278 -0.04369680964542794 0  -0.03922493115004447 -0.06552011468177574 0  0.03386395370824713 -0.05122033560138372 0  0.0065190751004419 -0.04815049257913737 0  0.0335039009299558 -0.02768232616086402 0  0.02126211213257945 -0.05288094514667369 0  0.02086044383686342 -0.05376639822351077 0  0.00106109315990794 -0.08123647511266101 0  -0.001889324930806408 -0.09114733415023234 0  0.01320132401202073 -0.08065864846371291 0  0.01334478818287605 -0.07828189864883299 0  0.01477563925418907 -0.07788445983246857 0  0.01284067097263916 -0.07922189216118196 0  0.0122720680130164 -0.08012433955143243 0  0.04525381430920071 -0.008871725368915449 0  -0.001912618990470401 -0.07967178674096032 0  -0.000816217640462717 -0.0797472536751809 0  0.03017381216899461 -0.03623963847938135 0  0.03088511308321451 -0.03526470242720826 0  0.03162771612433167 -0.03587178361856895 0  -0.0302392963548737 -0.09644221043052166 0  -0.03127699740731285 -0.09687844989080341 0  -0.01404684954876539 -0.05333513554062036 0  -0.0444853155400176 -0.06507679275441226 0  -0.04409435993880322 -0.06411326786596173 0  -0.04352780031592614 -0.06548224446351898 0  -0.04390209907120837 -0.0664401792471344 0  0.003850196125158146 -0.05599272648662189 0  -0.008211740996699156 -0.04065930773040707 0  -0.03117672188319302 -0.08677471406875617 0  -0.02975404616569893 -0.08644743686925774 0  0.04605940544406494 -0.09220987229245867 0  0.038355320909038 -0.02679976532496319 0  0.03274454779704291 -0.03594109711477492 0  0.0337215451509995 -0.03612172563416373 0  -0.01913695427017387 -0.03279835146788 0  -0.008559425075123606 -0.07584458509234526 0  0.02355436343576615 -0.07011339829689393 0  -0.027152866869859 -0.08926399353835811 0  -0.02464627844799756 -0.0279840901573657 0  0.03588676732081332 -0.05433320894212093 0  -0.0403740848203344 -0.01277433355592812 0  -0.007274516157528465 -0.01822010292136941 0  0.03318623237697979 -0.06916454698071307 0  0.007981986547406587 -0.01210064428760955 0  -0.01576851706744827 -0.008036318791438535 0  0.04032575379714849 -0.03425850893056531 0  -0.01922963454301464 -0.01488662759230897 0  -0.02382323382211895 -0.03985661892718597 0  0.01549843008352507 -0.01199787712606435 0  -0.02359647107023407 -0.004550487307744123 0  -0.02383813097481356 -0.003080097947646399 0  -0.044349375617184 -0.003762093024984649 0  -0.002039475595158815 -0.06491931198648501 0  -0.001242702123875372 -0.06375989658471709 0  -0.002334217422511157 -0.06362961712819264 0  -0.0144156446474238 -0.09750070538934326 0  -0.01511121443844161 -0.0968052774642548 0  -0.02933474719235878 -0.01369277102509739 0  0.03082892656522947 -0.007804485525312921 0  0.02269377555293062 -0.06142291693027437 0  -0.02434891472215199 -0.06910704378908961 0  -0.04195369790565499 -0.00758714523738206 0  0.01881237794074045 -0.05672081673596394 0  0.04612315510416571 -0.07497136000995944 0  -0.02912153189962207 -0.03498708538581539 0  -0.04528949180198528 -0.08620839762182876 0  -0.04676970668409378 -0.08608312041427076 0  -0.04602088647623832 -0.08534222350733395 0  -0.02009384772187199 -0.07086197164074343 0  -0.03850947917412209 -0.07398338056590852 0  0.02555147366983913 -0.05630876812341943 0  -0.03394498613996214 -0.07685789308600911 0  0.04440780579904882 -0.02893410712511866 0  -0.03707203635753355 -0.01948702332527172 0  0.03693921223815431 -0.06507401683769386 0  0.04345320691303074 -0.03671390429003046 0  -0.0001552252641373121 -0.0916892670745188 0  -0.02060162043954332 -0.08237508761273313 0  0.02958006676674099 -0.05254240196602417 0  0.03006032647777475 -0.05196124893333256 0  -0.04280503728442881 -0.04933601423221904 0  -0.04340169736404566 -0.05030191503895756 0  -0.0424808205314858 -0.05078658973596987 0  -0.04754448253154448 -0.02905879824385941 0  0.02817123824049151 -0.02181633725164643 0  0.004282044321343623 -0.07911957783960605 0  -0.01478536208145285 -0.01629149257026417 0  -0.01414547104169662 -0.01526156116311602 0  -0.01489216432568149 -0.01473098300085781 0  0.007824027570962164 -0.04460590413183879 0  0.02940844202852363 -0.08854961281713941 0  -0.03917065231915939 -0.008665077280960505 0  0.003981509376040192 -0.0625957256406048 0  -0.02871628562274243 -0.07645130393468566 0  -0.03462259644832743 -0.08024685175199102 0  0.002494206435032496 -0.03927862076323145 0  -0.04323137246591694 -0.008448751885197286 0  -0.04367085647322183 -0.009426773440622219 0  0.04413285697351862 -0.01509269956609867 0  -0.02220915523694027 -0.04159679405512792 0  0.01734330401735818 -0.06802497198403192 0  0.009247287350186898 -0.07421467106690491 0  0.008064099375412817 -0.07360528787810804 0  -0.01577691610934931 -0.09926978550043007 0  -0.01497429738738255 -0.0984647766827412 0  -0.02584696164851231 -0.03666674384774019 0  0.03748312040906038 -0.04222111246434008 0  0.02138337781833457 -0.08281998090358526 0  -0.03824831558284088 -0.03605500462985502 0  0.006606913165610609 -0.09904572403983732 0  0.04147695619268134 -0.0779587988673654 0  -0.002034344770251851 -0.03223393771004671 0  0.04127816802465092 -0.06102607013007205 0  0.007094700451051816 -0.07913322225424396 0  0.02898417391461192 -0.06384347651443399 0  0.03526896967136283 -0.0210888283128749 0  -0.03371778684316681 -0.03593135709116834 0  -0.039475754960549 -0.08273643136768352 0  0.02470943830728772 -0.08120234337140714 0  -0.02577860401144197 -0.0695584198621681 0  -0.04053797891013173 -0.07735779688595423 0  0.004142156570427143 -0.06684286948163883 0  0.03128189801616169 -0.06135316942192206 0  -0.01586231415036561 -0.06232809760767791 0  0.0230365925382947 -0.04265361424710237 0  0.03844867141332734 -0.06856856807499645 0  -0.03005765010463378 -0.0283125228712497 0  -0.03127022352142559 -0.02747213850874655 0  -0.03019855111350693 -0.02715884310165231 0  -0.04928899168201714 -0.03955741926591187 0  -0.0226390846820646 -0.03429005631629713 0  -0.02194417582674746 -0.03285991319093542 0  0.01416534010133236 -0.0464447144880741 0  0.03462956258010055 -0.09340197107997468 0  -0.02274309334054584 -0.03042285711476393 0  0.02432605980500716 -0.03241418021981417 0  0.04200211117889537 -0.08138148162469822 0  -0.01864771198059391 -0.0427994409870231 0  0.02622423136487525 -0.07042687943292837 0  0.0268512870782594 -0.06991693144148822 0  0.0267861818798402 -0.06913252803239013 0  0.02615952994346198 -0.07117270449750727 0  -0.01678295769232263 -0.03363820284498208 0  -0.03147357066689019 -0.035210336189785 0  -0.03260960338597964 -0.03621303156263043 0  0.01881905997213644 -0.09040921297646143 0  -0.0002386765999260498 -0.09627526123552405 0  -0.03381896015334045 -0.004944067447671775 0  0.01994434859237322 -0.09082581889251887 0  -0.01337213059111489 -0.0669607302032731 0  0.03412968214793596 -0.06380884644903737 0  0.03415673468997475 -0.06271834076632206 0  -0.0453544732149329 -0.09028616844789736 0  -0.03107276119981321 -0.03300833035718458 0  -0.003100178516560054 -0.08170693330364563 0  0.045703125 -0.09937465111996721 0  0.02612891194670023 -0.04871231679057979 0  -0.04009161746618137 -0.006549180335807169 0  -0.01757618718005727 -0.08144207032542179 0  0.005550619452797918 -0.07743397976728081 0  0.004779447739955167 -0.07738814066495348 0  0.004679805391645507 -0.0760725140046573 0  -0.006187485187235124 -0.06667448133434407 0  -0.01722003100618741 -0.08286882854615829 0  0.005561325733665383 -0.01197354139336627 0  0.04098904832542498 -0.09383021403864739 0  0.002731008954388697 -0.03091872143306274 0  -0.0373845194458959 -0.08020632914998772 0  -0.0476210572571318 -0.06383300661579351 0  -0.03681729383684977 -0.04085611922731193 0  0.03613661307121124 -0.08158714401583468 0  0.006151110723166089 -0.09162531749204703 0  -0.04602971541893448 -0.002051477766567893 0  7.3405783946933e-05 -0.04793451961992758 0  0.006892323997034586 -0.07675493541922747 0  0.02807492725790463 -0.09288544266396281 0  -0.0384821461804286 -0.08528809821033077 0  0.0009677175183341704 -0.05598582766924726 0  0.0009401362396120613 -0.0828440925124222 0  -0.03726366657730128 -0.006668115397960656 0  -0.04146131933269308 -0.007028500190762626 0  0.0195548335349459 -0.08116890045760053 0  -0.03377467179454554 -0.08193033367925356 0  0.01844125458738148 -0.06804129588603258 0  -0.02418770546501763 -0.01456666337150418 0  -0.02840415419578895 -0.0389092353870835 0  -0.02772665980267399 -0.03978660839755586 0  0.03186777857595442 -0.01605708683474291 0  0.008087347232935726 -0.07765963811508432 0  0.007036079806679155 -0.07771879418852284 0  0.03410325186495719 -0.06879249983159635 0  -0.01522661108894733 -0.03507109858109046 0  -0.01619618150427956 -0.03575694349572042 0  0.01698241314993776 -0.0122330863273481 0  0.01898475529603618 -0.05490962611131765 0  -0.02786444506562792 -0.0696873679641478 0  0.0002300126971925017 -0.05308415909107412 0  0.006879352143764342 -0.08506534083917261 0  0.005477957826807695 -0.08553483890721364 0  0.006026898606059736 -0.08456856416848946 0  -0.03431703370097199 -0.007170824633713852 0  -0.00824849589598277 -0.02379776049325228 0  0.01335192196472875 -0.01400856729647939 0  -0.04261606669522269 -0.09410656510581027 0  0.008675061606685498 -0.05438574486402672 0  0.01367691713759096 -0.004524685118581791 0  -0.02667959244972855 -0.06790386403014974 0  0.03601838547705795 -0.09222708026254048 0  0.02873769980956759 -0.0728547332213991 0  0.03794439557865906 -0.04163790449000553 0  -0.03294599221938326 -0.02221943767466448 0  0.04018837647637535 -0.08168401052578433 0  0.01520525127058924 -0.07713032844497181 0  0.01540851680455322 -0.07626003978345712 0  0.02096693888330489 -0.03008032620246827 0  0.01683529336608698 -0.06007438958644736 0  -0.008274318248116848 -0.01488844573254178 0  -0.02884912203748726 -0.0921340749375871 0  0.00741771550642177 -0.05388950229737404 0  -0.01413596499110205 -0.08612610720181092 0  0.0175938778147888 -0.09840228051617345 0  -0.001388890061682219 -0.04549794228365389 0  0.01391143679790974 -0.05893147174822567 0  -0.01792891601673543 -0.08845328299463541 0  0.005432250286158679 -0.05557646587063302 0  -0.04158334264226625 -0.04418014962491189 0  -0.04030068371090002 -0.04408669400300085 0  0.02147518507923101 -0.0693927885279986 0  0.01035522862322441 -0.008177566634172259 0  -0.04741385846159735 -0.08225700084720936 0  -0.007654552324994662 -0.06618503500797009 0  -0.0311612835366824 -0.05470534604547374 0  0.01254467787720661 -0.0493261335610418 0  0.002845988709497442 -0.08685347382081743 0  0.004200073832571112 -0.08627176256161108 0  0.003944972207991267 -0.08391185693142202 0  0.003466064183035984 -0.08500157466812509 0  0.004532271725435062 -0.08523261694317863 0  0.003197563513492592 -0.08584146950278759 0  -0.04264335141877071 -0.04437994270984203 0  0.02598282429961134 -0.01232052325487796 0  0.04251654577125486 -0.004972624775993111 0  -0.04309201521102633 -0.04172485070316374 0  0.02241796616753965 -0.04730863385235026 0  0.04182946704115891 -0.06459899090832512 0  -0.04748263027577386 -0.0588230118989306 0  -0.04539559327445162 -0.01944822245247563 0  0.04494267741394196 -0.06289464728299785 0  0.02164242789428767 -0.01544081895649863 0  0.02063609449597819 -0.0149933639949805 0  0.02026069813212737 -0.01594330470344562 0  0.01085557531679157 -0.05735636862944953 0  -0.02042432247086108 -0.03839302837230853 0  -0.006013992027178927 -0.06584628721382707 0  -0.009277511176576067 -0.07436292947651772 0  0.01221418958038074 -0.04527026039694405 0  -0.03998768325490878 -0.04868760360873271 0  -0.03956103296718623 -0.05013363718805379 0  -0.01562470049577031 -0.05967484782257824 0  -0.03947306904398575 -0.05357635505670208 0  -0.01254449610011249 -0.01142626443678441 0  0.01004503971354542 -0.090489037813745 0  -0.0137811299041188 -0.03351956204619299 0  -0.01303070385512389 -0.03253567483088807 0  0.002490689903313857 -0.04197214474409559 0  -0.008511231476349404 -0.04812787460199315 0  -0.02897090346677322 -0.02798638895460726 0  -0.02865426582840489 -0.02652151089388823 0  0.04174315252226382 -0.03625038501867083 0  -0.008823260421295873 -0.09057523381194769 0  -0.01650380269764019 -0.05864980260951725 0  -0.01589532181586847 -0.05822482844301795 0  0.03651969898700582 -0.07545086291330005 0  0.03568451504970815 -0.07600780828141047 0  0.03633460927201085 -0.07692230558335646 0  -0.03968971583696334 -0.0105639243865259 0  0.009480106412624813 -0.0007457915801585065 0  0.02688302564451731 -0.01400280200545569 0  -0.03846567676030882 -0.0149713392025191 0  0.01530179476816211 -0.09929782595921491 0  0.01477633554634085 -0.09831623497815813 0  0.02674037647020331 -0.05008141125853047 0  0.01559040989861806 -0.009443775591496865 0  0.007498842163555445 -0.04705928776501614 0  0.008627328249299369 -0.04674227647148043 0  -0.03906535139348484 -0.06404352573122987 0  -0.02538201602217552 -0.08354600801943803 0  0.03459255534680214 -0.06146503338727215 0  -0.02126289811954174 -0.08601643130214746 0  -0.003358050659603653 -0.002891854282227622 0  0.01687305748894908 -0.07003140724495682 0  0.04815590599126738 -0.09446860744590858 0  -0.02676983707835553 -0.07654658768538469 0  -0.03331353721979733 -0.04212582566727079 0  -0.03608430543567163 -0.06994123001327454 0  0.03270233169902548 -0.08178239548542091 0  -0.04821959408106119 -0.09009934142209892 0  0.03993962210954379 -0.09648656495229838 0  -0.007825504050469776 -0.085278432206845 0  0.01753722633028486 -0.04731419044577116 0  -0.04437018586677217 -0.09074120219493753 0  -0.0309980818273208 -0.08432710269511048 0  0.02473662365739806 -0.04944352945060427 0  -0.005449035170951053 -0.02978050699825267 0  -0.03026031406355567 -0.06371477702769328 0  -0.02977823424150641 -0.06634898346349984 0  -0.02981534032751385 -0.06284576584511117 0  -0.02915627278933512 -0.06415138891393872 0  -0.0308084831255809 -0.06572200541234238 0  -0.02939833377189683 -0.06531366538498898 0  0.02896881207524654 -0.08571838363473913 0  -0.0272245138934281 -0.06375270129124008 0  -0.01860749975599403 -0.04542778318217677 0  -0.01048977474167091 -0.03207918513026217 0  0.04752276363015807 -0.02515441173664029 0  -0.04888561283024519 -0.04380332319783822 0  -0.001225555100285937 -0.003828047435970282 0  0.00649501187220371 -0.07046418435938713 0  -0.02835509789877533 -0.01067817754253993 0  0.02092186897746131 -0.04285209024771117 0  0.005632761981844991 -0.0786917706622289 0  -0.02420799722285604 -0.01666852300354397 0  -0.006010400072619755 -0.01671725223913849 0  -0.007183343014901295 -0.01583939117467162 0  -0.005974248964986394 -0.01572454056211959 0  0.02113686916533001 -0.04774391339342595 0  -0.01801971101281814 -0.09163704096022209 0  -0.04112089833477659 -0.07467316776577593 0  -0.0366849172269522 -0.06835367835602628 0  -0.04226979547901241 -0.08092285742902341 0  0.003205322467940456 -0.08225376921432795 0  -0.04519764421559521 -0.03533839494079337 0  -0.04465709358307905 -0.0367142612290286 0  0.001261027914407002 -0.0302859413283372 0  -0.008415254534833825 -0.06749252484953507 0  0.006139124755299106 -0.01456105669510835 0  0.00183141726577513 -0.08009011681170358 0  0.02606342387252525 -0.05112976862603565 0  -0.006104247831961403 -0.08382749170479116 0  0.003960986191162336 -0.03074114818339993 0  -0.02155975081708515 -0.03223547108540895 0  0.04435348757885524 -0.07776609518866184 0  0.04077965207908539 -0.06551435252428048 0  -0.03364050801198831 -0.04066160542389691 0  -0.01618903285428766 -0.00166383752169316 0  -0.01835874306313301 -0.02754628991994684 0  -0.04692427663463399 -0.04094934932241286 0  0.001600492157364977 -0.009648262764426966 0  -0.01856498680479936 -0.002342642138476832 0  0.02741464593144829 -0.08166088215028898 0  0.01893351185092661 -0.0825473718485456 0  0.0245704412996562 -0.04610135172734515 0  -0.01827718693368698 -0.005336574008322868 0  0.02335327026720494 -0.03278104661502352 0  0.02810618915759848 -0.0884623772613838 0  -0.04680049998239887 -0.007011750172112999 0  0.007213751537773113 -0.01847075166980529 0  -0.02734198274185296 -0.05855822716204951 0  -0.02503231630053141 -0.07713202997890024 0  0.03384623916136413 -0.02132119345527137 0  0.02788947483727475 -0.03372920762264141 0  -0.03828653126126612 -0.00786743107957294 0  0.01044857242494441 -0.09249733421846978 0  -0.04282634823571682 -0.004001599918435361 0  0.01736966638143319 -0.06287730391023973 0  0.03675551254628624 -0.06649599902846019 0  0.03735885393108325 -0.06772026096198198 0  0.03666578872728657 -0.06725273459854064 0  0.03723168090221047 -0.0842016327674419 0  -0.01828544738410842 -0.009583956222062701 0  -0.01769014947170706 -0.009135898474322883 0  0.04292076166870464 -0.07759002586071281 0  0.04185443227818209 -0.07697222041400796 0  -0.03597173948577088 -0.03553313105493423 0  -0.0419349417735424 -0.06004016603207169 0  -0.04118666288962103 -0.06021019456053216 0  -0.01158637767284903 -0.006965895303129822 0  -0.01201205147387594 -0.007640761060054292 0  -0.01264922234993073 -0.006305396580868954 0  0.0451692433714098 -0.08461347145902609 0  -0.002261962007129525 -0.09483314926573411 0  -0.03128937798349476 -0.0007834306553779444 0  -0.02666074120556062 -0.02044235241754388 0  -0.02448949846996817 -0.07577648942772391 0  0.02237093792669575 -0.002666679773619101 0  0.0241370478376477 -0.04253237071077907 0  0.02377194456361172 -0.04138685144909642 0  0.02302103302011341 -0.04159346321611182 0  -0.0415955462909251 -0.02137919916599989 0  -0.001855332745692705 -0.002539819532038913 0  0.04641726606610982 -0.03959859093305986 0  0.02431349343932131 -0.007596013019118708 0  0.01961433849001068 -0.07197491825486693 0  -0.0006993167100052684 -0.03379480402743179 0  -0.001761864379139921 -0.0347180676617421 0  0.04497651087034404 -0.03528891991115728 0  0.04599938851163742 -0.03457694686524303 0  0.04457209275341032 -0.03435802458198131 0  0.01254312785968622 -0.01111187537469742 0  0.012315014590622 -0.08929531394097676 0  0.021817795961553 -0.054244169206748 0  -0.03331307509407477 -0.01561989164683764 0  -0.0323596750792539 -0.01472584896244043 0  -0.009956542237373012 -0.08802795376386111 0  0.01873257441225957 -0.02008436229265447 0  -0.03427916801409134 -0.07932438711910136 0  0.009394394339142008 -0.007560794221309125 0  -0.04622600569957692 -0.01534280561752554 0  0.00134964370280335 -0.03394761234269485 0  -0.002714044759940166 -0.08404175463664161 0  0.003607454807562414 -0.01338853841327512 0  0.03675496013123691 -0.0422558926129084 0  0.00385429376644151 -0.008169632543002027 0  0.0345365507850767 -0.01201483783752397 0  -0.0493625425059162 -0.005859375 0  0.02432425028286937 -0.05273364951747284 0  0.0434981534156599 -0.07535693183547916 0  -0.01862155100762287 -0.06410165760352833 0  -0.02691787053919685 -0.08057509224596976 0  0.03146249339708357 -0.04427662808409617 0  -0.00499928026454284 -0.02371928448245878 0  0.04560701923898487 -0.02546026125226783 0  -0.004670067334666388 -0.04713126249487772 0  0.04324934449394319 -0.01168610051424424 0  -0.02947279975215808 -0.07533579530772039 0  0.04861233163663884 -0.09610781037151687 0  0.04927985409815576 -0.09653899699396487 0  0.048479998171466 -0.09757121493187566 0  0.003861226599342618 -0.03426378127404347 0  0.03238390589255366 -0.08509511151088178 0  0.005268153462461568 -0.0679096513875479 0  0.01303904650696273 -0.03577909115255303 0  0.03907530208725511 -0.07468075960774617 0  -0.00300451220563332 -0.07273701145812948 0  0.0452733967039111 -0.01648804564307267 0  -0.04669544962690936 -0.08238734655948887 0  -0.01166304128333246 -0.09207471978090422 0  -0.03178928163293538 -0.02635945867989539 0  -0.01161586181558801 -0.005276796512835643 0  0.01492216040344622 -0.05532686455434208 0  0.04283253221061369 -0.05379627624989108 0  -0.04583663786611048 -0.06161053863724251 0  -0.03647172261029234 -0.03808719113473116 0  -0.005506176203476175 -0.0530205522319468 0  0.03034703965009413 -0.06360627282531253 0  -0.03196690510185112 -0.06569587761248577 0  0.01968146777623573 -0.06999676911131911 0  -0.01175694184593057 -0.05905068224359184 0  0.04361885128079746 -0.07680690953714954 0  0.0392817936672534 -0.08144425159378484 0  -0.04383116346324703 -0.004997426599558014 0  0.01019032508166698 -0.02808546547331713 0  0.00350553403546296 -0.01673442689696925 0  0.002451779404460529 -0.01747183742337304 0  0.003691560464376504 -0.01804684338871688 0  -0.004021525820861883 -0.04493051948468813 0  0.02922849451962612 -0.0587747566856792 0  0.03275470555381305 -0.03930481116180711 0  0.02323342239794174 -0.001558243607957873 0  0.02853721755191869 -0.04046201790787653 0  0.02935194694450949 -0.03927479170409614 0  0.01253224090727395 -0.03471231926283364 0  0.01179706505022768 -0.035900082214569 0  0.03822641616100654 -0.03127565425048658 0  -0.003912057425118131 -0.05023891936193359 0  -0.00435117261500329 -0.0722737682558217 0  0.03887673664518624 -0.03494804406810398 0  -0.02845482807674695 -0.05127073335015115 0  0.03596493078718665 -0.07353568269471787 0  0.03494905067491031 -0.07395719128913611 0  0.03621728716199973 -0.07466766181700217 0  -0.03957757361242674 -0.03542239238160933 0  0.007841842102467547 -0.03725579886416929 0  0.009891697637198573 -0.09124921522525854 0  -0.01137538247825623 -0.03403411576022804 0  -0.0119816281811512 -0.03360450351402736 0  -0.01267043608370827 -0.0339165601499543 0  -0.03770886583334906 -0.05173993028337981 0  0.01260350988014483 -0.03239266437927085 0  0.0457234817364088 -0.04988578708019831 0  0.0124932912467513 -0.02701439684202486 0  -0.01251242035097649 -0.07715497566291661 0  -0.01310704402847814 -0.07582239421505901 0  -0.02856851483420634 -0.07896536474120325 0  -0.02739309933181279 -0.07876762542207531 0  -0.02831664162204769 -0.07993195217784498 0  -0.04632667865960768 -0.06656872858676785 0  -0.001703690097688794 -0.09286749712087337 0  -0.01940682650805308 -0.04068503693537361 0  -0.01241400537116979 -0.01000117423113449 0  -0.04804584761577639 -0.003760367171048967 0  -0.04191769706848428 -0.07538989135284474 0  -0.04258872227459162 -0.07462910208963548 0  -0.04176277530636546 -0.07388748710196517 0  -0.04728314681985978 -0.04734670233261452 0  0.01462250039097411 -0.01211869154920403 0  -0.02523176315120532 -0.0731041144068868 0  0.02149234939025396 -0.03379696353517098 0  0.0005186041573604517 -0.08069123473458766 0  0.03462885571391733 -0.006393872566450748 0  -0.006936826061980611 -0.001886849216748661 0  0.0262656136120338 -0.0030792479858626 0  -0.0237068197454984 -0.06076216467471566 0  0.03826563027627895 -0.06269020826834207 0  -0.04008323619563954 -0.01757803886895341 0  0.03097614125172137 -0.08516134661074971 0  -0.03705536916227674 -0.07381726748127379 0  0.008661549039352567 -0.09849669255115967 0  -0.02901342023295489 -0.0536240736111613 0  -0.01551327027438268 -0.0783979300424392 0  -0.04832409499968467 -0.03045763968097103 0  -0.003684649504561262 -0.01274428177977501 0  0.02279911799762172 -0.07583747771125629 0  0.04663287673867366 -0.005902093033353784 0  0.03814817067485184 -0.01023854574292173 0  0.004296875 -0.09938726467336456 0  0.02545129203286932 -0.006636992337458862 0  0.02623688717850317 -0.006571599332650203 0  -0.02554677034795155 -0.01247282709643525 0  -0.02716307235540421 -0.04602696201016664 0  -0.001219707183052947 -0.05099110821198012 0  -0.009810085949176919 -0.04548736086012681 0  -0.02593528050510188 -0.04824642075586166 0  -0.0250191656637501 -0.04734786566816306 0  0.02669580536123971 -0.0160365368365369 0  0.01079992078933021 -0.04197977638797964 0  -0.02939859609770285 -0.01815143812194083 0  -0.04034074046830926 -0.06612867310388092 0  0.01452411345645187 -0.03824029758915024 0  -0.01320683166622547 -0.07453179019148684 0  -0.01230520936781483 -0.0737477161255025 0  0.01647149932808027 -0.0582275157576299 0  0.006483292262169147 -0.04342709631942186 0  -0.005133239871402272 -0.07403050015105637 0  -0.03754588243461935 -0.004627630300437254 0  -0.003928298263145344 -0.02075123340731355 0  0.03279842357458857 -0.05115853573768894 0  0.02571386863502762 -0.007988511303345274 0  -0.02949632913392978 -0.0411534686359679 0  -0.04937359730246219 -0.07148437500000002 0  -0.04831277396892202 -0.07210827122036122 0  -0.04830715711447806 -0.07068539692495769 0  0.001734639958182776 -0.04345122306669445 0  -0.03722315961319785 -0.079137317086731 0  -0.01710359118647745 -0.06315865131231788 0  -0.04447764477734807 -0.03138356682795661 0  -0.04552149247978263 -0.0324339664932778 0  -0.0199245030998075 -0.06879107790888095 0  0.04232983580073214 -0.02873993571709417 0  -0.03200185314698489 -0.006420462592800917 0  -0.03198057874833793 -0.005525758978735916 0  0.04349005347084839 -0.07830412648541729 0  0.04499295388270921 -0.09399234287646782 0  0.04542126626914304 -0.09313635908180705 0  0.01499345743181024 -0.05450420983976004 0  -0.02242273621034767 -0.02190369389775567 0  0.03783283244438145 -0.04286727634476159 0  -0.005827729475444333 -0.005540373166152969 0  -0.02023545351106926 -0.02631795154186045 0  -0.001481642898206754 -0.001201527072199127 0  0.02064191790389927 -0.0725328091191553 0  0.04044211273890786 -0.08997464995326664 0  -0.01988639222126602 -0.09036991437727979 0  -0.02753752021799616 -0.02174926886389557 0  0.01752257411326635 -0.05315598546854991 0  0.045674817590359 -0.09560245464702437 0  -0.004569198715784649 -0.01998782472077398 0  -0.01635946634623964 -0.05935788076008137 0  -0.0007848378757646548 -0.08740549359546146 0  -0.005905533263041086 -0.03116110901826357 0  -0.04239385502775147 -0.03198378188687437 0  -0.04225046149317825 -0.03104685738322036 0  -0.04342946032683479 -0.03096412421853347 0  0.005657374843821798 -0.06372313527138326 0  -0.00530912760498956 -0.0932647216256634 0  0.04765545775177251 -0.02185411032008831 0  -0.02929479931955604 -0.0006656671368079901 0  0.01067707312374819 -0.08493136886451842 0  -0.0359994696047301 -0.05047258163677193 0  -0.004059437732469015 -0.08394124560937899 0  -0.003227255469349138 -0.01478040766883911 0  -0.02824958843911048 -0.07110753273441801 0  -0.001053147455721583 -0.09749371380209444 0  -0.02693407538021916 -0.09383081005282801 0  -0.02755647682332826 -0.09293646955841449 0  0.02150231735823712 -0.01996985093638404 0  -0.03775843006239672 -0.005374008981133173 0  -0.03704135659484484 -0.005912877865005165 0  -0.03639320138883628 -0.004755350832255155 0  -0.0003964161135428117 -0.009272578774892066 0  0.03187473451168014 -0.03325930581637827 0  0.04431747678674844 -0.09602796007699528 0  0.0446086172150082 -0.04172337686652874 0  0.001679619002235961 -0.03697753188829286 0  0.01175132388344389 -0.01017589281658672 0  0.01125113654020007 -0.01135208169925489 0  -0.03641151889432815 -0.07700494794444353 0  -0.03573202925674056 -0.07670736482328863 0  0.004942804739275463 -0.08014175585063697 0  0.04425461336084222 -0.06142840270782395 0  -0.02554458899955696 -0.05917924033007657 0  0.0290323689944585 -0.06492106758165951 0  -0.004056810047177875 -0.06779125831460106 0  -0.003573049668907853 -0.06862475907103793 0  -0.004581968023663446 -0.06920330030859091 0  -0.01337067492387912 -0.02313048850894135 0  -0.03122480252059238 -0.03825288333006173 0  -0.02777319913722019 -0.06675864267098661 0  0.04497230070478143 -0.07857054208464112 0  -0.0436476110838156 -0.02525172945212571 0  -0.006449495938136921 -0.01887665432110585 0  -0.002257576920814467 -0.03948382147355946 0  -0.002707454062696001 -0.03859099633368774 0  -0.02484920324232607 -0.03392389840525863 0  0.03849136439775921 -0.05046279233288624 0  0.03799119224548827 -0.05183638905112354 0  -0.02339066533518794 -0.03554202228385746 0  -0.03027686496032712 -0.09004667068879997 0  0.01978003919250294 -0.0126531757757276 0  -0.01572306425367167 -0.02678945189964535 0  -0.04307818028538195 -0.03903397185330939 0  -0.02709174806720527 -0.06278806312276031 0  -0.0003790628165365652 -0.001516301548082363 0  0.01983022827941221 -0.08365687248658374 0  -0.006086114038880249 -0.06232527294618998 0  0.00786520085760869 -0.06423293312277888 0  0.007393466416454581 -0.06517619349783199 0  0.007978445858483663 -0.06566780767311979 0  0.008719209589164644 -0.06568460550604566 0  0.02562430248813303 -0.05848388659257403 0  0.02416025380725296 -0.05853185894294907 0  -0.03571397045581622 -0.03645448423162317 0  0.00921475568038029 -0.09150985108717126 0  0.04847570766528598 -0.04746010819195012 0  -0.04598218465476208 -0.09653011553486618 0  -0.04693381082702024 -0.09553909995854702 0  -0.04554854593205076 -0.09558664819692765 0  -0.03819011641076536 -0.09400705729645402 0  -0.03816477538364173 -0.09273512825915838 0  -0.006665204918456833 -0.07747381221515669 0  -0.004515498444441777 -0.02849482747920398 0  0.04067903260711458 -0.05943038180035275 0  0.04703200820834604 -0.0805933254275735 0  -0.03903886958744505 -0.01402529611394996 0  0.03853503777962522 -0.08601849098167277 0  -0.04809982196931301 -0.03490075797397577 0  -0.04053925810493259 -0.06997393660418225 0  0.006416830402987978 -0.04485295509006358 0  0.005689925337490674 -0.0446455448974722 0  0.03828271503736351 -0.0527755459732196 0  -0.01676523341758426 -0.06056463364876324 0  0.04428541758159439 -0.02484713274847634 0  0.01289483543055956 -0.04438351609499104 0  0.04007290729419208 -0.06674038211849249 0  -0.0317159345162385 -0.003986468573532639 0  -0.03245751865351242 -0.00425946233922506 0  -0.03303823462913491 -0.003774170349516615 0  0.02788582073118485 -0.03001908995497706 0  0.00772798924594559 -0.08055625956051425 0  -0.01612587238823546 -0.01230771637250784 0  -0.01212067608191982 -0.07217236051522251 0  -0.01404257093073123 -0.02820899717694665 0  0.007516286340286804 -0.03583297071224498 0  0.03643184045868429 -0.09442624246127738 0  0.0349514312650334 -0.08513409536970827 0  -0.002888988231202924 -0.03125827056953992 0  -0.004229450586711783 -0.03395871213903563 0  -0.03679679722747731 -0.06538624095574243 0  -0.03584323143733067 -0.06589463115252391 0  -0.03542355842486809 -0.06489106356381598 0  0.003604436019161594 -0.05861062280936356 0  0.04351299050528369 -0.03457765415556584 0  0.04286492660217726 -0.03579705171580571 0  0.04228952620700101 -0.0348543208267886 0  0.03112385612007886 -0.02396202478494049 0  0.03184970761358361 -0.04733329937878622 0  0.006487661751071018 -0.08754941838336425 0  0.005923955368008889 -0.0884942544010619 0  -0.002864993436780552 -0.05850673266574106 0  -0.003888118554277719 -0.0591721503029365 0  0.03757453622162748 -0.06045263009095711 0  0.04190650111717745 -0.0419605263579793 0  0.00864307492924163 -0.09106037807501356 0  -0.04365272499499723 -0.04449653662120831 0  -0.04383327815523928 -0.04354671707718307 0  -0.01206993996879636 -0.06471091651612512 0  -0.03678716696085723 -0.05358263851204512 0  -0.008780777078503169 -0.04658560420881384 0  0.0004500636246060847 -0.07653514208075525 0  0.03823771331048648 -0.05987285792431726 0  -0.03175333197695512 -0.07493447415215576 0  0.006135352168770363 -0.03702317693370108 0  0.00467637384739247 -0.03727535413931805 0  0.00579610427885852 -0.0377760601388989 0  0.02357211500879917 -0.08871309235233515 0  -0.0289946195299841 -0.08136818321464215 0  -0.005032347578624908 -0.0186238397672809 0  -0.00559665537725359 -0.01957168287607395 0  -0.005601335468804876 -0.01813455019384366 0  -0.0113827528126312 -0.06671435485349562 0  -0.01203306535915545 -0.06703048517683508 0  0.03845962205565126 -0.05918960090304268 0  0.005399786929573914 -0.002579681280605549 0  0.04210194828453904 -0.05179154906013537 0  -0.04299050919054132 -0.06748343083374558 0  0.03354658621715027 -0.05757301154691465 0  0.02148046833283765 -0.06631952458960727 0  0.02662044529827235 -0.06015014053006094 0  0.02211245982655763 -0.08693626804629684 0  -0.006329512038340116 -0.04598478029602025 0  0.03722659469663702 -0.03048985052813287 0  0.0105540806306881 -0.04434008100192151 0  0.00230806948519817 -0.07226101569103019 0  0.02812914059628341 -0.03234210565472281 0  -0.03519650503294766 -0.02365047751937102 0  -0.03465918153780818 -0.02438506418347326 0  0.008745330276892203 -0.01807044775480049 0  0.01350525667692884 -0.09368148258922065 0  -0.019955206943403 -0.01356708889677369 0  0.01188738724498109 -0.07550148930907971 0  0.008247189301965656 -0.007399659250863616 0  -0.03957960862019552 -0.04628117109459676 0  0.01606709983439766 -0.01736847993977687 0  0.03693181754739343 -0.0712930630135559 0  0.03614986123600363 -0.07210154360452083 0  -0.04563288242670203 -0.07132199280462946 0  -0.03264390169674103 -0.005215488234930491 0  0.003202292309058323 -0.0453254738962862 0  -0.04212792257106366 -0.04962223464902794 0  -0.00583103387503531 -0.03885110393548195 0  -0.0072346759128597 -0.03890245566216335 0  0.01484428427197427 -0.06639028685819429 0  0.006262232567974597 -0.02443903956002659 0  0.003751949219287613 -0.01476547124021181 0  -0.04823506944379249 -0.074695642552813 0  0.0143782543549313 -0.002942804689190127 0  0.04393047019902447 -0.0227407872396157 0  0.04436274634962212 -0.070687253023203 0  0.01326502305767548 -0.07508744464072054 0  0.04307301481963426 -0.09572059976153541 0  -0.009152315688888789 -0.0823522512606938 0  -0.005103724712877911 -0.001802024978372412 0  0.02615539578028517 -0.07263576569783629 0  0.02087470492339291 -0.03265753402474617 0  -0.02140029495945883 -0.01309306329883448 0  -0.003913036981585394 -0.07649780739039244 0  0.0057017556256776 -0.07497638735638076 0  -0.04185704817670027 -0.001452908543615232 0  0.03897767545944505 -0.02133206286681114 0  0.004067109689668127 -0.07370470119663884 0  -0.04742473379822662 -0.08438975333381307 0  -0.03074245781436923 -0.07274477375186063 0  -0.0319626613270203 -0.07350535353213566 0  -0.03068691140537971 -0.07377652108250794 0  -0.04182505288485138 -0.03841467716444435 0  -0.01379388070067544 -0.02389871280056782 0  -0.01510954550406497 -0.02451165907590141 0  -0.01611550799280986 -0.02380626613049638 0  0.04343882823063739 -0.090387904850977 0  -0.0003333855380414066 -0.03087234589311446 0  -0.02374089777351779 -0.0222151414148449 0  0.0476851853983245 -0.04403107194294259 0  0.03319534933197274 -0.07808764000728909 0  0.01960447021794055 -0.07742476476341027 0  0.02444903076680782 -0.05779619195735375 0  0.04796631818868723 -0.06743229337473133 0  0.03373120872140416 -0.01389092727593298 0  -0.02136806205650076 -0.05305934259424474 0  -0.02072680136383293 -0.05267440033641657 0  0.01265898497855699 -0.06903446089723929 0  0.01019735233341055 -0.02658856206289284 0  -0.03199888861055606 -0.02302659291361131 0  -0.0164752356598057 -0.09834419870058893 0  0.03385002380979016 -0.01248176983790578 0  0.01473670645241176 -0.03276138798073896 0  -0.03895758373998584 -0.01966870785786719 0  0.01180904914438117 -0.03694028321803986 0  0.03329824144748771 -0.004117419882080878 0  -0.04177692931823785 -0.09736398157652498 0  0.02256240521263405 -0.01943997022283834 0  0.03062344222776832 -0.07726049677837796 0  0.01423542306934821 -0.07880046106783439 0  0.01479954252831073 -0.0340263503029895 0  0.04702373367198943 -0.08560008972683311 0  0.02117939256607215 -0.09611116904441018 0  0.01481771862226939 -0.03601734343008033 0  0.01394159456108853 -0.03614643229573173 0  0.01482715615522139 -0.03500771461715536 0  0.04653623609858464 -0.03000714632850866 0  -0.01619255574566304 -0.0203520760599165 0  -0.0149454837524423 -0.0197457063389858 0  0.0007323255071441406 -0.08601891875937769 0  0.002083134354023004 -0.0854482219597073 0  0.001157942893905494 -0.08505987385708738 0  -0.007048931462941012 -0.06484134188751217 0  -0.008384325319417558 -0.06435075487441491 0  -0.007500377226148759 -0.06405181006051537 0  0.004397632238745636 -0.01568270480855631 0  -0.006880261075120326 -0.0478309381353092 0  -0.03693616307465251 -0.008446697741787529 0  0.03275547167625587 -0.009922592071316494 0  0.001470138344740426 -0.08415904617247687 0  0.02690799915040874 -0.08325812495231656 0  0.03799117570997326 -0.05864343309637961 0  0.01668232450511948 -0.07134981904111067 0  0.01577340984154035 -0.07040912233434574 0  0.04917641611777004 -0.09144411636292957 0  0.01954869477742346 -0.0689309658326752 0  -0.02472208645856153 -0.03477298376253977 0  0.03638061482760559 -0.08014722305277168 0  -0.02170749729596604 -0.08332598949932894 0  -0.04802390106274151 -0.006371628488338643 0  0.04465597247753472 -0.04904246520296539 0  0.03538268848751121 -0.03204651414430502 0  -0.03330458084458721 -0.06607790895244534 0  0.01447179958800058 -0.06498515237388391 0  0.04538935195920032 -0.07446563019824941 0  0.003757228546016317 -0.02831469976472897 0  0.04849263215271363 -0.01588836803599496 0  0.03632812500000001 -0.0006885750953683283 0  0.01685975554594927 -0.03501551544743177 0  0.01583882745484586 -0.03501698922642206 0  0.01584692987656264 -0.03604485968165455 0  0.04029363481158962 -0.08284165852915264 0  -0.0299227993456525 -0.09312983860546788 0  -0.003335052701408682 -0.05365950603061963 0  0.02373897414936059 -0.05649381719787726 0  -0.03529250718890947 -0.09831293769235258 0  -0.003345755520626459 -0.05987739021519883 0  -0.03495735232899348 -0.05986730471919022 0  -0.008041632940045727 -0.04292443905592994 0  0.01292032820708722 -0.07369496648259617 0  0.02890979984288248 -0.07871975603721527 0  0.04578957438608864 -0.04517410220165037 0  -0.02859579434877577 -0.06550156737501317 0  -0.02395301305827095 -0.05699199496947731 0  0.02362288764885317 -0.003753697783351056 0  0.0174916151393489 -0.01441242311009948 0  0.02882078520257812 -0.0467341072044559 0  -0.03362833717058024 -0.05946034309860045 0  -0.03341781890082638 -0.06048198383411469 0  -0.02368427279161198 -0.03088989977769244 0  0.0431475483123489 -0.0232785515698984 0  0.01078742531622842 -0.08939132260114722 0  0.0103539374173991 -0.08881133513566765 0  0.04229236385078815 -0.03024240261326817 0  -0.02851504911157988 -0.04665755500784029 0  -0.02901179293492446 -0.04731395824432674 0  -0.03143798313827787 -0.001662607485638054 0  0.01933443396564207 -0.08566556887810862 0  0.02057980766415242 -0.08488030793731 0  0.01940809161166234 -0.08476744945577852 0  -0.03526627929395354 -0.08188830929806754 0  -0.03617077541652498 -0.08098253115159038 0  -0.002208745900224307 -0.01851467013536939 0  -0.030807859121858 -0.07494973492251826 0  0.009887590233759716 -0.03569037499524898 0  0.04772842129169998 -0.07814824870261597 0  0.01819758869781616 -0.04081658478456991 0  0.01286175209654604 -0.01622547642443602 0  0.01619707422359649 -0.07802331627506305 0  -0.01286388483132512 -0.02628861555421468 0  0.01017697783954724 -0.05232479420926246 0  0.01053459300293162 -0.02739863606552857 0  0.001623255001391523 -0.03223311660309775 0  0.006227474881271475 -0.03500035569268174 0  -0.04940384478423473 -0.069140625 0  -0.04811032593971454 -0.06977400650508277 0  -0.04591630457354685 -0.05379491450969175 0  -0.00282930556973704 -0.04942082073506177 0  0.0393143445990642 -0.04675958926916569 0  0.01587478524653054 -0.05943932381062228 0  -0.02794155254343571 -0.02662700591034438 0  0.007841655956805849 -0.0742855723261457 0  0.02217537975427344 -0.07413684792068183 0  -0.04877495381660717 -0.0006325921918314848 0  0.004668860654258834 -0.01230491637840622 0  0.02333660057924714 -0.024382076495515 0  -0.00176643538473165 -0.04681543062037517 0  -0.002878700769901585 -0.0475052706719012 0  -0.002338484076500245 -0.04809421823932034 0  -0.04263048162734177 -0.007356028930390717 0  -0.04288668271821711 -0.006676483507308259 0  0.02819759924008105 -0.00460865597502631 0  -0.01938541847363514 -0.02941285208339803 0  -0.01879077139673995 -0.02853662821691877 0  -0.01972929858978714 -0.02799547484515081 0  -0.02013209286845439 -0.02901608431530307 0  -0.01680784715860595 -0.05715156199859938 0  -0.04105907350972417 -0.01861519373585017 0  -0.04222262574854211 -0.01857618578937273 0  -0.004745372219130592 -0.05453898661791765 0  -0.004293014046476439 -0.05387704135800037 0  0.004893465047588082 -0.03171044731560272 0  -0.02411058740393805 -0.07345671979481758 0  0.03211562369074655 -0.03791656163522774 0  0.03323384292952138 -0.03846205918866703 0  -0.03249690066985376 -0.04496848550810124 0  0.03120126485327984 -0.06420340047232295 0  0.02787634496616351 -0.07407652889116714 0  0.02489414945314736 -0.009101594315723202 0  -0.0413368529923383 -0.008711032043329108 0  0.04149710472854255 -0.05355233508255429 0  0.0254644785100513 -0.03689699926601559 0  -0.02979496150553414 -0.08180383033841436 0  -0.002860267831396686 -0.005631780950272782 0  -0.02903494395020886 -0.03707342724640462 0  0.03439617233723794 -0.04294830201974621 0  0.0190991247667528 -0.06078412410443048 0  0.01985253466237968 -0.05342369998961568 0  0.04014612400889184 -0.08616747765591426 0  -0.02648735491678135 -0.02151996707526154 0  -0.02595425593319855 -0.02262708274903875 0  -0.02542997587597939 -0.02131966511539229 0  -0.01003098974093576 -0.04167040438187992 0  -0.009480197098569914 -0.04118731319456445 0  -0.03890785196208528 -0.04725906420275262 0  -0.02677526026325368 -0.01856662475610437 0  -0.02781742156317217 -0.01903164642840218 0  0.003414813036590279 -0.06561967364334494 0  0.007893664267714174 -0.01087934514799961 0  -0.00109254851200329 -0.03515011775361031 0  -0.04222328185944602 -0.04198158580445975 0  -0.0419740422509625 -0.04074702660226574 0  0.02611454090829799 -0.03867199603947671 0  0.005855999453629218 -0.0736158351691337 0  0.03246029002757257 -0.02141367377191963 0  0.03306785015737577 -0.02087699045930733 0  0.006008986192075343 -0.05742630303182554 0  -0.04511170651868071 -0.0432802101965557 0  0.004228507974909813 -0.002922982440876839 0  -0.02077775158207443 -0.04140766366330784 0  0.02118589840262619 -0.05518626727144843 0  -0.02779966740899804 -0.06753054730143049 0  0.01854862798843894 -0.07397574057101262 0  0.04919340001695475 -0.0643696284320506 0  0.04002889627264442 -0.07769451419531027 0  0.04483442570866881 -0.05215252944718938 0  0.01238432623654359 -0.0953534029524013 0  -0.002421771868754365 -0.05938551471433173 0  -0.03595376171823921 -0.02268611212676453 0  -0.007836663811272081 -0.05903548689302094 0  0.001237953960341795 -0.04870766655208913 0  0.001989808973286974 -0.04981755106038169 0  0.002704147024952848 -0.06659080694518692 0  -0.02493162140553696 -0.02294944007881645 0  0.02124226982495826 -0.07212368896464612 0  -0.02884313362947903 -0.04469240423477361 0  0.0383592629947456 -0.05788817105053308 0  -0.004860195139940069 -0.01482428103694855 0  0.04280778541337768 -0.07615626461807105 0  0.04247313976268965 -0.05041263759902936 0  0.04159792411621508 -0.0509075460357855 0  -0.01497821351741487 -0.02761748929336666 0  -0.0143279840496897 -0.02669912925643515 0  0.03305074715858024 -0.06532355240157461 0  -0.03067508452641376 -0.02270502525453426 0  0.004991400190347424 -0.01000606270980958 0  0.004805062591782874 -0.009287087633456636 0  0.03304745509877373 -0.02238141483510836 0  0.04831990870540048 -0.01054734292874492 0  0.04478778063587691 -0.0505485016561846 0  0.0411629557995238 -0.08167522258766985 0  -0.03092337880567726 -0.09935137086853102 0  -0.01627604166666666 -0.04904980285207701 0  0.02105846107455841 -0.006476299571069343 0  -0.01934157269863945 -0.05501599315965902 0  -0.01831209448864432 -0.05471357672730423 0  0.02363955876479333 -0.01858857395579647 0  -0.009920551044620153 -0.03456520266730116 0  -0.01074392625161314 -0.03368381855139158 0  0.04837571779901848 -0.09927914361016027 0  -0.009785578176486814 -0.03118151623418579 0  0.03953293181610125 -0.01814637915685335 0  -0.002971144445516959 -0.08805947161786254 0  -0.001982815068376121 -0.08827357085992123 0  -0.002237793479050738 -0.089305406355996 0  -0.04459222891355634 -0.08719753677001982 0  0.02819032576968283 -0.001900568901877365 0  0.04461848909395939 -0.08556304451369551 0  0.007735811214128291 -0.04942713112492272 0  -0.02095133244710762 -0.07826153058888606 0  -0.02447612875781788 -0.08186817102875849 0  -0.007314849623284569 -0.09931370600191677 0  0.04408045750137309 -0.07210295158680396 0  0.01180331150388362 -0.06967210401225425 0  0.01192480932875512 -0.06826002435844246 0  0.007841052479075549 -0.02926056566601984 0  -0.0439163238770322 -0.0512452823951073 0  -0.03787600445182052 -0.0186641230232667 0  0.02808453174236848 -0.0007808798706000099 0  0.03994899795632708 -0.08475309038657228 0  -0.008998739604746276 -0.08082857683167333 0  -0.03108080341036416 -0.06892088202485482 0  0.01031253010582566 -0.04000509889743561 0  -0.007907335229695743 -0.08382081368986097 0  -0.01868311722405202 -0.05867167344430446 0  0.02262421410731487 -0.05236709722193553 0  -0.006244968902587378 -0.03797116081501899 0  0.02163769045317045 -0.05185163439970014 0  0.006868503430414135 -0.03127841890388108 0  0.03683659858138702 -0.00827524591132261 0  0.03609721061762689 -0.03822398411698539 0  0.03504836033949043 -0.03914411829782577 0  0.02313848345834825 -0.01007605244592948 0  0.02723016750139681 -0.05975102354615081 0  -0.04026228696234455 -0.01586474476357154 0  -0.02916453171717919 -0.03965918572944142 0  0.02494089799217777 -0.001709830069287789 0  -0.03059659113428731 -0.06231726823365157 0  -0.01497450722124323 -0.009956870337380764 0  -0.01531305722148611 -0.00889777547077495 0  -0.01825875907755041 -0.03133068010359266 0  0.04158237418829243 -0.08786209841440619 0  0.04047257028041547 -0.07705236862886847 0  -0.0322599795226515 -0.04832040029343849 0  0.008003822653372484 -0.09875719590573245 0  -0.007641343645426677 -0.05078995289661752 0  0.0196407652396896 -0.01408418863302445 0  0.01617650044851708 -0.03864032760748483 0  0.01682465510666637 -0.03830341182610769 0  0.03699054958352219 -0.009301619275384528 0  0.0140467418453901 -0.08429836501427838 0  0.01494242921029343 -0.08523084450116354 0  -0.01302511592837233 -0.0006890582834917101 0  -0.003692110642403623 -0.07785330424547927 0  -0.00776232159453966 -0.09323321346049106 0  0.04077914582244135 -0.0007478552946378506 0  -0.02184931280271856 -0.01083749199563583 0  0.02300354675830336 -0.09003313636842762 0  -0.02639212561114101 -0.09685729292637583 0  0.04597481823307415 -0.08139340841298023 0  0.04513483489348794 -0.0824383722118984 0  0.04608126691682046 -0.08279078007215208 0  -0.01703099383964952 -0.08017404285370974 0  -0.01633963565163267 -0.08118875777781599 0  -0.04940681087385684 -0.08554687499999999 0  -0.04841974141185162 -0.08465420971987341 0  -0.04707133512386977 -0.0571605643215975 0  0.04929322043106778 -0.05835287155906457 0  0.01540112157672335 -0.07533086014485388 0  -0.04121710778857333 -0.09629388794565361 0  -0.02879733453968762 -0.08466727130985545 0  -0.008347307001386197 -0.003522683764856436 0  0.03779094353933491 -0.05666851491236029 0  0.038672434555679 -0.05644146355931044 0  0.02685970027672575 -0.04443166129141297 0  0.02632668083714415 -0.04341852897181922 0  0.02712925547925094 -0.0452686611274192 0  0.02582155555838546 -0.04473366997750552 0  0.009525615119120288 -0.003743196007559375 0  -0.002220896825589289 -0.02081519192452989 0  -0.00124488889787849 -0.02127285453598709 0  -0.001419346598644509 -0.02198415407346411 0  0.01191858166482589 -0.04388021282081618 0  -0.01165451005513946 -0.0467390581624412 0  -0.0217628580685081 -0.01636122003531935 0  -0.03053450679572002 -0.05227090400138792 0  0.03181580372727109 -0.019183348432624 0  0.02528569508057244 -0.04604443573072192 0  0.04243256777959645 -0.06702820401958591 0  0.03662555752705664 -0.01510444191301979 0  0.002484490688674876 -0.00853810561794721 0  -0.03308551445320549 -0.02595724890050007 0  0.04279947318799578 -0.099135727728678 0  -0.023828125 -0.09939859599214265 0  0.04516426108955436 -0.06739829840297398 0  0.04940166109945895 -0.03945312500000001 0  0.04801220895823983 -0.03974851581974922 0  -0.03346535863078916 -0.02067641292038527 0  -0.03359963062932664 -0.02180229985246109 0  -0.03445979888973724 -0.02064530815232415 0  0.006640625000000001 -0.0005879011860003615 0  0.006424258402263888 -0.001539572479840268 0  0.008106631002546709 -0.01517225438599643 0  -0.0377226798454714 -0.08873656739892857 0  0.02636430566084623 -0.02800260235722319 0  -0.03020492861949762 -0.03897299880110403 0  -0.02229047988131461 -0.06031027785923001 0  -0.02254783730150026 -0.06112680079860429 0  0.04219168591680098 -0.06824116452758129 0  0.04118735889964105 -0.06767387243850316 0  -0.02168653416307742 -0.00156934745203622 0  -0.020703125 -0.0005876572593447337 0  0.0002493153152914582 -0.01594727824306814 0  -0.03078035553147879 -0.01811527987184148 0  0.03859787745726909 -0.09707317208299693 0  -0.02630737402726057 -0.07793050097411015 0  -0.02704449551228348 -0.07796341598248178 0  -0.02602553755840371 -0.07706386095584447 0  -0.02393363839338766 -0.07239872908036495 0  -0.006685283597260769 -0.02046088967265044 0  0.03796577733858923 -0.02399329298423231 0  0.002751288069088284 -0.01285634350456714 0  0.01101886510678184 -0.07796728112494268 0  0.04490035110479108 -0.0231462621336117 0  -0.005733134222044921 -0.06721659759770565 0  -0.03546521090262839 -0.04038365568050889 0  0.007507739478137153 -0.08656273998948336 0  -0.02143449555393297 -0.0806777583791099 0  -0.01309687473072719 -0.09219254964562949 0  0.003202988364905829 -0.07499465664743273 0  -0.01903674519581726 -0.08297972754831534 0  -0.04573515186011327 -0.03394649698825587 0  0.02930534547051304 -0.04774946489493671 0  -0.006647797850477698 -0.05785812874246103 0  0.02080654333871317 -0.05616188295033787 0  0.0177884706043881 -0.002848978100985302 0  0.01847373325586821 -0.003927748492429636 0  -0.04392194767797615 -0.04736935864119371 0  0.006210129493844742 -0.008674396541858724 0  -0.003211568237756808 -0.09081447771731709 0  0.02844994169929045 -0.09168393095865246 0  0.01888558295916044 -0.09609637422868587 0  0.01799513340677086 -0.09518832740848468 0  -0.008387534102367875 -0.02968722905243622 0  -0.03443723097568906 -0.03144832870708737 0  0.02867319243608913 -0.07606050188230733 0  -0.02880469603835803 -0.01200505967728178 0  -0.02264527123940795 -0.03704574680125895 0  0.01228083185440356 -0.07201046372128783 0  -0.04810112413788893 -0.08245574653046436 0  -0.01182992293502827 -0.03518247709584829 0  0.01176973183959295 -0.09242001033005835 0  0.03392858104619755 -0.03862947746351982 0  0.0263005539107559 -0.03599489033744956 0  0.02685417634638169 -0.03682556012934205 0  0.01784828868255686 -0.08341308726637162 0  -0.03176730988883175 -0.0985432797670459 0  -0.007849285683107296 -0.0191069936322468 0  -0.008865731025176288 -0.01860374134400988 0  0.04845201038223709 -0.08305101191177384 0  0.04817181636822276 -0.08373269502970758 0  -0.02508344951987806 -0.06060828495730439 0  -0.04827094149159591 -0.05633744411330687 0  0.02494395123643126 -0.0531416191755746 0  -0.0197052994140944 -0.08220529708775927 0  0.03809896999885432 -0.06132782250460836 0  -0.006762291456609427 -0.003991843504411403 0  -0.006080654951561128 -0.002965561851054383 0  -0.005380397281639529 -0.003598884917018335 0  -0.02250586434952944 -0.06306912016914246 0  -0.03307022393971364 -0.05903115202141383 0  0.02373331168484206 -0.0781165792430282 0  -0.0424981684059972 -0.01059207294279191 0  0.04779783378562276 -0.09692864513914767 0  0.04927187377045689 -0.07975233931081269 0  -0.008590336260089601 -0.0992610657456411 0  0.04834909671481613 -0.08509526853616212 0  0.04126808736593596 -0.001867427761869721 0  -0.03708572509801711 -0.06760495892724057 0  0.008083445420310564 -0.05199188000649845 0  -0.03519977223198525 -0.08496229530452634 0  0.0437919735989416 -0.05319065428437319 0  -0.04935531593878237 -0.07549644761878309 0  -0.002892023288931574 -0.0007107980743913018 0  0.0315024405373309 -0.02084475118753484 0  0.02571455790737327 -0.02671751426995664 0  0.0311631064055837 -0.01944949965824732 0  -0.006668114949880078 -0.009712697182860018 0  0.01075799369366578 -0.007139298743410796 0  0.02169444660572464 -0.06872305224357507 0  0.01140454691781849 -0.01622796237487334 0  0.01162247562368151 -0.01692143721741677 0  -0.03761195445403492 -0.02471492128790259 0  0.01035071421988029 -0.0485344683685324 0  0.03971202844828915 -0.002189335186963943 0  0.04010584221207561 -0.02335348625173453 0  0.039378113600786 -0.02355834307349248 0  0.001303830502838031 -0.08862329000812183 0  -0.0423141042066 -0.004628309670653522 0  0.04405840894423889 -0.0802070387900707 0  0.0448412638229621 -0.08088753891361695 0  0.01978939977005762 -0.05571645557549178 0  0.01943260148834922 -0.05436669414176089 0  0.02041573813932765 -0.0548118239559214 0  -0.01246073812143325 -0.09144298196963541 0  -0.03085521157111661 -0.04136652381967074 0  -0.03349311294817177 -0.06751341915464686 0  0.006280160388275558 -0.0497725086701515 0  0.009429546286338127 -0.08558989862282348 0  -0.03975971321555619 -0.09395957481669294 0  -0.03930155707060996 -0.09525558035724806 0  0.02725584885507827 -0.0894637621267366 0  -0.01307644072557798 -0.01349772093327797 0  0.03461434957656476 -0.09206557602158449 0  0.006121836923018044 -0.03028922907748917 0  0.04104664320879348 -0.008882144495389382 0  0.01067121186134574 -0.001495807926260217 0  0.0300592019109906 -0.02105893852043917 0  -0.01236437943837441 -0.05869794476980801 0  -0.003753375710267389 -0.07427839846886626 0  0.02315478252274415 -0.06501584225910459 0  0.00129830973433378 -0.05113595363266443 0  0.02870096460107146 -0.07045196943027865 0  -0.04560405410176559 -0.02111524545406282 0  -0.008063947349456787 -0.0747214968682008 0  -0.04941602862894984 -0.072265625 0  -0.03256557963655117 -0.01905712545171738 0  -0.03309619289048452 -0.01976193128975808 0  0.001545743029388086 -0.02637829377688303 0  0.001413466021333415 -0.02494773199130306 0  0.01536258370996583 -0.06687527076762192 0  0.01115133956703821 -0.06890474042595951 0  0.01733976313400579 -0.008182365531201722 0  0.004662706469470346 -0.07221520544575223 0  -0.02390603600623591 -0.008675697909558237 0  -0.02017018293291411 -0.01272191227657272 0  0.03931880331034248 -0.01244739334203787 0  0.04047711753504549 -0.01161963266459986 0  -0.04037229192939043 -0.09738410491214303 0  -0.006426786692306955 -0.08217449266036334 0  0.04846978332854512 -0.08078533824196631 0  -0.0429930604921234 -0.05168335581696647 0  0.007341518583156958 -0.01379617137807306 0  0.04277268581376097 -0.05884257079544422 0  -0.02502307665937279 -0.05528014998489351 0  0.003873499492705655 -0.02510413205340554 0  0.03003770362176049 -0.0738829654938964 0  0.0433205126652615 -0.06861534020721431 0  -0.03766628514965167 -0.08624834892574243 0  0.03604156451180376 -0.04414196238328873 0  0.03654373178388727 -0.04469611828771827 0  0.02980849030392136 -0.02738556754554716 0  -0.02394278011453096 -0.0135741272870541 0  -0.03419340248343316 -0.02560797888252629 0  -0.03387542020217478 -0.02693718544745828 0  0.02236305456547595 -0.02076934103660109 0  0.02292118869249779 -0.02029300509529554 0  0.01060033692691423 -0.01301091578247336 0  -0.0399473973772693 -0.02300718206771181 0  -0.03932522647376126 -0.02173261531969031 0  0.03154858840249904 -0.04669397963835371 0  0.04291052930807326 -0.05974064654885947 0  -0.03197952531385491 -0.08989670718439254 0  -0.03671529662134222 -0.08144075896534836 0  -0.03641140358540479 -0.08280962553643931 0  0.00365774806684678 -0.01137833311810556 0  -0.006274777077265793 -0.07494467339751069 0  -0.03455014310359548 -0.08377188941644677 0  0.007437413841768964 -0.001754253890079309 0  -0.03759308135589009 -0.01681491853755535 0  0.03801918237818856 -0.09833173253203635 0  -0.02262222087698846 -0.02464295594231273 0  -0.02193729574435985 -0.02434284405813235 0  -0.01450953953261422 -0.08472135846607289 0  0.04360302566328581 -0.09182925968601978 0  -0.0196792566990192 -0.07758893319339388 0  0.03745992115659488 -0.04098576442677208 0  -0.04766506994595416 -0.04855424888661845 0  0.04175874517148183 -0.05985322399918796 0  -0.01480868176865543 -0.09522085702962579 0  0.007214768434531523 -0.0983126055774686 0  0.008427510446235522 -0.0874620457727352 0  0.006014162946045046 -0.06065028112127151 0  0.04683790649456433 -0.02385187141596839 0  -0.01299687095109612 -0.02996489935577948 0  0.0174722093409141 -0.09102037738708749 0  0.01678799233871879 -0.0912934693210463 0  0.002283566797778256 -0.03246706731143675 0  0.03744772301419769 -0.003644741260326453 0  -0.02699184839436227 -0.08559506441714773 0  0.04701918158486091 -0.04913774056086859 0  0.01255193010022871 -0.08160117549629846 0  0.02491635515473817 -0.09478661962287548 0  0.02391034226375669 -0.0955670670986133 0  -0.01750180183775419 -0.0789189924975639 0  0.006403201593492613 -0.01951174856445427 0  -0.02116989218610293 -0.09238730623322383 0  0.01158818058905383 -0.005609381878614099 0  0.02235828212421368 -0.03226827036632579 0  0.01945935936842461 -0.07431842477045664 0  0.01977747549849564 -0.03870615681786316 0  -0.01767128975161706 -0.03034034331196164 0  -0.01714802462070063 -0.02945845593461874 0  -0.03965791009320788 -0.07312800694188219 0  -0.0119759512372003 -0.003487067084571866 0  -0.03080541873210814 -0.002157722932527164 0  -0.03100531064129864 -0.002883065369067638 0  -0.03171450662140224 -0.00308848080926699 0  -0.01163569610218961 -0.02822384071479414 0  0.03262200527821687 -0.08960588963133458 0  0.01552675084459499 -0.05744228118559896 0  0.04179524227749705 -0.01128883087677527 0  -0.001913991092602035 -0.05490397652951979 0  -0.0008049342825757752 -0.05411284312763726 0  0.005295781377160021 -0.05082515836163984 0  -0.04192392501484227 -0.0352014400490535 0  -0.04172378852872171 -0.03649305839519063 0  0.04070812992620669 -0.02763328495081097 0  0.005555003415867774 -0.04700811786923609 0  -0.0248401665843644 -0.06290491404754196 0  0.007559543270141992 -0.02032478257982076 0  -0.01983319357527073 -0.06204853308803786 0  0.0408306917340621 -0.09765069299958898 0  0.03010109127709188 -0.08312210349644121 0  0.03548204368203187 -0.04548596938544624 0  0.03410045075089624 -0.04591859643710718 0  0.03823512703755798 -0.07975713103968711 0  -0.04073802283989206 -0.04182962579796109 0  0.01509813690423147 -0.02575300682877236 0  0.004068228686496199 -0.07440904609258585 0  -0.01628051997750393 -0.05036689985873528 0  0.03503785354082629 -0.07052706540990102 0  0.03181007438357695 -0.04603685674824002 0  -0.04570860091862319 -0.01667489429753692 0  -0.02523122917948251 -0.01157441880144547 0  -0.008034234066568079 -0.0355069879145779 0  -0.0157310396776329 -0.01545015105406907 0  0.01364581904755065 -0.0796906808193876 0  -0.0192204520312229 -0.02710226133122102 0  -0.02344063291567951 -0.09432156838944392 0  -0.02304986437775056 -0.09369533674607666 0  -0.005886055360978102 -0.08631240702291579 0  -0.01020107847497066 -0.00664435538638389 0  0.0002255639882079594 -0.07161256368743878 0  -0.04062484449402032 -0.07293092530833099 0  -0.04520156957862486 -0.01577077028098528 0  -0.04476783453918469 -0.01709839454086269 0  0.01654658046758853 -0.06096352039595023 0  0.03155866191133453 -0.06773147441642462 0  0.01676711028870233 -0.08883047634824348 0  -0.01769719277986164 -0.02231032294485099 0  -0.01727407475618824 -0.02298324280874832 0  -0.01764680207268414 -0.0236193834332929 0  -0.01876323839660876 -0.0230938750738451 0  0.0163195769445944 -0.0901442646528588 0  -0.0344472214973348 -0.09900607070966222 0  0.01090815124438392 -0.0007423525416527644 0  0.02635054403557563 -0.06416174442708787 0  -0.04199988329822502 -0.06244555984096202 0  -0.0297022308678261 -0.0368414085135501 0  0.01866505087981783 -0.04509761478974735 0  0.01932431302604535 -0.04453006909081538 0  -0.03238350844773111 -0.08475201122048427 0  -0.005922437637129231 -0.080047458413565 0  -0.005092237493941495 -0.08041155358062439 0  -0.006317109750144619 -0.08113036860641867 0  0.03614402284990836 -0.02148175313840518 0  0.02226317403331761 -0.05339891716705326 0  -0.02484933123489355 -0.001379863215345446 0  -0.01126232549881524 -0.05788568732223973 0  -0.03025446453002158 -0.05421817516235376 0  0.04029896688075037 -0.06961541718164649 0  0.02817056851546334 -0.03727135563796088 0  0.02932213022635157 -0.03709269219067744 0  0.003071196500163703 -0.04882413817732401 0  -0.02264573794309528 -0.03279895775997473 0  0.03042093012680102 -0.04312520225956524 0  -0.02338752413679368 -0.04332771701073751 0  -0.006375615254603059 -0.09278377621952258 0  -0.007233080224996176 -0.09221102557959535 0  -0.006668568013597069 -0.09141837727407708 0  -0.007362674958802836 -0.05164867853324346 0  0.03383511044762486 -0.07246388987351808 0  -0.02094317910350385 -0.06017038818259945 0  0.01727384043097669 -0.07782912726216001 0  0.01725475449689129 -0.07671136107663176 0  0.009214331817221378 -0.06349198159148645 0  0.008374165830943713 -0.06333016525649365 0  0.02536304814508111 -0.07323552289851171 0  0.04275622259635614 -0.06133693906045022 0  0.00855032043695457 -0.02943678209219982 0  -0.02952647703791953 -0.02056751383880049 0  -0.02595210408714864 -0.006640577013625728 0  0.00407589371138221 -0.09607511516843534 0  -0.04650032757133892 -0.0006466176277832523 0  -0.002047092823437742 -0.04055755754432859 0  -0.03703681625921281 -0.03122904320428557 0  0.01361435450533834 -0.08989428983707753 0  0.01953397030939908 -0.08691335240156574 0  0.009431227189193422 -0.09753790930192374 0  -0.01032367253366203 -0.008776151669479922 0  -0.02981512053423971 -0.04706998730226302 0  0.02958560573236999 -0.03235608390922227 0  -0.0009792346934889722 -0.08847272044744349 0  0.04064267764626051 -0.05136213226082191 0  -0.04414404678852011 -0.0498044299222517 0  0.03246635257003463 -0.07145077739296402 0  -0.04834246647758725 -0.02312404485925529 0  -0.02873067586099561 -0.07247868034371314 0  0.01661465219834289 -0.02038414101786684 0  -0.02268785985239551 -0.07029920545434955 0  0.04069621287297398 -0.0723172562797057 0  0.02083944316818993 -0.04920866152780892 0  -0.0262637273350926 -0.03999432188676042 0  -0.04733556229055329 -0.001655532116953643 0  -0.04699966121497828 -0.00228766787267674 0  0.03504944382449708 -0.04115659587927463 0  -0.01462109213082034 -0.03298712383216106 0  -0.002012120421111352 -0.03059081956250765 0  -0.00729714126945369 -0.04652648589535994 0  -0.005908054741954625 -0.04654981391312939 0  -0.01088820025921356 -0.02893997127136548 0  -0.01227957648222423 -0.0290335499700293 0  0.01222511165642273 -0.05141295330082812 0  0.00880933659965868 -0.08652184449225421 0  0.02874044452424303 -0.0821450391379078 0  -0.02306716965539838 -0.05594716200628531 0  -0.00213855140583931 -0.05313959633859596 0  -0.03965333718249415 -0.03970603418815478 0  -0.04001126135092344 -0.05221815631111958 0  -0.01216210234364209 -0.06771574822421042 0  0.008685790714771158 -0.09348226532074579 0  0.004585659744186872 -0.0578516599765761 0  -0.002436638856479136 -0.03602974801031413 0  0.0172643213438962 -0.04979712966872994 0  -0.03455025747873306 -0.07177984080385026 0  0.04769544629653518 -0.008506498281805207 0  0.04012355659377 -0.02235889386458999 0  0.03896013792584611 -0.02254688272727281 0  -0.008791261373006263 -0.07352084146514626 0  0.0262405598624257 -0.01523298121637975 0  0.02615393954665783 -0.0890175042720102 0  -0.03487965871611243 -0.01844947313195669 0  -0.03513398061278009 -0.01940901490518776 0  -0.004248416021820655 -0.09067553613133759 0  -0.003004063775060609 -0.09005709322090985 0  -0.004042019373521715 -0.08968515046514729 0  0.0429701042452966 -0.09476263610199463 0  0.04234321819974429 -0.0944136172153732 0  -0.0402012221613527 -0.07864569676217793 0  -0.0001711369693902033 -0.08234713148584084 0  -0.02574823288986521 -0.08141584328127092 0  0.03260118576195882 -0.02688193047711697 0  0.031233965295786 -0.0271406691800018 0  0.007468244351993517 -0.02331667377754531 0  0.007661309809841312 -0.02239625289748034 0  0.02455621902495081 -0.07246956703995458 0  0.008709733230083876 -0.02256132847963944 0  -0.03597147931407447 -0.001856462234627024 0  0.04654922136379781 -0.0217758523819984 0  -0.0008862152543641295 -0.03290408885655434 0  -0.02155135551093918 -0.008636894753550343 0  0.04797358289894841 -0.08931767493516932 0  -0.03176838020633928 -0.05542264492536954 0  -0.02947104822215956 -0.02380564665925806 0  0.04788434234699419 -0.01961940501651589 0  -0.008533730148947507 -0.05089451563469422 0  -0.007764917546097838 -0.04970039673009496 0  -0.0123637966283031 -0.02383015743103382 0  -0.03861919766206179 -0.05753609876258942 0  0.01379596584846202 -0.06584641686421272 0  -0.04106039001323226 -0.06294940635217679 0  0.004914900663551254 -0.09498045008420436 0  0.03576433890413303 -0.02013473447786903 0  0.002414032908512611 -0.08437152458016854 0  0.01813823359278224 -0.04619150363373713 0  0.01875563516861708 -0.02360957982044012 0  -0.03816173623533248 -0.03355944268608722 0  0.01356433142152586 -0.0776211494426234 0  0.01883196801063311 -0.03639854962267198 0  -0.04935982577799673 -0.06372679435411115 0  0.04850056109875069 -0.06326917581067057 0  -0.04827852978957076 -0.04150346239627698 0  -0.04849856682758477 -0.04284890890611438 0  0.03041006969301253 -0.05663041457657814 0  0.009393248476202825 -0.04797854823069712 0  -0.02410247465523657 -0.02716322167471592 0  0.04852667610397464 -0.02082416412445792 0  -0.02115585044735051 -0.06252670430775073 0  -0.01795891102239924 -0.04064307836428784 0  0.01672628035565114 -0.04629006535956896 0  0.01609033153216919 -0.0466804563474098 0  -0.02705738860373739 -0.05948593809342845 0  0.03418485550674754 -0.01335877466181423 0  0.03949673636655866 -0.006065591157584768 0  0.02639208261220736 -0.07986256650109325 0  -0.01326260043530265 -0.02861035837869202 0  -0.0124996951366582 -0.02765876423364152 0  -0.01345400049719079 -0.02725698722195464 0  0.01724199470050056 -0.07448831889628606 0  0.01814465702432136 -0.0748523779777558 0  0.01775553223090976 -0.07578645124193176 0  -0.0009623429848925147 -0.0487609988804508 0  -0.001810289865521938 -0.04895184153927116 0  -0.001557615772535081 -0.05002513826448558 0  -0.0006257258643518203 -0.04969662945470887 0  -0.02003003014679678 -0.07854062474025357 0  -0.01901602433457422 -0.06513869440956996 0  -0.01777446864291718 -0.06445852452684955 0  0.01177674008453108 -0.06310629425348863 0  0.04555298049190567 -0.01504776357523489 0  0.04702303452535359 -0.09296733467139999 0  0.02294078686629197 -0.003895690268894912 0  -0.04478708334722496 -0.0521338539609411 0  -0.0302803204039177 -0.08076127148457538 0  0.005180824565770321 -0.07344912223062809 0  -0.02611439716985473 -0.03752350871498888 0  -0.02475682435090624 -0.03711718745112001 0  0.03538262461108981 -0.0276248273798556 0  0.02678715264511338 -0.09180257403277604 0  0.02740787674671863 -0.09146849047798267 0  0.04199251624153991 -0.09371102255533981 0  0.04331316199995414 -0.09341293859181633 0  0.01190525143105956 -0.01502344407005874 0  -0.0224464556460479 -0.08958461715588653 0  0.01112115474525939 -0.05333815255704959 0  -0.0184680544318877 -0.01567213727451033 0  0.04511357209741301 -0.06105399541953401 0  0.04488054477356308 -0.0528508464230895 0  0.002922562344097017 -0.0252352684545869 0  0.01549990000164593 -0.04630031067898192 0  -0.02136339053864991 -0.02723202500420308 0  0.03436956121499325 -0.0416262112872294 0  0.01051747881664211 -0.06298534137168893 0  0.01136947269274524 -0.06414042607823656 0  -0.01081625270911493 -0.07597739331653558 0  0.03625566756726208 -0.01727096547552307 0  0.03651597603598462 -0.01602539196717342 0  -0.005840327747529897 -0.05371715236909532 0  -0.04818104185286243 -0.04918516664441084 0  -0.04744896876564255 -0.05022593222906855 0  -0.03865889759840584 -0.05864963200572311 0  -0.03890666001918 -0.01628927978500451 0  -0.04745088161924779 -0.04048521657374081 0  -0.04656731158380906 -0.03947202696923531 0  0.0285964147488889 -0.03453530792724047 0  -0.03232791995114712 -0.07067750184839747 0  -0.015234375 -0.0005738539590239133 0  -0.01475729201537319 -0.001842903014254603 0  -0.01420966092919582 -0.0007395810593817226 0  -0.007228750923757146 -0.07262185521708223 0  0.01333525413580178 -0.08775326423274975 0  -0.03375127943390184 -0.008028193859194364 0  0.02521721392682632 -0.005330102798631219 0  0.0396164700992199 -0.08008082028380233 0  -0.007448952967596861 -0.01237760411029117 0  0.02159189820647719 -0.0360072962454058 0  0.01798170473578287 -0.0894960600105679 0  0.04846739563959208 -0.06074967003037576 0  -0.008183179987432346 -0.03122384522252578 0  -0.009066863427828569 -0.03198077305533282 0  -0.007675374119192478 -0.03198326839835931 0  -0.01443040747425281 -0.06735414300681172 0  0.03295302366061851 -0.09309912486822203 0  -0.01400451043748603 -0.009065180569056459 0  -0.030295820295188 -0.003660004040239561 0  -0.001389492298650334 -0.00800479899896225 0  -0.002235004978914394 -0.007615177983709927 0  0.013230225044794 -0.02360411912491387 0  0.01198686521793284 -0.02370282659424223 0  0.01210711719114369 -0.02281024442468716 0  -0.0139804421608422 -0.09599123423708626 0  0.01542280531878221 -0.08456526446568072 0  0.01925358891153792 -0.09184676921651549 0  0.02104615679586785 -0.04430255289385576 0  -0.008742651012750999 -0.09718477988556515 0  -0.001985667862816524 -0.0048219957780602 0  -0.002899950564527328 -0.004263952927803318 0  0.01484659931431453 -0.04535842204148064 0  0.01651576840107205 -0.02964480023109682 0  -0.034765625 -0.0005872017160320014 0  -0.02663013127097485 -0.06081138402782945 0  0.01857009496325972 -0.07617468190406743 0  0.01989209422914185 -0.07574856627367031 0  -0.0006930663124252952 -0.06058790627892975 0  0.02666219842197868 -0.09765895694470263 0  -0.01662551331015334 -0.03630166862848352 0  0.005749546659657333 -0.03910636214141002 0  0.04091885848933998 -0.05776274247055362 0  -0.002435546246472168 -0.003510304278739591 0  0.0426878679890094 -0.02049629277905462 0  0.009345223020623711 -0.05264713821804892 0  0.01815936155235004 -0.0353767496489847 0  -0.03981184762454072 -0.001699854572446298 0  -0.004280284407592664 -0.04031062740703442 0  0.03821642214356648 -0.08398823630551164 0  -0.01846888294041725 -0.02990295349874864 0  0.03932709104255586 -0.05907173886910551 0  0.04031574038560345 -0.0835438785617658 0  0.0417069442103656 -0.01950167003846014 0  0.0426749328115581 -0.01937516550514407 0  0.04252193614360157 -0.01831863972328714 0  0.03429180198517894 -0.04051060538028559 0  0.01379139489384407 -0.02633128208372527 0  0.01353341777108173 -0.02765729645577805 0  -0.01386080238395779 -0.02567997149247269 0  -0.02213825024190819 -0.05606505232967936 0  0.04601743898369432 -0.08494278535451255 0  0.04738383692716353 -0.08466477983331497 0  0.0464921741007835 -0.08411515771044294 0  0.03898800378918872 -0.04366767775671299 0  -0.0398499301233247 -0.07727629976741179 0  0.03054025488824378 -0.01645910316587494 0  -0.004022074833818354 -0.01562334297472284 0  0.01252355479914478 -0.0256745111599858 0  0.01344222842362994 -0.02466132747568807 0  0.01374194323211531 -0.02559963241314222 0  -0.009787795585717992 -0.05554100441986932 0  0.00481151262866945 -0.091906367486533 0  -0.03500567677870183 -0.009090528765553236 0  0.03029521390241752 -0.004678338561029487 0  -0.006702423781666307 -0.04117787764343113 0  -0.04347538989830676 -0.02293571821259248 0  -0.03572567080112381 -0.09697299217020955 0  0.01714043681388015 -0.004041712938694052 0  0.04135732734337656 -0.01605109776894445 0  0.04585616410875614 -0.04176187377003785 0  -0.04783738172013793 -0.01355716512087137 0  0.04193344102918315 -0.05578048805007026 0  -0.03768763578424637 -0.06889142017844577 0  0.002526556080809772 -0.03763183706181185 0  0.02082586590561333 -0.08237745505029011 0  0.03834249774022529 -0.06984083583173076 0  -0.0113335384820337 -0.07527592292643379 0  -0.04439597924798695 -0.08498885749581077 0  0.01261633587831696 -0.004632991988856574 0  0.04547798539150939 -0.0008964601290836554 0  -0.01360053601387054 -0.08088984742844695 0  0.03431054139439341 -0.03650438486120607 0  0.03502253140593266 -0.03640419306400247 0  -0.04756347010338229 -0.01764972015255124 0  -0.01846617582153574 -0.09397045168298035 0  -0.04192700170334734 -0.06911211066923041 0  -0.01472356218235437 -0.02161293378624421 0  -0.02614058380953742 -0.02793305989316165 0  -0.0140602900381817 -0.06915642665536752 0  0.01871288389023945 -0.09329757541744087 0  0.01814745018311695 -0.09449142761812161 0  0.03243803685483675 -0.07285662300254235 0  -0.03294371454325722 -0.01420105839490696 0  -0.01154153724946534 -0.05651980005641882 0  0.02191718786467377 -0.02158088433942697 0  0.01325900834028271 -0.06654106321765588 0  0.0140097134064879 -0.06721660137487329 0  0.0126440926753891 -0.0673904814638268 0  0.01580585190083964 -0.06834262245076921 0  0.01495594753245763 -0.06775985815887076 0  -0.03370310563360474 -0.00416906111356665 0  -0.006647941710812292 -0.008330240880217728 0  -0.001246521166693369 -0.03861580422880059 0  0.002122180473325428 -0.02370915207057707 0  -0.01013277736602076 -0.02970871024388368 0  -0.007004700120502725 -0.09735114784441823 0  -0.01190186435270255 -0.03162088020202678 0  0.02189522846491482 -0.0015034239034221 0  -0.02557944628662563 -0.01495789116854103 0  0.04782494727531392 -0.005025736597701547 0  0.03208289714829614 -0.05311056686065571 0  0.004511232336620772 -0.02748951902167108 0  -0.01663316763793443 -0.03841065479284385 0  -0.03301596964119855 -0.0396395565209588 0  -0.03265370284750291 -0.03846529340788483 0  0.03101670523895811 -0.006399656925981601 0  0.03147452462933738 -0.005266415335537845 0  0.03226949305677954 -0.005816754356425134 0  -0.001950079511405339 -0.05805910480029482 0  -0.02619424488766063 -0.03868692522993056 0  0.02046343091183266 -0.09376177814519804 0  0.03077785424993597 -0.0175780637859518 0  -0.03265101813769191 -0.05623034338959071 0  0.0006485602008014901 -0.07927586128831793 0  -0.02679501241239581 -0.008978185196256348 0  -0.02571762502935178 -0.03204255531139463 0  -0.02658216120084979 -0.03263314263889543 0  0.01911531780548308 -0.04175257611635712 0  -0.0205250462534492 -0.002574078482714712 0  -0.004441261905480532 -0.08232087862159305 0  -0.00364591518701279 -0.08269818279526636 0  0.01994296850215917 -0.005750862514773411 0  -0.02223344070006635 -0.07567135254437218 0  -0.03219372055699168 -0.01667723713199167 0  0.01274023976123216 -0.09083155119420039 0  -0.02848222246434038 -0.09935911687700032 0  -0.02774295011778109 -0.09827954425691039 0  -0.02902037827416849 -0.09848297261302685 0  -0.02777371602928207 -0.00856047194990237 0  -0.02489910100588524 -0.01862385229369271 0  -0.04189806928712991 -0.008287834457412227 0  -0.04068925521874555 -0.08054669899910769 0  0.04752547162054038 -0.05719778916039896 0  -0.03079882732258881 -0.04537606019433493 0  0.03279038388431179 -0.0681777523421106 0  0.01887524554428451 -0.0398021239960264 0  0.01022244000345579 -0.07913699253893382 0  -0.007108587167637979 -0.08483556207240521 0  0.01629702314501195 -0.07435745922903507 0  -0.03629729200244872 -0.003322881317080899 0  0.03063378506648652 -0.005289808508987979 0  -0.02366535148760304 -0.05191747809628632 0  -0.02438399837624799 -0.005290829486662831 0  -0.03615677804611543 -0.007311760800165529 0  0.01159779668232249 -0.000681662932585473 0  0.02861172820263859 -0.05198503957643976 0  -0.04941236638701325 -0.09882812500000002 0  -0.048828125 -0.09941236638701326 0  0.04249544227499522 -0.05274643250720445 0  0.03098898143279368 -0.09214953454304924 0  0.01169921472562146 -0.06690986202807628 0  0.01090925768843763 -0.06610413170447028 0  0.01152746985600585 -0.06553274097117445 0  0.01511665750647185 -0.006408667623087219 0  0.009146641649809452 -0.07751697873614699 0  0.02748189774702058 -0.04622450924465582 0  0.04086819276284109 -0.0928542823846681 0  -0.03780844193282927 -0.05655798702689135 0  -0.02595575543103707 -0.09822925204863833 0  0.03941095054517054 -0.01680133830468701 0  -0.001423370358910651 -0.02676802922707265 0  -0.04941326065411616 -0.015234375 0  -0.0493549267395264 -0.08316294224983076 0  0.007557184012234903 -0.09745125748962184 0  -0.04666216616687654 -0.02026977197227422 0  -0.04666676395734152 -0.0192756022699468 0  -0.04779376855410539 -0.02000374888959888 0  -0.02468466772219124 -0.08978362073045168 0  0.00581756675542896 -0.09839372749823069 0  -0.0274436044301926 -0.003145651620135552 0  0.01655302297441416 -0.07659333746725878 0  -0.03298553903265681 -0.04405682673603471 0  -0.0005943197947760701 -0.03227890202870551 0  0.03004166654090625 -0.06808075010264464 0  0.03880589743130582 -0.03997430220098249 0  -0.002226777183583635 -0.05133230765448105 0  0.01525602411815568 -0.01665828055882534 0  -0.03033572703572621 -0.0199995789355248 0  -0.02967417937099905 -0.01916383952387689 0  -0.0290208221495491 -0.01948654899931252 0  0.02667208996674542 -0.09033519777604233 0  0.03074192809666629 -0.05327877481929252 0  0.03000764482029548 -0.05333728684825331 0  -0.04491602074911825 -0.09753577509292549 0  -0.022608694031284 -0.09514173633095119 0  -0.0008486708826513855 -0.01478588389313527 0  -0.02260261021835725 -0.05364341861544717 0  -0.02357141304008113 -0.05462077302731191 0  -0.02269809673911295 -0.0548775551172942 0  0.02722837185498304 -0.01920755791040788 0  -0.01764824357244387 -0.05962587366024347 0  -0.01988361473217793 -0.07639871491240917 0  0.01884139351855985 -0.06715779247209461 0  0.03923312481490684 -0.08371569050875212 0  -0.004703605951889026 -0.002382578397490918 0  0.04019812818208129 -0.01603265417958739 0  0.0459032080708263 -0.09461470141755167 0  0.04246200794219665 -0.03249802666837227 0  0.02852814602376197 -0.04597540204680871 0  -0.0369564710343163 -0.07577015997606368 0  0.03494658934071665 -0.02591741853674989 0  -0.004968611751138614 -0.07586494953519161 0  0.006656176730418703 -0.01806507647498871 0  0.00304475902231854 -0.07352814956514399 0  0.0300379570734614 -0.04848539272760785 0  -0.04053018465325457 -0.04310440785222704 0  -0.04589748821371304 -0.03327137664670317 0  -0.04611537244802227 -0.03452090290933221 0  0.02922908873902276 -0.02291325050314195 0  0.03500906507243978 -0.08409491734351829 0  -0.04180612125101055 -0.07318981050481931 0  -0.02016839050319364 -0.05614361688209345 0  -0.007546913027369718 -0.01477290717642221 0  0.04211570096473458 -0.01346676226024322 0  -0.039713387918313 -0.02812926350638759 0  0.01439825751153793 -0.05040202827726523 0  0.006959063020494523 -0.09274815184931015 0  0.0006402043834981 -0.07282469088622161 0  0.0308239364074758 -0.04976053107749177 0  -0.04189173978616228 -0.05336013264362412 0  -0.005009628143415758 -0.08869493846162252 0  -0.03769973081576927 -0.05868811503543275 0  -0.03749592604391391 -0.05790217335600567 0  0.03597872506862823 -0.03555604419596763 0  0.03605614808043055 -0.0368130075648461 0  -0.005814134911966783 -0.07548192460174008 0  0.03091422440461896 -0.0755309483482869 0  0.03178142249575198 -0.074608591586423 0  -0.02064872243404401 -0.09605428210194449 0  -0.01690804965395962 -0.06566637138391841 0  -0.02112588310510076 -0.01821874047882417 0  0.03376401396806804 -0.07768853730328161 0  0.002607403171062483 -0.05114596024752882 0  -0.0003530098925418803 -0.08340031302854627 0  -0.01684812106880446 -0.0899061087411842 0  0.01934322119308852 -0.04336596847957086 0  -0.03105975906008394 -0.03081108718708142 0  0.04912684476829573 -0.05699028844031506 0  0.02815248079720393 -0.06971023847167263 0  -0.0009731612438184949 -0.07861015979233149 0  0.03645098558376224 -0.02669310733092916 0  -0.03802873803198071 -0.07609663836175634 0  0.006972809743086386 -0.08909291908009524 0  0.01999754765120514 -0.03743860422206628 0  -0.03817164116332439 -0.09779581334904598 0  -0.03732243054661882 -0.01273229729328127 0  0.004717793622292751 -0.09396845537612988 0  0.004046117288266433 -0.0930703634961296 0  0.005196974885106452 -0.0927455518482298 0  0.005706604821012593 -0.07115877878713328 0  -0.008056689660834435 -0.07277905905932783 0  -0.01770609157980606 -0.08074117888077505 0  0.03290252252564842 -0.03392676168684063 0  -0.03502198708046338 -0.02719344539723659 0  0.003205997624239427 -0.06302028680136974 0  0.03442162227770824 -0.04728919133609816 0  -0.03545963384218521 -0.04358248021451504 0  -0.03245606495466078 -0.09604427722588309 0  0.04014742737108772 -0.005108533911638838 0  0.02176139009281993 -0.04345723471478311 0  0.02046080590961436 -0.04390771369465771 0  -0.004501964396674055 -0.06346394169219342 0  -0.02478228622230865 -0.08601981536248904 0  -0.0312453520767825 -0.04930698611465602 0  -0.04943517010910016 -0.060546875 0  -0.02624106766548931 -0.03121183374732889 0  -0.02680103438583171 -0.03039251692636639 0  0.0232195692292801 -0.05123154199370362 0  0.02446778141086146 -0.01048528420104849 0  -0.01979036247371592 -0.08562354131675083 0  0.03477818029315782 -0.05523934056489493 0  0.03431797788864683 -0.001086058020529677 0  -0.03034945237299338 -0.0502122254205179 0  0.03990835898289283 -0.07179651360272235 0  -0.03013754610084985 -0.001970970799893171 0  -0.02758214135990958 -0.03091536025357593 0  -0.0183372475263021 -0.05399905991288093 0  -0.02376257146047447 -0.07034380690286032 0  -0.02351711446201675 -0.06924705830297986 0  -0.008652470896080153 -0.06016796683307727 0  -0.009451756538365623 -0.06129489418953364 0  -0.009701082683557877 -0.06035710975429753 0  0.01694014441622598 -0.01124216946026104 0  -0.04824128771067954 -0.03152859298981086 0  -0.01234124264112453 -0.06219296291141338 0  -0.01720221028594874 -0.01233643944766692 0  -0.008749487539692947 -0.06342129559080599 0  -0.008966062619219022 -0.06225277461103355 0  -0.008148021196384534 -0.06218917725654208 0  0.03213291834370723 -0.0347241350738812 0  0.02555740984297508 -0.01760154307147318 0  -0.04583689480605501 -0.006523823359939339 0  -0.01626915936325961 -0.03410903976749484 0  0.009858184300979395 -0.0660107202157198 0  0.01705798006142722 -0.009560930750266856 0  0.001318920249840394 -0.02256277610300075 0  -0.008254403689160366 -0.0576306711368527 0  -0.02643101852888254 -0.06933841144693938 0  -0.01721716208601497 -0.04933052227908987 0  -0.006715214386427588 -0.05986704720724052 0  -0.00767247598009569 -0.0600257614748026 0  0.04125726389194918 -0.04856544475788744 0  -0.04518705535134746 -0.09182720948437174 0  -0.04305730389403897 -0.09032125825795 0  0.003998496998693973 -0.04977684793946369 0  0.04735775548590346 -0.01866808534334171 0  -0.03092003113823746 -0.08965797868839046 0  -0.01976828458824272 -0.09823177667307091 0  -0.04671678353739966 -0.02652654227903239 0  -0.008099446272270622 -0.07362024511279655 0  -0.03130760033812501 -0.05628673751979168 0  -0.03202089014527896 -0.05679561373395845 0  -0.02089911027376136 -0.07571639908406083 0  0.02418203662147584 -0.07932417669358358 0  -0.0400602672413597 -0.03075324287681223 0  0.002917578999779475 -0.01544504343020814 0  0.0205854539387003 -0.01874303525342004 0  0.004987142315069933 -0.01657325173637368 0  0.02266108442072595 -0.07363073571543315 0  -0.003021741888925454 -0.05668576063922354 0  0.01231157640006553 -0.06605353426941631 0  0.02741255252841799 -0.06765216329837269 0  0.04328827982064985 -0.02395731822078789 0  0.02414267374784891 -0.02972651389429273 0  -0.04258715814119843 -0.05399744950090749 0  -0.04558556251478368 -0.01444805454929695 0  0.04860967631576105 -0.07227426101475019 0  -0.02477841543339503 -0.04876527820050815 0  0.03256582093251726 -0.09099791657916358 0  -0.01516431072170937 -0.02621316908246278 0  0.04845079441373379 -0.03900487995851548 0  -0.02637005820614203 -0.01133002053670081 0  0.005113777468136793 -0.07459229106676164 0  0.03912811099407652 -0.0826387509850736 0  -0.04838276520961535 -0.005277047235366116 0  -0.001747515883226226 -0.06710578019115589 0  0.01512048414981063 -0.00749204054890418 0  0.01511197519137165 -0.008200193856939203 0  0.01382559102257514 -0.007830316396979032 0  0.04827962408454827 -0.06191257173865529 0  0.03944505158850296 -0.003394374334913681 0  0.01241465922575054 -0.08275505445867366 0  -0.006543125493337091 -0.04967582872080299 0  -0.0334337888322393 -0.02788468882032498 0  0.001185399615245598 -0.09939680077294939 0  0.03216570214730081 -0.03722090582934343 0  0.0159719872826106 -0.08264994666253783 0  0.04933210547319643 -0.04548014665966796 0  0.0356225400531469 -0.01875620877200175 0  0.03612967707406697 -0.01795249502457386 0  -0.01412502857518248 -0.0992943420029939 0  -0.02809520492922193 -0.0449420589765059 0  -0.02812887839069439 -0.04585437258711293 0  -0.03294127956184148 -0.00307842660893276 0  0.01066674454668169 -0.0900756367007437 0  0.03452845565697556 -0.09719870074537634 0  -0.01238373149892841 -0.09283606507343303 0  -0.02439449839065275 -0.0939477478544728 0  -0.02524954234412648 -0.09300921916164762 0  -0.02453483324203342 -0.09261700357085144 0  -0.04697230627410262 -0.005791786783968958 0  -0.04644330065749815 -0.004528114824429768 0  0.03531377617356447 -0.09524746252096138 0  -0.02365774797182981 -0.04119337436824484 0  -0.02228698740026428 -0.05425091629964363 0  -0.02079743260919394 -0.01539852485266973 0  -8.479338823885583e-05 -0.0007186744872853393 0  0.01397656248547584 -0.08191867386708344 0  0.0144723391050927 -0.08290936026707199 0  0.01367900287504687 -0.08334776046916059 0  0.03208591178482129 -0.09668316992735122 0  0.0006054645160920726 -0.07414271341606937 0  -0.0007716070206442581 -0.01202683749997641 0  0.03654066977638958 -0.006105945663455235 0  0.03586026109144648 -0.005983682679253779 0  0.02822503942814298 -0.02283943167022551 0  0.007162073986931488 -0.06106610164346807 0  0.006838958447311215 -0.05973162265613085 0  0.003621664875671858 -0.0104569084556497 0  -0.001495604706276059 -0.01008084416956244 0  -0.01122795316048551 -0.002570347292374745 0  0.04401769187802363 -0.06927563055173029 0  -0.003111001501002587 -0.03763902399141262 0  0.003491075869666199 -0.05458421854745754 0  0.002503480819016398 -0.0541822239121699 0  -0.03627362331751982 -0.0345600547891958 0  -0.03677524380752784 -0.0335498915095894 0  -0.03738481564352798 -0.03470285850958624 0  -0.03403348501435166 -0.03334978726813054 0  0.0220882356849567 -0.05563158300248134 0  -0.02233884575862541 -0.04631204716240307 0  0.01029089920059618 -0.0637086449930017 0  0.02804309106274861 -0.09432671674713217 0  0.03583107405483905 -0.09730810778110074 0  0.03520827975938511 -0.09760811832926063 0  0.03516849541545657 -0.09831552851796935 0  -0.009172032623198137 -0.003902252180259206 0  -0.01022222788533099 -0.004771096507795024 0  0.02347573116366778 -0.06079658993279067 0  -0.04185595344980151 -0.0568196977154852 0  -0.004058996383998694 -0.08764583870327772 0  0.01647566027033783 -0.09333987300584971 0  -0.02054296358490811 -0.08470157586572284 0  0.03079889122969883 -0.04907681746275347 0  0.0002928399904223889 -0.05584909345107986 0  0.00113168514027953 -0.0269462571671994 0  0.0001700883597157304 -0.02778621472711214 0  -0.04436277758678448 -0.02120953756926493 0  0.02735364338063899 -0.03547840113441114 0  -0.02283916211491063 -0.04258414253409954 0  0.03038675309280345 -0.02034144649586112 0  0.03897001880512592 -0.05273988690466877 0  0.01020690027294191 -0.01230950591006033 0  0.009276954899842649 -0.01248011258262557 0  0.008994873861888729 -0.01310543131273823 0  0.0212791278801672 -0.008820778594732938 0  0.02220392294545589 -0.00835439834046421 0  -0.02826470505361828 -0.01721520242010214 0  -0.01251850332606796 -0.08146946000759644 0  -0.007055168678714114 -0.04396474774334474 0  -0.04132942116310878 -0.04659832294024833 0  -0.01091472878153004 -0.03732407229225621 0  0.02592087309262371 -0.08506691490127577 0  0.009478816216477325 -0.05021481181298375 0  0.01023406165248698 -0.05039309330231323 0  0.01021106544241992 -0.05138252536198117 0  0.03704739976329402 -0.08114419549921686 0  0.002510622566322846 -0.06084664759631431 0  -0.000401879582243502 -0.0287228500246454 0  -0.02129671940367513 -0.03062852563017559 0  -0.02031872212915503 -0.03113279259807952 0  0.004445979373885391 -0.09085700225016974 0  0.003643116922559714 -0.09115053836341543 0  0.003768951009003823 -0.09204964133624663 0  -0.02795370717532979 -0.07333840380264936 0  0.02411786573825199 -0.03883992847115808 0  0.02038555190412582 -0.01733691898094601 0  -0.02705693953389697 -0.03173769527511042 0  -0.04743919603130766 -0.05245956006554663 0  -0.0461333317443046 -0.05218450917880061 0  -0.04672314387362844 -0.05315488287062814 0  0.03895687573754415 -0.04928758961900857 0  -0.0249675111113545 -0.009631657178432671 0  -0.02517259815344949 -0.01031314581638527 0  -0.04034413667499636 -0.06853905770942371 0  0.04754771938947243 -0.04071336630169251 0  0.04766877375757818 -0.04145348874538916 0  0.0418668865552553 -0.03077804045092544 0  0.04642886609454332 -0.08190315922127438 0  0.01134985954812251 -0.05868009092441586 0  -0.0105172916094408 -0.0566900280808847 0  0.04853091188392473 -0.06996585625919101 0  -0.04709218645567616 -0.0147395536446412 0  0.04929831545683074 -0.09840408768422748 0  0.003178331817182871 -0.07636813460441987 0  -0.02535054014741572 -0.0307200490319202 0  -0.02509939754198138 -0.02942562075871348 0  0.03082836579166071 -0.08710684578607093 0  0.0315976541152537 -0.08732567572683227 0  0.03156023320798354 -0.0860179357156849 0  -0.01794587414924775 -0.09499229358516631 0  -0.005078125 -0.0005594270054141932 0  -0.005859375 -0.0005594270054141932 0  0.00949641143618693 -0.01359597638143679 0  -0.02181445588370701 -0.09215279854924695 0  -0.02242692384604711 -0.09304527078690147 0  0.02882971729044731 -0.09303411049262143 0  0.03623119377172514 -0.03940169900885829 0  -0.01161138015876995 -0.0107238700341865 0  -0.003454385590469068 -0.006976780574685176 0  -0.02252402554947622 -0.07702773127196973 0  -0.02224345829059269 -0.0776895992584235 0  -0.02358674109644004 -0.07734891585611778 0  0.01676344588676816 -0.09469159247064725 0  -0.02728760367174862 -0.0688004334451499 0  0.01971734737239318 -0.001632991585651422 0  0.02978837985735644 -0.09876078012954248 0  0.019565212214068 -0.08048576220645103 0  0.03144749760386116 -0.09452676958850717 0  -0.03117412402629322 -0.02507263511885257 0  -0.03205087444748012 -0.02571064697534857 0  -0.01102200676993285 -0.04105807635704126 0  0.04015102694371229 -0.04563399494890851 0  0.03900428929827105 -0.04571125268915031 0  0.01827560989561668 -0.09834968696887732 0  0.01806800098502082 -0.04476705203059012 0  0.008068485668840055 -0.06696972031077984 0  0.03773602447455614 -0.01909732476093384 0  0.03721792229103683 -0.01990436423320145 0  0.03639313563614239 -0.01938152979455871 0  -0.04291608105422525 -0.02196744293184055 0  0.02909897996167931 -0.01480484844664652 0  -0.03694510200653556 -0.01807719718688612 0  -0.016796875 -0.0005887202890254949 0  -0.04660761737914383 -0.07880131257684436 0  0.002868705187134259 -0.07050832723325813 0  -0.01878831396614988 -0.04012374455061246 0  -0.002029493203102428 -0.0839967965176233 0  -0.01581531486989819 -0.05452045974002197 0  -0.01696477101159321 -0.05453764572227866 0  -0.02392949872194181 -0.009734494983039734 0  -0.02402327132599543 -0.01065549377156082 0  0.04550637724083692 -0.02125125201065392 0  -0.03799770037976027 -0.09643433490902126 0  0.02727658327885925 -0.03944939266151094 0  0.02638358638902472 -0.03965143470501437 0  0.02661839846340556 -0.04065276469294084 0  -0.0132048690354678 -0.09678696964817743 0  0.03383561703747542 -0.05639446277106473 0  0.0346830258040632 -0.05671435434416302 0  0.01775811267904994 -0.02123181427970734 0  0.01762195729868334 -0.02024414876323323 0  0.01679386319088495 -0.02137447883993383 0  -0.04373602677140611 -0.08779689334658151 0  -0.0120649133783377 -0.07634290484750364 0  -0.04469642717047938 -0.05349597659560775 0  0.04412034084615695 -0.04810924585469863 0  0.0251492148964789 -0.06201756410600685 0  -0.008347873739352061 -0.0326247210781854 0  -0.01626599195326228 -0.02787281162993104 0  0.008768033184515911 -0.09038983439030221 0  -0.000214815657278982 -0.09862363157569917 0  -0.0001579520534965965 -0.09931970443938549 0  0.04495293022542127 -0.03128245023701627 0  0.003272047693244102 -0.0494752112527145 0  0.03912344583548871 -0.07109924124616679 0  -0.01175924081971518 -0.06892969215385251 0  0.02026060984648412 -0.09279203250544631 0  0.02246865228723002 -0.09595695664758995 0  0.003297391535214238 -0.05753706566157125 0  -0.02678996143440536 -0.03588531396603111 0  -0.02787398246262637 -0.03566975463667192 0  -0.02930295717392985 -0.07189378113071376 0  -0.046783234149341 -0.04504572021593935 0  -0.04768322274921519 -0.04395002233424793 0  -0.04778650395214345 -0.04494675776346263 0  0.01600660830831423 -0.04913672701014692 0  0.01758395681273233 -0.05734473526606865 0  0.0007880339888041382 -0.04988680529029781 0  0.003244815800644585 -0.07254971905233323 0  -0.01827269268369413 -0.08239315892832613 0  -0.02054318898063748 -0.0684389378374556 0  -0.0213211068631981 -0.06927483182569384 0  -0.01078576334963648 -0.06099981959183901 0  -0.01145172730227443 -0.0175144817767944 0  -0.0005044728650357815 -0.09308656987927473 0  -0.03753640125444779 -0.01341879751666201 0  0.04925878955163082 -0.09281299381959114 0  -0.01805795079152897 -0.06852346755308709 0  -0.0322221955799361 -0.07253646222235414 0  -0.02696595351172553 -0.01702585851778112 0  0.03415367535762789 -0.004717978786392438 0  -0.003037193703675652 -0.02832548328041034 0  0.02044965881939955 -0.06578017026240794 0  0.0009006799505025449 -0.02448259634936983 0  0.00704038267305435 -0.07088511768149469 0  0.008327638634315782 -0.07046191709714841 0  0.007946617791240795 -0.0714047393472387 0  -0.01931212237268634 -0.04801030576200333 0  -0.0369023038605636 -0.04978740530004008 0  -0.03721470889620555 -0.04846892721804311 0  -0.03766566065394768 -0.04904372886349471 0  0.03981584637560775 -0.03630244076684293 0  0.04429650193817717 -0.005511043405651978 0  0.02608369678195287 -0.0242897857773314 0  -0.01122583620612844 -0.03258244563180975 0  -0.01134259916189235 -0.03123053632701525 0  0.0009426783399746467 -0.0364957687224663 0  -0.03489353133001302 -0.07039392546350774 0  -0.01053484323222737 -0.01377255548530855 0  -0.01186081560225586 -0.01332828273006397 0  -0.03100964296986834 -0.07863240387408213 0  -0.02966751251611376 -0.07853525172239832 0  -0.03053864496926465 -0.0777368243946563 0  -0.001083941254168438 -0.08084137351760545 0  -0.02273528834534344 -0.02700643693537815 0  -0.01617559085713046 -0.0221910448926318 0  -0.01550539573465773 -0.02239272463318502 0  -0.03260981236847099 -0.01537527615235744 0  0.01838468640891438 -0.01211773652681899 0  -0.02189482932822164 -0.03813410179847329 0  -0.02094322897628708 -0.03765430419974988 0  0.01719738303765447 -0.0006837103631480809 0  0.01023073342995919 -0.08358404934592152 0  -0.04087291390772075 -0.00233939502008007 0  0.04442554245680942 -0.03568722276247609 0  0.007192660894383873 -0.03309807239210457 0  0.0280922089574997 -0.01185988908673083 0  0.02898750454807227 -0.01257030108984523 0  -0.03908045059230703 -0.04931475907513936 0  -0.002729007462648549 -0.01247448619667339 0  -0.02603019607546318 -0.04691303427172219 0  -0.004296875 -0.09943782925439096 0  0.04130688171967663 -0.08264765367136089 0  -0.04668391304367135 -0.05484136909652482 0  0.02762736647095866 -0.07099927640709298 0  0.03098614972534311 -0.06864226109035379 0  -0.04140899582692619 -0.03992286700128445 0  -0.04064747180666266 -0.03870948910753057 0  -0.04173670629232376 -0.0392995480723669 0  0.00222219831918917 -0.06975460791351838 0  -0.04067819063836955 -0.02119268466039647 0  -0.01253836538306975 -0.05778276696213598 0  0.0121493872582569 -0.05239658200565984 0  0.01205829410437716 -0.05337410874973823 0  -0.004254580170984835 -0.007322146270651305 0  0.007724594381760837 -0.003408741679318073 0  0.01158567888422451 -0.07405179462628474 0  0.03385843340267732 -0.08493114115643559 0  0.01584222443512766 -0.06346400522477232 0  -0.02182769008548766 -0.05738938836879119 0  -0.04305148537509475 -0.08520944053622227 0  0.04210359212416059 -0.07401075731409734 0  0.02635665142216258 -0.0231280241229563 0  -0.04162921111967784 -0.09833589396445126 0  -0.0406723921916971 -0.09810204322024146 0  -0.04067323112771892 -0.09929909418907931 0  0.0379614226265071 -0.05521255492575983 0  -0.04115716176236797 -0.02476993145747487 0  -0.01293590506659111 -0.08544730014452988 0  0.01245545865247128 -0.0746201093025903 0  0.03018772238747839 -0.0932024573320186 0  -0.03657069816962064 -0.06474393415829705 0  -0.007628460240840388 -0.09624744243156888 0  -0.007681480730074801 -0.09738562447661045 0  0.01218934641793843 -0.09398776811601112 0  -0.03573371845050848 -0.08403476393743735 0  -0.04933818604491014 -0.02320022663518822 0  -0.04944639042863875 -0.022265625 0  -0.03343972038285577 -0.02922609036913537 0  -0.03416953530178158 -0.02816958341945353 0  0.003655390449955524 -0.04208363122059827 0  0.004555135329561593 -0.0422953253194408 0  -0.01523281763752163 -0.07711308155828497 0  -0.03507856578501258 -0.06640741824449523 0  -0.0177748749351113 -0.01380465015725939 0  0.02701736665939953 -0.02327747766240761 0  0.02298986344080621 -0.02686449107916284 0  0.02321597071407496 -0.02751405105049334 0  -0.01790271380671786 -0.01480322984552386 0  0.02927348156897233 -0.006730637664762553 0  0.02580752429873543 -0.05247380172718564 0  0.005027309787788074 -0.06521499502110319 0  -0.02159365001144959 -0.09555757578997041 0  -0.02104494646719203 -0.09474922231319353 0  -0.02623094070201262 -0.01016889116548608 0  -0.002713726730088713 -0.01805034878430241 0  -0.02455292217900864 -0.03615314441058479 0  -0.01418484873408901 -0.001480891813553084 0  -0.03693726405977515 -0.03252750567893061 0  -0.02763656513408072 -0.01520562453704109 0  -0.02637621362571058 -0.01579799637087593 0  -0.007584031757820808 -0.0820343739807866 0  0.02657929231858654 -0.09678209599380237 0  -0.04624202757871558 -0.01765370261214451 0  0.03640988983005354 -0.04122986819483966 0  -0.0433020201894533 -0.005427168490125612 0  0.04308270151754841 -0.01791237009038657 0  -0.0300358023635421 -0.009331825909959304 0  -0.02997676514914073 -0.01012714508160712 0  -0.02905443629698621 -0.009093432836047381 0  0.04877599461964013 -0.006005532265982398 0  0.01173053527337162 -0.03792116041755567 0  0.03827422848463331 -0.07725409498940647 0  0.03705420585286078 -0.07761149036362279 0  0.03801659206284337 -0.07829589047637744 0  0.03775245596039677 -0.08289308568350584 0  0.02424844657435431 -0.01580779034342278 0  -0.03338959604456217 -0.03724838146112525 0  0.02139773283518793 -0.06196317569215874 0  -0.01175358897281611 -0.04440875627352733 0  0.0344611754922222 -0.06982354825001201 0  -0.04368474977792346 -0.07808858956193782 0  0.02460382735265842 -0.06423036996015352 0  0.01322681296957597 -0.003396054015884803 0  0.01692667917345514 -0.05076211852052543 0  0.01750354712251545 -0.05116501405133043 0  -0.02530246938748942 -0.09500922661872413 0  -0.02544546390293406 -0.06643088138048198 0  -0.02670874133993223 -0.06669242374577926 0  -0.02663081584201113 -0.06585683486473488 0  0.02622129506707185 -0.04570357014720349 0  0.005685441884541102 -0.06596352714187176 0  0.02764763931868616 -0.003290224515118164 0  0.007935363312113208 -0.01288136443928603 0  0.04341840432402211 -0.04223162991992416 0  0.01497602227567122 -0.08963621731676247 0  0.001825475609448924 -0.07490336695052889 0  -0.04743330383496733 -0.04180281327385906 0  0.03563404245451231 -0.0348226362777621 0  0.04510304419544704 -0.03393238861161507 0  -0.02844329463692493 -0.03143812896362054 0  -0.02930346367735416 -0.03205407110529344 0  -0.02870034121883706 -0.03276481756653295 0  0.0004648676345527568 -0.01771454073452978 0  0.03554910255340608 -0.04618116656464685 0  0.0160915382687565 -0.05879323663229859 0  0.04418256149237794 -0.06005752484018334 0  -0.02662379843906904 -0.01384090327258514 0  -0.03077266328471606 -0.0822984427081847 0  0.01022544106375184 -0.08787685657430648 0  0.009471553138829698 -0.08778000985667718 0  0.04254337759156857 -0.07940770998357147 0  0.02653948634948492 -0.04662605158451498 0  0.005600255976442949 -0.02068989364653638 0  0.006558363446149307 -0.02048406144636497 0  0.0422165190642515 -0.008198063450834988 0  -0.0213663112139416 -0.07957552645327109 0  0.04157449743595823 -0.02179258707899207 0  0.007634676430070231 -0.04822647629699961 0  0.02702860961655666 -0.02186230915871777 0  0.003295042277640504 -0.09837709851658323 0  0.004415731890449106 -0.09849002757475546 0  0.003515625 -0.09944704464637406 0  0.01544206189990424 -0.08839604077470324 0  -0.04780169332828158 -0.04572934387588046 0  -0.04847896122418425 -0.07593408909716567 0  0.01465836249347689 -0.08724183647189307 0  0.03640940954774008 -0.04283609017547321 0  -0.04014056885122715 -0.03348497906228111 0  -0.001050239758913159 -0.01592917830156959 0  0.007551286908165082 -0.0722406799730802 0  0.02697877226485599 -0.06386513419469138 0  0.0293926240766939 -0.02212230457473316 0  0.03695389940951078 -0.06990044498414878 0  -0.008014916036594098 -0.01610938527326038 0  -0.001606572022650902 -0.03406112848979626 0  -0.04856001067433387 -0.09803407411744147 0  0.03582975685564628 -0.0992855508814664 0  -0.04681413760069307 -0.06101277057043423 0  0.03025279660147649 -0.07188314380193038 0  0.03730880132556144 -0.05875216224411474 0  0.01944762930790996 -0.05648796993939918 0  -0.006255637450176637 -0.02451239315400604 0  -0.005560452340220162 -0.02461668260231368 0  0.04633098982567468 -0.0118003623520676 0  -0.004730665603561731 -0.006559943398113816 0  0.04862341819349097 -0.04032202871969188 0  0.04254602982600721 -0.01216719689672623 0  0.03166880890519557 -0.06910966852624015 0  -0.04126029396582655 -0.05796792660305417 0  -0.04057761576496161 -0.05773687914723195 0  -0.04183374804870438 -0.05755176618991088 0  -0.02322647323886012 -0.07824435799633198 0  0.04730312789926956 -0.05307099871000525 0  -0.04940384478423473 -0.06988663184903898 0  -0.01411945648721173 -0.07163230519492192 0  -0.01350193841651418 -0.07191229907152005 0  0.01794963538264717 -0.06661525796463648 0  -0.009317086116947966 -0.06654174262693462 0  0.04143353252790208 -0.07156587808806358 0  -0.005878392786458118 -0.0919892960323964 0  0.04929792146126401 -0.01482221152519221 0  -0.001210852408190346 -0.06276388154600761 0  -0.0189102500809027 -0.07895492781052413 0  0.04548928782447179 -0.06412420484578484 0  -0.02778374314644847 -0.006364343929780796 0  -0.01077340276363958 -0.01699122135201127 0  -0.009683648842740108 -0.01784163239131761 0  -0.03758421909944051 -0.0467304783809308 0  -0.02668589102587608 -0.0924408793430445 0  0.04898987364462391 -0.04698718729789704 0  -0.01879178266144036 -0.05936047639493844 0  0.0387537441598851 -0.03348318392433918 0  -0.02460234801101234 -0.09842514353427595 0  0.02257740550528158 -0.08571659386047879 0  -0.02268614699986252 -0.09146342391843926 0  0.0223598792638125 -0.07488549752393889 0  -0.03548965442836152 -0.09117302738801646 0  0.01044790541956177 -0.05349240241177719 0  0.02024465742411145 -0.003687391072055573 0  0.02084748596189996 -0.004664696197204478 0  0.02157295133508501 -0.003778789245590302 0  -0.04012769809262536 -0.01158165950533936 0  0.01156167995328767 -0.04663518810102724 0  0.04248815852484863 -0.02184820889699258 0  0.02630015748114818 -0.05874737451423215 0  0.02618591425378251 -0.06787129042710886 0  0.01684985617169455 -0.0485654483860548 0  -0.03829911247273652 -0.08008188104254561 0  0.03280797469075807 -0.07044002813624804 0  -0.03328944788286924 -0.08428454027059171 0  0.02750561460613825 -0.04043549365612524 0  0.02664598440755315 -0.09297253862262696 0  0.02606103668731074 -0.09398775050006859 0  -0.02919341591228682 -0.03565666930687338 0  -0.03307803437615281 -0.08185540671878579 0  -0.03359458171097819 -0.08060159436583665 0  0.01269000091461212 -0.04668554318256048 0  -0.04120524786962734 -0.04132343419220356 0  0.04595210335102527 -0.07009816175230932 0  0.04550847176555511 -0.07117535412872004 0  0.0464460114494941 -0.07133403727733531 0  0.03145029263095646 -0.05724712576609822 0  0.03205459703760965 -0.02762661668166932 0  0.008071240535612638 -0.0783327757503483 0  0.03564136966322881 -0.0006230804627997842 0  -0.03146843486517776 -0.0192942644279001 0  0.01285829982184029 -0.04065694741554327 0  0.01167403797862048 -0.04031222318147566 0  0.01180054568878162 -0.04140110851898796 0  -0.0423778493229689 -0.02098942153674871 0  -0.03314965048379377 -0.09222549990621463 0  0.04471930922135162 -0.07397372772486022 0  -0.01182982328636317 -0.05987940588111047 0  -0.01111990331908012 -0.06024022251142686 0  -0.007444834895787405 -0.04867949002526497 0  -0.04693320492186351 -0.06895479873746405 0  -0.04618773849212323 -0.0700792769150448 0  -0.02237428145492197 -0.0358981873032871 0  -0.0234473897743843 -0.03670422182008096 0  0.03013597715359621 -0.007368428878245566 0  0.02943064154794052 -0.008072709095906365 0  0.007144519541373326 -0.07311564236326926 0  -0.04472098289143595 -0.05080392356709618 0  0.005268918309746121 -0.03455515630304039 0  -0.01899193968595018 -0.05117043409062825 0  -0.01115107404055104 -0.08951096346302927 0  0.02109104653665211 -0.09773661216566494 0  -0.006364244798636711 -0.08726760084487392 0  0.03197036557495671 -0.004484444313971176 0  -0.04127149106525229 -0.0328290507696583 0  -0.04128094677871142 -0.03398154659021423 0  0.01188959741307695 -0.09157330011581148 0  0.01139549033719255 -0.09108668957334839 0  0.01151891235441418 -0.09039164721270018 0  0.03524560869688582 -0.07479954626112921 0  0.02246894238894041 -0.06683648975970972 0  -0.01708156802870134 -0.06758677272299345 0  -0.00801142482867815 -0.09169080835795618 0  0.009194077766153197 -0.01756987310885716 0  0.04642538296290866 -0.04881022554774696 0  0.04665553456285197 -0.05379551435346373 0  0.04701257449406428 -0.05509951770470212 0  0.04597350255285612 -0.0545417272387964 0  0.03267441052390373 -0.05954887238494339 0  0.03441489862471871 -0.05870485791545596 0  0.03336530320244353 -0.05956050678668515 0  -0.001398204802410792 -0.04075381296763173 0  -0.002407912392527359 -0.04164708183706127 0  -0.001385321064506842 -0.04175452042276507 0  0.01669664667343949 -0.09676164579268387 0  -0.01336476278674992 -0.01612069400921152 0  -0.01337466148017896 -0.01685991383851502 0  -0.0007497088611261052 -0.04438637416045516 0  -4.627147972885041e-05 -0.04489822721374155 0  -0.01337254620210174 -0.01252398765544721 0  -0.04611674563232678 -0.04823855111048506 0  0.03777440653629674 -0.057341817897209 0  -0.01931906841712651 -0.0684995588856433 0  0.02540994764934803 -0.060744101205886 0  0.004343687443850063 -0.05647935584938599 0  -0.04392654401060905 -0.08244765296590818 0  0.04770389400293673 -0.02979911386717967 0  0.03325958556650587 -0.02364074702302069 0  0.04182497500432194 -0.05673915066286666 0  -0.04090334767833861 -0.01774701490962968 0  0.002989991716538617 -0.09523233159636714 0  -0.03818306778999679 -0.06184601970411154 0  -0.002420332389811474 -0.08699315570768364 0  0.04091380682995686 -0.09649124252429042 0  -0.02055292687050709 -0.01139458347135855 0  -0.02621671083299441 -0.07947116325918582 0  -0.02054308384371062 -0.05411019667975828 0  -0.001888071959359914 -0.06889094546344553 0  0.01408983116556842 -0.05150400231058101 0  0.03177274385087012 -0.09157276070522662 0  0.03316224908657037 -0.09175208311197842 0  0.03160283208240244 -0.09290461001474766 0  0.03331733896418314 -0.09041752669911142 0  0.0151610250971952 -0.0533008551310648 0  0.008210157911474739 -0.009764562259831484 0  0.01027959574137704 -0.02183741061802292 0  -0.03252994727261371 -0.03917638786072504 0  0.01693143955522182 -0.05614827744411051 0  -0.02382622548691972 -0.01604158341924641 0  -0.0001545808554245962 -0.08713814090070167 0  0.0004500400179730328 -0.08746440851543923 0  0.0004698127527284833 -0.08815582958892638 0  0.0322146780597407 -0.09364499092920749 0  0.03439871404641388 -0.06071067871277575 0  0.03339489074232663 -0.06069690998189096 0  0.009147094304495269 -0.05965499127156883 0  -0.03934404416672876 -0.09724158663792502 0  -0.01742540730906573 -0.00162205665229052 0  -0.007131995179787426 -0.04013621952993113 0  -0.007857804310368898 -0.04135416063313915 0  0.006824187122958714 -0.06653069000286888 0  0.006463032350240747 -0.06715925063773198 0  0.04412591179968961 -0.0005990334212663656 0  0.0210084833319451 -0.06680028768883613 0  0.01435659610511439 -0.09752127862656473 0  0.03518900611513364 -0.0226224956389183 0  -0.04808702086493471 -0.08561167918629153 0  0.02862467140204394 -0.02857504046137516 0  0.007255550717749592 -0.03420983329996575 0  0.01357664541081268 -0.03080806350943209 0  -0.03310045960426291 -0.055682980658043 0  -0.03269889236823412 -0.03726138997031813 0  0.02986629109700572 -0.01081851877581635 0  -0.03829936097653298 -0.05528788846361499 0  -0.03866778226849924 -0.05612985901052309 0  -0.03931316076903245 -0.05495099700826039 0  -0.01919814132710468 -0.08869078014410653 0  -0.0180895485123502 -0.06055367757088078 0  -0.01914518746063719 -0.06030957253379374 0  -0.01621903407544551 -0.05748706375588408 0  -0.04060012638606316 -0.05525177684800024 0  0.02869477234359898 -0.07748933451926977 0  -0.04371987754433386 -0.06323271235518615 0  0.04315035130324972 -0.03069845523739817 0  -0.04260237464134229 -0.005265176433564465 0  0.01330895587553723 -0.06795694944436438 0  -0.04328086853272292 -0.07723732237910295 0  -0.008076329366773763 -0.0791367149365431 0  -0.002831903814814032 -0.0339275273092071 0  -0.02690317830763004 -0.03750846965024975 0  0.04219829284421989 -0.06247598058275902 0  0.02143111984141979 -0.07746104965550463 0  -0.01617929956025248 -0.08995734036255172 0  -0.03273881864944245 -0.07766731021657154 0  -0.03259654858236936 -0.07698733949102324 0  -0.03141242503429049 -0.07731967856700549 0  -0.04667261541488504 -0.02411348567806882 0  0.01753424685409501 -0.07140300796870905 0  0.006341983834443341 -0.04010548142220991 0  0.02977905035845074 -0.08788579413208708 0  -0.001305505389425574 -0.04273845893939475 0  -0.04941567237437205 -0.0113155090030939 0  0.03236411358689183 -0.07352397716864605 0  0.01128169612189707 -0.05631521773928771 0  -0.040547132038064 -0.07184620411531704 0  -0.04060021705531484 -0.07102542574675549 0  0.0362699368754646 -0.04651504075231996 0  -0.02879743729446497 -0.003357950122235023 0  0.03372039375311858 -0.07345594870751018 0  0.04177033856888177 -0.05789368951002493 0  0.02228137295376189 -0.07164634391421178 0  0.02278315173646112 -0.07093298814146551 0  0.02216552639747542 -0.0701042609005451 0  0.02580559607522013 -0.03207777321604065 0  -0.04767511540287421 -0.06717636010064039 0  0.01795908823460627 -0.001725303320584132 0  -0.03813737167137915 -0.02106258925470154 0  0.03420637365619319 -0.05403456354408227 0  -0.04232011082545466 -0.0676250550707766 0  -0.01674378253436426 -0.07473873542734516 0  -0.01730529418791105 -0.07515678813004574 0  0.03043597843539006 -0.08962950870139015 0  0.04254467250742303 -0.02618805184403812 0  -0.02958752277387914 -0.09016710759220775 0  -0.01746732409410518 -0.03944737482807308 0  -0.0476056084836287 -0.02609613957733234 0  -0.02225555777180537 -0.08782129090320608 0  -0.02233547867590505 -0.08645807157221706 0  0.02785663069953175 -0.008836833928126111 0  -0.003819445374224951 -0.02763388366855283 0  0.02805518368909103 -0.01324258026272629 0  0.02739256616502196 -0.01305319249077535 0  -0.0364912410644198 -0.01700783930248075 0  -0.03146880359903059 -0.01021223920296959 0  0.003963948165745715 -0.05109007262007943 0  -0.02005371776657665 -0.0694532371958695 0  -0.02178687723559124 -0.09669388406104863 0  -0.02429636113426891 -0.02319113804861425 0  -0.01307261045567249 -0.08857116615323063 0  -0.02500425119891879 -0.0199934907786764 0  -0.003832871721127925 -0.01169769365256581 0  0.02586016500328942 -0.0550221890129419 0  0.02526395549335604 -0.04173371084211391 0  0.04798587548635032 -0.08253482876018245 0  0.04705084004046768 -0.08334151826395059 0  -0.03439448759547514 -0.01653985237244888 0  -0.03465697467190069 -0.01752336875048781 0  0.03471041821118817 -0.03192461620128578 0  0.03408507713810059 -0.03077041708346783 0  0.03498613147087653 -0.03074983289880047 0  -0.03003452327035517 -0.03625069099783972 0  0.03296284113928863 -0.0475315545954585 0  -0.009319145935066366 -0.08364825758394781 0  0.02426222818905466 -0.09764218526502716 0  0.03486516955044303 -0.01065793471726233 0  -0.03540019413896205 -0.05728722739327765 0  0.02620913016885449 -0.005370527800255534 0  -0.03395354599193212 -0.09806721697453066 0  0.02883908807775034 -0.03183634339624833 0  0.0286840029720365 -0.0331592934478516 0  0.03287643974456911 -0.05241926460336332 0  0.01592068763480827 -0.08709711993486073 0  -0.02054364187744355 -0.0904978713148306 0  -0.03118437094533372 -0.06105113297114501 0  -0.01207372710342356 -0.0366001063418188 0  -0.01139198154683315 -0.03644057339369121 0  0.03225443324302249 -0.02411087446152823 0  -0.02530296900962233 -0.008109683296647323 0  -0.02575716637252858 -0.07831993144546344 0  0.02994583594277152 -0.05448740224247713 0  -0.02210450664318273 -0.09853667425320964 0  -0.02211986994182912 -0.09935296372701871 0  -0.023046875 -0.09945801352474977 0  -0.007546114222097578 -0.00984131419734435 0  0.02698035174641537 -0.004018667719969961 0  0.02729959814963855 -0.04837083820768696 0  0.02778962009256357 -0.04712333685151832 0  0.02693610108177319 -0.04746755872441068 0  0.0331187316070389 -0.01872158858735525 0  -0.04469065965056953 -0.07234847028523683 0  0.03669204462172221 -0.001351590847850687 0  0.007072769784297662 -0.04472074026964287 0  0.009215823346473785 -0.05128091670223981 0  -0.03048346836349139 -0.05294124529088468 0  -0.0317295502944826 -0.05300613248051349 0  0.02232336832545053 -0.03950609777672023 0  0.04238381634674564 -0.08928629516292225 0  -0.004952038678484184 -0.03844685915085671 0  -0.004375047377341745 -0.0372406935277147 0  0.01617736086663311 -0.02650720741864039 0  -0.003638463007728953 -0.03897643745842538 0  -0.03384489475696083 -0.04311211343998363 0  -0.04068121710985591 -0.01534474994738162 0  -0.04013191384867341 -0.07614404240253904 0  -0.04132811152030902 -0.07650927211622367 0  0.0346610093129606 -0.08062596762682077 0  0.03632367783598502 -0.06285648970543617 0  0.01535724240708933 -0.01510947147716764 0  0.01586341534465562 -0.01598859708664223 0  0.01623933670098256 -0.01470312145013563 0  -0.02829445729644874 -0.02792060294206347 0  0.04101888999510335 -0.0194008795538976 0  -0.01239287896689114 -0.0185300973253451 0  -0.01263001473400993 -0.01765334648309352 0  -0.02886720948324791 -0.04869516165216682 0  -0.0454451581580595 -0.07698068776640449 0  -0.04471430383263959 -0.07705293204028463 0  0.03690061484054911 -0.05616999023771199 0  0.01844108878203099 -0.00988154587110855 0  0.005752332359739735 -0.02940504581334347 0  0.01900884812242178 -0.04107824116265345 0  -0.03180703244590787 -0.01348118311107033 0  -0.003908523756196708 -0.01394165105624409 0  0.02882068237848926 -0.09840063221532376 0  -0.02254034153105876 -0.05036369485547623 0  -0.04348398016884332 -0.01920605020031415 0  0.02412844165209592 -0.0368061455724847 0  0.03742704917764451 -0.08850375869107639 0  -0.01775507758139916 -0.07069814109102057 0  -0.02738821186958707 -0.07738805038885889 0  0.01231620669967061 -0.01813224508716901 0  -0.002116234669612401 -0.02315198032228729 0  0.03599195569505238 -0.02501624465231484 0  -0.03691202114668266 -0.01156035685796571 0  0.02787437259116193 -0.01772166673479962 0  0.03112563724808518 -0.09080154008814813 0  0.02103174294977485 -0.06502256344881045 0  0.0494592475203107 -0.042578125 0  0.04825785137640165 -0.04272708287299053 0  0.02487932614480103 -0.008429981688032022 0  0.03899654659804005 -0.08844741136960015 0  0.009785129533961882 -0.09265137270882211 0  0.009250837255777944 -0.09220520618193952 0  0.008547196401064114 -0.02343738634636626 0  0.005560347969207354 -0.07983314532981302 0  0.002002902245716218 -0.05793038963880232 0  0.001351881286621982 -0.05845961800986058 0  -0.03299553232207198 -0.01177915345303156 0  0.03005356803485922 -0.04112053431316451 0  0.0122090785506826 -0.05051368261865379 0  0.01125412441611412 -0.05040771723220781 0  0.01117748117240942 -0.05135958503961336 0  0.01559116415616102 -0.005459805521646811 0  -0.03229380680124511 -0.09905255288935066 0  -0.03788734497075995 -0.0727742843712668 0  0.007556092334467778 -0.03515569783634408 0  0.03204586336135183 -0.07994154980294474 0  -0.005363510367852937 -0.01018335699181018 0  0.002502396970114806 -0.01433884781887294 0  0.001977781570661255 -0.01348979971533941 0  -0.01562466196278441 -0.07261202743769016 0  -0.02789832535286132 -0.01320114315810624 0  -0.02801738467518554 -0.01391689793187431 0  -0.01730911930928847 -0.05666255396408035 0  -0.04724140438003126 -0.0677512098704071 0  0.04192604780322155 -0.09664570505796087 0  0.04176692036379837 -0.0954853670672734 0  0.01760476205779776 -0.05524887304505647 0  0.01917934171397772 -0.01675737740107072 0  0.01232229219053011 -0.04862977725481456 0  0.01138240914341599 -0.04857517811580441 0  0.01312616485312549 -0.05243706806462468 0  0.01406797669728514 -0.05245804906965079 0  0.01397115572846053 -0.05346848307019834 0  -0.007327485403542108 -0.09864749220727047 0  -0.02473424925646296 -0.07034291058944257 0  0.00677843165990523 -0.02144038546204468 0  -0.03529371134782647 -0.05242892647322243 0  -0.03530790296868446 -0.05350778998674568 0  0.02921898421410524 -0.0381969859946777 0  -0.04612952704583147 -0.06220895122973404 0  0.04783510501626294 -0.08706375466096092 0  0.03548973534130621 -0.08142332479263344 0  0.03760897827525548 -0.07887973951026683 0  0.02284784644020943 -0.06954010808555994 0  0.04853423449052378 -0.01270229372733098 0  -0.04140673189983638 -0.07928176520339071 0  0.007095495620127745 -0.03241439876186086 0  0.006036481883695838 -0.03240933477681551 0  0.005964904084605106 -0.03314682175686087 0  0.026171875 -0.0005439891387794627 0  0.04568148248011009 -0.06648544056244624 0  0.006247739878834807 -0.05091571802294655 0  0.02589868323097589 -0.001823250169293061 0  -0.03413677525896416 -0.08909500907394044 0  0.03517232984756916 -0.03981229032113998 0  -0.0351850864854314 -0.07153746086026515 0  0.02307192756898482 -0.03919943378582224 0  0.02266733267509724 -0.04047552914959286 0  0.02187556597293765 -0.04604281816501809 0  0.04632705363579928 -0.09357397097010114 0  -0.02523513747438637 -0.05848753530467282 0  0.04083297054626657 -0.05348448150773755 0  -0.01395853379332056 -0.03195031239018407 0  -0.03178292601415731 -0.04615295785819686 0  0.02679785918185143 -0.0819817486677985 0  -0.02088555363116503 -0.05638285840451291 0  0.006681717221379109 -0.07186019097552721 0  0.02647865813497818 -0.02037459388962003 0  0.02466890477073191 -0.06014617374855118 0  0.02341536945510828 -0.06011710318937294 0  -0.00302011161854509 -0.07678358054714148 0  -0.004267372105134564 -0.07709949889740839 0  -0.01886141842426493 -0.03406445186314648 0  -0.04923125421613126 -0.08250897094322139 0  -0.01956332372917079 -0.07981484736898856 0  -0.01917839474682738 -0.08040086013963844 0  0.01165358272199329 -0.02671082816373923 0  0.02744136839477447 -0.07781924805027959 0  -0.03500149701457174 -0.08779719033605679 0  0.02967326154403821 -0.04018810495955702 0  -0.02512903866543147 -0.08848603838098003 0  0.04945226681314503 -0.08164062500000001 0  0.004002291254913899 -0.08063638670402989 0  0.01129022092307056 -0.04954985289162175 0  -0.02092512812659766 -0.08176642969820654 0  0.04237816279476289 -0.08999442295068509 0  -0.008203125 -0.000555935819176829 0  0.03584969009337271 -0.01026718535199368 0  0.03708782521287658 -0.01011348526634096 0  0.04162582901467649 -0.04954902691719835 0  0.02877118523817757 -0.02777108190404198 0  0.02976813717000003 -0.02863576865287397 0  0.02982086853426333 -0.0006646482419521822 0  -0.007017531464727922 -0.04327715546006253 0  -0.001569335729589286 -0.09610760425978702 0  -0.04742611491281049 -0.004868499792360214 0  -0.04614505589386619 -0.01008097782487516 0  -0.03001912446679443 -0.04028997584209569 0  0.01031697592069589 -0.01644314665548439 0  0.04585208440152561 -0.05874061117898768 0  -0.0245517857456648 -0.04782627777788145 0  -0.008955862862376915 -0.06472642737272634 0  -0.01638498693632551 -0.05486721526654808 0  0.03427697559585532 -0.09657335374892308 0  -0.03365003337279212 -0.01104035686796885 0  0.01676337962762797 -0.06664764940942805 0  -0.04851700886180554 -0.0890361960458706 0  -0.04945054317169605 -0.08945312500000001 0  -0.04937498471803173 -0.09475773956576619 0  0.04379567397650017 -0.08718819711434746 0  0.04272964805391426 -0.08682060992961009 0  0.04344454980013815 -0.08793380720474245 0  -0.02184288299761573 -0.007280830950611468 0  0.01907089324212296 -0.03504511973297048 0  -0.04101060145082608 -0.06948993139732686 0  -0.02491542808764986 -0.05250730087386571 0  -0.03778351142183944 -0.01465030185354556 0  -0.03613039694674724 -0.08701339213617679 0  0.02842744208962631 -0.05786886720486965 0  0.002468346823002874 -0.03605799403755968 0  -0.04582080674238352 -0.07784258069217256 0  -0.0450970677098049 -0.07828010314528541 0  0.04403518292250284 -0.07472133829879579 0  -0.002861671882677421 -0.0965237986324506 0  -0.00212469783111876 -0.09764607173709845 0  -0.003064254205036824 -0.09760846504824966 0  0.02369628740732631 -0.08449597942810329 0  -0.0306528294397428 -0.06733765828737046 0  -0.02036092884273434 -0.09504462962999671 0  0.03278786858642947 -0.004835940827784122 0  0.01811421158155908 -0.01654946733268202 0  -0.03860869475668745 -0.004116395564651341 0  -0.0383658342982672 -0.003457275815484154 0  -0.03767304034410562 -0.00336129284363571 0  0.02878110134253944 -0.0215476710184183 0  0.03292428109074711 -0.06451286179342558 0  -0.0404120279141769 -0.03287627984719729 0  -0.0001327289023354528 -0.0976401077528229 0  -0.00370777014226808 -0.02898844333840484 0  0.0212614770990417 -0.01075863889865662 0  0.04004095675573238 -0.02774032267625949 0  0.006294428006146082 -0.07270162755322575 0  -0.01059319163434846 -0.05456359561168906 0  0.006221161988872853 -0.08053733530712553 0  0.006905423688590377 -0.07976988368431942 0  0.01496750447658307 -0.04755461240015504 0  0.005321489644866271 -0.07234875566706934 0  0.004925891646048419 -0.0710826167831658 0  -0.03374945396273366 -0.05582063147388641 0  -0.04809093489819383 -0.0005911765919510715 0  -0.03576999356699099 -0.06729168856146343 0  0.04492442272154576 -0.06982340554111878 0  0.03095328577829252 -0.07291258961906527 0  -0.04699820287396643 -0.08803721307114257 0  0.01407329677809163 -0.0427577529983371 0  -0.04802051396154974 -0.0922090704261725 0  -0.04937297343737659 -0.09249710189555457 0  -0.04833179000115431 -0.09296474204468187 0  -0.04155613247845616 -0.04342095212469817 0  -0.03866526994569666 -0.08955386095232502 0  0.03335405640758145 -0.05079515819900475 0  -0.02705923159677225 -0.08644060829550873 0  0.0008566645820906646 -0.01881832717972438 0  0.03141685222093251 -0.06067344743366957 0  0.02371435072438554 -0.0662909490838639 0  0.02367083766284933 -0.06696419495913321 0  0.01119670558416468 -0.02735566835432819 0  -0.002372336017192928 -0.07351286931784874 0  0.04690378459070758 -0.04055227170316414 0  0.009251065583445562 -0.06086029722343745 0  0.01808998582967477 -0.08487532928499547 0  0.01866056848449754 -0.08446955544148813 0  -0.009872545021920065 -0.0391459747071664 0  0.01029002044783975 -0.02398457716619765 0  0.00937796916324306 -0.02455183579220464 0  -0.01171782141912367 -0.03893680714965656 0  -0.04248865327505433 -0.02658041547145204 0  -0.02393999080913909 -0.0017148032994652 0  -0.023828125 -0.0005352725175209408 0  -0.024609375 -0.0005352725175209406 0  -0.01719457840693216 -0.03747467963059425 0  -0.02026863467198176 -0.06026936348893955 0  -0.02825459385994568 -0.03330002027129678 0  -0.02241789473332051 -0.08057217788106982 0  -0.02373329001211404 -0.08083880480532532 0  0.01478908358752817 -0.06278806201521535 0  0.04243133902871261 -0.01415015917643925 0  0.04135279803742067 -0.0136944744364069 0  -0.003401500840007434 -0.05068929626212978 0  0.01368309107936836 -0.09760594526652587 0  -0.02504467924051618 -0.09631301182590968 0  -0.02433904394844455 -0.09620470022213343 0  -0.02549048898780323 -0.09581684936609169 0  0.04588499590921132 -0.05609040812962483 0  0.04522562178992224 -0.05821234401349337 0  0.04570700856249635 -0.05742235478959584 0  0.04652124341897199 -0.05793220042789166 0  0.01009541938958607 -0.02943530842597716 0  0.01052673090627541 -0.03035539618897501 0  -0.01946270735984325 -0.07179121047359414 0  -0.0353303709356383 -0.01636385643430047 0  0.04464943455694251 -0.00150439781646908 0  0.04340324616428799 -0.001567780758992777 0  0.004895736537033394 -0.04831830700530892 0  -0.03519886655271924 -0.04635437397615418 0  0.04060837484754973 -0.03107570057778684 0  0.001441175900685222 -0.04197229480657309 0  -0.04523355773610733 -0.08214661791032932 0  0.007863134997580463 -0.08306652270373537 0  -0.04828421977738 -0.03379656410888329 0  -0.04946559006764722 -0.033984375 0  0.001608050974204144 -0.03556312102289166 0  -0.04144958759866128 -0.09930437337851357 0  -0.02969246332329174 -0.03093726711795381 0  -0.04849199708411533 -0.08352962748252815 0  0.04375178650210306 -0.01789236553455579 0  0.01947943865826485 -0.03570431282741508 0  0.03978289748212505 -0.07884208522385885 0  -0.0259204433026464 -0.08562836089275047 0  -0.02595832048275608 -0.08663513350556638 0  0.03776262035580573 -0.03192791693278515 0  0.04743282918185582 -0.01088341700746548 0  -0.009882364618832472 -0.01672593533573772 0  -0.02953904881105025 -0.01080771606402989 0  -0.04566904318081563 -0.06036427260384587 0  -0.004891885007019886 -0.05582572637324752 0  -0.004333214233642025 -0.05639725349392949 0  -0.004956513317007766 -0.05717815230782882 0  -0.01378131715336006 -0.02089383525057148 0  -0.01394751277670583 -0.01994713254606144 0  0.01012683130953731 -0.03319555669428159 0  -0.01063996653865714 -0.0452249121328963 0  0.02244970126837038 -0.07738871520774843 0  0.02337137171089725 -0.07704401520365878 0  -0.01285455072966917 -0.03121718344198624 0  0.02348759994853995 -0.005111890744808755 0  0.02409350951597652 -0.004664945467033965 0  -0.04399707464353735 -0.08033050867279683 0  -0.04486225610556684 -0.08080994582061085 0  -0.03533438968443815 -0.08349750206408127 0  0.02591743907572377 -0.06199447921688202 0  0.04321472424358157 -0.003792204539590032 0  0.04367044696988636 -0.004669414452167593 0  0.01974605230584055 -0.03203430632820488 0  0.02033250919311554 -0.0330355444237966 0  0.02683960277490062 -0.03191755889738927 0  -0.004226919283635088 -0.01939660253819647 0  0.0376266949165016 -0.07061235659157283 0  -0.02840615752320034 -0.09579820558781944 0  -0.02771732512642007 -0.09557681575944964 0  -0.04670161737685624 -0.01399371399214698 0  0.04421356663866262 -0.07611097947051614 0  -0.03382098538893766 -0.01866882614575671 0  -0.01236081675741863 -0.04093637103547005 0  0.02251060900531844 -0.001772669101516624 0  -0.01150012216065117 -0.01519985061342258 0  -0.01072110895713646 -0.01490521425389925 0  -0.0110921062173811 -0.01620029001894788 0  -0.03949396592449669 -0.02526258203794759 0  -0.009941263024796448 -0.07563997581921258 0  -0.009556149691779765 -0.07655730380306043 0  -0.01033808908152389 -0.07692943080229324 0  0.004547744215718068 -0.02374665251704296 0  -0.02567056546699809 -0.02474768998068254 0  -0.02540733179041535 -0.02391980636157304 0  0.03766199119502603 -0.04555140398314662 0  0.03684989837438985 -0.04593341989631402 0  0.03395013256888913 -0.05204771654137538 0  0.01300871380243513 -0.09021244534413943 0  0.03498452004055317 -0.01761869323340304 0  -0.02067150279570555 -0.08305005883846248 0  0.03180794819079493 -0.02623176765794871 0  0.003434464919815791 -0.09333975620495216 0  -0.04188756619976423 -0.06143475218205295 0  0.01438035282435175 -0.006221550017724742 0  -0.03935599206183509 -0.07593337348671168 0  -0.03866301104320784 -0.07686784987299453 0  0.04076918315093415 -0.00141875812329572 0  -0.01459217991153282 -0.02894881564984959 0  0.03860681965459332 -0.05578197241904082 0  0.04125445727321122 -0.07501673663313334 0  -0.0146458777557345 -0.01881237976647834 0  -0.01511542834891345 -0.01757449948174367 0  -0.01551206648284821 -0.01839120051295933 0  -0.01587997347739728 -0.07557952082612458 0  0.04607597163145855 -0.02748160586802921 0  -0.001757802504603269 -0.01222450339570318 0  -0.04937248738054962 -0.01358213387692332 0  0.0112830376597676 -0.03259214603606214 0  0.02572425951388241 -0.06636401072184446 0  -0.03986983759009811 -0.06995043869883601 0  -0.0234243472409135 -0.08930338839579362 0  -0.02425141984069051 -0.08891125499155095 0  -0.02384573840330302 -0.08802395832373804 0  0.02895621801889565 -0.07441036798915697 0  -0.02850143989699844 -0.05408211978621286 0  0.0109827821916233 -0.09773356481958198 0  0.01502349772103828 -0.04676132903861436 0  -0.02184597950288988 -0.04758298172440188 0  0.03434803253204281 -0.05962801910501203 0  -0.04692931375952897 -0.06012349747386649 0  0.004531757392648915 -0.08871630697881934 0  0.004775354485605259 -0.08973501948853037 0  -0.03785511282059115 -0.07184447209883835 0  0.02682684623349839 -0.06292431357131986 0  0.02793860668291403 -0.06288088824912652 0  -0.0341061553695703 -0.08640816298440807 0  0.00453139151207262 -0.07672563848094073 0  -0.02325017242929499 -0.05785315475466019 0  -0.02811349588361161 -0.03009028555593562 0  -0.04109639967379306 -0.08500644871238658 0  0.02173990444471739 -0.05675883669211681 0  0.01534565493370116 -0.08146841233965926 0  0.01489591653126981 -0.08233932513122268 0  0.01665776711482586 -0.005310783420496344 0  0.01672268632921092 -0.006239709512970724 0  0.01578146787581674 -0.0063209016427108 0  0.01910413576995513 -0.03276162343055363 0  -0.02548434495521065 -0.03878802515275492 0  -0.009656831893375781 -0.0589977663647642 0  0.03192341524673881 -0.05607816201458914 0  -0.008891426583372894 -0.05954654722290384 0  0.009808139191839741 -0.04577268960689887 0  0.000789466658278499 -0.008539282169430741 0  -0.001470336955064234 -0.02518226256358055 0  -0.0311627648970787 -0.007253160787778656 0  -0.003812398987524014 -0.06603505344090195 0  0.01147469655715242 -0.004860413478952217 0  0.04015717569631903 -0.08936252281104209 0  -0.03741808884686108 -0.09505914638918522 0  -0.03652049224536159 -0.09605755013392035 0  0.02832368529747726 -0.005784138122496462 0  0.02725545020989142 -0.005012607659643622 0  0.03665583138973923 -0.09838499876250283 0  0.002836810636238575 -0.01692648455439219 0  0.02212170976469988 -0.09696407618392541 0  0.018359375 -0.0005309338931728214 0  -0.03903575700695752 -0.03996142618639228 0  0.0002545232404064012 -0.004161841096874037 0  0.0005970626220788178 -0.004995652263136293 0  -0.0006601945160137669 -0.004573292573447733 0  -0.02016687523909568 -0.04264798123181086 0  -0.01967408367942135 -0.04189462715001882 0  0.01890033652290372 -0.08889454689300198 0  0.02376961096391132 -0.06212906428809663 0  0.02277404861809953 -0.0658942673275232 0  -0.009229891649513572 -0.01554889833080211 0  -0.009661316512442231 -0.01477680379970038 0  0.02935160970117641 -0.06037360786011955 0  0.02928052483077002 -0.09222315518253883 0  0.02599411833087932 -0.05984387103875133 0  0.00175958715572612 -0.06863251626832852 0  -0.01416022980807154 -0.02256259250438801 0  0.002569381356107423 -0.03481411340554992 0  -0.02659403853720175 -0.02704899057969257 0  -0.03737975785181021 -0.04119912415489842 0  -0.03743496520216198 -0.03986554387044001 0  0.03539700308129022 -0.003197750016816 0  -0.02265302062626825 -0.05158456085931441 0  -0.01617723967229386 -0.05170487142182668 0  -0.04165092147245291 -0.02543946040657719 0  0.007597521109563897 -0.06650228658761043 0  0.01051746242425476 -0.08162298074265376 0  0.005769677704245092 -0.04228363228968304 0  -0.02290020137713612 -0.04665531831166128 0  -0.01840105792022111 -0.04155194677317878 0  0.006759914190723137 -0.06829456250180804 0  0.01369834659783797 -0.03704104243003636 0  -0.03215128340593502 -0.08893551539297913 0  0.03586951399905222 -0.0940802699403894 0  0.04490915746107216 -0.05539358401219999 0  -0.005676221059985439 -0.0681440480217114 0  0.03475794648154757 -0.05312293634311242 0  -0.0472126225294414 -0.03380895280560466 0  -0.0465943873842312 -0.03326061326242765 0  -0.01285374089373059 -0.07889756359156555 0  0.01555196598090503 -0.02999104652907897 0  0.02552216993336007 -0.03268811183185725 0  -0.005792693470574949 -0.09668523722665535 0  -0.02325818855332031 -0.07611207581394458 0  -0.03237380718540291 -0.0005620959380102357 0  -0.02005407486332998 -0.09921725406590599 0  0.00718304621087389 -0.06776459664077729 0  -0.01422426183287657 -0.08770364608821402 0  -0.004264316112755632 -0.0442877464179687 0  -0.003097603183012643 -0.04384671692903171 0  -0.01646053729524537 -0.0620513879741862 0  -0.02596892593176947 -0.002896787439482844 0  -0.007142500972792417 -0.0359215270570946 0  -0.02554370335298446 -0.09930894522212588 0  0.01557123784537447 -0.01822365351853749 0  0.01609516578265516 -0.01872470335864153 0  0.0168596995336436 -0.01789588383240165 0  0.005124454097422097 -0.02641843892193388 0  0.004997792511657422 -0.02517813700787382 0  -0.01775788403110946 -0.02102312209023743 0  0.0388305251467814 -0.004360120858072894 0  0.01152291485689188 -0.02834007899274164 0  0.01284613978853185 -0.02851734353245899 0  -0.009797826366708123 -0.04731774749622485 0  0.01137314473971704 -0.02965295698675249 0  -0.02327115935559823 -0.01478687624336265 0  -0.03077939891237417 -0.09338548761619071 0  -0.02964801396293643 -0.09376267416705339 0  -0.03085974867490389 -0.0942545609232891 0  0.01471886406820922 -0.03034758935053257 0  0.03236751678306685 -0.0923254023214726 0  0.01931370282182455 -0.09298346785145863 0  -0.02427232427188553 -0.06667790010387353 0  -0.02481290234250393 -0.06778123696900314 0  -0.02415645412209547 -0.06805595495905242 0  0.0247726749963821 -0.08186663033576187 0  -0.01180555186771069 -0.08915556039011158 0  -0.04111242972554388 -0.05405011429244235 0  0.03701556565275566 -0.07995066927148355 0  -0.006924845477077297 -0.03949782460600473 0  -0.02966863615575621 -0.08409077548408689 0  0.04348447949937493 -0.08919759735466147 0  -0.02441477544091371 -0.07425538580585442 0  0.01424615053822866 -0.04428453016258015 0  0.01353150894511158 -0.04489327551973825 0  -0.03376895348655656 -0.09017129042750038 0  -0.03302097187553666 -0.09006248388677081 0  0.006110096409291814 -0.09555698170128935 0  -0.04475672439648269 -0.06083958959939798 0  0.03145331794676412 -0.04868247755008144 0  0.03682488429213901 -0.04931846901136124 0  0.01622704739792334 -0.06466720864589838 0  0.03834283126120904 -0.03689236502633765 0  0.01274008653886399 -0.08392451308841527 0  0.02553750298871667 -0.04402206200406551 0  0.04264370668513071 -0.007245586948711685 0  0.04934804407396528 -0.06006701177098513 0  0.0198554303085942 -0.06785109721582942 0  -0.03067919177245028 -0.01125375812485043 0  -0.01293767450831557 -0.04544248054543827 0  -0.01218844184536343 -0.04616538758575385 0  -0.01301150235310552 -0.04673579604152819 0  0.04029954131487972 -0.05266698150636872 0  0.04105507912117295 -0.05215804009813881 0  0.002851598202581892 -0.05051433620221316 0  0.001522831294233076 -0.01852349498156387 0  0.0212919068125369 -0.03776282932068536 0  0.01795639560559128 -0.06012106715913863 0  0.02796186840864437 -0.09565155976460042 0  0.03478044205815287 -0.0195860934582914 0  0.02483583682353291 -0.09348632796438437 0  0.0251800009640263 -0.0940682219179089 0  0.01225862133029973 -0.07330512184835018 0  -0.04050677571196654 -0.01647513518004869 0  -0.01729708114721324 -0.03235846388507753 0  0.005938313760971246 -0.07929455225970694 0  0.03509939590513023 -0.0298912831678893 0  0.03509333378611248 -0.02861825473766236 0  0.03428122316161222 -0.02891637172539926 0  0.02500270526930212 -0.0436290574264161 0  0.0282066241336793 -0.05250045818249264 0  0.03363236001277913 -0.09266188094888779 0  0.0349600646009385 -0.09264101130989102 0  0.0175517695877443 -0.02421560175549906 0  0.01000203808229583 -0.002834575760693519 0  -0.03619085495627985 -0.06238961880096457 0  -0.02612670090327083 -0.00516355265539464 0  -0.02582701638360581 -0.004182619368547641 0  0.04937401773993941 -0.09011204624034977 0  0.02502217111127208 -0.07033148040278119 0  -0.04217544833542105 -0.01516470641049648 0  0.03168008510935198 -0.05861866611684406 0  -0.001142898456648399 -0.09531296304918314 0  -0.04938884259189051 -0.03548801353799403 0  0.01501180087889539 -0.07367091195434131 0  0.01630022275611333 -0.07349902679836015 0  0.04746438529173237 -0.01696616748231296 0  -0.03167509639757774 -0.0784922198488678 0  -0.04694298174495743 -0.07415797669702667 0  -0.04779021997057143 -0.07371906095979557 0  -0.04737055324389367 -0.07291722828690816 0  -0.02343438402193304 -0.0621067481452202 0  -0.0182366906064881 -0.04413310106017856 0  -0.0005027743660986949 -0.07595719845352307 0  -0.0006133487282916746 -0.0772009918911765 0  -0.02748617741581025 -0.06067661828378659 0  0.0447159510121505 -0.04376732383396846 0  -0.03262698652175276 -0.05790992042606171 0  -0.03322048007063447 -0.05824769193130131 0  -0.03572283824702049 -0.06101672302427519 0  0.0009007900281395705 -0.05167167576817482 0  -0.01314571582396151 -0.0371438340330867 0  -0.033984375 -0.0994720276211476 0  -0.03396668976037481 -0.009359524451041074 0  0.03166005077301474 -0.00325028570866446 0  0.01965249866981496 -0.05938376459649721 0  0.0001046066837566867 -0.01661719578713639 0  -0.007447253165044044 -0.002417787844748014 0  0.03618012004981373 -0.09084756944906391 0  0.02119576111619214 -0.07954210004691227 0  -0.04025103456947238 -0.04687080563906832 0  0.002399023006678527 -0.05653970678847974 0  0.009479616363724666 -0.09015546891545594 0  0.01839979956519589 -0.06174344719092009 0  0.001044349519010538 -0.07026395303480217 0  -0.03208584093060507 -0.03402918754281515 0  -0.01576886811018405 -0.09469604061322495 0  -0.03630811204016412 -0.06398079560921602 0  -0.03527481342367676 -0.08036024941431366 0  -0.002130285153317028 -0.09381667446661332 0  -0.02567937055954782 -0.02666346341107526 0  -0.02475152096616058 -0.02571347154190929 0  -0.02576466295656663 -0.02577134428082588 0  0.04602422141194543 -0.0871270598689559 0  0.04502697784183293 -0.08684786854119556 0  0.04534532008324293 -0.08597662252873932 0  0.04755617692117945 -0.0116897547880468 0  0.04430345009465195 -0.08182624844570652 0  0.04042940724788506 -0.0373469484202962 0  -4.921307702408887e-05 -0.02214870034190842 0  -0.01406224897517772 -0.08218912515164502 0  -0.01516543202117587 -0.08186524006112915 0  -0.01447408081614049 -0.08300771204971823 0  0.04318260540791446 -0.06467711395940655 0  0.04415783382248853 -0.06430506174835823 0  0.04358659331906355 -0.06340400052966029 0  -0.03874148860190873 -0.08384263680205195 0  -0.04939869000358164 -0.02161041057201021 0  0.02357912969328372 -0.04005694416643021 0  -0.03167102768465648 -0.01434202508489532 0  -0.04623631231338567 -0.07321380692267866 0  0.04671737460026833 -0.07052430536270021 0  0.04728719134246322 -0.07012888214095542 0  -0.04466942728380572 -0.001541725616915746 0  0.04842748949019326 -0.09075276543773934 0  0.04469087254642234 -0.01424332851907675 0  -0.04563866978552895 -0.04457430320411434 0  -0.04574509355015234 -0.04349261018267547 0  -0.003558963824990193 -0.06351979936573372 0  -0.04229205034868539 -0.07740758980210212 0  0.03343977248724995 -0.03483526453022154 0  -0.0261854573131731 -0.01761819628473049 0  0.03999334565041892 -0.04205273391713427 0  -0.01978299238250319 -0.02494260040371998 0  -0.01947466398562595 -0.02389667859313439 0  -0.01869947017775473 -0.0248952870830782 0  -0.03288883935291156 -0.0287201747999699 0  0.04422976456646217 -0.01075968835591868 0  -0.02749878663643083 -0.02527860877472139 0  0.02361013807389594 -0.0741272723278284 0  0.002252753662509212 -0.04024204966364763 0  -0.02273037801379914 -0.02600632795153692 0  0.02522532440813808 -0.02270974993923442 0  0.03935863452616931 -0.03227319092359614 0  0.03984346508452023 -0.03314778686701755 0  -0.04457723762098877 -0.09657133878756649 0  0.04207685457053084 -0.03360231435207989 0  -0.01343743496937842 -0.07040061820983243 0  -0.04946675281334912 -0.033203125 0  0.01198430878807719 -0.09736666681590223 0  -0.01245280524762696 -0.04257225678857216 0  -0.009310545923633179 -0.03580050701904657 0  -0.04440471691645353 -0.05672330001256512 0  0.04130649625833518 -0.07732807642809951 0  -0.02889374181011242 -0.0306367660797421 0  0.02564600707622529 -0.07011280522720337 0  0.03249188391069808 -0.06054186725020155 0  0.03239151961452776 -0.06154485824874261 0  0.01992636575662441 -0.06000869523185113 0  -0.03113384044051246 -0.0512548825628994 0  0.008853247602887625 -0.08075556247802318 0  9.688489760857088e-05 -0.02996772610830391 0  0.0005193081968353088 -0.02913359120498408 0  -0.04474968893281883 -0.05459519273447067 0  0.002228567803760368 -0.02282982411043375 0  0.01000682368850047 -0.08011511961829694 0  -0.03982273657691626 -0.03217159917664961 0  -0.03909704364711648 -0.03287411568141188 0  0.0006899801972737301 -0.0591877796544814 0  0.04840550493673463 -0.04910708373942001 0  -0.003847928320520011 -0.02145892753777422 0  0.02437622007053481 -0.09613000003570578 0  -0.04739841565872566 -0.02223415532689175 0  -0.01201665409119194 -0.01649527195133528 0  0.01715418871796623 -0.07259190461448845 0  0.003844207713989477 -0.08710167477745472 0  0.02036773336701283 -0.07114765229401031 0  -0.01272621388304099 -0.06001040159314966 0  0.02930779961594742 -0.05741979046068532 0  0.004132113152562303 -0.04341378607153042 0  -0.01589641810378841 -0.040234375 0  -0.04477532695607902 -0.03430882411243377 0  0.01928356785771663 -0.009605924590387581 0  0.01171842944475329 -0.01565211203082256 0  -0.03035717518213723 -0.06120637859646576 0  -0.02847602259705472 -0.04284438958501982 0  -0.02940400540284493 -0.04367425717064203 0  -0.02972113889351613 -0.04302154826110145 0  0.01694020349148307 -0.08989218100189141 0  -0.02531378545735511 -0.06427928846560151 0  -0.02465827466598958 -0.06445308987073892 0  -0.02303404943021285 -0.06536024361936697 0  -0.0241367371923865 -0.06601529039417477 0  -0.02338336054884996 -0.06408574606252697 0  -0.02252604923112708 -0.06454485350943738 0  -0.02479666866805596 -0.06551315317681296 0  0.03793106162212054 -0.02215023037016329 0  -0.005853942786598729 -0.05071054809706859 0  0.04751095113339995 -0.06543096141717464 0  -0.03514714010031569 -0.05790871043679491 0  -0.005857478499892706 -0.05527860994653251 0  -0.007159659013891625 -0.05521013389427704 0  0.0373434475252875 -0.05569040600096108 0  0.03709414806775379 -0.05499204978513126 0  0.004724039524129764 -0.08434846901091751 0  -0.008462643869198802 -0.05390714779746786 0  0.007483178617127722 -0.03025534164572135 0  0.03781343918424981 -0.09595653185557207 0  0.01746156439575963 -0.08465251527212482 0  -0.003669077254556407 -0.092080794000355 0  -0.003085394613369226 -0.09175627208474878 0  0.0103242384484273 -0.08571340779252364 0  -0.04084286206641492 -0.03492091573044379 0  0.03044080324948108 -0.05029989028821455 0  0.02880248171905591 -0.06831245295431326 0  0.01127501482564752 -0.09339471740173319 0  0.01931780524240246 -0.02860691063057517 0  0.01978114988463957 -0.02944516859852035 0  0.01866678936773206 -0.02967116931179407 0  -0.00541281342728976 -0.03754375411485232 0  0.01908902857428206 -0.0187473567877885 0  -0.01704122477484778 -0.08928186493870206 0  0.04047287843154429 -0.08417642850845568 0  0.03721058494603503 -0.09355418571306043 0  -0.02061459453887646 -0.06980149058708052 0  0.04713559761988453 -0.04738639761253925 0  0.01226099202362373 -0.08670132004968932 0  -0.03740869334657313 -0.08367943865892051 0  0.04082001755507117 -0.05478629279996362 0  -0.02197579686594378 -0.09430559070876632 0  -0.03837284257473279 -0.07763884158434807 0  -0.03754849923835295 -0.07785290525462644 0  -0.03783776084282774 -0.07889818784933157 0  0.04679454189029466 -0.0260128732117194 0  0.02320355635713383 -0.05199446788105438 0  0.04577168944877475 -0.07771878794894603 0  0.0105069005555692 -0.005951293918067863 0  0.00934686804795452 -0.006207514219233073 0  0.009630948922399223 -0.005147032587555152 0  0.0346131335661182 -0.09866024575954296 0  0.03453693926309708 -0.09933774321509231 0  -0.0270616162676104 -0.004377954908729259 0  -0.03318120028593281 -0.09850572169244559 0  -0.02750405134595367 -0.09054988166537375 0  -0.003619446399206161 -0.002294548422301599 0  -0.006544609833834738 -0.05462567675950082 0  0.04686031837043279 -0.02508839572008902 0  0.04748669764651188 -0.02392952268208011 0  -0.04516050007915706 -0.00109327099438468 0  -0.007776463895932549 -0.05325515987701433 0  -0.007158809737942714 -0.05390714897376992 0  -0.008463541666666668 -0.05258649920024024 0  -0.01627604166666666 -0.04088541666666667 0  -0.01171875 -0.05325520833333333 0  -0.01888020833333332 -0.03567708333333333 0  -0.01692708333333333 -0.04153645833333333 0  -0.01302083333333333 -0.05065104166666667 0  -0.0142415811460267 -0.04544270833333334 0  -0.01302083333333333 -0.04934895833333333 0  -0.01367187499999999 -0.04487300218730663 0  -0.01627604166666665 -0.04348958333333333 0  -0.01692708333333333 -0.04544270833333333 0  -0.01041666666666667 -0.05325520833333334 0  -0.009765624999999998 -0.05390625 0  -0.01432291666666666 -0.048046875 0  -0.01432291666666666 -0.05065104166666667 0  -0.01757812499999999 -0.03569631990156226 0  -0.01367187499999999 -0.04088541666666667 0  -0.01367187499999999 -0.0421875 0  -0.01497395833333333 -0.05130208333333333 0  -0.013671875 -0.05260416666666667 0  -0.01627604166666666 -0.04609375 0  -0.01497395833333333 -0.04088123760702503 0  -0.01106770833333333 -0.05390625 0  -0.01236979166666666 -0.05274669292202583 0  -0.01106770833333333 -0.05130208333333333 0  -0.01497395833333333 -0.04739583333333333 0  -0.01562499999999999 -0.04674479166666666 0  -0.01888020833333332 -0.03828125 0  -0.02018229166666665 -0.03697916666666666 0  -0.01627604166666666 -0.04739583333333333 0  -0.01757812499999999 -0.034375 0  -0.013671875 -0.05000000000000001 0  -0.01757812499999999 -0.04198626148590327 0  -0.01757812499999999 -0.04739583333333334 0  -0.01627604166666666 -0.04479166666666666 0  -0.01497395833333332 -0.04348958333333334 0  -0.01432291666666665 -0.04283854166666667 0  -0.01497395833333333 -0.04609375 0  -0.013671875 -0.04739583333333334 0  -0.01497395833333333 -0.04869791666666667 0  -0.01569104509332794 -0.05065104166666667 0  -0.01569373139350966 -0.04934895833333334 0  -0.01039407275933157 -0.05065104166666667 0  -0.01300501246054214 -0.048046875 0  -0.01302083333333333 -0.051953125 0  -0.01302083333333333 -0.04153645833333334 0  -0.01953124999999999 -0.03763020833333333 0  -0.01888020833333332 -0.03697916666666667 0  -0.01106770833333333 -0.05260416666666667 0  -0.01171875 -0.051953125 0  -0.01432291666666667 -0.051953125 0  -0.013671875 -0.05130208333333334 0  -0.01497395833333332 -0.0421875 0  -0.01562499999999998 -0.04283854166666667 0  -0.01953124999999998 -0.036328125 0  -0.01562499999999999 -0.04544270833333333 0  -0.01497395833333333 -0.05 0  -0.01497395833333333 -0.04479166666666667 0  -0.01562499999999999 -0.04153645833333334 0  -0.009765625000000002 -0.05260416666666667 0  -0.009114583333333337 -0.05325520833333333 0  -0.013671875 -0.04869791666666667 0  -0.01432291666666666 -0.04674479166666667 0  -0.01432291666666666 -0.044140625 0  -0.01692708333333331 -0.044140625 0  -0.01692708333333332 -0.04283854166666667 0  -0.01692708333333332 -0.03502604166666666 0  -0.01692708333333332 -0.048046875 0  -0.01367187499999998 -0.04348958333333334 0  -0.01432291666666666 -0.04934895833333333 0  -0.01041666666666666 -0.051953125 0  -0.01562499999999999 -0.044140625 0  -0.01432291666666666 -0.04153645833333334 0  -0.01692708333333332 -0.04674479166666667 0  -0.01562499999999999 -0.04804687500000001 0  -0.01627604166666667 -0.0421875 0  -0.01771217156153125 -0.04348958333333333 0  0.02048898072235729 -0.01370940955323788 0  -0.01470560841450447 -0.02350222252569064 0  -0.00262333317374362 -0.07824284405484226 0  -0.001413511543103172 -0.07793200944626702 0  -0.002333780102330151 -0.07728750837300946 0  -0.01009290405552231 -0.07150663105380041 0  0.03594885801669042 -0.07927394385152854 0  -0.02753773088731743 -0.011576561752233 0  0.02625795924101593 -0.07920652443031204 0  -0.03456577639697123 -0.04528681125053343 0  0.04794608980706789 -0.007157226138114737 0  -0.01114445115152787 -0.009472970025993926 0  0.04719009163274755 -0.08179515710578651 0  -0.04036582578762517 -0.05321972882418174 0  0.03440494667173132 -0.02167953602476299 0  0.01458819583304143 -0.08790001256223244 0  -0.004238480903660156 -0.04927823162072135 0  -0.02366015913070273 -0.08554908114565818 0  -0.004864646277916282 -0.03510204359884696 0  -0.04558438083842455 -0.08119561371704831 0  0.02897278944394823 -0.04469994366234983 0  0.009983470448642371 -0.0446569145080705 0  0.02060457098329588 -0.09496812614338443 0  0.02167674705114883 -0.0956661034208547 0  -0.03124546246904339 -0.0482901158576202 0  0.04260732827779012 -0.07210446592701067 0  0.04293482414127505 -0.07149042582348258 0  0.01419039454975439 -0.02833780514298895 0  0.01531885226465075 -0.029049122460121 0  0.01482739657923132 -0.02812267317508027 0  0.02947279211085029 -0.05119246868935128 0  -0.02096084305476105 -0.0517843767671761 0  0.04613672394455245 -0.02615853200556356 0  0.04564289549002961 -0.02699431584206002 0  -0.02732007842440569 -0.04087881826462579 0  0.02055437420901528 -0.02141040546934122 0  -0.04299231891265649 -0.001804903225886237 0  -0.02147982788059089 -0.02637354929470885 0  -0.02061820989727307 -0.02578018582188605 0  0.01571013673200832 -0.0254848689783193 0  -0.03201979331990727 -0.07953919814613108 0  -0.03332748456731997 -0.07973746551707232 0  -0.03233730207176381 -0.08016124251910295 0  0.001563646426175137 -0.03155785371131501 0  -0.03653833027985787 -0.0006248286479816165 0  0.02341945162233328 -0.05523570598587253 0  0.02440916674275921 -0.05469587310148553 0  0.02381147426973263 -0.05400508571864093 0  -0.01703948253869874 -0.0267367207271434 0  -0.01696894302217829 -0.02743551815484565 0  -0.04688508837711833 -0.09049762038033213 0  0.04776543278477904 -0.09534263833268759 0  0.02453021359743669 -0.03357089565473052 0  0.0274073743098584 -0.01077216873516992 0  0.04342997095262105 -0.01382769686758255 0  -0.04793183960663577 -0.0399021783700069 0  0.03021530169530832 -0.04509890826649251 0  -0.03587301133298681 -0.008413553129099268 0  -0.01229601474093196 -0.01246823092312689 0  0.04938713445616698 -0.01897017128370388 0  0.04849973581664946 -0.01984980623050305 0  0.02128267729650543 -0.02222924932154479 0  -0.007107217907510351 -0.03311773170386439 0  0.02430163880910744 -0.01267572375616774 0  -0.03206559268791177 -0.08186444695771238 0  0.02886777901647273 -0.02397226940982594 0  -0.03305740048293089 -0.03139050277842197 0  -0.03603192097973647 -0.06015607856496236 0  -0.03708347992004617 -0.05943363527715426 0  0.001718689081979571 -0.09814579784129085 0  -0.04179212200353673 -0.04256248617674276 0  0.01055064294222256 -0.06170266125050233 0  0.01093851759394589 -0.06059055057644227 0  0.01162145737012691 -0.06095994423560063 0  -0.03921901427767265 -0.007248786896312053 0  0.0267931179257902 -0.07223276764524389 0  -0.01439229388241182 -0.007830700572372432 0  -0.0284385833233717 -0.004641601379932906 0  -0.008428921096940808 -0.01988399114392865 0  0.04497997321594561 -0.0770636223838799 0  -0.0150052097548165 -0.03414088492167314 0  0.02949738616873801 -0.02953657190714111 0  -0.00504852910333226 -0.09058553906605676 0  -0.003286142207920783 -0.03983302648825821 0  -0.000971817980346374 -0.0317240204080352 0  -0.02133170588255706 -0.0453919349517012 0  -0.03199834213456344 -0.06981656306700232 0  -0.03239702366510618 -0.06929045653398995 0  -0.02142058920524722 -0.0005876572593447337 0  0.0350697884434091 -0.001510856365669652 0  -0.0426157349829944 -0.08815096859098347 0  -0.04311232596438332 -0.08910460706684251 0  0.02087630808568161 -0.03604537297254351 0  0.02086619775004192 -0.03714024619741296 0  0.03935055994419709 -0.01542643935795827 0  -0.03889647440430983 -0.09402344119224629 0  0.00614128549911911 -0.009908653833221629 0  -0.007006140837563657 -0.07999201767688099 0  -0.007963101412884782 -0.07995324522956376 0  -0.007043189962293632 -0.08095132042184569 0  0.01779103640330731 -0.0130457856724068 0  0.02314965271640397 -0.05616245798397369 0  -0.03706262089678851 -0.07691572986372382 0  0.02247565395751576 -0.02813830123067005 0  0.01493177796046136 -0.07464128841868364 0  -0.003624051345489245 -0.03623953370512654 0  0.002857129805412528 -0.07442279002279532 0  -0.03542468202771839 -0.01008999936578139 0  0.02585336038543125 -0.08111606560238799 0  -0.04185793162146717 -0.04142764662450479 0  -0.006115909597358928 -0.01228860746693431 0  -0.03693375791854075 -0.001457317642779096 0  -0.001186566676627603 -0.002591617163345542 0  -0.03921812715072279 -0.06085780983947204 0  -0.007555645835682425 -0.0247788363228803 0  -0.02168793708760187 -0.02075906294616333 0  0.0483254656049825 -0.05531932937530209 0  0.04948240963988244 -0.055078125 0  -0.006257124642216371 -0.01378098685711789 0  0.007558263348244389 -0.03852205920104861 0  0.007187910626421682 -0.03727208649996724 0  0.007918829349149791 -0.02747390005412756 0  0.02296148284991544 -0.01569152585137963 0  0.02382089459204377 -0.015277622074242 0  0.03731356927806986 -0.05985733833118124 0  0.0203067859784506 -0.07501903029801013 0  0.02021089146855248 -0.07372593093991821 0  0.02080615678414877 -0.07418176307537179 0  0.0123791814605494 -0.01174108252073213 0  -0.01864675137102558 -0.01088496173843313 0  -0.04525537773673325 -0.06686272803298712 0  -0.0348299579667379 -0.03629686930664389 0  -0.04086623994512355 -0.02739649711329718 0  -0.04009492389638512 -0.0274840896180214 0  -0.01532288321212476 -0.03107005064911668 0  0.03540064780166279 -0.05782329553122672 0  -0.01699723797970001 -0.07303240076892384 0  0.02602246284153298 -0.04284401852192946 0  -0.03224691827165846 -0.07595891677152239 0  0.01462123135864711 -0.02530796947362611 0  0.03819895155641071 -0.06468524020599563 0  -0.0365272159385306 -0.02512771898096277 0  0.03576324418585122 -0.04288550364526512 0  -0.02836074530714549 -0.04203902132153565 0  0.02002025405936684 -0.08166489400326819 0  0.008973183968813499 -0.08871007616477268 0  -0.03781399599281442 -0.0386050172587738 0  -0.03856218749417351 -0.03747242488880252 0  -0.03753146037825526 -0.03768242845725644 0  -0.009781753941465108 -0.04869965535501398 0  -0.03217800134057525 -0.07808324067102014 0  -0.006615180955513045 -0.0405324944607476 0  -0.005940563278909287 -0.04044865318139574 0  0.04944982369041529 -0.06679687500000001 0  -0.0413646185066013 -0.003884861549854853 0  -0.01489537130837481 -0.03958414003933227 0  -0.02565978810372714 -0.04744458902166779 0  -0.03578356810183498 -0.09229789718010359 0  0.022265625 -0.09947745186436853 0  0.00147550421655803 -0.07205426880356718 0  0.03384144892438748 -0.001564594789597409 0  -0.01806954608926094 -0.02905761447137268 0  -0.02905810427436881 -0.05013531176427921 0  0.01329770202902512 -0.05590438530578144 0  0.03527629555331047 -0.06435349702957253 0  -0.03529865067406932 -0.06988703772021164 0  0.008683482304618942 -0.07638428467505988 0  0.0254019052101754 -0.0005588511897090906 0  -0.02964754086612165 -0.08858573547910412 0  -0.03390503013739354 -0.06332217778578558 0  -0.03459557545538207 -0.05037667261079821 0  -0.03519889319597472 -0.05112224554987076 0  -0.03523900806438575 -0.04981112544395425 0  0.03612857617336596 -0.06404175632300543 0  -0.01718416101360149 -0.06251038644403514 0  -0.04508216936850731 -0.08382649017445881 0  0.04170372359936012 -0.04525525750813749 0  0.02024818617181514 -0.06266140600034419 0  0.02737485295062518 -0.0937076822616514 0  0.02863036210314435 -0.0155449304854108 0  0.02883665018711615 -0.01683739797333393 0  0.0279903220517113 -0.01619167559192755 0  -0.0387852327583204 -0.04243491641089306 0  -0.0398713890115107 -0.04188709763558229 0  -0.0394998316554589 -0.04126788023886067 0  0.006200576233672654 -0.05184244240103782 0  0.01892316173668806 -0.03026891169801708 0  0.02741046985551529 -0.0059232590698436 0  0.03791434030551413 -0.06667559488524122 0  -0.01227866503831143 -0.08006977645032952 0  -0.006009459494443041 -0.09066524503157788 0  -0.04059346419064754 -0.003432997727854057 0  -0.03912165961300842 -0.01540653342671901 0  0.03436429058350623 -0.02665269834908584 0  -0.04082315744351361 -0.04781983867301214 0  -0.0417052836536496 -0.04749614028060595 0  -0.04202331047310993 -0.04839225559971791 0  -0.03599505730297879 -0.00614059018778074 0  -0.03539451650982529 -0.005328273887308931 0  0.02726021499425222 -0.09082548422192566 0  0.04339990617001632 -0.05901946241375742 0  0.02635277037622741 -0.007811214375269901 0  -0.01167761482292377 -0.008976760991112316 0  0.02892163320375232 -0.05521856921782102 0  0.02942641609051058 -0.05634278119779577 0  0.02833102888096421 -0.05608246807453903 0  -0.04161449120962098 -0.0872774766666511 0  -0.00759271246999907 -0.06097821019063835 0  -0.00664438457236028 -0.02533657179461188 0  -0.005380922999509027 -0.02524057897110954 0  0.02683308118626073 -0.0006065411774413651 0  0.02695596007581997 -0.001548927827459258 0  0.005028553321586569 -0.0830279497615467 0  -0.01281571426388523 -0.07521639230217772 0  0.04582823954535867 -0.0181772854555687 0  0.0345686115520349 -0.01624962335689499 0  0.001068534962998956 -0.07819511502797098 0  -0.01489792591308747 -0.06080898854767067 0  -0.03692812982021406 -0.09828391839331371 0  0.002024911871135752 -0.05355636485339299 0  0.002460099549007891 -0.05252585171044902 0  0.001259346531910971 -0.05270384666363766 0  0.04019639236320375 -0.021383107493596 0  0.005183425056177748 -0.09779658989091398 0  -0.03905852789635433 -0.06663493833376265 0  -0.03941507929093174 -0.06760893999799532 0  0.003716249529278596 -0.07158097092647955 0  0.01830470070874543 -0.02619123709880323 0  0.01883860500130496 -0.02794013304613799 0  0.01854666547967626 -0.02680299486003635 0  0.01782450127716999 -0.025372012884792 0  -0.02320626543492966 -0.06119688474230075 0  -0.03910945105138579 -0.02279286827914516 0  -0.03889825206240756 -0.02413856414610662 0  -0.02740218853038435 -0.08433865952046844 0  -0.02158821759378557 -0.003011080273981418 0  -0.01527750811595619 -0.06993884278478883 0  -0.03994343171558767 -0.09262137485619897 0  0.01169616353022006 -0.0890486817834753 0  0.02224562660285946 -0.08190113003200349 0  0.002049424454145046 -0.09042011918843985 0  -0.009038688121953759 -0.07173224630653881 0  -0.03427915298847484 -0.0533346519185399 0  0.04106901591461655 -0.04500310332185636 0  0.03375744408542731 -0.08672284722261875 0  -0.008345221874070439 -0.01361653937459052 0  -0.02809422130630786 -0.05476580457792778 0  0.03978924844182639 -0.05562650389369594 0  0.01403058936781223 -0.08822755807513559 0  -0.006213222503374912 -0.03412500373856736 0  0.03184080415318361 -0.03878448291578664 0  0.03773645250216986 -0.01578896092571138 0  0.03881018430112312 -0.01626296950005097 0  0.002858002766245419 -0.02263869834483387 0  -0.04853734288880716 -0.05960257882218491 0  -0.02323472448741026 -0.09229643880344329 0  -0.03363949011361515 -0.09719425773701765 0  -0.03910489624036409 -0.02626035576582384 0  0.03151027897069517 -0.02848123371783163 0  0.001873386186459792 -0.08979749026366948 0  -0.03735996945417699 -0.02993878799376428 0  -0.01822933791094726 -0.06545358970718394 0  0.001158764072732936 -0.04580487373748896 0  0.002076317857458358 -0.04536541563901479 0  0.0008829355496749913 -0.04486938263758793 0  -0.03825059784320911 -0.03089031423787902 0  -0.03041387003319318 -0.01187211488355304 0  -0.0246812866953585 -0.02506207164742158 0  -0.01963782427472138 -0.01608715852032355 0  -0.01972049359276531 -0.01530640555525013 0  -0.0009630226835785809 -0.007507933237425221 0  0.01035958139865377 -0.07797756985977455 0  0.01018267486576564 -0.07697479589983951 0  -0.03892093536682553 -0.09840702314429332 0  0.03774568347419801 -0.05315521800683982 0  0.04153281829664213 -0.00999220965817299 0  0.002809854497522126 -0.09448314046589205 0  -0.03642529923058458 -0.02202960490544928 0  -0.03023135714655364 -0.007530158441020929 0  0.01587669201899202 -0.002117747905959268 0  -0.0123714315965911 -0.03942448270370236 0  -0.01170590571607802 -0.04025909625811411 0  -0.03962345476169191 -0.038878939285572 0  -0.009735620400435628 -0.01204186882113109 0  -0.008825830527154157 -0.0125053472545765 0  -0.01165359029726785 -0.06296599244665849 0  -0.01241025154662365 -0.06371140925601104 0  -0.04453509135150489 -0.06209859132997574 0  0.04473519736768522 -0.06596163984631884 0  -0.02281779757873471 -0.04021233333538728 0  -0.01888622565179791 -0.0665039670349838 0  0.02262780622601656 -0.08072818115335516 0  -0.0432678576137818 -0.09131582385377893 0  -0.04367257332088837 -0.09012225675911599 0  -0.02722895415452035 -0.04402413244338913 0  -0.04550707222663653 -0.07212149911941831 0  0.01318663173806009 -0.03134383062747169 0  -0.007838069838133458 -0.05456379105828039 0  0.005422799456429898 -0.08617903094615112 0  -0.004832800535850281 -0.009787492739635466 0  0.005396062736609472 -0.006617466042878709 0  0.005132443494279061 -0.007923068418796784 0  -0.01875696806990945 -0.08488778711161167 0  0.01276347794840738 -0.08882841794821049 0  0.0299098054520678 -0.06083223788143737 0  -0.01302697063903024 -0.04414676230569693 0  -0.04648143123026049 -0.09507647282718178 0  0.02181380900645967 -0.08998377655543675 0  0.02102408796656067 -0.02096820806224162 0  0.0101445381354933 -0.05836155001649965 0  0.01078337757784583 -0.05813494402795854 0  0.008552975239454837 -0.01939750045986653 0  -0.0139107855748081 -0.01136897202135393 0  -0.03545839076672515 -0.05519747079812121 0  -0.02440482617516389 -0.06175880537044363 0  0.03222082169274616 -0.0006167157307571108 0  -0.04003410008002831 -0.099383994050639 0  -0.02761072064358038 -0.05982839731539475 0  -0.006429687512796325 -0.0616112743989682 0  -0.007363963261912972 -0.06187928978591699 0  -0.006986265358957693 -0.06279880634553089 0  0.01404236838464124 -0.05824948001742842 0  -0.004456107745782057 -0.09707976365272752 0  0.01366823427075833 -0.06323470508314782 0  -0.01955879678344756 -0.01178732136503379 0  0.01630222226945191 -0.02095116958341725 0  -0.02042395942731536 -0.004559102935571878 0  0.00632097993686178 -0.0629724579455936 0  0.007041015512189389 -0.063528556783461 0  0.04858605225350911 -0.01865023627864134 0  -0.03357691639583139 -0.06875426577326457 0  -0.0330437818365155 -0.05180322279838502 0  -0.02683745242657322 -0.0988242401970276 0  -0.0337754390448301 -0.07800873764749354 0  -0.03478762060304405 -0.07792365713634437 0  -0.0187554006886391 -0.09554187768736676 0  -0.03581970519040192 -0.04729076100595524 0  -0.03501666351392897 -0.04779170649089123 0  -0.03477195630842796 -0.04905690646979813 0  -0.03353245967853344 -0.0486830064343967 0  0.00987445769853457 -0.01998543245650065 0  0.02669508370672977 -0.01774043499399687 0  0.01071812812426664 -0.03796131038829021 0  -0.02199327030780692 -0.02756043981024833 0  -0.02222037585503701 -0.02822282497478531 0  -0.02106459422383639 -0.02855585522747519 0  -0.006946376390599784 -0.01114056790519955 0  -0.02550765578994663 -0.07667887047788183 0  -0.0144470175379783 -0.07855349119138397 0  -0.042578125 -0.09948786634775557 0  -0.04338405013416097 -0.09946904562734522 0  -0.04258302726725766 -0.09845985988623393 0  -0.03718491847791688 -0.007846051523276292 0  -0.01536978555594205 -0.09620875265603877 0  0.01599118958278012 -0.06567244767716014 0  0.04604500466350927 -0.09871526320664012 0  0.0317519155141148 -0.0150783704482318 0  0.03112743550877574 -0.01617991504274034 0  0.03077336342562574 -0.01514728396601093 0  -0.03714120393614686 -0.01586637747055612 0  -0.01482616824955689 -0.06205782191827942 0  0.01658704743977952 -0.08284062122318699 0  -0.02108865205139934 -0.02502622118435838 0  -0.04948122535060265 -0.059765625 0  -0.02671496293065626 -0.005614038209581826 0  -0.01428096235606199 -0.06573587813553389 0  -0.0407648778099416 -0.008402189009742423 0  -0.002453294025911443 -0.01342971158781001 0  -0.01663652499358758 -0.02286803596128282 0  0.03779696186156472 -0.06520672703237246 0  0.02743195507728557 -0.0509364884546383 0  -0.04726368320504669 -0.05617426381850146 0  -0.04626066916457216 -0.05601500356990966 0  0.01995980283885798 -0.008828826836229592 0  -0.01109223884596154 -0.04729037671602778 0  -0.03278187728861381 -0.04615393198696449 0  0.03307010316796326 -0.07545946406246409 0  0.03380647493541508 -0.07440208320782647 0  0.03292332806125797 -0.07454376301923148 0  0.01806518745808928 -0.007019267629902664 0  -0.003940080717419074 -0.07019770485486003 0  0.04391463195163557 -0.09757813516357329 0  0.04472322012208474 -0.09842486773873692 0  0.04529413407024899 -0.09801806193220521 0  0.01074942659457398 -0.009456127166796087 0  0.0379336900023805 -0.09321714037059035 0  -0.04486748344896877 -0.05833293112611934 0  -0.01172631977486238 -0.05065861144152904 0  -0.01043920400803795 -0.04935670418598583 0  -0.01107527810819571 -0.0487206259912538 0  -0.0104393759912538 -0.04806958432458713 0  -0.01237753751931916 -0.05002253734137129 0  -0.01172597180794053 -0.04937167175138794 0  0.03434070143856217 -0.005346546584881397 0  -0.02019672801119222 -0.07993122995393551 0  0.01621932866785035 -0.04530159669365445 0  -0.01236222189180429 -0.05130965310819571 0  0.01312165408134934 -0.09464861718389035 0  -0.0331683644192011 -0.02659587421487465 0  -0.03976303942336475 -0.08216065228413361 0  -0.006241591669494072 -0.00437068488561698 0  -0.04086157568505897 -0.04440297543732833 0  -0.001066550662271532 -0.05592362443521608 0  -0.007043621081702022 -0.07383836341639022 0  0.009076744665272921 -0.0835268013387165 0  -0.03451388458107547 -0.09624028961410541 0  -0.0345936719061908 -0.09691581993758665 0  0.03617566525232805 -0.05501060016596819 0  -0.01593701023647427 -0.07053573328525758 0  -0.0119483765430908 -0.07428428029481556 0  0.01978141487981684 -0.06482917472072508 0  -0.02676731405486714 -0.01321281953255445 0  -0.0379384029772049 -0.08209097870483111 0  0.002270176867929085 -0.02943495598323447 0  0.02566002178122129 -0.03628095676259133 0  0.02584513214608243 -0.03554103910849016 0  0.02463432354563707 -0.03597213681294775 0  -0.005620553735193475 -0.06074894704742689 0  -0.0313844522470133 -0.006637436579254755 0  -0.00520189038412938 -0.04520096216008337 0  -0.01976949212539476 -0.05727931740630719 0  0.01505426418387 -0.005087199441843197 0  0.03865767153846839 -0.08926503720691625 0  -0.04093878841601074 -0.03751883003063552 0  0.02618408254490246 -0.008443147877277268 0  0.02746364008100931 -0.01982166285547135 0  -0.001142763007778224 -0.01108409708252541 0  0.002296499624291947 -0.09174558218987409 0  0.01867311445383798 -0.04221879219114352 0  -0.008693328975456344 -0.09258920674593599 0  -0.04311755600364784 -0.06685311607585614 0  -0.003951295603219419 -0.05760442300532453 0  0.043171424904435 -0.07957970841452656 0  0.003390240982482402 -0.01278320530125058 0  0.02494865471269135 -0.02762105474644107 0  -0.0111383701674998 -0.04238123791090696 0  0.04173138621653584 -0.08371201209505165 0  -0.04432938369294933 -0.08943740946841415 0  0.004580636873092831 -0.007139004862417361 0  0.04414113011742334 -0.01959488436317193 0  0.01472286517463101 -0.05137558859468488 0  0.01552603181145038 -0.05038142172721075 0  -0.01854581178355238 -0.002991151653966702 0  -0.01878267324769809 -0.00797616395063956 0  0.008348734748644174 -0.008434514201812161 0  -0.02852785367457684 -0.06193636921846288 0  0.001918605915683715 -0.09623569414601754 0  0.01118009595830706 -0.0618762168147954 0  0.03286997937568979 -0.07673200074190414 0  0.00894094025222749 -0.03842174509728317 0  -0.02002320235404719 -0.01748982621848003 0  0.005245705447188162 -0.03065692957473252 0  0.02436425871968193 -0.03740424743636585 0  0.02350757659883473 -0.03799066698959018 0  0.02309343731056565 -0.03723056783959885 0  -0.002208955471838907 -0.04469480189227457 0  -0.0026519581747736 -0.04579605458263674 0  0.04035727161434674 -0.03847561464447234 0  -0.04634273093606611 -0.08404197819095817 0  -0.0278255547680893 -0.02882298556541056 0  0.02562673257883309 -0.03145413915447906 0  0.021484375 -0.09945744893739918 0  -0.04230460113037087 -0.02549394908615188 0  -0.03145683589159706 -0.03585704436737645 0  0.02362916299292454 -0.03371614168047397 0  0.01786947653871025 -0.03244396702107068 0  -0.03343215894680407 -0.06431894353586858 0  0.03939656913759459 -0.0307137259810944 0  -0.03883137952796264 -0.07186008516137661 0  -0.00291773461048013 -0.09358340111160791 0  -0.04358706237874641 -0.06783735785650521 0  -0.0441770248945603 -0.06757308024515549 0  -0.04318376683992128 -0.06891152831830964 0  0.02219747179635405 -0.09831461667656231 0  0.02115517210917688 -0.09837859400046318 0  0.04239347341025922 -0.04506850387346858 0  -0.004755556695014447 -0.07924440187868406 0  0.04565170731245766 -0.09085154279980653 0  -0.03749910683030446 -0.06380442710726683 0  -0.008689325927062383 -0.04542491704218383 0  -0.02309580673209659 -0.01271691424101793 0  -0.03879172393512577 -0.002958258297948637 0  0.02570735687620627 -0.08949926597963533 0  0.04373975152841858 -0.0704958130831629 0  -0.001840424903411704 -0.04595373892932711 0  0.0312010238009243 -0.09677528166054203 0  0.03018399606495882 -0.09763191224326241 0  0.031052970432646 -0.09773439542200006 0  0.04470888816534621 -0.01865211592274381 0  0.02481349677203049 -0.0837922969824326 0  -0.04367354252914638 -0.0684826202425269 0  -0.01920820951264461 -0.002413355008729043 0  -0.0001703816048458717 -0.07977092288003251 0  -0.02475959422842093 -0.05748825726667561 0  0.04126109794076992 -0.02798017574331722 0  0.02558997814606955 -0.0136358524499994 0  0.04943398809820323 -0.06134885539781388 0  0.007441341661129038 -0.08112939638097263 0  -0.01334202379719043 -0.07254887234023547 0  -0.04918985583259663 -0.04242763912248115 0  0.02666938200957815 -0.07352239779317871 0  -0.007959885326066118 -0.03370961419142595 0  0.02569014397348238 -0.09931137453913766 0  0.046067143217247 -0.03290635646805466 0  0.0223705671354193 -0.05696610216559211 0  -0.04832913106590581 -0.05830681090194006 0  -0.04265457141173022 -0.00337796086204935 0  -0.008086981643602515 -0.06571056715806554 0  0.01901739839942285 -0.07535684066171988 0  0.01061559942356026 -0.04089886662085979 0  -0.03774927764648264 -0.07108754393191834 0  -0.03957927521275695 -0.08775814005984721 0  0.007024395989608251 -0.004019071945003316 0  -0.03396809904353863 -0.006595037757331095 0  -0.03660491522768174 -0.09186501934940908 0  -0.02306426984628903 -0.08379093984310851 0  0.04330092965057714 -0.01597652363174059 0  -0.0298395260333318 -0.07480964519071319 0  0.002358600528898112 -0.08866085031615165 0  0.03334695537001157 -0.04071810179685269 0  0.04529986908253762 -0.0689479585890323 0  -0.0286430930797423 -0.0149640990229955 0  -0.02941250930365255 -0.01519800051010846 0  -0.02935203294687811 -0.01605105071091741 0  0.0103542824828049 -0.01708609053380564 0  0.04507779970799934 -0.0366879192937402 0  -0.008141232024083997 -0.00863139365377536 0  -0.007871081333878987 -0.008029055488710661 0  -0.0004946442440578058 -0.09522681436051439 0  -0.001128367497536131 -0.09409818247644421 0  -0.01733135637927531 -0.09693994961542536 0  0.007242578631813205 -0.08322395091368187 0  0.007438642790058817 -0.08435913165232889 0  0.04710561936511248 -0.03680497020353028 0  0.04854743308702286 -0.0461414098859553 0  -0.04126751940820991 -0.005565415347592318 0  -0.01517327560549141 -0.06881670570561747 0  -0.01893481257491177 -0.0816002828632325 0  0.04373913919211954 -0.07889989494751072 0  0.03117904086767486 -0.02487437471100587 0  0.0381689741528002 -0.09493210792714578 0  0.03927839461561351 -0.09492395987210334 0  0.03894926372446985 -0.09394999030570592 0  -0.04570831616246633 -0.05657037279398165 0  -0.009952263631241694 -0.02124372057910875 0  0.01719062680451857 -0.03142300038087138 0  0.01792000383870852 -0.03180475254887238 0  0.01701514924959732 -0.03263180448485285 0  0.0494860203373847 -0.009765625000000002 0  -0.006583416253681149 -0.05593260029982058 0  0.01187427735255172 -0.01251155344147838 0  -0.03381934715086057 -0.04726738879286179 0  0.02214384654456829 -0.0606902836816363 0  -0.005885364311066199 -0.04314333404745922 0  -0.00521795014369243 -0.04317338836024636 0  0.0201379569975792 -0.02691713069849453 0  -0.007754326520076647 -0.03766652570204778 0  -0.007318475386838866 -0.03713871924768603 0  -0.02023292384980606 -0.0674951589400532 0  0.001381101651806106 -0.02004915733473282 0  0.03919303000250134 -0.09284120743941121 0  0.01648116139749222 -0.03375880891784058 0  0.03056951516206739 -0.02666031271407919 0  0.02971691761963444 -0.02602096054538063 0  -0.04787811691997379 -0.007722545450292548 0  -0.04277310573625795 -0.09313941215606922 0  -0.04837690471864366 -0.09146801337234654 0  -0.0082946700223259 -0.02586579638647449 0  0.01600204049714847 -0.06978260559293416 0  -0.02138584321914795 -0.0463313243245907 0  -0.04512157943414488 -0.04145247768316526 0  -0.04472025289625779 -0.0424863712660021 0  0.04774210550400754 -0.04845174125620781 0  0.04674198866538764 -0.04789368109231 0  0.0328809607785998 -0.01296090258290247 0  0.02235191622737421 -0.03351519814926286 0  -0.01410671600844865 -0.03544405135471465 0  -0.01401768490673654 -0.03436904771390453 0  0.04949406551525244 -0.08320312500000002 0  0.0493420247758441 -0.08418129699207218 0  0.04866700059108993 -0.08419155833237101 0  0.04949415823031938 -0.016015625 0  0.04949415823031938 -0.016796875 0  0.04834018422261989 -0.01653044171439471 0  0.03094380041113475 -0.03156555834701238 0  -0.04193411641973124 -0.08908613859106575 0  -0.02391382212683539 -0.05516686124855649 0  0.01699650776868264 -0.05448302547968033 0  -0.0100273955123307 -0.01913634383052037 0  0.01825882957534415 -0.01349341221685734 0  0.01705127207309751 -0.01394365362281972 0  -0.04270661836454697 -0.07272265219099595 0  -0.01848478908040332 -0.07549677758901996 0  -0.01915611623149473 -0.07492876163855766 0  -0.01927779594497642 -0.07618851989740859 0  -0.02359488256430503 -0.03445278142916088 0  -0.0107666022457169 -0.06749355917751768 0  -0.04152421329599167 -0.08625191075414941 0  0.02895320748871255 -0.07157864609162252 0  0.0457389151631568 -0.004977021961350559 0  -0.03549005455294186 -0.01726076722699074 0  0.02664423445941172 -0.01891662561388282 0  0.004340868966549524 -0.06460260638096141 0  -0.001957475450863742 -0.01139886471720151 0  0.0249161542535216 -0.01506536318507168 0  0.002430093528453325 -0.08143827430468804 0  0.006757284430834261 -0.07829482603893759 0  0.04150025608634512 -0.08603508915522003 0  -0.02464530442420866 -0.006494069021191243 0  -0.02544787577653166 -0.006047169608405185 0  -0.03118949224749647 -0.05338460539535375 0  -0.01813805845368972 -0.02604014702486296 0  0.04441069720046393 -0.03094551009955683 0  0.02493578677355798 -0.08844245447589852 0  0.02550992241891668 -0.06379401870804149 0  0.01222593957793537 -0.00971187557362317 0  -0.04939011204434914 -0.00181723756039355 0  -0.04834756081322118 -0.002431800569386967 0  0.03799065129589828 -0.008416636446388858 0  0.0008338193408261411 -0.09850357044539346 0  -0.00676207990328336 -0.005532982523039046 0  -0.0122193695876494 -0.03724280775958631 0  -0.01140590665512659 -0.03773628968019482 0  0.02491100289909733 -0.04504108556936353 0  0.02428955261523371 -0.04467400843588716 0  0.01416584719766377 -0.04212219357751537 0  -0.007054401786390937 -0.06758495214506807 0  -0.008159740821290349 -0.0668875685710677 0  0.0201782456896229 -0.03820913280088786 0  0.03006083965340681 -0.04444634232814467 0  -0.01742787031159273 -0.07695951440880469 0  0.003226584187511494 -0.04598424354267264 0  -0.01119701246215489 -0.07015960996286918 0  -0.01222510577679209 -0.07020879435309238 0  -0.0112967023872092 -0.07108474642537657 0  0.004472019751280653 -0.06300402474792455 0  0.006133264632654256 -0.03563530370489788 0  0.02044364182857084 -0.04869018429750074 0  0.02498596201454042 -0.06581531672688656 0  -0.03532057603242468 -0.07216301019175414 0  0.03063614108644738 -0.05091110073719188 0  0.03122296506353354 -0.05118153198891479 0  -0.03750131812853707 -0.01999273773208342 0  0.03757218561236694 -0.01413129014897339 0  -0.02262216198369418 -0.07513186386959655 0  -0.008589822971301028 -0.08660305606924873 0  0.009034684562394871 -0.05562485339325894 0  0.01785432375572 -0.06592567416582831 0  0.01899885629639159 -0.06590779558884546 0  -0.03470813608193171 -0.0297219493891075 0  -0.01577604973646822 -0.02087358227808883 0  0.02520636211257803 -0.04281623100177852 0  -0.02586494420552648 -0.09470273112800441 0  -0.03990124923506973 -0.08385008699366422 0  -0.004748773689746033 -0.01353069220676693 0  0.002365922052322725 -0.02430654030848534 0  0.003274134208864693 -0.02391232492502986 0  -0.03582009769117777 -0.01812239733771428 0  0.04853725084284973 -0.06622677349206169 0  0.04051095595901358 -0.06215723818486342 0  -0.02172413992180736 -0.06216849459457965 0  -0.01237152581126411 -0.04745488758695807 0  0.04311418260175236 -0.02808227891361711 0  0.04267683414024109 -0.0274262562213502 0  0.04187935510854181 -0.02778641846088985 0  0.04904088242050637 -0.07116930412861264 0  -0.01665289076637114 -0.08316188619508143 0  -0.0347272777619406 -0.04246862754698629 0  -0.03544333960079289 -0.09007129833118416 0  -0.01406663349907543 -0.07029905196093811 0  -0.002542974477931187 -0.05025161308886232 0  0.02890501150674834 -0.06742569347639686 0  -0.0291937909532013 -0.06299799173841406 0  0.02332659560297363 -0.0573869730226171 0  0.04348210884058289 -0.01492018763274294 0  -0.02265239394427697 -0.05280710362491995 0  0.04947430403931122 -0.007421875 0  -0.02876399747719806 -0.04604343364462035 0  0.03267835744651262 -0.02982339710937638 0  0.03138227349825794 -0.03010670153389472 0  -0.04097548734687761 -0.01066504771479498 0  -0.007383376621735086 -0.09087662419575993 0  -0.04758694321535098 -0.09096440475277774 0  -0.03849187505441022 -0.03478100123911212 0  0.01269932697642441 -0.02977022444091059 0  -0.02473338503583683 -0.09471170010987305 0  -0.03638577460935005 -0.09436904988034141 0  -0.03262635407141049 -0.05478644560326153 0  0.0003524932627504467 -0.01473339579872125 0  0.009229054757332225 -0.01594187118202213 0  0.006174173503393924 -0.02531384973006291 0  0.006902214557218376 -0.02580374267481834 0  0.005775598396864762 -0.02638917730179294 0  0.03472799093725522 -0.04240484962301133 0  -0.04589637670069219 -0.03022060235240686 0  -0.04651273418836904 -0.02999367138960968 0  0.01842695618389366 -0.0308194359161216 0  -0.04325576339084036 -0.06225838711661506 0  -0.03272650313224926 -0.03413548264476575 0  -0.03301657876351809 -0.0330587892190967 0  0.03569796906697817 -0.007240478555460133 0  -0.02598126246305543 -0.05791150456744686 0  -0.02207048479043789 -0.009972465221397785 0  0.03593967620467314 -0.09342017978566017 0  -0.03419782462828717 -0.09404961394895506 0  -0.02600213420771161 -0.03348220189169904 0  0.01617106071337637 -0.06260202035841576 0  -0.02322210008503206 -0.005749677496522402 0  -0.02276711450764118 -0.006883487912487854 0  -0.02228964838029814 -0.005875421242790464 0  -0.04210699463561337 -0.03040666334655718 0  -0.04277860777511738 -0.02929361399427391 0  </DataArray>
</Points>
<Cells>
<DataArray  type="UInt32"  Name="connectivity"  format="ascii">876 8355 9328  5790 14185 14865  4202 11560 11561  2575 5727 10689  1597 6266 13917  399 11922 15670  7873 9903 14491  1761 6128 11019  266 9928 10042  2567 9428 9429  779 6944 11264  2041 7173 14527  3758 8641 13464  1555 6143 11611  528 5083 5408  737 4266 9870  811 5777 8619  870 7202 11561  848 5664 6977  5537 8889 15354  426 6612 14066  4438 11308 14395  2472 7101 8343  1357 4967 6673  1790 5680 9338  6016 13324 14819  2170 5591 6955  3443 9511 15486  6034 10328 11170  5097 9509 13585  6205 10684 14547  5368 7429 9548  4147 6480 13687  4473 7258 7614  1448 13396 14095  3408 8774 13958  6328 10021 10848  1109 10122 11094  4688 9076 13721  41 11675 14475  1021 7488 8887  2811 5927 10885  222 5698 6336  988 9005 12652  1127 10983 11615  50 4674 8147  3413 8911 10655  2835 5240 9904  2407 14033 15598  81 6164 7714  205 5331 11592  3735 6488 15410  2627 6569 8434  3118 6209 12104  3098 7409 12028  779 4513 10946  1318 10342 13860  3618 7852 14898  95 9443 10131  2307 9037 9039  66 6459 9990  2288 6920 7718  1525 6597 8803  3317 11731 11732  859 6773 13580  4401 6000 8564  1869 7648 10905  1210 11864 12073  1171 4561 8670  3620 8175 15423  94 4520 12634  3680 7069 13574  6331 6929 11360  4995 15719 15720  2868 5988 10790  4692 9151 11740  4318 6952 7390  141 7030 13951  2592 6543 14746  3741 8232 8233  4895 6158 9526  106 4485 9325  2188 6101 6102  3623 9331 13372  844 6671 7027  3334 5615 7844  36 4392 9555  2036 9865 12978  4774 10426 12151  227 13097 15673  1579 5222 10192  501 8585 12745  3477 11575 11576  1621 6426 10100  3399 6562 12463  254 7786 10949  1061 8852 15306  2420 7285 9891  3892 6421 8973  3318 4690 6812  468 14029 14587  365 11239 12066  3025 10804 11296  629 8360 15226  6984 11304 11357  4094 9959 14277  1249 4623 5029  4004 5288 14953  82 9261 12515  1613 7305 14893  2024 5288 5899  849 6397 9239  7846 9013 15437  964 7429 9548  6109 13778 14054  4494 5817 11987  1636 6295 12833  403 8774 11503  3742 10409 10410  3095 7447 14329  323 4207 7077  2950 9307 14747  5009 9717 15716  917 7341 7896  4734 9388 9413  601 6331 6929  858 8084 14506  3364 9799 12447  2351 9285 12531  3841 9009 14541  3685 6116 7724  1547 4911 7033  741 10798 12489  4342 9001 9167  2414 5598 10299  17 6153 15409  4749 9271 9856  2020 6088 6559  1360 4961 8310  4046 7261 15132  1215 4465 11153  104 7383 14136  2504 9853 9854  6936 14768 14769  1845 8207 15737  1823 7501 10004  3148 7532 7959  42 4271 8226  1995 13493 15132  5816 14262 14920  3906 7475 15189  3712 4207 7077  1480 9825 13508  4164 11174 13064  577 5213 8652  3380 6329 12537  3638 4640 9005  33 7456 9161  1259 6856 10822  4216 9858 15355  114 6684 11262  4866 7095 9820  4688 9076 11068  5987 8022 14757  245 6844 11948  955 8796 12661  4688 11068 15373  1812 4488 7853  2498 5410 11248  834 4917 9855  4701 9121 13078  1763 6683 6818  2258 5623 6747  3429 9341 9342  1023 7937 15479  1003 12093 14258  2292 8713 14380  974 6055 9573  455 5753 7237  456 7211 14137  3123 8156 12017  3713 8804 8805  4883 14212 14575  2109 4818 8157  6393 7617 12393  2572 5635 11359  659 7532 7959  5358 9568 12155  3332 7787 10283  4849 10368 13852  2018 5353 8224  3809 14989 15010  2493 6298 13548  1941 7593 9083  1657 6174 7639  1419 10683 13501  2881 7041 7042  1810 6538 6737  911 13560 15383  3431 6259 13320  202 5733 13588  3590 7520 13932  2463 9686 9687  4856 8798 14254  3127 8599 10916  5558 6306 12809  4005 7647 15610  1472 5144 10090  415 8736 12937  3031 5325 11571  6198 11915 14058  2141 7557 12229  5370 8394 15476  2569 6540 14758  4197 8369 8372  3775 6829 7300  3643 9877 9878  2512 5485 11410  3948 11578 11579  2027 9085 12963  3256 9734 12374  2824 7839 14636  4809 9980 9997  5285 11162 12330  4799 7014 8913  6500 13976 13977  152 7467 7468  3836 10174 14747  374 5401 15541  732 4483 7991  364 7004 12153  528 5408 12430  247 8193 15532  77 6756 12247  4114 11028 15709  579 4556 8008  5639 11116 11317  3307 7749 12789  2331 5828 13096  3068 4593 6040  1566 6315 13606  4436 9217 12608  391 4602 8086  4694 11649 12992  1512 6029 7228  1833 7203 10705  2082 8412 11387  4084 6012 7281  3232 7419 13145  3762 6307 10233  1089 6899 14661  5977 14273 14662  4329 8314 13094  1989 5920 6547  486 4603 7075  891 4685 10812  5231 9313 10338  3124 6209 12683  1273 7298 13031  5648 7905 10095  612 6634 12708  1377 5398 12409  1952 8190 10834  386 8793 12776  1523 4825 8578  956 9138 9362  4601 6108 9308  1451 11755 11756  4066 5923 9863  1139 14256 15320  1300 5092 5093  3136 11555 11556  1462 8763 14882  2626 6861 7120  2029 7537 7538  783 8644 11671  4298 10847 15594  2012 6880 8328  3261 11143 13873  810 6518 9693  11329 13351 14737  386 10947 12871  3884 10700 11365  1799 4506 7130  213 9062 15761  421 13692 15259  1722 4427 14124  600 4459 7088  250 4878 7509  7590 14999 15047  3350 12442 13125  2884 6254 12594  2018 6579 11515  861 4763 8061  60 6042 10747  2464 6279 6280  364 9513 14005  3465 7692 8105  4993 7660 11653  4258 15161 15162  1258 4495 6251  3964 5235 14809  1015 9648 11887  1791 5542 7062  2906 8928 11101  787 5919 6096  273 6700 9242  2956 11340 11469  2011 5377 12178  2065 8252 15074  5818 8324 10220  1217 4698 8225  5033 6512 11622  2812 10193 15227  788 6102 6103  211 5640 8246  2577 8356 13539  4082 10413 14634  2883 9479 13189  793 5586 5587  3001 8571 11669  349 13384 14169  1513 5857 14826  3168 11400 11990  3549 5634 6770  217 9587 14144  2156 5159 12123  431 6053 8623  471 6963 9124  2882 7043 15200  38 7806 8112  4508 10670 11772  2449 7694 10999  3889 12422 15188  5544 8172 12412  1356 6915 15349  1794 6883 13584  8092 13394 15708  1816 6983 12994  1005 13843 14803  2851 10943 14350  3482 11202 12651  2176 4889 8725  226 5828 6118  4068 9501 9503  858 6680 7359  3126 5301 8393  3456 7415 14639  313 14837 15331  3381 4709 7386  3245 10975 10977  1655 6595 9603  4079 12415 13792  3888 8995 14602  3167 7849 12567  233 4790 13706  1954 10957 11006  355 7357 7731  2179 5906 11723  1605 5436 7403  4194 8364 8370  2404 9277 13071  1120 12004 14178  750 6715 6939  4526 8590 8966  3267 9718 10668  3084 5498 9547  2268 4491 8203  3335 7720 11312  240 7192 14085  112 6489 14896  6046 13090 13442  540 5670 11274  3469 8228 8229  3147 8468 11652  473 5283 6507  1235 4420 5462  2188 7527 12641  6844 7803 14773  1070 9248 14906  3290 12785 12786  5294 11135 12547  2233 7883 12260  5836 6882 13938  2403 4716 6882  711 6689 10589  1528 12765 14843  895 10174 14285  1366 5787 12118  1212 5610 11480  341 9780 9898  3726 14676 14677  4168 7824 12639  3973 7047 11639  1002 7588 15013  899 6310 13681  6175 12436 12685  1177 8462 14306  1683 8847 15734  3483 5544 12412  5199 15391 15392  1520 14159 14160  1076 9712 13112  3909 6947 11998  1940 15001 15005  1738 6777 12674  377 4894 10717  1002 7576 15061  998 7757 14994  1768 6638 7933  7603 15033 15034  2782 5482 10107  1818 5263 15098  3056 6526 6810  2342 4922 13350  3477 8122 11575  4110 13795 15676  1342 11308 11597  267 8726 12729  4794 9566 12195  5502 10317 12261  2039 5288 9612  1121 8721 14954  1409 9946 14484  2290 4052 8706  4936 11219 14027  2885 7159 7795  1038 8825 9108  2516 8591 12728  549 6088 6559  2291 8694 14405  2134 8297 8298  274 10804 11296  66 4284 6786  1842 8741 15615  2908 6035 12026  897 5677 7667  644 5755 6551  22 8260 8829  756 6696 7701  345 7186 11038  3038 4778 11514  1529 5107 11337  3380 4409 6329  816 7056 10765  6704 10918 12828  4650 10919 13164  231 7710 12323  79 9431 10079  5734 11167 15186  283 10139 13480  3035 10380 10805  4141 10748 14879  896 7344 8830  2617 9821 9822  4617 9822 10046  2689 9433 9434  287 9111 9533  3110 4503 8808  94 7099 7360  2130 5132 12011  1978 5169 8598  2487 8117 8119  903 6308 11278  3630 10216 10217  1059 7434 13425  3713 5610 9530  3328 12148 12868  3048 7082 13117  748 5646 7167  3077 5650 8601  3341 11257 11258  1426 5554 9203  1025 4975 6454  2556 4908 9978  2033 6739 11666  3912 7396 9537  1663 6216 6498  1078 4684 5511  167 6966 6967  300 6299 10092  6339 8150 11440  2266 8901 9882  2607 9034 9889  1595 5735 11594  1304 6692 14864  5220 12335 12336  837 5943 7524  3842 9021 9582  2183 4769 8526  2189 4843 8219  3954 7170 12845  1807 6990 11208  8810 13396 14095  943 9051 12990  3869 7761 11872  2160 4327 5146  3111 6978 14741  5748 8932 10836  4548 8625 8626  3473 6622 13336  2172 12304 15774  6104 8740 13182  3932 10207 15409  4219 8998 14871  5922 14093 14466  2173 5438 8554  1288 4704 8557  3385 5801 11338  1233 9084 11303  3938 12449 14102  1288 5018 9470  3464 8676 12493  2014 7308 7717  742 10843 10844  6414 13434 14544  2051 8001 9991  1991 5042 5152  1904 6667 12395  558 6625 9449  3871 7100 8272  1416 7170 8838  3524 7330 15308  6544 8812 13390  324 4372 9581  672 5191 10335  5381 12074 12341  4644 10282 14653  552 5072 5136  419 5272 11997  2124 4090 11386  1649 6367 14357  2870 7860 10694  5461 6107 11236  1465 12387 12388  2490 8316 10418  2792 9279 12694  15 7895 8642  925 7905 10095  488 4901 12317  768 8983 9361  6976 9651 15394  375 6018 9346  1148 4282 6886  3042 7191 11303  3507 11372 13110  2036 10607 11952  96 10187 13346  388 4558 11624  4151 7471 14106  5593 8636 12686  5897 8587 13348  5344 8618 10955  411 6043 6079  4343 6587 14909  2334 9159 9160  3510 9321 15182  2749 6190 15590  1123 7364 14454  5275 8028 12180  3920 11458 11459  7063 9961 13496  1274 4754 5313  345 6694 8451  1038 9108 11524  346 4464 8881  761 5530 7353  2874 9710 11145  1826 6420 8973  348 7028 8583  4321 9214 13987  2064 4064 10830  2284 8589 13583  6151 7722 10295  237 8327 12949  2507 9877 13469  2841 5541 10851  875 10307 10753  1547 5922 8547  1660 11585 13456  3286 7790 12688  562 7790 12688  1790 7777 15160  5599 13684 13685  2622 4397 5171  4467 11387 11406  357 5148 7246  2203 5369 13334  3787 5123 14708  5374 10363 10740  1351 11788 11837  96 7342 11175  1216 11321 11322  60 4802 4869  2868 5988 10714  3148 7959 13432  8052 12933 13677  2013 7868 14241  1429 11573 12192  1851 7333 12085  773 6177 9529  4276 8341 9441  5755 9971 12524  3555 13771 14432  2244 5821 9743  3509 5534 12363  212 5559 11590  1721 14554 14754  2170 5743 8098  3337 7956 12964  2146 5737 12673  250 4878 10175  5001 10784 14480  141 6956 12666  1713 5956 9251  5052 11462 11463  2763 6674 10859  1683 6598 15734  209 6767 13646  825 6512 8792  1562 9153 13817  3508 8995 13519  5137 8771 13081  3237 8769 12190  2578 4693 9684  381 5647 8899  1995 5796 10156  382 9220 9718  1190 4458 15521  2615 10059 14535  384 4947 6522  7970 12752 12753  3249 12055 12057  1542 5331 8556  3125 12109 12110  3436 12872 12873  9985 10319 12753  3214 9239 10026  1292 4558 8681  2994 9069 11647  1486 8223 13546  3403 5725 6658  2144 8078 12441  2072 7455 13368  961 5608 6464  8027 12379 14444  3752 5050 13176  4210 9525 11618  6147 12923 13874  3668 7545 12277  239 6702 13359  3994 6418 11189  103 11223 11378  991 7965 14937  3503 6815 8322  179 8580 10165  2192 7704 8576  4858 7188 13426  7474 12331 14333  1498 5974 12452  2898 8837 10711  5169 8598 14855  2860 10168 13449  1567 5915 6205  175 5326 6719  641 8595 11081  566 12576 12577  898 7805 12471  7475 13288 15189  2045 5489 6937  538 8006 10361  1144 7627 9840  1235 4420 9351  6160 8429 13079  4690 7984 13576  831 5963 11254  2824 7841 11700  1906 4815 8073  2893 4815 7508  957 10293 10294  3763 12864 12865  199 5995 13790  1537 6079 12989  1766 13965 14512  7322 11069 15769  1396 5431 9489  524 6207 6435  3326 5751 7934  1478 5827 10809  1984 7358 9288  1380 8318 11982  1634 8188 14582  2540 4719 7798  3649 6249 11182  3386 10828 11833  1576 4909 8819  67 9266 12853  2652 6675 14876  1086 4170 8688  1612 10183 11692  420 14056 14777  216 6452 7272  2116 4678 8818  4745 7674 10679  2350 6441 7451  1421 5203 7706  797 4293 6718  2368 5081 8741  1677 4713 6535  3245 10975 15743  426 8312 10976  2482 7642 7697  1689 6709 6710  1663 6085 8458  4160 11954 15548  6023 8493 13654  1114 5042 8453  1627 4916 6158  1586 9930 14949  432 5794 13029  834 6001 10037  293 8038 8862  5662 9378 11391  1997 6105 7289  4305 7909 11397  4328 12836 13478  4783 5213 9869  2299 12919 15515  3753 6873 14730  5878 11318 14728  128 12184 12596  4355 12387 12388  3781 7632 15482  3033 8151 8152  38 9331 13372  6097 8115 12029  2849 8181 10896  1678 6533 8921  5016 8930 12359  2423 4793 10210  170 5926 15559  444 5734 15186  777 4471 6262  445 5330 5449  4751 12433 13135  2207 8322 13559  1076 5246 5833  4011 11608 15296  2302 8567 13701  808 5222 8136  3150 11182 15387  2188 6101 7527  6656 9920 13926  93 6709 10048  1181 4385 14291  873 9460 12099  1637 5098 6779  1359 11414 12095  4405 11994 12206  3086 8355 8356  2812 5509 10193  1688 6359 10272  746 5119 9977  1365 7080 8707  1830 8692 14387  3157 9453 9455  2290 4227 8707  1278 8769 12190  1750 11697 13524  2503 7141 14126  2986 6379 10138  496 6140 8680  1092 7401 15440  462 6738 11059  3829 9179 12656  4121 5683 8029  228 7124 13660  1766 6090 9099  4688 15373 15374  1520 8930 14159  2087 5572 8947  540 5670 6289  2110 5469 7234  831 4234 8300  1220 4533 5850  468 14587 14909  3405 11562 13342  3669 8960 9312  2508 4174 9031  2000 7730 12768  8408 11048 15200  1296 4781 7479  1663 5548 12188  1786 5873 6842  5464 9215 10084  929 7200 10151  1512 6029 12787  1512 7399 11269  3549 6770 13273  2441 4226 9262  3206 5495 8898  1571 4540 7643  3045 4721 10279  2947 7929 10344  3676 7898 14122  1823 5128 7501  4169 7962 15527  4978 8130 15747  2229 7906 11293  649 5797 13740  3440 5034 6296  2845 9995 11264  2845 6943 9959  1702 4871 5556  3883 5435 14417  1551 5981 10761  2917 4307 10838  2098 7807 8040  3766 8062 14787  5956 9251 13111  3198 7769 12457  718 6431 6501  2446 5749 6431  2556 5939 9979  6305 8617 11259  2446 6432 7682  2509 8196 13541  4238 6445 12981  2224 4437 8665  2310 6181 8760  5556 6984 11304  492 5544 12411  3768 12624 12625  335 4758 9910  5726 10450 15563  1195 4522 7399  1890 12727 15573  1885 7275 14764  3952 10943 11790  496 8680 13500  243 11584 15749  3817 15052 15062  1000 7583 10107  3806 14998 15009  2097 7177 7966  1934 7054 7564  2501 4323 9139  1928 7574 11925  130 6639 10762  1928 9736 15002  263 9023 10020  39 8405 14502  1529 5106 10964  7607 15004 15032  2076 8208 9921  989 7953 15369  1939 7571 7577  1938 4915 7562  3812 7757 14994  4561 9617 13281  2415 7162 9499  1215 6737 11333  4786 6538 15690  508 11212 15069  1782 6753 6755  4873 7960 14696  3891 10779 13767  1247 7015 14267  1397 7674 13845  511 4366 10003  779 6944 11920  2237 9541 13798  512 4922 9025  1553 10648 12726  6074 6717 13251  3046 7530 11793  1923 7529 11939  1009 5065 9588  71 7516 12235  2830 6115 11168  2618 8123 9407  1175 4273 7664  2184 8201 13910  1955 6542 10604  3391 12216 12218  1893 6787 14914  519 6404 14065  9306 10662 14790  3154 7091 12783  1504 5270 7838  2534 7522 15569  1866 7224 13307  3058 9073 11766  5474 7683 14037  86 7514 13351  524 6207 12165  3024 4633 6304  1117 5633 11490  2275 4907 6774  6776 8546 13515  2039 7927 14573  4274 8121 9180  1265 4882 12390  3567 9597 12863  5820 11774 12862  2443 5242 12232  2392 6095 9198  22 5386 8829  176 4276 9441  5415 11179 14961  3115 11275 11276  4134 12557 14733  533 8231 15233  3741 12572 12573  1778 14606 14966  1855 7221 7222  2947 8210 8211  1506 9473 14051  4035 7855 11230  3751 7153 12919  1879 5741 8660  3641 10298 14290  1279 9175 13723  1029 8266 14481  4363 10642 11807  540 8993 11274  2750 8992 8993  1589 5572 8919  1649 5720 11983  49 4412 11171  548 5247 14221  3219 12368 15370  4212 4927 10996  5261 10405 11027  1541 6123 11141  1821 7141 14265  1098 8368 12900  1560 6197 11736  2277 7992 12324  1275 10053 15446  1392 4913 4914  2133 8364 8372  5759 9108 11524  4106 5637 14847  550 7546 10713  1419 5537 8889  4202 7202 11561  2246 7067 13599  3113 5136 11553  4482 12355 13638  1171 4562 10904  4561 9617 11715  151 4784 8190  7031 12690 12691  5037 8495 12508  4058 8487 9557  875 4911 9004  3297 5166 9480  4500 5166 9480  2280 6325 8790  833 4474 7770  1222 11499 15375  1319 10304 13976  640 8905 15752  2349 4261 8906  3719 9428 9429  1577 5751 7934  1901 4314 6790  4314 6790 8095  3370 7268 8077  563 4691 7269  1164 4512 5695  2074 7194 13143  1799 6825 12167  4405 11414 12206  1359 12095 14330  4975 7489 9516  3956 5781 7620  125 11419 12016  3887 9543 12676  3874 10042 13331  1284 4985 6693  2203 4647 5369  570 5287 8718  2329 5212 10309  2472 7101 12338  2417 9514 10955  6045 8167 9156  1039 8242 13750  2326 6045 9156  4497 7015 14267  1968 6068 13744  577 4783 7900  577 4757 8652  3226 9000 12305  7463 8126 14948  1204 5112 8376  1673 12656 13869  3454 5322 12677  1304 9374 11787  1069 7949 11265  3068 11265 11266  3767 6321 13802  915 6871 14188  4544 11244 15756  2471 9586 14503  1422 5415 14961  1007 10632 11617  5504 8079 13283  2920 9946 14484  3660 10695 14460  946 13448 14297  270 8546 14546  4741 8970 13707  1066 12693 14551  2311 6402 9011  94 5461 7099  4520 12634 13402  3611 5054 13371  2406 4524 11438  135 6115 11168  1599 6792 13356  681 6235 12012  1136 6410 10938  1306 7504 14802  1306 4506 7130  3665 8498 14132  264 5590 8120  1228 8265 9436  6113 9436 12065  2284 8589 14813  2095 8232 8233  1464 4799 7014  5325 11571 12485  1207 4377 10038  4595 9474 15655  5390 10236 13766  600 7088 14804  2655 5138 10237  2947 8210 10344  766 8586 10931  766 4670 10931  3075 11632 14713  1917 6559 6561  2002 7127 7184  604 7184 13642  2241 5601 14502  1060 8530 12647  3869 11872 11873  1470 4535 8528  2099 7888 7889  872 9890 10644  3783 7427 9805  1543 5449 12143  927 6840 12734  2809 5465 12499  379 5475 6643  2568 7814 13108  7100 13149 15146  3223 7186 9522  2138 6552 6971  5140 12301 14148  2919 10015 13328  2178 6240 6241  1392 5459 11455  260 5888 7709  615 11661 13874  3691 5835 8456  616 4506 8042  1028 11236 11913  1638 6447 12321  1424 5262 7969  618 4990 11298  2873 6374 10223  874 7152 8857  2921 9566 10656  2387 5622 9768  1852 6534 7280  3036 8030 9154  2113 8534 12789  3684 4266 12644  2463 6743 13557  1661 6105 7289  1040 6858 12523  4903 10736 13231  827 7767 15765  2282 4634 9026  1296 4782 6720  4782 8258 8259  1149 5857 12454  2887 7828 7829  3787 8470 8471  7885 13367 13896  9692 14283 15674  2246 7066 7067  2227 8731 8732  339 5345 13173  2395 4450 5064  632 9092 14042  2889 5183 10902  4147 6480 13688  3693 14209 14210  6297 12667 13004  1727 6738 10366  33 9161 9654  278 5703 11225  3406 8140 15253  896 7238 11046  1484 4842 9729  941 11640 14907  1282 5014 13069  3605 13391 13392  2231 4570 8039  4638 6849 15431  3493 6760 12755  2594 9546 13613  5353 7721 10006  4332 8787 12463  1578 9955 10205  3265 9534 13155  85 9448 9755  2915 6819 8990  5862 11846 14474  4598 10858 10932  1564 4598 14406  1138 4317 8116  2155 4989 9650  648 5210 9461  136 5207 7333  1812 6846 11777  1260 9831 10978  1580 4220 6192  4220 14346 15363  791 7137 7138  4208 7277 15134  1370 5156 10357  1182 4153 4753  5238 11482 11486  519 5368 14065  964 7437 9548  1190 6539 14844  2312 6654 10637  3136 6375 11452  5977 12616 14662  1218 4326 12899  4619 6765 7267  2147 8916 11413  3618 7852 8807  1439 6194 7851  8199 9204 12848  7329 9478 13123  2823 7198 8954  8132 14751 14752  2746 9442 9443  1990 7329 12492  4050 7635 11419  4821 9337 14652  7054 8131 13570  3554 8520 11199  1701 4671 7796  2215 8678 8679  8385 9745 12847  2915 9496 15595  5323 12576 15302  3020 6062 12514  668 4653 9553  680 5940 11836  6295 12833 12909  1006 7700 8842  3138 6285 12169  2642 5254 10425  671 10385 13779  957 5819 12905  3451 11142 13411  3274 12272 12930  1338 5230 10677  1992 10464 12800  325 5190 12590  5883 7018 12879  1722 7481 7755  55 7178 8711  1351 5243 11837  4398 5025 11682  359 10362 11050  2082 5894 8412  326 6735 9883  1330 11307 11553  2761 8445 10953  2126 5818 8324  1147 6888 7645  558 4475 9449  1123 4039 7364  2148 4480 5596  4245 8565 10824  2161 7494 11714  1082 8855 14520  6631 15758 15759  5884 6291 11816  4152 4848 15180  4814 10197 13187  1666 9850 14799  4200 8645 11782  1301 9953 14090  2597 5842 9835  1115 9984 13298  3344 9902 15159  3902 7693 15415  1874 4232 8703  3546 6412 6609  4356 13011 13270  3487 10150 10570  2528 8419 11885  3859 5780 7510  595 8294 12491  4451 7944 9970  4961 8310 8945  713 4294 7110  714 5655 14385  2422 5472 5655  3930 10296 15753  2995 11497 13025  1514 5660 10940  1241 4766 5948  2477 8543 8544  3166 8196 13541  489 5049 15081  1869 13229 14621  3512 10184 10185  206 4972 11255  3591 8030 9017  2628 9341 9342  306 4398 10035  1333 5151 10033  347 6156 10895  2194 6133 7636  4148 5622 14683  1681 4170 8688  3082 9742 15313  2785 5994 12705  6146 8086 12036  2785 8199 9204  1044 7365 7411  3909 10630 11998  2235 8546 13184  1598 6284 12555  1746 6468 13077  1429 5117 6109  1682 6705 14793  729 9503 14717  1252 12628 13617  1746 10998 12859  1528 11526 12765  3022 8989 10952  2367 5198 9257  264 5590 8381  1297 9602 12051  2319 8097 14434  3676 7736 8902  734 7735 9326  4983 11995 15641  3099 11995 11996  2280 8791 12504  737 6172 12296  4719 6121 7798  1950 12296 12644  1304 5091 9374  1299 4990 13607  2434 7948 14186  3406 11562 15253  6112 14590 14591  830 8141 10936  2807 5800 10800  1463 8636 13791  33 9655 9804  5532 11261 12238  5590 8120 12324  2505 8498 14132  1887 6876 10699  1887 4674 10888  2174 7417 14365  316 10702 12449  2549 5119 9977  124 4567 7271  767 6359 12297  7436 14641 15568  7082 13117 15701  2578 8331 9683  370 6298 8672  2244 5823 15095  2219 8360 8984  4146 14283 15674  339 8407 11008  3392 12394 13201  1652 9781 13240  4689 9130 12767  1551 5167 6968  1683 6600 12253  754 6473 8441  2382 5961 6688  4240 10297 12566  4075 8834 10378  4415 10322 12312  6350 9188 13409  4771 13686 13735  5809 7860 10694  1608 6391 9785  8995 13519 14602  1497 5388 10130  1045 8783 11712  760 5529 8955  1476 6133 14401  1967 4426 6260  2875 5530 12166  2275 4747 9223  2784 6632 7628  3095 9511 15486  3564 10066 10067  2466 9206 15717  6996 8035 15154  2888 6065 8816  765 10902 11173  766 7367 7954  2083 7954 13978  3304 5392 12906  767 6802 9817  979 9903 14491  3141 8926 9361  1530 4186 7958  2800 4186 8418  1819 11721 13670  2800 4768 11803  2517 4931 5964  3050 5962 11909  409 7058 14100  3552 13814 14960  773 6176 11901  3018 11757 11758  1257 4661 8581  1504 4620 7924  2849 7002 11223  1464 5303 13804  4337 10019 10649  807 4771 6690  3783 5077 7427  2601 6729 7376  180 6294 13628  1276 4366 7655  4095 10003 15421  1143 5796 10374  2954 10372 14130  1440 5658 11216  1112 6149 9354  2523 8314 12983  2753 6368 9643  2713 5219 10565  4070 6362 7430  424 6317 6491  784 6384 14069  557 4498 7936  70 4502 6166  1469 4349 6335  2547 6518 6519  787 6394 14015  6159 9347 13979  116 5986 9833  4295 11960 12894  5843 7898 11721  1229 4402 5687  2843 10142 13232  857 4936 7159  5683 8029 14685  1672 13032 15247  3345 7719 12371  2517 5824 12808  5586 9988 11990  1947 5587 5588  1898 7027 14862  2911 8189 8261  1972 4200 8645  387 10317 12261  6973 14749 14750  2288 6918 6919  7256 14530 15664  2005 7256 14530  2910 8188 11291  799 9327 14179  6533 8921 9295  1526 5825 12419  800 6549 9605  4448 8589 14813  1256 4856 8798  3055 10301 13428  3057 5686 11898  2197 7626 8748  3310 6627 11937  3069 4102 11205  3034 8638 13945  1443 5716 13430  5316 13813 15622  7038 13814 14960  1289 13685 13686  2780 5449 8751  1101 13847 15407  1102 14684 14836  416 12000 12605  4181 8790 9186  3958 14836 14838  2315 8676 11224  2218 7285 9891  2529 5310 8327  4493 8278 13338  813 8408 11048  2853 6268 13039  4971 10082 12051  6541 8230 13971  4479 8043 9418  311 6916 14825  3692 14562 14563  369 8850 9145  3107 11970 14940  1675 6275 12806  3154 9305 10271  59 7862 11196  819 6606 9375  3761 8028 12180  3607 8655 13815  2399 7389 9417  312 7689 9480  1656 6449 9450  5124 6448 8570  1972 5013 7681  2599 5013 8704  6417 10333 14971  824 6209 12181  4478 8247 11046  99 7055 13877  3475 15490 15667  2125 5552 7616  4811 11522 11523  515 6124 7940  3175 11523 15509  1966 7516 9462  7827 12812 15295  1298 4963 10640  8302 10776 15412  4234 10600 14963  3050 4234 11023  1862 5407 6628  4651 8933 11908  6888 7645 13983  1741 6888 13984  2651 9688 12152  5137 11512 11572  2452 8858 10088  2096 5149 8215  301 5806 8439  2992 11532 14426  1812 4488 9447  1151 10615 12102  8800 10975 15648  2557 5105 10080  8561 12546 14246  3007 6222 8106  1750 6902 10620  4204 14247 14248  3462 7737 12987  3187 12358 12359  1107 10358 13694  1107 10327 13694  843 6989 6993  2546 5900 8182  3776 7350 9049  1672 5566 8488  845 5947 11539  3126 11539 11540  1766 9099 9100  846 10253 11876  70 6166 12170  1480 11311 13508  398 10208 13639  3376 10912 13183  1889 5080 7892  3236 6438 12164  564 6302 14300  2075 5907 8517  1539 4492 8206  105 13109 14769  4916 11416 13527  2651 7320 9688  3033 4492 8151  7806 9259 14597  4629 7214 11129  2371 4799 13113  5354 12748 15088  2217 4156 6969  2858 6773 7120  5265 12836 14917  3003 9950 13263  1012 9649 14850  5188 8083 9615  5186 14690 15526  11 6828 10911  647 9420 11039  2489 9056 11621  861 12618 15225  6051 12291 15102  2138 5755 9971  2138 6971 10979  3208 7944 8404  2170 6231 14554  6230 14001 14630  3680 9203 10118  3218 7610 9638  3356 9061 9062  3275 9718 10668  867 5137 9807  1926 5867 7480  868 7146 13953  2771 5616 9372  749 6442 6443  2244 7668 14313  1740 6740 6741  629 6740 7420  2542 6779 11060  1372 5098 6779  3054 6398 11263  872 7888 7889  4044 11586 11730  4712 10754 15252  874 7152 11127  1557 4643 14504  1979 8277 15196  875 6221 8490  3713 5610 11480  978 6218 12014  452 5902 6301  2004 6710 11979  659 7959 10734  2895 7003 8354  1791 7061 10402  75 4637 8502  880 5517 15603  3293 12791 12891  1958 6997 13785  882 4642 9771  92 8210 10344  882 7929 9532  2005 6922 6923  3358 6597 8662  2943 4469 9306  5446 9621 14657  5650 8601 9360  5758 11258 12967  1257 6245 13176  2163 7913 13716  5245 8123 9407  887 10243 13982  3462 9177 13649  3978 15391 15392  4215 4858 15336  1739 4410 7653  1827 6732 7174  509 6727 13811  1989 6546 9489  1395 5168 5326  2363 5898 7748  1772 6504 13258  2979 9316 13028  3139 6684 11262  1393 4878 6799  894 6725 10972  1254 9380 15671  2499 8268 8271  6850 8145 14820  4478 7238 11046  5414 14393 15439  3847 12748 15088  1674 6601 14800  5934 8819 10255  2942 11136 11138  1931 6914 12664  2608 6360 8527  1202 6321 13802  2763 8847 10717  3373 8847 15734  4591 14939 15471  2111 4950 9892  3395 9365 12701  5526 8430 9377  3523 7496 11549  113 13288 15189  417 6249 11182  1573 4340 6380  1717 6795 13663  1784 6714 13565  418 11232 12538  1576 5934 8819  3657 8214 8858  2497 7819 9699  1994 7103 11847  2773 10413 14570  2603 4889 7133  3987 7301 15261  2492 9255 14649  2207 8321 13552  4933 8392 13161  3896 14795 14891  3546 6609 13710  913 8974 13787  2363 9250 14043  292 6874 13329  3838 8297 8298  2856 6310 13681  3041 4349 8439  1572 6437 11829  917 7341 8070  3576 5009 13629  918 5464 9215  5629 12595 13296  3292 9469 15179  919 8676 12493  2499 8271 8325  3095 5493 7447  921 4352 7013  2326 9157 14824  4828 10409 14220  742 9030 10844  9265 9547 11381  1725 4866 6904  558 7941 15510  3338 5480 7422  2953 6855 6856  3190 5648 10095  2187 8046 13200  959 9423 14407  2443 6767 12232  6756 9340 12247  3696 5012 12049  3428 4259 6735  3388 10227 14281  8982 13230 14041  3053 11817 14464  3293 5125 13682  1313 7751 12313  931 8501 12055  4025 11584 15749  932 7362 10311  2018 13040 14718  2785 5993 12705  934 9306 12921  3352 6620 6930  3739 14439 14441  3309 11113 15671  3581 12695 13865  1428 5389 6233  3571 13436 13437  2957 11109 11110  2123 8160 15543  1996 7810 8134  2908 10289 11100  1910 4775 9606  5672 10183 11692  3849 9293 13781  3601 9899 14797  3114 4938 9105  308 5725 6658  1281 4875 4876  3329 4399 6258  2498 6862 11248  2450 7055 7996  6119 14296 14297  1563 8107 14296  1904 7227 12424  3875 8147 15183  4035 7215 11351  948 6945 14167  1527 5953 7784  2495 4511 9681  1083 8574 14812  755 5415 11084  244 12595 13697  951 7210 10163  539 5574 9600  2286 5574 12075  6112 11105 14591  3472 4929 12372  1990 7329 9478  954 7852 14898  3121 8796 12661  1973 4646 9614  3865 6130 14962  6027 12310 14947  3117 12074 12341  1789 15496 15602  124 6988 10193  4418 11955 15385  970 11090 14394  3592 9423 10196  5308 11120 13299  7046 14289 15147  95 10131 12127  3828 7142 11126  125 6567 13981  1194 7635 9974  1761 4262 9282  9282 13066 13507  3849 13780 13781  6352 14939 15471  3329 4399 12405  144 11808 12405  4750 8023 12433  1239 9002 9003  3368 5944 10923  3543 7787 11226  3668 7545 11040  3996 11362 13213  733 5525 10359  969 8941 13257  1107 6034 10836  2979 9940 13130  2064 4064 7801  1061 7766 10172  1373 11774 12862  972 12863 14030  2842 5797 13740  973 7225 13841  974 6055 13655  4568 8888 10428  975 5537 8073  975 7294 7508  237 13459 15650  5821 9743 12500  560 6768 9518  5330 5449 12143  4891 9930 14949  978 9236 12014  489 7250 9658  224 5762 6982  3101 7158 14198  3343 5689 11718  3646 6820 8866  256 7464 9332  1431 5334 6796  982 9371 9640  1928 11925 13291  2924 9222 10036  4319 8843 11075  1224 5702 11181  2456 9229 9231  3418 9230 11616  5068 14103 15637  4333 8449 12670  1773 12754 14418  3591 8030 9154  3454 7209 10653  3892 7207 13872  1927 4934 7411  1060 4231 8530  2580 7439 8396  2178 6629 11415  2939 4136 8882  6703 10755 15613  3186 4683 13080  992 4722 9118  1753 6114 10963  1945 4254 8457  1931 10177 12221  3784 6949 11350  2772 6039 14402  995 6039 14402  3823 9540 14987  996 7601 15057  3013 5822 14088  664 9760 11198  1044 7756 15454  261 7117 15028  3792 7568 14695  1002 7582 15016  5594 10106 11863  899 9396 13635  1942 8956 14997  7566 14808 15063  2370 4569 8886  1934 7575 15054  1746 6470 10998  1023 9067 13680  621 5184 8081  83 6375 14084  2743 10431 10604  3287 12485 13821  101 9271 9856  1585 13149 15146  1468 5329 10631  2084 7247 11617  6730 14738 14928  2893 10268 10270  515 7517 7519  1965 5065 7517  3934 8791 12504  784 11291 12931  2490 7302 8013  2989 6163 14524  539 7713 9600  1589 5574 7452  7409 9291 12028  2451 5043 9644  439 4356 13270  4355 12387 13012  4111 10329 13155  3265 9392 13505  1701 5771 13754  5771 8719 13754  2336 10574 14486  650 9497 15591  6488 11610 15410  341 10795 11609  4538 9831 13841  4097 7387 15124  5247 10394 11454  6073 7107 10741  2370 4569 8887  2904 6073 10741  3804 11130 11154  2261 4994 7937  4235 11354 13707  1534 5547 15337  1068 4081 6826  1026 7693 15415  286 4935 9516  3770 11267 14635  1994 4485 11537  1168 10672 12319  1168 9191 11044  466 9682 11591  357 9313 10338  1642 5924 8558  1092 8663 10860  270 7987 14546  526 7985 14647  1117 4271 11490  3853 5937 6814  1654 5877 5878  7083 13309 15091  225 7273 15330  1600 4654 5169  3386 10828 11065  3386 11833 11916  1823 4295 14373  4295 11960 14211  1037 8613 12293  280 6499 12179  1917 6559 6560  2554 5759 7609  1039 7252 14151  1039 5393 14140  4899 13348 13849  1977 6477 6858  2217 7420 7421  3927 6805 15402  384 6522 11857  1042 9862 11976  1530 4186 6724  2526 6184 9652  3910 8286 15725  1044 7365 14729  1630 5235 6343  4111 9535 13155  3493 6187 8577  4826 8049 13408  4421 9931 13088  550 8183 9932  4094 7978 11398  2073 6242 6243  2537 7137 7161  1707 6450 6451  588 4979 8720  138 4301 7831  1051 8778 8781  1051 8781 9918  3383 10957 11006  1790 5680 7777  3719 13608 13609  4710 5058 9343  3718 7662 11086  328 10816 12228  2509 9032 15366  2320 4972 8235  6216 6498 10857  4159 7810 14714  1657 4189 7639  1086 9008 11126  3975 6264 14043  3221 10983 10984  1577 5750 14604  1059 7662 8647  503 7567 14886  5439 7410 13942  1526 4855 10241  2243 8798 14254  4728 8989 10952  3212 8269 8270  4096 8694 9133  4359 14404 15458  470 5992 6159  127 9134 15694  4891 13490 14949  6053 13490 14949  320 8324 10220  4312 6070 10370  5607 8024 14973  506 4581 8444  1069 7206 7949  1025 4975 12914  1828 4935 7206  4769 8378 8526  5281 9089 9248  2894 7533 14320  147 5202 8757  1609 10727 14588  3699 7335 8007  3699 7335 12591  4648 12397 13481  2175 7460 7779  3274 7523 12274  1208 7129 12273  594 7503 11541  1075 8003 9749  5584 9712 13112  1559 4837 4838  3091 7118 10675  4573 9268 9925  1763 7994 15326  3887 6160 9543  4229 7010 11997  1114 4230 8289  1080 11760 14157  1080 8787 12463  2137 4795 14294  1081 5043 6553  3988 5929 9879  3589 6898 12316  2836 6003 9563  4135 7980 9802  2380 9355 12069  1809 10343 11747  3402 6555 11868  3632 8020 9067  723 6686 13335  1681 12326 13839  3589 10305 12317  3425 4819 8165  2523 8723 12983  3890 9732 12681  3722 14662 15251  8358 9735 13912  4956 9296 12191  285 14273 14662  1762 6890 12137  4001 15099 15372  1642 5925 8558  2026 7442 14201  3707 7755 14568  1093 8898 15083  3070 7535 7536  3948 7163 13822  1884 6471 13908  1982 5558 6306  1096 10380 13512  143 5158 9962  716 5217 10310  146 4109 7213  2404 6621 7715  2131 4177 8366  582 6870 11918  1552 5741 8627  2846 10737 10738  1100 6341 13632  229 6572 9190  5222 7922 9278  3933 9670 13191  1603 7204 14838  2315 8551 8677  4266 8693 12645  3362 13158 14066  4015 10975 10977  1802 6966 13634  2679 4138 10806  3754 9546 10164  3243 11195 11567  3139 6833 10358  842 7683 8395  1108 8911 10655  1493 10654 14618  4466 6972 13410  5831 8845 14910  1778 5291 5701  1110 12226 13482  311 9230 14825  4216 6622 10861  5979 12382 13683  2250 5778 9490  2279 9512 13852  1113 11780 15353  1489 5581 10240  3085 10777 10778  2300 8414 15100  4534 14461 14462  2184 6733 6925  4274 8121 15498  7879 7880 15619  2023 7355 7879  6792 13356 15125  1959 4854 6633  3135 12135 13850  2104 9846 13395  615 5889 10709  1120 9113 10923  2024 4303 8096  269 8281 9262  2908 6035 9622  4169 11876 15527  2049 6048 11879  6116 7724 14424  4359 14404 14405  3737 5919 14514  1125 6193 14133  1310 12451 12940  623 4702 7749  1310 8603 12451  414 8969 11510  551 6869 9642  3973 11639 12271  620 4835 9399  4694 12597 12992  5876 7397 14507  512 4085 4922  2109 5066 7652  3114 4938 11878  3748 8078 9098  4600 14500 14501  5676 9294 12356  2641 4299 10034  4063 7903 14626  593 8649 8651  5039 8650 9744  4841 8219 11641  3918 7514 13351  715 5635 11359  2324 7688 8308  9573 11759 14123  1138 4318 8758  3992 6333 15320  1176 4908 9978  1551 13656 15283  8 6863 11071  2196 5768 6905  36 4392 12860  3991 5641 13328  567 6739 15578  1143 10372 10374  5796 7708 10374  4444 7627 10111  2197 7627 10111  1145 10261 11762  3077 6548 7811  489 5049 13534  3081 9658 11324  2049 6811 15592  6888 13983 13984  1405 4747 5411  1148 4747 9223  2116 13692 14826  1149 4283 7021  4262 13065 13066  3090 6057 6676  1151 4488 6940  4488 6940 8605  4374 13639 14643  1152 4375 8353  3947 6389 11954  120 8398 10777  9786 11519 15321  4829 9786 15197  4502 12959 13615  3087 5319 6933  3528 10684 14547  7685 10627 13935  804 5194 6835  2773 10413 14634  2009 6125 8877  2958 9883 9884  1616 11679 14119  3507 10608 10775  678 4636 10429  3072 9581 11782  1162 8645 15771  1972 4731 9845  4512 6144 12794  1430 12794 13242  1165 4555 10687  317 5598 10299  2166 6487 9642  551 9642 11211  4595 12226 13482  247 7870 8193  329 12320 15261  3202 4440 11912  2411 8940 8942  4072 8031 11880  2333 13642 15549  6362 7430 10030  4784 10834 12795  4784 8190 10834  2126 4525 8959  1251 9410 12246  1173 5153 10842  7960 10055 14696  1562 7319 15593  1585 5901 7781  302 4272 7405  1175 4273 8201  4594 8428 11464  2442 8839 14734  1695 9490 13889  255 7428 9292  2017 7905 12850  4535 9575 9737  10060 12578 13719  2615 10059 10060  2098 4037 8040  1039 7183 13750  5693 7135 14446  1181 8214 8858  4153 8403 11098  4342 9001 11646  2147 7832 13041  1184 9599 10736  3771 11413 13911  6005 10980 14567  2940 5790 11327  1186 7678 13988  1593 6220 11623  1187 4550 9260  4811 10250 11522  6271 13197 15381  2388 9293 13781  2762 6352 11772  2312 4457 4740  4458 6666 8440  1866 5624 12736  4257 9724 12735  3144 6011 12414  4237 8484 8628  1193 4473 7258  3645 13976 13977  6568 9337 14652  327 8399 10767  166 6934 14072  4673 8399 10767  1777 6481 8977  1777 5931 10331  5140 12301 13108  322 7100 8272  3814 11754 15006  1198 4631 9740  1471 4543 14724  1199 8264 14723  677 5883 11588  1878 6871 8154  412 8339 13919  1203 4330 4331  5228 7713 9600  2914 6645 12175  1204 5455 13870  4644 10147 12322  1205 10282 12080  2311 4680 9012  1500 6181 8760  2306 6642 8884  4377 10038 14856  3229 11554 12600  358 9042 12458  1209 4726 10646  4417 8567 13701  3186 11864 13080  3647 6277 6536  4346 11378 13671  1212 7114 10422  2783 10422 15688  3669 6466 13497  2740 9381 13255  2740 4426 6260  1569 6157 14497  1810 6538 11423  1215 4465 6755  1868 5491 6529  208 8068 11438  2973 8225 11558  1521 4698 8225  4698 8282 14726  4434 7932 12899  4435 11612 11613  653 7402 9867  4343 14114 14115  1040 6858 14611  3588 6613 11808  3089 7044 11063  4827 14428 15588  2324 7526 8309  4762 8464 15075  5761 10795 15348  245 5830 8622  4319 5185 11408  2439 9591 13214  3150 11182 14515  1900 8761 15634  7277 14488 15134  2410 5814 5886  2410 8728 9824  3509 5534 10935  1845 8503 12363  3540 11629 11630  3973 7098 12271  2584 7461 11595  155 10605 15142  3254 6279 12373  2895 11177 11178  587 6891 13114  107 8105 9730  6089 11656 14499  3553 6663 11183  2636 4611 10112  1235 4419 9078  3034 5194 5559  1236 4657 15712  4376 7885 13895  2634 5562 10362  4545 12474 13466  3301 12277 15238  2314 7835 7836  3448 6637 13558  3607 8320 8321  4177 10380 10805  4765 10853 11117  5991 11179 14961  1242 4833 9584  50 5930 6446  1904 6227 6667  3989 10162 13487  3989 13487 15504  6758 8839 14734  1245 9875 9879  1867 4656 11752  2044 4745 11826  2743 6821 10431  2044 7325 11826  3047 11129 11638  2179 5951 13330  2179 4623 5029  3379 12096 12903  1250 8565 11905  3971 7886 9741  4267 9410 12246  840 6900 13561  1252 4701 6378  2171 8518 14860  3580 13303 14958  5493 7447 10066  349 4448 8589  2564 6514 6896  1526 10241 14367  3550 10241 15377  774 4661 5000  3752 6245 13176  1258 6251 12263  62 4494 11987  462 4585 7558  959 4584 14180  1260 9536 15347  1747 5797 11993  3512 9240 14175  1263 10186 12059  778 6295 12909  778 6285 11147  1263 10186 10191  4864 10186 12059  2875 7132 14497  2239 8689 14830  2591 10062 15524  2591 10061 10063  68 4309 5289  3969 6761 9992  4147 8437 11690  3630 8437 11690  2094 5815 5816  5815 5816 14262  1276 4367 10204  2519 9129 10203  1270 13056 15432  5777 10629 14870  2884 5036 11009  3377 6043 13126  5347 8730 10009  2226 8343 9227  402 4716 7772  2403 4716 7772  4754 9163 11076  3165 8772 11076  2367 8639 15419  4367 10203 10204  2587 10102 10202  2874 7132 11145  5575 8260 8829  3237 5895 12628  2645 5479 10408  7029 9175 13723  3196 11432 11434  3330 5541 12129  1281 8908 10852  2194 7636 8100  639 4940 6236  4364 7665 9116  1283 11649 11899  1284 12123 14498  1685 6694 6695  2976 6000 8607  794 6412 6609  5020 11064 14119  1898 7028 13805  2729 10583 10584  1288 9467 9470  2113 7771 13502  1954 7650 7651  1916 4771 9202  3576 5009 9717  1290 9717 12316  1415 11963 15571  3920 11458 13556  4558 8681 8985  2382 8681 8985  65 4403 8207  2278 8505 11927  5301 7366 11471  579 5766 8008  499 4943 13830  1295 4945 11096  2897 5838 11801  1296 4782 8259  4971 9602 12051  3590 4971 10082  127 4818 6964  3747 4818 14614  2240 7383 7384  1894 7209 10653  10114 14565 14566  2395 9384 9385  5672 8629 11692  1301 5865 7242  399 5387 11892  1302 4214 9147  3084 4866 8248  889 9181 11583  3155 5478 11787  6692 10712 13533  544 14969 14982  2252 5109 8700  6809 7504 15647  498 6092 13086  1644 6091 9556  3644 7477 13806  2153 4758 9910  2646 7342 11175  2145 6851 7459  4183 10315 12940  1310 4702 8603  4327 5146 8917  3348 8088 11874  1312 7680 10597  1312 5058 8634  2968 8500 13318  2968 7751 13318  3397 13204 13205  904 13206 13287  2317 4954 6455  2717 5261 11027  267 5223 8726  1316 4537 4976  1317 4335 8411  1336 7248 9847  5383 9224 15559  170 9224 15559  1962 4981 5473  559 5473 7009  356 5894 7699  721 6664 12671  4986 4987 12450  2654 6806 9739  2654 4834 5069  2069 5540 12063  530 5177 5384  2376 5383 9224  291 9314 10216  4660 7326 12151  1325 9446 12428  2533 9784 13756  2532 5039 9744  2967 6935 15573  4279 6749 14071  796 5079 9761  126 13389 15492  3284 6783 11924  2892 6590 10633  1736 4575 11552  2964 4353 11475  4353 11475 15089  716 4049 6072  43 5660 12443  3918 7514 10723  4820 8810 14095  2329 5893 7321  571 4957 13009  3689 6430 13765  1335 4957 9080  2229 9847 11293  7248 9847 11293  1337 13367 13896  2582 5231 9313  1338 5241 10677  496 4297 8267  5940 8234 11716  2601 6729 10188  2145 4801 11342  1790 7031 12690  1341 7951 12795  6495 9026 13882  625 9026 13882  181 7637 11392  1074 6780 11554  7535 11578 14867  3307 7780 9619  2161 7494 11108  5239 11483 11655  591 4267 8252  2065 8252 9583  4376 7885 13896  2770 5374 10740  1361 5603 11242  810 9693 11531  4407 6025 10288  2624 9311 10335  1350 10430 11587  5206 13276 13779  3094 5180 5204  1566 4308 6030  1353 4436 13119  2978 11485 11486  688 5740 11484  3510 8690 15182  3726 7225 10391  3920 15349 15350  1356 6915 8320  4310 6673 13115  514 4776 8697  1709 5696 9719  924 8055 11904  3338 8397 11407  4404 14095 14096  4960 8310 12400  4959 13894 14833  1618 6364 12759  2770 5603 10788  2295 8217 12750  1362 9284 9610  1905 9261 15625  5225 7259 8166  1674 14800 15168  3222 7805 12471  4262 9282 13066  1365 4947 7080  4162 15687 15688  7016 12780 14760  4462 7830 14701  1367 4955 10987  6279 9813 12373  2744 8939 10622  746 4454 9454  1369 9683 13117  1370 7694 14700  2753 5658 14127  2055 4460 7869  5053 14606 14966  2542 5863 10937  4363 9184 15237  1231 7911 8795  2584 7461 10158  3286 5367 7338  4363 10642 10643  129 6556 12624  3690 14555 14556  850 7093 9277  4362 5969 15078  817 11931 11970  3241 10944 11252  5466 11970 14940  4250 5585 9496  5265 9570 11222  5265 9570 14917  2888 4412 11171  3112 11981 11982  2058 5596 7618  1872 5409 11678  3368 12621 14352  3468 5116 12699  4128 9046 10922  3368 9046 10922  21 5706 13234  2869 5661 11106  3167 6801 12567  5380 10113 12037  1964 5300 7849  1386 8859 10019  1458 5708 9183  1458 4681 5707  2078 12985 13435  3312 6887 11842  3869 5847 8374  354 8345 13062  2472 5345 13173  2472 5347 11403  2524 4485 9324  1391 4768 5640  2946 10919 10920  1392 10918 12828  1948 7510 14839  4878 6799 7509  1394 5402 11763  374 4966 7656  5632 12005 12203  376 8698 14207  1858 6722 11586  2249 5955 7769  1005 9302 15104  142 4812 13844  1729 6247 9319  1729 5285 15398  5692 11035 15703  1399 11571 12485  119 5867 8600  4891 13490 13675  158 4692 10135  379 5475 11966  2544 9785 15304  2293 8057 14632  6589 11969 11971  1403 5941 12525  94 7360 9641  5461 7099 11824  3042 4797 5413  1405 4747 5412  2740 6260 11502  2741 5528 10170  3968 13378 13379  1461 5728 13823  2419 5889 13355  2492 5275 8028  4616 6568 9337  3090 6520 11865  1411 9178 13247  2154 5340 9142  3321 5341 12237  1411 8175 12974  3433 6317 6491  1412 10840 14215  732 5514 12878  394 12418 15350  4751 7034 12432  3343 7170 8838  87 9515 11325  1417 12280 14121  1418 15300 15472  1418 7306 15300  1956 7306 15600  1956 9025 10682  3302 9427 11362  437 4643 5363  4598 10932 11087  1525 5201 7907  1421 5203 5737  1422 5416 10823  986 9279 12694  1559 5902 7195  3080 11895 11986  1808 5262 7969  887 7921 10243  4367 9129 10203  3850 5554 9203  4081 6826 7069  5040 6444 10397  3574 9400 12096  298 9983 10960  2975 11512 11572  2771 9807 11512  1483 5907 7218  609 5556 6984  1897 6409 12672  1431 5544 8172  4256 9073 13343  459 13495 13961  2278 8504 8505  381 8899 12148  1353 13119 13120  3499 6315 13606  1435 4651 14055  1484 4843 8219  4249 8980 13855  1436 11568 12913  738 7229 9790  1431 5334 5434  3159 11704 13651  385 6849 12244  4995 7185 13234  1439 12933 13677  782 6368 8723  4089 8316 10418  2471 5636 9586  1788 6259 13320  2136 8288 8824  1442 3998 5576  353 4047 11275  1443 13398 15396  1444 6614 12185  152 4473 12187  4536 6173 8443  2733 5617 10601  2871 7295 8952  2397 8953 11250  4627 11132 14759  1554 15079 15312  3661 13989 15079  4404 12856 14095  943 13059 14924  3114 6659 11878  1843 8872 10646  4724 11720 14217  773 6176 6177  5774 11755 11756  3306 6436 12766  3763 12864 14242  1452 10590 15642  4718 7510 14370  6689 15643 15644  4178 7059 12956  1698 6612 13158  4906 8473 15365  3239 8569 11643  1457 5464 10263  2812 5509 10914  2011 5294 12547  5709 11340 12402  3177 7166 10854  5309 6472 10159  1460 5829 9123  378 13378 14092  209 5728 11581  1461 5729 12510  383 9877 10058  2312 5795 10637  1769 8061 13007  3432 9944 15065  2422 4730 6976  1464 7014 12484  1638 6447 10974  3781 14655 15482  1467 13011 13012  1467 13010 13011  4914 5329 12154  5329 12154 15096  2992 6385 11532  810 11531 11532  2794 6165 9737  1901 4314 15735  2366 5318 12465  3645 7417 14365  4017 8473 15365  1067 11645 15364  2581 7446 9465  1475 5764 10647  5353 8224 15565  2747 8801 9742  1368 6146 9829  2077 9813 12373  1476 4929 6466  1569 7132 14497  3593 5187 5189  2957 11111 13327  3325 8200 8972  1478 5826 10809  811 9776 15426  1570 7244 13043  3163 6782 11886  3088 11999 14299  7373 12556 13303  1481 7373 13465  1482 11944 12695  1482 5915 11245  6007 13759 13760  491 5951 13467  941 5672 11640  4842 8701 14776  3208 8404 8878  1486 6462 6463  2656 6110 14206  1487 5930 9276  2652 9275 9276  1466 6784 8173  673 6784 8173  3371 5555 10152  419 5932 6481  1913 7136 11825  4154 9880 11635  2833 10889 10890  7096 12665 12908  2279 8034 12852  3186 9023 11864  2337 11536 11625  3413 10654 10655  1494 9044 15751  3773 7834 9545  3149 8592 10419  6068 9182 13744  5629 10126 14281  1496 5284 6627  5386 10877 11528  1497 10877 11528  400 4858 15336  1498 5975 12452  2580 7439 13295  5967 8001 9991  602 4715 9028  491 5626 8220  3353 7081 12942  77 4605 5491  396 12601 13712  1503 8053 15435  2525 7924 14899  3459 4620 7924  408 5469 7234  408 5469 6093  150 5285 9068  6093 7644 11900  5370 10600 14963  295 5962 8482  1508 5527 11279  1508 5527 6342  4414 14703 14704  5641 10015 13328  2530 5145 10420  4630 9800 10709  1511 5889 13355  4105 14749 14750  2559 6029 12787  1513 5859 14826  2007 7696 15260  546 4765 5549  6246 14248 14782  1515 4350 6708  1515 5428 10638  315 5839 5852  1516 5840 9582  3953 5582 7175  401 4292 7732  924 8971 13520  2293 8057 10133  647 7372 13526  1519 5564 7136  988 5322 12677  5016 12360 14691  2296 6603 8256  1216 7143 8256  1699 8353 13618  1152 8353 14642  667 9546 10164  2594 6337 8578  2819 10897 14224  1634 6491 13147  8495 11806 15706  1526 4855 7375  3002 8571 12419  1797 6316 12717  4353 7024 12717  6204 13974 15496  2790 5266 10634  3976 14505 15344  1753 6114 8559  1043 4186 8418  769 6098 6998  904 4548 8626  5911 13204 13205  3888 8717 15340  3240 11287 11288  2100 5307 6842  960 5873 8789  4641 9457 12774  703 13888 15380  3377 6043 6079  2648 8199 12848  1536 5995 13265  3714 5353 10006  1537 13127 13201  411 6043 10651  1014 7632 11517  1014 5923 11155  3177 8206 9487  1539 5382 6183  5147 11796 12549  174 12149 14452  143 4179 5959  1541 6123 9664  3625 11508 13587  1542 12826 14348  2780 6614 12530  5449 8751 11491  2745 5175 7992  5192 10053 15446  1105 4018 5842  4490 5651 15604  741 6077 13601  1546 6076 13203  1547 7033 14902  2066 8425 13991  664 5822 14088  1548 11657 15095  974 9573 11759  117 4213 11957  4686 9438 13504  4369 4686 15284  2764 5167 11929  1140 6968 11929  5395 9022 13940  1552 8627 12339  5490 11593 12726  513 5303 7968  1554 5875 9572  2191 8594 14260  4954 6455 10796  1555 6142 13795  1168 4534 14461  389 7071 13362  5318 15754 15755  1557 4643 5363  2004 5902 7195  4837 6479 9045  1559 4838 7833  2114 5691 13223  1560 5015 6195  1561 6121 9565  1561 4719 6121  611 6013 15533  4084 7319 15593  2010 5809 14298  6119 8107 14296  5877 5878 15748  3431 8637 13321  1565 5607 14974  4252 5607 14973  1100 10739 12544  4245 4675 11384  2060 5915 11245  1567 6204 13974  6208 7785 9679  1988 6435 6475  347 6420 13048  1569 6157 11011  3234 12617 12620  2543 7244 8620  1723 7111 15239  3915 11236 11913  1572 5628 11829  2439 4340 9107  239 6433 6713  3492 9851 12548  3380 4409 12538  3421 11121 12935  3649 6249 8022  6226 12935 13361  3422 6702 13359  3326 7934 10789  5750 7434 14604  3884 9955 10205  3516 13701 13702  17 6985 8566  2431 7935 8416  2498 6862 10947  3213 11516 15342  3781 11517 15342  365 10951 15107  4429 10950 10951  5224 12207 12703  3529 6590 12855  575 8167 9156  300 10092 15605  5901 14945 14946  2426 7700 11687  6554 9236 12014  2526 9122 9930  1586 6052 15704  853 8151 8152  3033 8152 8153  2476 7884 9309  2087 4315 8947  1589 5574 12075  4855 9458 11370  799 6277 6536  877 7008 9699  2452 5179 9832  3226 5264 5328  4328 14703 14704  856 6679 12305  3224 6631 7744  3897 12243 13555  4551 6169 12243  3112 5720 11983  3112 9435 11981  3395 8753 8754  170 5526 9377  3842 7385 9021  795 6353 13714  727 6284 11628  3246 6284 12555  2830 6115 10347  1599 6792 10347  733 8631 10359  797 10807 10808  3663 6995 8447  1601 5567 14483  819 10279 11799  3045 4721 11197  416 6121 7798  3959 7204 14684  4477 11593 12726  776 4937 15151  1605 5435 7551  1605 7551 12146  2966 6953 7971  7032 13206 13287  2970 9359 14489  792 9359 14489  1608 5293 6391  758 6012 7281  556 13890 14690  4011 9085 12963  5012 7144 12049  326 13282 13294  1612 11692 15537  5672 10183 14252  307 13800 15087  942 14107 14109  3601 7377 7378  3975 5538 14044  1614 11334 13369  1090 8340 12234  3862 11717 13955  3504 8610 13244  794 10690 13245  5366 11814 13110  3504 11679 12982  670 5603 10788  2633 4749 9856  7165 13829 13993  2948 7960 10055  443 7095 13828  443 4517 5150  71 7516 12866  2209 8421 9662  551 5523 9414  899 6021 13681  2737 6819 10612  2737 6489 14896  3757 10122 11094  2251 6953 7971  1048 6951 9995  460 12092 15078  3137 5321 10965  3281 6460 13439  4895 9526 10793  3715 5794 14596  3659 6026 13030  3659 5711 7657  2553 6175 9280  754 6688 8357  4930 6135 12478  1630 14400 15068  5849 10645 11728  6501 7241 14225  578 5767 10729  3840 6255 13020  1633 6319 8765  3934 7804 12504  883 7256 15664  3433 8188 14582  3435 8837 10711  6322 8049 13408  1340 10360 10865  2813 10863 10864  871 5098 12236  2107 5228 7713  617 6447 10085  329 11912 12320  1041 15236 15402  66 4284 9269  2428 7159 7160  1640 11680 14429  2337 5879 9872  5878 11318 15748  1642 4603 12951  5925 13353 14201  5050 13063 14603  1643 4130 7738  1644 4984 8996  1644 6092 8996  518 6541 12637  2355 8015 9301  6339 12183 13928  3498 6340 6341  1131 7901 9541  1647 6393 12393  6104 13658 13921  314 7033 9808  2870 10695 14460  1745 5913 10771  534 4265 5519  1650 5790 11327  2569 4608 5972  4256 13343 13344  1258 7823 11214  8278 12215 15277  3442 6875 13709  1653 6572 13727  5877 14168 15360  4142 15529 15611  2356 9304 13250  3059 9287 11751  2823 6449 14408  2823 7773 14408  1657 5621 6174  3489 12344 12345  746 6619 14050  6619 13808 14050  828 7849 12567  828 5300 7849  1660 8680 14235  1909 6516 14269  2599 5943 6641  3385 12761 15766  901 5359 9567  8 4370 9562  6085 15520 15548  1663 6085 15520  3455 4940 6236  4258 8127 15163  3077 8601 11761  1955 11487 14746  2223 8652 9391  3369 11160 14799  3242 12586 12968  6247 9319 14834  1668 12779 12781  3278 7146 12781  978 9236 11889  433 13427 14275  6386 6707 13151  3360 6386 12707  3444 6376 6470  3152 11176 12193  4625 5563 9179  5089 13032 14061  8485 13133 15346  5563 12656 13869  898 8593 11164  3204 8593 8994  2303 4746 5312  3113 10090 11552  913 6413 11231  2983 11437 14743  5825 8571 11669  1947 5588 8635  1678 6533 9788  2983 9327 9788  4656 9704 11752  3184 4932 11753  2118 8323 10948  4600 12582 12584  1681 6686 9668  2652 9275 11828  3939 6009 6705  1682 4068 7113  8 11071 13810  1683 6599 12253  4572 15634 15635  1900 6885 9477  345 4860 6694  2150 6696 11072  2364 4122 8822  2138 5755 6551  2163 5441 7913  1687 5001 5002  3015 11737 11738  6358 11738 12642  938 11109 13679  3594 11109 13679  1690 6427 11110  1690 5246 6428  3211 6251 8218  1691 5531 7334  9345 14115 14302  4344 7151 11819  3606 13859 13860  1852 6576 14171  6138 13776 13777  16 4741 8970  2250 8773 9490  4325 8582 14964  3201 5979 12348  5979 7999 11424  4192 7213 12281  716 4766 10246  1698 13158 15626  1095 7059 15627  1699 6187 8577  2192 8577 13277  3534 9186 12958  3534 9186 12796  1779 6011 12414  1016 5668 10792  2565 6984 11357  1702 6756 9340  795 6353 6764  4199 6763 8143  8115 15114 15746  1601 5568 7251  368 5075 10444  1705 7637 7638  834 5710 9689  1706 6999 13081  1707 6451 6452  216 7290 7486  2201 11382 14007  1708 4312 6070  1377 4088 5400  5398 9719 13514  379 5141 6643  3283 5475 6643  5447 5692 9834  1399 5324 8032  717 6979 8196  1712 6761 9992  1470 12927 13510  486 4535 9575  1714 6336 6348  5262 10251 11272  1715 6803 6804  2962 6803 15395  4987 8359 13897  1716 4820 8810  6795 13238 13663  3553 6795 10609  5404 5454 8446  987 9342 10619  2985 11395 11396  2932 7407 11375  921 7013 7345  2765 9157 14824  6231 14554 14754  775 7845 8181  3706 7755 15083  1722 4427 5003  2754 7111 15522  2754 7111 10697  4846 13434 14544  2358 10594 13434  1825 7193 14471  889 4866 6904  4091 5443 11070  1726 6780 12600  2402 7409 9291  4380 13935 13937  1728 6855 6856  2953 8709 12565  1757 6356 15397  422 6860 11804  2466 4773 14640  295 5962 11909  4332 6562 15620  1731 12731 14955  1204 4556 5112  1732 6646 14686  2628 9342 10966  511 4366 7331  2143 7920 10280  2143 7920 10101  2400 9296 12191  14 9923 15231  4596 4746 9048  1067 4016 9090  234 5607 8024  4136 9104 13568  1738 6777 14651  3083 9265 11381  1739 6848 11232  253 11560 12255  3272 6742 8687  3312 11842 12985  786 6519 13332  1742 4470 6223  1743 5863 7370  902 12413 15188  401 7732 15587  1744 12259 13450  1762 6891 13783  1745 5913 11457  730 6376 6470  1746 6469 10091  4703 9726 11646  6681 8910 9726  4700 8633 10099  2340 8464 15266  481 4748 12743  658 8916 9189  7710 11697 13524  1750 6900 13524  6913 10226 10628  3103 8722 12849  6946 12205 15184  268 4794 10656  2945 10962 14505  1915 5666 5765  4341 11955 15385  3671 8010 10153  10153 12264 13968  1755 8010 10153  1756 8047 14004  65 4403 9244  1729 6356 15398  6356 8069 12138  24 10102 12891  2845 6944 11264  4455 6586 13195  294 9453 10663  4455 13195 13196  458 6586 15459  3030 5120 11600  458 5504 8079  3255 7931 9289  1091 9289 10751  4684 5511 11906  1078 4684 12675  2573 4383 9825  2923 7085 11311  228 8393 13660  2573 5343 9826  3133 9099 9100  6334 9519 14512  1767 4791 6772  258 5188 11344  2491 9451 9452  2610 6638 7933  735 9451 14392  2609 6202 14608  3516 8162 13702  501 6638 11268  3012 6802 6962  1771 6987 14142  285 7492 14255  6505 9235 10606  3702 7367 7954  1773 12247 14418  3189 5146 8917  3592 13200 15072  3864 6908 6909  4052 8706 8979  1776 14772 15157  6776 13515 15157  3180 4573 12265  1196 4673 10331  3262 8262 15166  534 14292 14605  1875 6666 8440  2504 9146 9828  1274 4754 11076  4238 11839 11942  279 12462 14286  2100 5873 8789  1131 6754 9541  1782 6754 13798  1783 4166 15775  6679 9000 12305  6714 8864 10210  1620 8863 11166  6442 8735 14445  749 6442 8735  4159 8494 14715  3085 10778 14116  2822 4941 6176  1148 4280 7988  1788 6770 13273  5381 12074 12284  1789 5819 12904  1052 11456 14143  1790 9690 12690  4137 7050 7400  1980 4137 7400  470 5992 15458  470 14404 15458  2536 6476 9070  3407 9070 9960  2536 9070 9960  2881 7041 9124  1064 13463 15658  2357 5627 9135  1384 5522 13365  1796 4137 7050  1797 7024 12717  5669 6474 11591  1798 5669 6474  1798 5916 12952  4714 8042 13215  1799 7130 11315  963 13066 13507  3445 5520 11466  2211 7815 7816  5600 7493 11693  1802 5713 5715  1804 5057 5685  2152 8469 11005  7090 8469 11005  1032 9246 10116  4614 13033 15103  2189 7856 13382  523 4843 9907  1853 6789 11706  230 9114 11399  618 5311 5854  1808 5262 10251  4036 12478 14400  3164 5966 11747  1214 4463 8880  6538 11423 15690  1151 4488 9447  1811 6743 13557  7524 9506 15507  481 4488 7853  6326 14341 15485  1813 6099 6327  1048 5799 6951  236 13241 13621  5013 7681 8704  480 7181 7249  2864 9491 9635  2864 6748 8388  2736 10194 13386  1817 6878 8189  3441 5263 8702  3441 5263 11919  212 5559 5560  3034 5332 9386  1707 8029 15246  651 6450 9589  2986 10139 13995  2503 7141 14265  1822 6836 14675  1822 5559 5560  804 11204 14494  1823 4295 5128  1824 6499 7190  3757 6499 12179  890 5615 11894  3551 14396 14471  3199 10264 12445  3199 6727 13475  1173 7207 13872  1827 7458 14477  286 7489 9516  1068 8442 10018  2516 8591 9197  8127 13070 15163  728 7079 14854  1830 6522 7080  1831 14339 14413  474 4616 8045  3548 8036 10151  1832 4616 6568  6467 10706 14060  1974 8045 14046  3655 11018 14362  1834 7210 7211  2372 9063 9064  5538 7872 14044  72 7758 15452  2484 9611 13614  3318 7216 14381  4690 6812 7984  4071 8888 14233  1838 6650 13019  3162 10428 11444  3310 6627 11951  1840 4774 10426  1840 9491 10426  1146 5096 9635  68 4309 8764  8741 11283 15615  537 5414 15439  4726 8872 10646  1074 4251 9358  2802 10409 10410  1844 7254 14736  770 7220 12559  65 14641 15568  5766 8008 13021  159 6113 9824  1847 7124 11540  1847 7123 7125  5362 8094 10125  1848 7239 15195  3179 7286 7287  3179 9007 12018  1163 4389 10195  3203 7181 7249  823 7909 11397  3160 4432 7908  2377 6534 7280  2377 6534 7759  3009 11706 11708  1853 6789 8701  3331 7008 9699  3327 7008 13051  1856 6929 11360  535 5723 5724  3122 10032 15463  2089 8209 13403  1022 8669 11481  1021 8925 11237  1858 6722 8542  1858 7048 13996  207 13906 14480  3677 10784 10941  5494 7838 15607  2170 6231 6955  4792 12864 14242  410 13314 14243  832 7128 8745  87 5355 15263  3778 11910 13676  1863 6820 8866  559 13567 14900  4995 11479 12950  1274 11839 12289  344 4237 8484  4256 11353 11534  3545 5624 12736  1246 5143 9704  3184 9704 11752  2271 4605 6529  4605 5491 6529  6431 6501 13229  1869 5749 7648  1870 13045 13737  3577 7362 15319  719 4864 10352  3749 12295 14261  1872 5409 13669  3882 9936 13669  4613 7702 9349  3131 9349 10856  2214 8574 8575  2576 9096 9097  1190 4457 8329  344 7070 11043  838 5105 10080  2085 9419 9603  1877 5921 6952  484 6820 9544  1099 11174 13064  582 7293 12740  3062 8627 12339  276 5741 8660  2551 7527 12641  1881 6103 15241  212 5560 5561  6102 6103 15241  513 5303 5950  1882 6958 11928  3130 7968 12314  5303 7968 13804  1884 6471 13647  3195 4176 8240  4053 9052 11078  1600 6484 11078  826 7423 15667  1886 7424 15490  1196 5931 14197  1887 6877 10699  3227 7687 10415  1888 6397 12509  3215 9239 10026  1889 7892 10026  3740 6749 14071  5623 6747 12727  8509 14107 14109  3600 8509 14109  2524 4925 9326  2524 4485 9325  1391 8375 14048  3601 7378 14797  580 4918 8568  2777 7445 10653  3210 11103 14576  1895 5249 7310  3646 8866 10132  256 5167 5419  3779 10023 10160  1897 6698 12672  3644 7026 7477  3644 13805 13807  2270 8931 10197  4814 9753 13187  493 7026 7477  5847 8545 14950  1901 6791 13445  1902 4981 5473  1796 7050 8759  1864 6214 15720  152 4473 9697  3308 4835 6227  1904 6946 15184  1121 14954 15250  4005 7927 15610  5316 12280 13813  1419 5536 8889  4129 5881 9797  1907 14129 15340  2281 6100 10613  4033 6578 13579  1230 9606 11731  5677 7667 14393  6253 11283 15615  275 6253 9507  627 7829 14534  2368 9317 15073  484 4318 12403  1913 7372 11825  1914 7500 14552  2459 5820 11774  6949 11430 14510  1915 5765 8016  316 8861 11431  807 8705 11412  25 4401 6000  3075 4221 11952  4106 7263 8326  4106 7263 14848  203 4926 8538  2379 4926 8538  1920 7791 14529  2882 7043 8253  3868 14925 14926  1921 4776 7037  2142 4967 6673  1357 4629 14364  9169 11852 13569  3046 9169 11852  332 8601 9360  822 7839 14636  6608 10068 10909  1925 6608 10068  5616 10742 15084  433 12571 13470  3349 4934 7365  3791 7567 14886  995 6039 6640  1928 9736 13291  3816 7598 15040  1929 7513 7585  3976 7554 10962  1945 7607 15059  2793 6914 12664  3800 12221 13768  999 7579 15062  3804 14808 15063  3798 7598 15023  1933 15022 15050  1970 4945 11096  1295 4943 7054  1836 6948 8525  3361 12750 13171  7762 14992 15455  7589 15000 15048  3807 7608 15460  1937 7762 15451  991 5333 8882  498 6092 7177  989 7410 14765  3820 7595 15024  3813 7606 15005  3814 7600 15037  1198 9083 9149  5746 7570 11667  7580 15021 15051  3815 15016 15060  3818 7597 14990  2772 10020 10703  994 7584 13768  500 5666 9736  2924 9222 10891  4254 8457 10891  3839 4459 12467  4459 7088 12467  793 5586 11400  1947 5586 5587  894 5780 7510  1948 6799 7509  3334 5615 11894  1825 7192 12658  2916 6383 11202  1950 5619 12296  3877 7935 8416  3159 5942 8817  1952 4562 10904  553 4562 10147  2979 7435 9316  323 5748 12043  3383 6032 9949  3383 6032 10957  1325 4774 6821  518 5258 12637  409 5486 7058  2828 7058 14100  1957 7492 12250  3662 12249 12250  1958 6996 8415  3663 7251 8447  4272 7405 8187  4302 7881 13909  2025 5633 11490  516 4854 6792  3456 8133 15523  3959 7542 9886  1903 5960 7009  2050 5960 7467  98 6894 12646  622 5017 10228  515 7519 7940  1964 5300 6124  1008 14928 14931  265 7518 14927  3174 10722 12354  3174 9462 10376  346 4463 8881  1214 7112 12337  2470 5427 11699  4788 7764 12025  2394 5578 8736  2362 5898 7748  2245 7266 7668  23 7266 7668  2325 9294 12356  3370 11399 12441  823 7681 8704  1972 4200 9845  2088 4579 9344  3462 12987 13648  3615 8045 14046  3090 10705 14060  1975 5068 6031  1975 6473 12545  986 4408 12694  1976 7743 10959  1184 4619 8000  1977 6477 6857  2104 5011 9769  1978 7733 11790  4166 8237 9945  7007 10708 13890  75 7507 9263  879 7506 11102  3911 7591 7758  3911 7758 15456  1095 4178 7059  517 6049 13836  2830 4854 6633  5031 10869 10870  3484 6032 12328  2786 8608 8705  2853 5840 9582  2853 9021 9582  2545 6022 9987  1986 9051 13262  6475 9679 14610  7671 12149 14452  6207 7942 10811  2060 6205 14547  3005 5953 7784  1989 6546 10262  2855 7329 15148  1990 7328 14897  120 10777 14199  1991 5042 8390  1993 7622 13602  705 8497 9714  1993 6693 7621  1993 4875 4876  4069 6058 8342  2063 9254 12631  1590 11421 13174  382 7449 13246  3967 7810 8134  3967 8134 8674  1997 7763 15766  5943 6641 13166  1999 6331 7774  1999 7116 8178  4689 7730 12768  2000 6700 9242  2988 8865 10972  2988 8865 10971  167 5715 9484  2002 5715 9484  3342 11239 11899  3342 4951 6745  452 6311 13038  2004 6063 13437  29 6492 14244  798 6919 6921  2006 4230 8289  4717 10777 10778  793 5858 7696  3965 7696 15260  2008 4546 7229  2535 5698 9685  3696 6125 12122  3998 5193 13851  3485 10816 12228  2011 5377 10735  533 4667 7914  3494 7341 8070  2012 4241 7896  4201 7868 14241  2013 6109 7868  4038 4518 14056  783 6050 7308  805 5236 7711  5052 10744 12632  2017 5648 7905  199 5353 7721  642 5107 10054  5856 10626 14238  98 6583 11207  2020 4926 7613  2020 6559 6560  3017 10002 12239  3017 7870 11802  3491 11538 12815  1116 4303 9194  302 7881 13909  2024 4303 9194  525 4303 8096  10116 15291 15293  2025 5633 7880  3922 5924 13499  376 7442 15441  3337 12964 15296  5188 5189 13327  3021 4669 11260  3011 8709 10196  1170 6362 8507  3471 5162 14000  2031 4300 5810  287 9111 10014  4233 5139 9520  2032 4132 7925  3750 7196 8954  2033 4810 11666  2034 4798 11052  1265 4798 12390  2035 6925 9838  527 8121 9180  1055 8235 9866  2502 6701 11358  2037 7989 7990  2037 7989 14288  1077 4737 7118  2124 4145 8429  4043 8968 13003  2039 5288 5899  2040 7453 7985  526 7927 14647  536 5405 11536  1641 5879 9872  3907 5485 7402  3907 7402 14532  1248 4790 10044  576 7764 12025  3391 12216 12217  576 5425 5426  4515 7974 15722  3382 5489 6937  3628 5669 13653  2047 7394 12799  1998 7645 13983  558 6048 10000  3146 6048 11879  977 8906 11507  560 7050 7400  2328 8396 8999  3596 6704 8661  3557 8003 9749  2052 6809 7505  3837 10391 15309  2053 5761 8276  874 8857 12720  3751 7152 8857  247 8532 14633  2055 7870 11802  1070 7912 11177  2056 5364 11711  1848 4289 8094  2057 7137 7161  6862 10910 11248  3882 10910 13668  2148 7618 7619  2148 6400 8249  1482 5914 5915  4868 5659 13259  4362 10167 15078  3244 12092 12660  2768 10665 10666  2062 6626 7788  1374 5367 7338  106 7379 11855  2283 4526 8966  812 4779 9440  1294 6697 13659  314 6104 13182  1303 4491 8203  1303 4491 5010  2009 6125 14980  2915 7512 8400  645 7474 9208  2070 7312 11818  2631 7312 12331  258 6772 12342  2071 9615 15526  411 6079 7455  2072 7549 14564  2073 11122 12481  2178 13304 14300  3774 7232 12900  3774 12901 13143  1483 5906 13431  2075 6007 13759  989 7410 7953  2076 4231 10070  3254 7792 14228  4602 8086 12036  6687 8903 13435  2082 5894 6687  2079 8137 8138  798 6918 6919  3553 13091 13092  2080 10660 13648  2441 6580 8721  4165 8489 9792  2078 12749 12985  356 5894 8412  4524 8068 11438  2296 6603 9300  1007 7247 11432  2854 5997 11380  231 6257 8800  3631 13107 14257  734 7690 7735  2086 7736 8902  2087 7147 14849  539 7147 10314  3121 10681 12661  2088 4579 8179  92 7481 10981  2466 4773 5100  4355 12389 13625  2090 5337 5338  9519 13965 14512  6321 11099 13803  2092 7408 13217  1772 6504 10114  912 8088 11874  5146 11299 13093  2094 10113 12742  2094 5816 12742  780 7352 14791  2956 5612 11184  835 4889 7133  835 7017 7297  3796 14985 14986  6703 14936 15613  1416 7807 14679  318 4037 5460  6668 10754 15252  3285 7338 10644  5308 10022 13299  1533 15215 15216  2101 11049 12421  2101 5575 8260  2361 12916 13452  2103 5407 9221  2801 4828 9029  980 5689 11718  784 6384 7388  401 5011 9769  873 7891 12099  2105 7876 13337  4610 9649 14850  271 7795 11980  2107 4171 7714  2107 7714 15723  4797 8103 8104  587 4797 5413  1691 5066 6593  2109 4818 14614  2110 5470 14051  2110 5722 5723  255 9292 15199  2111 4950 14003  121 7316 10537  2065 5094 7316  5017 7771 13502  160 9348 15514  2131 4177 8051  2114 13472 15257  1104 6222 10977  2115 6197 8066  1445 4678 5406  421 7695 10601  2602 9885 13253  1335 4113 9885  308 5725 8596  1132 8078 9098  2282 8957 8958  4421 9931 9932  3667 10219 11040  2120 7546 10303  3570 12812 15295  4014 7827 14807  492 5544 8335  2122 6556 8337  2180 8450 8529  3909 10630 12420  2124 4737 8338  3371 4737 7118  3773 7800 9545  350 5552 7616  2840 8586 10931  320 8324 8456  1248 7325 9109  598 7014 8913  3496 8274 8275  3496 6360 11838  3656 7858 15070  3656 7848 8244  798 6921 6922  2289 7134 7297  1098 8369 8372  2131 6624 8051  2974 11455 13594  78 13142 15286  1097 8370 13022  2769 10394 14221  2583 9093 9394  2134 5523 9093  2135 8383 8384  76 9905 11732  7482 8824 14307  415 5578 8736  2137 6738 10366  2137 4144 11059  2138 6551 6552  2560 6971 10979  2139 5131 12453  561 5131 12139  6087 11562 13342  3406 8140 8141  5427 11699 14748  3149 10419 12229  2470 4782 6720  19 4781 9604  2143 5488 7919  1500 4622 6181  842 7683 8077  2144 4709 9201  2145 6851 8099  669 6293 9626  4501 11637 15205  4498 11637 15205  3039 7832 13041  658 5306 6681  2329 5893 13009  2767 7619 13652  2761 9132 10953  7360 9641 15744  2150 6696 7701  3871 8272 11687  2926 5976 11169  6769 10278 15386  2152 8470 8471  2152 5057 5685  1226 4626 9787  2153 5814 8265  2154 5340 9557  3593 13762 14073  2230 7383 7384  2155 4154 9650  2156 4232 8511  3089 7044 9577  3218 10721 11520  2157 4593 8377  2726 5133 8287  2159 5682 8513  2160 5146 8392  3336 7288 14875  7932 12882 14607  653 11714 14571  2162 8282 12993  2162 7019 8486  7559 7913 13716  1167 9388 14204  2164 4734 8532  2925 4734 9388  151 4560 9500  2339 4016 9090  1166 4323 6497  2166 6497 6566  3055 7121 10301  2167 5296 7121  1545 5651 15604  1545 5600 7493  3471 13666 13667  2030 5162 14000  521 7522 8098  2170 6230 14630  1253 4541 9119  3066 8518 14860  3995 6679 9000  3226 9000 12304  3127 12106 12364  2173 5112 8522  5361 13159 13160  2366 5361 13159  3212 8269 11729  3524 10745 15308  3960 9132 11642  2177 7438 7746  916 6437 8920  836 7438 11642  2073 6240 6242  614 6629 13295  2179 5906 13431  564 5906 11723  2180 8530 8531  1533 9913 13326  2181 8405 12648  4056 12647 12648  4043 8075 13003  2260 4979 8720  1828 6454 6834  1068 4081 10018  1116 6925 9838  527 6733 8121  3762 6307 7995  2185 7995 8250  2186 4702 13637  3771 10736 13231  5269 9299 9551  2187 7861 8046  984 10810 15770  2188 6102 6563  2189 7856 11650  3917 13382 13799  2190 5875 9572  2190 6760 8402  1133 4395 9767  2191 8595 14260  2191 8596 9767  4393 6736 12860  5249 7310 8501  2193 8500 13318  3455 13068 13069  6133 10390 12758  4901 7314 11950  5758 11257 11258  241 8333 12593  2457 9553 9554  1839 6054 6565  117 6054 6565  1730 5090 6895  2198 8480 15575  2332 8180 15551  2200 8647 8648  3718 7662 8647  1206 6823 9012  616 4714 8042  3191 4647 9559  4647 5369 9559  2204 6966 6967  2204 6966 13634  1127 10206 12468  3064 11775 11923  3064 7997 11775  911 6815 8322  2207 8320 8321  4439 8827 11597  3732 13459 13460  827 9663 14390  2209 8422 8423  296 5848 11798  296 5848 7928  574 7816 10178  1105 7815 12819  2213 8155 10716  15 4102 11205  1389 5451 10716  606 5450 10783  8575 11501 13957  3144 5789 10961  1292 4558 5771  2382 5961 10820  2247 4223 6502  629 6740 8360  2742 6741 9303  2742 7420 13535  750 6715 8280  2420 4779 6939  2219 8686 8687  2742 6740 7420  1398 11162 12330  2220 8032 9528  2221 8477 12679  3905 12293 12679  3016 5730 11605  2160 4933 7288  2223 8652 8653  577 4759 9947  490 7381 8665  2224 6238 8664  605 8675 12563  2225 7837 15617  1040 12523 14559  100 13348 13849  1390 10009 11403  5346 9514 10955  216 6451 6452  2537 7137 7138  5211 9847 10934  4334 8411 10149  5220 10987 12335  1299 7384 13607  2589 4570 9779  4570 8420 13644  3955 7331 15243  2232 8430 9377  4149 5772 7676  2233 5441 7808  567 5810 10898  6355 8263 14040  2235 7972 13184  3378 5227 7972  592 9888 12512  3395 9365 9713  1291 6067 12432  6754 9541 13798  2644 11825 15699  2238 6292 8930  2239 4920 10994  2239 6420 13048  4918 8568 8981  580 7208 10954  2241 8787 9075  2241 5601 8787  2047 5268 12799  5916 9086 12952  4905 12572 12875  1255 12572 12875  3205 13599 14430  2246 5869 7066  1021 7488 8925  2245 7266 7669  3319 6715 8292  1785 6716 8292  3467 8125 12200  3467 8984 11417  2206 6722 13943  5118 11775 11923  3636 5956 13111  3924 15441 15442  330 5778 14609  5778 9490 13889  2966 6297 6953  280 6499 11634  1305 7540 8700  1020 4489 5129  2996 5273 10108  2996 7750 10894  3148 4816 5957  2254 8540 8541  4987 8359 12450  2641 5151 10033  3410 10725 12991  3409 9105 10724  2257 8774 11503  2257 6523 8776  4277 8770 8879  4277 8879 10415  3430 12636 15478  3940 7937 15479  2260 8779 8780  3378 13184 14546  588 8076 8720  2261 7938 15116  2262 5870 8815  2790 5266 7729  1242 8896 11057  2263 4848 6269  4848 7813 9616  937 9400 12096  3574 12183 13928  1646 6340 10012  1646 6339 8150  966 8436 15429  966 8436 11323  3335 7720 12479  4029 14333 14781  208 8068 8257  4027 6927 14572  1308 9753 13187  927 6766 9055  2271 4442 8553  5686 11898 13226  2272 8295 14415  1394 5403 11663  5401 11157 15541  859 5467 9711  2820 6828 9711  42 6774 8667  2275 5411 10010  976 9743 12500  749 5869 6017  264 8381 10323  7991 9636 12298  5753 7237 14146  3743 5753 14356  2279 8034 9512  3619 12349 14081  7299 9810 13169  4181 6325 8790  4033 6516 10613  3974 8185 8957  3974 8957 8958  2283 4064 8964  3000 5056 10249  1255 12875 14814  2284 4526 8590  1188 10250 11522  597 8590 8966  2286 8962 8963  3104 11710 15204  2287 8925 11564  4569 7488 8887  5693 6918 13818  798 5693 6918  836 7438 7746  2096 8213 11773  1072 9998 11355  2290 6867 8708  273 9031 11896  3535 4689 12767  2045 7974 15722  857 7160 10614  4099 14631 14632  2294 8475 8909  4739 7307 15582  610 6390 15304  2295 6092 13086  498 5571 13086  589 4442 8893  589 4442 6014  884 8972 12893  2297 5826 11961  4806 6194 7851  2298 6194 8944  4424 6657 12072  7153 12919 15515  1428 5389 8668  1427 5040 5041  4481 4658 11061  4658 7955 11061  2437 5222 8136  2437 9192 9193  4746 5312 9048  1675 4596 4746  4724 11720 15536  599 8391 9041  2305 9042 9043  358 4726 8872  1110 7871 13049  4264 13482 15655  1185 9065 14304  5965 12224 12225  7918 14304 14450  2308 5138 9390  2313 5972 5973  4141 6734 14880  4338 7483 14861  602 9010 14010  602 6630 7919  2311 9010 12156  6654 10637 12406  2312 4740 6564  2313 8986 8987  7257 13495 13961  3478 11575 11576  4324 12003 12300  3986 9776 9777  8677 12678 14236  501 6638 8585  2316 4722 9118  351 5541 12129  2385 9368 10398  2318 7000 8632  102 11215 14655  797 8138 13354  4053 7275 9052  2320 4886 10257  2320 5421 8235  1415 4785 15691  4785 9020 10855  1198 4630 9740  2322 5944 9113  2323 6147 8854  4324 7315 10674  3465 8105 9730  3938 7526 8309  390 5676 9294  6622 11840 13336  248 6839 10661  2765 4352 7013  1160 7350 9049  844 6173 8443  2328 7439 7440  2877 5967 9991  1334 7321 12171  571 5893 13009  740 4999 7948  2511 4999 7948  3476 13096 13449  2916 6383 12259  2941 5845 9720  2332 6201 8334  2333 7184 13642  2332 6201 15551  2226 7101 8343  1220 4533 15652  4120 6097 12029  1017 10118 10719  2335 8115 15746  5405 11536 14528  1493 5063 11625  1582 4148 12141  2338 9008 9009  506 4575 5144  2339 5144 11681  4700 8464 13105  2340 8464 8633  293 8038 14786  3320 8862 12070  219 7334 8929  4087 14883 15733  4588 9199 9273  2926 14835 15533  1197 4692 11740  1197 4093 11740  1090 8332 15275  3861 12741 14382  997 7600 14689  4128 10922 14432  2347 8833 9245  789 6101 7527  2348 5542 7062  640 7062 13992  3670 7131 8904  2231 5331 8556  1397 7451 10679  598 8913 15581  3351 8019 12531  726 6948 14078  4689 9130 9131  3747 4818 6964  1767 6861 7120  258 5188 8083  5976 8467 11169  101 6581 13083  3834 6651 13843  467 12138 15105  366 6594 9304  2356 8020 13680  1063 8694 9133  2357 4023 9134  1571 11962 12854  1200 8514 11618  7793 13418 13419  393 4211 9524  2863 10094 12427  2863 10094 15677  1058 4699 12840  3505 6874 12841  914 7748 13393  2363 7748 13393  2755 8820 12312  2755 10322 12312  2365 5540 10874  176 5540 9504  2366 7057 12465  1471 4543 4711  2686 10452 12704  732 5198 9257  1912 7486 13528  1912 7486 7828  2369 9269 9270  2368 7828 7829  499 4569 8886  2370 6073 7107  2371 4799 8913  2371 7053 13706  2372 9064 9906  1835 4738 5887  2373 4341 9213  4341 9213 9353  1102 5048 9336  2374 9278 13728  621 5184 10696  2375 8081 11633  2376 5184 10696  621 8081 15117  83 6375 7280  1004 8900 15488  739 6237 9040  2825 6229 12473  2379 4926 7613  2379 6229 8536  277 11748 15556  3921 11748 15556  4484 11888 15419  4484 10933 15446  754 6473 6688  218 5961 10820  2383 9166 9168  3728 9168 13842  2384 6834 8442  1068 4617 9821  1280 4992 10398  2385 8908 9369  9335 14377 14378  2386 9334 9335  2872 5433 11058  620 4835 6227  3849 8111 13780  3536 13780 13781  4508 8110 14216  4508 14216 14702  3610 5284 8170  2390 8170 14041  4307 10680 13289  1897 6699 10023  2518 8033 15153  657 6095 9198  2162 7019 7020  5578 7846 14918  2396 5577 10365  1300 9385 13688  171 6264 9250  1442 14307 14918  49 5193 5576  839 6902 7295  2397 7295 8952  1434 4308 6030  164 9393 12147  557 7936 12448  2146 8757 11637  4516 8340 12741  8340 12741 14382  52 8755 10512  4777 5760 15175  763 6882 7354  2402 7409 7456  635 6036 12542  3648 6036 13698  545 7194 7715  2404 9664 13071  4435 7143 11612  1521 4698 5851  2406 4524 9409  4525 8959 9411  755 9096 11084  755 8834 10378  4075 6906 15598  4244 13119 13120  6340 9401 10012  3840 5766 13021  3185 6113 12065  6016 9432 15171  3140 11685 15121  3292 7245 12288  2412 9469 15179  3315 12522 15714  3315 6477 6858  624 6857 9471  2413 4554 14725  1610 4561 8670  4560 9498 9500  2416 4648 8936  33 7409 7456  2418 4805 9623  3567 5820 12862  1231 4805 9623  2418 7723 9513  260 5888 11667  2419 9800 10709  2420 12241 14625  2064 7800 9545  5941 12525 12526  2421 8341 9441  5655 13140 14385  2422 4937 6717  2423 8864 10210  1619 10055 14696  277 9535 12231  2424 6550 11273  707 5727 6150  4180 8923 8924  756 5501 10785  756 4114 8826  2427 5703 8825  2862 4772 10786  790 6189 11280  2428 7159 7795  7296 10831 13186  5317 5942 8817  99 5317 9675  3709 14590 14591  5757 7823 13338  760 6731 15467  3434 6731 12929  4258 6237 9040  2511 7948 14186  6070 10370 12693  2436 9598 9599  1184 4619 6765  5221 15407 15408  2437 5222 10192  1005 9302 9445  518 6212 13219  906 6380 9107  2439 6261 9106  6098 10759 14268  3982 6098 6998  269 8281 15092  4226 8281 9262  4134 6758 14734  90 8617 14732  2443 9560 9561  656 5829 8030  2444 5404 5454  2444 9017 12533  825 5729 8145  2909 6850 14820  1869 6778 14621  487 5749 9006  4863 13506 14191  1261 10184 11956  2448 8537 14251  2825 8537 14251  3679 7658 14429  6163 14524 14525  1580 9896 12892  2450 5890 7996  2953 8709 8710  1013 7967 9316  4607 6843 8597  2452 9659 10088  354 8155 11295  4119 14619 15702  108 4205 13075  2454 7834 9545  2455 8333 10179  3398 5768 13089  3473 5630 15208  3418 9230 14825  1141 5675 12083  668 4547 9229  1176 6199 15768  3991 15469 15470  3250 5565 12343  252 12056 13484  958 9213 9353  2460 4567 9352  1503 8053 12867  935 7447 11626  3352 6930 14658  3937 6649 9686  658 6681 8910  660 6279 9813  2464 7792 14228  660 6279 6280  2465 6280 7747  2466 5100 9206  2110 5722 10032  179 6027 9363  3830 9362 9363  4472 10701 12089  4473 7614 12187  541 5809 10694  2469 4744 9608  2470 5427 10321  2470 8092 15708  2471 5784 9587  2571 9964 9966  572 8343 9227  2472 4900 12338  3828 12127 13998  2855 10950 13444  2474 8910 11821  2474 9726 11646  210 6357 10939  1244 6617 13947  852 7884 14250  3032 8152 8153  2447 6432 7682  2447 6432 7025  2478 8365 12608  1353 6798 15681  2479 6248 9217  2481 4153 13404  2482 9476 9764  2480 9765 12772  790 6189 7318  2482 9476 9766  3308 6446 12425  6446 9357 12425  2484 5360 10081  2484 5652 9610  2566 4479 8043  1665 8043 9418  1924 7196 8954  332 9360 10882  2487 8117 8118  290 6920 7169  2488 9420 9421  2644 11825 13526  5348 9056 11621  2917 4755 5348  2490 4325 5834  2490 5834 8316  1329 11995 12209  735 8202 9475  3503 6815 13551  1738 6815 13551  5823 11657 15095  3733 12500 12501  3555 7993 8520  3813 8579 15027  949 4511 9681  2495 4131 9682  1223 4760 11374  2496 9772 11374  3323 5340 12623  5341 12622 14128  5349 6862 10910  2498 5890 7339  2499 8268 8269  920 8271 9157  1225 7304 11075  450 4319 8843  3544 8946 13662  3870 13662 14694  1918 4652 11358  2502 5421 9866  5015 6195 9047  2503 5158 9962  4239 8772 9146  1779 6011 11180  1544 5686 14355  3057 5686 6486  4800 7060 8969  2506 9620 9621  2507 9877 9878  383 5216 10058  2508 6979 8521  2508 6979 8828  206 5113 11255  5113 10760 13541  1244 4566 11233  1244 4564 11233  2511 9527 12725  739 6229 9126  3971 7886 8064  2512 7886 9741  2822 5075 9774  3626 5513 13536  729 5604 9968  2825 9722 12473  278 6350 8591  2033 4233 5139  2033 5139 5824  2393 5704 12552  3311 8033 15153  1425 4278 6134  482 9129 13461  3219 4212 4927  3683 14485 14487  4810 8263 14040  3931 8132 8784  81 6527 11450  4662 12434 13302  5754 8743 14678  2735 5754 10266  2982 9327 9788  2525 8974 14899  4891 9122 9930  978 6660 14274  4266 8693 9870  3684 4266 12645  5554 8419 11885  2528 7251 8447  7767 9256 10041  2529 4446 4965  1534 5145 15337  2804 13516 15337  4269 9137 15086  3919 6410 12846  1326 5025 11682  5024 7473 10117  4521 11953 13756  5005 8053 12771  5005 8053 15435  4083 13533 14864  2535 4546 9790  1794 6884 10726  223 6476 6883  1049 6035 7161  2228 6452 7272  3979 14508 14509  2022 5876 7397  1780 6669 12640  13121 13237 13307  2527 4767 6232  2540 4767 6232  2331 5619 6172  2860 6318 6319  5863 7370 8948  453 5863 10937  4219 5777 14869  5777 8619 14869  610 6136 15304  2544 9848 10306  1132 7386 13103  2545 9986 14673  5900 8182 15371  2546 9098 9114  3949 9370 14200  2985 7407 11395  4454 10031 12032  4454 9454 10031  2549 4565 5837  2475 9595 12297  1194 9974 12380  1194 4649 14280  2551 7803 8169  1755 6129 8010  3942 14768 14769  3367 6616 13420  2792 8441 9279  2792 6473 8441  2554 8607 8975  1038 8825 11028  2031 5810 10898  6199 9533 15768  2522 8132 8784  2556 9978 9980  2557 10080 12390  3941 12956 14420  3632 5229 12093  2085 6004 13107  166 6934 12258  166 6028 6827  862 7741 11256  862 5215 7450  5409 10098 13047  4762 11374 13105  2562 10128 10129  1074 7168 9843  2563 9676 11251  3356 9062 15761  4046 7261 11393  4046 9466 11393  2179 5951 13467  2565 5626 8220  7279 9958 13067  2566 4479 7279  139 11709 13610  2567 4054 9430  2344 9151 11740  158 4692 9151  4257 11227 12735  1651 6540 14758  3885 10145 14319  2324 7526 8330  3938 8309 9912  217 7418 13162  2572 7191 11672  334 5634 6770  7085 11311 13508  2573 9827 15130  1414 8615 12158  2574 9637 13468  5727 7670 10689  4045 10495 14326  950 9095 14327  381 10889 15111  5646 12730 14970  2833 10889 13072  2577 8355 8356  2847 9237 12035  2847 9238 12035  990 8396 8999  614 7439 13295  2473 5611 9674  662 7446 12398  2582 5231 13598  4247 7778 11780  3495 10803 14648  155 8732 10605  2584 11595 12824  335 10239 13249  3416 6217 8976  3293 11398 12791  2587 10203 10204  2341 8862 12070  1043 6724 8037  2589 8039 13457  640 5244 13457  7012 7126 13616  527 4881 10061  2591 4390 10062  2592 7811 10261  3077 7811 11762  6337 8578 14692  2593 6483 9924  1699 6187 13640  3754 9546 13613  3830 6027 14947  2595 6027 12310  5192 10052 10053  2598 7908 9937  3203 11397 12085  434 6105 6641  2599 5943 7524  3563 6851 10187  3563 6851 7459  1636 6294 10863  1636 6293 6729  3461 8350 13253  1336 5211 9847  2603 8117 8119  2603 4889 9632  1261 4886 10257  4887 13506 14191  2605 9983 9984  3379 5389 6233  3824 12921 13061  1425 6134 8361  1425 5484 9365  1202 6321 7982  1202 6360 11838  1769 4763 5593  735 8202 15198  501 6015 11268  2610 5694 6015  2611 6217 10239  9753 13248 15119  5652 9284 9610  901 6598 12602  2613 10246 14470  2613 10245 10247  1332 9909 14879  716 6072 10059  1332 5217 14535  1332 5216 14535  1031 8489 9792  4165 9791 9792  2890 10659 15649  4441 9661 15649  3621 6471 13908  3621 5245 8123  1072 6775 11355  2620 5874 9985  5120 7970 12752  1328 5120 7970  3893 11280 13611  6189 11280 13611  2622 4397 9630  721 9631 10034  1331 5148 10339  1331 5147 10339  2671 5176 10430  1350 5191 9311  2625 6417 10333  1540 6417 15143  352 6631 7744  1783 6679 11473  1733 6569 8434  2627 5376 8434  2628 4723 5376  2628 9571 10966  4146 7283 9170  2629 6577 10172  781 8448 12173  5156 10356 10357  530 7312 14412  2631 9208 10874  2632 7238 9350  3394 9350 12711  1618 6363 12759  2633 5936 11496  1237 7885 13895  2633 5936 8768  1347 10387 10400  2636 9624 10110  803 5284 8170  2637 5254 10387  2637 5256 10387  1348 5252 10401  3138 12833 13628  4019 12095 14330  2640 8303 9176  4299 9631 10034  2640 5084 6664  306 4398 5025  4398 8212 10035  2642 5254 10400  2642 10399 10401  2909 11046 11047  2644 7976 10621  395 6292 13914  1278 5656 11518  2775 10121 15314  2646 4864 12059  2646 4864 10352  4048 9161 9654  4648 8937 12397  60 5373 10747  60 4802 10623  1474 5793 10078  391 5803 10340  1020 4489 8699  1628 5711 7657  834 4917 5710  419 6481 13903  4228 9517 14876  2872 6686 12326  2653 5042 7842  1976 6806 7742  1242 6806 11057  1161 4540 7947  3708 5390 9625  2656 10200 13441  729 6009 6705  5604 7171 7374  2515 5604 7374  2658 5604 7171  2657 7171 7374  2659 4954 10403  1280 4954 10403  4304 15645 15646  2661 4665 7029  2582 7029 9175  4515 7974 15217  6430 8350 12077  5515 9059 15115  423 5770 12159  1352 5198 9333  3094 8234 11836  3300 4398 11682  1286 9531 13244  697 5023 11104  1281 5260 8245  58 9329 10465  2670 9830 10468  676 9368 10467  5250 9311 10430  3067 5176 11587  5241 10580 10677  1218 7019 7020  693 9972 12760  325 4706 12590  1186 5138 10237  18 7087 8846  1161 4540 7643  1510 5641 10015  5046 9120 10008  2679 4138 10491  2681 4339 4973  2654 6806 11057  3066 9119 10213  1322 8149 15636  5 4834 5069  1352 5280 12704  1354 5218 11468  10501 14540 14884  186 4551 6169  1679 9433 14978  674 8883 12272  3274 7523 12272  1238 4480 5596  192 10546 13734  6647 8346 11220  2606 10542 13061  5094 7316 15740  683 7915 12880  1346 5054 13371  3312 6887 13440  4062 12248 13985  5136 11307 11553  2698 4482 12292  1123 4040 10527  690 4039 6395  2977 5238 11482  3511 10287 10547  3845 11602 12581  2703 5717 15396  1423 10986 13438  190 4837 4838  1351 5277 13622  3094 5243 11837  54 10389 10548  1320 10732 14626  2815 5351 10733  2708 5864 5865  4656 5143 9704  183 6332 8848  1187 10477 12243  3491 10195 12816  3300 4398 12013  35 4397 5171  2928 8644 11671  2400 9296 12741  637 10566 12723  2820 5584 9712  704 9750 10560  2717 5261 10509  585 5044 5115  184 8715 8716  3949 9633 11531  2722 8885 12798  4026 8855 14520  786 7407 13724  2547 6519 13332  2724 6111 7309  2029 4486 7309  701 7393 11606  5133 5682 8287  2159 5682 8287  5485 11410 14531  706 5239 11655  2728 9425 12227  5020 9425 12227  1287 5023 10584  4245 8565 11905  3313 11266 12511  3874 10766 13331  4045 6429 10379  1445 4536 6173  2733 4536 8443  2735 8743 12189  4836 14448 14914  734 8743 12189  2735 5754 8743  8261 10194 13386  2911 6878 8189  6483 9924 10612  112 4214 6489  2330 8140 8141  740 4999 8142  1833 6094 8508  2739 10162 13487  2740 9382 13255  3434 13144 13581  760 9381 15467  2741 8955 12266  2742 6740 6741  897 6741 9303  1840 4774 6821  1840 6821 10431  1232 7723 15272  2868 10714 15631  2745 6415 11371  3665 6415 14354  2746 5805 12399  724 9742 15313  5803 10146 10340  391 4602 7666  1882 4337 10649  2748 10648 10650  4761 9497 15591  4760 9780 9898  952 8962 10754  952 6668 8992  3255 9289 10751  592 8753 12701  2753 7302 14127  2752 9731 9732  4329 8314 12983  3990 10833 10929  1724 6414 14544  3519 7863 10049  2560 6971 9755  2755 7450 11607  1572 4520 6437  2756 4520 8920  3355 5783 12976  2757 9777 14877  1479 10629 14870  2758 5811 7629  3751 8857 14942  2054 7854 12733  2759 8857 14942  437 4643 5428  916 4349 6335  2452 8597 9659  5979 12348 12382  1539 5844 11352  3769 9640 12558  3769 6674 12558  3769 6674 13132  3560 5990 13018  920 8271 8325  2765 4352 10661  1774 6853 6854  2766 5785 14563  2767 5299 10218  1335 4113 5299  6058 9254 12631  562 6058 9254  548 4193 14221  4192 7213 15726  1348 10363 10740  2905 11241 15493  1668 5616 6652  5137 9807 11512  3134 11864 12073  3134 10020 10703  354 5451 8345  3770 13994 14634  2774 10232 15127  765 5183 10902  4701 6378 9121  3152 7035 14409  563 7269 10743  2776 6833 10358  3454 7445 10653  1299 4990 8563  2933 8860 8861  1916 4771 6690  2779 5077 7427  3783 9202 13956  3625 6614 12185  1193 4471 7258  1217 8225 11558  657 4697 6095  1000 8382 10107  2782 5594 10106  2805 5602 14388  384 4628 10423  6774 8667 13181  516 6632 9383  725 9204 12848  1535 8199 13366  1984 7356 9288  355 11506 12328  757 7347 13228  2789 9730 12592  3485 7356 9288  757 7358 11935  107 4796 10145  107 8907 10145  6436 11526 12765  88 6204 10103  3859 14840 14841  2971 6126 11525  2792 6473 12545  5067 8149 12995  899 9481 13635  2856 6310 8669  4535 8528 9737  2794 6791 13868  3103 9827 11209  2795 8393 8722  5896 6573 13921  821 5896 13101  1751 6911 15713  2797 6221 7689  1841 7005 10900  3737 5919 6096  8418 8683 14240  2799 8682 9981  1391 12362 14048  1391 4549 4768  1073 7460 13731  3712 7077 13729  1720 6838 13014  6461 10843 10844  2803 6461 6839  2803 7330 8646  1024 7745 13775  5644 9672 13516  5520 9861 11466  3157 10663 12058  5037 8495 15706  147 5983 11608  5516 12490 15432  338 4510 14871  1546 6077 12687  1546 6254 12594  1164 5695 6868  5465 12499 13198  2810 10875 10876  5177 9355 12069  753 10885 11229  2811 9562 10884  5509 6988 10193  918 5509 10914  2813 6293 9626  2813 5440 10865  4873 10105 12163  2814 8438 10086  684 10534 10733  2815 5351 10732  1626 4982 5110  3281 6778 13439  4982 9094 14979  2817 9094 14979  1087 11257 12350  768 4819 8165  2274 9938 10348  2858 6773 13580  5584 13112 13899  2821 4512 10826  609 4512 6144  2822 10109 11901  773 4577 10127  1656 5124 6448  297 6449 10985  2824 7839 7841  2824 8570 12885  739 6237 9196  2825 6229 8536  2447 9240 14175  2826 10184 10185  1125 5801 12761  304 10315 15388  2828 6127 10683  3996 9427 11362  1532 5480 7422  232 13177 13518  1118 8737 10871  135 5032 11168  2831 9478 10075  3254 12373 14468  2884 4870 5036  2868 4869 10715  1433 5647 13072  5645 11738 12133  4639 10702 12089  2834 10701 12089  948 6945 9904  2835 9904 11230  3874 13717 14498  5159 12123 14498  5168 6521 9982  3922 10860 13498  2838 5027 10769  2967 11504 11505  5235 11144 14809  1277 8144 10264  2840 6402 8586  9010 12156 14010  1221 12128 13857  3089 9577 11390  2842 7140 10978  1260 4538 9831  2843 7318 10142  3469 8410 12332  4920 10994 11013  761 4919 10355  1758 6943 6944  24 6943 9959  2398 10532 10737  1100 10739 12088  3086 8356 9574  6456 9238 12035  3649 11182 14515  2848 8622 11246  775 6955 7547  2880 6131 6407  2850 5212 11015  367 5212 10309  1034 6950 14351  2851 10942 15071  1516 11917 12957  1597 6267 13039  1597 6268 13039  814 6267 12251  2084 7049 7247  2854 5997 10632  1057 6066 10950  2855 10950 10951  1622 6021 13082  2856 4108 10949  1271 4869 10715  5036 11009 11032  2858 10967 11192  352 4550 5884  2859 6044 10248  4396 6044 8584  226 6319 10168  2860 6319 10168  2121 7546 10713  2861 9931 9932  3027 5501 11128  5501 10785 14091  2863 4691 7346  832 4867 11708  979 6983 14491  1816 6982 8388  2865 6459 9990  2865 5539 6459  4240 11083 12566  2866 11082 11083  4075 7611 10378  2408 10576 13619  1232 10714 15178  2868 5982 10790  4543 4711 14592  2174 5361 13160  3711 5809 14298  3711 5809 7860  459 8952 13961  1432 13343 13344  1243 9398 11058  2872 7426 12326  1199 10223 13373  2299 12919 14308  1630 6135 14400  759 11144 14809  2875 7132 10992  204 10992 12924  1264 4919 9709  2240 7383 14136  2877 7818 15503  614 6629 13305  5233 11037 11038  3269 9308 14237  3269 6108 9308  2879 7376 10772  775 6231 6407  2880 9061 9062  2897 7791 14529  471 7041 9124  1691 5949 7334  5949 7334 14018  1893 6998 15268  519 7378 11349  1271 4870 5036  2884 4870 11008  271 4610 11980  4322 14850 14851  3270 4416 6300  3121 8796 8797  1820 6450 6451  1820 6451 7290  2888 4813 11173  3762 8250 10232  1324 5183 8198  291 10216 12633  2969 5654 9359  2890 5654 10155  3440 5034 12744  2891 11124 11125  5998 8161 14817  3529 5224 12855  1921 6730 7039  806 7036 7037  2894 7531 7533  246 7533 14320  2895 7004 12153  2895 7003 7004  2896 8048 12657  1694 6139 11354  1920 7042 7791  1920 7041 7042  3435 8461 12827  10912 11742 13183  2899 8139 10807  2899 6920 7169  3067 11587 12590  3065 8671 10293  1277 8144 13643  2901 9569 11049  292 7661 14644  3505 4699 6874  2903 4500 5166  2903 4500 10728  497 7395 11870  6310 8669 11481  2905 5233 11242  2905 5603 11242  608 8785 12970  1205 4644 10282  2907 5293 6391  9151 9153 11809  276 9622 12076  1049 6035 12026  8247 9914 13325  4478 8247 9914  2104 5011 7388  29 11292 12134  1703 4668 6764  7612 15672 15673  1617 6412 13711  214 10775 14086  5020 11679 14119  2913 10689 10691  2914 6645 6646  2914 4288 10124  2737 6483 10612  2915 6819 7512  3948 9814 13822  3482 8063 12651  2391 4307 6864  2917 4307 6864  3782 6572 13727  2918 8164 11331  1142 7172 14659  3956 10300 14660  1409 5505 14484  2920 6312 10598  3236 9566 12195  4794 9566 10656  374 4880 15541  3836 8294 12491  3456 7415 11297  5319 6933 10886  983 8016 10036  262 4357 9222  7870 8193 13008  3017 7870 14343  1174 8467 11169  4084 14798 15592  4319 7304 11075  3972 7894 15137  2928 8507 14312  2928 4486 6111  318 7430 10030  2014 8874 14774  5460 8874 14774  3573 8835 9678  2931 5774 11756  2931 4661 11377  2932 7407 10915  2723 10533 14617  3930 4827 14428  2933 10296 15753  1094 7535 14867  3876 10626 14238  2935 5762 11238  3141 7873 8926  1144 4444 7627  888 9172 9177  1234 9076 11074  2937 10610 10611  454 11287 11407  5480 11287 11407  1511 5871 13722  2939 4136 9593  156 9037 11326  2940 11326 11328  2941 8301 11290  604 5713 5714  1931 5432 12664  4849 10368 11137  818 5282 12973  1737 4581 5248  234 5130 11644  6114 14505 15344  2241 5107 11337  3557 9749 12308  4650 12308 13164  2089 8210 8211  3622 7929 10344  115 7174 11443  2948 8782 12050  1518 13519 14602  758 6012 10316  3352 6620 8295  3739 5779 8961  2951 4765 10853  2614 4766 5948  1029 5492 11286  3040 10361 11286  3190 6750 9423  3178 9940 10154  333 8744 10371  1360 4576 9007  2956 8231 11184  2955 7708 10374  1458 11340 12402  2956 8231 15233  1477 5187 5189  1477 5188 5189  4290 6408 15464  4259 6735 8085  772 9579 14317  2959 9579 14317  3609 11420 14013  4345 14012 14013  3707 7481 10981  1856 6928 11360  2962 6803 6804  2962 7766 11123  3111 5989 11090  2963 5269 9551  2964 6316 11474  2623 5148 10339  2965 5092 10115  5092 5093 10115  404 8845 14801  1606 12667 13205  744 10769 11505  5027 11504 11505  4637 7751 8502  4638 12313 14311  2969 8480 15575  2969 8480 10155  2970 5654 10832  2970 9520 10832  731 10818 11525  6213 13312 13314  892 6106 12249  10216 12633 14328  4382 6767 13646  4382 6766 9055  548 4157 8367  5247 11453 11454  2975 7035 11573  1429 6109 14054  1038 8975 11524  25 6000 8607  5740 8304 11484  1345 8305 13341  2978 5477 11485  893 10328 11170  3354 6506 12082  893 10328 11439  970 12082 14394  2981 6034 11170  893 4844 9939  2982 11378 13671  2982 6533 9788  1677 6536 14174  442 6537 14743  2984 9526 10793  1016 10312 13755  1591 6311 12140  2985 11396 12140  1821 6379 7917  2986 5125 10138  15 6762 10141  2987 6328 10848  2001 6513 8865  3990 6368 9643  2989 10833 10929  2990 11584 14521  2990 7106 11585  2547 6518 9693  2991 9633 11531  1469 5807 14426  2992 11494 11533  1159 11306 12355  3696 5012 15176  1701 4671 9069  2994 6508 11180  217 9965 11498  2995 5958 11499  5522 13365 14900  1902 5522 13567  2997 5667 11493  4514 11493 13713  3171 8097 14434  797 8138 8139  162 8459 8460  2999 7610 9638  350 8964 10249  3000 13197 15381  3001 8572 12210  800 8572 12210  1677 6537 11437  1677 4713 11992  3893 11280 13263  3893 9249 15560  3004 9476 9764  652 7658 9764  3005 6304 10968  6304 13116 13545  3006 11696 14624  4604 11696 14624  6246 14247 14248  1876 10975 15648  2397 7295 8146  3008 5660 11713  6990 11208 11707  3009 11208 11707  3647 14172 14173  801 7261 11393  310 6855 8710  959 8709 10196  1754 7237 14146  767 8504 15651  3013 11658 11659  23 7265 7266  4374 5444 10208  848 10912 11742  3015 4693 10939  3015 6357 10939  985 7496 14190  3692 9874 12245  570 5122 7820  2021 5692 7820  4725 15534 15535  774 5772 7676  1983 5031 8737  3019 10869 10870  1522 6062 12514  3020 8994 11743  1111 6622 15303  4216 9858 10861  7447 10066 11626  3564 8813 12377  6624 8051 11140  6123 11139 11141  7876 9727 13797  48 7876 14577  899 6021 9396  3025 7778 11780  1150 11676 12032  41 6057 6676  1670 6386 12707  862 6388 11256  1761 4262 4720  796 9761 11601  3029 5609 5788  3029 5788 11599  1327 6749 14070  796 5079 5505  3031 5447 9834  5472 5655 13140  431 6053 13490  3032 8152 10396  1539 4492 5382  3033 4916 8236  5332 9386 14674  3034 5559 11590  1096 4177 10380  3035 11117 11118  3036 5829 8030  3036 7235 11791  2922 11157 15541  3066 4966 7656  724 5804 9444  5608 6464 11149  3039 11819 11820  1183 11820 14114  3040 8006 10361  3040 8005 8006  3041 4349 11830  4520 6437 8920  7191 9084 11303  3042 11301 11302  3434 11987 13144  3506 9381 13255  3045 7863 10049  3044 5848 11798  819 10049 14165  4629 11129 11638  1922 4776 8697  3047 5812 7712  3130 5812 12314  3048 8868 8869  1042 7082 8868  4496 9570 14917  3049 11053 11054  3050 11254 12953  831 6448 8570  12 7538 10781  12 7539 10781  3052 6402 8586  1734 5488 6630  1983 6049 13885  283 6349 13480  3054 10773 11883  453 5099 6168  802 6526 6810  2272 8296 11089  2273 10323 13227  3056 4609 11089  3057 6486 10092  4490 5422 15606  840 5290 11765  2775 10120 10121  1655 9603 11470  3059 9287 11749  1655 6596 11470  3060 6900 13561  5051 8785 12970  3061 6897 7243  582 6870 11559  4164 11174 11559  3043 11151 15305  5234 11151 11152  173 7788 13406  3064 7997 13406  3065 8671 11165  3832 10294 12764  1253 4718 10973  5883 7018 11588  4935 7206 7949  3313 4935 7949  3389 14494 14495  804 5832 15702  3070 5852 12054  3145 5839 5852  392 10129 12219  3268 5172 9024  1130 7397 14507  3072 9581 11783  402 4868 5659  3580 7373 13465  1124 11810 12869  68 8943 11341  3075 7548 11705  5673 10259 14713  4243 14216 14702  4509 9259 14597  7811 10261 11762  815 6548 7811  1623 4214 9147  3851 11921 11922  3079 11788 11789  4801 9763 15417  507 11423 15690  1367 10987 12335  3903 5096 9635  3880 7250 9658  3082 8801 9742  1474 8801 15126  3522 7443 14778  3522 9266 14778  1620 5498 6434  3084 4866 9820  2006 4717 8398  4717 8398 10777  748 8356 13539  3086 8355 9237  1480 5319 10886  3087 5319 11859  1961 8133 15523  1961 7542 9886  2156 7044 8511  3089 6288 11063  4105 5504 13283  1760 6520 11865  299 5555 12460  3371 7118 9973  1387 11135 12547  1387 11135 12911  328 7660 11653  3093 11653 11926  5940 8234 11836  3352 12294 14658  3095 8325 9511  1013 7967 9695  3097 5532 11261  33 9654 9655  3097 9655 9804  1081 9291 12028  2451 5043 6553  4983 11995 13122  1329 11995 15641  5547 13516 15337  3100 5103 7745  323 7077 7158  2103 5407 10913  3736 7404 13615  3102 5320 10887  2573 5343 15130  3103 11209 12849  871 11710 15204  3104 10982 11710  1402 5457 14911  1402 5456 14911  3105 11966 14911  5585 11930 11932  1378 5466 14940  1378 5352 14940  214 11814 13110  3108 9657 11815  3002 8571 8572  3109 6549 9605  1076 5246 14908  5246 6428 9798  970 8046 15172  3111 11851 14741  2185 5274 8318  5274 8318 11982  3113 5072 5136  4575 10090 11552  1806 6361 13799  4100 6989 6993  5716 8855 12763  5483 11276 11277  3116 11278 13562  3395 8753 12701  3117 10291 12341  325 10291 14971  1568 6209 12683  6210 12747 14889  866 9061 14603  1211 4345 14012  4947 6522 7080  3120 5787 12118  117 8797 11957  4646 10681 12661  881 9206 11850  3122 8394 15476  1194 12380 14280  4050 7635 9974  3117 14971 15143  1540 5904 8729  5893 7321 12171  2850 5209 11004  1648 5301 7366  3126 5301 11471  1848 5362 8094  3128 5947 11539  3128 7239 15195  3128 11540 11849  937 8414 9666  3129 8565 10824  3130 5812 7712  1882 6958 13746  4751 7034 15660  2321 6538 12067  3132 7123 7125  3132 4010 11877  1099 4169 7962  110 11797 14057  1492 10106 11863  3186 5594 9023  1119 12135 13850  3135 8138 13354  1004 7760 14227  6375 11452 14084  1626 5321 9274  488 4901 7314  1361 11037 12169  778 6285 12909  842 7268 8077  4347 9074 15553  910 5524 8725  910 5524 7865  768 8983 11770  3141 7873 9903  6124 7940 12044  4222 11521 15736  1385 5378 8018  375 12041 12178  1779 4224 9853  3144 7001 13957  3070 11578 11579  4702 7749 13637  342 7724 14424  2048 7126 13793  360 5180 5204  1309 7459 13732  7531 9876 14654  878 7003 8354  2043 5425 8592  2043 8592 10419  984 5987 13881  3150 11181 14515  3151 9165 12334  909 6790 8095  1429 12192 14054  380 7035 14409  1298 8157 13905  3153 12214 13786  2944 7091 10271  1565 7091 12783  4990 8254 8563  860 6276 9880  1729 5285 9068  5470 9473 14051  2805 5602 9862  294 9861 11466  3252 5671 8362  3252 8690 10007  3475 7424 15490  3159 7180 7484  1151 4487 10615  3160 7794 12102  137 5697 14488  651 4678 8818  4568 10428 11444  1839 5283 6507  5343 9826 11097  846 7123 14831  1323 9355 13385  3921 5385 11712  7796 10312 13755  3165 9163 11076  1266 8873 14226  3166 8196 13674  3167 8859 12340  141 7529 11939  66 9990 13861  5586 11400 11990  3363 6426 10100  3169 9662 11460  2208 5880 13131  827 7767 9256  797 8139 10807  3171 10807 10808  3172 12158 12159  3173 8985 11624  3173 6314 13573  1659 4222 6180  5300 6124 12044  3175 11522 11523  6180 11523 15509  1621 6426 12333  829 13286 14811  220 4895 6158  4514 7166 10854  3011 8709 8710  3178 6506 12082  1849 7286 7287  886 7286 11733  1777 10331 14693  3180 4573 9268  1395 5168 6521  3182 12005 12006  10627 13935 13937  3183 6207 10811  3024 6546 10262  1989 4633 5920  3390 8848 12861  3184 9704 9705  1228 9436 12065  3185 7900 12064  449 9868 12346  1492 10180 15659  2238 8380 8624  465 8864 13758  1095 4952 11187  4175 7916 10325  5052 10744 11300  5052 11463 12632  309 5097 6903  3190 6661 7226  3191 8239 11385  2021 11035 11385  1637 6490 12870  4171 6164 7714  3193 8026 11409  1881 8026 13941  3194 7690 8375  3676 5843 7898  3195 4952 11187  1095 4178 4952  5115 11433 11701  1007 10632 14615  1684 12662 15635  3827 6671 7027  3198 5955 7769  48 7876 9727  3899 13489 15223  3899 8144 10264  1629 6314 13573  3200 7999 11425  3201 5979 7999  3200 7999 11424  3688 9191 11044  3202 4440 7086  3203 7181 7182  4305 11397 12085  3020 8994 13183  3020 11742 13183  2501 4323 6497  4202 11560 12255  319 10236 13766  3206 8898 10050  3207 9637 13468  863 9637 14389  863 5515 7944  3208 7944 9970  5401 11648 11763  863 7944 8404  5364 7912 11177  7311 12299 14576  3211 12262 12263  4493 7823 13338  248 8269 11729  248 8646 11729  5543 6879 10254  3213 11517 15342  3214 7892 10026  3214 5502 6283  1888 4794 12195  494 6396 13934  1598 5502 6283  82 5226 12554  1236 7164 13825  3759 4657 6122  3219 4927 12368  2157 8377 12369  1200 9404 13999  3219 4212 12367  446 6637 13558  446 6637 12528  2680 11603 13854  3222 7443 12564  3083 9181 9266  1618 9522 14101  3223 9522 14101  3224 4897 6631  3224 4897 11472  4897 6631 15758  3225 11222 12279  1379 5264 5328  3226 5264 12303  1752 12395 14344  1752 5240 6401  1725 4866 7095  3228 6845 11835  4251 7638 11392  3202 11684 11912  3230 12319 12320  245 8622 11246  9213 12604 13968  1596 6307 10233  3232 6308 11278  338 4510 10801  3233 7244 10641  1770 4722 8162  6986 13006 13301  870 6742 12579  3481 13623 13624  3216 12518 12519  3236 9566 12194  122 12629 12857  3237 12190 12629  439 6110 14206  3238 9356 11156  1067 4016 7233  4974 7233 11645  2938 9415 10813  3439 10815 13488  61 5458 8057  1377 5399 5696  5370 9322 12969  4057 8300 13898  1106 11567 14538  3243 9145 11568  930 10138 12889  1376 7141 14126  4127 8312 10976  1104 4127 15742  2040 7986 14443  82 5226 9261  1028 7782 15599  3688 6154 7782  1007 7247 11617  3248 7247 12521  4022 6723 13997  5315 12055 12057  7310 12429 12431  931 7310 8501  1019 8690 15174  3251 11610 15410  3877 5671 14239  6849 12244 13862  4738 10150 13369  3253 4738 5887  1475 7740 14468  3254 7792 13824  1762 5913 6439  4000 6439 14956  2752 9732 9733  1088 9732 12681  2206 6722 11586  3257 7876 14577  3258 8993 10770  3258 8992 8993  2099 7888 7890  873 7048 7891  1360 4576 4959  207 4960 7262  5665 9142 11143  3261 7956 11703  1371 5122 10001  4203 11695 13513  3263 11405 12838  5334 11405 12838  3264 6434 12936  3264 5934 12718  1084 6866 10846  3265 10329 13155  5909 15109 15165  747 11738 12133  3267 10668 15177  1643 10668 15177  1843 4679 7168  3268 5172 12219  1262 4601 9308  2879 4601 6108  484 7390 14334  3270 6145 9544  3271 7202 11210  870 12252 13624  7202 11210 13863  3272 11560 11561  1463 13791 15113  5593 8636 13791  3772 7129 8938  3772 7129 12273  3275 9220 12108  4928 9220 12108  4201 15201 15715  868 12782 15687  1926 7348 7454  1926 5867 8600  1669 5397 6660  3658 14275 14276  3278 7146 13953  3279 6351 12792  1829 4415 8128  639 4415 8821  1626 5321 7754  932 5321 10965  3855 15196 15197  3855 7478 13486  644 6551 9392  3283 12525 12526  4074 6783 15640  4074 6783 11924  3285 10642 10643  3285 7888 7890  3286 9890 10644  872 7889 9994  2350 6441 12588  3287 5336 12486  3453 7348 7454  1400 5019 6080  3289 12587 13918  75 4637 9263  1796 4981 7051  3289 7506 11102  1718 6767 15764  5435 14253 14417  3292 7629 9469  3292 5811 7629  5125 10138 12889  3293 5125 12889  1284 6693 12801  4595 13482 15655  2306 9474 15655  3296 11315 11541  5967 11488 15278  3297 7689 9480  3297 6221 7689  2816 8983 11770  2816 5903 6926  3299 6504 13258  7492 12250 14255  6235 6347 12012  3738 7864 9691  3303 9002 11323  6127 10683 13501  6127 9427 13501  6369 8552 15429  3303 9003 9725  3304 7096 12908  1688 6358 12642  3305 6082 14843  3305 6082 12905  1452 4792 15642  3065 10293 10294  623 11361 14731  1344 7780 9619  3308 12424 12426  2483 5930 6446  3309 5870 11112  5870 9018 12724  1496 10126 13296  3310 6565 11951  3311 12552 14279  1741 13440 15287  169 6887 11842  286 9457 9901  5103 9457 9901  1769 5694 6015  1769 4763 8061  3315 6858 12523  5897 14558 14559  1879 7293 14427  940 11335 12910  3973 7098 11388  940 7098 12271  6650 14381 15249  3318 6812 12912  3319 6715 8280  3467 6502 8125  2341 10412 13913  2341 8037 8038  5342 6636 12508  3321 5341 8195  4385 9929 14291  3322 9178 11670  3323 7819 11051  3331 7819 9699  7106 11585 13456  3324 13044 13045  2297 8200 8972  5827 8200 10809  2506 4800 8969  2506 8969 11510  1591 4607 6843  452 6301 11396  2341 8038 8862  2341 8037 10412  6258 12128 13857  3329 6258 12404  3330 12128 12130  4615 11611 13962  3331 7819 11051  1854 6709 10048  1382 5223 15484  5223 8726 15484  2268 8204 8205  3333 11894 14637  4378 7844 12834  5615 7844 12834  4491 7720 11312  2268 4491 7720  2160 7288 14875  3905 8612 8613  7956 11703 12964  555 7413 7956  3338 11387 11406  4077 8397 11003  1585 7781 8386  3339 13084 13085  7196 12967 14698  3340 10882 13578  3341 5939 10076  2556 9980 14074  2003 7852 8807  1283 4951 12072  87 5355 11325  5689 9515 11325  3345 5736 12370  3345 12370 15159  7719 7926 12371  3345 7719 11565  3896 11871 14891  3896 11871 11874  2093 8089 15139  486 4603 5653  2093 8087 8089  912 11871 11874  2123 4191 8159  259 8160 12254  4191 8159 13124  3350 12442 13124  9283 12531 14078  3351 10630 11998  2272 8295 8296  895 6620 8295  77 5491 7081  1501 11304 11357  10328 11439 12535  3354 11439 12535  2758 5811 6975  3292 5811 12288  2931 7089 10671  3356 13063 14603  3357 6597 8662  1525 11806 15706  883 6865 13764  3358 8495 11806  217 7418 11498  3359 13159 13160  6634 10134 12709  3360 6634 12708  3361 8525 13172  1836 6947 11998  426 6196 14066  880 6195 9047  3363 7767 15765  2125 7616 7767  5737 9799 12447  3364 4181 6325  1421 5201 7907  3365 5872 12803  1010 11943 12803  1010 6325 8621  781 5834 12173  4325 5834 8582  967 10283 11673  4128 7822 9046  3748 11399 12441  2102 7268 7270  1489 5555 5580  3371 5555 12460  1759 13065 13757  3372 10031 12032  377 5360 10081  3373 5359 12197  4684 11071 12675  6635 12613 13208  3375 6085 12611  429 4851 6683  3376 8593 11164  2898 10711 11164  1535 6043 13126  3377 7240 13127  2040 7987 14443  1363 7986 13297  1428 6444 13856  3574 12096 12903  1574 4007 8786  4007 12023 15632  3381 5676 12583  1680 5676 12356  3382 10831 13186  857 7159 7160  3484 6032 9949  561 5826 11961  2751 10345 12318  1091 10345 10751  5801 7385 11338  3385 5801 12761  4007 10828 11065  3757 11094 12179  1675 4746 6275  818 6274 12973  473 7216 14381  473 7216 10749  3389 6836 14675  478 5128 7501  3390 6677 12696  1246 9704 9705  142 4745 7674  4812 12216 12218  1537 6078 13201  3392 6075 13202  6388 11256 13672  3393 9448 9755  2720 9148 11369  2236 8753 8754  5484 9365 12701  1314 11549 12496  3396 4548 7495  404 13204 13410  3397 7032 13206  4466 6972 12773  3398 5768 12593  5308 11120 11467  279 11120 11467  2123 8158 8450  3400 8675 14423  3442 6959 13709  2091 6090 6334  4390 10062 10750  4172 8074 8968  3403 9051 13262  3408 9521 13958  969 8632 13257  102 7000 7396  1919 6088 14846  6087 11562 15253  3406 11562 11563  2140 10776 15412  1064 9135 12980  3407 9960 12980  2257 6523 8774  943 12990 12991  3409 4938 9105  3409 4938 12990  3410 6523 8776  593 8651 8776  576 12025 12822  4612 12820 12822  2971 6213 12112  6213 12112 13312  438 5877 15360  3413 8911 12211  495 6879 10254  3414 8261 13386  2091 6334 7322  449 6571 9868  1900 5747 12079  3416 6217 13249  1588 5867 7480  3760 7884 14250  3021 4669 6916  4669 6916 9933  6588 13620 13621  460 4021 6457  239 6713 13422  1573 13175 13357  1574 6226 11121  116 9833 15711  1576 5935 14184  905 12935 13361  1717 6794 13091  3423 13214 13239  3424 8786 13360  4409 6848 11232  5758 12350 13578  5758 11257 12350  1951 6405 7485  553 7180 7484  4259 10214 10215  6405 7485 13741  928 10214 12638  3428 4259 12638  4190 9571 10966  235 9341 12506  16 8048 9706  3430 9706 12636  1564 12213 14406  3852 8637 12213  3432 5800 12489  3432 7104 12489  3433 6317 12932  2860 6384 14069  3063 4494 5817  3063 11212 11213  8461 12827 15335  1635 6977 9702  1238 4808 14823  4808 8793 14823  801 11660 13494  3437 7449 13174  3082 8801 15126  725 5371 9247  4078 10814 10815  2938 8124 9415  1748 6324 10730  3440 4748 11674  6870 6871 11918  3441 6871 11918  3442 13537 13538  3782 6572 9190  2167 6045 8167  3443 5503 8171  3444 9121 13078  1671 6378 9121  3445 13065 13066  3445 5520 7115  3446 9957 15492  4948 9505 13389  1800 5520 7115  384 5375 10423  3448 7847 13560  4218 7847 15384  1437 5698 9685  397 5334 5434  1384 12934 13826  3450 8052 12933  1556 5337 5338  5760 11142 13163  3452 13168 13582  5625 13168 13582  7146 12779 12781  6785 13427 14275  303 4989 9650  3454 5322 10027  272 8100 8875  5014 13068 13069  3456 7543 11297  1764 7415 14639  1676 5587 5588  1676 7698 12946  3459 8974 13787  3458 11231 13218  3459 5638 12601  2425 5004 10909  104 5086 10353  3460 12335 12336  4113 9885 13920  1973 4443 9177  4287 12987 13648  3463 6843 13597  1591 6843 13597  98 5856 14238  3464 4949 6894  2108 7692 8105  946 7692 13448  5680 7777 11368  3466 9805 11776  5292 9842 12200  750 6502 8125  1382 13483 14395  967 9046 11673  271 10142 13232  3469 8410 13094  4326 7932 12899  1219 11319 11320  2169 7815 7816  5846 13665 13666  3472 8100 8875  272 6672 15161  5630 11914 13749  1141 11914 15208  610 8056 8475  1518 5928 6813  3475 8420 13644  4570 8420 9779  5828 13096 13449  2331 5619 8777  3478 7864 9691  1240 11458 13556  343 7835 15281  1239 7836 15424  3479 13695 13696  3548 7200 10151  129 6703 14936  1307 6091 12625  5613 13623 13624  76 11732 14922  6583 11207 12115  2934 6287 8063  4307 4865 10680  3483 5544 12411  3484 7357 15192  1053 5058 9343  1312 4710 5058  4710 11781 12228  3486 6689 12881  3486 6725 10972  4738 11334 13369  2896 6138 12657  3488 13776 13777  3489 5152 7448  3489 5621 8811  3490 11120 13299  3639 8493 14287  2022 8849 12815  10569 12816 15152  7156 13175 13357  3492 9851 12464  3493 8402 12756  3493 6760 8402  3494 13001 13736  487 7303 9006  5263 10787 15098  3495 10804 13118  2128 8274 8275  3496 6360 13222  1349 4407 6025  301 6025 10288  1646 6340 6341  3498 7878 13633  2846 10739 12544  4407 10739 12088  3500 11100 12910  3500 8660 11574  3501 13742 13743  2536 6476 6883  2120 7546 10219  3502 10698 15325  2492 5275 9281  3503 13551 13553  4624 8610 13244  2913 8610 10691  3253 9906 13747  3505 4699 12840  5234 11151 13522  3506 13255 13522  2733 5617 12842  1160 5617 9809  4729 8363 13518  3240 8363 11288  7707 12362 14048  3509 7707 12362  2968 7957 12682  7957 14311 15718  5885 6069 10093  3511 5885 9082  2509 6979 8196  2447 7682 9240  2736 6266 13917  69 7385 9021  1834 7211 14360  244 7199 14340  2289 5149 7297  835 7134 7297  1770 4722 6986  3516 6985 8566  3517 5916 12813  172 5916 9086  1289 13686 13956  3518 13684 13685  3519 10049 14165  3519 10835 12770  1625 13178 13761  3520 13759 13760  2375 8080 8900  2375 7759 7760  3522 5521 11583  3522 5521 13879  3692 9207 11418  5730 9207 11418  2175 7460 10692  3524 7330 8646  3525 4517 8782  2948 8782 10055  2787 8609 13228  1137 14428 15588  1660 6482 13456  6140 8680 14235  413 6205 10684  3528 7685 10627  3981 14263 15685  3530 7721 12702  1536 5968 5995  3530 5224 12703  3642 7549 14564  3531 12046 13837  3532 6167 13751  3934 7299 8791  1549 4568 7981  407 4568 8888  557 9417 12958  3534 12796 15462  4096 14404 14405  273 9031 13812  1891 5368 7429  255 6060 14108  3046 7122 11793  3537 7122 13549  1639 5539 6459  3538 7961 13832  1930 7554 15345  1060 7552 15499  76 9905 11629  1910 5453 9606  3541 5272 5580  3541 13903 13904  1764 6960 13547  464 4383 7085  3543 12004 14178  1316 12003 12300  1857 7107 10741  3544 7786 15149  3545 9724 12735  1865 8484 9724  396 6608 13712  3546 6412 13711  3547 10151 12713  929 7200 13695  474 7203 14359  3548 8313 13190  3549 13274 13275  5636 9586 13274  349 4448 8799  3878 8506 11163  1725 13829 13993  923 7165 14396  1417 8401 9578  5316 12280 14121  841 5199 15392  1717 6794 8876  997 9103 14689  2494 4708 8579  2346 7993 9150  3555 8520 11199  2267 6369 15429  3556 6369 8552  2051 8002 8003  3557 12308 13164  1814 9495 14599  5569 9941 15315  3200 5309 6472  1629 5309 10159  256 5419 13676  3560 6746 9332  2732 10495 14326  3297 10752 10753  3562 7478 13486  96 8328 13346  3563 7459 13732  249 8813 9018  3564 4452 8813  5413 13114 15389  5411 13782 13784  1220 4532 9158  3566 4533 14030  4051 9597 15652  4533 9597 15652  5396 10384 15209  566 12576 13626  5400 8850 12831  3569 9138 12913  3570 8422 8423  4014 7827 15295  1423 7833 13438  6063 13436 13437  4969 11692 14665  3572 5672 11640  2930 8835 9678  2930 7717 8835  2409 6339 12183  2265 8749 8750  1249 4622 5533  3575 13305 13306  1870 7362 7363  3577 7362 10311  1870 7362 15319  3577 7648 14038  3520 6588 13761  3578 13620 13621  864 14001 14630  2513 6176 6177  3580 7373 13303  5870 8815 14958  2262 8815 15500  6041 12695 13865  358 5443 14080  3582 6780 14079  2753 7302 8013  3583 6368 8723  3584 6958 13746  3584 9169 13569  3585 6707 13151  3360 6386 6707  3586 4503 8808  3586 13899 13900  960 7448 12344  2100 5873 6842  3588 6238 8664  965 9577 11390  3589 5929 9879  3589 9879 10305  495 10254 13932  7274 13930 13931  2444 9015 9016  656 8030 9017  309 6750 8496  3592 6852 13200  2154 5665 9142  938 6711 8487  938 6711 13679  3594 6712 12928  921 7345 12918  1720 6461 6839  3596 8999 12469  2328 7439 8396  3597 7254 14736  3597 13421 14138  3598 8062 9484  2002 5713 5715  3599 8242 8243  318 7430 9218  1743 6881 14629  3600 14109 14629  1892 7377 7378  3601 8509 14107  3831 7305 14893  3602 6881 14152  4898 11948 13052  4898 9211 10872  3604 13153 13226  5686 6486 14355  2364 8820 12312  1015 4122 8822  621 10696 13859  3606 5155 13860  3608 14076 14077  3607 6915 8320  1408 12180 14076  3608 8655 13815  2960 11420 14013  799 6277 11420  3610 8982 12595  3610 12595 13296  363 9741 11366  3971 6917 15663  3612 13991 14466  5767 11055 14094  3613 6945 14167  2386 9335 14378  7235 11791 14083  3614 7235 14083  1974 4616 8045  3615 7203 10705  2254 7959 13432  954 8540 13700  3617 8540 8541  3617 8541 9696  3618 7328 14897  3618 8807 12066  1492 10180 12349  3619 12852 14082  3620 6865 12974  3620 8175 12974  3621 13885 13908  3621 8123 13982  882 4773 6530  4427 9771 11148  6052 9378 11391  5662 13372 14259  3624 7614 12187  2050 7467 7468  2349 7131 8904  977 8766 8906  3626 8409 15318  2016 11978 15569  5492 14857 14858  3040 5492 11636  1029 5492 14062  3628 8266 14481  1435 7128 10057  87 9515 12845  2889 9314 10901  3630 9314 10216  2558 4882 10065  3632 8020 12093  3632 5229 11095  5229 9510 11095  3357 6691 15721  4059 11292 12134  486 7075 14002  1030 8922 13353  3635 6346 13087  1030 9251 13111  3636 6346 7939  5118 11923 13943  2814 7728 8438  3637 7728 8438  1520 10105 10673  3638 10673 13954  3639 6465 14955  3639 6465 14286  1220 9158 10819  3566 4533 5850  2887 7486 7828  3641 9770 13443  2609 9475 10222  735 9451 9452  1179 9878 14182  3643 9878 14182  2327 7028 10704  4321 13805 13807  2468 6500 10304  6500 10304 13976  3646 14334 14335  484 4318 7390  1590 13429 14173  6575 14172 14173  1273 10627 13937  3648 6036 12542  1575 6249 8022  5986 5987 14757  3835 15104 15106  1645 7672 12585  3651 7210 7211  3651 7211 14137  3652 13128 14338  3651 7210 10163  3653 7444 14413  7203 14358 14359  3654 13055 13056  4527 13056 15432  1771 5509 6988  456 4564 9816  175 12007 13936  1727 5326 6719  2096 8213 8214  836 9132 10157  3658 5019 6080  3288 7348 7480  1627 6158 9526  432 12954 12955  5913 6439 14956  1649 5720 6367  4351 9521 13958  4351 9521 13986  3662 6106 12270  3521 12270 14328  3663 6997 13785  3663 7251 12710  3664 14284 14386  457 8706 8979  743 11371 14354  3665 6486 14355  2119 8183 14511  968 6117 11041  2119 8183 8184  4421 8183 9932  3668 12277 15238  3668 6117 11041  2433 8284 9312  2433 8960 9312  5330 14347 14348  5330 12826 14348  455 11724 13809  3671 10153 12264  2291 8696 15601  1124 4359 8695  1825 6517 13220  923 7193 14396  4203 13513 14606  1650 11327 12224  3675 11133 14504  4643 11133 14504  5843 11721 14674  3676 5843 13789  1687 4730 5978  1687 5001 10784  845 5947 12106  3678 6697 13657  3679 14525 14526  2449 8403 11098  305 7069 10720  3680 7069 10720  170 9224 12010  3681 14229 14230  2630 9881 13233  337 14016 14104  2336 5420 7470  3464 6894 10618  98 6894 10136  1804 5685 6769  1804 6395 7364  1909 6140 11185  1909 5236 7711  3687 7859 12798  298 9983 15255  3688 9191 10960  4389 7073 7074  4335 7072 7649  3768 6556 12624  129 6556 14555  2201 6069 9456  6070 12693 14551  5730 9207 14190  3016 5730 11418  3694 8476 8477  3905 8478 8612  2221 8476 8477  3694 11960 14211  3369 8293 11160  3695 9412 14539  6125 8877 12122  3696 7351 13294  3867 6730 14928  2121 7675 11442  3698 7040 13397  126 11599 12591  2290 4948 6867  5049 5849 13534  489 9658 11324  3701 14593 14594  1603 5605 7783  589 6014 6603  1868 6529 7369  631 6505 10606  2092 7872 14044  713 5369 13334  3704 7559 13716  1817 5543 6879  1014 5543 5923  4847 11962 12168  5495 11962 12168  3707 14567 14568  2961 10980 14567  1999 6005 10980  3708 5390 13766  2738 11105 14591  3709 13240 14589  635 7848 8244  2402 4795 9290  3465 7692 13448  3711 14296 14297  3712 7460 7779  3712 7460 13731  748 8869 9574  3713 8804 9530  1529 10964 13693  642 5107 9075  4754 12954 12955  432 7431 12954  1459 5667 5668  388 6313 11364  1969 7662 11086  292 7661 11500  3718 8647 8648  3718 11086 12937  3719 5750 7434  3719 5750 13610  608 4396 6044  3720 10282 12080  3721 9914 13325  3968 5127 13377  1957 7492 15251  3722 6899 14661  1397 13845 14194  3723 14192 14193  2334 8044 9158  3724 14558 14559  7267 14612 14613  4344 14114 14115  1914 7022 7498  252 7499 13997  3727 7022 7498  3727 14585 14586  2383 9167 9168  3728 9831 13841  1732 6645 6646  463 5683 6644  7855 13858 14376  2054 7855 8413  2276 8735 14445  6151 10295 15739  5468 13459 13460  3732 6151 7722  4439 11308 14395  370 9647 12699  4829 9786 11373  1071 9786 15197  3735 5761 10795  2053 5761 15348  1751 6911 6912  10887 13901 14872  1146 4309 12715  1792 5992 12832  1239 9691 15424  3303 9002 9003  7998 11426 14439  3739 7998 14440  3740 6312 14070  3740 6749 14070  28 14815 15131  3741 6514 12562  3742 10409 14220  2802 4828 10409  3743 6802 11314  3743 5753 14146  587 4797 8104  1745 6422 11457  7530 14739 14740  514 7530 11793  3746 7395 11870  2904 11130 11154  2109 5066 8351  4924 14218 14219  3748 9098 9114  3748 9114 11399  3749 7303 9006  3749 7303 10351  885 11258 12967  3340 12967 14698  2054 7855 14376  3751 7153 12733  333 10371 12018  3752 6245 10392  3853 11318 14728  3753 7173 14527  3754 11132 14759  2595 10165 11132  3755 13640 13641  3755 6186 7703  2050 5960 6768  3756 8766 13966  3757 10122 10123  3757 10123 12540  1236 4657 6122  2301 5986 9833  3217 9751 14325  3759 7190 14763  3760 7884 9309  3760 12965 13037  2323 8853 8854  3761 12180 12923  2774 10232 10233  765 8250 10232  410 6436 12766  3763 7150 14243  4091 6970 10038  6970 10038 14856  9129 13461 15489  482 4367 9129  1844 13268 14787  3766 12918 14788  2091 6321 11099  3767 6321 13803  3768 9640 12558  3768 6556 8337  3560 5990 9371  3769 9371 13132  5418 11267 14635  1994 5418 11847  160 8604 15332  3935 4903 13231  1946 7129 8938  9440 14625 15310  2420 4779 9440  7232 8368 12900  3774 5999 13142  1462 5795 8763  3775 5731 14882  2327 8583 9049  2327 7028 8583  3777 10759 13454  10759 13454 14268  3778 8866 10132  3778 7464 7466  1896 7466 11527  3779 7465 13380  3780 6699 10023  3780 11542 14904  3781 14655 15342  3912 12282 12283  1653 11330 13727  808 7922 7975  1289 11776 13956  45 7427 9805  994 7585 14223  3784 8299 13374  2852 6950 10657  3951 14350 14351  3786 7675 11442  3697 10713 11442  628 8742 14708  3787 7885 13367  2951 4765 5549  2951 5948 12443  2145 4801 14832  4801 12984 14832  3916 7752 12233  1158 7752 12872  1933 7567 15055  3791 7953 15369  994 7584 11350  994 7585 13194  2946 10920 12988  3793 12047 14982  7965 14937 14981  991 7965 15361  995 7578 15017  3795 11875 13564  1938 14999 15047  991 8882 10639  1930 7552 7553  3976 10962 14505  7581 15022 15050  3791 9921 14886  3798 15004 15059  4254 7594 15219  1944 7561 7584  3800 10177 12221  3803 15015 15033  3800 7584 13768  3800 7561 7584  1000 7583 15015  500 7603 15034  1943 5297 7583  1932 7566 15063  3804 11154 11870  1932 14996 15052  1001 7566 14808  1941 7593 14989  260 7570 11667  3807 7762 14992  3807 15031 15038  3791 7567 15055  3816 15022 15058  996 7602 15035  1937 7591 15011  3810 9942 15029  72 4912 7441  3812 7569 15048  7576 15026 15061  3812 7930 15030  1981 7756 7930  997 7993 8520  997 8520 9103  2346 4631 9150  2346 9149 11754  1942 7582 15060  3815 15020 15054  3816 7580 14996  7581 15022 15058  7568 14991 15019  7568 14695 15019  7597 14990 15041  3818 9736 15002  3819 7571 7577  3819 7577 14767  1939 7595 15024  3820 15007 15042  1936 15000 15026  3821 15000 15025  3822 12697 15028  8579 13035 15027  1935 9540 13171  3810 15011 15057  4469 9306 12921  1578 4800 7060  552 5072 7162  552 7162 14668  3826 8102 9406  3826 8460 10140  3827 12662 14863  1900 5087 9477  2473 7446 9465  2473 4263 5611  335 4626 9910  4923 10350 11975  1436 12913 14947  3830 9138 9362  3831 7305 14892  3831 7377 14892  3306 12764 13720  1453 4792 14242  599 4727 8426  3833 8027 11428  3834 8733 13844  142 4812 12216  3835 8069 15105  1757 6356 8069  3352 8295 8296  3836 12491 14747  4118 8065 15182  4118 8065 13484  3838 10787 15098  3495 10803 10804  2675 7678 10572  3839 7678 13988  1632 11055 13020  3840 8728 9824  2338 6066 12141  1086 8688 9008  1985 6272 12477  1985 6272 7821  2616 9791 9792  2616 9852 10071  2081 7647 15609  269 8129 14706  2702 8222 8223  1305 5595 11119  5114 11119 14969  897 7667 9303  6253 9507 11283  3848 6023 15169  1657 5621 6023  654 9293 13542  2389 8110 14216  2335 8115 12029  3850 8113 10118  4029 7474 14333  399 5862 12053  1805 7083 8011  3852 8637 13308  3853 6873 14727  3853 5937 14727  3844 8129 14706  3854 8281 15092  4829 15196 15197  1979 4166 8237  1949 6727 13475  3856 6517 12482  1204 8376 15346  27 6645 12175  1631 11728 14623  3858 14621 14622  1454 12712 14841  7094 14840 14841  1292 5771 15240  2994 9069 11550  2345 4516 8340  285 6503 9234  3861 7726 14379  3863 8332 15275  1775 6908 6909  3864 9918 14772  2467 6130 9919  1447 9171 9919  1923 7528 7529  1008 14738 14928  3867 7518 14927  3867 6730 7039  1964 6124 7145  3868 10028 14931  1470 4535 12927  3869 7761 13510  869 4323 9139  869 8951 9139  2426 8272 11687  1585 6037 8386  5131 9318 15508  3872 5082 14143  5131 12453 15508  554 4906 15365  950 5684 13718  1284 13717 14498  1887 4674 8147  947 8879 10415  2019 4578 5856  4578 5856 10626  2431 5317 5942  1018 8362 8416  3878 9044 14169  349 14169 14478  2962 6577 7766  3879 14366 14367  3880 11619 12019  1146 4309 8856  3881 9941 15315  1430 5569 15315  1872 5893 12171  5409 9936 13669  1605 5435 7403  1702 5436 7403  1578 4800 10276  1578 6234 9955  3526 12895 12896  1137 9823 12895  1662 4851 11906  4684 6863 11071  3887 13796 14770  4071 5085 14770  1907 4428 6509  4129 8717 14129  3889 12422 12434  1088 9732 9733  3890 9731 9732  3890 12777 12778  1826 6421 8973  3199 6727 13811  580 7208 11689  3892 7207 10954  44 6303 7296  44 7296 9249  1158 12474 13466  2009 4545 14980  771 6996 8035  2198 8480 10837  7895 14795 14891  1311 10021 10848  3897 5026 11654  4550 6631 15759  6308 7419 15668  444 6307 7995  347 10990 13489  1277 6726 10264  1899 12048 13188  3900 10197 13187  1026 7011 13886  2731 7011 15413  3902 10231 15414  510 10426 12151  3903 5096 13156  2251 5121 6219  1037 6297 6953  2222 8612 8613  634 8478 8612  2222 8614 15191  3905 8613 12293  7673 8305 14161  3908 15452 15453  72 7591 7758  3349 7365 12420  4934 7365 7411  1927 7411 12788  3910 7930 15725  998 14992 15455  3911 7762 15451  4248 12282 12283  3404 7000 7396  1465 10969 12283  1465 12283 12459  3914 12614 12615  3914 8749 8750  1404 5461 6107  94 5461 15430  3790 4296 7752  3790 4545 12474  3919 8385 12847  3919 10938 13352  2256 7514 10723  3918 10938 13352  6410 9954 12846  3919 6410 10938  1356 5200 6582  3920 6915 15349  1323 5177 9355  277 7313 15556  2837 10230 12513  1092 9982 15440  1092 8663 15512  3923 12495 13503  3923 5168 9982  7442 15441 15442  9269 13832 13833  3925 8285 15401  1639 6511 13831  5825 11669 14366  1715 6024 6805  275 6024 7946  2037 7988 7990  3928 10116 15291  2441 6580 9246  6580 14952 15292  2787 9823 11412  807 8608 8705  3931 5939 10076  2522 6355 8784  1570 6153 10207  1101 13236 15101  2757 9776 9777  313 7149 9775  785 7299 8791  3934 7804 12689  2186 4702 8603  160 4182 8604  3936 8916 9189  1126 6649 9686  3937 6649 12451  3937 9686 9687  2834 10702 12449  1222 8309 9912  3939 6403 14792  2911 6878 13097  588 4994 10924  3940 4994 15480  2557 7654 14166  3941 7654 14421  3367 6616 12635  3942 6616 12635  1112 8582 14964  4590 12778 14609  1448 14095 14096  1448 14096 14097  225 10943 12851  3945 10082 12051  1489 5272 5580  3946 15326 15328  429 11954 15548  1763 4851 6683  3948 11578 14867  3070 7535 11578  2547 4423 7109  3950 8087 8089  3950 10744 15564  3951 13970 15475  814 5840 11001  1978 4654 11790  3952 14350 14351  3953 7175 15585  7732 15586 15587  4651 8933 14055  3954 4651 11908  1508 5526 8430  1508 8430 15245  3956 7172 14659  1142 5736 12370  596 5814 5886  596 5886 12487  3958 8867 14837  3958 5048 7149  3959 5605 7204  3959 9886 12605  2149 8445 10953  836 9132 11642  1122 11116 11317  3961 11317 13375  1640 5700 8072  1011 12966 15264  5966 11345 15066  3963 11345 15067  3964 6343 14810  3964 5235 6343  1513 5858 11989  5859 13692 15259  4191 11582 12442  4191 12442 13124  2225 7837 9913  1056 8134 8674  378 8247 13325  6182 13378 13379  8873 10242 14226  5049 8873 10242  3611 5054 6917  3611 9583 12246  3972 6089 11656  2937 6089 14499  4076 7098 14923  4076 7098 11388  3974 13088 14511  4421 8183 14511  632 9064 9906  3975 14042 14043  993 6114 15344  3976 7554 15345  3977 12230 15639  1050 12476 14574  2080 5199 10660  5199 10660 15391  2515 7374 9502  1130 4068 9501  5193 9609 13851  2010 4993 7660  3529 5224 12207  5224 9492 12855  3982 6098 15267  211 8246 10225  2259 8472 15480  3983 15517 15518  2260 4979 8781  270 7987 8779  3717 6326 14341  1577 5751 7219  2543 8619 14869  2543 7244 12291  3987 8940 8942  1169 8031 8942  3988 6607 14578  353 4656 5143  2510 9817 11233  3989 6617 15505  3990 6368 12948  3583 6368 12948  2458 8428 9110  3991 9111 10014  1679 6333 8352  532 8352 11753  1139 5641 7887  3993 7887 13060  1717 6793 11189  465 12360 14691  3995 9945 15775  1783 4166 6680  3996 10698 13213  3996 9427 13501  483 14253 14417  3997 9015 9016  1054 9609 13851  3998 5193 5576  5422 9894 15449  2168 7686 11940  202 4000 13588  2751 11594 13588  2784 7931 9289  2784 6632 9383  1815 6544 8812  4002 6544 13390  491 5951 6286  1500 9911 13330  4004 8721 14954  4004 6580 8721  526 5225 7259  526 7259 15529  1751 6086 6912  4006 6913 7414  1109 10122 11065  1574 4007 10828  2225 5719 9913  4009 5719 13326  2181 5601 8348  4056 8349 8531  479 13940 14170  5395 13940 14170  5985 10708 13890  147 4501 5983  3076 11310 14259  853 4509 11734  3777 7633 11811  4013 7633 11811  3176 7516 9462  5065 7517 13024  231 7710 9226  4015 6222 10977  3239 4974 11645  1737 4581 8444  4017 4659 8569  4017 8569 15364  2505 5842 11240  1105 5842 11240  2639 6664 12671  4019 11343 12095  1859 4960 7262  4020 8454 8945  1625 6457 14775  3578 5799 6951  4022 7499 13997  1914 4022 7499  3747 14218 14219  1795 9162 15656  1064 9960 12980  1064 9960 13463  1082 14520 14522  4025 11584 14521  805 7068 9721  4026 14520 14521  4435 11319 11320  4028 11319 11321  2161 7402 14532  4028 11321 11322  4029 7474 14473  1623 4214 6489  5287 8492 10074  5285 11162 15398  4032 12268 14906  3210 11513 12268  4032 9248 14906  879 11513 12784  496 4297 5745  1909 5236 6140  1127 6327 12468  4034 10206 12468  3753 14527 14528  2054 6584 8413  2194 6133 10390  6133 12758 14401  2098 8242 8243  4037 8040 13664  2014 7717 9463  4038 8933 14055  2699 10526 10527  4 7012 7126  1123 4040 7406  4041 8779 8780  3977 8720 8780  4042 7453 7985  4042 6615 14574  6615 12476 14574  4043 6615 12476  1858 4044 7048  4044 7048 7891  3561 13717 13718  4045 6429 14327  4046 7708 15131  4046 5796 7708  3698 7040 13399  5143 7525 13398  2647 7456 10173  4048 12397 13481  1697 6072 7382  4049 6072 7382  1077 7983 13023  7635 11419 12016  4051 8731 8732  4051 8732 10605  1776 13515 15157  4052 8979 15692  3952 7733 11790  225 4654 6484  8841 12327 15679  4054 8841 9430  4055 7552 7553  4055 9921 14886  2180 4231 8530  605 8349 8531  1645 4530 7672  4530 12972 14569  2154 8487 9557  1689 6710 11979  2910 9846 13395  2104 7388 9846  4060 11097 15763  228 8393 8722  7918 9065 14304  4061 14304 14450  1741 6887 9793  1320 5351 10732  9613 9631 14885  2064 5552 7800  2283 4064 11045  612 6387 8794  1710 9971 14148  227 14792 15428  1538 9863 10277  4067 5116 11673  4067 8726 15484  1130 7397 11783  1130 4068 7113  2063 7102 12177  3151 7103 12334  8180 15550 15551  2332 5174 10040  4071 9438 13504  1550 4686 13504  3451 7071 10974  4072 7071 10974  2369 9270 14031  4073 9403 10005  2491 6639 10762  4983 15144 15641  4075 6906 13619  4076 8383 14921  8383 8384 14921  1358 9415 10813  3439 10813 10814  4079 11994 12206  4079 12206 12365  1709 5396 9922  4079 12365 12415  4617 9821 9822  764 6995 15155  2183 4769 9387  8442 10018 15629  1157 8638 15678  2453 8638 13945  2535 6692 10712  6692 13533 14864  2926 7319 12113  342 7319 12113  4085 7901 9541  512 4085 8573  1131 6754 15697  4087 14018 14019  2342 7901 13350  219 4387 6265  3106 4088 5400  5466 11931 11970  4089 7694 10999  4089 7694 14700  2124 6160 8429  299 12460 15695  358 4726 9042  5055 14278 15359  2066 4978 8425  2796 5896 6573  1585 5901 13149  611 9199 14945  24 12791 12891  2061 7978 11398  4095 11920 15420  511 6569 11271  2357 9133 14026  470 5627 13211  1075 13192 15124  2716 5035 7387  2052 9483 13577  4505 7503 11541  5458 14631 14632  5458 8057 14632  1806 4100 6989  523 6992 9907  2964 8673 11474  4101 7671 14452  3346 11872 11873  1389 5450 8643  3279 5610 9530  3279 5610 12084  2112 8290 8291  1066 8290 11677  2559 6973 12385  6973 12385 14750  549 6559 6561  1919 6088 8041  952 6668 10754  4107 8962 8963  1857 4108 7786  1022 6914 14671  2084 4110 8135  146 5997 11380  1555 6143 8734  542 4110 6141  1084 6866 11739  2380 6866 12069  4112 10242 14226  4112 8543 8544  4113 12757 13254  1685 4114 5078  2150 7700 7701  1467 6744 11602  4356 13010 13011  2011 7332 10735  4116 7332 10735  1554 5875 13989  4117 9618 12132  3249 6723 12056  1355 5315 12057  4102 5832 14619  5832 14619 15702  4120 8831 14436  4121 15247 15248  5089 13032 15247  1686 6551 6552  1015 6550 11273  1531 6047 11946  404 5911 13204  4124 9984 13298  4124 9983 9984  4124 6444 13298  4125 6444 13298  2401 5760 15175  1115 9120 10008  3788 6246 14782  3788 6246 8533  3555 7993 13770  1383 7822 13771  2829 10603 13098  232 8717 9900  1643 4130 8744  4130 8744 10371  4131 9682 15090  4353 15089 15090  2032 7719 7926  2032 4132 15301  4133 7550 12208  933 12207 12703  2195 6137 11950  90 8617 11259  4260 10297 12566  4135 8574 8575  820 9849 13568  1375 4136 9104  879 4137 7412  1796 4137 7412  1105 7815 12975  2169 7816 10178  440 12348 12382  4139 8773 9490  4140 6885 9477  4140 6885 13960  4449 10748 14550  1446 4449 8953  1031 5506 10678  4142 5506 15611  2132 7232 8368  5459 11455 13594  2137 8244 10366  2137 6738 11059  2038 6812 7984  5496 7983 13023  4146 12790 14282  2216 7284 9842  633 10365 13687  4147 7187 11690  321 9768 14683  1129 5622 8082  4149 12437 14217  4724 15536 15554  3471 13665 13666  5845 10515 14976  2263 4848 7813  4151 6269 14104  4152 9549 9550  4152 10489 15181  2481 7642 7697  1182 9493 15180  860 6864 14025  2155 4154 6276  2021 5692 11035  1711 5692 15703  1715 4156 6024  855 6803 15395  990 12469 12575  2132 8367 9926  3266 7436 14641  4158 7436 15568  472 5307 6842  472 6842 8494  4160 6389 11954  4160 6389 15519  4161 10488 13060  4162 14760 14785  1366 14785 15715  591 4163 13141  591 6270 8252  1878 6870 6871  1878 7824 12639  4165 14168 15360  1654 5877 14168  4166 9945 15775  97 8237 9945  187 4167 10040  2713 4167 13748  4168 12639 13064  4168 7943 14249  4169 10253 11876  846 6782 9101  4170 6174 7639  430 4170 6174  4171 11007 12236  1637 5098 12236  8074 8968 13003  2035 4172 10750  2261 6373 6555  282 9510 11095  1055 8235 9032  1918 6701 11358  3188 6910 10325  1095 4176 6910  4176 10285 15129  283 6379 10284  4764 10805 11764  4177 10805 11764  4178 7092 14420  79 6306 9431  3023 6624 11140  3023 11140 14321  195 4180 10486  4181 9186 12958  1700 8790 9186  2113 4704 8534  4182 7749 13637  6193 14133 15388  1125 4184 6193  4184 6193 10616  1997 4184 11686  7664 7910 8659  3019 7664 8659  2588 6724 8037  1043 4186 6724  4187 7640 14852  1507 11023 14963  2372 4188 14214  2372 9906 13747  4189 10131 12127  3848 9443 10131  1693 4190 6965  720 6493 6576  1056 8158 11582  3400 8158 8450  4192 15727 15728  1097 8370 10393  2133 4195 8371  4194 8370 13022  2133 8364 8370  284 4194 8364  548 4195 8371  4157 8367 9926  3774 12900 12901  2131 4196 12825  2131 8366 8369  284 10247 11764  1682 6403 6706  4198 15672 15673  1703 6763 8143  4199 8143 15772  324 4731 9845  1162 8645 11782  7016 15201 15715  7016 12780 15201  4202 12255 15220  1166 4323 12256  4203 11694 11695  4460 7869 11694  3007 7710 9226  4204 8561 14246  2454 5625 11964  108 7834 12241  1567 6205 7802  4206 15496 15602  1953 4844 7623  323 7624 12043  137 14488 15134  4208 13032 14061  4209 9404 9405  543 4209 9405  4210 13418 13419  2159 8514 8516  4211 8514 11618  4211 8514 8516  581 13455 14881  2886 8796 8797  3162 6507 7634  5664 6977 9702  1302 4214 6322  7188 11313 15230  4215 4858 13426  3473 6622 10861  4216 6622 15303  1971 5474 7683  1111 4217 7684  1437 9639 15382  4218 7847 15383  3654 8998 13057  4510 8998 14871  2431 5317 9675  6191 6515 13363  25 4401 7236  1917 6560 7609  3142 12037 12039  1659 5300 6528  253 7065 7897  3272 8686 8687  1779 4224 5789  490 4224 5789  7723 9513 14005  4225 14005 15272  3929 9246 10116  1805 4614 7084  1830 4227 8692  457 4227 8692  2653 8453 9667  2653 5042 8453  6675 9517 14876  4229 6675 9517  1991 5152 7448  120 4230 7797  1060 4231 8208  2076 4231 8208  1874 4437 7381  266 7380 12325  2032 4233 9520  567 7926 12371  1505 10600 13898  4234 10600 13898  3664 7079 14854  1694 12657 13777  2134 5523 9414  1128 7047 8297  1875 6666 9854  1875 4456 7070  6445 8628 12981  4238 6445 13927  4239 11839 11942  4239 9146 9828  2215 7980 9802  4240 7980 8679  2012 4241 8328  1871 7303 10351  1583 5782 14887  5107 5782 10054  4243 7806 9259  4243 7806 8112  4244 6942 13099  362 11384 13633  4675 7878 11384  4849 9512 13852  412 4246 8034  4247 11780 15353  1113 4849 11137  4248 10969 12283  1465 12388 12459  2593 6337 14692  1106 9924 10612  5585 11930 15596  4250 5585 15596  6780 11554 12600  3071 4251 9358  2139 8024 14973  1565 5446 9621  3216 6438 12519  82 6282 12520  4357 9222 10036  1945 4254 7594  2569 4608 7063  4608 7063 9961  3545 5624 7349  5624 7349 11534  2569 6540 9801  1191 7063 13496  1664 13070 15163  6672 15161 15162  4259 8085 10215  3427 10214 10215  4260 9096 9097  4260 9097 10297  1791 7062 14822  4261 8766 8906  458 4720 6586  1759 4720 6586  5611 12126 13165  4263 5611 13165  4264 8391 11429  599 8426 11428  4265 5519 12060  1650 5519 12224  5619 6172 12296  2527 8693 9870  591 4267 9411  591 8959 9411  2269 7886 8064  208 4529 6927  2531 6410 9954  307 8629 14665  6632 7628 10989  1117 4271 7541  42 4271 8667  4907 6774 13181  1117 4270 8187  1117 4272 8187  4273 7664 7910  4185 7910 8659  527 4881 9180  2184 6733 8121  2940 5790 14185  1185 11309 11328  2069 5540 8432  2069 10846 15669  2258 8770 8879  2258 5623 8770  4278 6134 8279  4278 9713 13562  1889 4279 6749  494 7264 13934  4280 7988 7990  2275 4280 14789  1148 4281 6886  475 13308 13321  2275 4747 5411  334 4282 5412  651 4283 9589  1820 6450 9589  4284 9269 9270  4284 9778 12649  4490 7874 15605  2211 7815 12819  4286 10889 10890  4286 5909 15109  7372 11825 13526  1519 4287 5339  2914 5362 10125  4288 11116 12830  4010 11877 14170  4289 9022 13940  5890 7996 12290  2498 5890 15684  3732 6151 13458  1342 5468 13460  1119 4292 8598  1978 4654 5169  797 4293 13354  4293 14310 14855  3704 12379 14620  1167 8027 12379  478 5128 9694  4295 5128 12894  2691 7775 9408  4296 7775 12233  4297 5745 8468  5745 8468 11652  3147 10847 15594  360 5204 8892  2622 4299 9631  1134 6347 11451  2031 4300 11511  661 9980 9997  1116 4301 9838  2035 6733 6925  2023 7355 7881  1116 4303 7355  4303 7355 7879  525 4303 7879  2202 8658 12551  1306 4506 8656  4305 7333 12085  1851 5207 7333  9019 12276 14968  4306 14966 14967  5091 9373 9374  2391 4307 4865  1712 5289 15579  4309 5289 8856  2142 4781 9604  1922 7038 13814  1291 8023 12433  1873 4613 10856  4312 10287 14374  4312 10370 10544  1743 4313 6060  1743 4313 7370  2213 10716 10783  2794 6791 13445  2952 7394 12799  1012 7231 11219  2489 5921 8387  647 4316 9056  257 4317 10758  257 7737 12987  1877 6952 7390  1138 4318 6952  450 9077 11955  450 4319 5185  37 4320 15511  37 10609 15135  2728 9214 10406  348 4321 9214  4322 7147 14849  4610 14850 14851  3205 12256 14430  869 7066 7067  343 8853 10674  4324 12003 12004  4325 9951 14964  2490 4325 13333  1218 4326 7679  3336 7056 10765  2766 6853 6854  4414 14539 14703  4414 9412 14539  4329 8410 13094  4329 8410 12966  1203 8314 13094  1203 8228 14189  3583 8723 12983  4662 6527 11450  642 15620 15621  2241 5107 9075  986 8449 12670  2552 4333 8449  2602 4958 10148  1317 8411 10149  1850 7072 14156  480 4335 7072  1247 12820 12821  2044 4788 12025  141 12340 12666  4337 8859 10019  157 6181 15738  7483 11831 15738  4339 8792 10878  825 6211 8145  1573 4340 6931  417 4340 6931  2460 9351 15385  2373 4341 9212  4342 9167 9168  4342 11646 12917  1183 9001 9167  4343 6587 11465  3039 5551 11821  340 7151 11819  4345 4928 9220  4928 12107 12108  4346 11223 11378  1211 14012 14014  2963 5365 9074  4347 8395 14456  4308 6798 10411  1353 4675 6798  2149 6335 9033  916 6335 9033  2041 5405 7950  1515 4599 5786  4117 5335 10382  1554 13989 15079  1720 4352 8851  921 4352 8851  466 9682 15090  1527 11475 15089  4354 13011 13270  4354 9356 13270  2090 6744 9482  4355 12388 12389  439 4356 6110  4356 13010 13546  1915 4357 8299  262 4357 8299  614 4358 7818  4358 7818 14545  5992 8025 12832  1124 4359 8025  3074 8943 12543  4361 11810 12869  3074 11810 14600  717 8196 13674  10167 12092 15078  1376 7472 10167  4363 9184 11807  7825 15228 15237  4364 9334 9335  4364 9335 12626  2845 6943 6944  4366 10003 13317  3955 4366 7331  1276 6342 15244  4367 6342 14323  5527 6342 14323  2009 4545 6370  2009 4368 8877  4686 9438 15284  4369 6968 15285  4370 9562 10884  4370 12926 14816  2105 4371 13337  3257 7876 13337  324 4372 8849  2022 4372 8849  2322 5944 11042  5944 9113 10923  1522 5444 6832  5444 6832 10208  2457 8433 9555  1152 4653 9554  4376 5562 11050  5562 10362 11050  1207 4377 9039  1207 8884 9039  2901 9569 11062  22 7844 9569  3957 5088 8485  5088 8485 13133  5632 12005 12006  3182 4685 6392  1655 6596 11750  1003 6595 9419  2973 11558 13645  1718 5454 8446  1765 4383 6994  464 4383 6994  4384 9700 9701  4384 12739 14779  9929 12739 14291  289 8215 9929  5534 10935 14398  4386 13670 14399  2342 7306 15300  4387 6265 15472  7072 7649 14156  1163 4389 7074  1850 7073 7074  118 4389 7073  2035 4390 10750  1085 10062 10750  4391 11914 13749  4392 8433 9555  4392 6736 12860  5630 11914 15208  4393 6736 14501  1133 4394 7704  4394 7704 8576  641 4394 8576  2118 8323 12582  1133 4395 8323  608 4396 11079  5051 7243 12970  2712 6235 6347  1134 14163 14519  4398 8212 14163  4399 6613 11808  4399 6258 13857  224 6542 12775  1840 6748 9491  3075 7236 11632  4401 7236 11632  4403 8833 9244  789 8026 11409  2347 8833 9244  1229 4403 8833  1359 11414 12206  168 11343 12856  1447 9919 15302  3568 10384 12577  4406 12576 15302  4406 9618 12132  2846 10739 15628  1349 4733 10738  986 4408 9426  1976 4408 9426  1739 4909 11232  1364 4409 6848  1674 6601 6602  1364 4410 6601  1364 4409 6329  5831 10267 14801  2469 5193 9609  2185 4412 8318  3186 4683 6648  3186 5594 11863  436 4414 14704  1594 6169 13555  3280 8128 12071  1829 8128 12071  484 9544 13801  2088 4416 12403  3134 9023 11864  3134 10703 11688  2500 9076 13721  4418 9077 11955  4419 8221 11984  4611 10112 11984  124 4420 9352  124 4567 9352  4421 13088 14511  1047 9931 13088  5452 9037 11326  156 4422 9474  2723 10181 14617  4364 7665 12626  4424 7665 12626  1786 4425 8251  1153 6841 14715  346 4426 4463  1810 4464 8881  477 5003 7111  5003 7111 15239  758 5293 11449  758 4428 6509  1582 6066 12141  4695 11649 12992  1809 4430 6485  4884 9648 11887  3578 9495 14599  1814 10946 15279  1812 4432 6846  136 4432 6846  2673 7679 9972  361 11612 11613  4434 11613 13612  361 11612 13530  4435 11319 11321  4436 8319 14479  1874 4437 8703  965 4437 8703  4439 11308 11597  4438 6495 13882  3468 5116 11673  5116 9647 12699  3247 7086 10672  4440 7086 10672  4441 8035 15154  764 6995 8447  2405 6014 13199  1521 6014 13199  2936 6623 9172  1144 4444 6623  406 4444 9439  4444 6623 9439  1988 6210 12747  1988 4445 7942  2529 8327 12949  1785 6715 8292  1268 4666 4905  597 8802 8967  2243 6896 11348  1255 6514 6896  4468 10748 14879  4468 10748 14550  914 4450 5064  2394 4732 7511  2664 5770 8615  2664 8615 10024  4452 9379 11113  4452 8813 12643  1150 13195 13196  4454 11676 12032  746 4454 14050  3026 13808 14050  4455 6586 15459  1759 4720 13757  344 6540 9801  344 6540 11043  2224 6238 8329  4399 11808 12405  1875 4456 8440  490 4458 6666  2308 7918 9065  600 4459 9066  1371 10001 11695  4460 10001 11695  2321 6737 11333  4785 12067 15691  3460 4676 7830  4676 7830 14701  1214 7112 8474  5086 7112 12337  3043 11153 15305  346 9382 11152  4465 6753 6755  4465 11153 15305  4123 12773 15168  1531 6972 12773  356 5170 7903  2640 7903 8303  2614 9185 12196  43 9185 12443  520 6647 8346  1742 4470 9286  288 4470 9286  2778 4471 10198  777 9738 10199  2468 9697 9698  745 13000 13977  4473 9697 9698  1193 4473 9698  2829 10072 14753  1147 4474 10603  7941 10077 15510  558 6048 7941  1943 5297 10383  2772 4476 14402  2748 10649 10650  4477 10648 12726  1615 5977 9645  1615 4478 7238  4479 13067 14053  2485 7839 7841  4481 8641 15712  4657 8641 15712  2993 11305 11306  2993 11306 12355  1275 10053 15445  1275 7992 10707  2381 10456 10933  3151 7103 11847  106 7102 10273  2928 8507 8644  3051 7537 7538  304 10617 15193  304 10617 15388  1811 6940 8605  481 4488 8605  2719 4489 5129  2252 5109 8727  2211 5651 11161  300 5651 11161  240 6845 11835  4491 5010 12606  3177 8206 14756  220 4492 14756  3211 6251 12263  4493 8278 15277  4494 5757 7823  62 4494 5757  3063 4494 11214  5738 11212 15069  3185 10274 12064  4496 10274 11054  2798 4497 7015  787 5919 10286  2399 4498 9416  557 4181 12958  1751 6913 10628  2399 4499 13525  1154 12897 15205  1154 4500 9416  1154 4500 10728  1154 5984 12897  3102 7404 11441  70 7404 11441  2704 8914 8915  2550 9915 9916  663 4649 9917  1306 7504 15647  4505 7503 14802  2202 8656 8739  2201 6069 8550  2762 10670 11772  440 4507 10669  4591 8462 11134  4508 10670 14702  4509 5382 6183  853 4509 5382  4510 8998 13057  1270 5800 12490  2105 4371 7877  949 13116 13545  2821 5437 10827  1164 4512 10826  2809 10229 10881  779 4513 10229  2997 9564 11492  1459 5667 11493  2046 8005 8006  2046 8006 12498  631 4956 9296  631 4516 10606  1619 14696 14712  1619 6981 11664  1853 4867 10057  1853 8701 14776  1942 4519 8956  2370 4519 12045  3915 12634 13402  1572 4520 13402  2533 5865 9784  5024 11953 13756  166 4522 12258  1195 5027 11504  4523 9915 9916  1195 4523 9916  1172 4524 8344  1172 4670 10221  2406 4525 9411  1172 4524 9409  2283 4526 11045  971 8588 11045  4527 8012 9468  4527 8012 13055  1709 4528 9922  4528 8124 9415  1216 4529 11974  1216 11322 11974  32 7841 11700  1645 6198 11915  230 5900 7119  1807 4100 6993  572 8044 9227  572 4532 8044  4533 12863 14030  4533 9597 12863  3230 10085 12267  6447 10085 12321  4535 9508 12927  486 4535 9508  2116 4678 5406  5859 13692 14826  2314 7836 11856  2314 9859 12383  2053 7225 15309  4553 10795 15348  678 4539 10429  2655 10237 10429  196 4540 8895  2684 4541 10213  4541 9119 10213  2298 8264 8944  4542 8264 14723  583 4711 8050  4711 8050 14592  4544 15754 15755  4544 9715 9716  4545 6370 9841  2068 9841 10517  2008 4546 4998  4546 4998 15481  4547 9229 9231  1314 4547 9231  2196 8625 8626  4548 7495 12496  2800 8682 11803  770 8682 11803  1187 4552 6291  1187 6291 11816  2710 4552 10477  1187 4552 10477  2496 9665 9780  4553 9536 15347  2414 10299 10687  2413 8012 9468  1165 8012 13055  1165 4555 6525  579 4556 8522  4556 5112 8522  233 7557 9908  4790 7765 8512  388 4558 8719  4558 5771 8719  2215 7980 8679  1292 4559 8678  2415 9498 9500  1952 4560 10904  3426 8058 11715  1171 4561 8058  4561 8058 11715  553 7484 13271  1963 7535 7536  6847 8606 10228  3989 4564 6617  456 14137 15504  1658 6619 13808  1244 4564 6617  2475 6359 12297  1244 4566 9595  124 6988 12172  124 7271 12172  3533 6055 7981  1549 6055 7981  499 4569 13830  1970 11096 13830  2589 4570 8039  2231 5331 11592  1524 4571 10252  1524 5884 6291  3829 9179 11975  4572 4923 10350  1777 4573 9925  962 9268 9925  1969 4574 7661  7511 9747 15443  506 5144 11681  1736 4596 12663  2954 10373 15542  4959 10373 15542  4577 10127 10128  1451 4577 10128  622 4578 7725  1963 4578 7725  257 4579 9344  1973 9177 13649  1961 4580 8133  229 4580 8133  1675 6274 11566  506 12435 12663  3125 4582 9837  648 4582 6296  2837 4822 8535  109 4583 10230  2953 6855 8710  2953 6856 10822  2837 4822 8663  1259 4585 8535  2571 5614 9965  715 5635 9964  2354 4589 9272  2354 8742 9272  101 4589 12307  2343 9199 9273  2354 5123 9943  4589 9272 9273  4590 12777 12778  330 12778 14609  2388 8462 11134  4591 8462 14306  1979 4166 7359  4829 8277 11373  2157 4769 8378  581 8377 14881  3992 8428 13529  4594 8428 13529  156 4595 9474  3295 12224 12225  4596 12435 12663  1675 4596 12435  1420 10932 11087  4597 12503 12596  646 4598 6941  646 9586 13274  128 6873 7173  4599 5786 12184  1680 6736 14501  1133 8323 14500  4601 10259 10260  2879 4601 10772  1475 5763 10043  1475 4602 7666  1178 11463 12632  1178 8087 11941  3006 11462 11463  109 4604 11696  1773 6840 8894  9340 12247 14418  1896 7464 7466  982 6746 13017  4607 9601 13050  877 5179 9832  2313 4608 5972  459 4608 8986  89 8171 12294  3055 4609 10302  2885 7795 11980  2106 8228 8229  5462 8221 14202  2812 5464 10263  4612 12820 12821  4336 12217 12821  4613 7702 14431  5200 6582 11115  475 8011 13033  3852 7083 8011  4615 11611 15567  1555 6141 9054  1832 4616 8313  474 4616 8313  2384 4617 10046  91 9822 10046  2436 9348 9599  624 4618 9598  1977 6765 7267  340 4619 7267  1503 4180 8923  1504 4620 15436  2301 5986 5987  788 4658 7955  4622 5533 10209  157 4861 6825  6629 13304 13305  1249 4623 10256  7 4624 10461  5563 9179 12656  596 4625 5563  1226 9179 11975  1226 4626 8241  2190 8580 9572  1046 6760 12755  384 4628 8870  1800 4628 8870  2141 4629 11638  1357 4967 7555  2419 5889 10709  2419 5746 9800  4632 9149 11754  131 4631 9150  1941 5746 7570  505 4632 7593  3183 6207 12165  524 4633 5920  2209 4634 8421  1047 9931 12811  2307 5452 9037  600 4377 9038  2348 4637 9263  1313 6244 11217  2968 8500 12682  1313 4637 7751  316 8860 8861  1193 4471 10198  7976 10621 15666  1490 4640 7976  3901 7011 13886  1534 12943 13887  1723 4427 9771  4642 7928 13339  1420 4643 10638  4643 5428 10638  3159 7180 13651  1205 4644 7425  1886 7180 7425  205 4570 13644  1973 4579 8427  1973 4646 8427  2203 4647 12027  2422 4730 13840  2416 4648 8937  4648 11620 13481  3123 7635 12016  663 6568 8156  4650 10919 10920  1020 9748 10920  87 13225 15263  1435 4651 13224  549 4652 7263  1918 4652 7263  2455 5768 6905  1152 5444 6678  4053 6484 11078  1600 4654 6484  2285 4666 8967  2283 4655 10290  353 4656 6607  1867 4656 6607  4657 8641 13464  1035 4657 13464  7164 13825 14325  788 6103 8510  4659 6797 12843  4659 6797 11643  2798 9464 14134  1247 12217 12821  3356 7089 13063  774 4661 11377  4662 12422 12434  3192 11450 12422  2034 9431 12809  517 6728 11186  4664 14857 14858  357 7246 14064  1279 9175 14858  4665 8004 11332  4905 8802 12875  597 4447 8802  2094 5815 10908  1268 4666 5815  1661 6354 13772  6105 6641 13166  3021 6830 11260  985 5785 14562  1172 4670 8344  2083 4670 8344  4671 10312 13315  4671 9069 11647  2838 10767 10768  5027 10769 11505  4673 10767 10768  1196 4673 10768  2483 9275 9276  1196 5931 10331  4308 6798 12223  4675 6798 12223  4676 11651 12829  507 4787 11895  5389 8414 8668  3161 11959 13477  1445 5697 11958  1450 15534 15535  4679 5589 15194  2201 6823 8550  320 8456 11382  5001 13906 14480  5002 9397 12911  2918 7975 11330  1210 11864 13080  4683 8164 11331  449 10956 11331  1763 4851 5511  4851 5511 11906  4380 6392 10917  4685 6392 10917  1550 4686 12926  4370 7843 12926  2936 11068 15373  4443 9172 9177  2936 6623 9439  1234 9076 11068  752 4689 7730  2352 9130 9131  5085 10802 14233  4690 10802 13576  563 4691 13146  563 5407 6628  2568 4692 10135  1197 10134 12709  1433 5645 11737  2578 7167 12732  4694 11239 11899  4694 12597 15107  1129 4695 8082  4148 5622 8082  2781 10763 10764  2781 5728 11581  4697 10763 10764  1217 4697 10764  2162 8282 8486  1217 4698 8282  2902 6585 11025  292 6326 11024  2561 9497 10097  177 8633 10099  4840 9287 11751  366 4701 11749  4702 6272 12477  623 4702 6272  1747 5798 11993  1747 5798 6889  160 4903 9348  4704 8557 15514  2791 7998 11426  2262 4705 11193  4706 8671 11165  4706 11165 11589  1453 14242 15076  664 4944 9125  3554 7045 11198  1132 4709 7386  3748 8078 12441  1312 4710 10597  3093 7680 10597  4711 7057 12465  583 4711 7057  242 10642 11807  3259 12099 12100  5825 8571 12419  4713 6535 9819  4714 6823 8550  1206 4714 6823  1206 4715 15118  1206 7483 14861  4716 9253 13605  402 4716 9253  1079 4717 10778  1489 5272 7010  1253 9119 13167  1253 4718 7148  785 4719 10710  1561 4719 10710  458 5504 11727  458 4720 6128  1704 4721 11197  5567 7727 14483  992 8162 13702  992 4722 8162  1733 4723 7631  2628 4723 15638  80 7559 7913  5892 11720 15536  4679 5589 10693  1450 5589 15535  4726 9042 9043  1209 4726 9043  2304 5892 8426  1209 5892 15536  2416 8935 10952  1062 8935 11066  2829 7812 13177  1532 4729 7812  2203 5978 12027  4730 5978 15229  1815 7181 7182  324 8849 15299  914 7511 9747  4732 7511 15443  2991 9633 11530  1349 4733 11529  2164 4734 9413  1167 9388 9413  2643 4735 8830  4735 7344 8830  522 6445 13927  4917 12640 15757  2124 4737 8978  1077 4737 8978  1835 4738 10562  4739 7307 12902  5140 14148 14149  655 5973 6564  1651 5972 5973  1694 4741 8048  16 4741 8048  4742 11817 14464  1269 4742 6924  4743 10102 10202  3293 4743 13682  2469 6453 12351  541 4744 9608  4336 12821 14318  2044 4745 11017  2303 4746 9607  4747 5412 10369  4282 5412 10369  1749 4703 6889  1747 6889 15376  2633 4749 8768  2354 5123 8742  2267 6369 8023  512 6369 13267  3131 6067 7034  6067 7034 12432  1873 6067 7641  4311 7641 12418  4151 4753 14105  1370 10357 14106  5711 6669 7431  4754 5313 12954  860 9880 11200  4154 6276 9880  1227 6217 8976  1227 4756 6148  4757 8652 8653  4757 9947 11002  2611 9947 10238  6217 10239 13249  4759 9947 10238  1228 4759 10238  2749 4760 9898  4761 9897 10097  5410 9497 10098  1223 9897 10097  649 6324 15266  649 15075 15266  3233 4850 6206  4763 13791 15113  4764 10245 10247  4764 10247 11764  4765 11117 11118  546 4765 11118  2613 10245 10246  1241 4764 10245  1603 5605 7204  2527 4767 7783  2800 4768 8246  4768 5640 8246  305 4769 9387  2157 5350 8379  4770 10599 15133  4770 7126 15683  3518 13685 13686  1289 7651 13685  2862 4772 5215  278 8591 12728  2210 6530 9258  1730 6530 9258  1325 9446 12218  1325 4774 7326  3641 5592 9770  537 12630 13443  514 7530 14740  514 4776 7276  4777 5760 13163  4778 7343 15621  1731 4778 6562  4446 4965 7097  812 4779 7097  1794 6883 8092  471 4780 6884  1920 5838 7479  19 5838 11801  2142 8258 8259  626 4782 8258  1592 4783 12064  4783 7900 12064  2165 7951 9839  151 4784 9839  4613 9349 10856  134 9020 10855  1415 7702 9349  4787 7534 11963  1424 4787 11986  4787 11895 11986  1248 4790 7765  1248 4788 7765  2127 6441 7451  7325 9109 11826  233 4557 8512  233 4790 8512  858 6680 9389  858 4791 6861  4792 6545 14411  1453 4792 6545  239 5935 12719  1784 4793 6713  268 4794 8317  1888 4794 8317  2137 4795 9310  1081 4795 9310  2570 10144 10145  1233 9084 10144  2108 8103 8104  1233 4797 8103  6306 9431 12809  2034 4881 11052  2371 7053 13113  1883 7968 13804  934 10276 12921  934 4800 10276  3079 9763 11789  4801 9763 12984  1232 4802 10624  1232 4803 10624  2744 4803 10624  660 5372 8939  2417 8618 10955  630 5346 9514  2056 5364 7912  1231 4805 7911  2003 4806 7851  619 4951 6745  2136 8288 13554  415 5578 7482  2148 5596 7618  386 5349 6862  1176 4809 15768  2555 9533 15768  2823 6449 10985  2033 4810 6751  3000 10249 12090  3000 12090 13197  4812 8733 13844  2438 4812 8733  1267 8816 10901  1267 7187 14469  4814 9753 9754  698 4814 9754  1906 4815 15622  1906 5298 5316  201 7792 11627  201 7792 13824  2386 7776 14378  1129 9116 9334  127 4818 4831  4818 8157 13905  2817 6137 9893  768 4982 9094  4404 11343 12856  1716 4986 4987  1195 4504 7399  663 14652 15085  4585 4822 8535  462 4585 4822  6129 8010 11724  1293 4823 6129  1293 4823 8047  1293 4824 8047  1523 4825 4826  4825 4826 14901  4214 6322 8049  1635 6322 13408  2933 8860 15753  316 12449 14102  2801 4828 9030  980 4828 9029  1979 4592 8277  4829 8277 15196  2539 13237 13307  1866 4830 6591  4831 8302 12242  4872 8302 12242  1976 4408 7742  2263 4832 14016  2263 4833 9584  696 5952 7813  5 4834 10471  2387 9398 9399  1243 4835 9398  6787 14448 14914  6787 9927 14448  1558 4837 6479  1423 4503 8915  2081 8129 9315  1121 15250 15760  4840 9287 13617  5895 12628 13617  3572 5672 8629  1484 8219 11641  4842 9729 12997  4842 14776 14777  4843 6789 8701  523 4843 6789  893 4844 8315  1953 4844 8315  188 4845 10541  477 4847 12168  1571 11191 11962  1724 4847 6381  477 4847 6381  4848 9493 15180  4848 6269 9493  1113 4849 9512  73 10368 11138  4850 6206 15112  2807 4850 10799  429 4851 6807  1662 4851 6807  2607 9034 9887  135 6115 9034  2347 4853 9948  1293 4853 9948  516 4854 9773  1959 4854 9773  215 6575 11370  4855 10241 15377  3010 6575 11370  801 4856 11660  1256 8798 10868  4857 8798 10868  2067 7230 8163  4858 7188 15230  2139 4859 8747  2139 5131 12139  4860 6694 6695  2878 4860 14089  4861 5533 10209  1499 7818 14545  2600 6851 10187  2646 4862 12059  4863 10427 14191  336 7376 10772  2826 4864 10186  719 9240 10185  1897 4865 6409  738 4865 6409  3228 6752 6904  889 6752 6904  3629 7128 8745  832 4867 7128  7298 9895 13031  402 4868 9895  5036 11031 11032  60 4869 9669  2832 8407 10926  4870 8407 11008  4871 11022 12941  77 4871 11022  752 4689 9131  3405 11562 11563  3637 10105 12163  115 7960 12163  465 6714 8864  4874 6981 13758  1281 4875 8245  2669 5260 8245  2841 4877 10852  569 7044 11063  2385 5260 9368  351 4877 9369  2950 4878 10175  1393 4879 9307  1393 4879 11159  4880 11159 11545  4966 9795 11544  1393 11159 11545  4881 10061 10063  4881 10063 11052  2558 10064 14575  838 4882 10065  5229 9510 12446  1265 4883 10064  1809 4884 9648  1282 4939 7433  4885 10257 11956  3512 10184 11956  2604 4887 10258  603 7548 11705  2604 10259 10260  4887 10258 14957  4888 14229 14230  1318 13860 14229  2176 5524 8725  835 7017 9267  2121 4890 7294  265 7675 14930  1588 4892 7457  4892 7457 13476  431 13490 13675  1588 4892 8640  1901 6790 10665  173 6791 13868  2295 6092 8996  1307 4894 6091  4895 10349 10793  4895 7166 10349  6777 14649 14651  6777 9255 14649  1593 15758 15759  3225 6220 11623  3231 6844 11948  2373 9213 12604  5516 13848 13849  3432 5516 9944  2808 10798 13310  2472 4900 13173  2817 6137 7314  6137 7314 11950  1264 4902 9709  4919 9709 10355  4903 9348 9599  4903 9599 10736  2111 4904 8060  2111 4904 9892  4905 12572 12573  1268 4905 12573  2165 8473 12145  4784 7951 12795  4907 7628 10989  2275 4907 10010  1176 4908 9815  2442 4908 9815  418 4909 6907  1576 4909 6907  1749 4910 6681  481 4748 5570  3282 9004 13586  1547 8547 13586  72 4912 9942  1935 4912 9942  1468 4914 5329  544 12154 15096  5459 12575 13594  1468 10394 11454  1938 4915 9746  2939 4915 13322  3659 6026 11416  6026 11416 13527  1780 6669 7431  4917 5710 12640  1264 4902 8981  1264 4918 8981  2844 11011 11012  1264 10994 11013  2844 10895 11013  2844 6156 10895  2878 4921 14089  4921 10893 14742  2342 4922 15600  2342 7306 15600  1684 4923 9488  137 4923 9488  1795 6964 14219  813 8408 14218  2086 4925 7735  1027 11537 14635  1919 6087 13342  2020 6088 8041  865 9406 12368  2521 8102 9406  1211 4345 4928  3119 8181 10896  4929 11394 12372  953 8284 9312  6135 12478 14400  204 4930 6135  831 5963 6448  1607 4931 5963  1679 4932 8352  3992 6333 8352  3693 6328 10021  634 7288 11477  3349 8160 12254  1927 5439 7410  286 9457 12774  3344 4975 7489  2292 7231 11219  857 6937 8108  1604 6074 9027  1604 11593 15150  1986 4938 9051  4938 9051 12990  1809 7433 10343  722 5966 15066  3605 4940 10211  1282 4940 10211  2513 4941 6176  51 5512 8021  2779 8751 8752  2778 4942 10199  499 4943 7564  4943 7054 7564  2494 4944 9125  1295 7054 8131  4945 11658 11659  1295 4945 11659  3447 13279 13532  1365 4947 12052  4947 12052 13531  384 4947 13531  1365 4946 9505  1365 4948 9505  919 4949 7245  2019 4949 7245  4950 9892 14120  1088 12434 13302  4951 6657 12072  619 4951 6657  3195 4952 6728  1982 4952 6728  3881 8220 10051  1483 13431 15316  2317 6455 9054  1280 4991 9366  1367 4676 11651  1367 7105 14656  1614 7872 12117  631 4956 7408  571 7618 7619  1335 5299 10218  2602 10149 13253  2329 4958 10309  3260 12400 12401  3260 12400 13894  3260 5707 12401  1360 8310 12400  4576 9007 12018  3179 7286 11733  3153 4963 10640  469 12215 15277  1298 4963 10776  830 4963 8307  1230 9770 10289  5453 11731 11732  812 4965 7097  2125 5552 7768  3037 9795 11544  374 4966 9795  626 7556 12627  4967 7555 12823  1301 14090 15538  2708 5865 7242  4969 8714 14090  8714 9953 14090  3952 10943 14350  814 4970 10942  2736 6817 9602  495 6879 13400  206 4972 10596  2320 4972 10596  2518 5033 6512  234 4974 8424  1737 4974 8424  2384 6454 6834  1828 4975 6454  3666 6458 13462  968 9859 14176  4977 8130 15747  579 5766 7463  4978 8740 13182  6104 8740 13658  2259 8472 14315  3940 8472 15480  2825 8536 8537  2448 5703 11225  246 7051 8524  1902 8524 14845  2816 10906 10907  2816 5903 8983  3099 9451 13122  3099 11995 13122  1644 4984 9556  4894 6091 9556  569 4985 7621  4985 6693 7621  2255 5039 8650  2255 5151 5970  1716 4820 4987  168 4820 4987  580 4988 11689  1299 4989 10652  2777 7445 10652  303 5946 10027  2155 8254 8563  618 4990 8254  2317 9053 9366  351 4615 9053  2670 5267 9830  3980 12570 15654  1054 9609 15164  3940 4994 7937  588 8076 15528  3450 5706 7185  5706 7185 13234  4996 6214 15720  4996 13365 14900  2273 8148 13227  2273 10323 11663  3449 9639 13571  4998 9639 15481  4999 8142 9128  2378 4999 9128  2233 4149 7676  1849 7286 7883  5001 7515 13906  4681 5707 7515  4730 6976 9651  1687 4730 9651  5003 11698 14537  477 5003 11698  1503 5004 7052  4620 7052 13866  2534 7522 12771  2534 8053 12771  2531 8714 9953  666 9954 12846  915 8275 13381  3496 11838 13221  5008 9560 9561  1407 5008 9560  5009 13949 15716  4025 14520 14522  4858 7230 8163  3228 5010 11834  1744 5011 8194  401 5011 8194  552 5012 7144  5012 11305 11306  4199 5013 15773  434 8143 15772  1282 5014 15540  2194 8100 15540  1560 5015 6344  143 5015 6344  5016 12359 12360  2238 8930 12359  2113 4704 13502  622 5017 7771  624 5018 9472  624 4554 9472  2526 6218 9652  1400 7457 13476  5023 10406 11104  5020 11679 12982  1899 7477 13806  4624 9531 13244  2728 10406 11104  1287 5023 10406  2532 7473 10117  1326 5024 7473  2532 8385 9745  306 8650 9744  1594 4414 5026  436 4414 5026  2838 4523 5027  1195 4523 5027  3060 7710 12323  2085 6004 6257  1249 4622 5029  1500 4622 5029  1985 7821 15544  1985 5030 12477  1983 5031 13836  1983 6049 13836  135 5032 14878  135 5245 9407  657 4697 10763  5033 8844 14687  5034 11777 12744  2891 5210 9461  2650 5035 13192  2650 9749 12308  2857 11031 11032  1271 5036 11031  3261 5342 6636  5037 6636 12508  2806 10839 15341  1412 5038 10840  1135 9745 12847  2255 6250 8649  4125 6444 10397  163 8988 10513  5041 8668 15100  1114 4230 8390  1114 5042 8390  1081 4144 5043  1728 4585 7558  5044 5115 11701  1315 11434 14125  3248 11434 14125  542 7049 12521  2401 5046 9120  2799 5047 8684  1043 8418 8683  2374 9336 11771  1579 5222 9278  1631 5849 11728  1631 5049 5849  866 12107 12108  3356 9061 14603  5330 12826 15497  5051 8785 11101  5052 11300 11462  3950 10744 12632  5053 14966 14967  5053 8262 15166  5054 6917 11366  363 5477 11485  6642 8884 14278  2305 5055 6642  2283 5056 10290  1188 5056 10290  1804 5057 6395  4039 6395 7364  2567 5058 8634  1053 8841 9430  3501 13744 14015  1792 12832 14513  5060 10983 10984  643 10540 10984  2872 6686 13335  2483 5930 9276  3413 10654 14618  438 9791 12211  5063 7215 11351  1493 5063 7215  171 6203 11077  6264 9250 14043  1965 5065 9590  1009 5065 9590  1691 5949 8218  2882 11048 15200  531 9739 12995  5067 8149 15636  1422 10823 15637  1975 6473 13788  2654 5069 14905  2685 9728 10459  1326 5024 11953  1326 5071 10381  1472 5072 9499  5072 7162 9499  5073 5912 9091  1472 5073 9091  522 7224 13121  1865 8484 8628  1343 5172 9024  1343 9024 9060  2822 6176 11901  2562 5076 10664  1916 4942 9738  1916 5077 9738  2976 8607 8975  2976 5078 12136  5079 7223 9761  1327 5079 7223  3030 7223 9761  387 5080 9963  5081 8741 11283  1911 14393 15439  3873 6797 12843  5082 11456 14143  528 4031 8918  528 5083 8918  1321 5084 9376  5084 7205 9376  5085 10802 13576  3887 6160 13079  5086 7112 15444  7112 10354 15444  5087 12662 14863  5087 12662 15635  1673 5088 5089  463 5088 5089  463 5089 15248  5089 15247 15248  295 5090 7291  1730 5090 7291  2391 9373 9374  738 5091 9373  1300 5092 9385  5092 9384 9385  2972 10216 10217  3662 6106 12249  6270 8252 15074  2112 5094 6270  2063 5095 7179  4069 6058 12631  1146 5096 12715  1841 5096 12715  2766 6903 12876  2028 6903 12876  3104 9184 11807  3104 9184 10982  5099 6168 7825  4363 10643 15228  881 8211 10308  5100 9206 10308  5101 6734 14035  1446 8987 14035  2313 4608 8986  1446 5102 8987  5103 12943 14155  5103 9457 12943  1698 6611 6612  1455 5104 6611  6257 8800 15648  1455 5104 7260  2945 10962 10964  39 7554 10962  1529 4242 5782  1529 5107 5782  3321 9178 12237  373 8495 12508  4489 8699 8727  2252 8699 8727  3137 5321 14032  488 9274 14032  2417 5111 10047  1231 5111 10047  5112 8376 15211  2173 5112 15211  2477 5113 10760  206 7139 7157  1305 5114 11119  3846 5595 11119  2718 7540 8897  1305 5115 7540  5116 9647 13483  1382 5116 13483  5117 6109 7868  251 5117 7868  3636 7939 8255  607 7939 8255  1369 5271 9976  2548 9453 9455  3030 7223 9963  1328 5120 11600  280 8477 14912  280 5121 8611  570 5122 8718  3262 5287 8718  1237 4749 9943  1237 5123 9943  5124 7773 14408  2824 5124 14636  1269 12922 13682  3053 13480 13995  8089 12475 15139  1311 9087 10848  5127 8358 9735  5127 8358 13377  478 6836 14099  478 7501 14099  2650 5129 9750  4650 9748 10920  3239 11643 11644  1456 6797 11643  5082 9318 15508  561 5131 9318  3322 9929 12739  3322 9178 13247  161 5133 10231  2158 5133 10231  5134 10523 13638  1330 5134 9934  2993 11305 11307  552 5012 11305  3277 6999 8771  6999 8771 13081  1186 4459 9390  1186 5138 9390  2517 5964 12808  2970 5139 14489  2568 6634 10134  5140 14149 14150  5141 7307 12902  379 5141 7307  6391 9785 10306  1401 5142 9848  353 4047 7525  353 5143 7525  4575 5144 10090  2339 5912 9091  2530 9320 15380  5126 8392 13093  5146 8392 13093  8729 11796 12549  5904 11093 11796  1797 7246 11289  1331 6316 11474  289 8215 12376  2289 13517 13818  1620 6434 12936  2423 5150 8863  1333 4986 5970  1333 5151 5970  5042 5152 7842  3489 5152 13364  1173 5153 11379  1827 5153 11379  511 5154 11271  1318 5154 10342  2627 6569 11271  720 5376 10341  2630 10356 10357  781 5156 10356  3244 10167 12092  930 7979 12659  4362 7472 10167  2503 5158 14126  2156 5159 9928  5159 9928 10042  1903 5960 7467  1319 10025 11107  281 6704 8661  3557 8002 8003  2169 7815 12975  2570 5163 10144  715 8308 10143  2639 8359 13897  2639 5084 6664  1823 5165 14373  1036 11769 14373  1071 9786 11519  3562 10752 10753  1863 6145 10761  1551 5167 5419  1727 6738 13503  1727 5168 5326  4293 6718 14310  1119 8598 14855  356 8303 8412  356 7903 8303  35 5171 10539  2562 5172 10664  1343 5172 10664  2637 5277 10389  3079 5173 13779  187 5174 10040  2745 5175 11371  2596 9523 12797  2671 5250 10430  5177 10875 10876  1323 5177 10876  2015 7068 14036  2015 5716 13430  4607 9601 9832  877 9601 9832  5180 11788 11789  360 5180 11789  2496 5181 9772  2842 5181 13740  1324 5182 8198  2889 5183 8198  3762 10232 10233  1324 5183 10234  5184 8081 11633  2375 5182 11633  4319 7304 11408  2373 4898 9211  556 5985 13890  1477 5186 7007  2027 7007 10708  3337 7413 7956  2071 8083 9615  1477 5188 9615  5189 11111 13327  2957 6427 11110  2625 10332 11093  325 10333 14971  2625 5904 11093  1350 5191 10332  2596 10052 10053  153 5192 10052  4412 6453 12351  2469 5193 12351  804 5194 9402  3034 5194 13945  5195 10025 11107  1903 5195 10025  368 5075 5196  1352 5197 9333  547 6557 8639  3172 5535 12160  3172 5514 12878  841 5199 6663  2080 5199 6663  1873 6582 11115  446 5200 11115  1421 5201 7706  3365 5203 7706  2806 10839 10840  147 5202 10839  5203 5737 9799  1010 5203 9799  5204 8892 9592  3094 5204 12505  1908 5745 11652  2638 10385 10386  2638 10360 10385  1336 5207 11125  5207 11124 11125  3125 9837 12111  177 8633 12109  5209 9837 12111  1334 11015 12111  5210 11004 11016  1336 5210 11016  2850 11004 11016  367 5211 11014  2850 5211 11014  1334 5212 11015  577 4783 5213  5213 9391 12378  3074 7176 12543  1712 5214 7176  1829 4415 10322  1829 5215 7450  2309 6734 14880  383 9877 13469  1332 5217 15531  4468 9909 14879  706 5218 11655  1354 11482 11486  2713 5219 13748  1170 8507 14312  104 5220 12336  2230 7384 13607  3933 9670 13847  5221 10192 15408  3782 7922 7975  808 5222 7922  2282 6495 9026  267 8185 8957  1583 4242 9492  1583 5224 9492  1905 7259 8166  1363 5225 8166  3246 12553 12554  1363 5226 12553  727 5227 11628  3246 6284 11628  2107 5228 11007  871 5228 11007  3631 12446 14258  2558 9510 12446  2582 9174 13598  5230 9174 13598  2623 10337 10338  1338 10337 10375  2623 5232 10337  672 11093 11796  345 8451 12002  2878 11037 11038  5234 9382 11152  3043 11151 11152  2874 5235 11144  1630 6135 9710  1660 5236 8191  805 5236 8191  5740 8304 11316  363 5238 8483  2977 5238 8483  2727 7673 8305  3227 6401 12589  268 5240 6401  1338 5241 10375  2624 5241 10375  1461 5729 11622  1407 6182 13379  2705 10548 13622  640 5244 13992  2348 7062 13992  135 5245 14878  1983 5245 14878  1690 6427 8949  1690 5246 5833  2974 11453 11454  548 5247 11453  2944 7091 10862  818 9305 10271  1895 5249 8479  75 5249 8479  2624 5241 10334  2638 5440 10360  1348 5251 10386  2638 10386 10849  2642 5252 10425  2642 5252 10401  359 5253 10399  671 10388 10425  2637 9967 10388  1347 5255 10367  1347 5257 10367  1347 5255 10416  1347 5256 10416  2635 9628 10367  359 5257 9628  518 5258 13219  2438 6212 13219  1354 5259 6788  4877 8908 10852  1281 5260 8908  1315 10405 11027  2659 10404 10405  1714 7847 15384  1424 5262 6348  3495 8702 13118  1818 5263 11919  578 5264 10729  3049 5767 10729  5265 12836 13478  5265 11222 12279  2262 5266 11193  731 10634 11193  5261 10404 10405  2047 5268 8238  2242 5268 9086  2963 5365 9552  926 9299 9551  5005 7052 15436  103 7002 11223  2549 5271 9976  210 9596 9975  5581 8197 12275  2006 7010 12275  7051 8524 14845  2253 7531 7533  444 5274 11981  3762 7995 8250  5275 14076 14077  40 9281 14077  2078 5894 7699  1351 5173 9967  1351 5277 9967  5279 6788 11468  1354 6788 11468  5278 5279 6788  3 5278 5279  1352 5535 12160  1070 9089 9248  246 5281 14320  3387 6274 12973  2943 9306 10662  3479 10227 14281  473 10749 10883  5284 6627 11937  803 5284 11937  5285 12329 12330  150 5285 12329  422 5286 11804  4030 6860 11804  570 5287 8492  570 5692 7820  138 5899 11947  2024 5899 11947  1712 5289 8943  68 5289 8943  5290 11765 11766  1432 5290 11766  535 5724 6162  535 6162 13154  2216 7282 9842  2218 7284 9842  2949 11447 11449  1608 5293 11447  2011 5294 12178  3092 6018 9346  5247 10394 14221  146 7213 15726  5422 9894 15606  5296 9894 15449  4476 10224 10383  263 10020 10224  6757 8401 13820  409 5486 6757  2767 6400 8711  828 6528 12040  828 5300 6528  2795 5301 8393  1648 5301 10166  2487 6016 13324  2411 8942 11933  5304 6074 9027  1604 5950 9027  5303 5950 11389  63 5304 6074  127 4831 9818  127 5305 9818  5306 6681 12392  4910 6681 12392  5307 7837 9913  472 5307 7837  4008 15215 15216  1533 13326 15215  5309 9564 11492  851 5309 9564  3170 9662 9663  3170 12568 15557  618 4955 5854  3155 10925 11785  448 5312 9671  1736 5312 9671  522 4736 13927  4736 12144 13990  1859 7262 12883  713 5314 8454  2193 5249 8501  1355 8500 12682  1906 5316 15622  806 13813 15622  1951 5317 8817  3427 10215 14008  437 5318 15755  2366 5363 8216  2923 9071 11311  5319 9071 11859  3102 6933 10886  847 5320 10887  3281 6460 7754  1626 6460 7754  988 5322 12652  4640 9005 12652  3865 9572 13256  5323 12576 12577  2350 5324 15202  5324 8032 9528  5325 12485 13821  63 5325 13821  3182 12006 12007  1395 5632 12006  5632 12203 14098  376 5429 12202  3225 5328 12278  1379 9570 11222  5329 10631 15097  3846 15096 15097  3670 14347 14348  445 5330 14347  205 4645 8928  205 5331 8928  1819 5332 6132  212 5332 6132  4136 5333 8882  1375 4136 5333  1375 9104 12838  397 5334 11405  1554 9572 13256  4117 5335 15367  1399 5336 12423  598 5336 12588  1488 6215 6345  1556 5337 6345  389 5338 7071  4072 7071 13362  257 5339 10758  1913 5339 10758  3323 12622 14128  93 9557 12623  908 9701 11347  1410 11376 12622  1410 5342 11376  5342 8195 11376  5343 11097 15763  1765 9826 11097  2227 8732 15608  2227 5344 10009  4870 8407 10926  1390 5346 10928  2832 5346 10928  630 10790 10927  2227 8730 10009  572 5347 8730  647 5945 9420  2489 9056 13699  386 5349 12776  5349 12776 13668  3218 10719 10720  3218 10720 11520  1320 5171 10056  2365 7512 8400  2365 5540 9504  3082 8224 15565  199 5353 15565  275 5354 7946  4156 6024 7946  3629 13224 13225  3343 5689 9515  2788 9288 10816  1563 5357 10817  757 5357 11935  2788 7358 11935  2612 6216 12155  2612 9568 12155  1362 5358 9568  1362 5359 9568  5360 12197 15080  1362 9610 15080  2174 5361 7076  583 5361 7076  1848 5362 8599  2914 5362 12175  2366 5318 5363  437 5318 5363  364 4805 11711  364 5364 11711  1111 7684 9552  1971 7684 9228  3108 11813 11814  2007 9809 11813  5095 10773 14465  5367 10773 14465  519 5368 9899  1891 5368 9899  713 5369 9653  2164 9559 9653  3242 7672 12585  408 5370 9322  1368 5371 9829  2649 6146 9829  1368 5372 10622  5372 8939 10622  1368 5371 11683  1368 5373 11683  2634 5374 10363  670 6364 11496  2783 5375 10423  7016 14785 15715  720 4190 9571  2627 5376 10341  1385 5377 8018  3143 5378 8018  3142 6528 12040  1385 10113 12037  3143 5379 12038  5377 12041 12178  5380 12037 12039  5380 10113 12742  4206 12284 15602  5381 12284 15602  4492 5382 8151  853 5382 8151  2376 5383 11973  1324 10234 11973  6866 10846 15669  530 7789 14412  1045 6343 14810  5385 8783 11712  22 5386 13726  4378 7844 9569  1497 10130 11893  5387 10130 11893  2810 8829 10877  530 5177 10875  8414 8668 15100  3379 5389 15570  2655 5390 10236  1161 4539 10235  197 9758 14411  4707 6545 12945  455 5753 11150  5392 11150 11795  3597 13421 14140  1416 5394 13421  5394 13421 14138  485 10410 14324  3961 5395 9022  1552 5395 13376  3568 10384 15209  1709 5396 15209  3279 9530 10013  84 9530 10013  61 5398 12410  61 5458 12410  956 6604 13973  956 6604 12986  3569 8850 9145  369 5400 8850  374 5401 11648  374 7656 10746  3207 12285 12286  3207 9637 14389  5403 12285 12286  1394 5403 12286  2443 5404 8446  656 5008 9561  2759 7950 11367  536 7950 11367  1445 4536 5406  421 4536 5406  2361 6628 12916  1862 6628 12916  3250 12343 12430  1373 11774 12343  2561 10097 10099  1381 5410 10098  2561 9497 10098  650 5410 9497  3565 6890 13782  1405 5411 13784  3042 5413 11301  334 5412 11302  587 5413 13114  3565 6891 13114  1910 5414 12630  537 5414 12630  2866 11082 11084  1422 5416 11082  5416 11082 11083  218 5416 11083  2835 5417 10313  268 5417 10313  1994 5418 11537  5418 11537 14635  5419 11910 13676  1863 5419 11910  710 8114 10588  710 5420 8114  2320 5421 11383  603 5421 11383  3999 10324 14959  1545 5422 10324  1739 5423 7653  1739 5423 10255  1495 6068 12116  1968 5426 6068  1495 5424 6068  5426 6068 12116  3411 12091 15411  1968 5426 12091  3149 7556 12627  1495 5425 8592  2760 9715 9716  2760 9716 10161  3181 12201 12202  1396 5430 12201  3181 5430 12201  891 12005 12203  3198 6721 12456  1396 7769 12457  1931 5432 10177  73 5432 10177  4835 9398 9399  2387 5433 9768  397 4998 5434  2008 4998 5434  3997 7551 14253  5435 7551 14253  2821 10825 10827  609 5436 10825  3429 9342 10619  3429 9341 12506  1294 5438 11841  2173 5438 11841  1927 5439 14561  259 10070 14561  2638 5440 10849  180 5440 10849  2163 5441 9789  2233 5441 12260  3623 7462 9331  3623 5442 7462  5443 11436 14080  1726 5443 11436  2455 6678 10179  1522 5444 10179  180 5445 11067  1361 5445 11243  4252 5607 14974  884 5446 14972  570 5447 8492  2220 5447 8492  1543 5448 12609  1543 12143 15497  2779 8751 11491  1543 5449 11491  2212 8643 13593  606 5847 8374  4119 5451 8345  1389 4102 14619  2307 5452 11309  5452 11309 11328  1910 5453 9905  5453 9905 11732  483 5454 9803  1718 5454 9803  1204 5455 15487  1846 5455 15487  5456 10944 11252  3241 4088 11252  2294 9782 15582  1402 5458 14631  3241 5458 12410  1402 5456 10944  3596 6704 12828  990 8999 12469  2929 8507 8644  2929 5460 6050  2176 7099 11824  1404 5461 11824  1235 4419 8221  1235 5462 8221  1457 5462 14202  1457 5463 9624  1457 5463 10084  1457 5464 10084  2809 10229 10880  1164 4513 10881  3106 5466 11931  1378 5585 11932  2820 5467 9711  6773 6938 11056  2208 5310 8327  1342 11308 13311  1667 6093 7644  5469 6093 11900  5291 5470 9473  535 5291 5470  2215 5471 9802  665 5471 9802  3031 8054 11435  63 5472 8054  5522 13567 14900  1962 5473 7009  1971 5474 9228  390 5474 9228  1403 5475 11971  1403 11969 11971  3107 6589 11969  176 5352 11968  3907 5485 14531  3971 9741 11366  860 6276 11786  2391 6864 14025  2645 10407 10408  2645 5656 11518  5480 11287 11288  1532 5480 11288  2829 4474 10603  833 5481 10072  2279 5482 8382  5482 8382 10107  5483 13949 15716  3115 11276 11277  2607 5484 9888  1425 4852 9887  5485 7402 9867  2512 5485 9867  1418 5486 10821  5486 6757 10821  2959 6757 10821  2959 9578 9579  3052 6630 13016  1734 6630 13016  2045 5489 7974  405 5489 7974  776 6976 15394  5490 15150 15151  1868 5491 7368  1868 7368 15339  3040 5492 11286  5492 14062 14857  1062 5493 10066  2499 8269 8270  521 7522 12771  775 6231 6955  3706 5495 8898  5495 11191 11962  2038 5496 7983  2038 5496 11735  1645 5497 8539  467 8539 11827  1620 5498 11166  443 5498 11166  1885 7274 7275  1581 5499 7274  1581 5499 9014  1581 5500 9014  756 8826 10785  2426 7700 7701  5502 10317 10318  1598 5502 10318  8171 12294 14658  935 5503 6930  3028 11726 11727  1409 5505 11726  3028 11725 11726  796 5609 11725  2081 5506 9315  1031 5506 9315  2029 5507 13290  2930 5507 13925  1576 5508 14184  3422 13359 14184  5509 11018 14362  918 5509 11018  3832 13720 15076  3832 12764 13720  1078 5511 11249  1763 5511 11249  2514 5512 5513  2514 5513 13536  5512 5513 8021  2513 5513 8021  5514 9059 15115  2574 5515 9059  5515 7944 12024  4451 7944 12024  4527 13055 13056  3432 5800 12490  880 7916 10325  2503 5015 9047  3552 12280 13813  3552 12280 14234  3674 11853 14293  6655 14292 14605  2805 5520 9861  1800 7114 9860  2067 8163 11834  1498 5975 9459  1902 5522 7882  1384 5522 7882  551 5523 6869  1622 5523 6869  1404 5524 12094  5524 7865 12094  733 7275 9052  5739 8631 10359  170 5526 13145  1508 5526 12257  482 5527 15405  482 13461 15665  2875 10992 12924  1406 5528 8788  5529 8955 12266  2741 5528 12266  1967 7353 12198  1406 6260 11502  813 5066 5531  1691 5066 5531  1953 5532 12238  1073 11261 12238  1249 5533 13929  4358 13306 13929  1229 4403 8503  1229 5534 8503  1352 5535 13725  2665 10433 13725  1906 8889 15354  1906 5298 8890  3502 10698 13213  975 5537 13212  1614 5538 7872  3253 4738 11334  3001 8571 8572  1639 5539 11668  176 4276 12063  176 5540 12063  2841 4877 5541  351 4877 5541  1980 5542 7507  1980 7400 10402  4066 5923 14028  5543 5923 14028  1431 6796 14557  1431 8336 15495  264 10323 12285  264 5545 8120  1407 5242 5546  5546 13823 15457  5547 7745 14155  5103 7745 14155  4160 15520 15548  1153 10625 15519  3788 8533 14784  1514 14248 14782  1612 6309 9035  4969 14090 15538  3936 8916 11413  2147 5551 8916  2064 5552 10830  350 5552 10830  5553 12033 15357  2528 5553 15501  2528 5553 11885  441 5554 8419  1489 5555 10240  3946 5581 10240  1702 5436 5556  609 5436 5556  1049 10298 14290  2537 5557 15731  1175 5558 12890  1175 7664 11404  5560 9751 14325  1822 5560 9751  1880 6103 8510  1880 5560 5561  3193 11792 15616  6132 10320 13941  5562 5936 8768  2634 5562 5936  596 5563 13871  5563 13869 13871  3978 8380 8624  3978 8380 12306  931 7310 12431  2459 6723 9576  3161 7277 14488  651 5566 11959  441 5567 7727  441 6097 8115  5568 7251 12710  296 5568 12710  3558 5695 13242  236 6588 13621  481 4910 5570  1749 4910 5570  498 9540 14987  498 5571 9540  5572 8919 12793  172 5572 12793  2750 8993 11274  2286 5573 12075  2087 7147 7452  539 4330 8227  2101 5575 15280  1323 10876 15280  2396 7187 10365  2396 5577 9539  5577 7846 14918  2394 5578 7846  2136 7482 8824  5578 7482 14307  1782 5579 9844  4751 5579 15660  5555 5580 10152  3541 5580 14915  1079 4717 8197  1079 5581 8197  2916 8194 12259  1517 9814 13822  2715 5583 5584  2715 5584 13899  11 5583 10911  2820 6828 10911  1378 5585 9496  3106 11930 11932  3109 8635 13134  1947 8635 13134  1676 5587 11815  5587 9657 11815  913 11231 11546  3457 7698 8067  3018 9794 11758  5589 9794 15194  3604 8381 13152  5590 8381 13152  1860 5494 5591  521 5494 5591  5592 9770 10289  1049 5592 12026  2609 5694 8202  2609 5694 6202  2782 5594 11021  263 5594 11021  3248 11432 11434  1305 5115 11433  2058 4808 5596  1238 4808 5596  2658 6462 9968  2658 6462 6463  2412 5598 9467  317 7629 9469  355 11506 13684  1954 10957 11506  2204 5933 7493  5933 7493 11693  3539 12647 12648  2181 5601 8405  2805 9860 14388  7114 9860 14388  1361 5603 11243  2770 5603 11243  2658 5604 9968  2515 9501 9503  5605 7783 14874  416 5605 14874  2506 9621 14657  5606 12783 14790  3154 7091 10271  234 5607 10862  961 8493 14287  3848 9442 9443  3028 5609 11725  1761 4720 6128  4103 5610 12084  1212 4103 5610  3828 11126 12654  5611 9674 13998  2955 5612 6822  2955 7352 14791  3271 5613 7154  5613 7154 13623  5614 10718 15404  1222 11499 15404  5615 12834 13034  1949 6727 12482  3453 10742 15084  867 5616 15084  5366 9809 11813  2007 5617 9809  1607 4931 5964  2969 5618 15575  1950 5619 6287  736 5619 6287  1986 6659 9634  6989 10794 11881  961 6023 8493  1781 8493 13654  2387 5622 12161  1129 5622 12161  1890 5623 11551  494 5623 11551  5624 11534 12857  4830 12629 12857  8589 13384 13583  971 5625 13582  2143 7919 14517  1501 5626 7920  2357 5627 14026  4096 9133 14026  3914 11794 11913  3914 11794 12614  3388 10126 14281  5629 10126 13296  311 9858 10861  2456 9230 9231  2550 5631 11822  327 4523 9915  1395 5327 14098  1395 5632 14098  1117 4272 11489  1117 5633 11489  2572 7191 9084  1441 5634 10083  5635 9964 9966  1441 5635 9966  5636 13274 13275  1441 5636 13275  3405 11029 13342  752 5637 11029  913 6413 13787  1617 5638 6413  2057 5639 11116  2057 6035 12076  2734 7690 8375  211 6787 9927  4161 7887 12560  5641 7887 12560  57 5642 5643  57 5643 10421  1510 5643 8738  1510 5641 12560  5644 9672 15282  1510 10015 15282  5645 11737 11738  747 5910 12133  1433 12730 12732  5646 12730 12732  5647 8899 12730  1433 5647 12730  959 5648 14180  2017 5648 14180  5649 12749 12985  2078 7699 12240  2818 5650 9360  1145 7873 8926  1545 5651 14943  2211 5651 14943  2351 5652 9284  726 9283 14078  3347 9508 12927  2093 8088 10829  2970 5654 9359  2969 5654 10155  2422 5655 13840  714 5655 13840  7224 13121 13307  1278 4830 6591  3943 9951 14964  330 5657 15311  2752 11216 13293  782 9734 12374  3073 9253 13605  6041 11944 12695  3008 8561 12546  43 5660 11713  2869 6214 11201  583 5661 11106  5662 11310 14259  1587 5662 11310  3014 5663 11741  1523 5664 11745  3014 11744 11745  848 6062 11744  3593 12121 14073  5665 11143 13873  3801 6949 11430  5666 11430 14510  5667 5668 12603  1016 5668 13755  1459 10349 10793  1459 5668 10793  2242 12952 13653  2242 9086 12952  2495 6289 10958  1798 6474 10958  3877 5671 8362  385 14311 15718  3051 10183 14252  941 5672 14252  2604 5673 10011  1262 4601 10259  2285 8965 8967  238 5816 12742  4392 6736 12083  4393 14500 14501  3381 12582 12584  390 5676 12583  3540 11630 11631  1910 5677 13405  2461 5678 5679  6371 6372 9141  2016 5679 7521  3626 7521 15318  45 5448 11897  45 5680 9338  1436 12310 14947  1436 5681 8980  2158 5133 5682  4593 8377 14881  3729 5683 14685  3729 5683 6644  705 8497 10571  3561 5684 8497  2151 6769 10278  5685 6769 15386  1544 5686 13153  802 11898 13226  4386 7898 11721  4386 11721 13670  3273 8636 12686  3273 12687 13601  980 5689 8685  1862 5689 8685  2103 5690 9221  2103 5690 8932  2114 5691 8311  6197 8066 13223  570 5447 5692  1711 5692 9834  7135 12011 14446  798 6922 6923  1769 5593 6202  1769 5694 6202  3558 9495 13241  3558 5695 6868  1377 5398 5696  5398 5696 9719  3197 12416 12417  1445 6173 11972  5698 6336 12357  1714 6336 15384  3004 9476 9950  7658 11680 14429  3962 8072 13969  5700 8072 13969  3674 6655 14292  1855 5701 11853  3603 10810 15770  1224 9211 10872  2427 5703 12031  278 5703 12031  5704 7963 12552  47 5704 7963  3616 8052 13677  954 8540 13678  2298 4806 6194  21 5706 8944  3260 5709 12402  5707 7515 13906  2011 9183 15530  533 4116 7332  5709 11340 11469  5709 11469 14833  5710 7320 9689  1628 5710 7320  5313 13990 15206  1628 5711 6669  2651 7320 9689  119 5712 9688  5846 13627 14433  1802 5846 14433  5714 8301 11290  1801 5714 8301  1802 5715 6966  167 5715 6966  4047 5716 12763  1443 4047 5716  3698 5143 13398  694 10556 13397  2796 5718 8490  2796 5896 13101  605 8349 14158  8674 13691 14423  202 6367 13708  2751 5735 11594  953 11394 12372  2432 8284 11768  5723 5724 13403  881 9206 10308  2110 5470 5723  535 5470 5723  1855 6162 11188  5724 6162 14375  2191 8594 8596  1449 9521 13986  111 5726 12048  5726 12048 13188  2425 10068 10909  1925 5727 6150  5728 13823 15457  5242 5546 15457  5729 6512 11622  825 5729 6512  113 5730 11605  3523 7495 11548  383 5731 9871  2309 5731 9871  1987 9679 14610  174 6208 7785  202 5733 13708  5720 6367 13708  1595 5720 9435  1595 5734 9435  1595 5734 9759  1595 5735 9759  1142 5736 7172  2031 5736 7172  5202 8757 12673  2146 8757 12673  5738 11212 11213  1213 5738 11213  2318 5739 8631  3404 11933 13257  1346 8304 11316  2695 5740 11316  3961 5395 13376  276 5639 13375  3132 11876 15527  1552 4010 5742  2016 5743 8409  2170 5743 14630  1998 7646 10599  1998 9449 15133  1908 5745 13579  5745 6578 13579  1941 5746 9083  4632 7593 9083  1900 5747 8761  4626 8241 8761  2103 5748 8932  323 7158 7945  487 7648 14038  487 5749 7648  3325 7934 10789  3325 7934 10845  1813 7219 11938  414 7060 13946  3152 5752 12192  730 6376 11176  2278 5392 11150  2278 5753 11150  106 7379 9325  1892 5754 7379  644 5755 12526  644 12526 12534  3153 8278 12215  830 5756 12214  1652 8278 13338  62 5757 14589  3425 10882 13578  3425 12350 13578  2448 5759 9108  636 8536 8537  2401 5760 9952  617 5760 9952  3735 5761 13260  3735 6488 11020  2935 5762 6982  224 5762 12775  662 5763 12398  2581 7446 12398  2831 9696 10647  201 8541 9696  5765 8016 11356  3284 5765 11356  2066 7463 8126  1632 8126 14948  3612 5767 14094  578 5922 14093  668 6905 11543  2196 6905 11543  3656 8244 10366  3656 6719 7858  5770 8615 12159  8615 12158 12159  1701 5771 15307  1701 9069 11550  3018 11755 11757  4149 5772 15494  5773 9676 11251  2563 4577 11251  5774 11755 11757  774 5774 11757  2562 10127 10128  392 5775 10129  4555 5776 6525  317 4555 5776  2758 10629 10873  811 9776 12977  330 5778 10016  2250 5778 10016  1254 7998 14440  2462 9379 11113  3412 12516 13313  1454 12112 13312  3100 9901 12915  1024 5547 7745  7721 10006 12702  1583 4242 5782  2315 5783 8551  313 5783 8551  2471 5636 5784  1441 5636 5784  985 4669 5785  2028 4669 5785  1515 4350 5786  2041 4350 5786  728 5787 7866  3120 12119 12120  9505 13389 15492  5788 9957 11599  490 5789 7381  4437 7381 8665  1855 7221 11188  1650 5790 7222  3438 13264 13266  3438 13265 13790  2649 6146 8086  2649 9247 10078  5793 13264 13266  1474 5793 13266  3659 13029 13967  1627 4916 11416  2309 8763 11778  655 5101 6734  3267 7738 10156  1143 7738 10156  1748 6324 12222  1747 5797 6323  5798 6889 14118  4703 6889 14118  1048 4021 5799  4021 6457 14775  1270 5800 7155  2807 5800 7155  1985 5030 5801  1125 5030 5801  1908 5802 10892  1908 7023 10892  2747 10146 10340  1473 5803 10146  2746 9444 12399  5804 9444 12399  2473 9673 9674  1473 5805 9673  1469 4349 5806  4349 5806 8439  1469 5807 6223  1469 6335 9144  2350 5808 15202  422 5808 15202  2010 5809 15654  5809 12570 15654  567 5810 15578  2234 11666 15578  3355 6975 9143  5811 6975 9143  233 7053 13706  233 7053 9908  1704 8831 14436  1704 5813 8831  2153 5814 12353  596 5814 12353  4667 7914 10908  2094 7914 10908  238 5816 14920  2285 14262 14920  5817 11987 13144  1213 11213 13144  2126 5818 11746  1172 5818 11746  957 6082 12905  2900 8671 10293  4022 7500 9542  972 7500 9542  2244 5821 15095  5821 12500 12501  2493 6298 8672  664 5822 9760  23 4945 11658  23 5823 11658  2033 5824 6751  2517 5824 6751  3879 8852 14367  425 11669 14366  3383 11006 11401  1478 12327 15679  4054 8841 15679  139 9428 10879  2331 6172 6670  2331 5828 6118  656 5008 5829  5008 5829 9123  2848 8622 14829  2188 5830 14829  2966 7971 8845  7971 8845 14910  7501 10004 14495  3069 4102 5832  2820 9712 10867  2820 5467 10867  781 5156 8316  781 5834 8316  1066 5835 11677  2126 5835 11677  4716 6882 13938  763 5836 6882  2549 5837 9975  5837 9596 9975  19 4781 5838  4781 5838 7479  2852 11000 13370  315 11579 13923  2852 11000 11001  1516 5839 11000  623 5841 14731  9619 11361 14731  4018 5842 9835  2597 5842 13027  5843 9386 14674  5843 9386 13789  4507 5844 11352  440 4507 5844  5845 8301 14975  1801 13666 13667  3471 13667 14000  574 5846 13665  2794 8528 9737  2794 8528 8545  1723 10697 13339  5848 10697 13339  3700 10645 13534  5849 10645 13534  468 13816 14029  3640 5850 13816  1521 4442 6014  2405 7143 13530  3070 7536 12054  3145 9619 14731  3359 7418 13162  1557 5363 8216  5311 5854 11346  1808 5854 11346  519 5855 6404  1893 5855 6404  98 5856 10136  4949 6894 10136  1149 5857 12649  5857 9778 12649  5859 15258 15259  3965 5858 7696  3965 15258 15259  1513 5859 15258  1571 4540 5860  196 4540 5860  1380 4744 6366  4744 6366 9646  399 5862 15670  3851 11922 15670  3602 12020 14152  453 5863 12020  191 5864 9784  5864 5865 9784  1301 5865 10731  2533 5865 10731  4442 5866 8553  1521 4442 5866  1588 5867 12965  3760 12408 12965  3463 5868 14580  2985 7407 13724  2244 6017 14313  2245 7668 14313  3309 5870 9018  2262 5870 11112  820 6777 9255  820 5871 9255  1633 6318 6319  3365 12802 12804  3587 13100 14111  960 7448 13100  5874 9998 11355  727 5227 7972  3661 11081 13989  8595 11081 14260  699 10569 15152  1641 5877 5879  438 5877 5879  1033 13309 15091  1033 5878 9723  2337 5062 5879  438 5062 5879  2208 5880 8555  625 5880 8555  4475 5881 9797  8717 14129 15340  2600 4862 10189  669 8099 10190  1201 7018 12879  2674 5883 12879  2858 7120 7753  1524 5884 10967  2202 5885 8739  4506 8656 8739  1846 5455 12487  1846 5886 12487  140 9088 10514  2372 5887 9088  2939 7709 13322  260 7709 13322  3761 12923 13874  1511 8499 13074  650 6515 7339  2450 6191 6515  1901 5891 15735  606 14950 15735  1209 4727 5892  4727 5892 8426  1872 5893 7006  571 5893 7006  2815 7699 13104  356 7699 13104  122 11534 12857  3058 11765 11766  2795 8836 10166  821 5896 8836  100 8587 13348  2226 5897 13348  2362 6874 12841  2362 5898 9092  4043 6615 11719  2039 5899 11719  4531 7119 12762  5900 7119 12762  611 4588 9199  5901 7781 14945  1719 6301 9045  1559 4837 9045  979 5903 11282  5903 6926 11282  4101 7671 8729  1540 7671 8729  3124 7671 12149  3124 6209 12181  1483 5906 7218  564 6242 6243  5569 5907 9941  236 5569 5907  4824 5908 8047  65 4824 5908  770 5909 12559  1845 7220 15737  3266 7096 12665  1491 15109 15165  2966 6297 12667  5831 8845 14801  151 5073 5912  4784 7951 9839  3660 10695 10771  1745 10695 10771  3581 11869 12695  88 5914 11869  1567 5914 5915  2060 5915 6205  3517 8919 12793  1798 5916 12813  795 5917 13714  3513 6353 13714  5918 7640 14852  295 5918 7640  5919 10900 14514  2798 7005 10900  3183 4685 10812  3183 5920 6547  5921 11542 14904  74 5921 11542  578 5264 12303  578 5922 8549  3705 5923 9863  3705 5923 11155  4604 11665 12951  109 4604 5924  3634 7075 8922  1642 4603 7075  3232 6308 7419  5926 7419 15668  2764 5990 13018  5167 6968 11929  3474 13704 13705  610 5928 13704  3115 11275 14579  1290 9717 15716  4674 6038 14197  4674 6038 13292  5931 6038 14197  1487 5931 6038  5932 6481 8977  1777 5931 8977  1802 5846 5933  574 5846 5933  3264 5935 12719  907 5934 12718  3264 5935 12502  1576 5935 12502  2633 6364 11496  2634 5936 10364  3852 6814 12213  5937 6814 12213  2416 5938 8935  922 8937 12397  3341 5939 11259  3341 6305 11259  1339 8234 11716  2666 5940 11716  1403 5941 13179  2421 12534 13179  2431 5942 7935  826 5942 7935  1997 5943 11686  837 5943 11686  131 4631 11042  131 5944 11042  1490 5945 9421  5945 9420 9421  5322 5946 10027  1490 5322 5946  3127 8599 12364  5947 12106 12364  5948 9185 12443  2614 5948 9185  1647 6393 14019  219 7334 14018  513 4477 5950  5490 11593 15150  4003 8760 9911  1500 8760 9911  2264 5952 9616  5952 7813 9616  949 9681 14022  4633 6304 10968  1794 6884 9494  2536 6883 13584  607 13036 13943  2249 8698 13087  2248 5118 8255  1713 6165 8017  878 7531 9876  2464 6280 6281  2834 10702 12089  6500 13000 13977  1541 5959 11092  5158 7472 11092  1962 8759 9518  1962 5960 7009  218 5416 9485  218 5961 9485  2198 8481 8482  1607 5964 8481  5963 11254 12953  1607 5963 12953  5618 5964 8481  792 5618 5964  156 5965 12225  5452 11326 11328  4939 7433 10343  722 4939 10343  3296 11488 11541  2877 5967 15552  5968 12046 13837  933 5968 13837  2404 6123 9664  5969 9664 13071  3410 8651 8776  593 4986 5970  2819 6828 9711  1524 5971 10897  655 5973 12199  2313 5973 12199  4740 6564 13834  5973 6564 13834  898 8593 11036  1498 5521 13879  2067 7230 9459  400 4858 7230  2151 5976 8467  342 5976 7724  3722 12616 14662  3722 6899 12616  1687 5978 10941  2203 5978 10941  4139 8773 13683  4139 12382 13683  529 5980 13543  3311 5980 15153  3533 6055 13655  1551 5981 13656  2832 5982 10927  1271 4870 10926  5983 11608 15297  1609 5983 15297  5983 5984 12897  1609 5983 5984  3734 9786 11373  3734 10727 14588  5986 11547 15418  116 5986 11547  2301 5987 11228  984 5987 11228  2418 5988 11934  630 5988 11934  3111 5989 6978  114 5989 6978  753 5990 11229  5927 10885 11229  1322 5991 12366  2407 5991 12366  1793 6159 9347  1792 9347 13979  5995 13265 13790  725 5793 13264  3531 13368 13838  1536 5968 12046  5968 5995 10988  199 5995 10988  2857 9669 11033  751 11009 11032  146 5997 11805  2084 11617 11805  5998 14263 15685  502 10633 14263  5999 13142 15286  2178 6240 6242  1285 6000 8564  6695 10780 12136  1706 6001 10407  1706 6002 10407  6002 10407 10408  2975 6002 14337  266 10042 13331  266 6003 12325  838 5105 9956  838 6004 9956  1999 6005 8178  3708 7116 8178  4845 10541 12716  5257 9628 10367  850 6007 13760  2073 6240 11122  1538 6008 15141  4066 9863 10277  2656 6462 9968  3939 6009 14977  4224 9853 9854  64 8772 9146  6011 6508 11180  665 6011 6508  1562 6012 13817  2907 9153 13817  2344 9151 9153  611 14945 14946  2405 6603 8256  2405 6014 6603  3314 8061 13007  501 6986 13006  2319 6016 14819  969 13324 14819  3731 10295 13413  2244 6017 14688  1386 5379 6019  375 5379 6018  1553 6018 14457  1553 6019 14457  2166 6869 9642  254 7786 8946  2583 9394 9396  1622 6021 9394  2118 6022 10948  308 6022 10948  3848 10131 13138  961 6023 15169  3927 11662 15403  3927 6024 6805  2992 6385 11494  301 6025 11533  2476 6026 13030  852 8630 14250  3830 6027 9363  4627 10165 11132  166 4522 6028  4522 7399 11269  1974 6467 7228  586 6467 10706  3499 6030 12147  2792 6031 12212  531 6031 12212  6032 10957 11506  6032 11506 12328  3055 4609 6810  1584 6033 10301  2980 6034 10328  3139 10358 13694  6035 9622 12076  2057 6035 7161  6036 11903 14371  6036 11903 13698  3871 7100 15146  1006 7700 11687  5930 6038 13292  1487 5930 6038  2316 6039 9117  6039 6640 9117  2158 5682 13455  2158 6040 13455  3073 6041 11944  3073 6041 12556  2857 9669 11031  1535 6042 11033  1535 6043 13366  2785 8199 13366  1790 9338 9690  1341 8584 10248  2167 6045 8832  920 6045 8832  3398 6047 13442  904 6046 13090  3204 11945 11946  241 6047 11945  2049 4428 7941  2049 6048 7941  6049 13885 13908  1884 6349 8240  2930 7308 13925  783 7308 13925  1570 6051 10207  6153 10207 15409  1065 6052 11812  1065 13453 13454  4012 8347 8623  431 8347 8623  1549 4213 6054  117 4213 6054  4213 6055 9573  1549 4213 6055  2334 8044 9159  1692 6056 9160  4453 11675 14475  4453 13196 13235  2768 6058 8342  562 7790 10417  1665 6198 14058  1665 9301 15128  255 6060 8060  1743 6060 14629  5444 6678 10179  241 6061 8333  1522 6062 13042  1522 6832 13042  447 6063 13436  1689 6711 6712  6064 10745 15308  922 6064 10745  1442 5576 9539  5576 9539 10377  1582 4429 6066  4429 6066 10950  1291 4752 7641  1291 6067 7641  223 9182 14709  6068 9182 14709  616 5885 6069  1708 6069 10093  1708 6070 14842  1708 6069 9456  1179 4109 6071  1697 7213 12281  6072 10059 10060  1697 6072 10060  2370 6073 12045  1001 6073 12045  4937 6717 13251  63 6074 6717  3392 6076 13203  751 6075 13202  6077 12687 13601  200 5593 12686  2808 10797 12488  741 6077 10798  6078 12394 13201  2609 6078 14608  3642 7455 12989  6079 7455 12989  7348 12571 13470  6785 14275 14276  2790 7729 10635  1528 6083 10636  3306 6436 12765  957 10294 12764  2790 10634 10636  5266 10634 11193  1868 7369 12920  1734 6084 7368  3375 6635 12613  3375 6085 8458  4499 6086 6912  312 4499 6086  2020 4926 8041  4926 8041 13690  549 6088 14848  549 7263 14848  37 6795 10609  3972 6089 15135  110 7824 14057  110 6090 9099  3480 12176 13243  3480 12624 12625  1644 6092 7966  6092 7177 7966  3242 7672 9322  1667 6093 12586  3653 11965 14358  951 6094 11965  3311 8033 9198  657 8033 9198  1793 5059 9347  787 5059 6096  441 6097 7727  1704 6097 7727  5442 13454 14268  6098 10759 15267  1813 6099 11938  5751 7219 11938  6100 6516 10613  461 6100 6516  1881 6101 8026  789 6101 8026  788 4621 6563  788 6102 6563  1880 5561 6103  1881 5561 6103  6104 6573 13921  314 6104 6573  434 4668 6105  1661 4668 6105  892 6106 12124  6106 12270 14328  3247 7086 15138  1028 7782 11890  3269 6108 10893  3269 10893 14742  3488 13778 14054  2013 6109 13778  2656 6110 6462  1486 6110 6462  4486 6111 7309  2432 5721 9364  2432 6112 9364  2410 6113 9436  2410 6113 9824  993 8457 10891  993 6114 8559  1599 6115 9889  6115 9034 9889  3146 6048 10000  3146 6116 6811  2314 6117 9859  968 6117 9859  2541 6118 12689  6118 7804 12689  3465 8107 9730  3465 6119 8107  1561 6120 11861  1561 9565 11861  6121 9565 12000  416 6121 12000  478 12439 14162  3217 6836 12439  3023 11139 11141  545 6123 11139  515 7517 14925  515 6124 7145  6125 12022 14980  326 6125 12022  2791 4705 10818  2791 6126 12712  3556 8552 9232  966 8552 15429  3028 5609 11019  3028 6128 11019  2551 5830 7803  1293 6129 8169  179 6130 14962  2467 9362 9363  213 5773 9676  6131 8452 15351  212 5561 10320  212 6132 10320  1476 4929 7636  1476 6133 7636  3765 7921 14397  3765 6134 8361  204 6135 11145  6135 9710 11145  4099 8056 8475  610 6136 8475  1087 6137 9893  2195 6305 8617  730 6138 13776  6470 10997 10998  4235 6139 11354  728 4235 6139  496 6140 6578  496 5745 6578  6141 6455 9054  542 6141 6455  1179 6142 15676  6142 13795 15676  944 6143 7300  944 6829 7300  1430 6144 12794  2565 8220 10051  974 5981 6145  5981 6145 10761  2077 5372 6146  1368 5372 6146  2323 4373 11661  2323 6147 11661  2585 6148 9136  2586 9753 9754  1112 6149 14391  1696 6936 14768  2425 8923 8924  3731 13413 14688  2276 7722 10295  861 6152 12078  3233 7244 13043  3234 6153 12619  1570 6153 12619  298 6154 8997  6154 7782 15599  2839 10991 10993  1569 6156 10991  2839 10990 10991  347 6156 10990  6157 11011 11012  761 6157 11012  4916 6158 8236  220 6158 8236  1793 6159 12714  1793 6476 9070  2124 6160 11386  1078 6160 11386  4736 13990 15206  522 4736 6161  1855 5701 13154  1855 6162 13154  2449 6163 14525  2449 6163 10999  4662 11450 12422  3192 6490 12870  2248 7997 8017  173 7997 13406  1700 6166 13752  6166 12170 13752  3532 12170 13752  785 6167 13751  3054 6398 11884  1374 6168 11883  1594 4414 9412  2597 9836 13027  2597 6170 9836  2440 6171 7437  769 5442 7462  737 6172 6670  737 6232 6290  6173 11972 12416  844 6173 12416  5621 6174 8811  430 6174 8811  105 6472 12685  3367 8448 13420  3579 6177 7392  2513 6177 7392  2563 8452 12174  3579 6177 14369  2912 9323 10774  1616 7350 10608  6179 14593 14594  1103 6179 14594  6180 10722 12354  829 6180 10722  157 4861 10209  4338 7483 11831  1407 6182 14459  2445 14092 14459  1189 4509 6183  1189 4507 6183  4013 7633 13417  1586 9930 15094  4166 6680 7359  2626 6185 9389  398 6186 12996  2594 6186 12996  6187 13640 13641  1046 12755 13641  1699 6188 13618  4375 8353 13618  2428 7318 10142  2428 6189 7318  1580 6191 13363  650 6190 6515  1580 4220 6191  99 4220 6191  1580 6192 12892  1018 6488 11610  6193 10617 15388  2827 6193 10617  5706 6194 8944  1439 5706 6194  6612 13158 14066  1560 6196 13157  2115 4127 8312  2115 6197 11736  2114 6197 13223  1560 6344 15257  1645 4530 6198  32 4530 6198  2458 9110 15469  2458 6199 11464  6156 10990 10991  759 6155 10993  604 5714 11290  604 6201 8334  200 6202 14608  200 5593 6202  2965 5092 11077  2965 6203 11077  1567 5914 6204  88 5914 6204  413 6205 11843  6205 7802 11843  861 6206 12078  861 4763 6206  1988 6207 7942  1988 6207 6435  1987 7785 9679  6435 6475 14610  3118 12105 14889  824 6209 12104  3118 7802 11843  1568 6210 12105  825 6211 10878  2643 6211 10878  2355 6212 9302  518 6541 13971  410 6213 13314  2971 6436 11526  4996 6214 15317  559 7009 8560  673 6215 13285  6215 6345 13285  6498 10857 15483  198 6216 10857  2611 6217 11002  1227 6217 11002  978 5019 10265  978 6218 10265  1624 6329 12537  6219 9058 14196  5026 6220 11654  436 5026 6220  6221 8490 15324  2797 6221 15324  1104 6222 14247  1104 6246 14247  1742 6518 10688  1742 6518 6519  3458 6411 12721  3458 7698 12946  1574 6225 11121  6226 11121 12935  3424 6226 13361  1574 8786 13360  620 12598 15700  6667 12598 15700  644 6228 12534  2421 6228 12534  2378 9126 9660  6229 9126 9660  3579 12174 14001  1721 8452 12174  6131 6407 14754  6231 6407 14754  2540 6290 13169  2540 6232 6290  298 8997 15218  4124 9983 15255  34 6440 10700  6234 9955 10700  4397 10543 11451  2712 10543 11451  639 6236 10921  639 4415 8128  6236 10921 12944  1664 9197 13924  144 4457 6238  4457 6238 8329  2075 6007 11218  850 6007 6239  5999 11122 15286  6240 11122 15286  4143 9926 11722  4143 11722 13980  2075 6243 11218  2073 6243 11218  2075 6243 7218  2075 5907 7218  2589 6244 11217  1438 8420 9779  1257 6245 8581  1849 6245 8581  1104 4127 8533  1104 6246 8533  1729 6247 12138  5497 8539 11827  0 6248 8365  3492 7156 13175  3492 6931 12548  2255 6250 13745  1135 6250 13745  5949 14018 14019  5949 8218 15562  3010 4856 11660  6575 13429 14173  275 6253 15403  6253 11662 15403  2808 6254 13310  6077 10798 13310  3049 5767 11055  159 10274 11054  1481 6256 13300  3022 6256 13300  2085 5028 6257  231 5028 6257  6258 12128 12130  6258 12130 12404  646 6259 6941  3431 6259 6941  1967 6260 12198  5530 7353 12198  1225 6261 9591  2439 6261 9591  2780 8751 8752  2780 6262 12530  1797 7024 12470  7246 14063 14064  171 6203 6264  2092 6203 6264  219 6265 9081  2342 6265 9081  4970 10942 15071  1597 6267 13603  4970 6267 13603  814 4970 6267  3513 13772 13773  1597 5917 13715  2263 6269 14016  6269 14016 14104  591 6270 13141  2112 6270 13141  3176 10376 13286  1621 6271 10330  623 5841 7821  623 6272 7821  1601 5568 6273  3044 5568 6273  5248 6274 11566  818 5248 6274  3387 12805 12806  193 10550 12805  3155 10925 11786  2155 6276 10925  6277 11420 11421  1590 6277 11421  538 7394 8713  538 6278 7663  660 4803 7747  660 6280 7747  2465 7003 7004  2465 6280 6281  2464 5957 6281  878 5957 6281  3216 12518 12520  1598 6282 12518  6282 12518 12520  3214 6283 14697  2619 10317 10318  727 6284 10319  4921 10893 11147  778 10893 11147  2143 6286 10280  5626 7920 10280  736 6287 12651  6287 8063 12651  2841 6288 10850  1221 10851 12128  2105 4511 7877  2495 4511 6289  737 6290 6670  2541 6290 6670  1524 6291 10252  4552 6291 10252  2238 6292 8380  395 6292 8380  669 6293 10188  6293 6729 10188  6294 10863 10864  180 6294 10864  2879 6108 10686  1636 6295 10685  1748 6323 11674  1748 4582 6296  1037 6297 15190  1037 8613 15190  2493 7340 9760  2493 7340 8672  300 6299 12030  3665 6299 14132  955 8179 13137  2886 8797 11957  6301 11395 11396  1719 6301 11395  4623 6302 10256  564 4623 6302  6303 7296 10831  2430 6303 10831  3005 6304 13116  949 7875 13545  2195 6137 6305  1087 6137 6305  79 6306 7092  1982 6306 7092  3898 11167 15186  1596 6307 15187  903 6308 13939  903 8754 11569  6309 9035 15222  1611 5550 6309  2793 6310 11481  899 9481 11832  3327 6311 13038  1591 4607 13050  166 6312 6827  2920 6312 6827  1629 6313 11492  1629 5309 11492  3559 6472 10159  754 8441 8912  3498 6341 13632  1566 4308 12223  1797 6316 11289  5148 7246 11289  3365 7706 12804  6317 12802 12932  1633 12802 12932  1633 6318 12932  3366 7804 8765  226 7804 8765  582 6320 12740  1818 7047 11639  2091 7322 11069  2091 6321 7982  4215 8461 15335  1302 7188 13426  4748 6323 11674  1747 4748 6323  649 5797 12222  649 6324 12222  3366 8621 11943  1010 8621 11943  1813 6327 11026  1813 6326 11026  2902 6327 11026  1127 11025 15343  2987 6328 11769  1036 6328 11769  5831 6329 10267  1624 5831 6329  2760 10161 15185  1199 14723 15756  4275 7774 13944  2940 4275 14185  2689 6332 14342  4161 7887 13060  3993 9433 14978  900 7322 13388  900 6334 7322  2149 4470 9144  2149 6335 9144  5262 6348 11272  6336 6348 11272  667 5681 13855  667 6337 9796  5050 6338 10169  1643 6338 10169  2266 8150 11440  590 6339 11440  2409 9401 10012  362 6340 9401  3497 10288 12088  1646 8150 9882  1276 4367 6342  3955 6342 15244  3963 8823 15068  1045 13511 15067  143 4179 13472  143 6344 13472  1488 10512 15108  1556 11142 13163  3635 7442 14201  8698 13087 14207  3300 6347 12012  1134 9630 14519  3220 12527 12529  1424 6348 12527  6349 8240 15129  4176 8240 15129  1829 5215 9188  1829 6350 9188  1669 5397 10013  3278 6785 13427  1695 6352 14939  2762 10669 10670  4668 6764 12939  6353 6764 12939  6354 13772 13773  69 6354 13773  2234 6355 10782  661 6355 10782  1729 6356 12138  8069 12138 15105  2475 5837 9596  2475 6359 10272  3304 11927 12907  747 12665 12908  2278 5753 14356  1688 6359 8505  2608 8527 12541  1202 6360 8527  6361 6992 9907  1806 6361 6992  2929 6362 10030  2929 6362 8507  6581 8386 14023  1618 13084 14101  2905 7186 9522  670 6364 11241  6365 13084 13085  3223 6365 15745  1649 5861 9646  1649 6366 9646  3660 6367 14357  202 4000 14956  2753 6368 14208  782 6368 14208  6369 8023 11882  4750 8023 11882  2009 6370 12888  685 6370 12888  195 6371 6372  195 4180 6372  2534 5679 9141  2534 6372 9141  4173 10062 15524  4173 6555 14707  2298 6374 12550  619 6374 12550  2377 7759 7760  2377 6375 7280  1671 6376 12193  6376 11176 12193  2775 5479 10119  1671 6378 10120  6378 10120 10121  1252 6378 10121  1821 12407 14265  1821 6379 12407  4340 6380 9107  1573 6380 13592  2754 9375 12483  477 7111 15522  801 4856 6382  801 6382 11393  736 6383 13451  6383 13450 13451  6384 7388 12818  5011 7388 12818  1349 6385 11494  2991 11529 11530  6386 8071 13672  322 6386 8071  1670 9756 14131  1670 6388 9756  3393 6388 9756  862 7450 11607  3085 6389 10625  6389 10625 15519  5928 6813 15491  610 5928 6390  2544 9785 10306  158 6391 10306  175 5326 12007  4380 6392 13936  4086 7617 15698  4086 6393 7617  4497 6394 11411  787 4497 6394  690 6395 9233  6396 9195 15406  494 6396 15406  3215 6397 12509  3215 6397 9239  1613 7179 11263  453 6398 11884  106 6399 10273  1613 6398 11263  2059 6400 10531  947 6946 12205  947 6946 7687  2840 5818 10220  2840 10220 14873  3939 6705 14793  227 6403 14792  2883 6404 14065  2883 6404 13189  99 5317 6405  1951 5317 6405  1850 7073 8192  3689 7649 14156  2880 6407 7845  775 6407 7845  945 7996 12290  6735 8085 9883  738 7229 12561  4546 7229 9790  1136 6410 15086  6410 9137 15086  2912 10608 10775  1617 6412 9323  6412 9323 10774  794 6412 10774  6413 11231 13218  1617 6413 13218  1724 6414 12770  6414 10835 12770  1544 13152 13153  1544 6415 12472  4029 5862 14474  645 7474 14473  2625 5904 6417  1540 5904 6417  906 6380 13424  906 6418 13424  3891 7458 15290  1826 6421 10779  3899 8144 13489  1826 6420 15223  3892 6421 13872  6421 10779 13767  3744 12455 14722  587 8104 14721  3744 12455 14720  1745 6423 14722  2522 6424 8263  2522 6355 8263  3176 9462 10376  3176 7516 12866  3363 6426 15765  3169 9662 9663  258 6772 8950  258 6427 8950  3594 11109 11110  447 6712 12928  2576 9097 11478  2867 7611 10378  3461 6430 8350  679 6430 13252  2446 6431 6432  718 6431 6432  718 6501 14225  718 6432 7025  4793 6433 6713  1620 4793 6433  5498 6434 9547  907 6434 9547  524 4633 10968  524 6435 7857  2971 6213 6436  410 6213 6436  3041 6437 11829  916 4349 11830  3216 4253 6438  1108 4253 6438  3255 7931 12137  4000 10345 10751  34 6234 10700  3884 9955 10700  1248 4789 9109  4789 9109 12157  2247 7897 10201  2247 6442 6443  749 5869 6443  2246 5869 6443  1428 5040 6444  4124 6444 13856  1865 5074 6445  522 5074 6445  1243 9357 12425  2483 6446 9357  3451 6447 10974  617 6447 13411  5963 6448 14447  1656 6448 14447  2517 9450 11702  297 6424 15732  1707 6450 11445  5566 8488 11445  2887 7290 7486  216 6451 7290  2537 7138 7272  2228 7138 7272  2469 6453 12751  4412 6453 15064  1025 6454 11476  2384 6454 11476  542 5045 10796  542 6455 10796  84 6456 9238  2579 8804 8805  3419 9277 13071  1625 6457 13178  1316 6458 13462  3332 7787 11226  3538 6511 13831  66 9269 13833  6460 10906 10907  1626 6460 10907  2802 6461 10844  2802 6838 13014  1486 8223 12309  4115 13010 13546  708 9969 10555  708 5597 6463  1731 4778 11514  1731 6464 11149  4332 6562 12463  6465 12462 14286  1476 6466 13473  6466 13473 13497  6029 7228 11988  6467 7228 11988  3444 6468 13077  366 4701 13078  1023 6469 13680  8020 9067 13680  2896 10997 10998  730 6470 10997  3053 6471 13647  887 4742 11817  6936 13109 14769  3559 6472 12685  5961 6688 13788  6473 6688 13788  2495 6474 10958  4131 15089 15090  1988 6210 6475  1568 6210 6475  6476 13742 13743  1793 6476 13743  2413 6477 9471  6477 6857 9471  1719 6479 9045  2932 10181 13433  451 6478 6831  1558 6478 6479  2395 6480 8871  633 6480 8871  6481 13903 13904  1777 6481 13904  917 6482 13916  917 7896 13916  112 8049 14901  112 6483 11270  4053 7275 14764  225 6484 15330  277 9535 13846  3921 11712 13511  6299 6486 10092  3665 6299 6486  1166 11210 13863  2501 6497 6566  3510 8690 10007  3877 8362 8416  1623 6489 12391  2737 6489 12391  2542 5863 8948  1637 6779 11060  424 6491 13148  424 8803 13148  3633 6492 14244  1634 13147 14245  720 4190 6493  1693 4190 6493  1693 6493 8927  1693 6494 8927  2282 5223 6495  1382 5223 6495  3613 6667 12598  3613 6496 7776  2166 6487 6497  1166 6487 6497  1663 6498 12188  1996 6498 12188  1824 11960 12894  1824 6499 11634  2468 4472 13000  2468 6500 13000  3858 7739 14623  3858 6501 7241  750 6502 8280  2247 6502 8280  1772 6505 9235  1772 6503 9235  892 6504 10115  892 5093 10115  3703 12569 13217  1772 10114 14566  2979 4844 9939  3178 9940 13130  1839 6054 7634  1839 6507 7634  3860 5471 6508  665 5471 6508  1907 6509 11614  2949 6509 11614  3926 15234 15235  1639 6511 12311  1041 6511 15236  6805 15236 15402  4973 8792 15224  6512 8792 15224  30 6513 10971  6513 8865 10971  4856 6382 14254  6382 14254 14935  2450 5890 7339  2450 6515 7339  6516 14269 14270  461 6516 14270  6517 12938 14476  509 6517 12938  810 5807 10688  810 6518 10688  6519 8991 14580  1742 6519 8991  586 12385 14750  3090 10706 14060  1395 5327 6521  3924 5327 6521  3120 6522 11857  1830 7079 12120  3408 7850 13059  3408 6523 8774  3158 12244 14239  1438 13862 15431  1479 5776 6525  3654 6525 13058  3056 6526 8148  3056 4609 6810  81 6527 9200  2523 6527 9200  1659 4222 6528  3142 12039 15736  2271 4442 8893  2271 6529 8893  882 6530 13883  2210 6530 13883  442 6531 13491  1678 6532 13596  3457 6532 13596  913 6532 11546  103 5270 9295  103 6533 9295  621 6534 11596  1852 6534 11596  3647 6536 14174  215 6575 14172  1677 6536 11437  2983 9327 14179  3109 9605 11992  442 5588 8635  4786 6538 12067  2321 6538 6737  4740 6539 14844  1651 5973 13834  6539 6540 11043  1651 6539 6540  6543 11487 14746  1955 8230 11487  224 4400 6542  4400 6542 10604  1955 6541 8230  815 7279 9958  324 4731 6544  1815 7182 15390  1453 5391 12945  1453 6545 12945  48 5431 6546  5431 6546 9489  1396 5430 9489  891 5430 6547  815 6548 9958  2485 7839 7840  2865 5539 9989  1947 5586 9988  1015 4122 6550  1686 4122 6550  3265 9534 13505  1686 9534 13505  85 6552 13769  85 8820 12142  3098 7967 9695  3098 6553 7967  2847 6554 9236  876 8355 9237  4173 6555 11868  588 7938 15528  6556 14555 14556  2122 6556 14556  6557 8639 11888  2381 6557 11888  1917 6561 10607  25 4221 6558  4221 10607 13891  1917 10607 13891  636 5759 7609  636 6560 7609  2036 6561 12978  4652 9865 12978  6465 12731 14955  1731 6562 12731  5830 8622 14829  2848 4621 6563  2312 5795 6564  655 5795 6564  2197 7627 9840  3310 6565 8748  254 6020 6566  2166 6869 9424  3547 8036 13981  3548 8036 13190  1832 6568 12017  6568 8156 12017  4095 15420 15422  1733 6570 15420  4513 10229 10881  1733 6570 10880  3415 6571 13387  3415 6571 9868  6960 13538 13547  1653 6572 13537  4911 7033 9808  875 4911 15329  3878 9044 15751  2629 9692 14283  3010 6575 13429  3010 9458 11370  3606 5155 6576  720 5155 6576  6577 7766 10172  855 7283 9170  6140 6578 11185  4033 6578 11185  3038 10791 11515  724 10791 15082  3929 6580 15292  3929 6580 9246  101 6581 12307  2343 6581 12307  1356 4311 6582  1873 4311 6582  1950 6287 12115  1950 6583 12115  2759 6584 11367  536 5405 7950  2902 4699 6585  1058 4699 6585  1759 6586 6893  1759 6892 13180  3727 7022 14587  2383 6587 14585  3520 7093 13761  236 5907 8517  3105 6589 11971  817 5456 11967  2892 6783 15640  2892 6590 9935  1278 6591 15583  2539 13307 15583  448 5135 9671  1330 5135 6592  5066 6593 7652  469 6593 7652  1655 4381 6594  4381 6594 9304  4381 9304 13250  1655 4381 6595  840 11751 11765  840 6596 11751  3357 8803 13148  3357 6597 8803  3374 6863 13210  901 12613 13208  3374 6599 13209  1683 6599 13209  2763 4894 10717  753 6674 13132  4411 6601 14800  1364 6329 10267  4410 6601 6602  67 4410 6602  3702 8091 9300  2296 8091 9300  5696 6604 12986  1709 5696 6604  692 10575 13099  692 6605 8319  6606 9375 12483  1724 6606 12483  1867 6607 6758  1867 6758 8839  3546 6608 13712  1925 6609 13710  2913 8610 10690  1925 5727 7670  3029 6610 11601  1328 7335 8007  4178 12956 14420  7654 14421 15145  6611 6612 15322  426 6612 15322  3089 6613 15589  1221 6613 15589  2780 6614 12466  445 6614 12466  2039 6615 11719  4042 7927 14573  105 12436 12685  105 6616 12436  1658 6617 9102  1658 6619 9102  2739 6094 8508  1658 6617 15505  746 6619 13139  6619 9102 13139  895 6620 12746  2462 6620 12746  2074 6239 6621  850 6239 6621  1111 4217 11840  1111 6622 11840  1144 4443 6623  4443 6623 9172  2131 6624 12825  545 6624 12825  558 6625 10000  2048 6625 10000  872 6626 9890  2062 6626 9890  1496 5283 6627  1839 5283 6627  563 6628 13146  2361 6628 13146  3575 13304 13305  2178 6629 13304  5488 6630 7919  602 6630 14010  3224 6185 7744  352 4550 6631  1960 6632 9873  516 6632 9873  1959 6633 12610  1118 6633 12610  5140 7814 13108  2568 6634 13108  3374 13207 13208  1662 6635 13207  1412 11703 12964  5037 8417 14215  6637 12528 12529  1714 6637 12529  1768 6640 9117  6638 8585 14780  130 6639 13564  6639 11875 13564  7578 15017 15053  1768 6639 11875  2599 6641 14442  434 6641 14442  599 8391 11429  2305 6642 9041  1710 9971 12524  1710 14148 14149  4379 6644 9703  463 6644 14667  3857 15211 15212  1732 6645 15210  3729 11902 14686  791 7138 11902  2943 8346 12009  520 8346 12009  4413 6648 10956  4413 10180 15659  2186 6649 11779  1126 6649 11779  3162 6650 15249  473 14381 15249  3723 6651 14194  1005 6859 14803  5616 6652 9372  251 6652 9372  3453 7348 13470  1668 5616 10742  144 4457 12001  144 6654 12001  3674 6655 13316  5701 11853 13316  1854 6656 9920  1854 6709 6710  2299 6657 7615  619 6657 7615  2545 5620 9634  308 6658 9986  843 5620 6659  5620 6659 9634  1669 6660 14276  1669 13975 14276  1774 6661 9811  1774 4327 8917  1716 4986 6662  593 4986 6662  2080 6663 10610  2080 7432 10610  721 9613 9631  721 6664 9613  344 4237 7070  4237 7070 13446  4224 6666 9854  490 4224 6666  1904 6946 12395  1752 6946 12395  3258 6668 9460  3258 6668 8992  5710 6669 12640  1628 5710 6669  2331 6118 6670  2541 6118 6670  3197 11972 12416  1684 6671 12417  272 6672 8875  2434 6672 8875  2142 4310 6673  1357 6673 13549  753 6674 11235  2763 6674 11235  419 5932 6675  2652 5932 6675  1833 6676 8508  41 6676 8508  1246 7040 13399  1152 4653 6678  2455 4653 6678  3224 11472 11473  856 4897 11472  6185 6680 9389  1783 6185 6680  2474 8910 9726  1749 6681 9726  929 6682 12713  1837 6682 12713  3947 6683 14117  6683 6818 14117  2980 6684 10327  114 5989 9209  1681 4170 6685  430 4170 6685  2653 9667 9668  723 9275 11828  2082 5481 6687  833 5481 6687  3173 6314 8357  754 6314 8357  3970 15643 15644  1861 12881 15644  1916 6690 12807  2933 6690 12807  3633 14530 15664  3357 8662 15721  1304 5091 6692  2535 5091 6692  1993 6693 13602  3294 7622 13602  2150 8451 11072  6694 8451 11072  2976 10780 12136  1285 6695 10780  756 4114 6696  1685 4114 6696  1294 5438 6697  3127 5438 6697  3780 10023 10160  492 7465 13380  74 6699 13289  6699 10680 13289  273 6700 11896  4174 9031 11896  4174 6701 15730  1055 4174 6701  1573 6702 13592  3420 6702 13592  1375 6796 10755  3690 6796 14557  2946 6704 10918  281 10919 13164  1682 4068 6705  4068 9503 14717  6403 6706 13414  1162 6706 13414  1197 12709 13150  3360 6634 12709  2760 6708 11446  874 6708 11446  1689 6709 14314  93 6709 14314  1854 6710 9920  2004 6710 9920  4058 6711 8487  1689 4058 6711  2004 6063 11979  447 6063 6712  1784 6713 13423  1784 6418 13423  3994 6714 13565  465 12360 12361  4779 6715 6939  1785 4779 6715  1785 4446 6716  237 4446 6716  2422 5472 6717  63 5472 6717  1600 6718 14310  2998 9052 11078  175 5769 7858  175 6719 7858  1794 6720 9494  4780 6884 9494  3198 5955 8542  3257 6721 14577  5955 8542 13036  607 5955 13036  2459 5820 9542  3249 6723 9576  3777 7633 9757  2588 7633 9757  6725 12516 13313  894 6725 12516  4378 9569 13959  1949 13475 15170  6517 6727 12482  509 6517 6727  517 4663 6728  1982 4663 6728  2879 10685 10686  2879 7376 10685  3745 6730 14738  1921 4776 7276  3434 8093 12929  760 8955 12971  3673 13521 14477  923 12050 13521  2035 6733 13595  527 6733 13595  2309 6734 11778  5795 8763 11778  7351 13282 13294  2958 8085 9883  1680 5675 6736  5675 6736 12083  1215 4464 6737  1810 4464 6737  6738 12495 13503  462 6738 12495  2033 4233 6739  567 4233 6739  1740 6742 8687  1740 8687 14303  3235 12579 12580  3235 11630 11631  6742 12579 12580  1740 6742 12580  1811 4487 6743  304 4487 6743  3845 11281 11602  2090 8173 11281  619 4806 6745  2003 4806 6745  982 4606 6746  1896 4606 6746  6747 6877 10699  744 6747 6877  1840 4400 6748  224 4400 6748  1327 5080 6749  1889 5080 6749  3190 9423 14407  309 6854 7226  2517 6751 11702  6449 9450 11702  2067 5521 6752  3522 9181 11583  508 6753 15698  508 7617 15698  4086 6754 15697  1782 6753 15696  2321 4461 11333  1782 6755 9844  1702 4871 6756  77 4871 6756  2959 8401 9578  2959 6757 8401  3988 9875 9879  1245 6758 9875  532 8352 13529  532 6759 9339  1046 4627 6760  2190 4627 6760  5214 6761 11495  1712 5214 6761  1823 5165 6762  5165 6762 10141  4198 6403 13414  1703 7612 15672  2911 7612 13097  2911 7612 10899  1184 4618 6765  1977 6765 6857  3291 10073 12754  3291 6840 12734  4382 6767 15764  4382 13645 13646  6768 14492 14771  560 6768 14492  3685 14454 14455  2151 5976 14453  1788 4282 6770  334 4282 6770  4281 13033 15103  1788 4282 6886  2353 6938 8950  1767 6773 6938  2353 6938 11056  859 6773 11056  2275 6774 14789  42 6774 14789  4052 13005 15692  6775 13005 15692  3984 6776 15157  270 8779 15156  6777 9849 12674  820 6777 9849  6778 14621 14622  149 13439 14622  2542 6779 14295  1372 6779 14295  3582 11436 14080  1074 6780 14079  5443 6781 11070  1726 5443 6781  3163 6782 9101  1765 6782 11886  983 8016 11356  2892 5998 8161  1466 10500 14710  1466 11281 14710  3278 6785 13975  6785 13975 14276  1513 5857 9778  3168 5858 11989  3982 6998 15268  211 10225 15269  2700 5259 6788  2700 5278 6788  523 6789 11707  523 6990 11707  2768 6790 10665  909 4069 8342  4893 7788 13053  1901 4893 6791  1599 6115 10347  4001 9383 15125  6418 6793 11189  906 6418 6793  6794 13091 13092  841 6794 13092  3423 13238 13663  37 6795 13238  3690 6703 6796  6703 6796 10755  5082 6797 11456  1456 5082 6797  4348 6798 15681  4348 6798 10411  3037 9795 11545  1948 4718 7148  3542 9519 13965  464 6800 13964  3143 6801 12042  1386 5379 12038  3743 8504 15651  2510 6962 9817  855 4156 6803  1715 4156 6803  6805 15234 15236  425 6804 15235  3926 15234 15236  1715 6805 15234  1976 6806 10959  4832 7743 10959  3375 6635 6807  1662 6635 6807  2052 6809 7504  194 6808 7505  6808 6809 7505  2660 6808 6809  3055 6810 13428  802 6810 13428  6811 14798 15592  342 14424 14798  1837 8891 12912  7217 8891 11735  1608 6813 15491  5293 11447 11449  1033 5878 14728  3852 7083 13309  6816 13571 13572  1738 6816 13572  3449 13571 13572  397 6816 13571  495 4971 6817  4971 6817 9602  3946 7994 15326  1079 14117 15328  1623 6416 12391  645 6416 15561  6820 9544 14827  1863 6820 14827  1325 6821 12428  2743 6821 12428  2095 8231 11184  28 9466 12562  2201 4680 6823  4680 6823 9012  6824 8161 14817  983 6824 8161  4338 4714 13215  157 11831 15738  4080 13575 15356  1426 11885 12033  2559 6028 6827  2920 6827 9946  2819 6828 10348  3329 6654 12406  944 12130 12404  2187 7861 9509  2028 6830 13585  6478 6479 6831  1719 6479 6831  3014 6832 13042  398 5663 11741  3370 7268 7270  2776 6833 10045  6834 8442 15629  1828 7206 11936  5194 6835 12925  3389 6835 14675  3217 13825 14325  478 6836 12439  1110 6837 13049  9388 14203 14204  6838 13600 14141  1720 6838 14141  1720 4352 6839  4352 6839 10661  2271 8894 15682  927 5866 8553  1153 4425 6841  1786 4425 6841  1786 6841 8494  1786 6842 8494  288 6843 8597  3463 8991 9286  5830 7803 14773  1755 6844 7803  3551 7165 13993  3551 7192 14085  2891 6846 11777  136 5207 11124  2019 4578 8606  2019 6847 8606  1739 4410 6848  1364 4410 6848  6849 13862 15431  3158 12244 13862  378 6850 14092  2445 6850 14092  2600 6851 10190  6851 8099 10190  3354 12082 14394  3011 9864 10154  1774 4327 6853  816 4327 6853  1774 6661 7226  1774 6854 7226  2451 6553 7967  1728 5043 9644  1728 4585 6856  1259 4585 6856  4618 6765 6857  624 4618 6857  1977 6858 14613  1977 7267 14613  6651 13843 14803  1757 6860 14192  422 6860 14193  6860 14192 14193  1767 4791 6861  1767 6773 7120  4290 10947 12871  386 6862 10947  6635 13207 13208  8 6863 13210  860 6864 11200  2917 6864 11200  883 8662 15721  3620 7256 14231  4111 10329 11739  1084 10329 11739  3699 8007 10039  3699 10039 13407  1164 4513 6868  4513 10946 15279  1622 6020 9424  1622 6869 9424  4164 12639 13064  4164 6870 11559  5007 8154 14188  6871 8154 14188  145 7673 14161  128 6873 14727  3753 6873 7173  292 6874 11500  4574 7661 11500  3415 7322 13388  1653 6571 13387  3875 12205 15184  1887 8147 15183  1196 4672 10888  744 4672 6877  4066 10277 15428  1817 5543 14028  3414 6879 13400  1817 6879 8189  2012 6880 15399  1309 13732 15399  3602 7305 14153  1743 6881 14152  3710 7354 11598  3710 11903 14371  223 6883 13394  6883 8092 13394  471 6963 15657  471 6884 10726  1900 6885 12079  6885 12079 13960  1788 6771 6886  4281 13033 15203  169 6887 10530  4474 7770 15287  1147 4474 6888  5570 6889 15376  1749 5570 6889  3565 6891 13783  762 6890 13782  6422 6891 11457  587 6422 6891  3372 6892 13180  294 9453 11114  6586 6893 13195  1150 6893 13195  3684 10618 12646  6894 10618 12646  3895 8415 9258  771 6996 15270  4448 8799 11348  2243 8799 11348  2859 6897 13650  608 12970 13650  3137 10965 13630  5321 9274 14032  3721 5127 9735  1615 4478 9914  840 5290 6900  1750 6901 14866  5290 6901 14866  1432 5290 6901  2871 7295 10620  6902 7295 10620  309 6854 6903  2766 6854 6903  1725 6845 6904  3228 6845 6904  2455 4653 6905  668 4653 6905  1322 5070 12366  5070 12366 14033  3424 5508 6907  1576 5508 6907  6908 15517 15518  1051 6908 15518  3664 8692 14387  1775 6909 14386  4175 7059 15627  4175 6910 10325  4006 6911 15713  847 9827 11209  6911 6912 13902  1155 6912 13902  2797 10226 10628  821 6913 10226  1931 6914 14672  1931 7395 14672  3607 6915 8655  3920 6915 13556  311 6916 9858  3021 6916 9858  3971 6917 11366  1251 6917 15663  2899 6919 6920  2288 6919 6920  2899 6921 8139  2899 6919 6921  2603 7718 14322  2288 7718 14322  3135 8137 8138  2079 6921 6922  6923 10667 15423  2005 6923 10667  798 5693 6923  2130 12011 14446  2986 6924 12922  1269 6924 12922  4302 13909 13910  1116 6925 15167  149 6460 10906  3298 10645 11728  208 6927 13835  2269 6927 13835  2089 8210 12062  1856 6928 8209  6929 7221 11188  601 6929 7221  935 6930 9379  935 9379 11626  417 6249 12548  417 6931 12548  1754 4567 6932  958 9353 13015  3102 6933 11441  70 4502 7404  3740 14071 14072  1890 11551 14071  6747 6935 12727  744 6747 6935  3200 6936 13109  1696 5979 11424  2292 7663 8108  2045 6278 7663  1767 6772 6938  6772 6938 8950  2218 9842 12200  2218 7284 7285  1151 4487 6940  1811 4487 6940  4598 6941 13319  3431 6941 13319  2300 4677 14859  4677 14859 14984  1276 4365 7655  4365 7655 13383  1758 13317 15421  1758 6944 11920  1752 5240 6945  5240 6945 9904  1752 6401 7687  1752 6946 7687  3908 7756 15454  1836 7441 8525  6948 8525 13172  726 6948 13172  3801 6949 11350  3784 6949 13374  3785 7175 13922  3785 6950 10657  1814 4431 6951  4431 6951 9995  5921 6952 8387  1138 6952 8387  1037 6953 12125  2251 6953 12125  1654 5878 9723  3844 14706 14735  6955 7547 15450  1860 7547 15450  4337 6956 12666  1882 4337 6956  2748 10019 10649  513 6957 10650  3130 7712 11928  854 7214 11129  3542 6961 13963  900 6334 9519  3442 13538 13547  229 6960 13538  3542 13964 13965  6961 14543 14890  6802 6962 9817  2510 9816 14142  4024 15656 15657  4024 9162 15656  1795 4023 6964  4023 9134 15694  987 9342 10966  3591 9017 12533  2168 6967 11866  167 6967 11866  3999 10324 12396  3999 12396 14699  4369 9187 15283  1140 6968 15285  855 4156 6969  2216 7284 12790  1208 6781 11070  3764 14805 14806  85 6552 6971  85 6971 9755  1531 6046 6972  3397 6046 6972  1409 6973 14749  2559 6827 9946  3514 8982 13230  1834 6974 13875  2758 6975 10873  5777 10629 10873  2422 4937 6976  776 4937 6976  3435 10711 10912  1635 12827 15335  2963 6978 9074  114 6978 9074  717 4361 8828  717 6979 8828  3234 6980 12618  1770 6985 12617  2423 5150 11664  2423 6981 11664  6748 8388 15298  6982 8388 15298  3700 10645 14549  1816 7250 14548  609 6984 15707  2565 6984 15707  6985 12617 12620  17 6985 12620  1770 6980 13301  1770 6986 13301  3655 14360 14361  1771 5509 14362  1771 6962 12287  1771 6988 12287  1806 6989 10794  1806 6991 10794  1807 4100 6990  523 4100 6990  3114 10794 13278  86 9105 10724  523 4100 6992  1806 4100 6992  6993 8182 15371  843 6993 8182  3163 6800 6994  464 6800 6994  4441 15154 15155  1958 6996 15154  3895 6996 15270  3895 6996 8415  2210 8415 9258  296 7928 11085  6998 9479 13189  769 6998 9479  2651 6001 6999  1706 6001 6999  5500 9014 11215  2318 7000 11215  7001 7380 12325  1874 7001 7380  1860 7002 14888  1860 5494 7838  2465 6281 7003  878 6281 7003  7723 14005 15272  4225 14005 14006  5096 7005 13156  1841 5096 7005  571 7618 8389  571 7619 13652  555 5187 7413  5187 7413 11580  3327 9601 13050  1854 7008 13051  1903 5195 8560  1903 7009 8560  5272 7010 11997  2006 8289 14536  3901 8767 13888  4 7126 13794  7126 13793 13794  2168 7345 11940  2326 7013 7345  3287 7014 12484  598 5336 12486  2798 7015 14134  4660 9464 14134  7016 14760 14785  3276 12780 14760  2176 9267 12008  2176 7099 7360  3067 7018 11588  1201 11165 11589  2392 6095 7020  2162 6095 7020  1218 4433 7020  2392 4433 7020  1149 9270 14031  1820 7021 9403  1914 7022 14552  3566 7500 14552  5205 7023 10892  1339 5205 7023  3628 12470 15547  466 7024 15547  206 4885 7139  2477 7025 7157  3827 7027 14862  493 5087 14863  7027 9050 10704  844 7027 9050  4321 7028 13805  348 4321 7028  2661 7029 9173  7030 13951 13952  1964 7030 13952  3873 7777 15160  554 4659 12843  1606 7032 15572  1606 12667 13004  4092 7033 14902  314 8425 14903  134 10855 15660  3131 9349 14021  2975 7035 14337  380 7035 14337  4776 7036 7037  1922 4776 7036  2893 4815 10268  1921 7037 10270  1922 4310 7038  19 4310 7038  2893 10269 10270  265 7039 10269  1246 6677 7040  2709 6677 7040  1920 4780 7041  471 4780 7041  2881 7042 7043  772 7042 7043  772 5487 8253  772 7043 8253  2156 4985 7044  569 4985 7044  2493 7045 13548  1383 7045 13548  3489 7448 12344  1781 7046 12345  1128 8384 14921  3838 7047 8297  3257 7048 13996  873 11247 11858  2084 4110 7049  542 4110 7049  560 7050 9518  7050 8759 9518  246 7051 12786  7051 12785 12786  4620 7052 15436  5004 7052 13866  1883 5812 9908  1883 7053 9908  2494 7117 8131  1934 7054 13570  2450 6191 7055  99 6191 7055  816 4327 7056  2160 4327 7056  2366 5361 7057  583 5361 7057  1956 5486 7058  2828 9232 10682  4175 7059 15626  4175 7916 15626  414 7060 8969  4034 7060 13946  3756 14492 14771  1791 8766 13966  4261 12817 14822  640 7062 12817  1191 7063 11227  2569 7063 11227  2999 8460 10140  7065 7897 10201  2247 6443 10201  2245 5869 7066  869 7669 8951  7067 13599 14430  4323 12256 14430  2015 5716 8855  3687 7068 14036  3850 9203 10118  3680 10719 10720  1875 6665 13446  1875 7070 13446  3451 6447 13411  3451 7071 9216  4388 15506 15555  480 7072 15506  6406 7073 8192  118 6406 7073  1850 7072 12081  1850 7074 12081  5925 8922 14482  1642 5925 14482  3645 5661 7076  583 5661 7076  9029 11823 14198  2801 7077 7158  3490 7078 14289  1781 7078 14289  7079 12119 12120  728 7079 12119  1830 4227 7080  4227 7080 8707  3353 11022 12941  1734 7081 12942  3048 9683 13117  3048 7082 8868  1805 7083 15093  7083 15091 15093  1805 4226 7084  1032 4226 7084  464 7085 14543  2923 7085 14543  1404 7086 15138  3202 7865 12094  2690 8938 10442  2690 7087 8938  1946 7088 14805  1946 7129 14805  213 7089 14181  2931 7089 14181  2152 5057 11005  188 7090 8469  5607 7091 10862  1565 5607 7091  4178 4952 7092  1982 4952 7092  3419 11848 13178  3419 7093 9277  2791 7094 12712  2791 7094 11426  443 7095 9820  3525 7095 13828  1756 7096 12839  3266 7096 12839  1785 4446 7097  1785 4779 7097  940 7098 11335  3317 7098 11335  7017 9267 12008  2177 7017 12008  3585 7100 13149  322 6386 13151  2226 7101 14682  1272 12338 14682  106 4485 7102  1994 4485 7102  909 4069 7103  1994 7102 12177  2808 7104 12488  1272 7104 12488  1808 5854 14656  1808 7105 14656  243 7363 13044  4025 14520 14521  1857 7107 8174  2370 7107 8887  3087 7108 11861  809 9071 11859  56 7109 9370  56 8523 9370  2163 9219 15289  2163 7110 9219  5848 7928 13339  1723 7111 10697  1967 4426 8474  1967 7112 8474  1682 6706 7113  3072 6706 7113  4628 7114 10422  1800 4628 7114  3447 12052 13531  3447 8870 13279  4061 14450 14451  319 7918 14450  7117 12697 15028  7117 8131 13570  4050 9974 10675  3091 9974 10675  2863 4531 7119  7270 10094 12427  2626 7120 7753  2626 6185 7744  89 8296 10302  2167 8168 8832  4629 7214 14364  3046 7122 14364  1847 7123 15762  7123 14831 15762  4060 14831 15762  228 5343 15763  3128 11539 11540  479 7125 11849  4770 7126 13616  2048 7126 15683  2333 7430 9218  2333 7127 7184  4867 7128 10057  3629 13225 15263  7129 14805 14806  1208 7129 14806  4505 11315 11541  4505 7130 11315  640 8039 13457  2349 7131 8905  2874 6155 7132  1569 6155 7132  835 7133 7134  2603 7133 14322  2289 7134 13517  2288 7134 13517  289 7135 12376  5149 8215 12376  1519 5339 7136  1913 5339 7136  2057 7137 12830  791 7137 12830  2228 8029 14685  2228 7138 11902  2447 7025 7157  2447 7139 7157  2842 7140 15122  26 7140 15122  5157 12659 12692  1821 5157 7141  2338 6066 7142  1057 6066 7142  7143 11612 13530  2405 7143 8256  7144 12049 14670  3825 7144 14670  3866 13951 13952  3868 7145 8691  3276 7146 12779  4162 12782 15687  5574 7452 11977  7147 7452 11977  1948 6799 7148  3037 6799 7148  5221 9670 13847  3933 7149 9775  3412 13312 13314  1861 6725 13313  3725 6056 7151  1692 6056 7151  2873 11127 14308  7152 12919 14308  4424 12626 15515  165 9335 12626  551 7154 15358  2135 7154 15358  4510 7155 10801  2807 7155 10801  3422 7156 13357  905 13358 13361  206 5113 7157  2477 5113 7157  3101 10913 12087  3101 7158 7945  2429 6189 7160  2428 6189 7160  2429 7296 13186  2429 7160 10614  2537 7161 15731  1049 7161 15731  7162 14668 14669  2415 7162 14669  3482 7163 9437  1094 11206 12650  788 4658 8510  4658 8510 15474  3525 7165 13829  923 12050 13827  220 4895 7166  4492 8206 14756  3048 8331 9683  2578 7167 8331  3268 9843 14353  9358 14213 14353  3171 7169 8097  290 7169 8097  3954 13738 14679  1416 5394 8838  2658 7171 9969  287 7923 10300  2031 7923 11511  5786 7173 12184  2041 5786 7173  5153 10086 10842  1827 5153 7174  1517 5582 7175  3785 9814 13923  3074 7176 14600  4361 11810 14600  7177 14985 14986  2097 7177 14986  2059 6400 8711  2059 7178 8711  1613 6399 7179  2063 7102 10273  7180 7425 12322  4644 7425 12322  7074 12081 15555  1815 4388 7181  4731 11427 15390  823 7681 11427  7127 7183 13750  2002 7127 7183  604 5713 7184  2002 5713 7184  1384 13365 15719  3450 7750 12934  5233 7186 11038  2905 5233 7186  6065 8816 14469  1267 8816 14469  3078 7188 11313  1302 11921 14067  3925 7189 15400  1842 8285 15401  3759 6122 14162  1035 7190 14763  334 5634 11672  334 7191 11672  3335 7192 12658  240 11835 12606  3673 7458 14477  1825 6517 14476  6621 7715 14932  7194 7715 14932  1559 7195 7833  3571 7195 7833  1924 7198 8954  885 8132 14752  2486 7278 8809  1924 7197 7278  2486 8809 11761  822 7839 7840  3652 14339 14340  7444 14339 14413  1831 7200 13696  7200 13695 13696  3548 8313 12898  1831 7200 7201  5613 12252 13624  870 7202 12252  3653 14358 14359  1833 7203 14358  7204 14684 14836  7204 14836 14838  2639 5084 7205  2639 7205 13897  2183 8526 11936  1069 8378 8526  2814 10086 10842  1894 7209 10841  7208 10954 14681  1894 7208 14681  2814 7728 10841  988 9005 11854  1834 6974 13128  1834 7210 13128  7211 14360 14361  456 7211 14361  3514 6974 13875  918 9215 13876  1697 6071 7213  4109 6071 7213  3046 7214 14364  854 11852 13569  2835 7215 14560  1493 7215 14560  6682 7216 10749  1837 6682 7216  6812 8891 12912  1837 7217 8891  6243 7218 12706  5906 7218 12706  3985 13425 14604  1813 6326 15485  3509 4549 12497  770 4549 7220  7221 7222 14865  5790 7222 14865  3674 11853 13316  1650 7222 14293  5080 7223 9963  1327 5080 7223  522 5074 7224  1866 7224 14384  2053 4538 7225  4538 7225 13841  309 6750 7226  3190 6750 7226  7227 12424 12426  50 7227 12426  4821 12444 15085  1974 4821 7228  3483 12412 12561  2008 8172 12412  400 5975 7230  5975 7230 9459  1012 7231 15352  2047 7231 15352  2132 7232 11722  78 7232 11722  1737 4974 7233  2339 4016 11681  3122 10756 11850  3122 7234 15476  83 6494 7235  3036 6494 7235  25 4221 7236  3075 4221 7236  1754 6932 7237  3671 6932 7237  2632 8332 12711  2632 9350 12711  1848 4289 7239  479 11877 14170  751 5996 13013  751 7240 13013  4112 7241 14225  1631 5049 10242  4968 7242 15525  1543 7243 12609  3061 7243 12609  1570 6051 12291  1570 7244 12291  3292 6847 7245  2019 6847 7245  3627 14063 14064  1797 7246 14063  7049 7247 12521  3248 7247 11432  1851 5207 7248  1336 5207 7248  7249 7906 11293  480 7249 7906  1816 8388 11619  3700 7250 14548  1601 5567 7251  2528 5567 7251  3598 13268 14151  8062 13268 14787  3595 13600 14141  1844 7253 14139  3595 7253 14139  485 6838 13600  2005 6922 11253  2005 7255 11253  3620 10667 15423  883 7256 14231  2871 6901 7257  1432 6901 7257  4471 7258 13589  1444 7614 13589  7259 15529 15611  1905 7259 15611  1455 5105 7260  1876 6004 9956  3437 13493 13494  7261 13493 15132  5314 12061 12883  3677 10941 12061  1918 6701 15730  1918 7263 8326  4279 11551 14071  1889 4279 7264  23 4945 7265  1970 4945 7265  2287 7265 7266  2287 7266 7669  3725 14612 14613  340 7267 14612  6833 7268 10045  842 6833 7268  2776 10045 10743  2102 7268 10045  2863 7119 12427  2102 7270 10094  1754 4567 7271  3012 6802 11314  2537 5557 9996  2537 7272 9996  3945 8746 12851  1885 13931 14553  3590 13930 13931  1581 7274 13930  7274 7275 14232  733 7275 14232  1921 6730 7276  3745 6730 7276  3161 7277 13477  1672 7277 13477  822 7840 10757  1924 7198 7278  2566 7279 12034  2566 8230 11487  83 6494 8927  83 7280 8927  2049 4428 7281  758 4428 7281  2217 7420 13535  2216 7282 7421  2217 6969 7421  855 6969 7283  108 7284 14282  7284 12790 14282  108 7284 7285  108 7285 12241  886 7286 12260  7286 7883 12260  6245 7287 10392  1849 6245 7287  4933 7288 11477  3336 12607 13590  1661 6354 7289  3385 6354 7289  1820 7290 9403  2887 7290 9403  2466 7291 14640  1730 7291 14640  3316 11639 12271  3316 7293 14427  3062 11174 11559  1879 5741 8627  2120 7545 12150  2121 7546 10303  3008 8146 12546  839 7295 8146  2429 6189 13611  2429 7296 9249  3515 7017 7297  3515 5149 7297  2129 5769 14372  2129 7298 14372  785 7299 9810  2540 9810 13169  6143 7300 8734  2507 7300 8734  1638 8031 15262  3230 10085 12321  2490 7302 13333  7302 13333 14127  7303 13001 13736  1871 7303 13001  1225 6261 7304  3150 6261 7304  1613 6398 7305  3602 6398 7305  1956 5486 7306  1418 5486 7306  379 5457 9782  379 7307 9782  2014 6050 7308  2930 7308 7717  3250 12429 12431  1895 7310 12429  3210 12299 14576  3210 11102 11103  2070 10130 11818  5388 10130 11818  277 7313 12231  2380 7313 12231  488 5110 7314  2817 5110 7314  2323 4373 7315  1120 4373 7315  121 5237 7316  2065 7317 13933  5237 7317 13933  1346 5237 7317  790 5699 7318  2843 5699 7318  1562 7319 14835  2926 7319 14835  5712 7320 9688  1628 5712 7320  2329 5212 7321  1334 5212 7321  3401 11069 15769  3401 9868 15769  3221 6585 7323  1058 6585 7323  2856 4108 8669  1857 4108 7324  2044 4788 7325  1248 4788 7325  4774 7326 12151  3391 4660 7326  954 7327 13700  1990 9478 10075  1990 7328 12492  4429 12597 15107  2831 9478 13123  662 7329 13123  742 9030 13730  2803 6461 10843  511 7331 13763  7331 13763 15243  2011 7332 15530  5708 9183 15530  136 7908 9937  136 4432 7908  5531 7334 14349  7334 8929 14349  1328 6610 7335  3029 6610 7335  382 7336 13246  3437 7449 13246  2635 6006 7337  1337 6006 7337  3286 7338 10644  3285 7338 10643  2498 5410 7339  650 5410 7339  5822 7340 9760  1548 5822 7340  4241 7341 7896  1871 4241 7341  1871 4241 7342  96 4241 7342  2018 11515 14718  3714 7343 13040  3394 11369 12723  896 7238 9350  2168 7345 14788  7345 12918 14788  2863 7346 10903  832 7346 10903  2789 5357 7347  757 5357 7347  3288 7348 12571  1926 7348 7480  1191 11227 12735  7349 11353 11534  3507 7350 10608  1160 9809 11372  3428 7351 13282  1610 4561 13281  2954 7352 10372  780 11469 14833  2876 9709 10355  1967 7112 10354  2647 7354 11620  763 7354 11620  4302 13910 15167  4302 7355 7881  3484 8841 12327  3484 8841 12131  2786 7416 7731  1984 7358 7416  757 8609 13228  757 7358 7416  858 7359 14506  4592 8084 14506  2756 9641 15744  2177 7360 15744  3494 8070 13737  487 7303 13736  3576 7362 13631  3576 7362 7363  7363 13044 13045  1870 7363 13045  7364 14454 14455  1804 7364 14455  3909 7365 14729  3909 7365 12420  3678 8740 13658  845 12106 13657  1868 7367 15339  6084 7368 15339  5491 7081 7368  1734 7081 7368  3702 7369 12920  589 6603 9300  902 7370 8948  902 4313 7370  3110 7371 10986  447 6428 9798  1913 4316 7372  647 4316 7372  3073 7373 12556  3073 7373 13605  2657 7374 10447  215 6535 9819  215 7375 9819  336 7376 10427  2601 7376 10427  3831 11855 14493  942 7377 14892  2735 10266 11349  1892 5754 10266  1892 7379 14493  7379 11855 14493  2156 4232 9928  1874 4232 7380  5789 7381 10961  1874 7381 10961  4049 7382 15558  4049 10246 14470  2230 5220 7383  104 5220 7383  2240 4988 7384  1299 4988 7384  1985 5801 7385  69 7385 11338  6022 9987 13103  1132 9987 13103  4097 9483 15393  784 6318 12931  784 7388 9846  2399 7389 13525  1155 7389 13525  7390 14334 14335  1877 7390 14335  3780 7391 10160  1877 5921 14904  2513 5513 9243  2513 7392 9243  701 9835 11606  701 9835 10496  2047 7394 14380  7394 8713 14380  3746 7395 14672  3746 11154 11870  8942 11933 15577  1169 8942 15577  4372 7397 11783  2022 4372 7397  2538 5876 9558  2022 5876 7398  4504 7399 12444  1512 7399 12444  560 7061 7400  7061 7400 10402  2026 7401 15442  2026 7442 15442  4028 7494 11714  2161 7402 11714  3883 9340 14418  3883 5435 7403  4502 7404 13615  3102 10887 14872  302 4185 7405  1959 4185 7405  1123 6116 12315  1123 7406 12315  4423 10181 10915  2932 10181 10915  7408 12569 13217  631 7408 12569  3710 9290 10173  2402 9290 10173  3819 7410 14765  1927 12788 14766  8286 12788 14766  1044 7411 15438  3290 9248 12784  1796 7051 12785  2027 7007 11580  2027 7413 11580  821 6913 7414  2795 5301 10166  2923 7415 14890  1764 7415 14890  7357 7731 15614  7416 7731 15614  7417 11497 13025  745 7417 13025  2995 11497 11498  2174 7417 11497  170 7419 13145  170 5926 7419  7420 7421 13544  7282 7421 13544  6969 7421 14895  2216 7421 14895  1532 5481 7422  2082 5481 7422  7423 11704 13651  826 7423 11704  205 4645 7424  1886 7425 11461  1205 4645 11461  1205 7425 11461  2872 7426 14449  321 7426 14449  45 5448 7427  2779 5448 7427  3536 7428 9292  1891 7429 12438  3536 7429 12438  964 8111 13780  3599 8243 9218  318 8243 9218  432 5711 7431  5313 7431 12954  7432 10610 10611  888 7432 10611  1282 4884 7433  1809 4884 7433  1059 8647 13608  7434 13425 14604  1728 6855 9644  6855 9644 9993  1491 7436 13661  3266 7436 13661  2389 8110 13542  2440 7437 9330  3515 7746 14045  2177 7746 14045  614 7818 15503  614 7439 7440  2328 5161 7440  2877 5161 7440  1836 7441 15213  72 7441 15452  3635 13087 14207  3635 13353 14201  1498 7443 13892  3222 7443 13892  3652 7444 14339  951 7210 14338  303 4989 7445  4989 7445 10652  662 4263 11844  662 7446 11844  935 7447 14329  3564 10066 11626  1991 7448 14110  7448 13100 14110  2960 11420 11421  382 4345 11422  3393 9448 11607  2755 9448 11607  2350 5808 7451  1397 5808 7451  1589 5572 7452  2087 5572 7452  2040 4041 7453  1050 4041 7453  119 9688 12152  867 5137 8771  411 7455 13838  7455 13368 13838  2647 11620 13481  2647 7456 9161  3288 7457 12837  1400 7457 12837  509 7458 15290  3673 12938 14476  1309 4298 7459  2145 4298 7459  1073 11261 12162  1073 7460 12162  1373 5408 11595  1373 7461 11595  769 6171 7462  2440 6171 7462  2066 7463 8130  2066 4978 8130  1896 7464 15466  7464 9332 15466  1896 7465 10171  492 7465 10171  3779 10160 11527  981 10160 11527  1319 5160 10025  5160 10025 10096  2050 7468 7691  2050 6768 14771  1594 6169 7469  2688 7469 9367  3683 7064 14486  3683 7470 15630  337 7471 9881  2630 7471 9881  1541 7472 11092  4362 5969 14164  306 5025 9744  1326 5025 7473  2631 7474 12331  2631 7474 9208  1606 7475 15572  3396 7475 15572  111 5021 12048  1287 5021 7476  493 4140 7477  1899 4140 7477  3282 10676 11234  3282 9004 10307  1296 4780 7479  1920 4780 7479  3288 7457 7480  1588 7457 7480  3707 7481 7755  3622 11148 14124  2136 7482 11691  2136 7680 11691  1206 7483 15118  2310 7483 15118  1951 7485 13272  1951 7484 13272  3426 11715 13272  928 9617 11715  216 7486 13528  216 7272 9996  2368 7829 14534  537 7487 9317  7488 8925 11564  2287 7265 11564  3100 5103 9901  3344 7489 12915  3136 9999 11556  1089 7490 11555  3136 6375 9999  1957 7491 11556  3299 12250 14255  3299 12249 12250  5422 10324 14959  2204 7493 12396  1219 7932 12882  1219 7494 11108  3396 7475 13288  3396 7495 13288  3418 7496 11616  985 4669 9933  7497 10002 14343  2021 7497 10002  3726 7499 14676  973 7498 14677  3726 10391 11949  1914 7499 14676  972 5820 9542  1914 4022 7500  11204 14494 14495  3389 7501 14495  2046 7502 12498  123 4665 8004  2052 7503 13577  4098 9483 13577  7503 7504 14802  2052 7503 7504  4097 9483 13170  194 7505 15123  879 4137 7506  1980 4137 7506  3289 11102 11103  1980 7507 12587  4890 7294 7508  2893 4890 7508  3859 7510 14839  250 7094 14840  1948 4718 7510  894 7510 14370  2394 4450 7511  914 4450 7511  645 6819 7512  2365 9208 10874  7513 14916 14988  262 7513 14916  86 7514 10724  2256 7514 10724  1387 5001 7515  2011 4681 12547  4014 9588 14807  4014 7516 12235  7517 14925 14926  1965 7517 14926  3786 7675 14930  1965 9590 14929  7517 7519 13024  1966 7519 13024  3213 5543 10254  1581 5500 11516  5678 5679 7521  372 5678 7521  5743 8098 11978  2016 5743 11978  3229 7523 12600  1413 10593 14017  3160 9506 15507  2598 7524 15507  1443 7525 13398  1443 4047 7525  1137 12895 12896  4827 7526 15588  789 7527 14894  2551 7527 14894  3866 7529 13950  7528 7529 13950  3584 9169 11939  1923 9169 11939  3745 14739 14740  1923 7530 14739  3148 9876 14654  2253 7531 14654  659 7532 10894  2253 7532 10894  2253 5273 7533  246 5273 7533  1424 4787 7534  3220 12528 12529  1094 7535 13401  1963 7535 13401  622 4563 7725  1344 4563 7536  2029 5507 7537  941 9678 9857  2724 7309 9580  7309 9580 15566  1611 6309 10781  1611 7539 10781  2718 5109 7540  5109 7540 8700  1117 4270 7541  1960 7541 9873  1961 4580 7542  1102 9336 13349  3088 9565 12000  809 7543 11999  2120 7544 10303  975 7294 7544  133 11362 13213  133 7545 13213  550 8183 13026  550 7546 10219  2849 7002 7547  1860 7002 7547  2502 9486 9865  603 7548 9486  735 7549 14392  2072 7550 11996  4133 7550 11996  933 7550 12208  5437 10827 12146  1605 10827 12146  3539 8405 12648  1930 7552 13753  503 7553 15032  503 15004 15032  3539 12647 13753  5601 8405 14502  1357 4629 7555  2141 4629 7555  7555 7556 12823  2141 7555 7556  233 4557 7557  4557 7557 12229  1728 7558 14345  4144 7558 14345  80 7559 13347  2304 7559 13347  1942 4519 7560  499 7560 8886  3802 11985 13853  73 5432 11138  991 7562 15361  1938 7562 14941  7579 15052 15062  497 14695 15019  3815 7575 15054  499 7564 15020  3808 15044 15050  989 7571 14995  3805 8956 14997  1932 14996 15051  7607 15004 15059  3798 7567 15023  3817 14991 15019  1929 7568 14991  3811 7606 15001  998 14992 15018  3806 14998 14999  1941 7602 15009  3808 14993 14995  1939 7571 14993  3811 15001 15018  7572 15001 15018  3799 7592 15045  1929 7513 14988  3284 7574 11925  130 10762 15144  3822 15026 15061  7582 15016 15060  7589 15000 15025  1002 7588 15012  3821 15012 15049  504 7589 15025  1928 7578 15053  3795 15017 15053  7580 14996 15051  999 15039 15040  3805 15021 15051  3816 7580 15058  132 15044 15058  7571 14993 14995  1002 7582 15013  1942 7596 15007  3803 7583 15015  1943 14990 15041  3801 7584 11350  1944 7584 15014  1929 7568 13194  1929 7585 13194  3796 7965 15361  498 7177 14985  3823 15046 15047  5571 9540 13171  7588 15012 15049  1939 15024 15049  3812 7589 15048  504 8286 15725  7590 15046 15047  996 7590 15046  3810 7591 15011  72 9942 15029  3799 7594 15008  999 15039 15045  7593 14989 15010  505 7593 15010  3799 14916 14988  1945 7594 15008  3808 7595 15044  132 7595 15044  7596 15007 15042  132 7596 15042  3803 15034 15041  3803 15033 15034  3798 7598 15039  7598 15039 15040  7599 15031 15038  1940 7599 15038  997 7993 10970  1940 15005 15037  3809 7608 15036  3809 14989 15035  996 7590 14998  996 7602 14998  3801 7584 15014  500 5666 11430  1944 7561 11985  1944 7604 11985  3811 7605 15056  1936 15026 15056  3811 7606 15043  261 7606 15043  3797 7607 15032  1945 8457 15003  3807 7608 15031  505 7608 15031  1917 6558 7609  2554 6558 7609  2999 7610 10140  865 7610 10140  2867 6429 10379  1703 6764 10899  1703 7612 10899  2020 6560 7613  636 6560 7613  7258 7614 13589  3624 12185 14664  2873 6374 7615  619 6374 7615  3363 7616 12090  3363 7616 7767  4495 7617 12393  508 4495 7617  2058 12776 13668  2058 7618 8389  2148 6400 7619  2767 6400 7619  1024 5644 7620  2919 5644 7620  1993 4876 7621  569 4876 7621  1993 4875 9329  1993 7622 9329  1953 5532 7623  1013 9695 11034  323 4207 7624  1953 4207 7624  2636 4444 10111  803 5463 10110  117 6565 8748  117 7626 8748  3121 9840 10681  1144 9840 10681  2784 7628 7931  762 7628 7931  2758 5776 7629  317 5776 7629  2846 7630 10737  2809 7631 12499  235 7631 12499  3781 7632 11517  3238 11156 11535  2588 8037 8038  2588 6724 9757  1549 4568 11444  1549 6054 7634  1194 4649 11557  1194 7635 11557  3472 4929 7636  3472 7636 8100  3071 5196 7638  1705 5196 7638  7637 7638 11392  3071 4251 7638  1086 4170 7639  1086 11126 12654  2466 7291 7640  295 7291 7640  1873 4311 7641  4752 7641 12418  2481 9549 9550  3206 5495 11191  1161 5390 9625  3156 9068 9319  1506 12276 14968  1147 4475 7645  1998 4475 7645  5744 7646 10599  689 5744 7646  1121 4839 7647  2081 4839 7647  3281 10311 10905  3577 7648 10905  1317 4335 7649  3689 6430 12077  3466 5680 11368  3466 11368 12653  5599 7651 13685  1954 5599 7651  2109 4962 7652  469 4962 7652  67 9266 14778  67 4410 7653  2557 7654 15145  1455 14421 15145  1758 6943 13383  1758 7655 13383  3209 8878 10746  2171 8519 8878  1628 5712 7657  2476 5712 7657  3004 7658 11680  3004 7658 9764  328 5356 7660  1563 5356 7659  5356 7659 7660  2010 7659 7660  1969 7661 14645  1969 7662 14645  1059 7662 14646  1059 13425 14646  6937 8108 14934  2045 6937 14934  3019 4663 11404  3019 7664 11404  4695 9116 11649  7665 9116 11649  391 5803 7666  2581 5803 7666  1911 7667 14393  3847 9507 12748  2244 5823 7668  23 5823 7668  869 7066 7669  2245 7066 7669  1925 6609 7670  2913 7670 10690  1540 5905 14581  1540 7671 14581  1505 7672 12969  7672 9322 12969  5239 10581 13341  2727 10581 13341  1397 7674 10679  3834 7674 13845  265 4890 7675  2121 4890 7675  2233 5000 7676  774 5000 7676  312 4499 7677  2399 4499 7677  2675 4636 7678  1186 4636 7678  47 4433 10483  1218 4433 7679  1312 4807 11691  1312 7680 11691  1972 4731 11427  1972 7681 11427  7682 12295 14261  719 7682 12295  1971 7683 14456  7683 8395 14456  1971 5365 7684  5365 7684 9552  3528 10684 12669  1156 4445 7685  3999 14699 15767  575 5296 15449  947 7687 10415  3227 6401 7687  2570 7688 10143  7688 8308 10143  2797 6086 7689  312 6086 7689  4925 7735 9326  2734 9927 14448  7468 7691 12186  977 7691 12186  8104 14720 14721  946 7692 12455  2158 6040 11577  2158 7693 11577  4153 4753 11098  4753 11098 14523  5617 7695 10601  2007 5617 7695  5366 11813 11814  793 5587 9657  2481 7697 13404  652 7697 13404  1676 5588 8067  1676 7698 8067  5276 10733 12240  2815 10733 12240  3223 8842 15745  1006 8842 15745  2426 5501 7701  756 5501 7701  1415 7702 15571  7534 11963 15571  2594 6186 13613  1046 4627 14759  4393 14500 14944  2192 7704 7705  36 6188 7705  2192 6188 7705  424 7706 12804  424 5201 7706  371 10935 14398  7736 12440 14680  2955 7708 14815  7708 14815 15131  5871 7709 13722  2939 5871 7709  3007 7710 11697  3007 6222 9226  805 7711 9721  3686 7711 9721  854 6958 7712  6958 7712 11928  539 4330 7713  2107 4330 7713  4331 7714 15723  81 4331 7714  2404 6123 7715  545 6123 7715  4037 5460 8874  4037 8874 13664  4518 14776 14777  420 7717 9463  290 6920 7718  2319 6016 9432  2032 7719 15301  1025 7719 15301  2268 7720 8204  3333 8204 8205  3530 5968 10988  1583 10006 12702  2276 6716 7722  237 6716 7722  1232 7723 15178  5988 10714 15178  5976 7724 14453  3685 7724 14453  4563 7536 7725  1963 7536 7725  3861 14379 15231  1090 8340 14382  1704 4721 14483  1704 7727 14483  988 7209 7728  7209 7728 10841  3581 7729 10635  936 12556 13865  2000 5637 7730  752 5637 7730  3518 12962 13684  2786 7731 12962  3953 15586 15587  1978 7732 15586  3953 15585 15586  1034 7733 15585  1027 4925 7734  2086 4925 7734  3194 12440 12738  2086 7736 12440  3194 12440 14680  371 7736 14680  1973 4579 7737  257 4579 7737  1143 10372 14130  1143 5796 10156  3298 7739 14410  149 7739 14410  4602 7740 12036  1475 4602 7740  862 7741 13046  2862 7741 13046  6806 7742 9739  531 7742 9739  3682 12670 13233  337 7743 9881  2626 7744 7753  352 7744 7753  3100 5781 13775  3100 7745 13775  3657 8213 8214  3515 7746 11773  4225 14006 15273  4225 4803 7747  2362 4574 7748  914 4574 7748  3307 9619 11361  4182 7749 12789  2996 7882 10108  659 7750 10894  2968 12313 14311  2968 7751 12313  4296 7752 12233  3916 7752 12872  2858 7753 11192  5884 10967 11192  932 5321 7754  3577 10311 10905  3706 8898 15083  1722 5003 14537  3910 12788 15438  3910 7756 7930  3911 7762 15455  1981 7758 15456  7758 15452 15453  1981 7758 15453  2375 7760 8900  3521 8080 8900  6375 9999 14227  1004 9999 14227  912 7761 11872  8088 10829 13867  3807 7762 15460  1937 7762 15460  1125 4184 7763  1997 4184 7763  576 5425 7764  2043 5425 7764  4788 7764 7765  2043 7764 7765  3879 7766 11123  3879 8852 15306  2529 9256 10041  2125 7767 10041  2125 4965 7768  812 4965 7768  2249 5429 7769  1396 5429 7769  3312 7770 13440  833 6687 8903  2113 4563 7771  622 4563 7771  3648 7298 9895  2403 11903 13698  2823 7198 7773  822 7198 7773  4061 7774 14305  1999 7116 14451  691 4480 10482  1238 4480 7775  2386 7776 14087  620 7776 14087  1052 7777 11368  3873 6797 11456  2583 7778 9395  2583 9093 9395  2803 7330 10843  2175 7330 7779  1344 4563 7780  2113 4563 7780  2343 6581 8386  2343 7781 8386  3247 7782 11890  3688 7782 11044  1603 6179 7783  2527 6179 7783  174 5732 7785  1527 5732 7784  1987 7784 13884  1987 7785 13884  4108 7786 10949  3544 7786 8946  4067 8726 10283  3332 8726 10283  2062 4893 7788  173 7788 13053  530 5384 7789  2069 5384 7789  2062 4893 10666  2062 7790 10666  772 7042 7791  2897 9578 9579  2464 5957 11627  2464 7792 11627  1 7793 8373  837 7524 9506  2827 6193 10616  2428 7795 10142  271 7795 10142  4671 7796 10312  3716 7796 13755  3587 13100 14110  120 14112 14199  416 4767 7798  2540 4767 7798  3384 7799 12960  1091 10345 12318  5552 7768 7800  812 7768 7800  971 5625 10104  971 7801 10104  4206 13974 15496  3118 4206 7802  1755 6129 8169  1755 7803 8169  226 6118 7804  226 6319 8765  1674 6602 7805  3222 6602 7805  3076 7806 14597  3076 7806 14259  1416 5393 13893  1416 7807 13893  2233 4149 7808  80 11720 14217  3221 10984 11603  3221 7323 11603  472 7810 8494  3967 15617 15618  2592 6543 7811  815 6543 7811  2829 7812 14753  5481 10072 14753  696 4833 7813  2263 4833 7813  2568 5142 7814  1401 5142 7814  4138 10806 12975  1105 10806 12975  2211 5600 7816  574 5600 7816  3797 8457 15003  1930 7553 14583  2877 7818 15552  1499 7818 15552  2497 7819 9701  2497 9700 9701  3017 10002 14343  5122 7820 12239  3842 7821 15544  5841 11917 12957  4128 7822 13771  3468 6298 12700  4494 7823 11214  4493 12263 15473  3767 5007 8154  110 11099 13803  4363 15228 15237  2542 5099 14295  2112 5094 7826  687 10545 15612  3697 10281 15724  2861 7827 10281  7487 9317 15073  1912 7487 15073  4073 7021 9403  627 7829 10005  1214 4462 7830  3460 5086 12337  4172 7831 8968  2035 4172 7831  2147 4619 7832  340 4619 7832  1423 4838 7833  3571 7833 13438  108 7834 13075  2454 7834 13075  1316 4537 12300  2314 7835 12383  1239 7836 11856  1239 9002 9594  7837 15617 15618  472 7837 15618  1860 7838 14888  5270 7838 14888  2485 7840 11339  2485 9958 13067  2486 7278 10757  2486 7840 10757  4479 7279 13067  32 7841 14053  2653 6685 7842  430 6685 7842  1550 7843 12926  3886 9543 12676  22 7844 13726  3334 7844 13726  3119 4928 12107  3119 7845 8181  2395 4450 8871  4450 8871 9013  3448 6637 7847  1714 6637 7847  635 7848 12542  2129 7848 12542  3167 7030 7849  1964 7030 7849  3403 7850 13054  1449 7850 13054  1439 5705 7851  2003 5705 7851  2003 5705 7852  954 5705 7852  3440 4748 12743  1812 11777 12744  7153 7854 12733  165 7153 7854  3730 13858 14376  948 7855 13858  3917 11329 13382  1136 10938 11329  1987 7784 7857  3005 7784 7857  2129 7858 15070  2129 5769 7858  9 7859 14719  9 10069 14719  946 6423 7860  2870 6423 7860  926 6830 9509  926 7861 9509  3045 7863 11196  2682 10591 12769  2682 7862 7863  7862 7863 11196  1240 7864 11575  3478 7864 11575  910 8117 8118  3140 11684 15416  1694 6139 7867  728 6139 7866  6139 7866 7867  2013 7866 7867  2013 7866 14241  251 12780 15201  2055 4265 7869  534 4265 7869  2925 8193 13008  2055 7870 13008  1110 4265 7871  2055 4265 7871  2092 7408 7872  7408 7872 12117  2935 7873 14491  1145 10261 11238  3057 6033 7874  1584 6033 7874  949 4511 7875  2105 4511 7875  3024 9727 13797  2105 7876 13797  540 6289 13076  540 7877 13076  3498 6315 14425  3498 7878 14425  5633 7880 15619  525 7879 7880  3929 10116 15293  525 14952 15292  302 4272 7881  2023 7879 15619  1384 7882 13826  7750 12934 13826  1849 5000 7883  2233 5000 7883  852 6026 7884  2476 6026 7884  3787 5123 7885  1237 5123 7885  2269 6927 14572  2269 7886 8463  3993 7887 14256  1139 7887 14256  2206 7889 11730  2099 7889 11730  2206 11923 13943  2206 7889 9994  3259 12098 12100  242 7890 12098  7891 12099 12100  2099 7891 12100  387 5080 7892  3214 5502 12261  2762 6352 7893  1695 6352 7893  1225 7894 9591  2927 8843 11075  3346 7895 8642  2987 5165 10141  2012 7896 14458  2012 4297 8267  253 4223 7897  2247 4223 7897  4386 7898 14398  4386 5534 14398  2300 7899 14859  1250 7899 14859  577 4759 7900  3185 4759 7900  4087 6393 14019  1131 7901 14883  4868 9895 13031  2060 11245 13259  5170 7903 14626  2640 6664 9613  2017 4583 7904  109 4583 7904  3006 11462 12850  925 11300 11462  2229 4335 7906  480 4335 7906  2806 7907 15341  1421 7907 15341  4305 7909 9937  2598 7909 9937  2599 8704 11284  2599 7524 11284  302 4185 7910  4273 8201 13910  2056 5083 7911  5083 7911 8795  4031 12268 14906  2056 5083 8918  5441 7808 7913  80 7808 7913  533 4116 7914  2094 4116 7914  683 9627 12880  683 5255 9627  3362 7916 14601  880 7916 14601  1821 5157 7917  930 5157 7917  2308 5138 7918  319 5138 7918  4003 13485 14517  602 9028 13485  1501 11304 12941  1501 7920 12941  887 4742 7921  2519 4742 7921  7922 9278 13728  3782 7922 13728  7172 10300 15750  2031 7172 15750  1504 5270 7924  2525 5270 7924  2970 5139 9520  91 7925 10832  567 4233 7926  2032 4233 7926  4005 9612 15760  526 7927 15610  2210 7928 11085  882 4642 13883  2947 5100 9532  2947 7929 9532  3812 7757 7930  1981 7757 7930  6890 7931 12137  762 6890 7931  3470 12882 14607  4326 7932 14607  1768 6639 7933  2491 6639 7933  1577 5750 10845  1577 7934 10845  3877 7935 10866  826 7935 10866  3364 12447 12448  2146 5737 12447  3632 6373 9677  2261 6373 9677  588 4994 7938  2261 4994 7938  2249 5955 7939  607 5955 7939  3174 7519 7940  1659 6180 12354  1907 4428 10077  4428 7941 10077  1156 7942 10811  1156 4445 7942  4168 7824 14057  3133 7943 11797  3209 8404 13216  863 8404 13216  323 5748 7945  2103 5748 7945  2217 4156 7946  2217 5354 7946  1161 4539 7947  2676 4539 7947  740 9364 11336  740 6112 9364  7949 11265 11266  3313 7949 11266  2041 7950 13095  2759 7950 13095  2165 7951 12145  4906 8473 12145  2165 9762 9839  2165 7952 9762  7410 7953 13942  2076 7953 13942  766 4670 7954  2083 4670 7954  788 4621 7955  2301 4621 7955  3261 7956 13873  555 7956 13873  2968 7957 14311  385 10007 15718  3982 7958 15269  1530 10759 15267  3616 8052 10734  659 8052 10734  115 7960 11443  2948 7960 11443  3538 6511 7961  1041 6511 7961  4010 5742 7962  1099 5742 7962  2392 4433 7963  47 4433 7963  3480 6091 12625  2097 7966 13243  2097 7964 14981  2097 7965 14981  1644 6091 12176  1644 7966 12176  2451 7435 9316  2451 7967 9316  3130 6957 7968  513 6957 7968  3080 7105 7969  1808 7105 7969  1328 7970 8007  2620 7970 8007  2251 6219 7971  1624 12537 14196  727 5874 7972  2235 5874 7972  3474 7973 13323  1518 5928 13705  405 7974 10434  2918 7975 12574  808 7975 12574  2644 5945 7976  1490 5945 7976  460 4021 7977  2061 4021 7977  2061 4021 7978  1048 4021 7978  2061 7977 12660  2061 7979 12660  1083 9097 10297  4135 8574 14812  407 4568 7981  3533 5981 13656  1202 7982 8527  3401 7982 8527  2124 4145 8978  2038 7984 14533  4145 7984 14533  568 4145 7984  526 5225 7985  2040 5225 7985  2040 5225 7986  1363 5225 7986  4041 7987 8779  2040 4041 7987  1148 4281 7988  2037 14288 15103  1032 7084 14288  1032 7989 14288  3928 7989 7990  42 7990 15294  2574 9636 12298  2277 7991 12298  2277 7991 10707  2277 7992 10707  3814 7600 10970  997 7600 10970  299 4090 7994  3946 10240 15327  2185 5274 7995  444 5274 7995  945 7996 10215  945 8085 10215  6165 8017 14011  7997 8017 14011  2791 4705 7998  1254 4705 7998  3201 9487 12347  3201 7999 12347  2147 4619 8000  3936 11413 13911  2051 4098 8001  594 7503 13577  2051 5161 8002  281 8661 13774  4098 9483 13170  2051 4098 8003  2662 7502 10573  2046 7502 8004  2046 8004 11332  2046 8005 11332  538 6278 12498  538 8006 12498  1072 9998 10039  2620 5874 9998  1846 8008 13021  1204 4556 15487  401 4292 9769  1119 4292 8009  8010 11724 13809  3671 8010 13809  1805 4614 8011  4614 8011 13033  2413 8012 14725  1165 8012 14725  2753 8013 9643  221 8013 9643  3449 8014 15271  911 8014 15271  3650 8015 14059  3650 8015 9301  1915 4357 8016  4357 8016 10036  1713 5956 8017  2248 5956 8017  5377 8018 12041  3143 8018 12041  2351 9283 12531  939 8159 13124  2356 8020 13250  1003 8020 13250  51 4941 8021  2513 4941 8021  5987 8022 13881  3649 8022 13881  1291 4752 8023  2267 4752 8023  234 5130 8024  2139 5130 8024  4360 8025 12832  1124 11810 14414  4402 9245 11409  789 9245 11409  3704 12379 14444  2304 8027 14444  1511 5871 8499  3761 8028 13074  1707 6452 8029  2228 6452 8029  1693 6965 9154  3591 6965 9154  3987 8031 15262  3987 8031 8942  3031 11570 11571  2220 8032 11570  2518 5033 8033  657 10763 14687  8034 12852 14082  412 8034 14082  9661 10659 15649  771 8480 10155  1832 6567 8036  6567 8036 13981  1043 5047 10412  1043 8037 10412  7633 13417 14786  293 13417 14786  640 8039 15752  7131 8905 15752  3954 11908 13738  1180 8933 11908  1919 6087 13690  1919 8041 13690  1799 8042 13215  1799 4506 8042  2566 6059 8043  1665 6059 8043  4532 8044 9158  3724 8044 9159  474 7203 8045  3615 7203 8045  970 6852 8046  6852 8046 13200  1756 5908 8047  4823 8047 14004  16 8472 12636  16 9706 12636  112 4214 8049  4826 8049 14901  2869 6214 8050  1864 6214 8050  1096 8051 11140  1096 4177 8051  3450 7750 8052  659 7750 8052  2534 6372 12867  2534 8053 12867  3031 5325 8054  63 5325 8054  5928 13704 13705  924 13323 13520  3474 13703 13704  2293 8056 13703  61 8057 8124  61 5398 13514  553 4562 15334  1171 4562 8058  2111 4313 8059  902 4313 8059  4313 6060 8060  2111 4313 8060  861 8061 15225  3314 8061 15225  3598 8062 13268  167 8062 9484  1094 11206 13401  3482 8063 12650  4268 11438 13835  1251 4268 8064  4118 9321 15182  7225 10391 15309  3788 14783 14784  546 8066 14783  442 8067 13491  442 5588 8067  2296 8257 14761  2083 8091 13978  3835 6859 8069  1757 6859 8069  3324 8070 14965  917 8070 14965  3027 7741 11256  8272 11128 13492  2843 5699 8072  1640 5699 8072  975 7508 8073  4815 7508 8073  3402 11868 12086  1085 4173 11868  3977 8780 12230  2182 8075 15639  3402 12086 15528  2182 8074 12086  7683 8077 14037  2144 8077 14037  2144 4709 8078  1132 4709 8078  1760 13235 13283  4455 13196 13235  291 5182 8080  2375 5182 8080  7759 8081 15117  2375 7759 8081  1582 12597 12992  1582 4148 8082  258 8083 12342  2071 8083 12342  4791 6772 12342  858 4791 8084  2958 6408 8085  945 6408 8085  1474 5792 10078  5792 10078 12302  5653 8087 11941  2093 5653 8087  3347 10829 13867  912 8088 13867  3348 12475 15139  331 8089 12475  3471 5162 14663  31 8090 10457  2296 8091 14761  8068 8257 14761  1794 6720 8092  2470 6720 8092  2432 6112 14590  2433 8284 11768  1122 8094 10125  4289 8094 9022  8095 9165 12334  2213 8095 9165  4004 6580 14952  2024 5288 14953  2319 8097 9432  290 8097 9432  2170 5591 8098  521 5591 8098  3789 12984 14832  669 8099 9626  5014 8100 13068  5014 8100 15540  2520 8101 8102  2520 8459 14438  2521 8102 9405  2521 9404 9405  2108 4796 8103  1233 4796 8103  3744 14720 14721  2108 8104 14720  107 4796 8105  2108 4796 8105  3007 6902 8106  839 6902 8106  1563 5357 8107  2789 5357 8107  857 4936 8108  2292 4936 8108  2731 7011 14542  2731 8109 14542  654 8110 13542  3849 9293 13542  7437 8111 9330  964 7437 8111  2440 7462 9331  2389 8111 9330  3683 14485 15630  1017 8113 14485  5420 7470 8114  2335 7470 8114  3850 15114 15746  441 8115 15114  4316 9056 13699  1913 4316 8116  910 7865 12532  910 8118 12532  3140 8118 15121  5302 11685 15121  2603 7718 8119  290 7718 8119  2277 8120 12324  2277 5545 8120  2184 8121 8201  4273 13909 13910  3477 8853 8854  1240 8122 11575  8123 10243 13982  2618 8123 10243  8057 8124 10133  2938 8124 10133  2420 6939 9891  750 6939 8125  3612 14093 14466  1632 11055 14094  3455 8127 13070  272 8100 13068  639 8128 10921  3280 8128 10921  2081 4839 8129  269 9262 13284  7463 8130 12204  4977 8130 12204  1295 4944 8131  2494 4944 8131  3750 14751 14752  2522 8132 14751  3456 6960 8133  229 6960 8133  3966 11582 12442  1996 6498 15483  146 4109 11805  1179 4109 8135  808 8136 11867  2302 9193 11867  7255 8137 11253  29 7255 8137  2079 6921 8139  2079 8138 8139  3171 7169 10807  2899 7169 10807  2330 8142 9128  2330 8140 9128  2738 8562 11105  2738 8562 10936  8142 8562 11105  2330 8142 8562  1703 4668 8143  434 4668 8143  6200 11062 13643  1277 11062 13643  2445 6850 8145  2445 5729 8145  2397 8146 11250  3008 8146 11250  3875 7227 8147  50 7227 8147  2273 8148 12979  595 11088 12979  2654 8149 14905  1322 8149 14905  2266 8150 9882  3497 8901 9882  853 11734 14490  853 8152 10396  852 8153 8630  3032 8153 8630  3033 4916 8153  852 6026 13527  3767 7824 8154  1878 7824 8154  354 5451 8155  5451 8155 10716  663 4649 8156  3123 7635 11557  1298 4962 8157  2109 4962 8157  2123 4191 8158  4191 8158 11582  2123 8159 15543  939 10630 12420  2180 8531 12563  259 8160 8529  2892 6783 8161  983 6783 8161  1770 6985 8162  3516 6985 8162  5010 8163 11834  1303 5010 8163  1210 4682 8164  2918 8164 12574  2818 8926 9361  9360 10882 15232  5226 9261 15625  1363 5226 8166  575 5296 8167  2167 5296 8167  2167 7121 8168  89 8168 10302  1293 4853 14821  1293 8169 14821  803 5463 8170  2390 5463 8170  3443 8168 8171  89 8168 8171  1431 5434 8172  2008 5434 8172  673 5337 8173  2090 5337 8173  3544 8174 15149  1021 11237 15633  2130 5132 8175  1411 5132 8175  2087 4315 8176  1012 4315 8176  2596 10052 12797  6170 9523 12797  1093 8898 10050  1093 6005 8178  4416 8179 13137  2088 4416 8179  4070 15550 15551  1170 8180 15550  2849 7547 8181  775 7547 8181  2546 5620 8182  843 5620 8182  3667 8184 13026  8183 8184 13026  3666 13462 14176  2119 8185 14177  3666 14034 14177  267 12729 14034  518 6212 8186  2355 6212 8186  1959 7405 8187  1959 4270 8187  2910 6492 8188  1634 6492 8188  3414 6879 8189  3414 8189 8261  151 4560 8190  1952 4560 8190  2990 8191 11203  805 8191 11203  2663 9205 13765  2663 6406 8192  2925 4734 15532  2925 8193 15532  2916 5582 8194  401 5582 8194  373 8195 10995  3321 8195 10995  5214 11495 13674  3166 11495 13674  2006 8197 12275  2006 4717 8197  2889 8198 13540  2889 10901 10902  2648 6042 8199  1535 6042 8199  139 5827 8200  3325 10845 11709  8121 8201 15498  1175 8201 15498  3642 9475 10222  2609 8202 9475  3078 11921 11922  1303 11313 15230  7720 8204 12479  890 8204 12479  399 8205 11907  2268 8205 11907  1539 5844 9487  1539 8206 9487  5534 8503 12363  4158 8207 15737  4055 7552 15499  4055 8208 9921  5724 8209 13403  1856 11188 14375  92 6928 12062  92 8210 12062  5722 10032 15463  2089 5722 8211  2641 8212 10035  2641 4299 8212  7746 8213 11773  836 7746 8213  1181 4385 8214  2096 4385 8214  2096 4385 8215  4385 8215 9929  1557 8216 14332  3359 8216 14332  726 8217 13614  8217 9611 13614  1691 6593 8218  3211 6593 8218  2189 8219 11650  4841 8219 11650  3881 8220 15158  491 8220 15158  4611 8221 14202  4611 8221 11984  4115 8223 12114  8222 8223 12114  2702 5597 12309  2702 8223 12309  2018 6579 8224  3082 6579 8224  2973 5866 8225  1521 5866 8225  3928 7990 15294  2025 15291 15293  539 8227 10314  2106 8227 10314  2106 8227 14189  2106 8228 14189  4610 8229 14851  271 4610 8229  6059 8230 13971  2566 6059 8230  533 4667 8231  2095 4667 8231  2955 6822 14815  2095 6822 8232  2095 4667 8233  1268 4667 8233  3094 8234 12505  1339 8234 12505  5421 8235 9866  4972 8235 9032  3033 4492 8236  220 4492 8236  97 7478 8237  3855 7478 8237  1012 4315 15352  172 5572 8947  3191 4647 8239  4155 8239 11385  1884 8240 9036  3195 8240 9036  8241 8761 15634  4572 8241 15634  1039 5393 8242  2098 7807 13893  2098 4037 8243  318 4037 8243  2137 8244 14294  635 8244 14294  2669 8245 10466  2800 4186 10225  2800 8246 10225  378 6850 8247  2909 6850 8247  889 4866 8248  3522 9181 9266  2148 4480 8249  691 4480 8249  2888 11172 11173  2185 8250 11172  3587 8251 14112  1786 5873 14111  4267 9583 12246  4267 8252 9583  219 4387 8929  4387 5487 8253  6276 10925 11786  618 8254 11785  3636 5956 14052  3636 8255 14052  2296 4529 8256  1216 4529 8256  208 4529 8257  2296 4529 8257  2142 4967 8258  626 7556 12823  1296 4781 8259  2142 4781 8259  2901 6200 11062  2101 8260 11049  795 8261 10194  2911 10899 14266  3262 12329 12330  5122 8718 13471  6424 8263 15732  4810 8263 15732  6374 10223 13373  2298 6374 13373  1228 4758 8265  2153 4758 8265  2952 10361 11286  2242 5268 11285  2012 8267 14458  3527 8267 14458  3524 8646 11729  248 8268 8269  1062 8270 11066  5938 8935 11066  2499 5493 8270  1062 5493 8270  2765 8268 8271  2765 8271 9157  2426 8272 11128  2426 5501 11128  1113 4246 8273  2128 4246 8273  2128 4246 8274  412 4246 8274  3495 13381 14648  8275 13381 14648  3837 8065 8276  1019 8065 8276  556 8277 11373  4592 14690 15526  3153 8278 13786  1652 8278 13786  482 8279 15405  3116 8279 15405  3319 6442 8280  2247 6442 8280  1805 4226 8281  3854 15091 15093  1217 4697 12993  1217 8282 12993  2432 8283 11768  62 8093 8283  2432 5721 8284  953 5721 8284  3925 7961 8285  1041 7961 8285  3819 8286 14766  504 7577 14767  2726 8287 8515  3093 11926 13554  1054 4993 11926  4229 8289 14536  1114 4228 9517  4104 10370 12693  4104 8290 8291  2693 7826 10511  2112 7826 8291  2276 6716 8292  2276 8292 14445  3369 8293 12378  1509 8293 12378  3056 11088 11089  595 8294 11088  895 8295 14285  3836 10174 14285  4609 8296 10302  4609 8296 11089  1128 4236 8297  2134 4236 8297  6021 9394 9396  274 8298 9395  3784 7513 8299  262 7513 8299  2824 5124 8570  4057 8300 12885  2941 5845 8301  1801 8301 14975  1298 8302 10776  4818 4831 13905  4467 9176 11406  4467 8303 9176  2977 8304 11484  1346 5054 11402  3907 8305 14161  1345 11410 14531  4872 8302 15412  752 4872 8306  3406 11563 14705  3406 8141 14705  2324 4586 8308  715 4586 8308  4586 10718 15404  2324 4586 8309  1859 8454 8945  1859 4960 8310  1096 4179 8311  6344 13472 15257  1560 6196 11736  426 6196 8312  474 7201 12898  474 8313 12898  81 4331 9200  4331 9200 11845  2981 7624 8315  1953 7624 8315  2490 8013 10418  4089 5156 8316  3227 8317 12589  1888 6396 9195  4412 8318 15064  1380 8318 15064  4436 8319 13119  4244 8319 13119  1356 5200 8320  2207 5200 8320  40 9281 13553  40 8321 13553  7847 13560 15383  911 8322 13560  4600 8323 12582  4600 8323 14500  5835 8324 8456  2126 5835 8324  3095 8325 14316  2499 8325 14316  2000 5637 14847  2000 6700 8326  237 8327 15650  5468 13459 15650  3563 10187 13346  96 4241 8328  1190 4458 8329  2224 4458 8329  2324 7688 8330  3885 7688 8330  748 7167 8331  748 8356 9574  1090 8332 11717  2632 8332 11717  2455 5768 8333  5768 8333 12593  2332 5174 8334  2941 5174 8334  1896 4606 10171  2122 8335 13591  8335 8336 15495  2122 8335 8336  4606 10171 13591  982 4606 8337  299 4090 8338  2124 4090 8338  6360 13222 13919  412 13222 13919  3862 11717 12234  1090 11717 12234  3265 10329 11911  2421 6228 8341  909 6790 8342  2768 6790 8342  2472 5347 8343  572 5347 8343  4524 8068 8344  2083 8068 8344  2453 8638 15678  2453 8345 13062  5282 8346 11220  2943 5282 8346  3032 8347 8666  431 8347 8666  4009 11760 14158  8349 11760 14158  2181 8348 11760  2181 8349 11760  1317 8350 12077  2602 10148 10149  813 5066 8351  3747 6964 14219  4932 8352 11753  3992 8352 13529  4374 8353 14642  1699 13640 14643  878 7531 8354  2894 7531 8354  3328 8406 9328  876 8406 9328  2579 8869 9574  2579 8868 8869  2382 6688 8357  4558 8985 11624  3614 8358 13912  1460 11791 14083  2639 8359 15461  1333 8359 15461  5292 8984 15226  8360 8984 15226  1425 4852 8361  2618 4852 8361  1018 6488 8362  3252 6488 8362  924 8971 11904  3508 8363 13520  4197 8364 8372  284 4197 8364  8365 9217 12608  6248 8365 9217  284 4197 8366  4197 8366 8369  2132 4195 8367  548 4195 8367  1098 4195 8368  2132 4195 8368  1098 12900 12901  2131 4196 8369  4193 8370 10393  2133 4193 8370  2133 4193 8371  548 4193 8371  2133 4195 8372  1098 4195 8372  7793 8373 13418  2360 8373 13418  2212 8374 13593  5450 8643 13593  2734 5640 8375  1391 5640 8375  4379 8376 9703  3857 8376 9703  3219 12367 12369  581 8513 12367  2157 4593 8378  1069 4593 8378  2157 4769 8379  305 4769 8379  395 5564 12306  395 8380 12306  3604 8381 13227  8381 10323 13227  3802 10368 13852  1000 7604 13853  3481 11629 11630  3481 11629 12680  551 4236 15358  1128 4236 8384  2532 8385 10117  666 8385 10117  3339 13083 14023  6581 13083 14023  2489 8387 13699  1138 8387 13699  2864 11619 12019  2864 8388 11619  571 7006 8389  3882 7006 8389  1991 7797 8390  4230 7797 8390  6642 8391 9041  2306 6642 8391  5126 8392 13161  2160 4933 8392  2795 7414 12849  2795 8722 12849  1507 5918 14852  1507 8394 10756  842 6833 8395  3139 6833 8395  990 4143 14047  990 8396 14047  3338 5480 11407  1321 9176 11406  2006 4230 8398  120 4230 8398  4573 8399 12265  327 8399 12265  176 5352 9504  5352 9504 15276  5298 8401 13820  1417 8401 14121  2190 5875 8402  641 5875 8402  3679 14524 14525  652 8403 14526  3208 8519 8878  3209 8404 8878  39 7554 8405  3539 7554 8405  2341 8406 12070  876 8406 12070  1390 5345 10928  339 5345 8407  2881 4924 8408  4924 8408 14218  864 8409 9243  864 7392 9243  3962 8410 12332  1011 5700 13969  2229 4335 8411  2229 9847 10934  4467 8303 8412  4467 8412 11387  4035 7855 8413  536 5063 11351  2300 7899 9666  2300 8414 9666  296 6997 11085  1958 6997 8415  8416 14346 15363  1018 8416 14346  2806 7907 8417  1525 7907 8417  2799 8683 14240  2799 8682 14240  2528 5567 8419  441 5567 8419  1438 6524 14616  1438 8420 14616  3170 8555 12568  3170 8555 14638  1047 4634 8422  2209 4634 8422  3169 9663 14390  71 8423 11460  2944 8424 15576  1737 8424 15576  4092 8425 14903  4092 8425 13991  8027 8426 11428  2304 8027 8426  955 8179 8427  4579 8179 8427  2458 8428 11464  3992 8428 9110  568 8429 13079  568 4145 8429  3955 15243 15245  2232 13763 15243  511 5154 13763  1318 5154 8431  7789 8432 14412  2069 7789 8432  2457 8433 9553  4653 9553 9554  1733 4723 8434  4723 5376 8434  2267 4752 8435  394 4752 8435  3303 8435 8436  3303 8436 11323  3630 8437 10217  1300 8437 10217  115 8438 10086  4873 7960 12163  2266 10087 11440  301 8901 10288  4458 8440 15521  4456 8440 15521  2553 6175 12684  2553 8441 12684  2384 4617 8442  1068 4617 8442  2327 9050 10704  2733 10602 12842  4016 7233 8444  1737 7233 8444  2149 4470 8445  288 4470 8445  1718 6767 8446  2443 6767 8446  2528 8447 15501  764 8447 15501  2552 4333 12886  2552 8448 12886  2553 8441 9279  2552 8448 13420  8160 8450 8529  2123 8160 8450  3223 8842 12002  2150 7700 8842  3579 12174 14369  2563 12174 14369  1114 4228 8453  4228 8453 9667  1859 8310 8945  713 7110 9219  34 6234 13416  34 8455 13416  8456 11382 14007  3691 8456 14007  3797 7817 8457  993 7817 8457  1663 6216 8458  2612 6216 8458  3826 8460 14438  8459 8460 14438  2999 7064 8460  162 7064 8460  3435 8461 8837  400 8461 8837  2388 4904 8462  1177 4904 8462  653 8463 9867  4027 11322 14571  4762 8464 13105  4700 8464 8633  2161 6872 8465  2042 8465 10510  2481 9550 13509  2480 7642 8466  1174 4587 8467  2151 4587 8467  1309 4298 10847  2012 4297 15399  2152 4845 8469  188 4845 8469  4845 12716 14363  2152 4845 8470  2152 5685 8471  628 10278 15386  16 8472 15516  8472 14315 15516  4017 8473 15502  2165 8473 15502  1214 4463 8474  4426 4463 8474  4099 8475 8909  2294 6136 8475  3693 11477 14209  1036 8476 14210  3904 8477 14912  3904 12293 12679  3693 10021 11477  2221 8478 14209  3289 8479 13918  7507 12587 13918  771 6895 10837  771 8480 10837  1607 5962 8481  5962 8481 8482  295 5090 8482  2198 5090 8482  5054 8483 11402  2977 8483 11402  4257 8484 9724  1865 6445 8628  1204 8485 15346  3957 5455 13870  8282 8486 14726  361 8486 14726  938 11111 13762  2154 8487 14073  1707 8488 11445  4121 8029 15246  3844 8129 9315  1654 6954 14735  875 8490 15329  2796 8490 15329  53 8654 10446  2223 8491 8654  2220 5286 10074  2220 8492 10074  3639 7078 8493  1781 7078 8493  4159 7810 8494  6841 8494 14715  5108 10995 12722  373 10995 12722  309 5097 8496  2187 5097 8496  3561 8497 14009  8497 9714 14009  8498 9836 13027  743 8498 9836  8028 8499 13074  2492 8028 8499  1355 5315 8500  2193 5315 8500  2193 5315 8501  5315 8501 12055  2193 5249 8502  75 5249 8502  1845 8207 8503  4403 8207 8503  6359 8504 8505  767 6359 8504  1688 8505 12907  8505 11927 12907  1061 8852 11163  3550 8852 11163  5219 13748 14312  1170 13748 14312  41 6618 11509  41 8508 11509  3600 7428 8509  1891 7428 8509  7164 8510 15474  1880 7164 8510  7044 8511 9577  965 8511 9577  2043 7765 8512  4557 10419 12229  4212 8513 12367  2159 8513 8514  4212 8513 8514  1200 9404 10996  393 8515 8516  393 4211 8516  8287 8515 8516  2159 8287 8516  236 6588 8517  3520 6588 8517  9680 9970 13819  712 8518 8602  8518 8602 12539  3554 4708 9103  3554 8520 9103  1055 4174 8521  2508 4174 8521  2173 4977 8522  579 4977 8522  8523 9370 14200  2721 8523 14200  246 5273 8524  1902 7882 10108  4912 7441 8525  3361 4912 8525  1069 7206 8526  7206 8526 11936  4413 12346 12541  3401 9868 12346  1470 5847 8545  1470 8528 8545  2180 4231 8529  5439 10070 14561  4056 8530 8531  4056 8530 12647  605 8531 12563  3400 8675 12563  2164 8532 15574  5369 9559 9653  2115 4127 14784  4127 8533 14784  160 4182 8534  4182 8534 12789  2837 8535 12513  1259 8535 12513  2379 7613 8536  636 7613 8536  636 5759 8537  2448 5759 8537  2379 6229 9660  203 8140 9127  3650 11915 14058  467 14059 15105  3616 10734 13678  2254 7959 10734  3148 4816 13432  201 4816 8541  3198 6721 8542  1858 6721 8542  718 7025 8543  2477 7025 8543  3166 10760 13541  1266 6761 11495  1901 5891 13445  5891 8545 14950  2235 8546 13515  270 6776 8546  8547 10676 13586  2172 8547 10676  3282 10676 13586  97 8548 11234  5922 8547 8549  2172 8547 8549  616 4714 8550  616 6069 8550  3701 8551 8677  8867 14837 15331  966 6127 9232  966 8552 9232  2271 8553 15682  6840 8894 15682  3857 8376 15211  27 8554 15212  625 8421 14638  625 8555 14638  2231 7131 8556  3670 7131 8556  1288 5018 8557  2436 5018 8557  5924 8558 13499  2026 8558 13499  1753 6824 8559  2924 6824 8559  6214 11201 15317  5195 8560 11201  3008 5660 8561  1514 5660 8561  8141 8562 10936  2330 8141 8562  1299 4989 8563  2155 4989 8563  3269 8564 14742  1285 8564 14742  3129 7899 8565  1250 7899 8565  2437 10192 15408  2302 8566 9193  4682 8164 12574  1210 4682 8567  580 4988 8568  2240 4988 8568  4659 8569 11643  1067 7233 11645  8300 8570 12885  831 8300 8570  4713 9605 11992  4713 9605 11091  5539 9989 12210  800 9989 12210  4750 12433 13135  512 6369 11882  6003 8574 9563  2214 6003 8574  665 6011 11501  665 8575 11501  2192 8576 13277  641 8402 12756  2192 6188 8577  1699 6188 8577  398 5663 12996  1523 5663 8578  2494 7117 13035  2494 8579 13035  2190 4627 8580  4627 8580 10165  4661 5000 8581  1849 5000 8581  3367 8448 12173  1112 12635 14391  3776 11064 14119  3776 8583 9049  6044 8584 10248  3720 10834 12795  2316 4722 12745  2316 8585 12745  766 6084 8586  3052 6084 8586  3315 5897 8587  9468 12522 15714  2284 4526 8588  4526 8588 11045  3452 13384 13583  349 8589 13384  4447 14813 14814  597 4447 8590  3280 6350 8591  3280 8591 9197  1495 8592 14748  3149 8592 14748  4123 7805 11036  898 7805 11036  1449 5725 8594  5725 8594 8596  1133 4394 9767  641 4394 8595  4395 8323 10948  4395 8596 9767  288 8445 9659  288 8597 9659  4292 7732 8598  1978 7732 8598  27 8554 10916  27 8599 10916  1926 7454 15120  1926 8600 15120  8601 8809 11761  332 8601 8809  1485 8519 12539  1485 8602 12539  2186 6649 8603  6649 8603 12451  8604 15332 15333  2186 8604 15333  1811 4910 8605  481 4910 8605  622 8606 10228  622 4578 8606  2554 6558 8607  25 6558 8607  2787 8609 8705  2786 8609 8705  757 7416 8609  2786 7416 8609  8610 10690 13245  3504 8610 13245  2251 5121 8611  3904 8477 12679  8612 12607 13590  3336 7288 13590  2222 8613 15191  3906 8614 15191  3016 11604 11605  2222 8614 11604  1414 4451 10024  1414 8615 10024  4134 12557 14732  8617 12557 14732  2195 8616 12557  2195 8617 12557  2417 5111 8618  155 5111 8618  811 8619 15426  2543 12291 15102  7244 8620 10641  338 8620 10641  2280 6325 8621  3366 7804 12504  3603 10810 11246  2848 10810 11246  6053 15704 15705  1587 11310 12269  3187 12359 12360  841 8624 12358  668 4547 11543  1314 4547 8625  3398 13090 13442  2196 5768 13089  1879 8627 12810  3062 8627 12810  1192 8628 12981  1192 4237 8628  3572 8629 13800  307 8629 13800  3417 8630 14250  3032 8630 8666  5499 7274 14232  2318 5499 8631  2319 5739 14819  2318 5739 8632  8633 12109 12110  2340 8633 12110  1312 8634 12015  2200 9429 12015  442 8635 15077  3109 8635 15077  5688 10799 12352  1463 10799 12352  8637 13308 13321  1564 4598 13319  4082 10413 15678  1157 10413 15678  547 5197 8639  2367 5198 9333  3417 8630 8666  1588 12408 12965  116 14020 15711  3758 8641 14020  1389 4102 14049  15 4102 8642  1389 8643 14049  2212 8643 14049  2929 6050 8644  783 6050 8644  4199 8645 15771  1972 5013 15773  2803 6839 8646  248 6839 8646  2200 8647 13609  8647 13608 13609  1312 4807 12015  4807 11691 13566  593 5970 8649  2255 5970 8649  2255 5151 8650  306 8650 10035  8649 8651 13673  2256 8651 13673  3369 8491 9391  2223 8491 9391  2223 4756 8653  1227 4756 8653  53 4756 8654  2223 4756 8654  3608 8122 8655  1240 8122 8655  2202 8656 12551  4304 8658 12551  2202 5885 9082  565 10505 15645  2202 8658 14024  2202 9082 14024  1118 8737 10870  1959 4185 12610  3500 7292 8660  1879 7292 8660  5161 8661 13774  2328 5161 8661  883 8662 13764  3358 8662 13764  2837 10230 13498  2837 10860 13498  2224 4437 8664  965 4437 8664  2224 4458 8665  490 4458 8665  3417 8640 8666  431 13675 14755  4271 7541 8667  1960 7541 8667  5040 5041 12480  5041 8668 12480  4108 7324 8669  1022 7324 8669  3825 14668 14669  1610 12049 14670  325 4706 8671  2900 10291 12341  3733 7340 8672  370 8827 14135  2964 5732 8673  174 5732 8673  1056 8158 13691  1056 8674 13691  2225 5719 8675  605 5719 8675  3355 9143 11224  919 5811 9143  3464 8676 14236  1103 8677 12678  2215 5471 8678  1292 15240 15539  4559 8678 8679  218 4559 8679  3527 8680 13500  1660 6482 13915  218 4559 10820  1292 4559 8681  770 5909 9981  770 8682 9981  1043 5047 8683  2799 5047 8683  4286 10889 15111  2799 9981 15110  3101 8685 12087  5407 10913 12087  2219 4223 8686  253 4223 8686  8360 8687 14303  2219 8360 8687  3841 8688 13839  3841 8688 9008  580 4918 8689  2239 4918 8689  6488 11020 15174  1019 11020 15174  3866 8691 13952  1008 7528 13950  457 6909 14284  457 8692 14284  2527 6179 8693  1103 6179 8693  3535 4689 12768  1063 9130 12767  3672 12835 12869  3672 8696 15601  3535 9242 11891  2291 8694 13523  3537 7122 13550  1922 4310 13115  376 5429 8698  2249 5429 8698  3793 12988 14983  2252 8700 12047  5114 8700 12047  1305 5114 8700  1484 4843 8701  1484 4842 8701  915 6871 8702  3441 6871 8702  4232 8511 8703  965 8511 8703  7909 8704 11284  823 7909 8704  2787 8705 11412  3930 9823 11412  2290 4227 8706  457 4227 8706  2290 4948 8707  1365 4948 8707  2290 4052 8708  1072 6775 13005  959 4584 12565  959 8709 12565  3011 8710 10154  3178 9864 10154  55 5299 8711  2767 5299 8711  1141 5675 8712  2325 5675 8712  538 7663 8713  2292 7663 8713  2531 9137 12517  2531 6410 9137  8715 8716 15379  4339 8716 15379  184 4735 8716  2643 4735 8716  4129 8717 9900  3888 8717 8995  3262 8262 13471  3262 8718 13471  3716 8719 13754  388 5667 12603  3977 8076 8720  2260 8720 8780  2441 4839 8721  1121 4839 8721  228 5343 8722  3103 5343 8722  782 8723 12374  2523 8723 12374  3818 7578 8724  995 7578 8724  4889 8725 9632  910 8725 9632  3332 6458 12729  3332 8726 12729  13 5109 8727  2719 4489 10481  2410 5886 8728  1846 5886 8728  5904 8729 11796  4101 8729 12549  2227 4532 8730  572 4532 8730  1220 4532 8731  2227 4532 8731  8618 8732 15608  155 8618 8732  3834 8733 9445  2438 8733 9445  1555 6142 8734  2507 6142 8734  3731 10295 15739  749 8735 13413  2394 4732 8736  4732 8736 12937  5032 8737 10871  5031 8737 10870  5642 5643 8738  2677 5642 8738  616 5885 8739  616 4506 8739  1294 4977 15747  3678 6697 13659  627 7189 14534  1842 7189 8741  5123 8742 14708  2151 4587 10278  4836 8756 12189  734 8756 12189  3752 5050 10169  333 7287 10392  4691 7346 15546  832 7346 8745  2851 8746 15071  1297 8746 15071  884 5446 13002  4252 5446 14972  2197 7625 8748  3310 7625 8748  1028 8749 15599  2265 8749 15599  2265 8750 14183  590 6339 13928  777 8752 12068  5077 9738 12068  2780 6262 8752  777 6262 8752  5735 8753 9759  592 5735 8753  3898 11167 11569  2236 11167 11569  52 5046 8755  2401 5046 8755  2734 7690 8756  734 7690 8756  147 4501 8757  4501 8757 11637  1138 4317 8758  2088 4317 8758  1796 4981 8759  1962 4981 8759  4003 13485 14516  4003 6286 9911  335 4626 8761  335 5747 8761  383 5216 9871  1332 5216 8762  5731 8763 14882  2309 5731 8763  3737 9155 14513  1841 10900 14514  1633 5872 8765  3366 5872 8765  3756 7691 8766  977 7691 8766  1534 5145 8767  3901 13886 13887  1237 5562 8768  1237 4749 8768  2775 5479 8769  1278 5479 8769  494 5623 8770  4277 9195 15406  867 8771 15693  3277 8771 15693  3165 8772 13315  64 8772 13315  2250 6149 8773  1696 6149 8773  3944 8775 11503  2257 8775 11503  1716 6662 8775  2257 6662 8775  2257 6662 8776  593 6662 8776  736 5619 8777  3476 13450 13451  2259 4979 8778  4979 8778 8781  3984 13261 15156  2260 8781 13261  1050 4041 12230  4041 8780 12230  3984 8781 13261  3984 8781 9918  3525 8782 13827  8782 12050 13827  2101 5385 8783  3964 9252 12421  661 6355 8784  3931 8784 14074  608 8785 11079  2906 8785 11079  3424 6907 8786  418 6907 8786  5601 8348 8787  1080 8348 8787  2875 5530 8788  1406 5530 8788  3490 14289 15147  3490 8789 13299  1700 6167 8790  2280 6167 8790  2280 6167 8791  785 6167 8791  4339 4973 8792  825 8792 10878  3436 6408 15464  3916 8793 12872  4065 12301 14148  2560 8794 10979  2584 5111 8795  1231 5111 8795  2886 6300 8796  955 6300 8796  3121 7626 8797  117 7626 8797  2243 4857 8798  4857 8506 10868  4857 8506 14478  2243 4857 8799  4015 6222 9226  4015 8800 10975  2747 5792 8801  1474 5792 8801  4666 4905 8802  4666 8802 8967  1525 5201 8803  424 5201 8803  2579 6456 8804  84 6456 8804  1042 8805 11976  5602 9862 11976  953 5721 8806  2434 5721 8806  3342 8807 15477  2003 8807 15477  1076 8808 14908  3110 8808 14908  7197 7278 8809  332 7197 8809  1716 8775 8810  3944 8775 8810  3489 8811 13364  430 8811 13364  1815 4388 8812  1163 7074 15555  249 9018 12724  3564 10067 12377  1254 4705 8814  2262 4705 8814  936 7729 15500  936 8815 15500  2888 4813 8816  4813 8816 10901  3159 7484 8817  1951 7484 8817  1149 4283 12454  651 4283 8818  1739 8819 10255  1739 4909 8819  2364 4122 12142  2364 8820 12142  3605 11887 13392  639 8821 13391  3605 10211 11887  2364 8822 13392  722 10390 12758  3963 11345 15066  3998 8288 8824  1442 3998 8824  2427 8825 15709  8825 11028 15709  2427 10786 12031  2427 8826 10786  3733 4291 14135  4291 8827 14135  4361 12835 12869  4361 8828 12835  2810 5575 8829  5386 8829 10877  2909 8247 11046  2643 8830 11047  1602 8831 10432  4120 8114 14437  3443 8168 8832  920 8325 9511  4402 8833 9245  1229 4402 8833  755 5415 8834  2407 5991 11179  420 7717 8835  3573 9729 12997  2795 7414 8836  821 7414 8836  2898 5975 8837  400 5975 8837  3742 10410 14324  3343 8838 11718  6759 8839 9339  1867 6759 8839  90 4908 8840  2442 4908 8840  1053 7356 12131  1053 8841 12131  2150 8451 8842  8451 8842 12002  2500 9077 9078  2927 8843 11073  1461 5728 8844  2781 5728 8844  404 5911 8845  2966 5911 8845  3839 7678 12887  1946 7088 12467  753 6600 11235  6600 11235 13447  3390 8848 12696  6332 8848 14342  4002 8849 15299  4002 8849 12815  5399 8850 12831  3569 9138 13129  3595 7253 8851  921 7253 8851  3550 8506 10868  3550 8506 11163  2323 7315 10674  2323 8853 10674  3477 8854 14913  1408 8854 14913  2015 7068 8855  4026 7068 8855  1146 8856 9225  3081 8856 9225  4350 6708 12720  874 6708 12720  2452 8858 14796  1181 8858 14796  3167 6801 8859  1386 6801 8859  4639 10702 11431  316 10702 11431  2933 4942 8861  2778 4942 8861  6218 9652 15434  293 8862 15434  1620 4793 8863  2423 4793 8863  6981 8864 13758  2423 6981 8864  3486 6689 11221  3486 8865 10972  981 7391 10132  3646 7391 10132  313 8551 15331  1603 6179 14593  2579 8805 8868  1042 8805 8868  3048 8331 8869  748 8331 8869  1800 7115 13279  1800 8870 13279  633 9013 15437  633 8871 9013  1843 7168 8872  3582 7168 8872  1266 6761 8873  3969 6761 8873  7716 8874 13664  2014 7716 8874  3472 8806 8875  2434 8806 8875  3187 6794 8876  3994 8876 12361  1159 8877 12122  2698 4368 12292  2171 7656 10746  2171 8878 10746  947 6876 8879  2258 6747 10699  1214 4462 8880  1810 4462 8880  4463 8880 8881  1810 8880 8881  2939 4915 10639  2939 8882 10639  7523 8883 12272  1413 7523 8883  1207 8884 14278  4422 8884 9039  7859 8885 12798  9 7859 8885  4519 7560 8886  2370 4519 8886  7107 8174 8887  1021 8174 8887  4071 5085 14233  407 9438 15284  1906 8889 8890  5536 8889 8890  409 6757 13820  409 5536 8890  2038 8891 11735  2038 6812 8891  2145 4298 11342  4298 8892 15594  6529 7369 8893  589 7369 8893  77 4605 12247  2271 4605 8894  4540 7947 8895  2676 7947 8895  1242 4833 8896  2683 4833 8896  5115 7540 8897  585 5115 8897  3708 9625 10050  3206 9625 10050  3328 9328 12148  2577 8355 9328  1004 7760 8900  12270 15265 15488  2266 8901 10089  2266 10087 10089  2773 7734 8902  2086 7734 8902  833 7770 8903  3312 7770 8903  2349 8904 11508  3625 11507 11508  7062 12817 14822  2349 4261 8905  2349 8906 11508  8906 11507 11508  2789 8107 9730  3526 8907 12592  2385 5260 8908  4877 8908 9369  1402 5457 8909  7307 9782 15582  658 5551 8910  5551 8910 11821  2616 8911 10071  4253 9852 10071  754 6314 8912  3559 10159 14419  4789 8913 15581  2371 4789 8913  4503 8915 14853  8914 8915 14853  2704 8915 10244  2704 9656 10244  658 5551 8916  658 5306 9189  1774 8917 9811  3189 8917 9811  2056 7912 8918  4031 7912 8918  2750 10137 12386  3517 5670 12814  916 8920 12877  2756 8920 12877  1678 6532 8921  2525 8921 8974  5925 8922 13353  3634 7075 14002  1503 5004 8923  2425 5004 8923  2425 6150 8924  1502 8924 9140  3870 11237 14628  2287 7669 8951  1145 5650 8926  2818 5650 8926  1852 7280 8927  6493 6576 14171  2906 8785 11101  2906 4645 8928  4387 8253 8929  2882 8253 8929  1520 10673 13954  5016 8930 14159  4814 8931 10197  698 4814 8931  1107 8932 10836  1107 5690 8932  4038 8933 15242  1180 8933 15242  4097 7387 15123  2716 7387 8934  1062 4728 8935  4728 8935 10952  763 5836 12101  763 8936 12101  922 5938 8937  2416 5938 8937  7087 8846 8938  1946 8846 8938  660 4803 8939  2744 4803 8939  3140 8118 12532  2411 5302 11685  2411 5302 8941  969 5302 8941  3404 11933 15577  3404 7396 9537  4360 9155 11341  68 9155 11341  8264 8944 11146  21 8944 11146  4961 8945 15288  4020 8945 15288  254 6566 8946  2501 6566 8946  172 8238 8947  4315 8238 8947  1637 6490 11060  902 6490 8948  1690 5833 8949  2353 11056 14195  6427 8949 8950  2353 8949 8950  3870 8951 14628  8925 11237 14628  459 5102 8952  2397 5102 8952  2397 5102 8953  1446 5102 8953  297 6424 10985  6424 10985 14383  2741 13473 13497  2741 8955 13497  3805 7566 8956  1001 7566 8956  267 5223 8957  2282 5223 8957  2282 4634 8958  1047 4634 8958  4163 8290 11677  591 4163 8959  760 6731 8960  2433 8093 12929  895 8961 12746  2950 10174 14747  952 5573 8962  2286 5573 8962  2286 5228 8963  871 5228 8963  2283 5056 8964  5056 8964 10249  238 5674 14920  1188 8965 11522  597 4655 8966  2283 4655 8966  4655 8965 8967  597 4655 8967  138 7831 8968  4043 8968 11719  3326 11510 13340  414 11510 13340  3983 14315 15516  1775 6908 15517  8363 8971 13520  3240 8363 8971  4859 11961 12893  2297 11961 12893  2239 8973 14830  2239 6420 8973  6532 8921 8974  913 6532 8974  2976 5078 8975  1038 5078 8975  1227 6148 8976  2586 6148 8976  1487 5931 8977  1487 5932 8977  4145 7983 8978  1077 7983 8978  457 6909 8979  3864 6909 8979  5681 8980 13855  3243 11567 15468  2240 8568 8981  104 4902 14136  3514 6974 8982  244 6974 8982  3141 5903 8983  3141 8983 9361  2219 4223 11417  2219 8984 11417  3173 8357 8985  2382 8357 8985  5102 8986 8987  459 5102 8986  655 5101 12199  5101 8987 14035  163 4677 8988  2300 4677 8988  249 6256 8989  3022 6256 8989  1106 8990 14538  4250 11567 14538  3463 8991 14580  1742 8991 9286  2750 8992 12386  5573 10137 12386  540 7877 10770  540 8993 10770  6047 11945 11946  3204 8994 11945  232 8717 8995  3508 8363 13518  2295 8996 14933  2295 8217 9611  3379 8997 15218  2265 12903 14183  1479 6525 13058  4219 5777 14870  3596 8661 8999  2328 8661 8999  3995 9000 15774  9000 12304 15774  3039 11820 11821  1183 9001 11820  3302 11362 11363  3302 9002 9594  3738 11458 11459  3738 9003 9725  3562 7478 10307  3282 7478 10307  3637 10673 11854  3638 10673 11854  2446 7682 14261  2446 5749 9006  886 4961 11733  1360 4961 9007  2338 7142 9008  7142 9008 11126  3841 9008 9009  321 9009 14541  602 4715 9010  2311 4715 9010  2311 4680 9011  320 4680 9011  2311 4715 9012  1206 4715 9012  2394 4450 9013  2394 7846 9013  2318 9014 11215  2318 5499 9014  483 5454 9015  2444 5454 9015  2444 9016 12533  987 9016 12533  2444 5404 9017  656 5404 9017  8813 9018 12643  3309 9018 12643  3156 9019 12276  150 9019 9068  4461 6755 9844  2321 4461 9020  69 6268 9021  2853 6268 9021  1122 8094 9022  5639 11317 13375  263 5594 9023  3134 9023 10020  3071 5196 9060  3071 9024 9060  3556 6369 13267  3556 9025 10682  625 8421 9026  4634 8421 9026  1464 5304 9027  5950 9027 11389  9028 13485 14516  2310 9028 14516  980 8685 11823  980 9029 11823  3712 13729 13730  2801 7077 13729  3672 12835 13812  2508 8828 12835  1055 8521 9032  8521 9032 15366  3960 9132 10953  916 9033 12877  135 4852 9034  4852 9034 9887  4968 9035 15222  5550 6309 15222  517 6049 9036  3195 6728 11186  156 4422 9037  4422 9037 9039  600 4635 9038  2307 9038 11309  4377 9038 9039  2307 9038 9039  2511 14186 15162  2511 9040 12725  599 4727 9041  2305 4727 9041  5055 9042 12458  2305 5055 9042  2305 4727 9043  1209 4727 9043  3452 9044 13168  1494 9044 13168  5902 6301 13345  6301 9045 13345  7787 12621 14352  967 7787 14352  5517 12407 14265  880 5517 9047  1736 5312 9048  1736 4596 9048  9049 10602 12842  2327 9049 10602  2733 8443 10602  844 8443 9050  943 9051 14924  7850 13059 14924  733 5525 9052  2998 5525 9052  351 4991 9053  4991 9053 9366  6143 11611 13962  2317 9054 15567  927 5866 9055  2973 5866 9055  2489 9057 11621  647 5348 9056  2489 5921 9057  74 5921 9057  1109 6219 9058  3380 9058 12023  732 7991 9636  732 5514 9059  1343 5075 9060  5075 5196 9060  866 9061 10945  2880 9061 10945  2880 6131 9062  213 9676 15351  2372 9063 14214  1058 9063 14214  3505 9063 9064  5898 9092 14042  4635 9038 11309  2308 4635 9065  2308 4635 9066  600 4635 9066  3632 9067 9677  1023 9067 9677  3156 9019 9068  1729 9068 9319  3860 6508 11550  2994 6508 11550  1793 9070 12714  3407 9070 12714  2923 7415 9071  809 7543 11297  3925 7961 9079  627 7189 15400  3058 5895 9073  122 5895 9073  4347 5365 9074  114 9074 15553  4332 8787 9075  642 7343 15621  2927 11073 11074  2500 9077 11073  8843 9077 11073  450 8843 9077  4418 9077 9078  1235 4418 9078  627 9072 15400  2369 9072 9079  1335 4958 9080  2329 4958 9080  4087 9081 15733  7901 14883 15733  2701 8657 14024  2701 9082 14024  4632 9083 9149  1198 5746 9083  5163 9084 10144  2572 5163 9084  1609 9085 14588  4011 11608 15297  5268 8238 9086  172 8238 9086  1311 5126 9087  3348 5126 9087  4188 9088 14666  2372 4188 9088  2895 11177 12153  2894 9089 11178  7952 9090 9762  1067 7952 9090  2339 5144 9091  1472 5144 9091  632 9064 9092  3505 9064 9092  8298 9093 9395  2134 8298 9093  768 4819 9094  2817 4819 9094  2576 6429 9095  6429 9095 14327  2576 6429 12494  2576 9096 12494  2836 9563 11478  1083 8574 9563  2545 9115 9987  2546 9098 9115  3163 9100 9101  3133 9100 9101  1766 6800 9100  3163 6800 9100  846 9101 10253  3133 9101 10253  6617 9102 13947  4565 9102 13947  4708 8579 14689  4708 9103 14689  3263 9849 12674  3263 9104 12838  3114 9105 13278  6991 10794 13278  2439 4340 9106  417 4340 9106  3423 4320 13214  906 9107 13239  5703 8825 9108  2448 5703 9108  2127 6441 12157  2127 9109 12157  9110 15469 15470  1139 9110 15470  2458 6199 9111  6199 9111 9533  2322 4373 9112  6147 11661 13874  1120 4373 9113  2322 4373 9113  2546 5900 9114  230 5900 9114  2545 5620 9115  2546 5620 9115  1129 4695 9116  4364 9116 9334  8585 9117 14780  2316 8585 9117  2316 6039 11767  2316 9118 11767  3066 4966 13167  3066 9119 13167  1115 4126 9120  2401 4126 9120  3444 9121 14368  1671 9121 14368  1400 5019 9122  2526 5019 9122  3968 5008 9123  1460 8358 13377  4924 6963 9124  2881 4924 9124  664 4708 9125  2494 4708 9125  9126 9527 12725  2378 9126 9527  203 8538 9127  2378 9127 9660  8140 9127 9128  2378 9127 9128  3765 13461 15489  2519 9129 15489  2352 5305 9130  1063 9133 12999  752 4872 9131  2352 9818 12242  3657 8213 10157  836 8213 10157  2357 5305 12999  2357 9133 12999  2357 5305 9134  127 5305 9134  2357 4023 9135  1064 4023 9135  4756 6148 9136  53 4756 9136  4269 11650 15087  4269 9137 12517  5399 12986 13129  956 12986 13129  3870 8951 9139  2501 9139 14694  6150 8924 9140  707 6150 9140  2461 6371 9141  2461 5679 9141  1410 9142 11143  1410 5340 9142  919 8676 9143  8676 9143 11224  1469 6223 9144  4470 6223 9144  369 11930 15596  369 9145 11195  64 9146 14868  2504 9146 14868  3851 11921 14067  1623 11846 14474  7344 11369 14422  2720 11369 14422  2346 4631 9149  1198 4631 9149  7993 9150 13770  131 9150 13770  158 6391 11809  158 9151 11809  611 6013 9152  2344 9153 12220  1562 12220 14835  1562 9153 12220  3036 6494 9154  1693 6494 9154  3737 8764 9155  68 8764 9155  7686 9156 11940  575 7686 9156  2326 6045 9157  920 6045 9157  2334 9160 14301  2334 9158 14301  6056 9159 9160  1040 6056 9159  1692 9160 14302  1692 14115 14302  3096 9654 13880  4048 9654 13880  1064 4023 9162  1795 4023 9162  1016 10792 14595  3165 10312 13315  2519 4742 9164  1269 4742 9164  8155 9165 11295  2213 8155 9165  3727 6587 14585  973 9166 14586  6587 9167 11465  2383 6587 9167  3728 9166 9168  26 9168 13842  3046 7530 9169  1923 7530 9169  855 6577 9170  2629 6577 9170  3865 6130 9171  6130 9171 9919  888 9172 14154  2936 9172 14154  675 9173 9174  675 5230 9174  9173 9174 15729  2582 9174 15729  4664 9175 14858  2582 4664 9175  2640 5084 9176  1321 5084 9176  3462 7432 9177  888 7432 9177  1411 5108 11010  1411 9178 11010  1226 4625 9179  1226 10350 11975  2034 4881 9180  4274 5558 12809  3084 8248 11381  889 8248 9181  3501 9182 13744  223 6476 13742  1458 4681 9183  2011 4681 9183  1372 5098 10982  1372 9184 10982  4468 9909 12196  2614 9909 12196  1700 6166 12796  1700 9186 12796  3533 7981 9187  407 7981 9187  4772 9188 13409  4772 5215 9188  2463 5306 9189  3936 13907 13911  2374 4580 9190  229 4580 9190  1168 9191 14461  2605 9191 14461  8566 9192 9193  17 8566 9192  2437 8136 9193  8136 9193 11867  138 4301 11947  1116 4301 9194  1888 8317 9195  3227 8317 9195  9196 9722 12473  2516 9196 9722  2516 9196 13924  2516 9197 13924  3311 9198 14279  7963 12552 14279  7781 9199 14945  2343 7781 9199  2523 8314 11845  2523 9200 11845  390 5474 9201  3381 4709 12583  1916 5077 12947  1916 9202 12947  3680 9203 13574  1426 9203 13574  2785 5993 9204  725 5993 9204  6430 9205 13765  679 6430 9205  4187 9206 15717  4187 9206 11850  985 9207 14190  5785 14562 14563  2365 7512 9208  645 7512 9208  114 6684 9209  2980 6684 9209  256 5167 9210  2764 5167 9210  2373 5185 9211  1224 5185 9211  450 5185 9212  2373 5185 9212  3231 12604 13968  3231 10153 13968  348 9214 12227  2728 9214 12227  3514 13230 13876  2390 13230 14041  5338 7071 9216  1556 5338 9216  4348 4436 15680  4436 9217 15680  2333 7127 9218  3599 7127 9218  713 8454 9219  4020 8454 9219  3275 9220 9718  382 4345 9220  563 9221 10743  563 5407 9221  4254 9222 15219  4254 9222 10891  1148 4280 9223  2275 4280 9223  2376 10696 14230  2376 9224 12010  3880 9225 9658  3081 9225 9658  4015 8800 9226  231 8800 9226  3724 8044 9227  2226 5897 14558  4217 7684 9228  390 9228 9294  668 4391 9229  2456 5630 13749  2456 5630 9230  311 5630 9230  9230 9231 11616  1314 9231 11616  2828 6127 9232  3556 9232 10682  6395 9233 13864  1803 9233 13864  3862 13955 14273  2345 8340 12234  6503 9234 9235  2345 9234 9235  2847 5397 11889  2847 9236 11889  876 6554 9237  2847 6554 9237  2847 5397 9238  84 5397 9238  3214 9239 14697  849 9239 14697  719 7682 9240  3512 9240 10185  1553 6018 9241  3092 6018 9241  273 8696 11891  273 9242 11891  3626 8409 9243  3626 5513 9243  65 4824 9244  2347 4824 9244  2347 4853 9245  789 4853 9245  1032 4226 9246  2441 4226 9246  725 5793 9247  5793 9247 10078  3290 5281 9248  4032 9248 12784  2621 10445 15560  2363 5064 9250  171 9250 12698  3634 8922 9251  1030 8922 9251  2901 6200 9252  759 6200 9252  402 5659 12182  402 9253 12182  5095 9254 14465  2063 5095 9254  5871 8499 9255  2492 8499 9255  5310 12568 15557  2529 5310 9256  732 4483 9257  2367 4483 9257  3895 9258 15661  1730 9258 15661  1189 10670 14702  1189 4509 9259  6169 12243 13555  1593 6220 11654  3843 10678 12507  3843 9852 12515  4839 9262 13284  2441 4839 9262  5542 7507 9263  2348 5542 9263  1313 4637 9264  2348 4637 9264  3083 9266 12853  907 5423 9265  5423 9265 12853  3083 9265 12853  835 4889 9267  2176 4889 9267  3091 7118 9973  3180 9268 12381  3538 13832 13833  2369 9269 13832  4073 7021 14031  1149 7021 14031  2354 4589 9271  101 4589 9271  4587 8742 9272  1174 4587 9272  1174 9272 9273  1174 4588 9273  1626 5110 9274  488 5110 9274  2483 5061 9275  723 5061 9275  2652 5932 9276  1487 5932 9276  2404 6621 9277  850 6621 9277  2374 9278 11771  5048 9336 11771  2552 8449 9280  986 8449 9279  8449 9279 9280  2553 9279 9280  5275 9281 14077  4896 9281 13553  3446 9282 13507  1761 5788 9957  726 5652 9283  2351 5652 9283  1362 5358 9284  2351 5358 9284  2351 5358 9285  198 6216 12155  3463 6843 9286  288 6843 9286  4701 9287 11749  1252 4701 9287  2788 7358 9288  3485 9288 10816  1091 9289 15372  9289 15099 15372  2402 7456 10173  635 6036 14371  2402 4795 9291  1081 4795 9291  2388 4904 15199  2388 9292 15199  2388 9293 11134  654 9293 11134  4217 9228 9294  2325 11840 13336  2525 8921 9295  2525 5270 9295  631 4516 9296  4516 9296 12741  2400 9298 12191  2400 9297 9298  1735 9298 10275  926 6830 9299  3021 6830 9299  589 7369 9300  3702 7369 9300  8186 9301 15128  2355 8186 9301  2355 9302 15106  9302 15104 15106  3847 7667 9303  2742 13535 15088  1746 6468 10091  366 6468 9304  2943 5282 9305  818 5282 9305  3154 10662 14790  934 9306 14790  1393 4878 9307  2950 4878 9307  4401 11632 14237  1262 11632 14237  2476 5712 9309  119 5712 9309  2137 4144 9310  1081 4144 9310  2624 5250 9311  5191 9311 10335  953 9312 11394  3669 9312 11394  2582 4664 9313  357 4664 9313  2889 9314 13540  291 9314 13540  3844 8489 9315  1031 8489 9315  1013 7623 13028  1013 9316 13028  2368 5081 9317  537 5081 9317  3872 5082 9318  3872 11006 11401  3156 7644 9319  1667 7644 9319  703 9320 15380  8767 13888 15380  1355 4118 9321  3510 7957 12682  6093 12586 12968  3242 9322 12968  1617 6411 9323  2912 10775 14086  2524 4925 9324  1027 4925 9324  7379 9325 15368  2524 9325 15368  8743 9326 14678  734 8743 9326  799 9707 11420  799 9327 9707  2577 8899 12148  2577 9328 12148  58 4875 9329  2389 8112 9330  2440 9330 9331  8112 9330 9331  38 8112 9331  256 9210 9332  3560 9210 9332  2367 8639 9333  5197 8639 9333  2387 4817 12161  2386 4817 9334  3730 14377 14378  165 9335 14377  2374 4580 13349  2374 9336 13349  1974 4616 9337  1974 4821 9337  3061 6897 9690  3061 9338 9690  2442 8839 9339  1176 4594 9815  3883 7403 9340  1702 7403 9340  2628 9341 15638  235 9341 15638  3997 9016 10619  987 9016 10619  1053 7356 9343  3485 7356 9343  2088 4317 9344  257 4317 9344  3640 9345 14302  7022 14029 14587  5294 9346 11135  3092 9346 11135  5059 6096 9347  1792 6096 9347  8557 9348 15514  2436 8557 9348  1415 4785 14021  1415 9349 14021  896 7344 9350  3394 7344 9350  1235 4418 9351  4418 9351 15385  4420 9351 9352  2460 9351 9352  4567 9353 13015  2460 4567 9353  2250 6149 9354  3943 5657 15311  7313 9355 13385  2380 7313 9355  1465 9356 10969  3238 9356 10969  1243 5061 9357  2483 5061 9357  3071 9024 14213  3071 9358 14213  792 5618 9359  2969 5618 9359  2818 8165 15232  2818 9360 15232  2818 8165 9361  768 8165 9361  3568 13972 13973  2467 9362 13972  2467 6130 9363  179 6130 9363  2434 5721 11336  5721 9364 11336  1425 4278 9365  4278 9365 9713  1280 4954 9366  2317 4954 9366  6169 7469 9367  186 6169 9367  676 4992 9368  4992 9368 10398  2385 4991 9369  351 4991 9369  2547 7109 9370  3949 9693 11531  3769 9371 9640  3560 6746 13017  2771 5117 9372  251 5117 9372  2391 4865 9373  738 4865 9373  5478 9374 11787  2391 5478 9374  3044 6273 11799  2754 10697 11800  4019 11343 14951  1321 8397 11003  2232 8431 9377  3681 8431 9377  1065 6052 9378  3623 5442 13453  6620 6930 9379  2462 6620 9379  2462 5779 9380  1254 5779 9380  760 5529 9381  2740 5529 9381  2740 4426 9382  346 4426 9382  4001 13356 15125  2784 9289 15099  171 9384 12698  2395 9384 12698  2395 6480 9385  6480 9385 13688  3034 8638 9386  1157 8638 9386  4081 7069 9387  305 7069 9387  3833 14203 14204  2925 9388 14203  858 6861 9389  2626 6861 9389  2308 9066 9390  4459 9066 9390  5213 8652 9391  3369 9391 12378  644 6228 9392  3265 6228 9392  6030 9393 12147  1434 6030 9393  5523 9093 9394  1622 5523 9394  274 9395 11296  3025 10803 10804  7778 9396 13635  2583 7778 9396  776 9241 9397  3092 9241 9397  2387 5433 9398  5433 9398 11058  2386 4817 14087  2387 4817 9399  3129 7899 9666  2409 9400 11784  3129 9666 11784  7878 11384 13633  4119 8345 9402  2453 8345 9402  2887 7829 10005  2887 9403 10005  4927 9404 10996  2521 4927 9404  8101 8102 9405  543 8101 9405  2521 4927 9406  4927 9406 12368  2618 4852 9407  135 4852 9407  4296 7775 9408  192 4296 9408  2126 4525 11746  2406 4525 9409  1251 4268 9410  2406 4268 9410  4267 9410 9411  2406 9410 9411  1594 7469 9412  3695 7469 9412  713 4294 9653  1167 12379 14620  2134 4236 9414  551 4236 9414  4078 12365 12415  1358 10813 10814  4500 7677 9416  2399 7677 9416  557 4498 9417  2399 4498 9417  1665 6198 9418  32 6198 9418  6595 9419 9603  3631 12446 14257  4755 9880 11635  2488 9420 11039  303 5946 9422  1490 5946 9421  5946 9421 9422  2488 9421 9422  3592 6750 9423  959 9423 10196  2166 6566 9424  6020 6566 9424  2728 5022 9425  1286 5022 9425  3682 7743 9426  1976 7743 9426  966 6127 9427  3302 9002 11323  2567 4054 10879  2567 9428 10879  2567 8634 9429  8634 9429 12015  1053 5058 9430  2567 5058 9430  2034 4798 9431  4798 9431 10079  290 8119 15171  290 9432 15171  2689 9433 14342  1679 9433 14342  613 9434 14818  613 10488 13060  5274 11981 11982  3112 5720 9435  5814 8265 9436  2410 5814 9436  1517 9437 13689  2916 9437 13689  407 8888 9438  4071 8888 9438  2936 9439 15373  406 9439 15373  812 7800 15310  812 9440 15310  1403 5476 13179  176 5476 9441  5608 9442 15082  961 5608 9442  5805 9673 14187  2746 5805 9443  724 9444 15082  5608 10791 15082  6212 9302 9445  2438 6212 9445  4812 9446 12218  2438 4812 9446  1812 4432 9447  1151 12102 12103  85 8820 9448  2755 8820 9448  1998 10599 15133  1998 4475 9449  4931 5963 14447  2517 4931 9450  2610 7933 9452  2491 7933 9452  735 9452 15198  2610 9452 15198  3372 10031 11114  2548 9454 10031  746 5119 9454  2548 5119 9454  2548 5119 9455  1369 5119 9455  1708 9456 14842  3691 9456 14842  3313 12511 12774  4641 12511 12774  3010 4856 9458  1256 4856 9458  1498 5521 9459  2067 5521 9459  873 9460 11858  3258 9460 11858  5034 9461 15140  648 9461 15140  3174 7519 9462  1966 7519 9462  2014 7716 9463  4038 7716 9463  510 7005 9464  2798 7005 9464  2581 5803 9465  1473 5803 9465  6514 9466 12562  2564 6514 9466  1288 5017 9467  2412 5017 9467  3315 8587 15714  2413 9468 12522  317 5598 9469  2412 5598 9469  5598 9467 9470  2414 5598 9470  624 4554 9471  2413 4554 9471  5018 9470 9472  2414 9470 9472  4306 9019 14968  4306 5291 9473  2306 8884 9474  4422 8884 9474  735 7549 9475  3642 7549 9475  3003 9476 9950  3003 9476 9766  493 4140 9477  493 5087 9477  3617 9696 10075  2831 9696 10075  2883 6171 9479  769 6171 9479  312 7677 9480  4500 7677 9480  2793 11136 11832  5432 11136 11138  2090 5338 9482  389 5338 9482  2052 7505 15393  2052 9483 15393  3598 7183 9484  2002 7183 9484  1975 9485 10823  5416 9485 10823  2502 5421 9486  603 5421 9486  3201 5844 9487  3177 9487 12347  3197 5697 9488  137 5697 9488  5430 6547 9489  1989 6547 9489  4139 7893 9490  1695 7893 9490  2864 6748 9491  3903 9491 9635  502 9492 12855  502 14263 14264  4151 6269 9493  1182 4753 14105  1296 4780 9494  1296 6720 9494  3558 6868 9495  1814 6868 9495  2915 8400 9496  1378 8400 9496  4761 9497 10097  4761 15590 15591  3825 11194 14669  1171 9498 11194  2415 5073 9499  1472 5073 9499  151 5073 9500  2415 5073 9500  3979 13073 14507  2515 9501 13073  3979 5876 14507  10 9502 14509  2515 5604 9503  729 5604 9503  2365 8400 15276  2365 9504 15276  3446 9505 15492  3446 4946 9505  837 7794 9506  3160 7794 9506  3847 7667 9507  1911 7667 9507  3347 9508 15662  486 9508 15662  2187 5097 9509  6830 9509 13585  2558 9510 14575  4883 10064 14575  920 8832 9511  3443 8832 9511  4246 8034 9512  1113 4246 9512  364 4805 9513  2418 4805 9513  2418 4804 11934  2417 4804 9514  7170 9515 12845  3343 7170 9515  1828 4975 9516  1828 4935 9516  1114 8289 9517  4229 8289 9517  1962 9518 15623  6768 9518 15623  900 6959 9519  3542 6959 9519  7925 9520 10832  2032 7925 9520  3408 7850 9521  1449 7850 9521  2905 9522 15493  6364 11241 15493  2596 5175 9523  743 5175 9523  2359 7793 13419  2359 9524 9525  4211 9524 9525  4211 9525 11618  2984 9526 14205  1627 9526 14205  2511 4999 9527  2378 4999 9527  2220 5286 9528  422 5286 9528  773 4577 9529  2563 4577 9529  84 8804 9530  84 5397 10013  1286 5022 9531  2668 5022 9531  882 4773 9532  4773 5100 9532  2555 7923 9533  287 7923 9533  2424 6550 9534  1686 6550 9534  2424 4430 13846  2424 9535 13846  1260 4538 9536  2053 4538 9536  3912 9537 9538  1169 9537 9538  1169 8031 11880  1169 9538 11880  2396 6065 10377  2396 9539 10377  1935 7587 9540  3823 7587 9540  2237 8573 9541  4085 8573 9541  2459 6723 9542  4022 6723 9542  1078 6160 9543  3886 11071 12675  3270 4416 13801  3270 9544 13801  7801 9545 10104  2064 7801 9545  2594 6337 9546  667 6337 9546  3084 9547 11381  907 9265 9547  7437 9548 14650  2883 9548 14650  1182 4153 9549  2481 4153 9549  8466 9550 13509  148 8466 9550  9551 11851 14741  926 9551 11851  2963 5269 9552  1111 5269 9552  4391 8433 9553  668 4391 9553  1152 4375 9554  2457 4375 9554  2457 4375 9555  36 6188 15425  377 4894 9556  377 4984 9556  5340 9557 12623  1689 4058 14314  5876 7398 9558  699 7398 9558  2164 9559 15574  3191 9559 15574  2443 5242 9560  1407 5242 9560  656 5404 9561  2443 5404 9561  8 6599 9562  2811 6600 12253  1083 9097 9563  9097 9563 11478  2997 9564 13713  851 9564 13713  7108 9565 11861  3088 7108 9565  1108 10655 12194  2921 10654 10655  3375 12612 12613  2612 9567 12612  5359 9567 9568  2612 9567 9568  22 8260 11049  22 9569 11049  4496 9570 11053  1379 9570 11053  720 5376 9571  2628 5376 9571  3865 8580 9572  3865 9171 13256  3270 11759 14123  2886 9573 14123  3086 6456 9574  2579 6456 9574  3634 9251 9575  1713 9251 9575  2459 5565 9576  931 5565 9576  3588 8664 11390  965 8664 11390  1417 5518 9578  2897 5518 9578  2897 7791 9579  772 7791 9579  12 7538 15566  12 9580 15566  4372 9581 11783  4200 9581 11782  1516 9582 12957  3842 9582 12957  2065 7317 9583  3611 7317 9583  1242 4832 9584  2263 4832 9584  2471 5853 9585  1557 5853 9585  3675 10858 14503  646 4598 10858  217 5853 9587  2471 5853 9587  1966 7516 15378  1966 9588 15378  4283 7021 9589  1820 7021 9589  3786 9590 14929  3786 11442 12874  4320 7894 9591  4320 9591 13214  3147 7023 9592  1339 7023 9592  2939 5871 9593  820 5871 9593  1239 9594 11856  3301 9594 11856  2475 5837 9595  1244 13947 13948  1688 6357 10272  210 6357 9596  4051 9597 10605  3567 9597 10605  2436 5018 9598  624 5018 9598  4618 9598 9599  1184 4618 9599  2286 5228 9600  2286 5574 9600  3327 7008 9601  877 7008 9601  1297 6266 9602  2736 6266 9602  5028 9603 11470  2085 5028 9603  19 4310 9604  2142 4310 9604  800 8572 11091  800 9605 11091  5453 9606 11731  1230 4775 9606  4746 6275 9607  193 6275 9607  3980 15164 15653  541 5809 12570  2469 9609 15653  9609 15164 15653  2484 5360 9610  5360 9610 15080  2295 9611 14933  2484 9611 14933  4005 7927 9612  2039 7927 9612  2640 7903 9613  4063 7903 9613  1973 4443 9614  1144 4443 9614  5186 9615 15526  1477 5186 9615  4152 4848 9616  2264 10489 15181  3428 9617 13281  4259 10214 12638  3944 8810 13396  4117 9618 14598  3145 9619 14147  1344 9619 14147  2506 4800 9620  934 4800 9620  5606 9620 9621  1565 5606 9621  4964 11100 12910  3500 11100 11574  2417 4804 10047  2418 4804 9623  5463 9624 10110  2636 4611 9624  1161 7643 9625  3206 7643 9625  3789 8099 9626  2813 9626 10865  2635 6006 12880  2635 9627 12880  2635 7337 9628  359 11050 13280  1320 5171 9629  2622 5171 9629  4299 9630 14519  2622 4299 9630  2622 9629 14885  2622 9631 14885  2603 8117 9632  910 8117 9632  2721 9633 10553  2545 9634 14673  6658 9986 14673  2864 9635 12019  1146 9635 12019  732 9059 9636  2574 9059 9636  2574 5515 9637  863 5515 9637  8113 14485 15630  2999 9638 14487  3449 8014 9639  8014 9639 15382  3768 8337 9640  982 8337 9640  94 4520 9641  2756 4520 9641  3271 6487 11211  6487 9642 11211  3990 9643 10833  221 9643 10833  2451 7435 9993  2451 9644 9993  1615 7238 9645  2632 7238 9645  541 4744 9646  541 5861 9646  370 8827 9647  4439 8827 9647  2424 4430 11273  1809 4430 9648  2292 4936 11219  2885 9649 14027  303 9422 9650  4154 9422 9650  5002 9651 15394  1687 5002 9651  293 9652 15434  293 6184 9652  4294 9413 9653  2164 9413 9653  3096 9655 12162  3096 9654 9655  3098 9695 9804  3097 9695 9804  4838 9656 10244  190 4838 9656  793 9657 12461  3108 9657 12461  3969 9992 11324  3081 9992 11324  2761 9659 10088  2761 8445 9659  8538 9127 9660  2379 8538 9660  4080 13575 15357  2617 9661 13575  2209 8423 11460  2209 9662 11460  3170 9663 15557  827 9663 15557  5969 9664 14164  1541 9664 14164  2496 5181 9665  1260 5181 9665  937 9400 11784  937 9666 11784  723 6686 9667  6686 9667 9668  1681 6685 9668  2653 6685 9668  6042 9669 11033  60 6042 9669  5048 11771 13191  1579 11771 13191  5135 6592 9671  1736 6592 9671  2804 9672 13516  5643 9672 10421  2473 9465 9673  1473 9465 9673  9673 9674 14187  95 9674 14187  99 4220 9675  2431 8416 15363  8452 9676 15351  2563 8452 9676  2261 7937 9677  1023 7937 9677  2930 5507 9857  2930 9678 9857  1568 6475 9679  1568 6208 9679  154 9680 9970  154 4451 9970  2495 4131 14022  2495 9681 14022  6474 9682 11591  2495 6474 9682  1369 5271 9683  2578 5271 9683  2578 5271 9684  210 5271 9684  2535 4546 9685  1437 9639 15481  1126 9686 13907  2463 9686 13907  2463 6743 9687  304 6743 9687  3277 8600 12152  119 8600 12152  834 6001 9689  2651 6001 9689  2859 6897 12690  6897 9690 12690  1239 9003 9691  3738 9003 9691  2629 6574 9692  1494 6574 9692  3949 9370 9693  2547 9370 9693  3759 7190 9694  1824 7190 9694  3097 5532 11034  3097 9695 11034  201 5764 9696  5764 9696 10647  152 5160 9697  2468 5160 9697  2468 4472 9698  4472 12089 13474  2497 5179 9699  877 5179 9699  2452 5179 14796  2497 5179 9700  3323 11347 14128  908 11347 14128  1523 4826 9702  1523 5664 9702  1732 6644 9703  3857 15210 15212  3390 6677 9705  1246 6677 9705  3184 4932 9705  3390 4932 9705  2896 8048 9706  3430 9706 12859  2982 9327 9707  3609 14012 14014  4583 10230 12513  2017 4583 9708  2876 9709 10353  2876 10354 15444  1630 5235 9710  2874 5235 9710  2819 9711 14224  859 9711 14224  1076 5833 10867  1076 9712 10867  903 8754 9713  3395 8754 9713  3294 9714 12800  1199 6330 9715  2760 6330 9715  437 5428 10161  437 9716 10161  3137 6898 9717  6898 9717 12316  3267 7336 9718  382 7336 9718  4528 9719 13514  1709 4528 9719  2941 5174 9720  2199 5174 9720  3687 7068 9721  3686 14270 14271  4980 11225 14251  2516 4980 9722  1654 6954 9723  3854 6954 9723  3545 9724 13739  1865 9724 13739  3303 8435 9725  394 8435 9725  2474 9001 11646  1749 4703 9726  48 6546 9727  3024 6546 9727  2685 5070 9728  1322 5070 9728  3572 11641 13800  3573 9729 12998  8907 9730 12592  107 8907 9730  2752 5657 9731  330 5657 9731  3256 9733 9734  2752 9733 9734  1088 9733 13302  3256 9733 13302  5658 11216 13293  2753 5658 14208  3721 6899 9735  1089 6899 9735  3818 7597 9736  500 7597 9736  1713 9575 9737  1713 6165 9737  777 9738 12068  4942 9738 10199  2654 8149 9739  8149 9739 12995  2322 9112 9740  4630 9112 9740  363 5477 9741  2512 5477 9741  724 5804 9742  2747 5804 9742  3731 9743 15739  976 9743 15739  2532 7473 14113  2532 9744 14113  2255 5039 13745  2532 5039 9745  260 7570 14472  260 9746 14472  914 4574 9747  1969 4574 9747  1020 5129 9748  2650 5129 9748  2650 9749 13192  1075 9749 13192  704 5035 9750  2650 5035 9750  3217 6836 9751  1822 6836 9751  2586 9754 11862  2586 6148 11862  2586 8976 15119  2586 9753 15119  9752 9754 11862  698 9752 9754  3393 9755 9756  2560 9755 9756  2560 8794 14131  2560 9756 14131  1530 6724 9757  5442 13453 13454  4792 9758 14411  1452 4792 9758  2236 8753 9759  2236 5734 9759  2493 7045 9760  7045 9760 11198  6610 9761 11601  3030 6610 9761  2339 9090 9762  2339 5912 9762  3079 9763 13276  1340 9763 13276  2482 7697 9764  652 7697 9764  2482 9766 12772  427 9765 9766  9765 9766 12772  4394 8595 9767  2191 8595 9767  5622 9768 14683  2872 5433 14449  4292 8009 9769  2104 8009 9769  4775 9770 13443  1230 4775 9770  882 7929 11148  882 9771 11148  4762 9772 11374  8464 15075 15266  4270 7541 9873  1959 4270 9773  2822 9774 13185  1787 9774 13185  2757 5783 9775  313 5783 9775  3355 12976 12977  2757 5783 12976  3933 13847 14877  5221 13847 15407  3168 6786 11989  4284 6786 9778  4638 6244 15431  2589 6244 9779  4553 9665 9780  3735 10795 11609  5756 12214 13786  2738 5756 9781  2294 8909 9782  5457 8909 9782  2533 5006 9783  666 5006 9783  4521 9784 13756  191 4521 9784  1608 6390 9785  6390 9785 15304  2903 11519 15321  2903 10727 15321  1226 4625 9787  2153 4625 9787  2983 6531 9788  1678 6531 9788  4020 9219 15289  886 4961 15288  2535 5091 9790  738 5091 9790  8911 9791 12211  2616 8911 9791  3843 9261 12515  3843 9852 12507  4062 12248 13984  2696 9793 12248  3018 5775 9794  392 5775 9794  4880 9795 11545  374 4880 9795  2593 6337 9796  1106 4249 9924  1147 4475 9797  1147 10603 13098  447 7371 9798  3110 7371 9798  3364 6325 9799  1010 6325 9799  1198 5746 9800  1198 4630 9800  4257 8484 9801  344 8484 9801  4135 8575 9802  665 8575 9802  3291 6766 9803  1718 6766 9803  33 7409 9804  3098 7409 9804  3466 5680 9805  45 5680 9805  1429 5117 9806  2771 5117 9806  2771 5616 9807  867 5616 9807  314 6573 9808  2796 6573 9808  5366 11372 13110  5366 9809 11372  785 4719 9810  2540 4719 9810  3189 9811 11300  3189 10744 11300  1744 6384 9812  2860 6384 9812  660 5372 9813  2077 5372 9813  3785 7175 9814  1517 7175 9814  4594 9339 9815  2442 9339 9815  456 6987 9816  6987 9816 14142  4566 9595 12297  4566 9817 11233  2352 5305 9818  4831 9818 12242  3002 7375 9819  4713 9819 11091  3084 5498 9820  443 5498 9820  4080 12033 15357  1068 9821 15356  2890 5654 10658  2617 9661 10659  2787 13228 14919  2787 9823 14919  3840 6255 9824  159 6255 9824  1480 5320 9825  2573 5320 9825  1765 4383 9826  2573 4383 9826  2573 5320 9827  847 5320 9827  2504 6665 9828  1192 6665 9828  5371 9247 9829  2649 9247 9829  1280 9830 10403  1280 4992 9830  7140 9831 10978  3728 7140 9831  2452 8597 9832  4607 8597 9832  4481 9833 15711  2301 7955 11061  3031 9834 11435  1711 9834 11435  2597 6170 11606  2597 9835 11606  6170 9523 9836  743 9523 9836  648 5210 11004  648 4582 9837  4301 7831 9838  2035 7831 9838  5912 9762 9839  151 5912 9839  2197 7626 9840  3121 7626 9840  3790 9841 13733  3790 4545 9841  2218 8125 12200  5292 7282 9842  4679 7168 9843  3268 4679 9843  4461 9020 9844  134 9020 9844  324 9581 9845  4200 9581 9845  4059 11292 13395  2910 11292 13395  4334 8411 10934  2229 8411 10934  4739 6136 15323  5141 14149 14150  3263 9104 9849  9104 9849 13568  9850 11160 14799  435 9850 11160  3421 9851 12935  3421 9851 15418  2616 9792 12507  2616 9852 12507  64 6010 14868  1779 6010 9853  1875 6665 9854  2504 6665 9854  1278 5656 15583  834 9855 10037  101 6363 9856  2633 6364 12759  941 7537 9857  5507 7537 9857  3021 9299 15355  3021 9858 15355  4976 9859 12383  4976 9859 14176  1800 5520 9860  2805 5520 9860  294 9861 10663  2805 9861 10663  3157 9453 10663  1042 9862 12058  1538 9863 15141  3705 9863 15141  3011 6852 9864  970 6852 9864  7548 9486 9865  2036 7548 9865  2502 6701 9866  1055 6701 9866  7886 8463 9867  2512 7886 9867  4413 10956 12346  449 10956 12346  4328 12836 13479  1509 14539 14703  737 6232 9870  2527 6232 9870  5216 8762 9871  2309 8762 9871  3753 9872 14730  2337 11536 14528  4270 9773 9873  516 9773 9873  2766 6853 9874  816 6853 9874  6607 6758 9875  3988 6607 9875  878 5957 9876  3148 5957 9876  3775 7300 13469  2507 7300 13469  2507 6142 9878  1179 6142 9878  1245 8616 10305  1245 9879 10305  2488 11039 11635  4755 11039 11635  3682 7743 9881  3682 9881 13233  1646 9882 13563  3497 9882 13563  3894 12022 14980  3894 9883 9884  3436 8793 12872  2958 9884 12873  2602 4958 9885  1335 4958 9885  3088 9886 14299  7543 11999 14299  1425 5484 9887  2607 5484 9887  2607 9888 12961  2607 9889 12961  3384 12960 12961  1599 12960 13356  3286 7790 9890  2062 7790 9890  6939 8125 9891  2218 8125 9891  1177 9892 14120  1177 4904 9892  2817 4819 9893  1087 12350 14222  1584 9894 15606  5296 7121 15624  3648 7772 9895  402 7772 9895  6190 6515 13363  2749 6190 9896  1223 4760 9897  2749 4760 9897  2749 9896 14272  2749 9898 14272  3601 8509 9899  1891 8509 9899  2829 9900 13177  232 9900 13177  7489 9901 12915  286 7489 9901  3100 5781 9902  1142 5781 9902  3141 5903 9903  979 5903 9903  948 7855 11230  948 9904 11230  3540 5677 13405  3540 9905 11629  632 5538 9906  3253 5538 9906  2189 6361 9907  2189 4843 9907  3047 7557 9908  3047 5812 9908  1332 9909 15531  2614 9909 15531  4626 9787 9910  2153 9787 9910  5951 6286 9911  5951 9911 13330  1222 9912 15375  5958 11499 15375  1533 5307 9913  5719 9913 13326  1615 6899 9914  3721 6899 9914  327 5631 9915  2550 5631 9915  2550 4504 9916  1195 4504 9916  663 4504 9917  2550 4504 9917  3864 6908 9918  1051 6908 9918  2467 5323 9919  5323 9919 15302  2004 5902 13926  2004 9920 13926  3791 7953 9921  2076 7953 9921  4528 9415 9922  1358 9415 9922  9923 14379 15231  2714 9923 14379  4249 9796 9924  2593 9796 9924  3541 9925 14915  962 9925 14915  990 4143 9926  2132 9926 11722  211 5640 9927  2734 5640 9927  4232 7380 9928  266 7380 9928  3322 9929 15256  289 9929 15256  2526 6184 9930  6184 9930 15094  2861 7827 12812  2861 9931 12812  9932 13193 15724  550 9932 13193  985 7496 9933  3418 7496 9933  1330 5135 9934  2697 5135 9934  1329 6590 9935  4074 15144 15641  1381 5409 9936  5349 10910 13668  136 7333 9937  4305 7333 9937  6828 9938 10348  11 6828 9938  3178 6506 13130  893 6506 9939  2979 7435 9940  310 7435 9940  1483 5907 9941  3881 15158 15316  3810 7587 9942  1935 7587 9942  2354 9271 9943  4749 9271 9943  1272 14682 15065  4899 13348 14682  3995 8548 9945  97 8548 9945  2559 6973 9946  1409 6973 9946  577 4757 9947  2611 9947 11002  2347 4824 9948  1293 4824 9948  1478 9949 15448  3383 9949 15448  3004 5699 9950  790 5699 9950  3943 5657 9951  1440 5657 9951  2401 4126 9952  4126 14462 14463  2531 5006 9953  1301 5006 9953  666 5006 9954  2531 5006 9954  4034 10205 10206  3884 10205 10206  1876 7260 9956  5105 7260 9956  1761 9282 9957  3446 9282 9957  2485 9958 11339  6548 9958 11339  4094 11398 12791  2845 9959 14277  2536 5954 13463  2536 9960 13463  459 4608 9961  4255 7257 13495  2503 5015 9962  143 5015 9962  3030 5120 9963  387 5120 9963  715 4586 9964  2571 5614 10718  217 9965 14144  2571 9965 14144  5784 9587 14144  1441 5784 9966  2637 5277 9967  5173 9967 10388  2656 9968 13441  6009 10200 13441  708 6463 9969  2658 6463 9969  3208 8519 13819  3208 9970 13819  4065 8794 10979  4065 9971 14148  4326 7679 9972  4326 9972 12760  9268 9973 12381  962 9268 9973  3091 9973 12381  3091 9974 12381  210 5271 9975  2549 5271 9975  1369 5119 9976  2549 5119 9976  4565 9102 13139  2549 4565 9977  4809 9978 9980  1176 4809 9978  2556 4908 9979  90 4908 9979  8784 9980 14074  661 8784 9980  4286 9981 15110  4286 5909 9981  1092 9982 15512  3923 9982 15512  2605 9191 10960  2605 9983 10960  2605 14461 14462  4126 14462 15545  727 5874 9985  2619 10318 10319  2545 6022 9986  308 6022 9986  9098 9115 9987  1132 9098 9987  1947 6549 9988  2865 9988 9989  6549 9988 9989  800 6549 9989  3168 11990 13861  2865 9988 11990  2877 5161 9991  2051 5161 9991  1712 9992 15579  3081 9992 15579  310 6855 9993  310 7435 9993  872 6626 9994  3064 6626 9994  2845 9995 14277  1048 9995 14277  216 9996 13528  5557 9996 13528  4300 5810 15221  2555 7923 11511  2620 8007 10039  2620 9998 10039  7491 9999 11556  1004 7491 9999  2048 7406 14467  2048 10000 14467  2055 4460 11802  4460 11694 11695  2021 7820 12239  2021 10002 12239  10003 13317 15421  511 6569 15422  1823 6762 10004  3069 6762 10004  4073 9072 10005  627 9072 10005  1583 10006 14887  3714 10006 14887  385 5671 10007  3252 5671 10007  2678 5046 10008  2678 4125 10008  5347 10009 11403  1390 5344 10009  4907 7628 10010  762 7628 10010  603 4886 10011  2604 10011 10258  1646 6339 10012  2409 6339 10012  1669 6351 10013  3279 6351 10013  3956 7172 10300  2919 10014 14660  2919 5644 10015  5644 10015 15282  3943 9354 10016  2250 9354 10016  55 5299 12757  55 10017 12757  4081 9387 10018  2183 9387 10018  1386 6019 10019  2748 6019 10019  2772 4476 10224  2772 10020 10224  4933 10021 11477  1311 5126 13161  1533 5307 10022  2100 5307 10022  3779 6698 10023  1897 6698 10023  154 4451 10595  1903 7467 10096  1903 10025 10096  3215 7264 10026  1889 7264 10026  303 7445 10027  3454 7445 10027  3867 7518 10028  1965 7518 10028  2928 6111 10029  638 6111 10029  318 5460 10030  2929 5460 10030  2548 9453 11114  2548 10031 11114  3122 7234 10032  2110 7234 10032  5164 12671 15461  2641 5164 10033  2641 5164 10034  721 5164 10034  5151 8650 10035  2641 5151 10035  2924 6824 10036  983 6824 10036  5656 9855 10037  2645 5656 10037  5055 6642 14278  4091 10038 15359  1072 8708 13407  1072 10039 13407  2332 8180 10040  4167 8180 10040  2529 4965 10041  2125 4965 10041  2836 10766 13331  2836 9095 10766  1475 7666 10043  2581 7666 10043  2371 4789 10044  1248 4789 10044  2102 7269 10045  7269 10045 10743  4132 7925 10046  91 7925 10046  4804 9623 10047  1231 9623 10047  3331 7008 10048  1854 7008 10048  3045 10049 10279  819 10049 10279  1093 8178 10050  3708 8178 10050  609 6144 15707  1430 6144 10051  8177 10052 12797  153 8177 10052  5175 10053 15445  2596 5175 10053  642 7343 10054  3714 7343 10054  4517 8782 10055  1619 4517 10055  1320 5351 10056  2707 5351 10056  4518 14056 14777  1435 4518 10057  3643 9877 10058  2615 10060 13719  716 5217 10059  5217 10059 14535  1697 6071 12578  1697 10060 12578  2035 4390 13595  2591 4390 10061  1085 4173 10062  4173 14212 15524  4883 14212 15524  1265 4883 10063  2558 4882 10064  1265 4882 10064  5229 12446 14258  838 10065 14257  1062 4728 10067  1062 10066 10067  4728 8989 12377  4728 10067 12377  1925 6150 10068  2425 6150 10068  5178 10069 14719  2703 5178 10069  259 8529 10070  4231 8529 10070  1108 8911 10071  1108 4253 10071  2829 4474 10072  833 4474 10072  3291 9803 10073  483 9803 10073  1398 5287 10074  1398 5286 10074  1990 7327 10075  3617 8540 13700  885 8132 10076  3931 8132 10076  5881 10077 15510  1907 5881 10077  2649 8086 12302  2649 10078 12302  2557 10079 14166  79 10079 14166  4882 10080 12390  838 4882 10080  4984 8996 14933  377 4984 10081  1885 7274 13931  3945 10082 14553  2572 5635 10083  1441 5635 10083  2390 9215 10084  2390 5463 10084  4534 14462 14463  4534 10085 12267  5153 7174 10086  115 7174 10086  3041 8439 10089  3041 10087 10089  3657 8858 10088  2761 9132 10157  301 8901 10089  301 8439 10089  3113 5072 10090  1472 5072 10090  6468 9304 10091  2356 9304 10091  3057 7874 10092  7874 10092 15605  3511 5885 10093  3511 10093 14374  2102 7269 15677  2102 10094 15677  925 6661 10095  3190 6661 10095  152 5160 10096  152 7467 10096  4700 10097 10099  1223 11374 13105  1381 5409 10098  2561 10098 13047  2561 10099 13047  177 10099 13047  1621 6271 13197  1621 10100 13197  2143 5488 10101  3353 5488 10101  24 4365 10102  2587 4365 10102  88 6081 10103  3305 6081 10103  2454 9545 10104  2454 5625 10104  3638 9005 11854  3637 10105 10673  3619 8339 12349  2782 10106 14081  5297 7583 10107  2782 5297 10107  1902 8524 10108  5273 8524 10108  2822 5075 10109  1343 5075 10109  2636 10110 15710  2636 10111 15710  2197 7625 15710  2197 10111 15710  2636 4444 10112  406 4444 10112  2094 4116 10113  1385 5377 10735  3703 14565 14566  2965 10114 14565  6504 10114 10115  2965 10114 10115  3928 7989 10116  1032 7989 10116  5024 9783 10117  666 9783 10117  1017 8113 10118  3680 10118 10719  1671 6377 10120  380 6377 10119  6377 10119 10120  2775 10119 10120  3237 12628 15314  1252 9287 13617  3386 10122 10123  3386 10122 11065  1035 7190 12540  1035 10123 12540  2914 6646 10124  791 6646 10124  2914 4288 10125  1122 4288 10125  473 5283 10883  5283 10883 12884  5076 10109 11901  2562 5076 10127  5775 10128 10129  1451 5775 10128  2562 5172 10129  5172 10129 12219  2070 5387 10130  5387 11892 11893  1657 4189 13138  4189 10131 13138  3778 7466 10132  981 7466 10132  2293 8055 10133  2938 8055 10133  1197 4692 10134  2568 4692 10134  158 5142 10135  2568 5142 10135  2019 4949 10136  2019 5856 10136  3517 8919 12814  1589 8919 10137  6379 7917 10138  930 7917 10138  283 6379 10139  2986 6379 10139  3826 9406 10140  865 9406 10140  2987 7895 10141  15 7895 10141  3962 12332 13232  271 12332 13232  2572 5163 11359  2570 5163 10143  1233 4796 10144  4796 10144 10145  3885 8907 10145  2570 10145 14319  2747 5804 10146  1473 5804 10146  1952 10834 14653  1952 4562 10147  4334 10148 10149  367 4334 10148  8350 10149 13253  1317 8350 10149  3487 10150 13369  709 10150 10570  3547 8036 10151  929 10151 12713  3371 9973 10152  962 9973 10152  3231 6844 10153  1755 6844 10153  310 9940 10154  310 8710 10154  771 8035 10155  2890 8035 10155  1995 7336 10156  3267 7336 10156  2761 10088 10157  3657 10088 10157  155 5111 10158  2584 5111 10158  1629 6314 14419  1629 10159 14419  981 7391 10160  981 7466 11527  1515 5428 15185  5428 10161 15185  1658 6618 10162  2739 8508 11509  2739 6094 10163  951 6094 10163  667 5681 10164  2595 5681 10164  2595 6027 10165  179 6027 10165  5896 8836 10166  1648 5896 10166  3244 10167 12692  1376 10167 12692  226 5828 10168  5828 10168 13449  3752 8744 10169  1643 8744 10169  1476 4930 13473  204 4930 10170  8335 10171 13591  492 8335 10171  1061 6574 10172  2629 6574 10172  2647 7354 10173  3710 7354 10173  3739 8961 14441  895 8961 10174  3739 7998 14439  2950 10175 14441  3212 5938 10176  922 5938 10176  3800 7561 10177  73 7561 10177  3471 10178 14663  2169 10178 14663  6061 8333 10179  1522 6061 10179  2608 8339 10180  8339 10180 12349  451 10182 13433  10181 10182 13433  2723 10181 10182  1612 6309 10183  3051 6309 10183  2826 10184 14957  4887 13506 14957  719 4864 10185  2826 4864 10185  4863 10186 10191  2826 13506 14957  2600 4862 10187  96 4862 10187  2601 5882 10188  669 5882 10188  2600 5882 10189  1263 10189 10191  669 5882 10190  2600 5882 10190  5882 10189 10191  2601 5882 10191  5221 9670 10192  1579 9670 10192  124 4420 15227  124 10193 15227  1597 5917 13917  795 5917 10194  1163 8812 13390  1163 10195 11538  3592 6852 10196  3011 6852 10196  2270 10197 15563  3900 10197 15563  4639 12089 13474  2778 8861 11431  777 4471 10199  2778 4471 10199  439 6008 14206  1538 6008 10200  2246 6443 10201  2246 7065 10201  2519 9164 10203  1269 9164 10202  9164 10202 10203  2587 10202 10203  2587 4365 10204  1276 4365 10204  1578 7060 10205  4034 7060 10205  1127 10206 11615  5060 10983 11615  6051 10207 13236  3932 10207 13236  398 10208 11741  4374 10208 13639  157 10209 15580  4622 10209 15580  1784 4793 10210  1784 6714 10210  4884 10211 11887  1282 4884 10211  3066 10213 14794  3066 8518 14794  10212 10213 14794  2684 10212 10213  928 7485 13741  928 10214 13741  7055 13877 14008  3427 13877 14008  3521 12633 14328  2972 10216 14328  892 5093 12124  1300 5093 10217  1335 4957 10218  2767 4957 10218  2120 7545 11040  2120 10219 11040  9011 10220 14873  320 9011 10220  2840 5818 10221  1172 5818 10221  1537 6078 10222  2609 6078 10222  2873 6330 10223  1199 6330 10223  263 5297 10383  263 10224 10383  7958 10225 15269  4186 7958 10225  5718 8490 15324  821 5718 10226  929 6682 10227  3388 6682 10227  2412 6847 10228  2412 5017 10228  6570 10229 10880  779 6570 10229  2837 8663 10860  109 10230 13498  3902 7693 10231  2158 7693 10231  765 5183 15127  765 10232 15127  1596 5926 10233  2774 5926 10233  2774 5383 10234  5383 10234 11973  1161 5390 10235  2655 5390 10235  319 5138 10236  2655 5138 10236  1186 4636 10237  4636 10237 10429  2611 4758 10238  1228 4758 10238  335 4758 10239  2611 4758 10239  299 5555 15327  5555 10240 15327  3550 8852 10241  8852 10241 14367  1631 7241 10242  4112 7241 10242  7921 10243 14397  2618 10243 14397  1423 8915 10244  1423 4838 10244  1241 4766 10245  4766 10245 10246  716 4049 10246  4049 13022 14470  4194 13022 14470  284 4194 10247  2859 12690 12691  1341 7951 12145  350 7616 12090  350 10249 12090  3000 5056 10250  1188 5056 10250  4083 5311 11346  222 10712 13533  695 4571 10252  695 4552 10252  4169 7943 10253  3133 7943 10253  3213 7520 10254  7520 10254 13932  907 5934 10255  907 5423 10255  3575 6302 10256  1249 13306 13929  206 4885 10596  1261 10257 11956  4886 10011 10258  1261 4886 10258  1262 11632 14713  2604 5673 10259  2604 4887 10260  336 10427 14191  5762 10261 11238  2592 5762 10261  1989 4633 10262  3024 4633 10262  1457 5462 10263  2812 5462 10263  3199 6726 10264  3899 10264 12445  2526 6218 10265  2526 5019 10265  1892 7378 10266  7378 10266 11349  1364 6601 10267  4411 6601 10267  7037 10268 10270  806 7037 10268  2893 4890 10269  265 4890 10269  7039 10269 10270  1921 7039 10270  818 10271 13878  2944 10271 13878  6357 9596 10272  2475 9596 10272  2063 7179 10273  6399 7179 10273  3185 6113 10274  159 6113 10274  9297 9298 10275  14 9297 10275  1578 6234 10276  3824 6234 10276  3939 10277 14977  1538 10277 14977  4587 8742 10278  628 8742 10278  4721 6273 10279  6273 10279 11799  491 5626 10280  491 6286 10280  1009 7827 10281  3697 11442 12874  4396 8584 12080  3720 8584 12080  967 7787 10283  4067 10283 11673  283 10284 10285  3188 10284 10285  4176 6910 10285  3188 6910 10285  787 4497 10286  2798 4497 10286  3511 10287 14374  46 10287 10547  3497 8901 10288  4407 10288 12088  1230 4964 10289  4964 10289 11100  4655 8965 10290  1188 8965 10290  2900 8671 10291  325 8671 10291  1789 5819 10292  2900 5819 10292  2900 5819 10293  957 5819 10293  3832 10294 12375  3065 10294 12375  8735 10295 13413  2276 8735 10295  807 6690 10296  2933 6690 10296  4135 7980 14812  4240 7980 10297  1912 7487 10298  3641 7487 10298  317 4555 10299  4555 10299 10687  287 10014 14660  287 10300 14660  7121 10301 15624  1584 10301 15624  7121 8168 10302  3055 7121 10302  2121 7294 10303  7294 7544 10303  2468 5160 10304  1319 5160 10304  4901 10305 12317  4901 8616 10305  5142 9848 10306  158 5142 10306  875 9004 10307  3562 10307 10753  2947 8211 10308  2947 5100 10308  4958 10148 10309  367 10148 10309  716 4766 10310  2614 4766 10310  3281 7754 10311  932 7754 10311  3165 9163 10312  1016 9163 10312  2835 5240 10313  268 5240 10313  4322 7147 10314  2106 8229 14851  3937 9687 10315  304 9687 10315  758 5293 10316  2907 5293 10316  387 5120 10317  2619 10319 12753  6284 10318 10319  1598 6284 10318  2619 12752 12753  727 9985 10319  1881 10320 13941  1881 5561 10320  2470 4782 10321  626 4782 10321  1829 7450 10322  2755 7450 10322  5403 10323 12285  5403 10323 11663  7493 10324 12396  1545 7493 10324  880 10325 15603  3188 10325 15603  427 10516 14762  3003 10326 14762  1107 6034 10327  2980 6034 10327  2980 9209 12535  2980 10328 12535  1084 8341 11911  1084 10329 11911  71 6425 12866  1621 6425 10330  4673 8399 14693  4673 10331 14693  2625 5190 10332  1350 5190 10332  325 5190 10333  2625 5190 10333  2624 5250 10334  20 5250 10334  5232 10337 10375  672 5232 10335  672 5232 10336  2623 5232 10336  1338 5231 10337  5231 10337 10338  357 5148 10338  2623 5148 10338  5147 10336 10339  2623 10336 10339  391 5792 10340  2747 5792 10340  720 5155 10341  2627 5155 10341  2627 5155 10342  5155 10342 13860  5966 10343 11747  722 5966 10343  92 7481 10344  3622 7481 10344  592 10346 12512  2751 10346 12318  592 5735 10346  2751 5735 10346  4854 6792 10347  2830 4854 10347  2274 4571 10348  2819 4571 10348  4514 7166 10349  1459 10349 11493  1226 8241 10350  4572 8241 10350  1871 7342 10351  2646 7342 10351  3749 10351 10352  2646 10351 10352  4902 9709 10353  104 4902 10353  1967 7353 10354  2876 10354 10355  7353 10354 10355  761 7353 10355  4333 12670 13233  781 8448 12886  7471 10357 14106  2630 7471 10357  2776 5690 10358  1107 5690 10358  2319 5739 10359  5525 14336 14434  5440 10360 10865  3079 13276 13779  538 7394 10361  2952 7394 10361  2634 5253 10362  359 5253 10362  1348 5253 10363  2634 5253 10363  670 5374 10364  2634 5374 10364  633 6480 13687  633 5577 10365  3656 6719 10366  1727 6719 10366  5255 9627 10367  2635 9627 10367  3802 10368 11985  7604 11985 13853  1148 4282 10369  1148 4747 10369  2435 10370 10544  4104 10545 15612  4576 10371 12018  2954 4576 10371  4130 10371 14130  2954 10371 14130  780 7352 10373  2954 7352 10373  7352 10372 10374  2955 7352 10374  5232 10335 10375  2624 10335 10375  6271 13286 14811  829 10376 13286  49 5576 10377  49 6065 10377  9096 10378 12494  755 9096 10378  2867 7611 10379  178 10379 10494  3035 5691 13512  3035 10380 13512  2667 10381 10506  191 4521 10479  403 11503 13102  403 4351 10382  1943 8724 10383  4476 8724 10383  566 10384 14828  566 10384 12577  5206 10360 10385  5206 10385 13779  5252 10385 10386  1348 5252 10386  1347 5256 10387  5254 10387 10400  2637 5254 10388  5254 10388 10425  54 5256 10389  2637 5256 10389  1282 4939 15540  722 4939 10390  3837 8065 13484  3837 10391 11949  333 8744 10392  3752 8744 10392  4192 7382 15728  2769 10393 15727  2769 5295 10394  1468 5295 10394  2854 5295 11380  2769 5295 10395  3032 8347 10396  4012 8347 10396  702 10397 10493  702 5040 10397  1280 4991 10398  2385 4991 10398  2642 5257 10399  359 5257 10399  1347 5257 10400  2642 5257 10400  5253 10399 10401  1348 5253 10401  1791 5542 10402  1980 5542 10402  5267 9830 10403  2659 5267 10403  2659 5267 10404  185 5267 10404  3248 5045 14125  2659 5045 10405  9214 10406 13987  1287 10406 13987  6001 10037 10407  2645 10037 10407  5479 10119 10408  380 10119 10408  485 6838 10410  2802 6838 10410  5394 14138 14324  485 14138 14324  682 10411 10529  1434 4308 10519  3328 12868 13913  5047 12868 13913  3676 13789 14570  1157 9386 13789  1027 7734 10414  2773 7734 10414  4277 9195 10415  3227 9195 10415  2706 10416 10535  683 5255 10536  562 6058 10417  2768 6058 10417  221 8013 10418  4089 10418 10999  4557 8512 10419  2043 8512 10419  2804 9672 10421  2804 10420 10421  57 10421 10492  1212 4103 10422  4103 15687 15688  4628 10422 10423  2783 10422 10423  1366 5375 10424  2783 5375 10424  5252 10385 10425  671 10385 10425  3903 9491 10426  510 7005 13156  4863 10191 10427  2601 10191 10427  3162 6650 10428  1838 6650 10428  4539 10235 10429  2655 10235 10429  1350 9311 10430  5176 10430 11587  4400 10431 10604  1840 4400 10431  5813 8831 10432  59 5813 10432  423 5535 10433  5535 10433 13725  7974 10434 15217  2662 10434 15217  3382 5489 12668  405 5489 10435  1705 5196 10436  368 5196 10436  2671 5176 10437  677 5176 10437  678 4636 10438  2675 4636 10438  30 4541 10439  2684 4541 10439  2676 4539 10440  678 4539 10440  4209 9404 13999  543 4209 10441  3772 8938 10442  674 12272 12930  675 5230 10443  2672 10580 10677  5075 9774 10444  1787 9774 10444  9249 10445 15560  44 9249 10445  8491 8654 10446  1666 8491 10446  7374 9502 10447  10 9502 10447  529 5980 10448  2393 12552 14068  189 5802 10449  2281 10449 14711  111 5726 10450  2270 10450 15563  684 5276 10451  1388 5276 10451  1352 5280 13725  5280 10452 12704  706 5218 10453  2687 5279 11468  1339 5205 11716  189 5205 10454  1352 5197 12704  547 5197 10455  5192 10456 10933  153 5192 10456  5162 8090 10457  2030 5162 10457  584 5070 10458  2685 5070 10458  5069 9728 10459  5 5069 10459  2678 5046 10460  52 5046 10460  4624 9531 10461  2668 9531 10461  2668 5022 10462  697 5022 10462  1287 5021 10584  111 5021 10463  9714 10464 12800  705 9714 10464  7622 9329 10465  1992 7622 10465  4875 8245 10466  58 4875 10466  5260 9368 10467  2669 5260 10467  4992 9830 10468  676 4992 10468  2681 4973 10469  529 4973 10469  190 4837 10470  1558 4837 10470  4834 8896 10471  2683 8896 10471  2683 4833 10472  696 4833 10472  2199 5174 10473  187 5174 10473  4735 7344 14422  184 4735 10474  686 4733 10475  2398 4733 10475  2730 4677 10476  163 4677 10476  2710 4551 10477  4551 10477 12243  186 4551 10478  2710 4551 10478  4521 10381 10479  2667 10381 10479  13 5109 10480  2718 5109 10480  4489 8727 10481  13 8727 10481  2691 7775 14416  2691 10482 14416  4433 7679 10483  2673 7679 10483  2711 4389 10484  118 4389 10484  4188 7323 13854  140 9088 14666  4180 8924 10486  1502 8924 10486  187 4167 10487  2713 4167 10487  4161 8738 10488  2677 8738 10488  4152 9550 10489  148 9550 10489  4150 13667 14000  573 10515 14976  4138 8090 10491  31 8090 10491  10420 10421 10492  2530 10420 10492  4125 10397 10493  2678 4125 10493  7611 10379 10494  2408 7611 10494  4045 10379 10495  178 10379 10495  4018 9835 10496  2679 4018 10496  3979 13073 14509  2538 10497 14508  3902 7011 15413  161 10231 15414  2709 6677 10499  183 8848 12696  1466 8173 11281  182 8222 12114  2688 7469 14884  2688 10501 14884  372 7521 15427  372 10502 15427  707 5727 10503  2575 5727 10503  2913 7670 10689  7 10504 10691  10505 15645 15646  2660 10505 15646  5071 10381 10506  681 5071 10506  161 5133 10507  2726 5133 10507  185 5267 10508  2670 5267 10508  5261 10404 10509  185 10404 10509  6872 8465 10510  145 6872 10510  7826 8291 10511  687 8291 10511  4777 6345 15108  1488 6345 15108  5041 8988 10513  1427 5041 10513  5887 9088 10514  1835 5887 10514  5845 9720 10515  2199 9720 10515  10326 10516 14762  2621 10326 10516  6370 9841 10517  685 6370 10517  448 5312 10518  2303 5312 10518  4308 10411 10519  682 10411 10519  4062 13983 13984  689 10520 13985  2700 5259 10521  688 5259 10521  2697 5135 10522  448 5135 10522  5134 9934 10523  2697 9934 10523  2698 4482 10524  6 10523 13638  2009 4368 12888  2698 4368 10525  4040 13793 13794  4040 10526 10527  1123 4039 10527  2699 10527 10528  4039 10527 10528  690 4039 10528  4348 10411 10529  2479 9217 15680  6887 9793 10530  2696 9793 10530  6400 8249 10531  691 8249 10531  7630 10532 10737  164 7630 10532  7109 10533 14617  56 7109 10533  2707 5351 10534  5351 10534 10733  5256 10416 10535  54 5256 10535  5255 10416 10536  2706 10416 10536  7316 10537 15740  2693 10537 15740  2695 5237 10538  121 5237 10538  5171 10056 10539  2707 10056 10539  5060 11365 11615  5060 10540 10984  2694 6006 12716  2694 10541 12716  2943 4469 12009  4469 10542 13061  2712 6347 11451  35 4397 10543  4312 10287 10544  46 10287 10544  4104 10370 10545  2435 10370 10545  3790 13733 13734  2068 9841 13733  3511 9082 10547  2701 9082 10547  5277 10389 10548  5277 10548 13622  3461 6430 13252  2117 10017 13254  3387 11220 12805  2692 6647 11220  1351 5243 13622  680 5243 10551  1388 5649 10552  169 10552 11842  9633 10553 11530  686 10553 11530  7242 10554 15525  2708 7242 10554  7171 9969 10555  2657 7171 10555  7040 10556 13397  2709 7040 10556  638 6111 10557  2724 6111 10557  2703 5717 10558  694 5717 10558  585 5044 10559  2717 5044 10559  5129 9750 10560  2719 5129 10560  2716 5035 10561  704 5035 10561  4738 10150 10562  709 10150 10562  695 4571 10563  2274 4571 10563  2710 4552 10564  695 4552 10564  5219 10029 10565  638 10029 10565  3863 7726 15274  3863 10566 12723  3686 14269 14270  2722 10567 14271  3586 13112 13899  428 10568 13900  3491 12816 15152  2711 10569 12816  3487 9298 10570  1735 9298 10570  5684 8497 10571  2732 5684 10571  7678 10572 12887  18 10572 12887  7502 8004 10573  123 8004 10573  162 7064 10574  7064 10574 14486  6942 10575 13099  2730 6942 10575  6906 10576 13619  584 6906 10576  4846 5860 14403  196 5860 10577  5280 10452 10578  2 10452 10578  20 5250 10579  2671 5250 10579  5241 10334 10580  20 10334 10580  2727 8305 13341  706 5239 10581  1427 5040 10582  702 5040 10582  697 5023 10583  5023 10583 10584  5021 10463 10584  2729 10463 10584  2822 4941 13185  51 4941 10585  1201 4707 12879  197 4707 10586  123 4665 10587  2661 4665 10587  8114 10588 14437  1602 10588 14437  6689 10589 11221  2001 10589 11221  711 10590 15643  711 6689 15643  3519 10835 12769  476 6414 10835  3470 8465 10592  2042 8465 10592  3229 12599 14017  181 11392 12599  476 6414 10594  6414 10594 13434  4451 10024 10595  2664 10024 10595  4885 10257 10596  2320 10257 10596  3093 11653 11781  4993 11653 11926  5079 5505 15689  1327 5079 10598  2590 7012 13616  2590 5744 10599  4234 11023 14963  4234 8300 13898  421 4536 10601  2733 4536 10601  8443 9050 10602  2327 9050 10602  4129 9797 13098  1147 9797 13098  2743 6541 10604  1955 6541 10604  3567 7461 15142  3567 10605 15142  2345 9235 10606  2345 4516 10606  2036 6561 10607  4221 10607 11952  1616 6178 10608  2912 6178 10608  6089 10609 15135  2937 6089 10609  6663 10610 11183  2937 10610 11183  4687 11656 14499  888 4687 10611  6819 8990 10612  1106 8990 10612  2281 10613 14711  4033 10613 14711  857 6937 10614  3382 6937 10614  2827 7794 12102  2827 10615 12102  2827 7794 10616  837 7794 10616  2827 10615 15193  2827 10617 15193  1103 8693 12645  3464 12678 14236  3429 7551 10619  3997 7551 10619  1750 6901 10620  2871 6901 10620  395 10621 15666  395 5564 10621  2744 5373 10622  1368 5373 10622  60 5373 10623  2744 5373 10623  4802 10623 10624  2744 10623 10624  3085 10777 14199  1153 4425 10625  1963 4578 10626  3876 11206 13401  1273 7902 10627  3528 7902 10627  1751 6086 10628  2797 6086 10628  1479 5776 10629  2758 5776 10629  3351 8019 10630  939 8019 10630  1468 5295 10631  2854 5295 10631  2854 10631 15097  2854 10632 15097  2892 5998 10633  5998 10633 14263  731 6083 10634  6083 10634 10636  2790 6081 10635  88 6081 10635  1528 6081 10636  2790 6081 10636  1462 10637 12406  1462 5795 10637  1515 4599 10638  1420 11087 12503  991 7562 10639  4915 7562 10639  469 4962 12215  1298 4962 10640  3233 10641 15675  338 10641 15675  3285 7890 10642  242 7890 10642  1374 10643 15228  1374 7338 10643  872 7888 10644  3285 7888 10644  979 11282 14549  3298 6926 11282  1209 15536 15554  1843 4679 10693  1475 5763 10647  2831 5763 10647  2748 6019 10648  1553 6019 10648  6957 10649 10650  1882 6957 10649  4477 10648 10650  513 4477 10650  411 5994 10651  2785 5994 10651  1299 4988 10652  2777 7208 11689  2777 7208 10653  1894 7208 10653  2835 5417 14560  2921 5417 10654  2921 9566 10655  9566 10655 12194  2921 5417 10656  268 5417 10656  2852 10657 13370  5839 11000 13370  2617 9822 10659  91 9822 10658  9822 10658 10659  2890 10658 10659  4287 10660 13648  1519 4287 10660  2765 8268 10661  248 8268 10661  2943 9305 10662  3154 9305 10662  9862 10663 12058  2805 9862 10663  5076 10109 10664  1343 10109 10664  1901 4893 10665  4893 10665 10666  7790 10417 10666  2768 10417 10666  3620 7256 10667  2005 7256 10667  3275 6338 10668  1643 6338 10668  2762 7893 10669  440 12382 15338  4507 10669 10670  1189 4507 10670  2931 4661 10671  1257 4661 10671  4440 10672 12319  3247 7782 11044  6292 13914 13954  3638 13914 13954  4324 10674 11991  343 10674 11991  1077 7118 10675  4050 11419 13023  8548 10676 11234  2172 8548 10676  2672 10443 10677  5230 10443 10677  3843 9261 10678  1905 9261 10678  2127 9109 11826  2127 7451 10679  1897 6699 10680  1897 4865 10680  4646 9614 10681  1144 9614 10681  2828 7058 10682  1956 7058 10682  1419 5536 10683  2828 5536 10683  4445 7685 12669  3528 7685 12669  6729 7376 10685  1636 6729 10685  6295 10685 10686  778 6295 10686  4554 9472 10687  2414 9472 10687  1742 6223 10688  5807 6223 10688  10504 10689 10691  2575 10504 10689  6609 7670 10690  794 6609 10690  4624 8610 10691  7 4624 10691  2175 6064 10692  3096 6064 10692  1843 10646 10693  4725 10646 10693  2870 5861 10694  541 5861 10694  2870 6423 10695  1745 6423 10695  4888 10696 14230  4888 10696 13859  3044 5848 11800  5848 10697 11800  1419 5537 15325  1419 10698 15325  2258 10699 15513  6876 10699 15513  2205 10700 11365  2205 6440 10700  745 5958 10701  2834 5958 10701  4827 8860 14102  316 8860 14102  9118 10703 11767  992 9118 10703  1898 7027 10704  1898 7028 10704  1833 6676 10705  3090 6676 10705  3090 6520 10706  586 6520 10706  1275 15446 15447  4483 7991 10707  5985 9085 10708  2027 9085 10708  4630 9112 10709  615 9112 10709  3532 6120 10710  1561 6120 10710  3376 10711 10912  3376 10711 11164  2535 5698 10712  222 5698 10712  3697 13193 15724  2121 10713 11442  1232 4802 15631  1232 10714 15631  2868 5982 10715  1271 5982 10715  1389 5450 10716  5450 10716 10783  377 12197 14518  377 5360 12197  2571 9964 10718  4586 9964 10718  1017 9638 10719  3218 9638 10719  305 8379 11520  305 10720 11520  3218 7610 10721  865 7610 10721  3174 10376 10722  829 10376 10722  2256 6250 10723  1135 6250 10723  3409 10724 10725  2256 10724 10725  3410 8651 10725  2256 8651 10725  1794 5954 10726  4024 5954 10726  2903 5984 10727  1609 5984 10727  1154 5984 10728  2903 5984 10728  3049 10729 11053  4496 11053 11054  3125 4582 12110  1748 4582 10730  1301 5006 10731  2533 5006 10731  5170 10732 14626  2815 5170 10732  2815 7699 12240  684 5276 10733  2254 8540 13678  2254 10734 13678  1385 10113 10735  4116 10113 10735  1184 8000 10736  3771 8000 10736  2398 4733 10737  4733 10737 10738  2846 10738 15628  4407 10739 15628  3499 7630 12544  2846 7630 12544  5251 10849 11067  1348 5251 10740  1022 7324 11131  1857 7324 10741  1668 6653 10742  3453 6653 10742  5690 9221 10743  2776 5690 10743  331 11299 15564  3189 5146 11299  3524 10176 10745  922 10176 10745  374 10746 11648  3209 10746 11648  2648 6042 10747  5373 10747 11683  1446 4449 10748  4141 6734 14035  3388 10749 10883  3388 6682 10749  4172 8074 10750  1085 8074 10750  4000 6439 10751  3255 6439 10751  3297 5166 10752  1071 5166 10752  875 6221 10753  3297 6221 10753  4107 8962 10754  4107 4712 10754  5333 10755 15613  1375 5333 10755  3122 8394 10756  4187 10756 11850  822 7198 10757  7198 7278 10757  4317 8116 10758  1913 8116 10758  3777 9757 10759  1530 9757 10759  1266 11495 12021  2477 8544 10760  1551 5419 10761  1863 5419 10761  4983 10762 15144  2491 9451 13122  8844 10763 14687  2781 8844 10763  4696 13645 13646  1217 4696 10764  3016 11604 14039  3692 11418 12245  950 9095 10766  3874 13717 13718  327 4523 10767  2838 4523 10767  2838 4672 10768  1196 4672 10768  744 4672 10769  2838 4672 10769  4371 11247 11858  4371 7877 10770  202 6367 10771  3660 6367 10771  4601 10260 10772  336 10260 10772  3054 6168 11883  5095 7179 11263  2912 6178 10774  794 6178 10774  6411 12721 14086  214 12721 14086  2140 8307 10776  4963 8307 10776  4425 10625 14199  3085 10625 14199  6818 14117 15328  1079 10778 14117  1826 6419 10779  3891 10779 15290  2976 6000 10780  1285 6000 10780  3051 7538 10781  3051 6309 10781  4300 9997 10782  661 9997 10782  4314 8095 10783  2213 8095 10783  3677 10784 14480  1687 10784 10941  2862 7741 14091  2862 10785 14091  8826 10785 10786  2862 10785 10786  3838 8298 10787  274 8298 10787  2770 5374 10788  670 5374 10788  884 8972 10789  3325 8972 10789  630 5988 10790  5982 10790 10927  724 6579 10791  6579 10791 11515  2984 14205 14596  2984 10792 14596  5668 10792 10793  2984 10792 10793  3114 6659 11881  3114 10794 11881  341 9780 10795  4553 9780 10795  2659 4954 10796  2659 5045 10796  2808 6254 10797  339 10797 11008  2808 7104 10798  7104 10798 12489  1463 8636 12352  2807 5688 10799  2807 5688 10800  741 5688 10800  3233 4850 15675  2807 4850 10801  1838 10802 14233  1838 4690 10802  3025 8273 10803  2128 8273 10803  274 10787 13118  274 10804 13118  1241 10853 11117  1241 4764 11117  2679 4018 10806  1105 4018 10806  3171 14336 14434  3171 10808 14336  797 6718 10808  2998 6718 10808  2297 8200 10809  2297 5826 10809  2301 4621 11228  4621 11228 12097  3183 4685 10811  1156 7685 13935  3183 6547 10812  891 6547 10812  3439 8971 11904  3439 10813 11904  454 10815 11294  4078 10815 11294  3439 10814 10815  454 10815 13488  2788 5356 10816  328 5356 10816  1563 5356 10817  2788 5356 10817  2791 6126 10818  6126 10818 11525  1220 5850 10819  3640 5850 10819  4559 8681 10820  2382 8681 10820  772 5487 14317  1418 5487 10821  1259 9708 10822  4584 9708 10822  1975 5068 10823  5068 10823 15637  362 9401 10824  3129 10824 11784  2821 4512 10825  609 4512 10825  2821 5465 10826  1164 5465 10826  5436 10825 10827  1605 5436 10827  1574 6225 11833  1574 10828 11833  2093 5653 10829  3347 5653 10829  4064 8964 10830  350 8964 10830  3382 10831 12668  2430 10831 12668  5654 10658 10832  91 10658 10832  2989 6163 10833  221 6163 10833  3720 10282 14653  3720 10834 14653  476 10591 10835  10591 10835 12769  2981 5748 10836  2981 6034 10836  2198 5090 10837  5090 6895 10837  9057 10838 11621  74 9057 10838  5038 10839 10840  147 5038 10839  2806 8417 14215  2806 10840 14215  1894 7207 10841  2814 10841 10842  7207 10841 10842  1173 7207 10842  7330 7779 10843  742 7779 10843  4828 9030 10844  2802 4828 10844  5750 11709 13610  5750 10845 11709  1084 8341 10846  4276 8341 10846  1309 8468 10847  3147 8468 10847  3896 9087 10848  2987 7895 14795  5251 10386 10849  180 10849 11067  2841 10850 15597  2841 10852 15597  3089 6288 15589  2841 6288 10851  4876 10852 15597  1281 4876 10852  2951 5948 10853  1241 5948 10853  3177 10854 12347  851 10854 12347  3131 7034 10855  7034 10855 15660  1873 6067 10856  3131 6067 10856  3966 10857 15483  3966 12442 13125  646 9586 10858  9586 10858 14503  2763 4894 10859  1307 4894 10859  1092 7401 10860  3922 7401 10860  311 5630 10861  3473 5630 10861  2944 8424 10862  234 8424 10862  1636 6293 10863  2813 6293 10863  2813 5440 10864  180 5440 10864  3789 9626 10865  1340 9763 12984  3158 6524 10866  826 6524 10866  5467 10867 14195  5833 10867 14195  3550 10868 15377  1256 10868 15377  3019 4663 10869  517 4663 10869  1118 8659 10870  3019 8659 10870  2830 6633 10871  1118 6633 10871  1224 5702 10872  3603 5702 10872  811 6975 10873  811 5777 10873  2631 8432 10874  5540 8432 10874  530 5388 10875  2810 5388 10875  2810 5575 10876  5575 10876 15280  2810 5388 10877  1497 5388 10877  4339 8716 10878  2643 8716 10878  139 5827 10879  4054 5827 10879  2809 7631 10880  1733 7631 10880  1164 5465 10881  2809 5465 10881  332 7197 10882  3340 7197 10882  3388 10126 12884  3388 10883 12884  2811 5927 10884  1140 5927 10884  2811 6600 10885  753 6600 10885  3102 5320 10886  1480 5320 10886  3736 13901 14872  847 10887 13901  4672 6877 10888  1887 6877 10888  381 5647 10889  5647 10889 13072  2833 5910 10890  1491 5910 10890  993 8559 10891  2924 8559 10891  189 5802 10892  189 5205 10892  6108 10686 10893  778 10686 10893  2996 5273 10894  2253 5273 10894  2239 4920 13048  4920 10895 11013  3119 4928 10896  1211 4928 10896  2819 4571 10897  1524 4571 10897  3345 5736 12371  2031 5736 10898  795 6764 14266  6764 10899 14266  5919 10286 10900  2798 10286 10900  9314 10901 12737  1267 10901 12737  4813 10901 10902  4813 10902 11173  2863 4531 10903  832 10903 11708  4560 9498 10904  1171 9498 10904  1869 6778 10905  3281 6778 10905  3298 6926 14410  2816 6926 10906  2816 4982 10907  1626 4982 10907  1268 5815 10908  1268 4667 10908  396 5004 10909  396 6608 10909  3882 9936 10910  1381 9936 10910  2820 5584 10911  5583 5584 10911  3435 6977 10912  848 6977 10912  3101 7945 10913  2103 7945 10913  918 5464 10914  2812 5464 10914  786 7407 10915  2547 4423 13332  3127 5438 10916  5438 8554 10916  1156 10811 10917  4685 10811 10917  1392 4913 10918  2946 4913 10918  281 6704 10919  2946 6704 10919  1020 10920 14983  10920 12988 14983  3280 9197 12944  3280 10921 12944  3368 5944 10922  131 5944 10922  3543 7787 12621  3543 12003 12004  588 4979 10924  2259 4979 10924  8254 10925 11785  2155 8254 10925  1271 5982 10926  2832 5982 10926  630 5346 10927  2832 5346 10927  5345 8407 10928  2832 8407 10928  1011 5700 10929  2989 5700 10929  2989 5700 10930  1640 5700 10930  2840 10221 10931  4670 10221 10931  3675 10858 10932  1420 4643 11133  8639 11888 15419  5192 10933 15446  367 5211 10934  367 4334 10934  371 7707 10935  3509 7707 10935  2738 5756 10936  830 5756 10936  453 5099 10937  2542 5099 10937  3918 11329 13351  3918 10938 11329  4693 9684 10939  210 9684 10939  2951 5549 10940  1514 5549 10940  2203 12061 13334  2203 10941 12061  3951 6950 14351  814 11001 15475  2851 8746 12851  2851 10943 12851  1402 5458 10944  3241 5458 10944  3119 7845 10945  2880 7845 10945  4431 9995 11264  1814 4431 10946  2498 10947 15684  4290 10947 15684  4395 8596 10948  308 8596 10948  1622 6020 13082  254 6020 10949  1057 10950 13444  1057 12126 13165  365 7328 10951  2855 7329 12492  8936 10952 12101  2416 8936 10952  3960 9033 10953  2149 9033 10953  580 8689 10954  3892 8689 10954  1390 5344 10955  1390 5346 10955  4683 6648 10956  4683 10956 11331  3872 7650 11006  1954 7650 11006  1798 5670 10958  5670 6289 10958  1242 4832 10959  1242 6806 10959  298 6154 10960  3688 6154 10960  3144 7001 10961  1874 7001 10961  39 5106 10962  5106 10962 10964  3981 13693 15686  1753 14817 15685  2945 10964 15686  10964 13693 15686  932 7362 13631  932 10965 13631  987 6965 10966  4190 6965 10966  5971 10897 14224  1524 5971 10967  524 7857 10968  3005 7857 10968  4248 7632 10969  3238 7632 10969  2346 7993 10970  3814 7599 15006  2988 4541 10971  30 4541 10971  894 10972 14370  2988 10972 14370  1253 4541 10973  2988 4541 10973  1638 8031 10974  4072 8031 10974  1876 7260 15743  1876 10975 15743  5104 6611 15322  3245 5104 10976  1104 10977 15742  3245 10977 15742  1260 5181 10978  2842 5181 10978  4065 9971 10979  2138 9971 10979  2961 6331 10980  1999 6331 10980  92 6928 10981  2961 6928 10981  871 5098 11710  5098 10982 11710  1127 10983 15343  6585 11025 15343  7809 10984 11603  643 7809 10984  2823 8954 14383  2823 10985 14383  1423 4503 10986  3110 4503 10986  2230 5220 10987  618 4955 11298  3530 7721 10988  199 7721 10988  1960 8667 13181  1960 6632 10989  2839 8144 10990  8144 10990 13489  1569 6155 10991  6155 10991 10993  5528 10170 12924  204 10170 12924  759 6200 10993  2839 6200 10993  2239 4918 10994  1264 4918 10994  373 8495 12722  3321 9178 11010  1200 8514 10996  4212 8514 10996  2896 6138 10997  730 6138 10997  9706 10998 12859  2896 9706 10998  221 10418 10999  221 6163 10999  1516 5840 11000  5840 11000 11001  11001 13970 15475  2852 11001 13970  4757 8653 11002  1227 8653 11002  1321 9376 11003  4019 9376 11003  648 9837 11004  5209 9837 11004  1803 7090 11005  5057 6395 13864  561 9318 11401  3872 9318 11401  2107 4171 11007  871 11007 12236  6254 10797 11008  2884 6254 11008  2884 6075 11009  751 6075 11009  3321 10995 11010  5108 10995 11010  1569 6156 11011  2844 6156 11011  2844 4919 11012  761 4919 11012  1264 4919 11013  2844 4919 11013  2850 5212 11014  367 5212 11014  2850 5209 11015  5209 11015 12111  2850 5211 11016  1336 5211 11016  142 4745 11017  4336 12216 12217  3655 7212 11018  918 7212 11018  1761 5788 11019  5609 5788 11019  3735 11020 13260  1019 11020 13260  2782 5297 11021  263 5297 11021  3353 7081 11022  77 7081 11022  1507 5918 11023  3050 5918 11023  4699 6874 13329  2902 4699 13329  1127 6327 11025  2902 6327 11025  6326 11024 11026  2902 11024 11026  2717 5044 11027  1315 5044 11027  1038 5078 11028  4114 5078 11028  3405 8306 11029  752 8306 11029  2849 10896 11030  1211 10896 11030  4869 9669 11031  1271 4869 11031  751 5996 11032  2857 5996 11032  2857 5996 11033  1535 5996 11033  1013 7623 11034  5532 7623 11034  4155 11035 15703  4155 11035 11385  3204 8593 11036  4466 12773 15168  2878 6285 11037  6285 11037 12169  345 4860 11038  2878 4860 11038  647 5348 11039  4755 5348 11039  3668 11040 11041  3667 11040 11041  968 8184 11041  3667 8184 11041  2322 9740 11042  4631 9740 11042  4456 7070 11043  4456 6539 11043  3247 10672 11044  1168 10672 11044  4064 7801 11045  971 7801 11045  8830 11046 11047  896 8830 11046  6211 8145 14820  2643 6211 11047  813 5531 11048  2882 8929 14349  2901 9252 12421  2901 11049 12421  4376 7337 13280  4376 11050 13280  3331 10048 11051  93 10048 11051  1265 10063 11052  1265 4798 11052  5264 10729 11053  1379 5264 11053  159 6255 11054  3049 6255 11054  3049 6255 11055  6255 11055 13020  5467 11056 14195  859 5467 11056  4834 8896 11057  2654 4834 11057  723 5061 13335  1243 5061 11058  462 7558 11059  4144 7558 11059  6490 8948 11060  2542 8948 11060  2301 9833 11061  4481 9833 11061  9569 11062 13959  1277 11062 13959  569 10850 11063  6288 10850 11063  3776 8583 11064  348 8583 11064  1109 9058 12023  1109 11065 12023  3212 5938 11066  3212 8270 11066  5251 10740 11067  2770 10740 11067  888 4687 14154  1234 11074 15136  2091 7982 11069  3401 7982 11069  1208 6970 11070  4091 6970 11070  3886 7843 13810  3886 11071 13810  1685 6696 11072  1685 6694 11072  2500 9076 11073  9076 11073 11074  2927 11075 15137  2927 11074 15137  7894 11075 15137  1225 7894 11075  1274 11076 12289  4239 11839 12289  171 9384 11077  5092 9384 11077  2998 6718 11078  1600 6718 11078  4396 11079 11080  2906 11079 11080  1205 4645 11080  2906 4645 11080  641 5875 11081  5875 11081 13989  1422 5415 11082  5415 11082 11084  4240 8679 11083  218 8679 11083  4260 9096 11084  2866 11083 12566  6997 8415 11085  2210 8415 11085  4732 11086 12937  1969 9747 15443  4599 12503 12596  4597 11087 12503  3056 8148 11088  8148 11088 12979  8294 11088 11089  2272 8294 11089  970 11090 15172  3111 11090 15172  3002 9819 11091  3002 8572 11091  143 5158 11092  143 5959 11092  5191 10332 11093  672 5191 11093  1109 6219 11094  5121 6219 11094  282 6373 11095  3632 6373 11095  1295 4943 11096  4943 11096 13830  4060 6782 11097  1765 6782 11097  2449 7694 14523  2449 11098 14523  2091 6090 11099  110 6090 11099  2908 9622 11574  2908 11100 11574  5331 8928 11101  1542 5331 11101  4032 11513 12784  879 11102 11513  3289 8479 11103  1895 8479 11103  697 5022 11104  2728 5022 11104  740 8142 11105  740 6112 11105  2869 8050 11106  583 8050 11106  2869 5661 11107  1319 5661 11107  2161 8465 11108  3470 8465 11108  2957 11109 11111  938 11109 11111  3594 6428 11110  1690 6428 11110  8487 13762 14073  938 8487 13762  1254 8814 15671  2262 8814 11112  2462 9380 11113  9380 11113 15671  294 6892 11114  3372 6892 11114  1873 4613 11115  446 12528 14431  1122 4288 11116  2057 11116 12830  4764 10805 11117  3035 10805 11117  3035 5691 11118  546 8066 13223  5329 15096 15097  3846 11119 14969  3490 7078 11120  279 7078 11120  3421 11121 14435  3421 11547 15418  2074 5999 12481  5999 11122 12481  2962 6804 11123  425 6804 11123  136 6846 11124  2891 6846 11124  2891 5210 11125  1336 5210 11125  4189 7639 12654  1086 7639 12654  2760 6330 11446  2873 6330 11127  3027 8071 13492  3027 11128 13492  854 7712 11129  3047 7712 11129  2904 6073 11130  1001 6073 11130  7324 10741 11131  2904 10741 11131  3754 10164 11132  2595 10164 11132  1420 10932 11133  3675 10932 11133  4591 11134 15471  654 11134 15471  9397 11135 12911  3092 9397 11135  2942 9481 11136  9481 11136 11832  1113 11137 15353  2942 11137 15353  10368 11137 11138  2942 11137 11138  3023 6624 11139  545 6624 11139  1096 4179 14321  1096 11140 14321  1541 5959 11141  3023 5959 11141  3451 9216 11142  1556 9216 11142  3261 5342 11143  1410 5342 11143  759 6155 11144  2874 6155 11144  7132 10992 11145  204 10992 11145  4542 8264 11146  21 11146 12950  2878 6285 11147  2878 4921 11147  3622 7929 11148  4427 11148 14124  5608 10791 11149  3038 10791 11149  4823 11795 14004  5392 11795 14004  1213 5738 15305  1213 11151 15305  346 4464 11152  3043 4464 11152  3043 4464 11153  1215 4464 11153  1022 11131 14671  2904 11131 11154  3238 7632 11155  1014 7632 11155  439 11156 11535  439 6008 11535  2922 4997 11157  1394 4997 11157  2273 4997 12979  2922 4997 11158  4879 11158 11159  2922 11158 11159  435 11160 14540  435 10501 14540  4285 11240 12819  300 11161 12030  4030 11162 15398  1398 5286 11804  3878 6574 11163  1061 6574 11163  898 5974 11164  2898 5975 12452  3832 5391 12375  1201 5391 11165  5150 8863 11166  443 5150 11166  2236 5734 11167  2236 8754 11569  2830 10871 11168  5032 10871 11168  611 4588 15533  1174 4588 11169  2981 8315 11170  893 8315 11170  2888 6065 11171  49 6065 11171  2888 4412 11172  2185 4412 11172  8250 11172 11173  765 8250 11173  1099 5742 11174  3062 5742 11174  96 4862 11175  2646 4862 11175  730 5752 11176  3152 5752 11176  9089 11177 11178  1070 9089 11177  2895 8354 11178  2894 8354 11178  2407 8834 11179  5415 8834 11179  1779 6010 11180  2994 6010 11180  3150 7304 11408  3150 11181 11408  417 9106 15387  417 11182 15387  3553 10609 11183  2937 10609 11183  2095 6822 11184  5612 6822 11184  1909 6516 11185  4033 6516 11185  3195 9036 11186  517 9036 11186  1095 4176 11187  3195 4176 11187  1856 6929 11188  6162 11188 14375  1717 8876 11189  3994 8876 11189  4209 10441 11190  2360 10441 11190  3206 7643 11191  1571 7643 11191  352 5884 11192  352 7753 11192  4705 10818 11193  731 10818 11193  3825 8670 11194  1171 8670 11194  3243 9145 11195  4250 11195 11567  59 5813 11196  3045 5813 11196  3045 5813 11197  1704 5813 11197  3554 4708 11198  664 4708 11198  3554 7045 11199  1383 7045 11199  4755 9880 11200  2917 4755 11200  2869 11107 11201  5195 11107 11201  3482 9437 11202  2916 9437 11202  4026 7068 11203  805 7068 11203  3069 5832 11204  804 5832 11204  3069 6762 11205  15 6762 11205  8063 11206 12650  2934 8063 11206  3876 11206 11207  2934 11206 11207  3009 4531 11208  1807 5900 12762  847 6911 11209  4006 6911 11209  1166 6487 11210  3271 6487 11210  551 7154 11211  3271 7154 11211  508 4495 11212  3063 4495 11212  3063 5817 11213  5817 11213 13144  3063 4495 11214  1258 4495 11214  5500 11215 14655  102 7000 11215  1440 5657 11216  2752 5657 11216  1313 9264 11217  5244 9264 11217  6007 6239 11218  2073 6239 11218  1012 9649 14027  1012 11219 14027  2692 10550 11220  10550 11220 12805  3486 8865 11221  2001 8865 11221  1379 5328 11222  3225 5328 11222  2849 11030 11223  4346 11030 11223  2315 5783 11224  3355 5783 11224  2516 4980 12728  2448 11225 14251  3332 6458 11226  1316 6458 11226  4257 9801 11227  2569 9801 11227  984 10810 12097  984 11228 12097  2764 5990 11229  2764 5927 11229  2835 7215 11230  4035 7215 11230  3458 7698 11546  3458 11231 11546  4409 11232 12538  418 4909 11232  4564 9816 11233  2510 9816 11233  3282 7478 11234  97 7478 11234  2763 8847 13447  2763 11235 13447  1028 11236 11890  3915 11794 11913  3544 13662 15633  3870 9139 14694  1145 7873 11238  2935 7873 11238  3342 8807 12066  3342 11239 12066  4285 11161 12030  1105 11240 12819  2905 5603 11241  670 5603 11241  5233 11037 11242  1361 11037 11242  5445 11067 11243  2770 11067 11243  1471 12465 15754  4542 12950 14724  5659 11245 13259  1482 5659 11245  245 11246 13052  3603 11246 13052  873 7048 11247  3257 7048 11247  1381 10910 11248  1381 5410 11248  4090 7994 11249  1763 7994 11249  4449 8953 11250  3008 11250 11713  1451 4577 11251  1451 5773 11251  817 11931 15362  817 5456 11252  2079 8137 11253  2079 6922 11253  831 4234 11254  3050 4234 11254  4972 9032 11255  2509 9032 11255  3027 8071 11256  8071 11256 13672  3341 6305 11257  1087 6305 11257  885 10076 11258  3341 10076 11258  5939 9979 11259  90 9979 11259  2028 6830 11260  2028 4669 11260  9655 11261 12162  3097 9655 11261  4347 8395 11262  3139 8395 11262  5095 10773 11263  3054 10773 11263  4431 10946 11264  779 10946 11264  1069 4593 11265  3068 4593 11265  7693 11266 11577  1026 7693 11266  354 13062 13994  3151 9165 11295  2610 6638 11268  2610 6015 11268  2559 6028 12787  4522 6028 11269  2593 6483 11270  4825 8578 14692  2627 10342 11271  5154 10342 11271  222 10251 11272  222 6336 11272  4430 9648 11273  1015 9648 11273  5670 11274 12814  2750 11274 12814  3988 14578 14579  353 6607 14578  4047 11275 11276  1082 8855 12763  1290 5929 11277  3115 5929 11277  903 9713 13562  903 11278 13562  3232 11278 12257  3116 11278 11279  790 9950 13263  790 11280 13263  2090 6744 11602  2090 11281 11602  3298 10645 11282  10645 11282 14549  1911 9507 11283  537 5081 15439  2598 7524 11284  2598 7909 11284  2242 8266 11285  2952 11286 15584  1029 8266 15584  1029 11286 15584  454 11287 13488  3240 11287 13488  4729 8363 11288  1532 4729 11288  1331 6316 11289  1331 5148 11289  604 8334 11290  2941 8334 11290  784 9846 11291  2910 9846 11291  29 6492 11292  2910 6492 11292  1851 7249 11293  1851 7248 11293  4077 8397 13136  4078 11294 14331  3151 11267 11295  354 11295 13994  7778 9395 11296  3025 7778 11296  809 9071 11297  7415 9071 11297  4955 10987 11298  2230 10987 11298  3189 10744 11299  10744 11299 15564  6661 9811 11300  925 6661 11300  5412 11301 11302  1405 5412 11301  3042 7191 11302  334 7191 11302  3042 4797 11303  1233 4797 11303  4871 11304 12941  4871 5556 11304  552 5136 11305  5136 11305 11307  4482 12292 12355  1159 12292 12355  1330 5134 11307  2993 5134 11307  4438 5880 13311  4438 11308 13311  4635 9065 11309  1185 9065 11309  4012 8623 12269  1587 8623 12269  5319 9071 11311  1480 5319 11311  240 7192 11312  3335 7192 11312  1303 8203 11313  3078 11313 11907  3012 7271 11314  1754 7271 11314  1799 11315 12167  3296 11315 12167  1346 5237 11316  2695 5237 11316  3961 9022 11317  1122 9022 11317  3853 6873 11318  1641 6873 11318  4028 7494 11319  1219 7494 11319  1219 7932 11320  4434 7932 11320  4435 7143 11321  1216 7143 11321  4027 11322 11974  4028 11322 14571  3302 9427 11323  966 9427 11323  489 11324 15081  3969 11324 15081  1862 5689 11325  5355 12916 13452  2940 5965 11326  156 5965 11326  5965 11327 12224  2940 5965 11327  4275 7774 14305  2940 4275 11328  1136 7856 13382  1136 11329 13382  1653 6571 11330  2918 11330 11331  6571 11330 11331  449 6571 11331  1279 8005 11332  4665 7029 13723  4461 6755 11333  1215 6755 11333  3253 5538 11334  1614 5538 11334  4964 11335 12910  3317 4964 11335  740 7948 11336  2434 7948 11336  1529 5106 11337  2241 5106 11337  3385 6354 11338  69 6354 11338  2486 7840 11339  2486 6548 11339  1458 5708 11340  2956 5708 11340  3074 8943 11341  4360 11341 14414  4298 8892 11342  360 8892 11342  168 7205 14951  168 11343 14951  2957 6427 11344  258 6427 11344  3164 5966 11345  1045 11712 13511  4083 10251 11346  1808 10251 11346  7819 9701 11347  3323 7819 11347  1255 6896 11348  4448 14813 14814  519 5855 11349  2735 5855 11349  994 11350 14223  3784 11350 14223  536 8413 11351  4035 8413 11351  1539 6183 11352  4507 6183 11352  1191 7349 11353  4255 9961 13496  1694 4741 11354  4741 11354 13707  2235 6775 11355  2235 5874 11355  983 6783 11356  3284 6783 11356  2565 5626 11357  1501 5626 11357  2502 9865 11358  4652 9865 11358  5163 10143 11359  715 10143 11359  2961 6331 11360  2961 6928 11360  3307 7749 11361  623 7749 11361  133 7545 12277  133 11362 11363  3302 9594 11363  3301 9594 11363  388 5667 11364  2997 5667 11364  5060 10540 11365  2205 10540 11365  5054 8483 11366  363 8483 11366  6584 8413 11367  536 8413 11367  1052 7650 12653  1052 11368 12653  3394 12711 12723  3394 7344 11369  4855 7375 11370  215 7375 11370  6415 11371 14354  743 5175 11371  1160 7350 11372  3507 7350 11372  3734 5985 11373  556 5985 11373  2496 9780 11374  4760 9780 11374  2932 6831 11375  1719 6831 11375  5341 8195 11376  5341 11376 12622  2931 5774 11377  774 5774 11377  2982 6533 11378  103 6533 11378  3891 7458 11379  1827 7458 11379  5295 10395 11380  146 10395 11380  8248 9181 11381  3083 9181 11381  320 4680 11382  2201 4680 11382  2320 4886 11383  603 4886 11383  362 10824 11384  4245 10824 11384  3191 7497 11385  2021 7497 11385  4090 11249 11386  1078 11249 11386  3338 7422 11387  2082 7422 11387  3973 7047 15207  3973 11388 15207  1464 9027 11389  1464 5303 11389  3089 6613 11390  3588 6613 11390  1587 5662 11391  6052 15704 15705  3229 4251 12599  4251 11392 12599  2564 9466 11393  2564 6382 11393  4929 6466 11394  3669 6466 11394  7407 11375 11395  1719 11375 11395  452 6311 11396  6311 11396 12140  3203 7182 11397  823 7182 11397  3293 7979 11398  2061 7979 11398  230 7270 11399  3370 7270 11399  3168 5858 11400  793 5858 11400  1478 5826 15448  561 5826 11401  1346 8304 11402  2977 8304 11402  2472 5345 11403  1390 5345 11403  1175 11404 12890  4663 11404 12890  3263 6816 11405  397 6816 11405  1321 8397 11406  3338 8397 11406  8397 11407 13136  454 11407 13136  1224 11181 11408  1224 5185 11408  3193 11409 15616  4402 11409 15616  2512 5477 11410  1345 11410 11483  1968 6394 11411  3411 12820 12822  807 10296 11412  3930 10296 11412  3771 8000 11413  2147 8000 11413  4404 11343 12095  4404 11414 12095  2178 6241 11415  2580 6241 11415  3659 11416 13967  5794 13029 13967  3467 6502 11417  4223 6502 11417  3016 10765 12245  3016 11418 12245  5496 11419 13023  125 5496 11419  3609 9707 11420  3609 14012 14013  2960 7449 11421  7449 11421 13174  382 7449 11422  2960 7449 11422  1810 4462 11423  507 12829 14701  1696 6936 11424  3200 6936 11424  3200 5309 11425  851 5309 11425  250 11426 14439  250 7094 11426  823 7182 11427  7182 11427 15390  599 11428 11429  3833 11428 11429  4264 6837 11429  3833 6837 11429  500 7603 11430  3801 7603 11430  2778 10198 11431  4639 10198 11431  3196 5595 11432  1007 5595 11432  1305 5595 11433  3196 5595 11433  3196 11434 11701  3196 11433 11701  5472 8054 11435  1711 13140 15703  3582 6780 11436  1726 6780 11436  6537 11437 14743  799 6536 14179  2406 4268 11438  208 11438 13835  893 6506 11439  3354 6506 11439  5628 10087 11440  5628 12614 12615  70 11441 11860  70 6120 11860  1009 9590 12874  3786 9590 12874  6732 7174 11443  2948 6732 11443  1549 7634 11444  3162 7634 11444  651 5566 11445  651 6450 11445  6330 11127 11446  874 11127 11446  2949 6813 11447  1608 6813 11447  1518 6813 11448  2949 6813 11448  758 6509 11449  2949 6509 11449  3192 6164 11450  81 6164 11450  1134 9630 11451  4397 9630 11451  3614 11452 14084  3136 11452 11555  4157 12575 13594  548 4157 11453  1468 11454 12384  2974 11454 12384  1468 4914 12384  1392 4914 12384  3873 7777 11456  1052 7777 11456  1762 6891 11457  1762 5913 11457  1240 7864 11458  3738 7864 11458  3738 9725 11459  394 9725 11459  3169 6425 11460  71 6425 11460  1886 7424 11461  4645 7424 11461  925 7905 11462  7905 11462 12850  3006 11463 14624  1178 11463 14624  1176 4594 11464  1176 6199 11464  1183 9167 11465  4343 9345 14115  3445 6892 11466  294 6892 11466  3399 6562 12731  4008 12462 14745  2687 10453 11468  5218 10453 11468  2956 5612 11469  780 5612 11469  3060 6596 11470  3060 5028 11470  845 7366 11471  3126 7124 11540  856 6679 11472  6679 11472 11473  1783 6185 11473  3224 6185 11473  8673 11474 14075  1331 11474 14075  1527 5732 11475  2964 5732 11475  4132 10046 11476  2384 10046 11476  8478 11477 14209  634 8478 11477  2576 9095 11478  2836 9095 11478  4543 11479 12950  1864 8050 14592  1212 5602 11480  3713 8805 11976  1022 6914 11481  2793 6914 11481  2977 5259 11482  1354 5259 11482  5477 11410 11483  2978 5477 11483  688 5259 11484  2977 5259 11484  363 5238 11485  5238 11485 11486  1354 5218 11486  2978 11483 11655  2566 11487 12034  6543 11487 12034  3296 4861 11488  1499 4861 11488  2023 7881 11489  4272 7881 11489  4271 8226 11490  2025 8226 11490  2779 5448 11491  1543 5448 11491  6313 11364 11492  2997 11364 11492  4514 10349 11493  2997 11493 13713  6025 11494 11533  1349 6025 11494  3166 10760 12021  3166 11495 12021  670 10364 11496  5936 10364 11496  2174 7418 11497  7418 11497 11498  5614 9965 11498  2995 5614 11498  2995 5614 11499  5614 11499 15404  2362 4574 11500  2362 6874 11500  3144 11501 13957  3144 6011 11501  2740 5529 11502  1406 5529 11502  3944 13396 14598  3944 11503 13102  1195 4522 11504  2967 6934 12258  2967 6935 11505  744 6935 11505  1954 5599 11506  5599 11506 13684  3624 7468 12186  3625 12185 14664  445 8904 13587  8904 11508 13587  2739 10162 11509  6618 10162 11509  2506 11510 14657  3326 11510 14657  2555 9997 11511  4300 9997 11511  1429 9806 11573  2771 9806 11512  3210 11102 11513  4032 11513 12268  1731 11149 11514  3038 11149 11514  3038 4778 14718  3038 11515 14718  1581 7520 11516  3213 7520 11516  3213 5543 11517  1014 5543 11517  1278 5479 11518  2645 5479 11518  1071 5166 11519  2903 5166 11519  5350 10721 11520  5350 8379 11520  3175 5674 11521  238 5674 11521  5674 8965 11522  3175 5674 11522  3175 11521 15509  829 6180 11523  2554 5759 11524  2554 8975 11524  2971 6083 11525  731 6083 11525  1528 6083 11526  2971 6083 11526  1896 7465 11527  3779 7465 11527  3333 11892 11893  3334 11894 14637  2991 6385 11529  1349 6385 11529  4733 11529 11530  686 4733 11530  6385 11531 11532  2991 6385 11531  810 5807 11532  5807 11532 14426  1469 5806 14426  301 5806 11533  4256 9073 11534  122 9073 11534  3238 11155 11535  3705 11155 11535  536 5063 11536  5063 11536 11625  4485 9324 11537  1027 9324 11537  3491 10195 11538  4002 11538 12815  3126 11471 11539  845 11471 11539  7125 11540 11849  1847 7125 11540  11488 11541 15278  594 11541 15278  3780 6699 11542  74 6699 11542  4547 8625 11543  2196 8625 11543  1253 7148 11544  3037 7148 11544  3037 6799 11545  1393 6799 11545  3457 6532 11546  3457 7698 11546  3421 11547 14435  116 11547 14435  3523 5730 11548  113 5730 11548  3523 7495 12496  3523 11549 12496  1701 11550 15307  3860 11550 15307  4279 7264 11551  494 7264 11551  1736 6592 11552  3113 6592 11552  3113 6592 11553  1330 6592 11553  1074 4251 11554  3229 4251 11554  3614 11452 11555  1089 9735 13912  7490 11555 11556  1957 7490 11556  3123 8156 11557  4649 8156 11557  1217 4696 11558  4696 11558 13645  1879 7293 12810  582 7293 12810  3272 8686 11560  253 8686 11560  870 6742 11561  3272 6742 11561  2140 8306 11563  3405 8306 11563  2140 8307 14705  2140 11563 14705  1970 7265 11564  1970 7488 11564  1025 7719 11565  3344 4975 12914  506 4581 12435  4581 5248 11566  1106 4249 15468  1106 11567 15468  1436 8980 11568  3243 8980 11568  903 11569 13939  3898 11569 13939  3031 5447 11570  2220 5447 11570  8032 11570 11571  1399 8032 11571  1706 6002 11572  2975 6002 11572  9806 11512 11573  2975 11512 11573  276 8660 11574  276 9622 11574  343 11576 15281  3478 11576 15281  3477 8853 11576  343 8853 11576  3068 11266 11577  3068 6040 11577  3948 9814 13923  3948 11579 13923  3070 5852 11579  315 5852 11579  1477 5187 11580  1477 7007 11580  4696 10764 11581  2781 10764 11581  3966 8134 11582  1056 8134 11582  889 6752 11583  5521 6752 11583  2990 7106 11584  243 7106 11584  2990 8191 11585  1660 8191 11585  1858 4044 11586  2206 11586 11730  1350 5190 11587  5190 11587 12590  677 5176 11588  3067 5176 11588  1201 7018 11589  3067 7018 11589  3034 5332 11590  212 5332 11590  7024 12470 15547  3628 5669 11591  205 4570 11592  2231 4570 11592  1604 5950 11593  4477 5950 11593  1595 5733 11594  5733 11594 13588  5083 5408 12824  5408 11595 12824  3606 6576 11596  1852 6576 11596  4291 8827 11597  1342 13460 13636  6882 7354 11598  2403 6882 11598  7335 11599 12591  3029 7335 11599  3030 6610 11600  1328 6610 11600  796 5609 11601  3029 5609 11601  4115 12114 12581  3845 12114 12581  7323 11603 13854  2680 7809 11603  3336 12607 14039  2222 8612 12607  8614 11604 11605  113 8614 11605  2725 7393 11606  2725 6170 11606  862 6388 11607  3393 6388 11607  147 5038 11608  5038 11608 15296  9898 11609 14272  341 9898 11609  1018 6192 11610  3251 6192 11610  9054 11611 15567  1555 9054 11611  361 8486 13612  361 11613 13612  4435 11320 11613  4434 11320 11613  3888 11448 11614  2949 11448 11614  3884 11365 11615  3884 10206 11615  7496 11549 11616  1314 11549 11616  5997 10632 11617  5997 11617 11805  1200 11618 13999  4210 11618 13999  1816 7250 11619  3880 7250 11619  4648 8936 11620  763 8936 11620  2917 10838 11621  2917 5348 11621  1461 8844 11622  5033 8844 11622  856 5328 12278  856 4897 12278  388 6313 11624  3173 6313 11624  3413 5062 14618  2337 5062 11625  4452 9379 11626  3564 4452 11626  201 4816 11627  4816 5957 11627  3246 11628 12553  5226 12553 12554  76 8383 12680  76 11629 12680  897 11631 13106  3235 11631 13106  3540 5677 11631  897 5677 11631  1262 10259 14713  1262 9308 14237  1324 5182 11633  1324 5184 11633  280 8477 11634  3694 8477 11634  4154 9422 11635  2488 9422 11635  1279 8005 11636  3040 8005 11636  4498 7936 11637  2146 7936 11637  3047 7557 11638  2141 7557 11638  1818 6320 11639  3316 6320 11639  3573 12998 14907  3572 11641 12998  9729 11641 12998  1484 9729 11641  2756 7438 11642  3960 9033 12877  1456 5130 11643  5130 11643 11644  234 4974 11644  3239 4974 11644  8569 11645 15364  3239 8569 11645  4703 12917 14118  4703 11646 12917  2994 6010 11647  64 6010 11647  3209 5402 11763  3209 11648 11763  1283 7665 11649  4694 11649 11899  4269 7856 11650  4841 11650 15087  1367 7105 11651  3080 7105 11651  1908 7023 11652  3147 7023 11652  328 11781 12228  328 11653 11781  1593 9260 11654  3897 9260 11654  2978 11486 11655  5218 11486 11655  1234 11068 11656  4687 11068 11656  1548 5822 11657  3013 5822 11657  5823 11657 11658  3013 11657 11658  664 4944 14088  1295 4944 11659  3010 6252 11660  6252 11660 13494  615 9112 11661  4373 9112 11661  1842 8285 11662  3927 8285 11662  1394 4997 11663  2273 4997 11663  1619 4517 11664  4517 5150 11664  4603 11665 12951  1178 11665 11941  6739 11666 15578  4810 11666 14040  2419 5746 11667  2419 5888 11667  3001 6510 11668  1639 6510 11668  425 6510 11669  3001 6510 11669  4384 12739 14291  908 11670 14779  2029 4486 13290  2928 4486 11671  2572 10083 11672  5634 10083 11672  7822 9046 11673  3468 7822 11673  1748 11674 13269  3440 11674 13269  41 6618 11675  3026 6618 11675  4453 11675 11676  3026 11675 11676  4163 8959 11677  2126 8959 11677  1334 5208 12171  177 11678 12109  3504 6178 11679  1616 6178 11679  1640 5699 11680  3004 5699 11680  4016 8444 11681  506 8444 11681  3300 5071 11682  1326 5071 11682  2648 10747 11683  725 5371 12848  329 8940 13415  329 11684 13415  2411 8940 11685  3140 11684 13415  4184 10616 11686  837 10616 11686  1006 11687 15254  3871 11687 15254  992 10703 11688  4417 13701 13702  2777 10652 11689  4988 10652 11689  1267 7187 11690  3630 9314 12737  415 8648 13566  4807 8648 13566  8629 11692 14665  4969 11692 15537  574 5933 11693  574 5600 11693  534 7869 11694  4203 6655 14605  1371 8262 13513  1371 11695 13513  3006 7904 11696  109 7904 11696  1750 6902 11697  3007 6902 11697  3706 11698 14537  477 11698 12168  1495 11699 14748  1495 5424 11699  4057 12972 14569  4057 11700 12972  1315 11434 11701  1315 5044 11701  297 6751 11702  297 6449 11702  1412 6636 11703  3261 6636 11703  3159 5942 11704  826 5942 11704  603 10011 11705  5673 10011 11705  1853 4867 11706  4867 11706 11708  6789 11706 11707  3009 11706 11707  4531 10903 11708  3009 4531 11708  3325 8200 11709  139 8200 11709  4107 8963 15204  871 8963 15204  2056 7911 11711  4805 7911 11711  3164 11748 13511  3921 11748 13511  4449 11250 11713  43 12196 14550  4028 11714 14571  653 7402 11714  928 7485 11715  7485 11715 13272  5205 10454 11716  2666 10454 11716  2632 9645 13955  2632 11717 13955  3742 8838 11718  980 4828 14220  138 8968 11719  138 5899 11719  80 11720 13347  4724 12437 14217  5687 11792 13670  1819 11792 13670  78 6241 13980  78 11722 13980  564 4623 11723  2179 4623 11723  4823 6129 11724  455 11150 11795  796 5505 11725  5505 11725 11726  1409 5504 11726  5504 11726 11727  458 6128 11727  3028 6128 11727  3298 7739 11728  7739 11728 14623  3212 10176 11729  3524 10176 11729  4044 7891 11730  2099 7891 11730  3317 4964 11731  1230 4964 11731  3317 7098 14923  3317 11732 14923  4961 9007 11733  3179 9007 11733  4012 12269 14490  3076 11310 12269  125 7217 11735  125 5496 11735  6196 8312 11736  2115 8312 11736  2578 4693 12732  3015 4693 11737  3015 11738 12642  747 6358 11738  2380 6866 11739  4111 9535 12231  4093 9152 11740  2344 9152 11740  6832 10208 11741  3014 6832 11741  848 6062 11742  3020 6062 11742  3020 6061 11743  241 6061 11743  848 5664 11744  5664 11744 11745  1523 5663 11745  3014 5663 11745  4525 9409 11746  1172 9409 11746  1809 6485 11747  3164 6485 11747  3164 6485 11748  277 6485 11748  3059 6594 11749  366 6594 11749  1655 6594 11750  3059 6594 11750  6596 11750 11751  3059 11750 11751  1867 6759 11752  3184 6759 11752  3184 6759 11753  532 6759 11753  3814 10970 11754  2346 10970 11754  1451 5775 11755  3018 5775 11755  213 5773 14181  1451 5773 11756  5772 11757 11758  774 5772 11757  5589 9794 11758  1450 5589 11758  974 6145 11759  3270 6145 11759  4009 11760 14157  1080 8348 11760  3077 6548 11761  2486 6548 11761  3077 5650 11762  1145 5650 11762  5401 11157 11763  1394 11157 11763  284 8366 11764  4177 8366 11764  4840 11751 11765  3058 4840 11765  9073 11766 13343  1432 11766 13343  2772 10703 11767  2772 6039 11767  2433 8093 11768  8093 8283 11768  2987 5165 11769  5165 11769 14373  768 4982 11770  2816 4982 11770  1579 9278 11771  1579 9670 13191  4508 8110 11772  654 8110 11772  2096 5149 11773  3515 5149 11773  5565 11774 12343  2459 5565 11774  2248 7997 11775  2248 5118 11775  1289 7651 11776  3466 7651 11776  5034 9461 11777  2891 9461 11777  655 6734 11778  655 5795 11778  3935 15332 15333  1126 13907 13911  1113 8273 11780  3025 8273 11780  3093 10597 11781  4710 10597 11781  3072 6706 11782  1162 6706 11782  1130 7113 11783  3072 7113 11783  9401 10824 11784  2409 9401 11784  3155 5311 11785  618 5311 11785  2391 5478 14025  3155 5478 11786  1304 5311 11787  3155 5311 11787  1351 5173 11788  3079 5173 11788  9763 11789 15417  360 11789 15417  225 10943 11790  225 4654 11790  3036 5829 11791  1460 5829 11791  3193 6132 11792  1819 6132 11792  7122 11793 13550  514 11793 13550  1572 5628 12614  1572 11794 12614  455 11724 11795  4823 11724 11795  672 10336 11796  5147 10336 11796  110 9099 11797  3133 9099 11797  3044 5568 11798  296 5568 11798  2754 9375 11800  819 9375 11799  9375 11799 11800  3044 11799 11800  2897 5518 11801  19 5518 11801  4460 10001 11802  3017 10001 11802  770 4549 11803  4549 4768 11803  1398 11162 11804  4030 11162 11804  4109 8135 11805  2084 8135 11805  1525 6597 11806  3358 6597 11806  242 4712 11807  3104 15204 15433  144 6238 11808  3588 6238 11808  2907 9153 11809  2907 6391 11809  3074 11341 14414  3074 11810 14414  1065 11811 11812  4013 11811 11812  4013 11812 15094  4013 6184 15094  793 7696 12461  2007 7696 11813  214 6224 11814  3108 11814 11815  6224 11814 11815  1676 6224 11815  1187 4550 11816  4550 5884 11816  887 6471 11817  3053 6471 11817  530 5388 11818  530 7312 11818  3039 7832 11819  340 7832 11819  4344 11819 11820  4344 11820 14114  9001 11820 11821  2474 9001 11821  4649 9917 11822  2550 9917 11822  3101 11823 14198  3101 8685 11823  2176 5524 11824  1404 5524 11824  5564 7136 15699  7136 11825 15699  2127 10679 11826  4745 10679 11826  6247 11827 14834  5497 11827 14834  723 9667 11828  4228 9667 11828  5628 10087 11829  3041 10087 11829  916 6437 11830  3041 6437 11830  157 6825 11831  4338 6825 11831  899 6310 11832  2793 6310 11832  3758 11833 11916  3758 6225 11833  2067 6752 11834  3228 6752 11834  5010 11835 12606  3228 5010 11835  680 5243 11836  3094 5243 11836  5180 11788 11837  3094 5180 11837  3767 5007 13802  5007 11838 13221  4238 11839 12144  1274 11839 12144  2325 9294 11840  4217 9294 11840  1294 4977 11841  2173 4977 11841  5649 10552 11842  5649 11842 12985  3118 11843 14889  6210 12105 14889  2473 7446 11844  2473 4263 11844  1203 4331 11845  1203 8314 11845  1623 9147 11846  3851 9147 11846  5418 11267 11847  3151 11267 11847  6457 11848 13178  460 6457 11848  3128 7239 11849  479 7239 11849  3122 11850 15463  881 11850 15463  3111 7861 11851  926 7861 11851  854 7214 11852  3046 7214 11852  7222 11853 14293  1855 7222 11853  988 7728 11854  3637 7728 11854  106 6399 11855  3831 6399 11855  3301 14716 15238  3301 11856 14716  384 5375 11857  3120 5375 11857  4371 10770 11858  3258 10770 11858  809 7108 11859  3087 7108 11859  6933 11441 11860  3087 6933 11860  6120 11860 11861  3087 11860 11861  2585 6148 11862  2585 9752 11862  3186 6648 11863  1492 11863 15659  4417 8567 12073  1210 8567 12073  3090 6057 11865  1760 11865 14627  3766 8062 11866  167 8062 11866  4682 8567 11867  2302 8567 11867  1085 8074 12086  1085 11868 12086  3581 10635 11869  88 10635 11869  3804 7563 11870  497 7563 11870  912 11871 11872  3346 11871 11872  2212 8642 11873  3346 8642 11873  3869 8374 11873  2212 8374 11873  3896 9087 11874  3348 9087 11874  1768 6640 11875  3795 6640 11875  846 7123 11876  3132 7123 11876  3132 7125 11877  479 7125 11877  1986 6659 11878  1986 4938 11878  2049 6811 11879  3146 6811 11879  3913 9538 11880  4072 11880 13362  843 6989 11881  843 6659 11881  512 8573 11882  4750 8573 11882  5367 10773 11883  1374 5367 11883  3054 6168 11884  453 6168 11884  1426 5554 11885  5553 11885 12033  3163 6994 11886  1765 6994 11886  8822 11887 13392  1015 8822 11887  4484 10933 11888  2381 10933 11888  978 6660 11889  5397 6660 11889  6107 11236 11890  3247 6107 11890  2291 8696 13523  8696 11891 13523  399 8205 11892  3333 8205 11892  3334 11528 14637  1497 11528 11893  3333 8204 11894  890 8204 11894  3080 11651 12829  3080 11895 12829  4174 11896 15730  6700 11896 15730  45 9338 11897  3061 9338 11897  6033 10301 13428  3057 6033 11898  1283 4951 11899  3342 4951 11899  1506 11900 12276  2110 5469 14051  5076 10127 11901  773 10127 11901  791 6646 11902  6646 11902 14686  3710 11598 11903  2403 11598 11903  2938 10813 11904  2938 8055 11904  1250 6942 11905  4244 6942 11905  1662 6863 11906  4684 6863 11906  8203 11313 11907  2268 8203 11907  1180 8040 13738  1180 11908 13738  3050 5918 11909  295 5918 11909  3778 8866 11910  1863 8866 11910  3265 6228 11911  6228 8341 11911  329 11684 11912  4440 11912 12320  1028 8749 11913  3914 8749 11913  4391 8433 11914  1141 8433 11914  3650 8539 11915  1645 8539 11915  3386 10123 11916  1035 10123 11916  1516 5839 11917  3145 5839 11917  582 6320 11918  3441 6320 11918  3441 6320 11919  1818 6320 11919  779 6570 11920  6570 11920 15420  1302 7188 11921  3078 7188 11921  3078 11907 11922  399 11907 11922  2206 9994 11923  3064 9994 11923  130 7574 11924  3284 7574 11924  5765 11925 13291  3284 5765 11925  1054 8288 11926  8288 11926 13554  2278 5392 11927  3304 5392 11927  1882 6957 11928  3130 6957 11928  1140 5927 11929  2764 5927 11929  3106 5400 11930  369 5400 11930  4088 11931 15362  3106 4088 11931  1378 5466 11932  3106 5466 11932  2411 8941 11933  8941 11933 13257  4804 9514 11934  630 9514 11934  5357 10817 11935  2788 10817 11935  1828 6834 11936  2183 10018 15629  3310 7625 11937  803 7625 11937  414 6099 11938  3326 5751 13340  141 6956 11939  3584 6956 11939  2326 9156 11940  2326 7345 11940  4603 11665 11941  4603 5653 11941  4239 9828 11942  1192 9828 11942  3366 5872 11943  5872 11943 12803  1482 5659 11944  3073 9253 12182  8994 11743 11945  241 11743 11945  4123 11036 11946  3204 11036 11946  4301 9194 11947  2024 9194 11947  2373 4898 12604  245 11948 13052  3726 7499 11949  252 7499 11949  2195 8616 11950  4901 8616 11950  1839 6627 11951  1839 6565 11951  2036 7548 11952  3075 7548 11952  1326 10381 11953  4521 10381 11953  429 6683 11954  3947 6683 11954  450 9212 11955  4341 9212 11955  4885 7139 11956  3512 7139 11956  4213 9573 11957  2886 9573 11957  1445 4678 11958  3161 11959 15465  4678 11959 15465  651 4678 11959  1824 11634 11960  3694 11634 11960  2297 8972 12893  561 11961 12139  4846 4847 12854  4847 11962 12854  4786 12067 15691  4786 4787 11963  4205 9692 11964  1494 9692 11964  3653 7444 11965  951 7444 11965  379 5457 11966  5457 11966 14911  817 6589 11967  3105 6589 11967  176 5476 11968  3107 5476 11968  3107 5476 11969  1403 5476 11969  3107 6589 11970  817 6589 11970  5475 11966 11971  3105 11966 11971  1445 5697 11972  3197 5697 11972  2376 5184 11973  1324 5184 11973  4529 6927 11974  4027 6927 11974  137 4923 11975  3829 12656 15173  3713 11480 11976  5602 11480 11976  539 7147 11977  539 5574 11977  7522 8098 11978  7522 11978 15569  6063 6712 11979  1689 6712 11979  4610 9649 11980  2885 9649 11980  5734 9435 11981  444 5734 11981  1380 6366 11982  3112 11982 11983  6366 11982 11983  1649 6366 11983  406 10112 11984  406 15373 15374  73 10368 11985  73 7561 11985  3080 7969 11986  1424 7969 11986  62 8093 11987  3434 8093 11987  586 6467 11988  586 6029 11988  6786 9778 11989  1513 9778 11989  2865 9990 11990  9990 11990 13861  4537 7835 11991  343 7835 11991  442 6537 15077  1677 6537 11992  2842 5798 11993  2842 5797 11993  566 11994 14828  4079 11994 14828  4133 11995 12209  4133 11995 11996  2072 7549 11996  3099 9451 14392  419 6675 11997  4229 6675 11997  1836 6948 11998  3351 6948 11998  3088 7108 11999  809 7108 11999  3088 9886 12605  3088 12000 12605  2312 6654 12001  2312 4457 12001  345 7186 12002  3223 7186 12002  3543 11226 12003  1316 11226 12003  4324 7315 12004  1120 7315 12004  3182 4685 12005  891 4685 12005  1395 5326 12006  5326 12006 12007  6392 12007 13936  3182 6392 12007  2176 7360 12008  2177 7360 12008  4469 10542 12009  520 10542 12009  170 9377 12010  3681 9377 12010  289 7135 12011  5132 13247 15256  681 5071 12012  3300 5071 12012  1134 6347 12013  3300 6347 12013  3320 6554 12014  3320 6218 12014  4807 8648 12015  2200 8648 12015  125 6567 12016  3123 6567 12016  3123 6567 12017  1832 6567 12017  333 7287 12018  3179 7287 12018  3880 9225 12019  1146 9225 12019  3602 6398 12020  453 6398 12020  1266 8544 12021  8544 10760 12021  3894 9883 12022  326 9883 12022  4007 11065 12023  3380 12023 15632  1414 5514 15115  1414 4451 12024  4612 12821 14318  4612 12025 12822  5592 10289 12026  2908 10289 12026  4647 8239 12027  714 8239 12027  1081 6553 12028  3098 6553 12028  4120 8114 12029  2335 8114 12029  4285 11240 12030  2505 11240 12030  4772 10786 12031  278 6350 13409  3372 6893 12032  1150 6893 12032  1426 6826 12033  4080 6826 12033  815 7279 12034  815 6543 12034  3086 6456 12035  3086 9237 12035  2077 7740 12036  2077 6146 12036  1385 5378 12037  3142 5378 12037  1386 6801 12038  3143 6801 12038  11521 12039 15736  238 11521 12039  3142 5378 12040  828 5378 12040  375 5379 12041  3143 5379 12041  828 5378 12042  3143 5378 12042  2981 7624 12043  2981 5748 12043  1659 12044 12354  1659 5300 12044  4519 8956 12045  1001 8956 12045  1536 5994 12046  3531 5994 12046  2252 8699 12047  3793 8699 12047  5021 7476 12048  1899 7476 12048  3696 7351 12049  1610 7351 12049  2948 6732 12050  6732 12050 13521  3945 8746 12051  1297 8746 12051  1365 4946 12052  3447 4946 12052  399 5387 12053  2070 5387 12053  1344 7536 12054  3145 5852 14147  3249 9576 12055  931 9576 12055  1355 4118 12057  4118 12056 13484  4118 12056 12057  3249 12056 12057  3157 7082 12058  1042 7082 12058  4862 10189 12059  1263 10189 12059  1110 4265 12060  3295 12225 12226  3677 7262 12883  3677 12061 12883  2089 8209 12062  6928 8209 12062  2069 10846 12063  4276 10846 12063  1592 12064 14917  1592 12836 14917  3185 4759 12065  1228 4759 12065  3618 7328 12066  365 7328 12066  4785 9020 12067  2321 9020 12067  2779 5077 12068  2779 8752 12068  5384 6866 12069  5177 5384 12069  3320 6554 12070  876 6554 12070  3280 6350 12071  1829 6350 12071  1283 7665 12072  4424 7665 12072  3134 11688 12073  4417 11688 12073  1540 5905 15143  824 5905 12074  5573 10137 12075  1589 10137 12075  276 5639 12076  2057 5639 12076  3689 7649 12077  1317 7649 12077  3233 6206 12078  1570 6152 13043  1308 12079 13248  1308 9753 13248  1205 11080 12080  4396 11080 12080  12081 15506 15555  7072 12081 15506  3178 9864 12082  970 9864 12082  1141 8433 12083  4392 8433 12083  868 12792 13953  4103 10422 15688  1851 7249 12085  3203 7249 12085  2182 8076 12086  8076 12086 15528  1862 5407 12087  1862 8685 12087  1646 6341 13563  1100 6341 12088  1193 9698 13474  4472 9698 13474  10100 12090 13197  3363 10100 12090  3411 11411 12091  1968 11411 12091  460 7977 12092  7977 12092 12660  1003 8020 12093  5229 12093 14258  3202 7086 12094  1404 7086 12094  4077 11003 14330  4019 11003 14330  3379 12096 15570  937 12096 15570  2848 4621 12097  2848 10810 12097  4712 12098 15252  242 4712 12098  6668 9460 12099  3259 6668 12099  7890 12098 12100  2099 7890 12100  3022 10952 12101  1481 5836 13300  3160 4432 12103  3160 12102 12103  1151 9447 12103  4432 9447 12103  3118 4206 12104  824 12074 12284  3118 6209 12105  1568 6209 12105  6697 12106 13657  3127 6697 12106  3119 10945 12107  866 10945 12107  866 6338 12108  3275 6338 12108  5208 11678 12109  3125 5208 12109  4582 10730 12110  2340 10730 12110  3125 5208 12111  1334 5208 12111  2971 6126 12112  1454 6126 12112  2926 5976 12113  342 5976 12113  182 10500 12114  3845 11281 14710  2934 11207 12115  2934 6287 12115  1495 5425 12116  5425 5426 12116  4956 7408 12117  1614 12117 14584  3120 5375 12118  1366 5375 12118  3120 5787 12119  728 5787 12119  1830 6522 12120  3120 6522 12120  3593 5187 12121  555 5187 12121  3696 12122 15176  1159 12122 15176  1284 4985 12123  2156 4985 12123  5093 10217 12124  2972 10217 12124  3904 8611 12125  2251 8611 12125  3828 7142 12126  1057 7142 12126  95 9674 13998  95 12127 13998  5541 10851 12128  3330 5541 12128  351 4615 12129  3330 12130 13962  6143 12130 13962  944 6143 12130  3484 12131 15192  7356 12131 15192  4117 12132 15367  1447 12132 15367  2833 5910 12133  1433 5645 13072  3135 8137 12134  29 8137 12134  4059 8009 13850  1119 8009 13850  1685 6695 12136  1685 5078 12136  3255 6439 12137  1762 6439 12137  6247 11827 12138  467 11827 12138  4859 11961 12139  2139 4859 12139  1591 5868 12140  2985 5868 12140  2338 9009 12141  4148 9009 12141  85 12142 13769  4122 12142 13769  5051 12826 15497  5330 12143 15497  1274 5313 13990  1274 12144 13990  1341 10248 12145  4906 10248 12145  3429 7551 12146  235 12499 13198  164 7630 12147  3499 7630 12147  381 8684 12868  381 12148 12868  174 6208 12149  3124 6208 12149  2120 7544 12150  3502 7544 12150  510 9464 12151  4660 9464 12151  2651 6999 12152  3277 6999 12152  5364 11177 12153  364 5364 12153  544 4913 12154  4913 4914 12154  198 9285 12155  5358 9285 12155  2311 6402 12156  3052 6402 12156  4789 12157 15581  6441 12157 15581  1414 5514 12158  3172 5514 12158  3172 5535 12159  423 5535 12159  732 5198 12878  1352 5198 12160  4817 9334 12161  1129 9334 12161  7460 10692 12162  3096 10692 12162  3637 8438 12163  115 8438 12163  3236 6397 12164  849 6397 12164  524 5920 12165  3183 5920 12165  761 6157 12166  761 5530 12166  4861 6825 12167  3296 4861 12167  3706 11698 12168  3706 5495 12168  180 5445 13628  1361 5445 12169  70 6120 12170  3532 6120 12170  5208 11678 12171  1872 11678 12171  3012 7271 12172  6988 12172 12287  3367 8582 12173  5834 8582 12173  1721 6230 12174  6230 12174 14001  5362 8599 12175  27 8599 12175  7966 12176 13243  3480 6091 12176  1994 7103 12177  4069 7103 12177  5294 9346 12178  375 9346 12178  5121 11094 12179  280 5121 12179  1408 12180 12923  5275 12180 14076  824 5905 12181  3124 7671 14581  3073 11944 12182  5659 11944 12182  3574 9400 12183  2409 9400 12183  128 7173 12184  4599 12184 12596  3624 7614 12185  1444 7614 12185  3625 11507 14664  977 11507 12186  3624 7468 12187  152 7468 12187  1996 12188 14714  1996 7810 14714  2735 5855 12189  4836 5855 12189  1278 4830 12190  4830 12190 12629  3487 9298 12191  4956 12117 14584  7035 11573 12192  3152 7035 12192  380 6377 14409  1671 6377 12193  3236 6438 12194  1108 6438 12194  1888 6397 12195  3236 6397 12195  43 9185 12196  4468 12196 14550  3373 8847 14518  3373 12197 14518  1406 6260 12198  1406 5530 12198  5101 8987 12199  2313 8987 12199  3467 8984 12200  5292 8984 12200  1396 5429 12201  5429 12201 12202  376 5327 12202  3181 12203 14098  891 5430 12203  3181 5430 12203  579 7463 12204  579 4977 12204  3875 6876 12205  947 6876 12205  1359 14330 14331  1359 12206 12365  933 12207 12208  3529 12207 12208  4133 12208 12209  3529 12208 12209  1329 6590 12209  3529 6590 12209  3001 11668 12210  5539 11668 12210  438 5062 12211  3413 5062 12211  4408 7742 12212  531 7742 12212  1564 8637 12213  5937 12213 14406  3153 4963 12214  830 4963 12214  4962 10640 12215  3153 10640 12215  4336 11017 12216  142 11017 12216  3391 4660 12217  1247 4660 12217  1325 7326 12218  3391 7326 12218  3268 4679 12219  392 9794 15194  2344 9152 12220  6013 9152 12220  1931 7395 12221  3792 7395 12221  1748 6323 12222  5797 6323 12222  1566 7878 12223  4675 7878 12223  5519 12060 12224  3295 12060 12224  4595 12225 12226  156 4595 12225  3295 12060 12226  1110 12060 12226  5020 11064 12227  348 11064 12227  4710 9343 12228  3485 9343 12228  3149 7556 12229  2141 7556 12229  8075 12230 15639  1050 8075 12230  4111 11739 12231  2380 11739 12231  209 6767 12232  5242 12232 15457  1238 7775 12233  3916 8793 14823  2345 9234 12234  3862 9234 12234  3570 8423 12235  71 8423 12235  4171 6164 12236  1637 6164 12236  9178 11670 12237  908 11670 12237  1953 4207 12238  1073 12238 13731  3017 10001 12239  5122 10001 12239  2078 12240 12749  5276 12240 12749  2420 9440 14625  2420 7285 12241  2352 9131 12242  4872 9131 12242  3897 9260 12243  1187 9260 12243  5671 12244 14239  385 5671 12244  816 9874 12245  816 10765 12245  3611 6917 12246  1251 6917 12246  4605 8894 12247  1773 8894 12247  10520 12248 13985  2696 10520 12248  3299 6504 12249  892 6504 12249  3662 7491 12250  1957 7491 12250  814 5840 12251  2853 5840 12251  3271 7202 12252  3271 5613 12252  2811 9562 12253  6599 9562 12253  1927 4934 14561  3349 4934 12254  253 7065 12255  3205 7065 12255  4202 7202 13863  4202 13863 15220  11278 11279 12257  1508 11279 12257  2967 11504 12258  4522 11504 12258  1744 8194 12259  6383 12259 13450  5441 9789 12260  886 9789 12260  3214 7892 12261  387 7892 12261  3211 6593 12262  469 6593 12262  4493 12262 12263  1258 12263 15473  3671 6932 12264  958 6932 12264  3180 5631 12265  327 5631 12265  1406 5528 12266  1406 5529 12266  1168 4534 12267  4440 12319 12320  528 7311 12299  528 4031 12299  3076 11734 14490  3076 12269 14490  3662 7491 15265  3662 12270 15265  1879 7292 14427  940 7292 12271  3772 12273 12930  3274 12273 12930  1208 6781 12273  3274 6781 12273  3274 6781 12274  1726 6781 12274  1489 5581 12275  1489 7010 12275  7644 11900 12276  3156 7644 12276  133 11363 12277  3301 11363 12277  4897 11623 12278  3225 11623 12278  3225 6220 12279  436 6220 12279  1417 5518 14234  1417 12280 14234  4192 7382 12281  1697 7382 12281  3912 7396 12282  102 7396 12282  3912 9538 12459  3912 12283 12459  824 12104 12284  4206 12104 12284  264 5545 12285  3207 12285 13468  5402 13216 14389  1394 5402 12286  3012 12172 12287  3012 6962 12287  919 7245 12288  919 5811 12288  8772 11076 12289  4239 8772 12289  945 6408 12290  4290 6408 12290  3986 15101 15102  6051 15101 15102  4368 8877 12292  1159 8877 12292  3904 12125 12293  1037 12125 12293  89 8296 12294  3352 8296 12294  3749 10352 12295  719 10352 12295  737 4266 12296  4266 12296 12644  4566 9817 12297  767 9817 12297  5545 12285 13468  2277 5545 12298  4031 12268 12299  3210 12268 12299  4537 11991 12300  4324 11991 12300  4065 8794 12301  612 8794 12301  391 5792 12302  391 8086 12302  578 8549 12303  3226 12303 12304  8549 12303 12304  2172 8549 12304  856 5328 12305  3226 5328 12305  1519 10660 15391  1519 5564 12306  4589 9273 12307  2343 9273 12307  4650 9748 12308  2650 9748 12308  1486 6463 12309  5597 6463 12309  2595 5681 12310  1436 5681 12310  1639 6510 12311  3926 12311 15235  2364 8821 12312  4415 8821 12312  1313 6244 12313  4638 6244 12313  1883 7968 12314  1883 5812 12314  3146 10000 14467  3146 6116 12315  3589 5929 12316  1290 5929 12316  3589 6898 12317  488 6898 12317  1091 7799 12318  3384 7799 12318  3230 12267 12319  1168 12267 12319  7301 12320 15261  3230 7301 12320  3230 7301 12321  1638 7301 12321  553 10147 12322  553 7180 12322  231 5028 12323  3060 5028 12323  2745 5590 12324  2745 7992 12324  2214 7001 12325  2214 6003 12325  1681 8688 13839  1681 6686 12326  1478 9949 12327  3484 9949 12327  355 7357 12328  3484 7357 12328  3262 12329 15166  150 12329 15166  1398 5287 12330  3262 5287 12330  2070 12331 14333  2070 7312 12331  3469 8229 12332  271 8229 12332  1621 6425 12333  3169 6425 12333  909 8095 12334  909 7103 12334  1367 4676 12335  3460 4676 12335  3460 5086 12336  104 5086 12336  3460 7830 12337  1214 7830 12337  7101 12338 14682  4900 10797 12488  3062 5742 12339  1552 5742 12339  141 7030 12340  3167 7030 12340  5381 10292 12341  2900 10292 12341  4791 8084 12342  2071 8084 12342  1373 5408 12343  5408 12343 12430  7046 12344 12345  960 7046 12344  3489 5621 12345  1781 12345 13654  3401 8527 12541  3401 12346 12541  7999 11425 12347  851 11425 12347  3201 5844 12348  440 5844 12348  10106 12349 14081  1492 10106 12349  3425 4819 14222  3425 12350 14222  49 4412 12351  49 5193 12351  3273 8636 12352  741 5688 13601  2153 4625 12353  596 4625 12353  7940 12044 12354  3174 7940 12354  2993 5134 12355  5134 12355 13638  2325 5675 12356  1680 5675 12356  1437 5698 12357  4218 8014 15382  3187 6794 12358  841 6794 12358  8624 12358 12359  2238 8624 12359  3187 8876 12361  3187 12360 12361  465 6714 12361  3994 6714 12361  1391 4549 12362  3509 4549 12362  3509 12363 12497  1845 12363 12497  1848 8599 12364  3128 5947 15195  1358 10814 12415  4078 10814 12415  6906 14033 15598  2407 12366 14033  581 8377 12367  8377 12367 12369  865 10721 15370  865 12368 15370  2157 5350 12369  3219 12369 15370  1142 9902 15159  1142 12370 15159  5736 10898 12371  567 10898 12371  953 8806 12372  3472 8806 12372  2077 7740 12373  7740 12373 14468  3256 6527 12374  2523 6527 12374  5391 11165 12375  3065 11165 12375  2289 7135 12376  2289 5149 12376  249 8813 12377  249 8989 12377  5213 9869 12378  1509 9869 12378  4294 7110 14620  3704 7110 14620  3180 5631 14280  3180 12380 14280  9974 12380 12381  3180 12380 12381  4139 7893 15338  4139 12382 15338  4537 7835 12383  4537 4976 12383  1392 11455 12384  2974 11455 12384  2559 6029 12385  586 6029 12385  952 5573 12386  952 8992 12386  1465 9356 12387  4354 9356 12387  3913 11880 13362  3913 12388 12389  389 9482 13625  389 12389 13625  2557 10079 12390  4798 10079 12390  6416 12391 15561  2737 12391 15561  1811 4910 12392  2463 5306 13557  1647 6251 12393  4495 6251 12393  3392 6076 12394  200 6076 12394  3613 6667 14344  6667 12395 14344  2204 6967 14699  2204 12396 14699  3096 6064 13880  922 6064 12397  5763 10043 12398  2581 10043 12398  1473 5805 12399  1473 5804 12399  1360 4959 13894  1360 12400 13894  4960 12400 12401  207 4960 12401  3260 5707 12402  1458 5707 12402  4318 8758 12403  2088 8758 12403  944 6829 12404  3329 6829 12404  3329 6654 12405  144 6654 12405  3329 6829 12406  1462 6829 12406  6379 10284 12407  3188 10284 12407  1588 8640 12408  3417 8640 12408  1377 4088 12409  3241 4088 12409  5398 12409 12410  3241 12409 12410  6698 12411 12672  492 6698 12411  2008 7229 12561  2008 12412 12561  902 6490 12413  3192 6490 12413  3144 5789 12414  1779 5789 12414  1358 9922 13792  1358 12415 13792  6671 12416 12417  844 6671 12416  3197 9488 12417  1684 9488 12417  4311 12418 15350  394 4752 12418  3002 7375 12419  1526 7375 12419  939 8159 12420  3349 8160 15543  3964 8783 12421  2101 8783 12421  12413 12422 15188  3192 12413 12422  1399 5324 12423  2350 5324 12423  1904 6227 12424  3308 6227 12424  3308 4835 12425  1243 4835 12425  3308 6446 12426  50 6446 12426  230 7270 12427  230 7119 12427  5258 9446 12428  2743 6541 12637  3250 7311 12429  1895 7311 12429  528 7311 12430  3250 7311 12430  931 5565 12431  3250 5565 12431  1291 12432 12433  4751 12432 12433  2237 5579 13135  4751 5579 13135  1088 12434 12536  3889 12434 12536  4581 11566 12435  1675 11566 12435  2552 9280 12436  6175 9280 12436  4149 12437 15494  1450 12437 15494  1891 7428 12438  3536 7428 12438  3217 6122 12439  6122 12439 14162  2086 7735 12738  2086 12440 12738  3370 8077 12441  2144 8077 12441  198 10857 13125  3966 10857 13125  2951 10940 12443  5660 10940 12443  4821 7228 12444  1512 7228 12444  509 6419 13811  1826 6419 12445  10065 12446 14257  2558 10065 12446  2146 7936 12447  7936 12447 12448  557 4181 12448  3364 4181 12448  2834 9912 12449  3938 9912 12449  1333 8359 12450  1333 4986 12450  3937 10315 12940  3937 12451 12940  2898 11164 12452  5974 11164 12452  2139 5130 12453  1456 5130 12453  4283 8818 12454  2116 8818 12454  6423 12455 14722  946 6423 12455  3198 5431 12456  48 5431 12456  1396 5431 12457  3198 5431 12457  358 5443 12458  4091 5443 12458  3913 12388 12459  3913 9538 12459  3371 4737 15695  3371 12460 15695  7696 11813 12461  3108 11813 12461  4008 11467 12462  279 11467 12462  4008 14157 15215  4008 14157 14745  3492 7156 12464  905 7156 12464  1471 4711 12465  5318 12465 15754  2780 5449 12466  445 5449 12466  1946 8846 12467  3839 8846 12467  4034 6099 12468  6099 6327 12468  5459 12469 12575  3596 12469 12828  1797 6263 12470  3628 6263 12470  1498 5974 13892  898 5974 12471  2745 6415 12472  2745 5590 12472  739 9196 12473  739 6229 12473  3790 7752 12474  1158 7752 12474  3348 5126 12475  331 11299 13093  1050 8075 12476  4043 8075 12476  1310 4702 12477  1310 5030 12477  1476 4930 12478  4036 12758 14401  3335 12479 13604  890 12479 13604  1428 8668 12480  1428 5040 12480  2073 6239 12481  2074 6239 12481  1949 12482 13034  3856 12482 13034  2754 6381 12483  1724 6381 12483  1464 5304 12484  3287 5304 12484  1399 5336 12485  3287 5336 12485  598 7014 12486  3287 7014 12486  3957 13869 13871  3957 5455 12487  4900 12338 12488  1272 12338 12488  5800 10800 12489  741 10800 12489  3432 5516 12490  1270 12490 15432  595 11158 12491  4879 11158 12491  2855 10951 12492  7328 10951 12492  919 4949 12493  3464 4949 12493  2867 10378 12494  2867 6429 12494  3923 4822 12495  462 4822 12495  4548 8625 12496  1314 8625 12496  4549 7220 12497  1845 7220 12497  4515 7502 12498  4515 6278 12498  5437 12506 13198  235 12506 13198  976 4291 12500  3733 4291 12500  3733 7340 12501  1548 7340 12501  3264 5934 12502  1576 5934 12502  1420 10638 12503  4599 10638 12503  3366 8621 12504  2280 8621 12504  5204 9592 12505  1339 9592 12505  5437 12146 12506  3429 12146 12506  1031 10678 12507  1031 9792 12507  373 8195 12508  5342 8195 12508  1888 6396 12509  3215 7264 13934  2445 5729 12510  1407 5546 14459  1026 11266 12511  4641 13886 13887  10346 12318 12512  3384 12318 12512  4583 9708 12513  1259 9708 12513  1522 6061 12514  3020 6061 12514  4253 9852 12515  82 12515 12520  3412 5780 12516  894 5780 12516  2531 8714 12517  307 8714 12517  6283 12518 12519  1598 6283 12518  6438 12164 12519  849 12164 12519  4253 12515 12520  3216 4253 12520  542 5045 12521  3248 5045 12521  3315 6477 12522  2413 6477 12522  3315 5897 12523  5897 12523 14559  1710 6643 12524  3283 6643 12524  3283 5475 12525  1403 5475 12525  5755 12524 12526  3283 12524 12526  3220 7534 12527  1424 7534 12527  7702 12528 14431  3220 7702 12528  6348 12527 12529  1714 6348 12529  1444 6614 12530  1444 6262 12530  3350 9285 12531  3350 8019 12531  3140 12532 15416  7865 12532 15416  3591 6965 12533  987 6965 12533  5941 12526 12534  5941 12534 13179  3354 5989 12535  5989 9209 12535  4950 12536 14003  3889 12536 14003  9058 12537 14196  3380 9058 12537  3380 12538 15632  418 12538 15632  2171 8518 12539  2171 8519 12539  3757 6499 12540  6499 7190 12540  2608 10180 12541  4413 10180 12541  2129 7298 14744  2129 12542 14744  1712 8943 12543  1712 7176 12543  1100 6315 12544  3499 6315 12544  2792 6031 12545  1975 6031 12545  839 12546 14246  839 8146 12546  4681 7515 12547  1387 7515 12547  1575 9851 12548  1575 6249 12548  1331 5147 12549  4101 8673 14075  2298 4806 12550  619 4806 12550  1306 8656 12551  4304 6809 15647  3311 5980 14068  3311 12552 14068  5227 11628 12553  1363 5227 12553  82 6282 12554  3246 6282 12554  3246 6282 12555  1598 6282 12555  936 12556 13303  6041 12556 13865  1245 8616 14733  8616 12557 14733  6674 10859 12558  1307 10859 12558  5909 12559 15165  4158 12559 15165  1510 8738 12560  4161 8738 12560  738 6409 12561  3483 6409 12561  28 8232 12562  3741 8232 12562  2180 8450 12563  3400 8450 12563  3222 6602 12564  67 6602 12564  2953 10822 12565  4584 10822 12565  2866 11084 12566  4260 11084 12566  828 12042 12567  6801 12042 12567  2208 8555 12568  2208 5310 12568  3703 6505 12569  631 6505 12569  541 9608 12570  3980 9608 12570  3658 6080 14275  3288 6080 12571  1255 6514 12572  3741 6514 12572  3741 8233 12573  1268 8233 12573  4682 11867 12574  808 11867 12574  990 9926 12575  4157 9926 12575  4405 14096 14097  4406 12576 13626  3568 12577 13972  3568 6604 13973  3643 12578 13719  1179 6071 14182  3235 11630 15741  3235 12579 15741  897 6741 13106  1740 6741 12580  1467 11602 12581  4115 8223 13546  2118 7386 12582  3381 7386 12582  4709 9201 12583  390 9201 12583  3381 5676 12584  1680 5676 12584  1645 5497 12585  3242 5497 12585  3242 5497 12586  1667 9319 14834  3289 7506 12587  1980 7506 12587  5336 12423 12588  2350 12423 12588  268 8317 12589  268 6401 12589  4706 11589 12590  3067 11589 12590  4948 6867 14309  3699 6867 12591  2789 7347 12592  3526 7347 12592  3398 6047 12593  241 6047 12593  1546 6075 12594  2884 6075 12594  244 8982 12595  5629 12595 13697  128 12596 14496  4597 12596 14496  4429 10951 15107  1582 4429 12597  3613 7776 12598  620 7776 12598  181 10593 12599  10593 12599 14017  7523 12274 12600  1726 12274 12600  396 4620 12601  3459 4620 12601  901 5359 12602  3373 5359 12602  388 8719 12603  3716 8719 12603  4898 11948 12604  3231 11948 12604  3959 5605 12605  416 5605 12605  240 11312 12606  4491 11312 12606  2222 11604 12607  11604 12607 14039  4436 12608 14479  2478 12608 14479  5448 11897 12609  3061 11897 12609  4185 8659 12610  1118 8659 12610  3375 6807 12611  429 6807 12611  3375 8458 12612  2612 8458 12612  9567 12612 12613  901 9567 12613  590 11440 12615  5628 11440 12615  3914 8750 12615  590 8750 12615  1615 6899 12616  1615 5977 12616  1770 6980 12617  3234 6980 12617  861 6152 12618  3234 6152 12618  3234 6152 12619  1570 6152 12619  3234 6153 12620  17 6153 12620  1120 10923 14178  3368 10923 14178  3323 5340 12622  1410 5340 12622  3323 11051 12623  93 11051 12623  3480 7964 12624  129 7964 12624  3768 12558 12625  1307 12558 12625  165 7153 12626  7153 12626 15515  5427 10321 12627  626 10321 12627  1252 10121 12628  10121 12628 15314  122 5895 12629  3237 5895 12629  1910 4775 12630  4775 12630 13443  2063 12177 12631  4069 12177 12631  1178 8087 12632  3950 8087 12632  291 8080 12633  3521 8080 12633  94 12634 15430  3915 12634 15430  1112 8582 12635  3367 8582 12635  3940 8472 15478  8472 12636 15478  2743 12428 12637  5258 12428 12637  928 9617 12638  3428 9617 12638  4164 6870 12639  1878 6870 12639  6161 13237 15757  4917 13237 15757  2551 5830 12641  2188 5830 12641  3015 6357 12642  1688 6357 12642  4452 11113 12643  3309 11113 12643  3684 6583 12644  1950 6583 12644  3464 10618 12678  3684 10618 12645  98 6583 12646  3684 6583 12646  7552 12647 13753  1060 7552 12647  4056 8349 12648  2181 8349 12648  4284 9270 12649  1149 9270 12649  1094 7163 12650  3482 7163 12650  6383 11202 12651  736 6383 12651  1490 4640 12652  1490 5322 12652  3466 7651 12653  7650 7651 12653  3828 12127 12654  4189 12127 12654  3829 11975 12655  137 11975 12655  1673 12656 14061  1673 5089 14061  1694 8048 12657  6138 12657 13777  3856 6517 13220  3335 12658 13604  930 5157 12659  3244 12659 12692  7979 12659 12660  3244 12659 12660  955 8427 12661  4646 8427 12661  3827 6671 12662  1684 6671 12662  1736 4575 12663  506 4575 12663  5432 11136 12664  2793 11136 12664  1491 5910 13661  747 5910 12665  8859 12340 12666  4337 8859 12666  2966 5911 12667  5911 12667 13205  5489 10435 12668  2430 10435 12668  413 10684 12669  1988 4445 12747  3682 9426 12670  986 9426 12670  721 5164 12671  2639 12671 15461  3483 12411 12672  3483 6409 12672  1421 5737 12673  5202 10839 15341  1738 6816 12674  3263 6816 12674  3886 9543 12675  1078 9543 12675  3886 7843 12676  1550 7843 12676  3454 7209 12677  988 7209 12677  10618 12645 12678  1103 12645 12678  3905 8478 12679  2221 8478 12679  2135 7154 13623  2135 8383 12680  4950 12536 12681  1088 12536 12681  3510 9321 12682  1355 9321 12682  3124 6208 12683  1568 6208 12683  8441 8912 12684  3559 8912 12684  6175 12684 12685  3559 12684 12685  200 6076 12686  3273 6076 12686  3273 6076 12687  1546 6076 12687  3286 5367 12688  562 9254 14465  3934 7299 12689  2541 7299 12689  4906 10248 12691  2859 10248 12691  554 7031 12691  554 4906 12691  5157 7141 12692  1376 7141 12692  4104 8290 12693  1066 8290 12693  4408 12212 12694  2792 12212 12694  5914 11869 12695  1482 5914 12695  183 10499 12696  6677 10499 12696  3822 7575 12697  1934 7575 12697  5064 9250 12698  2395 5064 12698  3468 6298 12699  370 6298 12699  3468 7822 12700  1383 7822 12700  592 9888 12701  5484 9888 12701  3530 5224 12702  1583 5224 12702  3530 5968 12703  933 5968 12703  5197 10455 12704  2686 10455 12704  1536 5994 12705  1536 5993 12705  564 6243 12706  564 5906 12706  3360 6387 12707  1670 6387 12707  612 6387 12708  3360 6387 12708  3360 6707 12709  6707 12709 13150  3663 6997 12710  296 6997 12710  3863 12711 12723  3863 8332 12711  7094 12712 14841  1454 6126 12712  3547 7217 12713  1837 7217 12713  3407 12714 13211  3407 12980 13211  4309 8764 12715  1841 8764 12715  1337 6006 14363  6006 12716 14363  2964 4353 12717  2964 6316 12717  3264 6434 12718  907 6434 12718  239 6433 12719  3264 6433 12719  2759 8857 12720  2041 4350 13095  3458 6224 12721  214 6224 12721  3358 8495 12722  5108 6865 13764  9148 11369 12723  637 9148 12723  3580 6256 12724  249 6256 12724  739 9126 12725  739 9040 12725  1553 9241 12726  5490 9241 12726  6935 12727 15573  1890 5623 12727  4980 11225 12728  278 11225 12728  3666 6458 14034  6458 12729 14034  8899 12730 14970  5646 7167 12732  3399 12462 12731  6465 12462 12731  4693 11737 12732  1433 11737 12732  2054 6584 12733  3751 6584 12733  927 6766 12734  3291 6766 12734  1191 7349 12735  3545 7349 12735  5074 7224 14384  3545 5074 14384  3630 11690 12737  1267 11690 12737  7690 7735 12738  3194 7690 12738  3322 11670 14779  3322 12739 14779  3316 7293 12740  3316 6320 12740  3861 9297 12741  2400 9297 12741  5380 12039 12742  238 12039 12742  3440 7853 12743  481 7853 12743  1812 7853 12744  3440 7853 12744  501 6986 12745  4722 6986 12745  5779 8961 12746  2462 5779 12746  4445 12669 12747  413 12669 12747  275 9507 12748  275 5354 12748  1388 5649 12749  1388 5276 12749  3361 8217 12750  5571 12750 13171  2469 4744 12751  1380 4744 12751  2619 10317 12752  5120 10317 12752  2620 7970 12753  2620 9985 12753  1773 6840 12754  3291 6840 12754  3493 6187 12755  6187 12755 13641  641 8576 12756  3493 8577 13277  10017 12757 13254  4113 5299 12757  722 8823 12758  4036 8823 12758  2633 9856 12759  6363 9856 12759  3470 10592 12760  693 10592 12760  1125 7763 12761  7763 12761 15766  1807 11208 12762  4531 11208 12762  1082 11276 12763  4047 11276 12763  957 6082 12764  3306 6082 12764  3306 6082 12765  6082 12765 14843  410 5510 12766  3306 12766 13720  3535 12767 13523  3535 11891 13523  3535 9242 12768  2000 9242 12768  2682 7863 12769  3519 7863 12769  3519 6606 12770  1724 6606 12770  521 5494 12771  5005 5494 12771  2480 7642 12772  2482 7642 12772  4123 11946 12773  1531 11946 12773  286 4935 12774  3313 4935 12774  2592 12775 14746  2592 5762 12775  4808 8793 12776  2058 4808 12776  1177 12777 14120  3890 12777 14120  3890 9731 12778  330 9731 12778  1668 6652 12779  3276 6652 12779  3276 6652 12780  251 6652 12780  3278 6653 12781  1668 6653 12781  868 7146 12782  3276 7146 12782  1565 5606 12783  3154 12783 14790  3290 7412 12784  879 7412 12784  1796 7412 12785  3290 7412 12785  3290 5281 12786  246 5281 12786  6028 11269 12787  1512 11269 12787  3910 8286 12788  7411 12788 15438  3307 7780 12789  2113 7780 12789  2216 7283 12790  4146 7283 12790  4094 9959 12791  24 9959 12791  4103 12084 15687  3279 12084 12792  3517 5916 12793  172 5916 12793  4512 5695 12794  5695 12794 13242  3720 8584 12795  1341 8584 12795  4502 6166 15462  6166 12796 15462  2725 6170 12797  2725 8177 12797  3686 9721 14271  3687 9721 12798  5268 11285 12799  2952 11285 12799  1992 7622 12800  3294 7622 12800  3561 5684 13718  3294 9714 14009  3365 5872 12802  1633 5872 12802  3365 5203 12803  1010 5203 12803  6317 12802 12804  424 6317 12804  193 6275 12805  6275 12805 12806  1675 6274 12806  3387 6274 12806  1916 4942 12807  2933 4942 12807  792 5964 12808  792 5824 12808  4274 9180 12809  2034 9180 12809  582 11559 12810  3062 11559 12810  1047 8422 12811  3570 8422 12811  9931 12811 12812  3570 12811 12812  3517 5670 12813  1798 5670 12813  8919 10137 12814  2750 10137 12814  3491 7398 12815  2022 7398 12815  4389 10195 12816  2711 4389 12816  4261 8905 12817  640 8905 12817  1744 6384 12818  1744 5011 12818  4285 11161 12819  2211 11161 12819  1247 12820 14267  3411 12820 14267  2044 11017 14318  4336 11017 14318  3411 12822 15411  576 12822 15411  626 8258 12823  4967 8258 12823  2584 8795 12824  5083 8795 12824  4196 7194 12825  545 7194 12825  5051 11101 12826  1542 11101 12826  1635 6977 12827  3435 6977 12827  5459 12469 12828  1392 5459 12828  507 11895 12829  4676 12829 14701  4288 10124 12830  791 10124 12830  1377 5400 12831  1377 5399 12831  9155 12832 14513  4360 9155 12832  1636 6294 12833  6294 12833 13628  1949 12834 13034  4378 6726 15170  2508 9031 12835  9031 12835 13812  1592 4783 13479  1592 12836 13479  3288 6080 12837  1400 6080 12837  5334 6796 12838  1375 6796 12838  1756 5908 12839  3266 5908 12839  3505 9063 12840  1058 9063 12840  2362 9092 12841  3505 9092 12841  1160 9049 12842  1160 5617 12842  554 7031 12843  3873 7031 12843  1197 4093 12844  3585 6707 13150  4651 13224 13225  3954 4651 12845  3919 8385 12846  666 8385 12846  3919 12847 13352  1135 12847 13352  5371 11683 12848  2648 11683 12848  4006 11209 12849  4006 7414 12849  2017 7904 12850  3006 7904 12850  3945 7273 12851  225 7273 12851  2279 5482 12852  3619 5482 12852  67 7653 12853  5423 7653 12853  1571 5860 12854  4846 5860 12854  6590 10633 12855  502 10633 12855  168 4820 12856  4820 12856 14095  1866 4830 12857  1866 5624 12857  3430 6469 12858  1023 6469 12858  1746 6469 12859  3430 6469 12859  36 7705 12860  4393 7705 12860  3390 4932 12861  1679 4932 12861  3567 7461 12862  1373 7461 12862  3567 5820 12863  972 5820 12863  6689 12881 15644  3970 12864 12865  3763 7150 12865  1861 7150 12865  6425 10330 12866  3176 10330 12866  1503 4180 12867  4180 6372 12867  5047 8684 12868  5047 10412 13913  2291 8695 15601  1124 8695 12869  1637 6164 12870  3192 6164 12870  3436 8793 12871  386 8793 12871  1158 9884 12873  1158 12872 12873  3436 6408 12873  2958 6408 12873  3697 10281 12874  1009 10281 12874  4447 8802 12875  4447 12875 14814  2766 5785 12876  2028 5785 12876  3960 11642 12877  2756 11642 12877  5198 12160 12878  3172 12160 12878  4707 10586 12879  2674 10586 12879  2694 7915 12880  2694 6006 12880  1861 6725 12881  3486 6725 12881  1219 11108 12882  3470 11108 12882  1859 8454 12883  5314 8454 12883  1496 5283 12884  1496 10126 12884  2824 11700 12885  4057 11700 12885  781 10356 12886  4333 10356 12886  3839 8846 12887  18 8846 12887  4368 10525 12888  685 10525 12888  930 7979 12889  3293 7979 12889  1982 5558 12890  1982 4663 12890  4743 10102 12891  3293 4743 12891  3251 11609 14272  3251 6192 12892  884 8747 12893  4859 8747 12893  5128 9694 12894  1824 9694 12894  3885 8907 12896  3526 8907 12896  1137 8330 12896  3885 8330 12896  4501 12897 15205  4501 5983 12897  3548 7200 12898  7200 7201 12898  1218 7019 12899  4434 7019 12899  4196 8369 12901  1098 8369 12901  7194 12901 13143  4196 7194 12901  1401 9848 12902  4739 9848 12902  2265 8997 12903  3379 8997 12903  6204 10103 15496  3305 10103 12904  5819 12904 12905  3305 12904 12905  1756 7096 12906  3304 7096 12906  3304 6358 12907  1688 6358 12907  747 6358 12908  3304 6358 12908  3138 12833 12909  3138 6285 12909  940 7292 12910  3500 7292 12910  1387 5001 12911  5001 5002 12911  3318 7216 12912  1837 7216 12912  9145 11568 12913  3569 9145 12913  3345 11565 15159  1025 11565 12914  3100 9902 12915  3344 9902 12915  5355 11325 12916  1862 11325 12916  4342 9168 12917  26 9168 12917  921 7253 12918  3766 7253 12918  3751 7152 12919  7152 11127 14308  1868 7367 12920  3702 7367 12920  3824 10276 12921  4469 12921 13061  2986 5125 12922  5125 12922 13682  6147 8854 12923  1408 8854 12923  2875 8788 12924  5528 8788 12924  5194 5559 12925  1822 5559 12925  4369 4686 15285  4686 12926 14816  7761 12927 13510  3347 7761 12927  447 6428 12928  3594 6428 12928  2433 8960 12929  6731 8960 12929  674 10442 12930  3772 10442 12930  8188 11291 12931  3433 8188 12931  6318 12931 12932  3433 12931 12932  1439 5706 12933  3450 5706 12933  3450 7185 12934  1384 7185 12934  9851 12464 12935  905 12464 12935  3264 6433 12936  1620 6433 12936  3718 8648 12937  415 8648 12937  3673 7458 12938  509 7458 12938  1661 6353 12939  1661 4668 12939  4183 5030 12940  1310 5030 12940  7920 10101 12941  3353 10101 12941  3353 5488 12942  1734 5488 12942  4641 9457 12943  4641 12943 13887  1664 12944 13070  1664 9197 12944  1201 4707 12945  1201 5391 12945  1676 6224 12946  3458 6224 12946  3783 9202 12947  3783 5077 12947  1011 8410 12966  3990 12948 15264  237 4446 12949  2529 4446 12949  4542 11146 12950  4543 12950 14724  4604 5924 12951  1642 5924 12951  1798 5669 12952  5669 12952 13653  3050 5962 12953  1607 5962 12953  3715 9163 12955  4754 9163 12955  432 5794 12955  3715 5794 12955  3941 6611 12956  1698 6611 12956  5841 7821 12957  3842 7821 12957  7389 9417 12958  3534 7389 12958  3534 7389 12959  1155 7389 12959  1599 9889 12960  9889 12960 12961  9888 12512 12961  3384 12512 12961  3518 8608 12962  2786 8608 12962  3337 7413 12963  2027 7413 12963  5038 12964 15296  1412 5038 12964  119 5867 13037  5867 12965 13037  12948 12966 15264  3583 12948 12966  3340 7197 14698  885 7196 12967  408 6093 12968  408 9322 12968  5370 10600 12969  1505 10600 12969  6897 7243 12970  6897 12970 13650  760 8960 12971  3669 8960 12971  32 11700 12972  32 4530 12972  5282 11220 12973  3387 11220 12973  1411 5108 12974  5108 6865 12974  2169 8090 12975  4138 8090 12975  2757 9776 12976  9776 12976 12977  811 6975 12977  3355 6975 12977  549 6561 12978  549 4652 12978  4997 11158 12979  595 11158 12979  5627 12980 13211  5627 9135 12980  4238 11942 12981  1192 11942 12981  5020 9425 12982  1286 9425 12982  4329 12966 12983  3583 12966 12983  1340 10865 12984  3789 10865 12984  8903 12985 13435  3312 8903 12985  956 9138 13129  5399 5696 12986  257 5339 12987  4287 5339 12987  2946 4913 12988  3793 4913 12988  1537 10222 12989  3642 10222 12989  3409 10725 12991  3409 12990 12991  943 6523 12991  3410 6523 12991  1582 8082 12992  4695 8082 12992  2162 6095 12993  4697 6095 12993  1816 6982 12994  2935 6982 12994  5067 12995 14103  531 12995 14103  5663 8578 12996  2594 8578 12996  3573 8835 12997  420 8835 12997  3572 11640 12998  11640 12998 14907  1063 9130 12999  5305 9130 12999  745 10701 13000  4472 10701 13000  3494 7341 13001  1871 7341 13001  884 10789 13002  3326 10789 13002  2182 8075 13003  2182 8074 13003  1606 7475 13004  3906 7475 13004  1072 8708 13005  4052 8708 13005  501 6015 13006  3314 13006 13007  6015 13006 13007  1769 6015 13007  7871 13008 13049  2055 7871 13008  4957 9080 13009  2329 9080 13009  4115 12581 13010  1467 12581 13010  4354 12387 13012  4354 13011 13012  1467 6744 13012  4355 6744 13012  3377 7240 13013  3377 5996 13013  1720 6461 13014  2802 6461 13014  958 6932 13015  4567 6932 13015  3052 6084 13016  1734 6084 13016  3560 9371 13017  982 9371 13017  3560 9210 13018  2764 9210 13018  3318 4690 13019  1838 4690 13019  3840 5766 13020  1632 13020 14948  3840 8728 13021  1846 8728 13021  4049 13022 15558  1097 13022 15558  4050 10675 13023  1077 10675 13023  5065 9588 13024  1966 9588 13024  2995 5958 13025  745 5958 13025  550 10219 13026  3667 10219 13026  2505 8498 13027  2505 5842 13027  2979 4844 13028  4844 7623 13028  432 5711 13029  3659 5711 13029  3659 7657 13030  2476 7657 13030  4868 7902 13031  1273 7902 13031  4208 7277 13032  1672 7277 13032  6771 13321 15203  475 13321 15203  890 5615 13034  3856 13220 13604  261 13035 15027  261 7117 13035  6722 8542 13036  6722 13036 13943  3760 9309 13037  119 9309 13037  452 6656 13038  3327 6656 13038  6267 12251 13039  2853 12251 13039  2018 5353 13040  3714 5353 13040  3039 5551 13041  2147 5551 13041  6062 11744 13042  3014 11744 13042  6152 12078 13043  3233 12078 13043  243 7106 13044  3324 7106 13044  3324 8070 13045  8070 13045 13737  862 5215 13046  2862 5215 13046  5409 11678 13047  177 11678 13047  4920 10895 13048  347 10895 13048  2925 13008 13049  3833 6837 14203  1591 6311 13050  3327 6311 13050  3327 6656 13051  1854 6656 13051  4898 10872 13052  3603 10872 13052  4893 6791 13053  173 6791 13053  3403 5725 13054  1449 5725 13054  1165 6525 13055  3654 6525 13055  3654 13056 13057  1270 13056 13057  4510 7155 13057  1270 7155 13057  1479 8998 13058  3654 8998 13058  3408 6523 13059  943 6523 13059  613 13060 14818  3993 13060 14818  2606 8455 13416  2606 13061 13416  4082 13994 14634  4082 13062 13994  7089 10671 13063  1257 10671 13063  4168 13064 14249  1099 13064 14249  1759 6892 13065  3445 6892 13065  3445 7115 13066  963 7115 13066  2485 7841 14053  2485 13067 14053  272 8127 13068  3455 8127 13068  3455 4940 13069  1282 4940 13069  6236 12944 13070  3455 6236 13070  3419 11848 13071  5969 11848 13071  5645 12133 13072  2833 12133 13072  9502 13073 14509  2515 9502 13073  1511 5889 13074  3761 5889 13074  4205 11964 13075  2454 11964 13075  4511 7877 13076  4511 6289 13076  1746 6470 13077  3444 6470 13077  366 6468 13078  3444 6468 13078  3887 13079 13796  568 13079 13796  1210 8164 13080  4683 8164 13080  1706 11572 13081  5137 11572 13081  6020 10949 13082  2856 10949 13082  3339 6363 13083  101 6363 13083  1618 6363 13084  3339 6363 13084  6037 8386 14023  1006 13085 15254  2295 12750 13086  5571 12750 13086  2249 7939 13087  6346 7939 13087  3974 8958 13088  1047 8958 13088  2196 8626 13089  3398 13089 13090  8626 13089 13090  904 8626 13090  1717 6795 13091  3553 6795 13091  3553 6663 13092  841 6663 13092  331 12475 13093  5126 12475 13093  1203 8228 13094  3469 8228 13094  4350 12720 13095  2759 12720 13095  2331 8777 13096  3476 8777 13096  7612 13097 15673  227 6878 13097  2829 9900 13098  4129 9900 13098  692 8319 13099  4244 8319 13099  960 5873 13100  5873 13100 14111  821 5718 13101  2796 5718 13101  403 10382 13102  4117 10382 13102  2118 7386 13103  2118 6022 13103  2815 5170 13104  356 5170 13104  1223 10097 13105  4700 10097 13105  6741 12580 13106  3235 12580 13106  3631 9419 13107  2085 9419 13107  612 12301 13108  612 6634 13108  105 6472 13109  3200 6472 13109  3507 10775 13110  214 10775 13110  1030 6346 13111  3636 6346 13111  1076 8808 13112  3586 8808 13112  1883 7053 13113  1464 4799 13804  1405 13784 15389  3565 13782 13784  1922 8697 13115  3537 8697 13115  3005 5953 13116  949 5953 13116  1369 9455 15701  1369 13117 15701  5263 8702 13118  5263 10787 13118  4245 11905 13120  4244 11905 13120  1353 4675 13120  4245 4675 13120  6161 13121 13237  522 6161 13121  2491 10762 13122  4983 10762 13122  2831 5763 13123  662 5763 13123  939 8019 13124  3350 8019 13124  3350 9285 13125  198 9285 13125  1535 5996 13126  3377 5996 13126  1537 6079 13127  3377 6079 13127  7210 13128 14338  3652 6974 13128  3569 8850 13129  5399 8850 13129  6506 9939 13130  2979 9939 13130  1342 5468 13131  2208 5468 13131  5990 9371 13132  753 5990 13132  463 5088 13133  4379 6644 14667  3109 6549 13134  1947 6549 13134  4750 8573 13135  2237 8573 13135  4077 11294 13136  454 11294 13136  955 6300 13137  4416 6300 13137  3848 6023 13138  1657 6023 13138  4565 9977 13139  746 9977 13139  1711 11435 13140  5472 11435 13140  4163 8290 13141  2112 8290 13141  3774 7232 13142  78 7232 13142  3774 5999 13143  2074 5999 13143  3506 13522 13581  1213 11151 13522  3232 12257 13145  5526 12257 13145  4691 13146 15546  2361 13146 15546  6691 13147 14245  3357 6691 13147  6491 13147 13148  3357 13147 13148  5901 12844 13149  3585 12844 13149  3585 12844 13150  1197 12844 13150  322 7100 13151  3585 7100 13151  1544 12472 13152  5590 12472 13152  3604 13152 13153  5686 13153 13226  535 5291 13154  5291 5701 13154  2424 9535 13155  2424 9534 13155  510 10426 13156  3903 10426 13156  1560 6195 13157  3362 6195 13157  3362 7916 13158  7916 13158 15626  2366 8216 13159  3359 8216 13159  3359 7418 13160  2174 7418 13160  1311 10021 13161  4933 10021 13161  1557 5853 14332  217 5853 13162  1556 6345 13163  4777 6345 13163  3557 8002 13164  281 8002 13164  1057 13165 13444  4263 13165 13444  1997 6105 13166  1997 5943 13166  1253 11544 13167  4966 11544 13167  5625 11964 13168  1494 11964 13168  2541 6290 13169  2541 7299 13169  4098 8003 13170  1075 8003 13170  3361 4912 13171  1935 4912 13171  3361 8217 13172  726 8217 13172  4900 10797 13173  339 10797 13173  3437 6252 13174  1590 6252 13174  3492 6931 13175  1573 6931 13175  5050 13063 13176  1257 13063 13176  4729 7812 13177  4729 13177 13518  3419 7093 13178  7093 13178 13761  5476 9441 13179  2421 9441 13179  1759 6893 13180  3372 6893 13180  1960 10989 13181  4907 10989 13181  314 8425 13182  4978 8425 13182  8593 8994 13183  3376 8593 13183  8546 13184 14546  3378 7972 13184  4941 10585 13185  1787 10585 13185  2429 10614 13186  3382 10614 13186  1308 13187 13960  1308 12079 13960  1899 4140 13188  3900 4140 13188  1893 6998 13189  1893 6404 13189  1832 8313 13190  1832 8036 13190  3933 7149 13191  5048 7149 13191  5035 7387 13192  7387 13192 15124  3697 10713 13193  550 10713 13193  3792 12221 13768  3792 7568 13194  4453 11676 13196  1150 11676 13196  1760 13235 14627  4453 13235 14627  4811 14811 15381  6271 14811 15381  2821 5465 13198  2821 5437 13198  2405 5851 13199  1521 5851 13199  2187 8496 15072  2187 13200 15072  7240 13127 13201  3392 7240 13201  3392 7240 13202  751 7240 13202  3392 6075 13203  1546 6075 13203  6972 13204 13410  3397 6972 13204  3397 7032 13205  1606 7032 13205  3397 6046 13206  904 6046 13206  3374 6863 13207  1662 6863 13207  901 6598 13208  3374 6598 13208  3374 6598 13209  1683 6598 13209  3374 6599 13210  8 6599 13210  6159 12714 13211  470 6159 13211  3502 7544 13212  975 7544 13212  7545 12150 13213  3502 12150 13213  2439 9107 13239  2439 13214 13239  4338 6825 13215  1799 6825 13215  3209 5402 13216  863 13216 14389  2092 6203 13217  3703 6203 13217  3458 6411 13218  1617 6411 13218  5258 9446 13219  2438 9446 13219  12658 13220 13604  1825 12658 13220  915 8275 13221  3496 8275 13221  3496 8274 13222  412 8274 13222  546 11118 13223  5691 11118 13223  3629 7128 13224  1435 7128 13224  4651 12845 13225  87 12845 13225  3604 6526 13226  802 6526 13226  6526 8148 13227  3604 6526 13227  3526 7347 14919  7347 13228 14919  1869 5749 13229  5749 6431 13229  2390 9215 13230  9215 13230 13876  1126 11779 13231  3935 11779 13231  2843 8072 13232  3962 8072 13232  4333 10356 13233  2630 10356 13233  21 12950 13234  4995 12950 13234  4455 8079 13235  8079 13235 13283  6051 13236 15101  3932 15407 15408  2539 9855 13237  4917 9855 13237  3423 4320 13238  37 4320 13238  3423 6793 13239  906 6793 13239  3709 9781 13240  5757 13240 14589  236 5569 13241  3558 5569 13241  3558 5569 13242  1430 5569 13242  2097 7964 13243  3480 7964 13243  3504 12982 13244  1286 12982 13244  794 6178 13245  3504 6178 13245  1995 7336 13246  3437 6252 13494  1411 5132 13247  3322 13247 15256  5747 12079 13248  3416 5747 13248  3416 5747 13249  335 5747 13249  4381 6595 13250  1003 6595 13250  1604 6074 13251  4937 15150 15151  2117 10549 13254  679 10549 13252  9885 13253 13920  3461 13253 13920  10549 13252 13254  3461 13252 13254  5234 9382 13255  5234 13255 13522  5335 9171 13256  1554 13256 15312  7000 8632 13257  3404 7000 13257  285 6503 14255  1772 6503 13258  2060 7902 13259  4868 7902 13259  5761 8276 13260  1019 8276 13260  2260 8779 13261  8779 13261 15156  1986 6658 13262  3403 6658 13262  3893 10326 13263  3003 10326 13263  725 5993 13264  3438 5993 13264  3438 5993 13265  1536 5993 13265  199 5791 13790  1474 5791 13266  3556 9025 13267  512 9025 13267  1844 7252 13268  7252 13268 14151  1748 6296 13269  3440 6296 13269  9356 11156 13270  439 11156 13270  553 13271 15334  3426 13271 15334  7484 13271 13272  3426 13271 13272  3549 6259 13273  1788 6259 13273  646 6259 13274  3549 6259 13274  3549 5634 13275  1441 5634 13275  5206 10360 13276  1340 10360 13276  3493 12756 13277  8576 12756 13277  86 9105 13278  86 6991 13278  963 7115 13532  7115 13279 13532  359 9628 13280  7337 9628 13280  1610 7351 13281  3428 7351 13281  326 6735 13282  3428 6735 13282  4105 6520 13283  1760 6520 13283  269 8129 13284  4839 8129 13284  5337 6345 13285  673 5337 13285  3176 10330 13286  6271 10330 13286  904 4548 13287  3396 4548 13287  7495 11548 13288  113 11548 13288  4307 10838 13289  74 10838 13289  4486 11671 13290  783 11671 13290  5666 9736 13291  5666 5765 13291  50 4674 13292  50 5930 13292  2752 9734 13293  782 9734 13293  3696 6125 13294  326 6125 13294  6629 11415 13295  2580 11415 13295  1496 5284 13296  3610 5284 13296  1363 5227 13297  3378 5227 13297  1115 10008 13298  4125 10008 13298  2100 10022 13299  2100 8789 13299  5836 12101 13300  3022 12101 13300  3314 13006 13301  6980 12618 15225  4662 6527 13302  3256 6527 13302  8815 13303 14958  936 8815 13303  3575 6302 13304  6302 13304 14300  614 4358 13305  4358 13305 13306  1249 10256 13306  3575 10256 13306  1866 6591 13307  6591 13307 15583  3852 8011 13308  475 8011 13308  3852 6814 13309  1033 6814 13309  1546 6077 13310  1546 6254 13310  1342 13131 13311  5880 13131 13311  1454 5780 13312  3412 5780 13312  1861 7150 13313  3412 7150 13313  3412 7150 13314  7150 13314 14243  4671 11647 13315  64 11647 13315  1778 5701 13316  1778 6655 13316  4366 7655 13317  1758 7655 13317  2193 8502 13318  7751 8502 13318  1564 8637 13319  3431 8637 13319  3431 6771 13320  1788 6771 13320  475 13033 15203  3431 6771 13321  4915 9746 13322  260 9746 13322  924 8055 13323  3474 13323 13703  969 5302 13324  2487 8118 15121  3721 13325 13412  378 13325 13412  4009 13326 15215  4009 14157 15215  2957 11344 13327  5188 11344 13327  3991 10014 13328  2919 10014 13328  2902 11024 13329  292 11024 13329  2179 5029 13330  1500 5029 13330  266 6003 13331  2836 6003 13331  4423 10915 13332  786 10915 13332  4325 9951 13333  1440 9951 13333  5314 12061 13334  713 5314 13334  5061 11058 13335  2872 11058 13335  3473 8712 13336  2325 8712 13336  4371 11247 13337  3257 11247 13337  1652 13240 13338  5757 13240 13338  4642 9771 13339  1723 9771 13339  5751 11938 13340  414 11938 13340  1345 11483 13341  5239 11483 13341  5637 11029 13342  1919 5637 13342  4255 7257 13344  1432 7257 13344  4256 11353 13344  4255 11353 13344  1559 9045 13345  1559 5902 13345  6880 8328 13346  3563 6880 13346  5892 11720 13347  2304 5892 13347  100 13848 13849  2226 13348 14682  1102 7542 13349  4580 7542 13349  4085 7901 13350  4085 4922 13350  86 6991 14737  86 13351 14737  3918 10723 13352  1135 10723 13352  3635 6346 13353  1030 6346 13353  3135 12135 13354  4293 12135 13354  5888 7709 13722  2419 5888 13355  7799 12960 13356  4001 7799 13356  1573 6702 13357  3422 6702 13357  905 7156 13358  3422 7156 13358  239 5935 13359  5935 13359 14184  1574 6226 13360  3424 6226 13360  5508 13358 13361  3424 5508 13361  3913 12389 13362  389 12389 13362  6190 9896 13363  1580 9896 13363  5152 7842 13364  430 7842 13364  4996 15719 15720  4996 13365 15719  6043 10651 13366  2785 10651 13366  1337 8470 13367  3787 8470 13367  2072 7550 13368  3531 7550 13368  1614 13369 14584  3487 13369 14584  315 10657 13370  315 5839 13370  3611 7317 13371  1346 7317 13371  5662 9378 13372  3623 9378 13372  1199 8264 13373  2298 8264 13373  1915 8299 13374  1915 6949 13374  276 13375 14145  3961 13375 14145  276 5741 14145  1552 5741 14145  1460 9123 13377  3968 9123 13377  3721 5127 13412  3968 5127 13412  3968 5008 13379  1407 5008 13379  492 6698 13380  3779 6698 13380  915 8702 13381  3495 8702 13381  2189 6361 13382  6361 13382 13799  24 4365 13383  24 6943 13383  3452 9044 13384  9044 13384 14169  1323 5385 13385  3921 5385 13385  3414 6817 13386  2736 6817 13386  1653 6875 13387  3415 6875 13387  3415 6875 13388  900 6875 13388  4948 13389 14309  126 13389 14309  1163 11538 13390  4002 11538 13390  3605 4940 13391  639 4940 13391  8821 13391 13392  2364 8821 13392  914 5064 13393  2363 5064 13393  5424 13394 15708  223 13394 14709  2104 8009 13395  4059 8009 13395  9618 13396 14598  1448 9618 13396  694 5717 13397  3698 5717 13397  3698 5717 13398  5717 13398 15396  3698 5143 13399  1246 5143 13399  495 6817 13400  3414 6817 13400  3876 10626 13401  1963 10626 13401  3915 11794 13402  1572 11794 13402  2089 5722 13403  5722 5723 13403  4153 8403 13404  652 8403 13404  3540 9905 13405  1910 9905 13405  3064 6626 13406  6626 7788 13406  3699 6867 13407  6867 8708 13407  4826 9702 13408  1635 9702 13408  278 12031 13409  4772 12031 13409  4411 10267 14801  4411 4466 13410  5760 11142 13411  617 5760 13411  3968 13378 13412  378 13378 13412  6017 13413 14688  749 6017 13413  4198 6763 13414  1162 6763 13414  3140 11685 13415  8940 11685 13415  3824 13061 13416  3824 6234 13416  4013 6184 13417  293 6184 13417  4210 11190 13418  2360 11190 13418  2359 9525 13419  4210 9525 13419  2552 12436 13420  6616 12436 13420  1416 5393 13421  5393 13421 14140  239 6702 13422  3420 6702 13422  6713 13422 13423  3420 13422 13423  6418 13423 13424  3420 13423 13424  3717 14341 14646  3985 14341 15485  1302 6322 13426  4215 6322 13426  433 6653 13427  3278 6653 13427  6033 11898 13428  802 11898 13428  1590 6252 13429  3010 6252 13429  2703 5178 15396  2015 7859 14719  4953 15158 15316  4953 13431 15316  4816 8541 13432  2254 8541 13432  451 6831 13433  2932 6831 13433  4846 13434 14403  2358 13434 14403  2078 5894 13435  5894 6687 13435  3571 7371 13436  447 7371 13436  2004 7195 13437  3571 7195 13437  7371 10986 13438  3571 7371 13438  6778 13439 14622  149 6460 13439  7770 13440 15287  1741 6887 13440  729 6009 13441  729 9968 13441  1531 6046 13442  1531 6047 13442  3641 7487 13443  537 7487 13443  2855 13444 15148  4263 13444 15148  5891 8545 13445  2794 8545 13445  1192 4237 13446  1192 6665 13446  1683 6600 13447  1683 8847 13447  6119 13448 14297  3465 6119 13448  3476 9812 13449  2860 9812 13449  1744 9812 13450  3476 9812 13450  3476 8777 13451  736 8777 13451  2361 8745 13452  3629 8745 13452  3623 9378 13453  1065 9378 13453  1065 11811 13454  3777 11811 13454  581 8513 13455  5682 8513 13455  3324 6482 13456  3324 7106 13456  2589 11217 13457  5244 11217 13457  976 4291 13636  976 13458 13636  3732 7722 13459  237 7722 13459  3732 13460 13636  3732 13458 13636  3765 6134 15665  3765 13461 15665  4976 13462 14176  1316 4976 13462  4024 5954 15658  5954 13463 15658  3758 11916 13464  1035 11916 13464  1481 6256 13465  3580 6256 13465  1158 9884 13466  3894 9884 13466  4953 13431 13467  2179 13431 13467  5545 12298 13468  2574 12298 13468  383 5731 13469  3775 5731 13469  3453 6653 13470  433 6653 13470  1371 5122 13471  1371 8262 13471  2114 8311 13472  4179 8311 13472  4930 10170 13473  2741 10170 13473  4639 10198 13474  1193 10198 13474  3199 6726 13475  6726 13475 15170  1400 9122 13476  4891 9122 13476  5566 11959 13477  1672 5566 13477  5265 12279 13478  436 12279 13478  4328 9869 13479  4783 9869 13479  10139 13480 13995  1884 6349 13647  2647 9161 13481  4048 9161 13481  1110 6837 13482  4264 6837 13482  4439 9647 13483  4439 13483 14395  3837 11949 13484  252 11949 13484  602 7919 13485  7919 13485 14517  3562 10752 13486  1071 10752 13486  2739 10163 13487  3651 10163 13487  3439 8971 13488  3240 8971 13488  6420 13489 15223  347 6420 13489  4892 13476 13675  4891 13476 13675  3457 8067 13491  1678 6531 13596  322 8272 13492  322 8071 13492  3437 13246 13493  1995 13246 13493  7261 13493 13494  801 7261 13494  4255 9961 13495  459 9961 13495  4255 11353 13496  1191 11353 13496  8955 12971 13497  3669 12971 13497  3922 5924 13498  109 5924 13498  3922 7401 13499  2026 7401 13499  496 8267 13500  3527 8267 13500  3996 10698 13501  1419 10698 13501  1288 5017 13502  1288 4704 13502  1727 5168 13503  3923 5168 13503  4071 13504 14770  1550 13504 14770  1686 6551 13505  6551 9392 13505  2826 10186 13506  4863 10186 13506  963 4946 13507  3446 4946 13507  4383 9825 13508  4383 7085 13508  2481 7642 13509  7642 8466 13509  1470 5847 13510  3869 5847 13510  11345 13511 15067  3164 11345 13511  1096 8311 13512  5691 8311 13512  5053 13513 14606  5053 8262 13513  61 8124 13514  4528 8124 13514  2235 6775 13515  1776 8979 15692  1024 5644 13516  1024 5547 13516  6918 13517 13818  2288 6918 13517  3508 8995 13518  232 8995 13518  3508 7973 13519  1518 7973 13519  7973 13323 13520  3508 7973 13520  3673 7193 13521  923 7193 13521  1213 13144 13522  13144 13522 13581  1063 12767 13523  1063 8694 13523  3060 7710 13524  3060 6900 13524  4499 6912 13525  1155 6912 13525  647 5945 13526  2644 5945 13526  852 8153 13527  4916 8153 13527  1912 10298 13528  5557 10298 13528  532 9339 13529  4594 9339 13529  361 5851 13530  2405 5851 13530  3447 8870 13531  384 8870 13531  3447 4946 13532  963 4946 13532  222 10251 13533  4083 10251 13533  489 7250 13534  3700 7250 13534  5354 13535 15088  2217 5354 13535  10502 13536 15427  2514 10502 13536  3442 6875 13537  1653 6875 13537  6572 13537 13538  229 6572 13538  748 5646 13539  2577 8899 14970  5182 8198 13540  291 5182 13540  5113 11255 13541  2509 11255 13541  2389 8111 13542  3849 8111 13542  529 4973 13543  2518 6512 15224  629 7282 13544  629 7420 13544  3024 13545 13797  3024 6304 13545  4356 6110 13546  1486 6110 13546  1764 6959 13547  3442 6959 13547  6298 12700 13548  1383 12700 13548  6673 13115 13549  3537 13115 13549  3537 8697 13550  514 8697 13550  4896 14649 14651  4896 13551 13553  2207 8322 13552  3503 8322 13552  8321 13552 13553  3503 13552 13553  2136 7680 13554  3093 7680 13554  1594 5026 13555  3897 5026 13555  6915 8655 13556  1240 8655 13556  5306 12392 13557  1811 12392 13557  2207 5200 13559  446 5200 13558  5200 13558 13559  3448 13558 13559  8322 13559 13560  3448 13559 13560  3060 6596 13561  840 6596 13561  4278 8279 13562  3116 8279 13562  6341 12088 13563  3497 12088 13563  3795 7574 13564  130 7574 13564  1784 6418 13565  3994 6418 13565  7482 11691 13566  415 7482 13566  559 5473 13567  1902 5473 13567  4136 9593 13568  820 9593 13568  3584 6958 13569  854 6958 13569  7117 12697 13570  1934 12697 13570  4998 9639 13571  397 4998 13571  1738 6815 13572  3449 13572 15271  3173 6313 13573  1629 6313 13573  6826 7069 13574  1426 6826 13574  9821 13575 15356  2617 9821 13575  568 7984 13576  5085 13796 14770  594 8001 13577  4098 8001 13577  3340 12967 13578  5758 12967 13578  5802 10449 14711  1908 5802 13579  5971 10967 13580  2858 10967 13580  3434 6731 13581  3506 6731 13581  2284 8588 13583  971 8588 13582  8588 13582 13583  3452 13582 13583  2536 5954 13584  1794 5954 13584  5097 6903 13585  2028 6903 13585  1547 4911 13586  4911 9004 13586  3625 6614 13587  445 6614 13587  4000 10345 13588  2751 10345 13588  4471 6262 13589  1444 6262 13589  634 7288 13590  634 8612 13590  4606 8337 13591  2122 8337 13591  6380 13424 13592  3420 13424 13592  606 8374 13593  606 5450 13593  4157 11453 13594  2974 11453 13594  4390 10061 13595  527 10061 13595  6531 13491 13596  3457 13491 13596  3463 5868 13597  1591 5868 13597  1338 5231 13598  1338 5230 13598  3205 7065 13599  2246 7065 13599  485 7254 13600  3595 13600 14139  5688 12352 13601  3273 12352 13601  6693 12801 13602  3294 12801 13602  1597 6266 13603  4970 6266 13603  3856 13034 13604  890 13034 13604  1481 4716 13605  1481 7373 13605  1566 6030 13606  3499 6030 13606  4990 11298 13607  2230 11298 13607  1059 7434 13608  3719 7434 13608  3719 9429 13609  2200 9429 13609  139 9428 13610  3719 9428 13610  2429 9249 13611  3893 9249 13611  4434 7019 13612  7019 8486 13612  3754 7703 13613  6186 7703 13613  2484 5652 13614  726 5652 13614  1155 12959 13615  3736 6911 13902  2590 10599 13616  4770 10599 13616  3058 5895 13617  3058 4840 13617  6188 13618 15425  4375 13618 15425  2408 7611 13619  4075 7611 13619  3578 5799 13620  1625 5799 13620  9495 13241 13621  3578 9495 13621  5243 10551 13622  2705 10551 13622  2135 12680 13623  3481 12680 13623  12579 13624 15741  870 12579 13624  4355 6744 13625  6744 9482 13625  566 11994 13626  4405 11994 13626  5714 13627 14433  1801 5714 13627  5445 12169 13628  3138 12169 13628  243 7363 13629  3576 7363 13629  3137 9717 13630  3576 9717 13630  10965 13630 13631  3576 13630 13631  3498 6315 13632  1100 6315 13632  3498 6340 13633  362 6340 13633  1802 5933 13634  2204 5933 13634  4247 9481 13635  4247 7778 13635  1342 11597 13636  4291 11597 13636  4182 8604 13637  2186 8604 13637  6 10524 13638  4482 10524 13638  398 6186 13639  3755 6186 13639  13639 13640 14643  3755 13639 13640  3755 7703 13641  1046 7703 13641  6201 13642 15549  604 6201 13642  2839 8144 13643  2839 6200 13643  205 7424 13644  3475 7424 13644  4382 9055 13645  2973 9055 13645  4696 11581 13646  209 11581 13646  6349 13480 13647  3053 13480 13647  2080 7432 13648  3462 7432 13648  1973 7737 13649  3462 7737 13649  2859 6044 13650  608 6044 13650  1886 7423 13651  1886 7180 13651  2767 4957 13652  571 4957 13652  3628 8266 13653  2242 8266 13653  5621 12345 13654  5621 6023 13654  3533 5981 13655  974 5981 13655  3533 9187 13656  9187 13656 15283  845 7366 13657  3678 7366 13657  3678 7366 13658  1648 7366 13658  3678 8740 13659  1294 8740 13659  3126 8393 13660  3126 7124 13660  5910 12665 13661  3266 12665 13661  3870 11237 13662  11237 13662 15633  1717 6793 13663  3423 6793 13663  1180 8040 13664  4038 7716 15242  3471 10178 13665  574 10178 13665  5846 13627 13666  1801 13627 13666  1801 13667 14975  4150 13667 14975  2058 8389 13668  3882 8389 13668  3882 7006 13669  1872 7006 13669  1229 5687 14399  5687 13670 14399  3609 9707 13671  2982 9707 13671  1670 6386 13672  1670 6388 13672  6250 8649 13673  2256 6250 13673  717 7176 13674  5214 7176 13674  4892 8640 14755  4892 13675 14755  256 7464 13676  3778 7464 13676  3616 5705 13677  1439 5705 13677  954 5705 13678  3616 5705 13678  6711 6712 13679  3594 6712 13679  6469 10091 13680  2356 10091 13680  6021 13082 13681  2856 13082 13681  4743 10202 13682  1269 10202 13682  1696 8773 13683  1696 5979 13683  7731 12962 13684  355 7731 13684  3518 8608 13735  3518 13686 13735  9202 13686 13956  4771 9202 13686  7187 10365 13687  4147 7187 13687  4147 8437 13688  1300 8437 13688  1517 5582 13689  2916 5582 13689  203 4926 13690  203 6087 13690  3400 13691 14423  3400 8158 13691  2116 5406 13692  421 5406 13692  1529 4242 13693  3981 14263 14264  6684 10327 13694  3139 6684 13694  929 10227 13695  3479 10227 13695  3479 7199 13696  1831 7199 13696  244 7199 13697  3479 7199 13697  2403 7772 13698  3648 7772 13698  4316 8116 13699  1138 8116 13699  3617 10075 13700  7327 10075 13700  3516 8566 13701  2302 8566 13701  4417 11688 13702  992 11688 13702  8055 13323 13703  2293 8055 13703  8056 13703 13704  610 8056 13704  1518 7973 13705  3474 7973 13705  2371 10044 13706  4790 10044 13706  1775 8970 13707  728 4235 14854  1595 5733 13708  1595 5720 13708  900 6959 13709  900 6875 13709  1925 6608 13710  3546 6608 13710  3546 5638 13711  1617 5638 13711  5638 12601 13712  3546 5638 13712  4514 10854 13713  851 10854 13713  5917 13714 13715  3513 13714 13715  1597 6268 13715  3513 6268 13715  3704 7110 13716  2163 7110 13716  3294 12801 14009  1284 12801 13717  3874 10766 13718  950 10766 13718  2615 10058 13719  3643 10058 13719  5510 12766 13720  5510 13720 15076  2500 9078 13721  4419 9078 13721  5888 13355 13722  1511 13355 13722  4665 11332 13723  1279 11332 13723  2985 5868 13724  786 6519 14580  5280 10578 13725  2665 10578 13725  5386 11528 13726  3334 11528 13726  7975 11330 13727  3782 7975 13727  2374 9190 13728  3782 9190 13728  2801 9030 13729  9030 13729 13730  742 7779 13730  3712 7779 13730  4207 12238 13731  3712 4207 13731  3563 6880 13732  6880 13732 15399  2068 10546 13733  10546 13733 13734  192 4296 13734  3790 4296 13734  807 4771 13735  807 8608 13735  487 7361 13736  3494 7361 13736  3494 7361 13737  1870 7361 13737  7807 8040 13738  7807 13738 14679  3545 5074 13739  1865 5074 13739  5181 9772 13740  649 9772 13740  3427 10214 13741  99 6405 13877  223 9182 13742  3501 9182 13742  787 5059 14015  1793 5059 13743  1968 6394 13744  6394 13744 14015  5039 9745 13745  1135 9745 13745  3584 6956 13746  1882 6956 13746  3253 5887 13747  2372 5887 13747  4167 8180 13748  1170 8180 13748  2456 9229 13749  4391 9229 13749  3599 8242 13750  3599 7127 13750  3532 10710 13751  785 10710 13751  3532 6167 13752  1700 6167 13752  3539 7554 13753  1930 7554 13753  1701 7796 13754  3716 7796 13754  5668 12603 13755  3716 12603 13755  2533 9783 13756  5024 9783 13756  4262 13065 13757  4262 4720 13757  465 13758 14691  4874 13758 14691  2075 8517 13759  3520 8517 13759  3520 7093 13760  850 7093 13760  6588 13620 13761  1625 13620 13761  5189 11111 13762  3593 5189 13762  5154 8431 13763  2232 8431 13763  5108 12722 13764  3358 12722 13764  2663 8192 13765  3689 8192 13765  3708 7116 13766  319 7116 13766  3891 11379 13767  1173 11379 13767  3792 13194 13768  994 13194 13768  1686 6552 13769  1686 4122 13769  3555 13770 14432  4128 13771 14432  3555 11199 13771  1383 11199 13771  1661 6353 13772  3513 6353 13772  3513 6268 13773  69 6268 13773  281 8002 13774  5161 8002 13774  1024 7620 13775  5781 7620 13775  5752 12192 14054  730 5752 13776  1694 7867 13777  3488 7867 13777  3488 7867 13778  2013 7867 13778  5173 10388 13779  671 10388 13779  964 7429 13780  3536 7429 13780  3536 9292 13781  2388 9292 13781  5411 10010 13782  762 10010 13782  3565 6890 13783  1762 6890 13783  3565 13114 15389  3565 13784 15389  3663 6995 13785  1958 6995 13785  5756 9781 13786  1652 9781 13786  5638 6413 13787  3459 5638 13787  1975 9485 13788  5961 9485 13788  1157 10413 13789  10413 13789 14570  5791 13266 13790  3438 13266 13790  1463 15112 15113  4763 5593 13791  5396 10384 14828  5396 9922 13792  2048 7406 13793  4040 7406 13793  4040 10526 13794  4 10526 13794  1555 6141 13795  4110 6141 13795  5085 13576 13796  568 13576 13796  7875 13545 13797  2105 7875 13797  1782 5579 13798  2237 5579 13798  1806 6991 13799  3917 6991 13799  4841 11641 13800  4841 13800 15087  484 12403 13801  4416 12403 13801  5007 11838 13802  1202 11838 13802  110 7824 13803  3767 7824 13803  4799 13113 13804  1883 13113 13804  1898 7026 13805  3644 7026 13805  1899 7476 13806  3644 7476 13806  3644 7476 13807  1287 7476 13807  3026 6618 13808  1658 6618 13808  455 7237 13809  3671 7237 13809  8 4370 13810  4370 7843 13810  6419 12445 13811  3199 12445 13811  273 8696 13812  3672 8696 13812  806 7036 13813  3552 7036 13813  3552 7036 13814  1922 7036 13814  3607 8321 13815  40 8321 13815  468 9345 13816  3640 9345 13816  6012 10316 13817  2907 10316 13817  2289 7135 13818  5693 7135 13818  1485 9680 13819  1485 8519 13819  409 8890 13820  5298 8890 13820  3287 5304 13821  63 5304 13821  1517 9437 13822  7163 9437 13822  1461 12510 13823  5546 12510 13823  1475 5764 14468  201 5764 13824  1236 6122 13825  3217 6122 13825  2996 7882 13826  2996 7750 13826  923 7165 13827  3525 7165 13827  443 4517 13828  3525 4517 13828  1725 7095 13829  3525 7095 13829  4569 7488 13830  1970 7488 13830  66 6459 13833  1639 6459 13831  7961 9079 13832  2369 9079 13832  6459 13831 13833  3538 13831 13833  1651 6539 13834  4740 6539 13834  4268 8064 13835  2269 8064 13835  5031 10869 13836  517 10869 13836  3531 7550 13837  933 7550 13837  3531 5994 13838  411 5994 13838  7426 12326 13839  3841 7426 13839  4730 13840 15229  714 13840 15229  3728 9166 13841  973 9166 13841  3728 7140 13842  26 7140 13842  1005 9445 13843  3834 9445 13843  142 7674 13844  3834 7674 13844  6651 13845 14194  3834 6651 13845  277 6485 13846  4430 6485 13846  1101 9777 14877  1101 13847 14877  100 9468 13848  4527 9468 13848  5516 9944 13849  4899 9944 13849  3135 12134 13850  4059 12134 13850  3998 8288 13851  1054 8288 13851  3802 8382 13852  2279 8382 13852  1000 8382 13853  3802 8382 13853  4188 10485 13854  2680 10485 13854  667 9796 13855  4249 9796 13855  1428 6233 13856  4124 6233 13856  4399 6613 13857  1221 6613 13857  3730 6496 13858  948 6496 13858  3606 11596 13859  621 11596 13859  4888 13859 13860  4888 13860 14229  66 6786 13861  3168 6786 13861  1438 6524 13862  3158 6524 13862  1166 12256 15220  1166 13863 15220  5057 11005 13864  1803 11005 13864  936 7729 13865  3581 7729 13865  396 4620 13866  396 5004 13866  3347 7761 13867  912 7761 13867  2794 6165 13868  173 7997 14011  1673 5088 13869  3957 5088 13869  3957 8485 13870  1204 8485 13870  3957 12487 13871  596 12487 13871  6421 13767 13872  1173 13767 13872  5665 12121 13873  555 12121 13873  3761 5889 13874  615 5889 13874  918 7212 13876  1834 7212 13875  7212 13875 13876  3514 13875 13876  6405 13741 13877  3427 13741 13877  818 5248 13878  2944 13878 15576  1498 7443 13879  3522 7443 13879  6064 12397 13880  4048 12397 13880  3603 5702 15770  3649 5702 13881  4438 5880 13882  625 5880 13882  4642 7928 13883  2210 7928 13883  5732 7785 13884  5732 7784 13884  3621 5245 13885  1983 5245 13885  4641 12511 13886  1026 12511 13886  3901 8767 13887  1534 8767 13887  8109 13888 14542  703 8109 13888  4591 14938 14939  4590 13889 14938  5186 7007 13890  5186 13890 14690  4221 6558 13891  1917 6558 13891  5974 12471 13892  3222 12471 13892  2098 8242 13893  5393 8242 13893  3260 5709 13894  5709 13894 14833  1237 5562 13895  4376 5562 13895  4376 7337 13896  1337 7337 13896  168 4987 13897  168 7205 13897  4057 13898 14569  1505 13898 14569  10568 13899 13900  2715 10568 13899  3586 4503 13900  428 8914 14853  3736 6911 13901  847 6911 13901  3736 13615 13902  1155 13615 13902  419 5272 13903  3541 5272 13903  3541 9925 13904  1777 9925 13904  4831 8302 13905  1298 8302 13905  5707 12401 13906  207 12401 13906  3936 9189 13907  2463 9189 13907  6049 9036 13908  1884 9036 13908  4273 7910 13909  302 7910 13909  2184 6925 15167  2184 13910 15167  1126 13231 13911  3771 13231 13911  1089 11555 13912  3614 11555 13912  2341 8406 13913  3328 8406 13913  4640 7976 15666  3638 4640 13914  1660 8680 13915  3527 8680 13915  6482 13915 13916  3527 13915 13916  5917 10194 13917  2736 10194 13917  75 7507 13918  75 8479 13918  2608 8339 13919  2608 6360 13919  4113 13254 13920  3461 13254 13920  1648 13658 13921  1648 5896 13921  3785 6950 13922  1034 6950 13922  315 10657 13923  3785 10657 13923  1664 6237 13924  6237 9196 13924  5507 13290 13925  783 13290 13925  452 6656 13926  452 5902 13926  4736 12144 13927  4238 12144 13927  590 8750 13928  3574 12903 14183  4358 13929 14545  5533 13929 14545  3590 7520 13930  1581 7520 13930  10082 13931 14553  3590 10082 13931  3590 4971 13932  495 4971 13932  2065 7316 13933  5237 7316 13933  3215 12509 13934  6396 12509 13934  1156 10917 13935  4380 10917 13935  175 5769 13936  4380 5769 13936  4380 5769 13937  1273 7298 14372  1481 5836 13938  1481 4716 13938  1596 5926 15668  3898 15186 15187  479 7239 13940  4289 7239 13940  3193 6132 13941  3193 8026 13941  5439 10070 13942  2076 10070 13942  5118 8255 13943  607 8255 13943  6331 7774 13944  601 6331 13944  5194 9402 13945  2453 9402 13945  414 6099 13946  4034 6099 13946  4565 5837 13948  4565 13947 13948  1244 9595 13948  5837 9595 13948  4025 13949 15749  5009 13949 15749  1008 8691 13950  3866 8691 13950  141 7529 13951  3866 7529 13951  7145 8691 13952  1964 7145 13952  6351 12792 13953  3278 13953 13975  1520 8930 13954  6292 8930 13954  5977 13955 14273  5977 9645 13955  9805 11776 13956  3783 9805 13956  2214 8575 13957  2214 7001 13957  403 4351 13958  403 8774 13958  4378 6726 13959  1277 6726 13959  3900 13187 13960  3900 4140 13960  2871 8952 13961  2871 7257 13961  3330 12129 13962  4615 12129 13962  3542 6959 13963  1764 6959 13963  3542 6961 13964  464 6961 13964  6800 13964 13965  1766 6800 13965  1791 7061 13966  3756 7061 13966  1627 11416 13967  5794 14205 14596  958 12264 13968  958 9213 13968  1011 8410 13969  3962 8410 13969  3951 6950 13970  2852 6950 13970  518 8186 13971  6059 8186 13971  5323 12577 13972  2467 5323 13972  9362 13972 13973  956 9362 13973  4206 7802 13974  1567 7802 13974  6351 13953 13975  1669 6351 13975  1319 5661 13976  3645 5661 13976  3645 7417 13977  745 7417 13977  3702 8091 13978  3702 7954 13978  1792 5992 13979  5992 6159 13979  2580 8396 14047  2580 6241 13980  125 7217 13981  3547 7217 13981  3621 6471 13982  887 6471 13982  1998 7646 13983  4062 7646 13983  9793 12248 13984  1741 9793 13984  4062 7646 13985  689 7646 13985  1449 8594 13986  3661 8594 13986  4321 13807 13987  1287 13807 13987  1186 4459 13988  3839 4459 13988  4351 13986 15079  3661 13986 15079  1780 7431 15206  5313 7431 15206  3612 8126 13991  2066 8126 13991  5244 9264 13992  2348 9264 13992  240 6845 14085  1725 6845 13993  11267 11295 13994  3770 11267 13994  2986 6924 13995  3053 13995 14464  1858 6721 13996  3257 6721 13996  6723 12056 13997  252 12056 13997  3828 12126 13998  5611 12126 13998  4209 11190 13999  4210 11190 13999  4150 10490 14000  2030 10490 14000  864 7392 14001  3579 7392 14001  3634 9575 14002  486 9575 14002  2111 8059 14003  3889 8059 14003  1756 12906 14004  5392 12906 14004  364 7004 14006  364 14005 14006  2465 7004 15273  7004 14006 15273  2201 9456 14007  3691 9456 14007  7996 10215 14008  7055 7996 14008  12801 13717 14009  3561 13717 14009  3052 12156 14010  3052 6630 14010  173 13868 14011  6165 13868 14011  4346 11030 14014  1211 11030 14014  4345 11422 14013  2960 11422 14013  3609 13671 14014  4346 13671 14014  5059 13743 14015  3501 13743 14015  4832 7743 14016  337 7743 14016  1413 7523 14017  3229 7523 14017  4087 9081 14018  219 9081 14018  5949 14019 15562  1647 14019 15562  116 6225 14020  3758 6225 14020  3131 10855 14021  4785 10855 14021  949 5953 14022  4131 5953 14022  6037 13085 14023  3339 13085 14023  565 8658 14024  565 8657 14024  5478 11786 14025  860 11786 14025  470 5627 14026  4096 8694 14405  4936 7159 14027  2885 7159 14027  1817 6878 14028  4066 6878 14028  5850 13816 14029  3566 5850 14029  972 7500 14030  3566 7500 14030  2369 9072 14031  4073 9072 14031  488 6898 14032  3137 6898 14032  584 5070 14033  584 6906 14033  267 8185 14034  8185 14034 14177  4141 10748 14035  1446 10748 14035  2015 7859 14036  3687 7859 14036  5474 9201 14037  2144 9201 14037  3577 7361 14038  487 7361 14038  3016 10765 14039  3336 10765 14039  2234 11666 14040  2234 6355 14040  3610 8982 14041  3610 8170 14041  3975 5538 14042  632 5538 14042  5898 14042 14043  2363 5898 14043  3975 6264 14044  2092 6264 14044  3515 7017 14045  2177 7017 14045  3615 6467 14046  1974 6467 14046  2580 13980 14047  4143 13980 14047  3194 7707 14048  3194 8375 14048  4102 8642 14049  2212 8642 14049  4454 11676 14050  3026 11676 14050  5469 11900 14051  1506 11900 14051  2248 8255 14052  2248 5956 14052  4479 9418 14053  32 9418 14053  5752 13776 14054  3488 13776 14054  1435 4518 14055  4038 4518 14055  420 9463 14056  4038 9463 14056  7943 11797 14057  4168 7943 14057  1665 9301 14058  3650 9301 14058  467 8539 14059  3650 8539 14059  3615 6467 14060  3615 10705 14060  12656 14061 15173  4208 14061 15173  1029 6263 14062  3627 6263 14062  3627 6263 14063  1797 6263 14063  357 4664 14064  3627 14062 14857  5368 9548 14065  2883 9548 14065  6196 13157 14066  3362 13157 14066  3851 9147 14067  1302 9147 14067  2393 10448 14068  5980 10448 14068  784 6318 14069  2860 6318 14069  6312 10598 14070  1327 10598 14070  1890 6934 14071  6934 14071 14072  166 6312 14072  3740 6312 14072  5665 12121 14073  2154 5665 14073  2556 5939 14074  3931 5939 14074  4101 12549 14075  1331 12549 14075  3477 8122 14913  3608 8122 14913  3608 13815 14077  40 13815 14077  3351 12531 14078  3351 6948 14078  3582 7168 14079  1074 7168 14079  358 8872 14080  3582 8872 14080  3619 5482 14081  2782 5482 14081  3619 8339 14082  412 8339 14082  1460 8358 14083  3614 8358 14083  83 7235 14084  3614 7235 14084  6845 13993 14085  3551 13993 14085  2912 9323 14086  6411 9323 14086  4817 9399 14087  620 9399 14087  4944 11659 14088  3013 11659 14088  4860 6695 14089  1285 6695 14089  4968 15537 15538  4969 15537 15538  3027 5501 14091  3027 7741 14091  6182 13378 14092  6182 14092 14459  578 5767 14093  3612 5767 14093  1632 8126 14094  3612 8126 14094  4405 11414 14096  4404 11414 14096  4406 13626 14097  4405 13626 14097  1448 9618 14097  4406 9618 14097  3181 12202 14098  5327 12202 14098  3389 7501 14099  3389 6836 14099  2828 5536 14100  409 5536 14100  6365 13084 14101  3223 6365 14101  3938 7526 14102  4827 7526 14102  5068 6031 14103  531 6031 14103  337 7471 14104  4151 7471 14104  1182 9493 14105  4151 9493 14105  1370 4753 14106  4151 4753 14106  3601 7377 14107  942 7377 14107  255 7428 14108  3600 7428 14108  942 6881 14109  6881 14109 14629  120 7797 14112  1991 7797 14110  1786 8251 14111  3587 8251 14111  7797 14110 14112  3587 14110 14112  5025 9744 14113  5025 7473 14113  4343 11465 14114  1183 11465 14114  4344 7151 14115  1692 7151 14115  3085 6389 14116  3947 6389 14116  10778 14116 14117  3947 14116 14117  26 12917 14118  26 5798 14118  1616 7350 14119  3776 7350 14119  4950 12681 14120  3890 12681 14120  5298 8401 14121  5298 5316 14121  3676 7736 14122  371 7736 14122  3270 6300 14123  2886 6300 14123  3622 7481 14124  1722 7481 14124  5045 10405 14125  1315 10405 14125  5158 7472 14126  1376 7472 14126  1440 13333 14127  1440 5658 14127  5341 12237 14128  908 12237 14128  1907 5881 14129  4129 5881 14129  1143 7738 14130  4130 7738 14130  1670 6387 14131  6387 8794 14131  6299 12030 14132  2505 12030 14132  1125 5030 14133  4183 5030 14133  1247 7015 14134  1247 4660 14134  370 8672 14135  3733 8672 14135  4902 8981 14136  2240 8981 14136  3651 13487 15504  3651 14137 15504  3597 7254 14138  485 7254 14138  7254 13600 14139  1844 7254 14139  1039 7252 14140  3597 7252 14140  3595 8851 14141  1720 8851 14141  1771 6962 14142  2510 6962 14142  1052 7650 14143  3872 7650 14143  5784 9966 14144  2571 9966 14144  1552 13376 14145  3961 13376 14145  3743 11314 14146  1754 11314 14146  5852 12054 14147  1344 12054 14147  5141 6643 14149  1710 6643 14149  1401 12902 14150  5141 12902 14150  5140 7814 14150  1401 7814 14150  1039 7183 14151  3598 7183 14151  5863 12020 14152  1743 5863 14152  3602 6881 14153  942 6881 14153  4687 11068 14154  2936 11068 14154  1534 12943 14155  1534 5547 14155  3689 8192 14156  1850 8192 14156  1080 12463 14745  1080 14157 14745  605 5719 14158  4009 5719 14158  4874 14160 14712  4874 14159 14160  1520 10105 14160  4873 10105 14160  145 6872 14161  3907 6872 14161  3759 9694 14162  478 9694 14162  1134 12013 14163  4398 12013 14163  4362 7472 14164  1541 7472 14164  819 6606 14165  3519 6606 14165  3941 7654 14166  79 7092 14420  948 6496 14167  3613 6496 14167  4165 8489 14168  1654 8489 14168  3878 8506 14478  3878 14169 14478  1552 5395 14170  1552 4010 14170  6493 8927 14171  1852 8927 14171  215 6535 14172  3647 6535 14172  3647 6277 14173  1590 6277 14173  3647 6535 14174  1677 6535 14174  3512 7139 14175  2447 7139 14175  2119 8184 14177  968 8184 14176  8184 14176 14177  3666 14176 14177  3368 12621 14178  3543 12621 14178  6536 11437 14179  2983 11437 14179  4584 9708 14180  2017 9708 14180  5773 11756 14181  2931 11756 14181  6071 12578 14182  3643 12578 14182  3574 13928 14183  8750 13928 14183  5508 13358 14184  3422 13358 14184  4275 13944 14185  601 13944 14185  6672 14186 15162  2434 6672 14186  5805 9443 14187  95 9443 14187  915 13221 14188  5007 13221 14188  1203 4330 14189  4330 8227 14189  3523 5730 14190  3523 7496 14190  336 10260 14191  4887 10260 14191  3723 14192 15214  3723 6651 15214  3723 5808 14193  422 5808 14193  1397 5808 14194  3723 5808 14194  2353 8949 14195  5833 8949 14195  1624 7971 14196  6219 7971 14196  1196 10888 14197  4674 10888 14197  2801 9029 14198  2801 7158 14198  8251 14112 14199  4425 8251 14199  3949 9633 14200  2721 9633 14200  5925 8558 14201  2026 8558 14201  1457 9624 14202  4611 9624 14202  6837 13049 14203  2925 13049 14203  1167 8027 14204  3833 8027 14204  5794 13967 14205  1627 13967 14205  6008 10200 14206  2656 10200 14206  3635 7442 14207  376 7442 14207  5658 13293 14208  782 13293 14208  8476 14209 14210  2221 8476 14209  3693 6328 14210  1036 6328 14210  3694 8476 14211  1036 8476 14211  4173 14212 14707  282 14212 14707  3268 14213 14353  3268 9024 14213  4188 7323 14214  1058 7323 14214  5037 6636 14215  1412 6636 14215  4243 8112 14216  2389 8112 14216  80 7808 14217  4149 7808 14217  3747 8351 14218  813 8351 14218  4924 6963 14219  1795 6963 14219  980 11718 14220  3742 11718 14220  4193 10393 14221  2769 10393 14221  1087 9893 14222  4819 9893 14222  7513 7585 14223  3784 7513 14223  5971 13580 14224  859 13580 14224  718 8543 14225  4112 8543 14225  4112 8544 14226  1266 8544 14226  2377 7760 14227  2377 6375 14227  2464 6279 14228  3254 6279 14228  3681 8431 14229  1318 8431 14229  2376 12010 14230  3681 12010 14230  3620 6865 14231  883 6865 14231  5499 8631 14232  733 8631 14232  8888 10428 14233  1838 10428 14233  3552 14234 14960  5518 14234 14960  1660 5236 14235  5236 6140 14235  2315 8677 14236  2315 8676 14236  3269 8564 14237  4401 8564 14237  3876 11207 14238  98 11207 14238  3158 10866 14239  3877 10866 14239  2800 8682 14240  2800 8418 14240  5787 7866 14241  4201 5787 14241  5510 14242 15076  3763 5510 14242  3763 5510 14243  410 5510 14243  29 7255 14244  3633 7255 14244  1634 6492 14245  3633 6492 14245  4204 8106 14246  839 8106 14246  6222 8106 14247  4204 8106 14247  4204 8561 14248  1514 8561 14248  4169 7943 14249  1099 4169 14249  3760 12408 14250  3417 12408 14250  4980 9722 14251  2825 9722 14251  3051 7537 14252  941 7537 14252  483 9015 14253  3997 9015 14253  2243 6896 14935  2243 14254 14935  6503 13258 14255  3299 13258 14255  1679 6333 14978  6333 14256 15320  6004 13107 14257  838 6004 14257  1003 9419 14258  3631 9419 14258  38 13372 14259  38 7806 14259  3661 11081 14260  3661 8594 14260  2446 9006 14261  3749 9006 14261  2285 4666 14262  4666 5815 14262  4242 9492 14264  502 9492 14264  3981 13693 14264  4242 13693 14264  5517 9047 14265  2503 9047 14265  2911 8261 14266  795 8261 14266  4497 11411 14267  3411 11411 14267  769 6098 14268  769 5442 14268  1909 7711 14269  3686 7711 14269  10567 14270 14271  461 10567 14270  9721 12798 14271  2722 12798 14271  3251 12892 14272  9896 12892 14272  3862 9234 14273  285 9234 14273  978 5019 14274  3658 5019 14274  6080 12571 14275  433 12571 14275  6660 14274 14276  3658 14274 14276  4094 7978 14277  1048 7978 14277  1207 10038 15359  1207 14278 15359  2392 9198 14279  2392 7963 14279  4649 11822 14280  5631 11822 14280  5629 13697 14281  3479 13697 14281  4205 9692 15674  108 4205 14282  4146 9170 14283  2629 9170 14283  3664 8692 14284  6909 14284 14386  8295 14285 14415  3836 14285 14415  279 7078 14286  3639 7078 14286  961 6464 14287  3639 6464 14287  4614 14288 15103  4614 7084 14288  3490 8789 15147  1781 7046 14289  3641 5592 14290  1049 5592 14290  1181 9700 14291  4384 9700 14291  534 5519 14292  3674 5519 14292  3674 5519 14293  1650 5519 14293  4795 9290 14294  635 9290 14294  5099 7825 14295  1372 7825 14295  3711 7659 14296  1563 7659 14296  946 7860 14297  3711 7860 14297  2010 7659 14298  3711 7659 14298  1961 7543 14299  1961 9886 14299  564 6242 14300  2178 6242 14300  9158 10819 14301  3640 10819 14301  9160 14301 14302  3640 14301 14302  1740 6740 14303  6740 8360 14303  4061 14304 14305  1185 14304 14305  4275 11328 14305  1185 11328 14305  1177 12777 14306  4591 14306 14938  1442 8824 14307  5578 14307 14918  2873 7615 14308  2299 7615 14308  6867 12591 14309  126 12591 14309  5169 14310 14855  1600 5169 14310  4638 6849 14311  385 6849 14311  2928 10029 14312  5219 10029 14312  2245 5869 14313  5869 6017 14313  4058 9557 14314  93 9557 14314  2259 8778 14315  3983 8778 14315  3095 5493 14316  2499 5493 14316  5487 10821 14317  2959 10821 14317  4612 12025 14318  2044 12025 14318  3885 7688 14319  2570 7688 14319  5281 9089 14320  2894 9089 14320  3023 5959 14321  4179 5959 14321  7133 7134 14322  2288 7134 14322  482 5527 14323  482 4367 14323  3742 8838 14324  5394 8838 14324  1880 5560 14325  1880 7164 14325  2732 5684 14326  4045 5684 14326  4045 5684 14327  950 5684 14327  6106 12124 14328  2972 12124 14328  3443 5503 15486  935 5503 14329  4077 11294 14331  4077 14330 14331  1359 12365 14331  4078 12365 14331  5853 13162 14332  3359 13162 14332  2070 12053 14781  2070 14333 14781  484 6820 14334  3646 6820 14334  3646 7391 14335  1877 7391 14335  2998 10808 14336  2998 5525 14336  6002 10408 14337  380 10408 14337  951 7444 14338  3652 7444 14338  1831 7199 14339  7199 14339 14340  244 6974 14340  3652 6974 14340  3985 13425 14646  3985 14341 14646  8848 12861 14342  1679 12861 14342  247 14343 14633  247 7870 14343  1752 6945 14344  3613 6945 14344  1728 5043 14345  4144 5043 14345  4220 6192 14346  1018 6192 14346  3670 8904 14347  445 8904 14347  1542 8556 14348  3670 8556 14348  2882 11048 14349  5531 11048 14349  3951 10942 14350  2851 10942 14350  3952 7733 14351  1034 7733 14351  3368 9046 14352  967 9046 14352  1074 9358 14353  1074 9843 14353  3665 8498 14354  743 8498 14354  3665 6415 14355  1544 6415 14355  2278 8504 14356  3743 8504 14356  1649 5861 14357  3660 5861 14357  6094 11965 14358  1833 6094 14358  474 7201 14359  3653 7201 14359  1834 7212 14360  3655 7212 14360  3655 6987 14361  456 6987 14361  1771 6987 14362  3655 6987 14362  4845 8470 14363  1337 8470 14363  1357 13549 14364  7122 13549 14364  3645 7076 14365  2174 7076 14365  3879 11123 14366  425 11123 14366  5825 14366 14367  1526 5825 14367  3444 6376 14368  1671 6376 14368  6177 9529 14369  2563 9529 14369  4718 10973 14370  2988 10973 14370  635 9290 14371  3710 9290 14371  1273 13937 14372  5769 13937 14372  4295 14211 14373  1036 14211 14373  1708 4312 14374  1708 10093 14374  1856 8209 14375  5724 8209 14375  2054 7854 14376  3730 7854 14376  3730 7854 14377  165 7854 14377  6496 7776 14378  3730 6496 14378  7726 14379 15274  2714 14379 15274  2292 7231 14380  2047 7231 14380  3318 13019 14381  6650 13019 14381  1090 7726 14382  3861 7726 14382  3750 6424 14383  3750 8954 14383  3545 12736 14384  1866 12736 14384  714 8239 14385  4155 8239 14385  4235 13707 14386  1775 13707 14386  1830 7079 14387  3664 7079 14387  1212 5602 14388  1212 7114 14388  5402 12286 14389  3207 12286 14389  6426 12333 14390  3169 12333 14390  3942 12635 14391  1696 6149 14768  3099 11996 14392  7549 11996 14392  1910 5677 14393  1910 5414 14393  5989 11090 14394  3354 5989 14394  4438 6495 14395  1382 6495 14395  7193 14396 14471  3551 7165 14396  3765 8361 14397  2618 8361 14397  7898 14122 14398  371 14122 14398  4386 5534 14399  1229 5534 14399  4036 8823 14400  8823 14400 15068  4036 12478 14401  1476 12478 14401  4476 8724 14402  995 8724 14402  5860 10577 14403  2358 10577 14403  4096 14026 14404  470 14026 14404  4359 8695 14405  2291 8695 14405  4598 11087 14406  4597 11087 14406  959 5648 14407  3190 5648 14407  1656 5124 14408  1656 6449 14408  6377 12193 14409  3152 12193 14409  6926 10906 14410  149 10906 14410  197 4707 14411  4707 6545 14411  2631 8432 14412  2631 7312 14412  3653 7201 14413  1831 7201 14413  1124 8025 14414  4360 8025 14414  2272 8294 14415  3836 8294 14415  4480 10482 14416  4480 7775 14416  3883 10073 14417  483 10073 14417  10073 12754 14418  3883 10073 14418  3559 8912 14419  6314 8912 14419  79 14166 14420  3941 14166 14420  1455 6611 14421  3941 6611 14421  4735 10474 14422  2720 10474 14422  2225 8674 14423  2225 8675 14423  6116 6811 14424  6811 14424 14798  1566 7878 14425  1566 6315 14425  5806 11533 14426  2992 11533 14426  7292 12271 14427  3316 12271 14427  1137 9823 14428  3930 9823 14428  2989 10930 14524  1640 10930 14429  869 7067 14430  869 4323 14430  446 11115 14431  4613 11115 14431  131 10922 14432  131 13770 14432  1802 5713 14433  5713 5714 14433  5525 10359 14434  2319 10359 14434  6225 11121 14435  116 6225 14435  4120 6097 14436  1704 6097 14436  4120 8831 14437  1602 8831 14437  2520 8102 14438  3826 8102 14438  10175 14439 14441  250 10175 14439  1254 5779 14440  3739 5779 14440  8961 10174 14441  2950 10174 14441  2599 5013 14442  434 14442 15772  7986 13297 14443  3378 13297 14443  3704 7559 14444  2304 7559 14444  3319 6442 14445  3319 8292 14445  2130 6923 14446  5693 6923 14446  4931 9450 14447  1656 9450 14447  2734 8756 14448  4836 8756 14448  5433 9768 14449  321 9768 14449  319 7116 14450  7116 14450 14451  1999 7774 14451  4061 7774 14451  4101 8673 14452  174 8673 14452  2151 6769 14453  3685 14453 14455  1123 6116 14454  3685 6116 14454  6769 14453 14455  1804 6769 14455  4347 5365 14456  1971 5365 14456  5379 6019 14457  5379 6018 14457  7896 13916 14458  3527 13916 14458  5546 12510 14459  2445 12510 14459  3660 5861 14460  2870 5861 14460  2605 9984 15545  2605 14462 15545  617 9952 14463  4126 9952 14463  4534 10085 14463  617 10085 14463  6924 13995 14464  4742 6924 14464  562 12688 14465  5367 12688 14465  4092 13991 14466  1547 5922 14902  3146 12315 14467  7406 12315 14467  5764 13824 14468  3254 13824 14468  2396 7187 14469  2396 6065 14469  4194 10247 14470  2613 10247 14470  1825 7192 14471  3551 7192 14471  3806 9746 14472  1941 7570 15009  645 6416 14473  4029 6416 14473  4029 6416 14474  1623 6416 14474  6057 11865 14627  41 6057 14475  1825 7193 14476  3673 7193 14476  6732 13521 14477  1827 6732 14477  4857 8799 14478  349 8799 14478  6605 8319 14479  2478 6605 14479  207 7262 14480  3677 7262 14480  3628 6263 14481  1029 6263 14481  7075 8922 14482  1642 7075 14482  1601 6273 14483  4721 6273 14483  5505 14484 15689  2920 14484 15689  9638 14485 14487  1017 9638 14485  3683 7470 14486  2336 7470 14486  3683 7064 14487  2999 7064 14487  5697 11958 14488  3161 11958 14488  5139 5824 14489  792 5824 14489  853 10396 14490  4012 10396 14490  6983 12994 14491  2935 12994 14491  3756 7061 14492  560 7061 14492  3831 7377 14493  1892 7377 14493  804 6835 14494  3389 6835 14494  3069 10004 14495  3069 11204 14495  5937 14406 14496  4597 14406 14496  6157 12166 14497  2875 12166 14497  5159 10042 14498  3874 10042 14498  4687 10611 14499  2937 10611 14499  1133 7704 14944  1133 14500 14944  4600 12584 14501  1680 12584 14501  2241 5106 14502  39 5106 14502  2471 9585 14503  3675 9585 14503  3675 9585 14504  1557 9585 14504  2945 10963 14505  6114 10963 14505  1979 7359 14506  1979 4592 14506  9501 13073 14507  1130 9501 14507  3979 5876 14508  2538 5876 14508  10497 14508 14509  10 10497 14509  1915 6949 14510  1915 5666 14510  2119 8185 14511  3974 8185 14511  1766 6090 14512  6090 6334 14512  1792 6096 14513  3737 6096 14513  1841 8764 14514  3737 8764 14514  3649 5702 14515  5702 11181 14515  4003 8760 14516  2310 8760 14516  2143 6286 14517  4003 6286 14517  377 10717 14518  8847 10717 14518  8212 14163 14519  4299 8212 14519  5483 11276 14522  1082 11276 14522  4026 11203 14521  2990 11203 14521  4025 13949 14522  5483 13949 14522  1370 4753 14523  1370 7694 14523  10930 14429 14524  3679 14429 14524  8403 14525 14526  2449 8403 14525  3679 7658 14526  652 7658 14526  2041 5405 14527  5405 14527 14528  2337 9872 14528  3753 9872 14528  2897 5838 14529  1920 5838 14529  3633 7255 14530  2005 7255 14530  1345 8305 14531  3907 8305 14531  3907 6872 14532  2161 6872 14532  2038 7983 14533  4145 7983 14533  7189 8741 14534  2368 8741 14534  5216 10058 14535  2615 10058 14535  2006 7010 14536  4229 7010 14536  1722 7755 14537  3706 7755 14537  4250 14538 15595  4250 9496 15595  3695 8293 14539  1509 8293 14539  8293 11160 14540  3695 8293 14540  3841 7426 14541  321 7426 14541  3901 13888 14542  3901 7011 14542  464 6961 14543  2923 14543 14890  1724 4847 14544  4846 4847 14544  1499 4861 14545  4861 5533 14545  7987 14443 14546  3378 14443 14546  3528 7902 14547  2060 7902 14547  1816 6983 14548  3700 6983 14548  3700 6983 14549  979 6983 14549  43 11713 14550  4449 11713 14550  1066 5835 14551  3691 5835 14551  7022 14029 14552  3566 14029 14552  1885 7273 14553  3945 7273 14553  2170 6230 14554  1721 6230 14554  129 6703 14555  3690 6703 14555  3690 8336 14556  2122 8336 14556  1431 8336 14557  3690 8336 14557  2226 9227 14558  3724 9227 14558  3724 9159 14559  1040 9159 14559  5417 10654 14560  1493 10654 14560  4934 12254 14561  259 12254 14561  3692 9207 14562  985 9207 14562  2766 9874 14563  3692 9874 14563  2072 7455 14564  3642 7455 14564  3703 6203 14565  2965 6203 14565  1772 6505 14566  3703 6505 14566  3707 10981 14567  2961 10981 14567  6005 14567 14568  1093 6005 14568  4530 7672 14569  1505 7672 14569  2773 8902 14570  3676 8902 14570  4027 8463 14571  653 8463 14571  2269 8463 14572  4027 8463 14572  4042 6615 14573  2039 6615 14573  4042 7453 14574  1050 7453 14574  282 14212 14575  282 9510 14575  1895 11103 14576  1895 7311 14576  6721 12456 14577  48 12456 14577  353 11275 14578  11275 14578 14579  3115 5929 14579  3988 5929 14579  786 13724 14580  5868 13724 14580  3124 12181 14581  5905 12181 14581  1634 6491 14582  3433 6491 14582  1930 7817 14583  3797 7817 14583  4956 12191 14584  3487 12191 14584  9166 14585 14586  2383 9166 14585  3727 7498 14586  973 7498 14586  3727 6587 14587  6587 14587 14909  5985 9085 14588  3734 5985 14588  3709 8283 14589  62 8283 14589  2432 8283 14590  3709 8283 14590  3709 9781 14591  2738 9781 14591  1864 11479 14592  4543 11479 14592  1603 8867 14593  3701 8867 14593  3701 8677 14594  1103 8677 14594  1016 9163 14595  3715 9163 14595  10792 14595 14596  3715 14595 14596  4509 11734 14597  3076 11734 14597  3944 13102 14598  4117 13102 14598  1814 6951 14599  3578 6951 14599  717 7176 14600  717 4361 14600  3362 6195 14601  880 6195 14601  1518 11448 14602  3888 11448 14602  5050 6338 14603  866 6338 14603  3985 7219 14604  1577 7219 14604  4203 11694 14605  534 11694 14605  4203 6655 14606  1778 6655 14606  3470 12760 14607  4326 12760 14607  6078 12394 14608  200 12394 14608  5778 13889 14609  4590 13889 14609  1987 7857 14610  6435 7857 14610  1040 6056 14611  3725 6056 14611  3725 7151 14612  340 7151 14612  6858 14611 14613  3725 14611 14613  2109 8351 14614  3747 8351 14614  1007 5595 14615  3846 5595 14615  3475 8420 14616  826 6524 15667  4423 10181 14617  4423 7109 14617  5062 11625 14618  1493 11625 14618  1389 5451 14619  4119 5451 14619  1167 9413 14620  4294 9413 14620  6501 13229 14621  3858 6501 14621  3858 7739 14622  149 7739 14622  3858 7241 14623  1631 7241 14623  4604 11665 14624  1178 11665 14624  7834 12241 14625  3773 7834 14625  1320 9629 14626  4063 9629 14626  6057 14475 14627  4453 14475 14627  2287 8951 14628  2287 8925 14628  6060 14108 14629  3600 14108 14629  5743 8409 14630  864 8409 14630  1402 8909 14631  4099 8909 14631  4099 8056 14632  2293 8056 14632  7497 14343 14633  3191 7497 14633  3770 10414 14634  2773 10414 14634  1027 10414 14635  3770 10414 14635  5124 7773 14636  822 7773 14636  11528 11893 14637  3333 11893 14637  3170 9662 14638  8421 9662 14638  1764 6960 14639  3456 6960 14639  4773 6530 14640  1730 6530 14640  3266 5908 14641  65 5908 14641  1152 5444 14642  4374 5444 14642  1699 8353 14643  4374 8353 14643  292 6326 14644  3717 6326 14644  7661 14644 14645  3717 14644 14645  7662 14645 14646  3717 14645 14646  4042 7985 14647  4042 7927 14647  2128 10803 14648  2128 8275 14648  2492 9281 14649  4896 9281 14649  6171 7437 14650  2883 6171 14650  4896 13551 14651  1738 13551 14651  4821 14652 15085  663 6568 14652  1952 10147 14653  4644 10147 14653  3148 7532 14654  2253 7532 14654  102 12282 15482  102 14655 15482  1367 4955 14656  4955 5854 14656  5446 13002 14657  3326 13002 14657  5503 6930 14658  5503 8171 14658  1142 5781 14659  3956 5781 14659  3956 7620 14660  2919 7620 14660  1957 7490 15251  1089 7490 14661  285 7492 14662  7492 14662 15251  5162 8090 14663  2169 8090 14663  11507 12186 14664  3624 12186 14664  307 8714 14665  4969 8714 14665  140 10485 14666  4188 10485 14666  4379 13133 14667  463 13133 14667  552 7144 14668  3825 7144 14668  9498 11194 14669  2415 9498 14669  1610 8670 14670  3825 8670 14670  11131 11154 14671  3746 11154 14671  6914 14671 14672  3746 14671 14672  1986 6658 14673  1986 9634 14673  1819 11721 14674  1819 5332 14674  6835 12925 14675  1822 12925 14675  7498 14676 14677  1914 7498 14676  3726 7225 14677  973 7225 14677  2524 9326 14678  5754 7379 15368  1416 7170 14679  3954 7170 14679  3194 7707 14680  371 7707 14680  7207 10954 14681  1894 7207 14681  4899 9944 14682  9944 14682 15065  4148 9009 14683  321 9009 14683  3959 7542 14684  1102 7542 14684  2228 11902 14685  3729 11902 14685  1732 6644 14686  3729 6644 14686  657 8033 14687  5033 8033 14687  3731 9743 14688  2244 9743 14688  3813 7600 14689  3813 8579 14689  4592 8277 14690  556 8277 14690  5016 14159 14691  4874 14159 14691  4825 11270 14692  2593 11270 14692  1777 4573 14693  4573 8399 14693  8946 13662 14694  2501 8946 14694  3792 7395 14695  497 7395 14695  4873 14160 14712  4873 14696 14712  6283 12519 14697  849 12519 14697  1924 7197 14698  1924 7196 14698  2168 6967 15767  6967 14699 15767  1370 5156 14700  4089 5156 14700  507 11423 14701  4462 11423 14701  1189 9259 14702  4243 9259 14702  1509 9869 14703  4328 9869 14703  4328 13478 14704  436 13478 14704  830 8141 14705  830 8307 14705  269 6954 14706  6954 14706 14735  6373 6555 14707  282 6373 14707  3787 8471 14708  628 8471 14708  5424 13394 14709  5424 6068 14709  3845 12114 14710  10500 12114 14710  5802 13579 14711  4033 13579 14711  1619 6981 14712  4874 6981 14712  3075 11705 14713  5673 11705 14713  5548 12188 14714  4159 5548 14714  4159 5548 14715  1153 5548 14715  2314 11856 14716  2314 6117 14716  729 6705 14717  4068 6705 14717  7343 13040 14718  4778 7343 14718  2015 13430 14719  5178 13430 14719  7692 12455 14720  2108 7692 14720  587 6422 14721  3744 6422 14721  3744 6422 14722  1745 6422 14722  11244 14723 15756  4542 11244 14723  4542 11244 14724  1471 11244 14724  4554 10687 14725  1165 10687 14725  4698 5851 14726  361 5851 14726  5937 14496 14727  128 14496 14727  1033 6814 14728  3853 6814 14728  1044 6947 14729  3909 6947 14729  1641 9872 14730  1641 6873 14730  5841 11917 14731  3145 11917 14731  90 8840 14732  4134 14732 14734  4134 6758 14733  1245 6758 14733  8840 14732 14734  2442 8840 14734  1654 8489 14735  3844 8489 14735  3597 7252 14736  1844 7252 14736  3917 11329 14737  3917 6991 14737  1008 7528 14738  3745 7528 14738  3745 7528 14739  1923 7528 14739  514 7276 14740  3745 7276 14740  2963 9551 14741  2963 6978 14741  4921 14089 14742  1285 14089 14742  442 6531 14743  2983 6531 14743  3648 12542 14744  3648 7298 14744  3399 12462 14745  3399 12463 14745  6542 12775 14746  1955 6542 14746  4879 12491 14747  4879 9307 14747  5427 12627 14748  3149 12627 14748  4105 5504 14749  1409 5504 14749  586 6520 14750  4105 6520 14750  3750 6424 14751  2522 6424 14751  885 7196 14752  3750 7196 14752  1532 5481 14753  1532 7812 14753  1721 8452 14754  6131 8452 14754  431 8666 14755  8640 8666 14755  3177 7166 14756  220 7166 14756  1575 8022 14757  5986 14757 15418  1651 5972 14758  2569 5972 14758  1046 7703 14759  3754 7703 14759  4162 12782 14760  3276 12782 14760  2083 8091 14761  2083 8068 14761  427 9766 14762  3003 9766 14762  3759 4657 14763  1035 4657 14763  7273 14764 15330  1885 7273 14764  989 7571 14765  3819 7571 14765  1927 7410 14766  3819 7410 14766  504 8286 14767  3819 8286 14767  6149 14391 14768  3942 14391 14768  3942 6616 14769  105 6616 14769  3887 12676 14770  1550 12676 14770  2050 7691 14771  3756 7691 14771  1776 8979 14772  3864 8979 14772  245 6844 14773  245 5830 14773  2014 6050 14774  5460 6050 14774  1625 5799 14775  4021 5799 14775  4518 10057 14776  1853 10057 14776  4842 12997 14777  420 12997 14777  7443 12564 14778  67 12564 14778  4384 9701 14779  908 9701 14779  1768 9117 14780  1768 6638 14780  4029 5862 14781  5862 12053 14781  1514 5549 14782  3788 5549 14782  3788 5549 14783  546 5549 14783  8066 14783 14784  2115 8066 14784  1366 10424 14785  4162 10424 14785  2588 8038 14786  2588 7633 14786  3766 7253 14787  1844 7253 14787  3766 11866 14788  2168 11866 14788  4280 7990 14789  42 7990 14789  5606 9620 14790  934 9620 14790  780 5612 14791  2955 5612 14791  3939 10277 14792  10277 14792 15428  3939 6403 14793  1682 6403 14793  712 8518 14794  712 10212 14794  2987 10848 14795  3896 10848 14795  5179 9700 14796  1181 9700 14796  519 9899 14797  519 7378 14797  4084 7319 14798  342 7319 14798  1666 8491 14799  3369 8491 14799  4466 14800 15168  4411 4466 14800  4411 13410 14801  404 13410 14801  1306 7130 14802  4505 7130 14802  6651 14803 15214  6859 14803 15214  600 4377 14804  3764 6970 14856  7088 14804 14805  3764 14804 14805  3764 6970 14806  1208 6970 14806  1009 9588 14807  1009 7827 14807  3804 11130 14808  1001 11130 14808  3964 9252 14809  759 9252 14809  1045 8783 14810  3964 8783 14810  4811 11523 14811  829 11523 14811  7980 10297 14812  1083 10297 14812  4447 8590 14813  2284 8590 14813  4448 11348 14814  1255 11348 14814  6822 8232 14815  28 8232 14815  4370 10884 14816  1140 10884 14816  1753 6824 14817  5998 14817 15685  9433 9434 14818  3993 9433 14818  5739 8632 14819  969 8632 14819  6211 11047 14820  2909 11047 14820  2551 8169 14821  789 4853 14894  1791 8766 14822  4261 8766 14822  3916 12233 14823  1238 12233 14823  2765 7013 14824  2326 7013 14824  6916 9933 14825  3418 9933 14825  5857 12454 14826  2116 12454 14826  6145 9544 14827  1863 6145 14827  5396 13792 14828  4079 13792 14828  2848 6563 14829  2188 6563 14829  3892 8973 14830  3892 8689 14830  846 6782 14831  4060 6782 14831  3789 8099 14832  2145 8099 14832  780 10373 14833  4959 10373 14833  1667 12586 14834  5497 12586 14834  6013 12220 14835  6013 14835 15533  1102 5048 14836  3958 5048 14836  3958 7149 14837  313 7149 14837  3958 8867 14838  1603 8867 14838  3859 7509 14839  1948 7509 14839  250 7509 14840  3859 7509 14840  3859 5780 14841  1454 5780 14841  6070 14551 14842  3691 14551 14842  3305 6081 14843  1528 6081 14843  1190 4457 14844  4457 4740 14844  1902 4981 14845  4981 7051 14845  1919 5637 14846  4106 5637 14846  2000 8326 14847  4106 8326 14847  6088 14846 14848  4106 14846 14848  2087 8176 14849  4322 8176 14849  4322 8176 14850  1012 8176 14850  2106 10314 14851  4322 10314 14851  1507 10756 14852  4187 10756 14852  428 13900 14853  4503 13900 14853  4235 14386 14854  3664 14386 14854  4293 12135 14855  1119 12135 14855  3764 14804 14856  4377 14804 14856  3627 14064 14857  4664 14064 14857  1279 11636 14858  5492 11636 14858  1250 6942 14984  1250 14859 14984  3066 7656 14860  2171 7656 14860  4338 4714 14861  1206 4714 14861  3827 7026 14862  1898 7026 14862  493 7026 14863  3827 7026 14863  4083 5311 14864  1304 5311 14864  601 14185 14865  601 7221 14865  1750 6900 14866  5290 6900 14866  3948 7163 14867  1094 7163 14867  6010 9853 14868  2504 9853 14868  2543 8620 14869  4219 8620 14869  4219 8998 14870  1479 8998 14870  4219 8620 14871  338 8620 14871  3102 7404 14872  3736 7404 14872  2840 6402 14873  6402 9011 14873  4767 7783 14874  416 4767 14874  3336 7056 14875  2160 7056 14875  2652 11828 14876  4228 11828 14876  2757 9775 14877  3933 9775 14877  5032 8737 14878  1983 8737 14878  4141 8762 14879  1332 8762 14879  2309 8762 14880  4141 8762 14880  6040 13455 14881  4593 6040 14881  1462 6829 14882  3775 6829 14882  4087 6393 14883  1131 6393 14883  3695 14540 14884  3695 7469 14884  4063 9613 14885  4063 9629 14885  4055 7553 14886  503 7553 14886  5782 10054 14887  3714 10054 14887  103 7002 14888  103 5270 14888  413 12747 14889  413 11843 14889  6961 13963 14890  1764 13963 14890  3346 11871 14891  3346 7895 14891  7305 14153 14892  942 14153 14892  3831 6399 14893  1613 6399 14893  4853 14821 14894  2551 14821 14894  6969 7283 14895  2216 7283 14895  2737 6483 14896  112 6483 14896  954 7327 14898  1990 7327 14897  7327 14897 14898  3618 14897 14898  3459 8974 14899  3459 7924 14899  4996 14900 15317  559 14900 15317  112 11270 14901  4825 11270 14901  5922 14466 14902  4092 14466 14902  314 7033 14903  4092 7033 14903  1877 7391 14904  3780 7391 14904  5069 9728 14905  1322 9728 14905  4031 7912 14906  1070 7912 14906  941 9678 14907  3573 9678 14907  5246 9798 14908  3110 9798 14908  4343 9345 14909  468 9345 14909  1624 7971 14910  1624 5831 14910  5456 11967 14911  3105 11967 14911  280 8611 14912  3904 8611 14912  3608 14076 14913  1408 14076 14913  4836 5855 14914  1893 5855 14914  5580 10152 14915  962 10152 14915  3799 7594 14916  262 7594 14916  10274 12064 14917  4496 10274 14917  1442 9539 14918  5577 9539 14918  9823 12895 14919  3526 12895 14919  5674 8965 14920  2285 8965 14920  11388 14921 15207  4076 11388 14921  76 8383 14922  4076 8383 14922  11732 14922 14923  4076 14922 14923  3403 9051 14924  3403 7850 14924  515 7145 14925  3868 7145 14925  3868 10028 14926  1965 10028 14926  3867 7039 14927  265 7039 14927  3867 10028 14928  10028 14928 14931  1965 7518 14929  3786 7518 14929  3786 7518 14930  265 7518 14930  3868 8691 14931  1008 8691 14931  2074 7194 14932  2074 6621 14932  4984 10081 14933  2484 10081 14933  7663 8108 14934  2045 7663 14934  2564 6382 14935  2564 6896 14935  129 7964 14936  3794 7964 14936  991 5333 14937  3794 14936 15613  12777 14306 14938  4590 12777 14938  13889 14938 14939  1695 13889 14939  5352 11968 14940  3107 11968 14940  3796 7586 14941  1938 7586 14941  3751 6584 14942  2759 6584 14942  1545 5600 14943  2211 5600 14943  4393 7705 14944  7704 7705 14944  4093 12844 14946  5901 12844 14946  611 9152 14946  4093 9152 14946  9138 12913 14947  3830 9138 14947  5766 13020 14948  5766 7463 14948  1586 14949 15704  6053 14949 15704  5891 14950 15735  606 5847 14950  4019 9376 14951  7205 9376 14951  4004 8096 14952  525 8096 14952  2024 8096 14953  4004 8096 14953  4004 5288 15250  4004 14954 15250  3639 6464 14955  1731 6464 14955  202 10771 14956  5913 10771 14956  1261 10258 14957  1261 10184 14957  3580 12724 14958  5870 12724 14958  575 7686 14959  3999 7686 14959  19 7038 14960  19 5518 14960  5067 14103 15637  5067 5991 14961  3865 8580 14962  179 8580 14962  5370 8394 14963  1507 8394 14963  1112 9354 14964  3943 9354 14964  3324 6482 14965  917 6482 14965  1778 5291 14966  4306 5291 14966  4306 9019 14967  150 9019 14967  4306 9473 14968  1506 9473 14968  5114 12047 14982  5114 14969 14982  2577 13539 14970  5646 13539 14970  6417 14971 15143  3117 10291 14971  4252 8747 14972  884 8747 14972  2139 8747 14973  4252 8747 14973  4252 5446 14974  1565 5446 14974  5845 14975 14976  4150 14975 14976  573 10490 14976  4150 10490 14976  6009 10200 14977  1538 10200 14977  6333 14256 14978  3993 14256 14978  2817 5110 14979  4982 5110 14979  4545 13466 14980  3894 13466 14980  3794 14937 14981  3794 7964 14981  3793 4913 14982  544 4913 14982  3793 8699 14983  1020 8699 14983  2730 4677 14984  2730 6942 14984  498 7586 14985  3796 7586 14985  3796 7965 14986  2097 7965 14986  3823 7586 14987  498 7586 14987  1929 7573 14988  3799 7573 14988  1941 7602 14989  7602 14989 15035  3818 8724 14990  1943 8724 14990  7573 15045 15062  1929 7573 14991  7572 14992 15018  3807 7572 14992  3808 7595 14993  1939 7595 14993  3812 7569 14994  998 7569 14994  989 7565 14995  3808 7565 14995  999 7579 15040  7579 14996 15052  1942 7596 14997  3805 7596 14997  7602 14998 15009  7590 14998 14999  3806 9746 14999  1938 9746 14999  1002 7576 15012  7576 15000 15026  7606 15001 15005  3807 7572 15038  1928 7578 15002  3818 7578 15002  1945 7607 15003  3797 7607 15003  3798 7567 15004  503 7567 15004  3813 7600 15005  7600 15005 15037  4632 11754 15006  505 4632 15006  1942 7582 15007  3820 7588 15013  3799 7592 15008  1945 7592 15008  7570 14472 15009  3806 14472 15009  3809 7608 15010  505 7608 15010  3809 7601 15036  7601 15011 15057  7576 15000 15012  3821 15000 15012  3820 15007 15013  7582 15007 15013  3801 7603 15014  1944 7603 15014  1000 7604 15015  7604 15015 15033  3815 7575 15016  1002 7575 15016  3795 6640 15017  995 6640 15017  998 7569 15018  3811 7569 15018  497 7563 15019  3817 7563 15019  1942 7560 15060  499 7560 15020  3805 7596 15021  132 7596 15021  7598 15022 15023  3816 7598 15022  1933 15022 15023  1933 7567 15023  3820 7588 15024  7588 15024 15049  504 7577 15025  3821 7577 15025  3822 7605 15026  7605 15026 15056  3813 7606 15027  261 7606 15027  261 7605 15028  3822 7605 15028  72 7591 15029  3810 7591 15029  504 7589 15030  3812 7589 15030  7599 15006 15031  505 15006 15031  7553 14583 15032  3797 14583 15032  1944 7604 15033  1944 7603 15033  500 7597 15034  7597 15034 15041  996 7601 15035  3809 7601 15035  7601 15011 15036  1937 15011 15036  3814 7599 15037  1940 7599 15037  7572 15001 15038  1940 15001 15038  1945 7592 15059  7592 15039 15045  7579 14996 15040  3816 14996 15040  1943 7583 15041  3803 7583 15041  3820 7595 15042  132 7595 15042  3811 7605 15043  261 7605 15043  7581 15044 15050  7581 15044 15058  3799 7573 15045  999 15045 15062  3823 7587 15046  996 7587 15046  1938 7586 15047  3823 7586 15047  1936 15000 15048  3811 7569 15056  3821 7577 15049  1939 7577 15049  3808 7565 15050  1933 7565 15050  1932 7566 15051  3805 7566 15051  3817 7563 15052  1932 7563 15052  1928 7574 15053  3795 7574 15053  7564 15020 15054  1934 7564 15054  1933 7565 15055  3791 7565 15055  7569 15048 15056  1936 15048 15056  996 7587 15057  3810 7587 15057  7580 15021 15058  132 15021 15058  7592 15039 15059  3798 15039 15059  7560 15020 15060  3815 15020 15060  1002 7575 15061  3822 7575 15061  7573 14991 15062  3817 14991 15062  1932 7563 15063  3804 7563 15063  6453 12751 15064  1380 12751 15064  3432 7104 15065  1272 7104 15065  3963 8823 15066  722 8823 15066  1045 6343 15067  3963 6343 15067  3963 6343 15068  1630 6343 15068  4465 6753 15069  508 6753 15069  3656 7848 15070  2129 7848 15070  4970 6266 15071  1297 6266 15071  3592 6750 15072  6750 8496 15072  1912 7828 15073  2368 7828 15073  5094 6270 15074  2065 5094 15074  649 9772 15075  4762 9772 15075  1453 5391 15076  3832 5391 15076  6537 11992 15077  3109 11992 15077  5969 11848 15078  460 11848 15078  4351 10382 15312  4351 15079 15312  5359 12197 15080  1362 5359 15080  5049 8873 15081  3969 8873 15081  2746 9442 15082  2746 9444 15082  7755 14568 15083  1093 14568 15083  3453 7454 15084  867 7454 15084  4504 12444 15085  663 4504 15085  4269 7856 15086  1136 7856 15086  4269 12517 15087  307 12517 15087  2742 9303 15088  3847 9303 15088  4131 5953 15089  1527 5953 15089  4353 7024 15090  466 7024 15090  1033 9723 15091  3854 9723 15091  3854 6954 15092  269 6954 15092  3854 8281 15093  1805 8281 15093  6052 11812 15094  1586 6052 15094  5821 12501 15095  1548 12501 15095  3846 14969 15096  544 14969 15096  10632 14615 15097  3846 14615 15097  1818 7047 15098  3838 7047 15098  2784 9383 15099  4001 9383 15099  5041 8988 15100  2300 8988 15100  3986 9777 15101  1101 9777 15101  2543 8619 15102  3986 9776 15426  2037 7988 15103  4281 7988 15103  1005 6859 15104  3835 6859 15104  8015 14059 15105  3835 8015 15105  3835 8015 15106  2355 8015 15106  4694 11239 15107  365 11239 15107  8755 10512 15108  4777 8755 15108  4286 10890 15109  1491 10890 15109  2799 8684 15110  4286 15110 15111  8684 15110 15111  381 8684 15111  1463 10799 15112  4850 10799 15112  6206 15112 15113  4763 6206 15113  3850 5554 15114  441 5554 15114  1414 12024 15115  5515 12024 15115  2261 6555 15116  3402 6555 15116  621 6534 15117  6534 7759 15117  4715 9028 15118  2310 9028 15118  3416 13248 15119  3416 8976 15119  3277 8600 15120  867 7454 15693  2487 13324 15121  5302 13324 15121  2842 5798 15122  26 5798 15122  7387 8934 15123  194 8934 15123  4097 13170 15124  1075 13170 15124  516 9383 15125  516 6792 15125  1474 5791 15126  3082 15126 15565  2774 10234 15127  5183 10234 15127  1665 6059 15128  6059 8186 15128  283 10285 15129  283 6349 15129  3103 9827 15130  3103 5343 15130  28 9466 15131  4046 9466 15131  1995 5796 15132  4046 5796 15132  6625 9449 15133  4770 15133 15683  4208 12655 15134  137 12655 15134  37 15135 15511  3972 15135 15511  1234 11656 15136  3972 11656 15136  11074 15136 15137  3972 15136 15137  3247 6107 15138  1404 6107 15138  2093 8088 15139  3348 8088 15139  5034 6296 15140  648 6296 15140  6008 11535 15141  3705 11535 15141  155 10158 15142  7461 10158 15142  5905 12074 15143  3117 12074 15143  130 11924 15144  4074 11924 15144  2557 5105 15145  1455 5105 15145  6037 13085 15254  1585 6037 15146  960 8789 15147  960 7046 15147  662 7329 15148  662 4263 15148  1857 8174 15149  1857 7786 15149  4937 13251 15150  1604 13251 15150  5490 9241 15151  776 9241 15151  699 7398 15152  3491 7398 15152  5980 13543 15153  2518 13543 15153  1958 6995 15154  6995 15154 15155  764 9661 15155  4441 9661 15155  270 6776 15156  3984 6776 15156  9918 14772 15157  3984 9918 15157  4953 13467 15158  491 13467 15158  11565 12914 15159  3344 12914 15159  3873 7031 15160  1790 7031 15160  4258 8127 15161  272 8127 15161  2511 9040 15162  4258 9040 15162  4258 6237 15163  1664 6237 15163  1054 4993 15164  3980 4993 15164  1491 7436 15165  4158 7436 15165  5053 14967 15166  150 14967 15166  4302 7355 15167  1116 7355 15167  1674 7805 15168  4123 7805 15168  3848 9442 15169  961 9442 15169  4378 12834 15170  1949 12834 15170  2487 6016 15171  2487 8119 15171  7861 8046 15172  3111 7861 15172  3829 12655 15173  4208 12655 15173  3252 8690 15174  3252 6488 15174  4777 8755 15175  2401 8755 15175  5012 11306 15176  1159 11306 15176  1643 7738 15177  3267 7738 15177  2418 7723 15178  2418 5988 15178  2412 6847 15179  3292 6847 15179  1182 9549 15180  4152 9549 15180  2264 9616 15181  4152 9616 15181  1019 8690 15182  1019 8065 15182  1887 6876 15183  3875 6876 15183  1904 7227 15184  3875 7227 15184  2760 6708 15185  1515 6708 15185  6307 15186 15187  444 6307 15186  3898 13939 15187  1596 13939 15187  3889 8059 15188  902 8059 15188  113 8614 15189  3906 8614 15189  6297 13004 15190  3906 13004 15190  8613 15190 15191  3906 15190 15191  1984 7416 15614  1984 7356 15192  304 4487 15193  4487 10615 15193  392 12219 15194  4679 12219 15194  5947 12364 15195  1848 12364 15195  1979 8237 15196  3855 8237 15196  3855 13486 15197  1071 13486 15197  5694 8202 15198  2610 5694 15198  255 8060 15199  4904 8060 15199  2881 7043 15200  2881 8408 15200  251 7868 15201  4201 7868 15201  5324 9528 15202  422 9528 15202  4281 6886 15203  6771 6886 15203  4107 4712 15433  4107 15204 15433  1154 9416 15205  4498 9416 15205  4736 6161 15206  1780 6161 15206  1128 14921 15207  1128 7047 15207  1141 8712 15208  3473 8712 15208  3568 6604 15209  1709 6604 15209  3857 9703 15210  1732 9703 15210  8554 15211 15212  2173 8554 15211  6645 15210 15212  27 6645 15212  1836 6947 15213  3908 15213 15454  1757 14192 15214  1757 6859 15214  5308 11467 15216  4008 11467 15216  1533 10022 15216  5308 10022 15216  4515 7502 15217  2662 7502 15217  4124 6233 15255  3379 6233 15218  262 9222 15219  262 7594 15219  3205 12255 15220  3205 12256 15220  4300 10782 15221  2234 10782 15221  700 10554 15525  700 5550 15222  3899 12445 15223  1826 12445 15223  2518 13543 15224  4973 13543 15224  6980 13301 15225  3314 13301 15225  629 7282 15226  5292 7282 15226  2812 5462 15227  4420 5462 15227  6168 7825 15228  1374 6168 15228  5978 12027 15229  714 12027 15229  4858 8163 15230  1303 8163 15230  14 9297 15231  3861 9297 15231  3425 10882 15232  3425 8165 15232  2956 5708 15233  533 5708 15233  6804 15234 15235  1715 6804 15234  6510 12311 15235  425 6510 15235  6511 12311 15236  3926 12311 15236  1372 9184 15237  1372 7825 15237  6117 14716 15238  3668 6117 15238  1723 4427 15239  4427 5003 15239  3860 5471 15539  3860 15240 15539  1881 6101 15241  6101 6102 15241  7716 13664 15242  1180 13664 15242  2232 8430 15243  8430 15243 15245  1276 4366 15244  3955 4366 15244  1508 6342 15245  3955 6342 15245  4121 8488 15246  1707 8488 15246  1672 8488 15247  4121 8488 15247  4121 5683 15248  463 5683 15248  3162 6507 15249  473 6507 15249  9612 15250 15760  5288 9612 15250  7490 14661 15251  3722 14661 15251  3259 12098 15252  3259 6668 15252  203 6087 15253  203 8140 15253  6037 15146 15254  3871 15146 15254  6233 15218 15255  298 15218 15255  5132 12011 15256  289 12011 15256  1560 6197 15257  2114 6197 15257  3965 5858 15258  1513 5858 15258  421 7695 15259  3965 7695 15259  3965 7695 15260  2007 7695 15260  329 8940 15261  3987 8940 15261  1638 7301 15262  3987 7301 15262  5355 13452 15263  3629 13452 15263  1011 10929 15264  3990 10929 15264  1004 15265 15488  1004 7491 15265  2340 10730 15266  6324 10730 15266  1530 7958 15267  3982 7958 15267  3982 6787 15268  1893 6787 15268  211 6787 15269  3982 6787 15269  771 6895 15270  3895 6895 15270  6815 13572 15271  911 6815 15271  1232 4803 15272  4225 4803 15272  4225 7747 15273  2465 7747 15273  3863 10566 15274  2714 10566 15274  3863 7726 15275  1090 7726 15275  1378 5352 15276  1378 8400 15276  4493 12262 15277  469 12262 15277  5967 8001 15278  594 8001 15278  1814 6868 15279  4513 6868 15279  2101 5385 15280  1323 5385 15280  7835 7836 15281  3478 7836 15281  5643 9672 15282  1510 5643 15282  4369 6968 15283  1551 6968 15283  4369 9187 15284  407 9187 15284  4686 14816 15285  1140 14816 15285  78 6241 15286  6240 6241 15286  4474 6888 15287  1741 6888 15287  886 9789 15288  4020 9789 15288  4020 9789 15289  2163 9789 15289  6419 10779 15290  509 6419 15290  2025 8226 15291  3928 8226 15291  525 7880 15292  3929 7880 15292  3929 7880 15293  2025 7880 15293  3928 8226 15294  42 8226 15294  3570 12235 15295  4014 12235 15295  3337 12963 15296  4011 12963 15296  4011 9085 15297  1609 9085 15297  224 6748 15298  224 6982 15298  324 6544 15299  4002 6544 15299  6265 15300 15472  2342 6265 15300  4132 11476 15301  1025 11476 15301  4406 12132 15302  1447 12132 15302  1111 5269 15303  4216 5269 15303  6136 15304 15323  2544 15304 15323  4465 15069 15305  5738 15069 15305  1061 7766 15306  3879 7766 15306  5771 15240 15307  3860 15240 15307  2175 6064 15308  2175 7330 15308  3837 8276 15309  2053 8276 15309  3773 14625 15310  3773 7800 15310  3943 10016 15311  330 10016 15311  5335 13256 15312  5335 10382 15312  3082 6579 15313  724 6579 15313  2775 8769 15314  3237 8769 15314  3881 10051 15315  1430 10051 15315  3881 9941 15316  1483 9941 15316  8560 11201 15317  559 8560 15317  2016 8409 15318  2016 7521 15318  1870 7361 15319  3577 7361 15319  3992 9110 15320  1139 9110 15320  3734 10727 15321  3734 9786 15321  5104 10976 15322  426 10976 15322  4739 9848 15323  2544 9848 15323  5718 10226 15324  2797 10226 15324  3502 13212 15325  5537 13212 15325  6818 15326 15328  1763 6818 15326  3946 7994 15327  299 7994 15327  3946 5581 15328  1079 5581 15328  4911 9808 15329  2796 9808 15329  4053 14764 15330  4053 6484 15330  3701 8551 15331  3701 8867 15331  160 4903 15332  3935 4903 15332  3935 11779 15333  2186 11779 15333  4562 8058 15334  3426 8058 15334  4215 6322 15335  1635 6322 15335  4215 8461 15336  400 8461 15336  5145 10420 15337  2804 10420 15337  440 10669 15338  7893 10669 15338  766 6084 15339  766 7367 15339  3888 11614 15340  1907 11614 15340  5202 12673 15341  1421 12673 15341  5500 14655 15342  5500 11516 15342  3221 6585 15343  3221 10983 15343  993 7817 15344  3976 7817 15344  3976 7817 15345  1930 7817 15345  4379 13133 15346  4379 8376 15346  4553 9665 15347  1260 9665 15347  4553 9536 15348  2053 9536 15348  4311 15349 15350  1356 4311 15349  3920 11459 15350  394 11459 15350  213 9062 15351  6131 9062 15351  4315 8238 15352  2047 8238 15352  4247 9481 15353  2942 9481 15353  5537 8073 15354  1906 8073 15354  4216 5269 15355  5269 9299 15355  4080 6826 15356  1068 6826 15356  9661 13575 15357  764 9661 15357  4236 8384 15358  2135 8384 15358  5055 12458 15359  4091 12458 15359  438 9791 15360  4165 9791 15360  3796 14941 15361  7562 14941 15361  817 11252 15362  4088 11252 15362  2431 9675 15363  4220 9675 15363  1067 7952 15364  4017 7952 15364  554 4659 15365  4017 4659 15365  6979 8521 15366  2509 6979 15366  5335 9171 15367  1447 9171 15367  5754 14678 15368  2524 14678 15368  3791 7565 15369  989 7565 15369  5350 12369 15370  5350 10721 15370  1807 6993 15371  1807 5900 15371  4001 7799 15372  1091 7799 15372  4419 11984 15374  406 11984 15374  4688 13721 15374  4419 13721 15374  2834 9912 15375  2834 5958 15375  1747 4748 15376  4748 5570 15376  4855 9458 15377  1256 9458 15377  4014 9588 15378  4014 7516 15378  2681 4339 15379  2681 8715 15379  2530 5145 15380  5145 8767 15380  3000 10250 15381  4811 10250 15381  4218 12357 15382  1437 12357 15382  4218 8014 15383  911 8014 15383  6336 12357 15384  4218 12357 15384  4341 9353 15385  2460 9353 15385  628 8471 15386  5685 8471 15386  3150 6261 15387  6261 9106 15387  4183 14133 15388  4183 10315 15388  5413 11301 15389  1405 11301 15389  1815 6544 15390  4731 6544 15390  1519 12306 15391  3978 12306 15391  3978 8624 15392  841 8624 15392  4097 15123 15393  7505 15123 15393  776 9397 15394  5002 9397 15394  2962 6577 15395  855 6577 15395  5178 13430 15396  1443 13430 15396  1757 6860 15397  4030 6860 15397  6356 15397 15398  4030 15397 15398  4297 8468 15399  1309 8468 15399  9072 9079 15400  3925 9079 15400  1842 7189 15401  3925 7189 15401  3927 8285 15402  1041 8285 15402  3927 6024 15403  275 6024 15403  4586 8309 15404  1222 8309 15404  5527 11279 15405  3116 11279 15405  4277 8770 15406  494 8770 15406  3932 13236 15407  1101 13236 15407  2437 9192 15408  3932 9192 15408  3932 9192 15409  17 9192 15409  3251 11609 15410  3735 11609 15410  5426 12091 15411  576 5426 15411  4872 8306 15412  2140 8306 15412  161 10498 15414  2731 10498 15413  10498 15413 15414  3902 15413 15414  3902 7011 15415  1026 7011 15415  3202 11684 15416  3202 7865 15416  4801 11342 15417  360 11342 15417  1575 14757 15418  1575 9851 15418  2367 4483 15419  4484 15446 15447  1733 6569 15420  6569 15420 15422  1758 11920 15421  4095 11920 15421  511 10003 15422  4095 10003 15422  2130 6923 15423  2130 8175 15423  3478 9691 15424  3478 7836 15424  36 9555 15425  4375 9555 15425  3986 15102 15426  8619 15102 15426  3626 13536 15427  3626 7521 15427  4066 6878 15428  227 6878 15428  2267 8435 15429  8435 8436 15429  5461 11236 15430  3915 11236 15430  6244 9779 15431  1438 9779 15431  5516 13848 15432  4527 13848 15432  3104 11807 15433  4712 11807 15433  3320 6218 15434  3320 8862 15434  5005 7052 15435  1503 7052 15435  1504 15436 15607  1504 7838 15607  5577 7846 15437  633 5577 15437  3910 7756 15438  1044 7756 15438  5081 11283 15439  1911 11283 15439  6521 9982 15440  3924 6521 15440  3924 5327 15441  376 5327 15441  7401 15440 15442  3924 15440 15442  1969 11086 15443  4732 11086 15443  2876 10353 15444  5086 10353 15444  1275 7992 15445  5175 7992 15445  4483 10707 15447  1275 10707 15447  4484 15419 15447  4483 15419 15447  5826 11401 15448  3383 11401 15448  575 14959 15449  5422 14959 15449  1860 5591 15450  5591 6955 15450  1937 7591 15451  3911 7591 15451  7441 15213 15452  3908 15213 15452  3908 7756 15453  1981 7756 15453  6947 15213 15454  1044 6947 15454  3911 7757 15455  998 7757 15455  1981 7757 15456  3911 7757 15456  209 12232 15457  209 5728 15457  5992 8025 15458  4359 8025 15458  458 8079 15459  4455 8079 15459  7608 15036 15460  1937 15036 15460  5164 10033 15461  1333 10033 15461  3534 12959 15462  4502 12959 15462  5722 8211 15463  881 8211 15463  3436 12871 15464  4290 12871 15464  3161 11958 15465  4678 11958 15465  6746 9332 15466  1896 6746 15466  3506 9381 15467  3506 6731 15467  3243 8980 15468  4249 8980 15468  2458 9111 15469  3991 9111 15469  3991 5641 15470  1139 5641 15470  6352 11772 15471  654 11772 15471  1418 5487 15472  4387 5487 15472  4493 7823 15473  1258 7823 15473  1236 4658 15474  1236 7164 15474  814 10942 15475  3951 10942 15475  408 5370 15476  408 7234 15476  3342 6745 15477  2003 6745 15477  3430 12858 15478  3940 15478 15479  12858 15478 15479  1023 12858 15479  4994 10924 15480  2259 10924 15480  1437 9685 15481  4546 9685 15481  4248 7632 15482  4248 12282 15482  1996 8134 15483  3966 8134 15483  4067 5116 15484  1382 5116 15484  1813 7219 15485  3985 7219 15485  5503 14329 15486  3095 14329 15486  4556 8008 15487  1846 8008 15487  3521 12270 15488  3521 8900 15488  3765 7921 15489  2519 7921 15489  1886 7423 15490  7423 15490 15667  5928 6390 15491  1608 6390 15491  126 11599 15492  9957 11599 15492  1618 6364 15493  1618 9522 15493  5772 11758 15494  1450 11758 15494  1431 5544 15495  5544 8335 15495  10103 12904 15496  1789 12904 15496  1543 7243 15497  5051 7243 15497  4274 5558 15498  1175 5558 15498  4055 8208 15499  1060 8208 15499  2262 5266 15500  5266 7729 15500  5553 15357 15501  764 15357 15501  4017 7952 15502  2165 7952 15502  614 7440 15503  2877 7440 15503  456 4564 15504  3989 4564 15504  1658 10162 15505  3989 10162 15505  4388 7181 15506  480 7181 15506  3160 7908 15507  2598 7908 15507  1456 12453 15508  1456 5082 15508  4222 11521 15509  4222 6180 15509  558 4475 15510  4475 5881 15510  4320 7894 15511  3972 7894 15511  4822 8663 15512  3923 4822 15512  2258 8879 15513  6876 8879 15513  160 8534 15514  4704 8534 15514  2299 6657 15515  4424 6657 15515  3983 8970 15516  16 8970 15516  1775 8970 15517  3983 8970 15517  3983 8778 15518  1051 8778 15518  1153 5548 15519  4160 5548 15519  4160 5548 15520  1663 5548 15520  1190 6539 15521  4456 6539 15521  477 6381 15522  2754 6381 15522  1961 7543 15523  3456 7543 15523  4883 10063 15524  2591 10063 15524  700 15222 15525  4968 15222 15525  2071 8084 15526  4592 8084 15526  3132 4010 15527  4010 7962 15527  7938 15116 15528  3402 15116 15528  526 15529 15610  4142 15529 15610  533 7332 15530  533 5708 15530  5217 10310 15531  2614 10310 15531  247 8532 15532  4734 8532 15532  4588 11169 15533  2926 11169 15533  4724 12437 15534  1450 12437 15534  5589 10693 15535  4725 10693 15535  4725 10646 15554  1209 10646 15554  4968 9035 15537  1612 9035 15537  1301 7242 15538  4968 7242 15538  1292 8678 15539  5471 8678 15539  4939 10390 15540  2194 10390 15540  4880 11159 15541  2922 11159 15541  2954 4576 15542  4576 4959 15542  3349 12420 15543  8159 12420 15543  1985 7385 15544  3842 7385 15544  1115 4126 15545  1115 9984 15545  7346 8745 15546  2361 8745 15546  3628 11591 15547  466 11591 15547  6085 12611 15548  429 12611 15548  2333 7430 15549  4070 7430 15549  4070 6362 15550  1170 6362 15550  6201 15549 15551  4070 15549 15551  5967 11488 15552  1499 11488 15552  4347 11262 15553  114 11262 15553  4724 15534 15554  4725 15534 15554  1163 8812 15555  4388 8812 15555  7313 13385 15556  3921 13385 15556  5310 9256 15557  827 9256 15557  7382 15558 15728  1097 15558 15728  2774 5383 15559  2774 5926 15559  2621 10326 15560  3893 10326 15560  645 6819 15561  2737 6819 15561  6251 8218 15562  1647 6251 15562  5726 13188 15563  3900 13188 15563  3950 8089 15564  331 8089 15564  5791 15126 15565  199 5791 15565  2029 7309 15566  2029 7538 15566  4615 9053 15567  2317 9053 15567  65 8207 15568  4158 8207 15568  2534 5679 15569  2016 5679 15569  5389 8414 15570  937 8414 15570  3220 7534 15571  3220 7702 15571  7032 13287 15572  3396 13287 15572  2967 6934 15573  1890 6934 15573  8532 14633 15574  3191 14633 15574  5618 8481 15575  2198 8481 15575  5248 13878 15576  1737 5248 15576  3404 9537 15577  1169 9537 15577  5810 15221 15578  2234 15221 15578  5289 8856 15579  3081 8856 15579  157 6181 15580  4622 6181 15580  598 12588 15581  6441 12588 15581  4739 6136 15582  2294 6136 15582  5656 9855 15583  2539 9855 15583  2952 11285 15584  8266 11285 15584  7175 13922 15585  1034 13922 15585  7733 15585 15586  1978 7733 15586  401 5582 15587  3953 5582 15587  7526 8330 15588  1137 8330 15588  6288 10851 15589  1221 10851 15589  4761 9897 15590  2749 9897 15590  6190 15590 15591  650 6190 15591  2049 7281 15592  4084 7281 15592  4084 6012 15593  1562 6012 15593  3147 9592 15594  8892 9592 15594  8990 14538 15595  2915 8990 15595  369 11195 15596  4250 11195 15596  569 10850 15597  569 4876 15597  4075 8834 15598  2407 8834 15598  6154 8997 15599  2265 8997 15599  4922 9025 15600  1956 9025 15600  8695 12869 15601  3672 12869 15601  1789 10292 15602  5381 10292 15602  5517 12407 15603  3188 12407 15603  4490 5422 15604  1545 5422 15604  4490 5651 15605  300 5651 15605  4490 7874 15606  1584 7874 15606  5005 15436 15607  5005 5494 15607  2227 5344 15608  5344 8618 15608  2081 5506 15609  4142 5506 15609  7647 15609 15610  4142 15609 15610  5506 10678 15611  1905 10678 15611  687 8291 15612  4104 8291 15612  3794 14937 15613  5333 14937 15613  1984 15192 15614  7357 15192 15614  1842 11662 15615  6253 11662 15615  5687 11792 15616  4402 5687 15616  2225 8674 15617  3967 8674 15617  3967 7810 15618  472 7810 15618  2023 11489 15619  5633 11489 15619  642 9075 15620  4332 9075 15620  6562 15620 15621  4778 6562 15621  4815 10268 15622  806 10268 15622  1962 5960 15623  5960 6768 15623  5296 9894 15624  1584 9894 15624  5226 8166 15625  1905 8166 15625  7059 12956 15626  1698 12956 15626  4175 6910 15627  1095 6910 15627  1349 10738 15628  1349 4407 15628  2183 11936 15629  6834 11936 15629  2335 8113 15630  2335 7470 15630  2868 4869 15631  4802 4869 15631  4007 8786 15632  418 8786 15632  1021 8174 15633  3544 8174 15633  1900 5087 15634  5087 15634 15635  1684 4923 15635  4572 4923 15635  1322 5991 15636  5067 5991 15636  5067 14961 15637  1422 14961 15637  4723 7631 15638  235 7631 15638  3977 8076 15639  2182 8076 15639  2892 9935 15640  4074 9935 15640  4074 9935 15641  1329 9935 15641  4792 12864 15642  3970 12864 15642  10590 15642 15643  3970 15642 15643  3970 12865 15644  1861 12865 15644  565 8658 15645  4304 8658 15645  4304 6809 15646  2660 6809 15646  4304 12551 15647  1306 12551 15647  1876 6004 15648  6004 6257 15648  2890 8035 15649  4441 8035 15649  2208 8327 15650  2208 5468 15650  767 6802 15651  3743 6802 15651  1220 8731 15652  4051 8731 15652  3980 9608 15653  2469 9608 15653  3980 4993 15654  2010 4993 15654  4264 8391 15655  2306 8391 15655  1795 6963 15656  6963 15656 15657  471 10726 15657  4024 10726 15657  1064 9162 15658  4024 9162 15658  6648 11863 15659  4413 6648 15659  5579 9844 15660  134 9844 15660  3895 6895 15661  1730 6895 15661  3347 5653 15662  486 5653 15662  3971 8064 15663  1251 8064 15663  6691 14245 15664  3633 14245 15664  482 8279 15665  6134 8279 15665  4640 13914 15666  395 13914 15666  6524 14616 15667  3475 14616 15667  1596 13939 15668  6308 13939 15668  2069 5384 15669  5384 6866 15669  5862 11846 15670  3851 11846 15670  8814 11112 15671  3309 11112 15671  1703 6763 15672  4198 6763 15672  4198 6403 15673  227 6403 15673  4205 14282 15674  4146 14282 15674  4850 10801 15675  338 10801 15675  4110 8135 15676  1179 8135 15676  2863 4691 15677  4691 7269 15677  2453 13062 15678  4082 13062 15678  4054 5827 15679  1478 5827 15679  2479 10529 15680  4348 10529 15680  1353 4436 15681  4348 4436 15681  927 8553 15682  927 6840 15682  6625 15133 15683  2048 6625 15683  5890 12290 15684  4290 12290 15684  1753 10963 15685  3981 15685 15686  10963 15685 15686  2945 10963 15686  12084 12792 15687  868 12792 15687  4162 10424 15688  2783 10424 15688  5079 10598 15689  2920 10598 15689  507 4787 15690  4786 4787 15690  4786 11963 15691  1415 11963 15691  1776 13515 15692  6775 13515 15692  7454 15120 15693  3277 15120 15693  127 6964 15694  4023 6964 15694  299 8338 15695  4737 8338 15695  1782 6754 15696  4086 6754 15696  1131 6393 15697  4086 6393 15697  6753 15696 15698  4086 15696 15698  2644 10621 15699  5564 10621 15699  620 6227 15700  6227 6667 15700  3157 7082 15701  3157 9455 15701  4119 9402 15702  804 9402 15702  13140 14385 15703  4155 14385 15703  1587 8623 15705  6053 8623 15705  6052 11391 15705  1587 11391 15705  5037 8417 15706  1525 8417 15706  6144 10051 15707  2565 10051 15707  2470 11699 15708  5424 11699 15708  4114 8826 15709  2427 8826 15709  803 10110 15710  803 7625 15710  8641 14020 15711  4481 8641 15711  1236 4658 15712  4481 4658 15712  1751 6913 15713  4006 6913 15713  100 9468 15714  100 8587 15714  4201 5787 15715  1366 5787 15715  1290 11277 15716  5483 11277 15716  2466 7640 15717  4187 7640 15717  3510 10007 15718  3510 7957 15718  1384 7185 15719  4995 7185 15719  4995 11479 15720  1864 11479 15720  6691 15664 15721  883 15664 15721  2045 6278 15722  4515 6278 15722  2107 4330 15723  4330 4331 15723  2861 9932 15724  2861 10281 15724  504 15030 15725  7930 15030 15725  146 10395 15726  4192 15726 15727  10395 15726 15727  2769 10395 15727  10393 15727 15728  1097 10393 15728  7029 9173 15729  2582 7029 15729  1918 8326 15730  6700 8326 15730  5557 10298 15731  1049 10298 15731  297 6751 15732  4810 6751 15732  2342 7901 15733  2342 9081 15733  6598 12602 15734  3373 12602 15734  4314 10783 15735  606 10783 15735  3142 6528 15736  4222 6528 15736  7220 12559 15737  4158 12559 15737  2310 7483 15738  2310 6181 15738  6151 13458 15739  976 13458 15739  5094 7826 15740  2693 7826 15740  3481 13624 15741  3481 11630 15741  4127 10976 15742  3245 10976 15742  3245 5104 15743  5104 7260 15743  2756 7438 15744  2177 7438 15744  6365 13085 15745  1006 13085 15745  2335 8113 15746  3850 8113 15746  1294 8740 15747  4978 8740 15747  1641 11318 15748  1641 5877 15748  243 13629 15749  5009 13629 15749  7923 10300 15750  2031 7923 15750  1494 6574 15751  3878 6574 15751  2231 7131 15752  2231 8039 15752  4827 8860 15753  3930 4827 15753  1471 11244 15754  4544 11244 15754  4544 9716 15755  437 9716 15755  1199 9715 15756  4544 9715 15756  1780 12640 15757  1780 6161 15757  1593 11623 15758  4897 11623 15758  4550 9260 15759  1593 9260 15759  1121 7647 15760  4005 7647 15760  213 7089 15761  3356 7089 15761  4060 7124 15762  1847 7124 15762  228 7124 15763  4060 7124 15763  1718 6766 15764  4382 6766 15764  6426 14390 15765  827 14390 15765  1997 7289 15766  3385 7289 15766  3999 7686 15767  2168 7686 15767  4809 9997 15768  2555 9997 15768  3415 9868 15769  3415 7322 15769  5702 13881 15770  984 13881 15770  1162 6763 15771  4199 6763 15771  5013 14442 15772  4199 5013 15772  1972 8645 15773  4199 8645 15773  2172 8548 15774  3995 8548 15774  1783 6679 15775  3995 6679 15775  </DataArray>
<DataArray  type="UInt32"  Name="offsets"  format="ascii">3 6 9 12 15 18 21 24 27 30 33 36 39 42 45 48 51 54 57 60 63 66 69 72 75 78 81 84 87 90 93 96 99 102 105 108 111 114 117 120 123 126 129 132 135 138 141 144 147 150 153 156 159 162 165 168 171 174 177 180 183 186 189 192 195 198 201 204 207 210 213 216 219 222 225 228 231 234 237 240 243 246 249 252 255 258 261 264 267 270 273 276 279 282 285 288 291 294 297 300 303 306 309 312 315 318 321 324 327 330 333 336 339 342 345 348 351 354 357 360 363 366 369 372 375 378 381 384 387 390 393 396 399 402 405 408 411 414 417 420 423 426 429 432 435 438 441 444 447 450 453 456 459 462 465 468 471 474 477 480 483 486 489 492 495 498 501 504 507 510 513 516 519 522 525 528 531 534 537 540 543 546 549 552 555 558 561 564 567 570 573 576 579 582 585 588 591 594 597 600 603 606 609 612 615 618 621 624 627 630 633 636 639 642 645 648 651 654 657 660 663 666 669 672 675 678 681 684 687 690 693 696 699 702 705 708 711 714 717 720 723 726 729 732 735 738 741 744 747 750 753 756 759 762 765 768 771 774 777 780 783 786 789 792 795 798 801 804 807 810 813 816 819 822 825 828 831 834 837 840 843 846 849 852 855 858 861 864 867 870 873 876 879 882 885 888 891 894 897 900 903 906 909 912 915 918 921 924 927 930 933 936 939 942 945 948 951 954 957 960 963 966 969 972 975 978 981 984 987 990 993 996 999 1002 1005 1008 1011 1014 1017 1020 1023 1026 1029 1032 1035 1038 1041 1044 1047 1050 1053 1056 1059 1062 1065 1068 1071 1074 1077 1080 1083 1086 1089 1092 1095 1098 1101 1104 1107 1110 1113 1116 1119 1122 1125 1128 1131 1134 1137 1140 1143 1146 1149 1152 1155 1158 1161 1164 1167 1170 1173 1176 1179 1182 1185 1188 1191 1194 1197 1200 1203 1206 1209 1212 1215 1218 1221 1224 1227 1230 1233 1236 1239 1242 1245 1248 1251 1254 1257 1260 1263 1266 1269 1272 1275 1278 1281 1284 1287 1290 1293 1296 1299 1302 1305 1308 1311 1314 1317 1320 1323 1326 1329 1332 1335 1338 1341 1344 1347 1350 1353 1356 1359 1362 1365 1368 1371 1374 1377 1380 1383 1386 1389 1392 1395 1398 1401 1404 1407 1410 1413 1416 1419 1422 1425 1428 1431 1434 1437 1440 1443 1446 1449 1452 1455 1458 1461 1464 1467 1470 1473 1476 1479 1482 1485 1488 1491 1494 1497 1500 1503 1506 1509 1512 1515 1518 1521 1524 1527 1530 1533 1536 1539 1542 1545 1548 1551 1554 1557 1560 1563 1566 1569 1572 1575 1578 1581 1584 1587 1590 1593 1596 1599 1602 1605 1608 1611 1614 1617 1620 1623 1626 1629 1632 1635 1638 1641 1644 1647 1650 1653 1656 1659 1662 1665 1668 1671 1674 1677 1680 1683 1686 1689 1692 1695 1698 1701 1704 1707 1710 1713 1716 1719 1722 1725 1728 1731 1734 1737 1740 1743 1746 1749 1752 1755 1758 1761 1764 1767 1770 1773 1776 1779 1782 1785 1788 1791 1794 1797 1800 1803 1806 1809 1812 1815 1818 1821 1824 1827 1830 1833 1836 1839 1842 1845 1848 1851 1854 1857 1860 1863 1866 1869 1872 1875 1878 1881 1884 1887 1890 1893 1896 1899 1902 1905 1908 1911 1914 1917 1920 1923 1926 1929 1932 1935 1938 1941 1944 1947 1950 1953 1956 1959 1962 1965 1968 1971 1974 1977 1980 1983 1986 1989 1992 1995 1998 2001 2004 2007 2010 2013 2016 2019 2022 2025 2028 2031 2034 2037 2040 2043 2046 2049 2052 2055 2058 2061 2064 2067 2070 2073 2076 2079 2082 2085 2088 2091 2094 2097 2100 2103 2106 2109 2112 2115 2118 2121 2124 2127 2130 2133 2136 2139 2142 2145 2148 2151 2154 2157 2160 2163 2166 2169 2172 2175 2178 2181 2184 2187 2190 2193 2196 2199 2202 2205 2208 2211 2214 2217 2220 2223 2226 2229 2232 2235 2238 2241 2244 2247 2250 2253 2256 2259 2262 2265 2268 2271 2274 2277 2280 2283 2286 2289 2292 2295 2298 2301 2304 2307 2310 2313 2316 2319 2322 2325 2328 2331 2334 2337 2340 2343 2346 2349 2352 2355 2358 2361 2364 2367 2370 2373 2376 2379 2382 2385 2388 2391 2394 2397 2400 2403 2406 2409 2412 2415 2418 2421 2424 2427 2430 2433 2436 2439 2442 2445 2448 2451 2454 2457 2460 2463 2466 2469 2472 2475 2478 2481 2484 2487 2490 2493 2496 2499 2502 2505 2508 2511 2514 2517 2520 2523 2526 2529 2532 2535 2538 2541 2544 2547 2550 2553 2556 2559 2562 2565 2568 2571 2574 2577 2580 2583 2586 2589 2592 2595 2598 2601 2604 2607 2610 2613 2616 2619 2622 2625 2628 2631 2634 2637 2640 2643 2646 2649 2652 2655 2658 2661 2664 2667 2670 2673 2676 2679 2682 2685 2688 2691 2694 2697 2700 2703 2706 2709 2712 2715 2718 2721 2724 2727 2730 2733 2736 2739 2742 2745 2748 2751 2754 2757 2760 2763 2766 2769 2772 2775 2778 2781 2784 2787 2790 2793 2796 2799 2802 2805 2808 2811 2814 2817 2820 2823 2826 2829 2832 2835 2838 2841 2844 2847 2850 2853 2856 2859 2862 2865 2868 2871 2874 2877 2880 2883 2886 2889 2892 2895 2898 2901 2904 2907 2910 2913 2916 2919 2922 2925 2928 2931 2934 2937 2940 2943 2946 2949 2952 2955 2958 2961 2964 2967 2970 2973 2976 2979 2982 2985 2988 2991 2994 2997 3000 3003 3006 3009 3012 3015 3018 3021 3024 3027 3030 3033 3036 3039 3042 3045 3048 3051 3054 3057 3060 3063 3066 3069 3072 3075 3078 3081 3084 3087 3090 3093 3096 3099 3102 3105 3108 3111 3114 3117 3120 3123 3126 3129 3132 3135 3138 3141 3144 3147 3150 3153 3156 3159 3162 3165 3168 3171 3174 3177 3180 3183 3186 3189 3192 3195 3198 3201 3204 3207 3210 3213 3216 3219 3222 3225 3228 3231 3234 3237 3240 3243 3246 3249 3252 3255 3258 3261 3264 3267 3270 3273 3276 3279 3282 3285 3288 3291 3294 3297 3300 3303 3306 3309 3312 3315 3318 3321 3324 3327 3330 3333 3336 3339 3342 3345 3348 3351 3354 3357 3360 3363 3366 3369 3372 3375 3378 3381 3384 3387 3390 3393 3396 3399 3402 3405 3408 3411 3414 3417 3420 3423 3426 3429 3432 3435 3438 3441 3444 3447 3450 3453 3456 3459 3462 3465 3468 3471 3474 3477 3480 3483 3486 3489 3492 3495 3498 3501 3504 3507 3510 3513 3516 3519 3522 3525 3528 3531 3534 3537 3540 3543 3546 3549 3552 3555 3558 3561 3564 3567 3570 3573 3576 3579 3582 3585 3588 3591 3594 3597 3600 3603 3606 3609 3612 3615 3618 3621 3624 3627 3630 3633 3636 3639 3642 3645 3648 3651 3654 3657 3660 3663 3666 3669 3672 3675 3678 3681 3684 3687 3690 3693 3696 3699 3702 3705 3708 3711 3714 3717 3720 3723 3726 3729 3732 3735 3738 3741 3744 3747 3750 3753 3756 3759 3762 3765 3768 3771 3774 3777 3780 3783 3786 3789 3792 3795 3798 3801 3804 3807 3810 3813 3816 3819 3822 3825 3828 3831 3834 3837 3840 3843 3846 3849 3852 3855 3858 3861 3864 3867 3870 3873 3876 3879 3882 3885 3888 3891 3894 3897 3900 3903 3906 3909 3912 3915 3918 3921 3924 3927 3930 3933 3936 3939 3942 3945 3948 3951 3954 3957 3960 3963 3966 3969 3972 3975 3978 3981 3984 3987 3990 3993 3996 3999 4002 4005 4008 4011 4014 4017 4020 4023 4026 4029 4032 4035 4038 4041 4044 4047 4050 4053 4056 4059 4062 4065 4068 4071 4074 4077 4080 4083 4086 4089 4092 4095 4098 4101 4104 4107 4110 4113 4116 4119 4122 4125 4128 4131 4134 4137 4140 4143 4146 4149 4152 4155 4158 4161 4164 4167 4170 4173 4176 4179 4182 4185 4188 4191 4194 4197 4200 4203 4206 4209 4212 4215 4218 4221 4224 4227 4230 4233 4236 4239 4242 4245 4248 4251 4254 4257 4260 4263 4266 4269 4272 4275 4278 4281 4284 4287 4290 4293 4296 4299 4302 4305 4308 4311 4314 4317 4320 4323 4326 4329 4332 4335 4338 4341 4344 4347 4350 4353 4356 4359 4362 4365 4368 4371 4374 4377 4380 4383 4386 4389 4392 4395 4398 4401 4404 4407 4410 4413 4416 4419 4422 4425 4428 4431 4434 4437 4440 4443 4446 4449 4452 4455 4458 4461 4464 4467 4470 4473 4476 4479 4482 4485 4488 4491 4494 4497 4500 4503 4506 4509 4512 4515 4518 4521 4524 4527 4530 4533 4536 4539 4542 4545 4548 4551 4554 4557 4560 4563 4566 4569 4572 4575 4578 4581 4584 4587 4590 4593 4596 4599 4602 4605 4608 4611 4614 4617 4620 4623 4626 4629 4632 4635 4638 4641 4644 4647 4650 4653 4656 4659 4662 4665 4668 4671 4674 4677 4680 4683 4686 4689 4692 4695 4698 4701 4704 4707 4710 4713 4716 4719 4722 4725 4728 4731 4734 4737 4740 4743 4746 4749 4752 4755 4758 4761 4764 4767 4770 4773 4776 4779 4782 4785 4788 4791 4794 4797 4800 4803 4806 4809 4812 4815 4818 4821 4824 4827 4830 4833 4836 4839 4842 4845 4848 4851 4854 4857 4860 4863 4866 4869 4872 4875 4878 4881 4884 4887 4890 4893 4896 4899 4902 4905 4908 4911 4914 4917 4920 4923 4926 4929 4932 4935 4938 4941 4944 4947 4950 4953 4956 4959 4962 4965 4968 4971 4974 4977 4980 4983 4986 4989 4992 4995 4998 5001 5004 5007 5010 5013 5016 5019 5022 5025 5028 5031 5034 5037 5040 5043 5046 5049 5052 5055 5058 5061 5064 5067 5070 5073 5076 5079 5082 5085 5088 5091 5094 5097 5100 5103 5106 5109 5112 5115 5118 5121 5124 5127 5130 5133 5136 5139 5142 5145 5148 5151 5154 5157 5160 5163 5166 5169 5172 5175 5178 5181 5184 5187 5190 5193 5196 5199 5202 5205 5208 5211 5214 5217 5220 5223 5226 5229 5232 5235 5238 5241 5244 5247 5250 5253 5256 5259 5262 5265 5268 5271 5274 5277 5280 5283 5286 5289 5292 5295 5298 5301 5304 5307 5310 5313 5316 5319 5322 5325 5328 5331 5334 5337 5340 5343 5346 5349 5352 5355 5358 5361 5364 5367 5370 5373 5376 5379 5382 5385 5388 5391 5394 5397 5400 5403 5406 5409 5412 5415 5418 5421 5424 5427 5430 5433 5436 5439 5442 5445 5448 5451 5454 5457 5460 5463 5466 5469 5472 5475 5478 5481 5484 5487 5490 5493 5496 5499 5502 5505 5508 5511 5514 5517 5520 5523 5526 5529 5532 5535 5538 5541 5544 5547 5550 5553 5556 5559 5562 5565 5568 5571 5574 5577 5580 5583 5586 5589 5592 5595 5598 5601 5604 5607 5610 5613 5616 5619 5622 5625 5628 5631 5634 5637 5640 5643 5646 5649 5652 5655 5658 5661 5664 5667 5670 5673 5676 5679 5682 5685 5688 5691 5694 5697 5700 5703 5706 5709 5712 5715 5718 5721 5724 5727 5730 5733 5736 5739 5742 5745 5748 5751 5754 5757 5760 5763 5766 5769 5772 5775 5778 5781 5784 5787 5790 5793 5796 5799 5802 5805 5808 5811 5814 5817 5820 5823 5826 5829 5832 5835 5838 5841 5844 5847 5850 5853 5856 5859 5862 5865 5868 5871 5874 5877 5880 5883 5886 5889 5892 5895 5898 5901 5904 5907 5910 5913 5916 5919 5922 5925 5928 5931 5934 5937 5940 5943 5946 5949 5952 5955 5958 5961 5964 5967 5970 5973 5976 5979 5982 5985 5988 5991 5994 5997 6000 6003 6006 6009 6012 6015 6018 6021 6024 6027 6030 6033 6036 6039 6042 6045 6048 6051 6054 6057 6060 6063 6066 6069 6072 6075 6078 6081 6084 6087 6090 6093 6096 6099 6102 6105 6108 6111 6114 6117 6120 6123 6126 6129 6132 6135 6138 6141 6144 6147 6150 6153 6156 6159 6162 6165 6168 6171 6174 6177 6180 6183 6186 6189 6192 6195 6198 6201 6204 6207 6210 6213 6216 6219 6222 6225 6228 6231 6234 6237 6240 6243 6246 6249 6252 6255 6258 6261 6264 6267 6270 6273 6276 6279 6282 6285 6288 6291 6294 6297 6300 6303 6306 6309 6312 6315 6318 6321 6324 6327 6330 6333 6336 6339 6342 6345 6348 6351 6354 6357 6360 6363 6366 6369 6372 6375 6378 6381 6384 6387 6390 6393 6396 6399 6402 6405 6408 6411 6414 6417 6420 6423 6426 6429 6432 6435 6438 6441 6444 6447 6450 6453 6456 6459 6462 6465 6468 6471 6474 6477 6480 6483 6486 6489 6492 6495 6498 6501 6504 6507 6510 6513 6516 6519 6522 6525 6528 6531 6534 6537 6540 6543 6546 6549 6552 6555 6558 6561 6564 6567 6570 6573 6576 6579 6582 6585 6588 6591 6594 6597 6600 6603 6606 6609 6612 6615 6618 6621 6624 6627 6630 6633 6636 6639 6642 6645 6648 6651 6654 6657 6660 6663 6666 6669 6672 6675 6678 6681 6684 6687 6690 6693 6696 6699 6702 6705 6708 6711 6714 6717 6720 6723 6726 6729 6732 6735 6738 6741 6744 6747 6750 6753 6756 6759 6762 6765 6768 6771 6774 6777 6780 6783 6786 6789 6792 6795 6798 6801 6804 6807 6810 6813 6816 6819 6822 6825 6828 6831 6834 6837 6840 6843 6846 6849 6852 6855 6858 6861 6864 6867 6870 6873 6876 6879 6882 6885 6888 6891 6894 6897 6900 6903 6906 6909 6912 6915 6918 6921 6924 6927 6930 6933 6936 6939 6942 6945 6948 6951 6954 6957 6960 6963 6966 6969 6972 6975 6978 6981 6984 6987 6990 6993 6996 6999 7002 7005 7008 7011 7014 7017 7020 7023 7026 7029 7032 7035 7038 7041 7044 7047 7050 7053 7056 7059 7062 7065 7068 7071 7074 7077 7080 7083 7086 7089 7092 7095 7098 7101 7104 7107 7110 7113 7116 7119 7122 7125 7128 7131 7134 7137 7140 7143 7146 7149 7152 7155 7158 7161 7164 7167 7170 7173 7176 7179 7182 7185 7188 7191 7194 7197 7200 7203 7206 7209 7212 7215 7218 7221 7224 7227 7230 7233 7236 7239 7242 7245 7248 7251 7254 7257 7260 7263 7266 7269 7272 7275 7278 7281 7284 7287 7290 7293 7296 7299 7302 7305 7308 7311 7314 7317 7320 7323 7326 7329 7332 7335 7338 7341 7344 7347 7350 7353 7356 7359 7362 7365 7368 7371 7374 7377 7380 7383 7386 7389 7392 7395 7398 7401 7404 7407 7410 7413 7416 7419 7422 7425 7428 7431 7434 7437 7440 7443 7446 7449 7452 7455 7458 7461 7464 7467 7470 7473 7476 7479 7482 7485 7488 7491 7494 7497 7500 7503 7506 7509 7512 7515 7518 7521 7524 7527 7530 7533 7536 7539 7542 7545 7548 7551 7554 7557 7560 7563 7566 7569 7572 7575 7578 7581 7584 7587 7590 7593 7596 7599 7602 7605 7608 7611 7614 7617 7620 7623 7626 7629 7632 7635 7638 7641 7644 7647 7650 7653 7656 7659 7662 7665 7668 7671 7674 7677 7680 7683 7686 7689 7692 7695 7698 7701 7704 7707 7710 7713 7716 7719 7722 7725 7728 7731 7734 7737 7740 7743 7746 7749 7752 7755 7758 7761 7764 7767 7770 7773 7776 7779 7782 7785 7788 7791 7794 7797 7800 7803 7806 7809 7812 7815 7818 7821 7824 7827 7830 7833 7836 7839 7842 7845 7848 7851 7854 7857 7860 7863 7866 7869 7872 7875 7878 7881 7884 7887 7890 7893 7896 7899 7902 7905 7908 7911 7914 7917 7920 7923 7926 7929 7932 7935 7938 7941 7944 7947 7950 7953 7956 7959 7962 7965 7968 7971 7974 7977 7980 7983 7986 7989 7992 7995 7998 8001 8004 8007 8010 8013 8016 8019 8022 8025 8028 8031 8034 8037 8040 8043 8046 8049 8052 8055 8058 8061 8064 8067 8070 8073 8076 8079 8082 8085 8088 8091 8094 8097 8100 8103 8106 8109 8112 8115 8118 8121 8124 8127 8130 8133 8136 8139 8142 8145 8148 8151 8154 8157 8160 8163 8166 8169 8172 8175 8178 8181 8184 8187 8190 8193 8196 8199 8202 8205 8208 8211 8214 8217 8220 8223 8226 8229 8232 8235 8238 8241 8244 8247 8250 8253 8256 8259 8262 8265 8268 8271 8274 8277 8280 8283 8286 8289 8292 8295 8298 8301 8304 8307 8310 8313 8316 8319 8322 8325 8328 8331 8334 8337 8340 8343 8346 8349 8352 8355 8358 8361 8364 8367 8370 8373 8376 8379 8382 8385 8388 8391 8394 8397 8400 8403 8406 8409 8412 8415 8418 8421 8424 8427 8430 8433 8436 8439 8442 8445 8448 8451 8454 8457 8460 8463 8466 8469 8472 8475 8478 8481 8484 8487 8490 8493 8496 8499 8502 8505 8508 8511 8514 8517 8520 8523 8526 8529 8532 8535 8538 8541 8544 8547 8550 8553 8556 8559 8562 8565 8568 8571 8574 8577 8580 8583 8586 8589 8592 8595 8598 8601 8604 8607 8610 8613 8616 8619 8622 8625 8628 8631 8634 8637 8640 8643 8646 8649 8652 8655 8658 8661 8664 8667 8670 8673 8676 8679 8682 8685 8688 8691 8694 8697 8700 8703 8706 8709 8712 8715 8718 8721 8724 8727 8730 8733 8736 8739 8742 8745 8748 8751 8754 8757 8760 8763 8766 8769 8772 8775 8778 8781 8784 8787 8790 8793 8796 8799 8802 8805 8808 8811 8814 8817 8820 8823 8826 8829 8832 8835 8838 8841 8844 8847 8850 8853 8856 8859 8862 8865 8868 8871 8874 8877 8880 8883 8886 8889 8892 8895 8898 8901 8904 8907 8910 8913 8916 8919 8922 8925 8928 8931 8934 8937 8940 8943 8946 8949 8952 8955 8958 8961 8964 8967 8970 8973 8976 8979 8982 8985 8988 8991 8994 8997 9000 9003 9006 9009 9012 9015 9018 9021 9024 9027 9030 9033 9036 9039 9042 9045 9048 9051 9054 9057 9060 9063 9066 9069 9072 9075 9078 9081 9084 9087 9090 9093 9096 9099 9102 9105 9108 9111 9114 9117 9120 9123 9126 9129 9132 9135 9138 9141 9144 9147 9150 9153 9156 9159 9162 9165 9168 9171 9174 9177 9180 9183 9186 9189 9192 9195 9198 9201 9204 9207 9210 9213 9216 9219 9222 9225 9228 9231 9234 9237 9240 9243 9246 9249 9252 9255 9258 9261 9264 9267 9270 9273 9276 9279 9282 9285 9288 9291 9294 9297 9300 9303 9306 9309 9312 9315 9318 9321 9324 9327 9330 9333 9336 9339 9342 9345 9348 9351 9354 9357 9360 9363 9366 9369 9372 9375 9378 9381 9384 9387 9390 9393 9396 9399 9402 9405 9408 9411 9414 9417 9420 9423 9426 9429 9432 9435 9438 9441 9444 9447 9450 9453 9456 9459 9462 9465 9468 9471 9474 9477 9480 9483 9486 9489 9492 9495 9498 9501 9504 9507 9510 9513 9516 9519 9522 9525 9528 9531 9534 9537 9540 9543 9546 9549 9552 9555 9558 9561 9564 9567 9570 9573 9576 9579 9582 9585 9588 9591 9594 9597 9600 9603 9606 9609 9612 9615 9618 9621 9624 9627 9630 9633 9636 9639 9642 9645 9648 9651 9654 9657 9660 9663 9666 9669 9672 9675 9678 9681 9684 9687 9690 9693 9696 9699 9702 9705 9708 9711 9714 9717 9720 9723 9726 9729 9732 9735 9738 9741 9744 9747 9750 9753 9756 9759 9762 9765 9768 9771 9774 9777 9780 9783 9786 9789 9792 9795 9798 9801 9804 9807 9810 9813 9816 9819 9822 9825 9828 9831 9834 9837 9840 9843 9846 9849 9852 9855 9858 9861 9864 9867 9870 9873 9876 9879 9882 9885 9888 9891 9894 9897 9900 9903 9906 9909 9912 9915 9918 9921 9924 9927 9930 9933 9936 9939 9942 9945 9948 9951 9954 9957 9960 9963 9966 9969 9972 9975 9978 9981 9984 9987 9990 9993 9996 9999 10002 10005 10008 10011 10014 10017 10020 10023 10026 10029 10032 10035 10038 10041 10044 10047 10050 10053 10056 10059 10062 10065 10068 10071 10074 10077 10080 10083 10086 10089 10092 10095 10098 10101 10104 10107 10110 10113 10116 10119 10122 10125 10128 10131 10134 10137 10140 10143 10146 10149 10152 10155 10158 10161 10164 10167 10170 10173 10176 10179 10182 10185 10188 10191 10194 10197 10200 10203 10206 10209 10212 10215 10218 10221 10224 10227 10230 10233 10236 10239 10242 10245 10248 10251 10254 10257 10260 10263 10266 10269 10272 10275 10278 10281 10284 10287 10290 10293 10296 10299 10302 10305 10308 10311 10314 10317 10320 10323 10326 10329 10332 10335 10338 10341 10344 10347 10350 10353 10356 10359 10362 10365 10368 10371 10374 10377 10380 10383 10386 10389 10392 10395 10398 10401 10404 10407 10410 10413 10416 10419 10422 10425 10428 10431 10434 10437 10440 10443 10446 10449 10452 10455 10458 10461 10464 10467 10470 10473 10476 10479 10482 10485 10488 10491 10494 10497 10500 10503 10506 10509 10512 10515 10518 10521 10524 10527 10530 10533 10536 10539 10542 10545 10548 10551 10554 10557 10560 10563 10566 10569 10572 10575 10578 10581 10584 10587 10590 10593 10596 10599 10602 10605 10608 10611 10614 10617 10620 10623 10626 10629 10632 10635 10638 10641 10644 10647 10650 10653 10656 10659 10662 10665 10668 10671 10674 10677 10680 10683 10686 10689 10692 10695 10698 10701 10704 10707 10710 10713 10716 10719 10722 10725 10728 10731 10734 10737 10740 10743 10746 10749 10752 10755 10758 10761 10764 10767 10770 10773 10776 10779 10782 10785 10788 10791 10794 10797 10800 10803 10806 10809 10812 10815 10818 10821 10824 10827 10830 10833 10836 10839 10842 10845 10848 10851 10854 10857 10860 10863 10866 10869 10872 10875 10878 10881 10884 10887 10890 10893 10896 10899 10902 10905 10908 10911 10914 10917 10920 10923 10926 10929 10932 10935 10938 10941 10944 10947 10950 10953 10956 10959 10962 10965 10968 10971 10974 10977 10980 10983 10986 10989 10992 10995 10998 11001 11004 11007 11010 11013 11016 11019 11022 11025 11028 11031 11034 11037 11040 11043 11046 11049 11052 11055 11058 11061 11064 11067 11070 11073 11076 11079 11082 11085 11088 11091 11094 11097 11100 11103 11106 11109 11112 11115 11118 11121 11124 11127 11130 11133 11136 11139 11142 11145 11148 11151 11154 11157 11160 11163 11166 11169 11172 11175 11178 11181 11184 11187 11190 11193 11196 11199 11202 11205 11208 11211 11214 11217 11220 11223 11226 11229 11232 11235 11238 11241 11244 11247 11250 11253 11256 11259 11262 11265 11268 11271 11274 11277 11280 11283 11286 11289 11292 11295 11298 11301 11304 11307 11310 11313 11316 11319 11322 11325 11328 11331 11334 11337 11340 11343 11346 11349 11352 11355 11358 11361 11364 11367 11370 11373 11376 11379 11382 11385 11388 11391 11394 11397 11400 11403 11406 11409 11412 11415 11418 11421 11424 11427 11430 11433 11436 11439 11442 11445 11448 11451 11454 11457 11460 11463 11466 11469 11472 11475 11478 11481 11484 11487 11490 11493 11496 11499 11502 11505 11508 11511 11514 11517 11520 11523 11526 11529 11532 11535 11538 11541 11544 11547 11550 11553 11556 11559 11562 11565 11568 11571 11574 11577 11580 11583 11586 11589 11592 11595 11598 11601 11604 11607 11610 11613 11616 11619 11622 11625 11628 11631 11634 11637 11640 11643 11646 11649 11652 11655 11658 11661 11664 11667 11670 11673 11676 11679 11682 11685 11688 11691 11694 11697 11700 11703 11706 11709 11712 11715 11718 11721 11724 11727 11730 11733 11736 11739 11742 11745 11748 11751 11754 11757 11760 11763 11766 11769 11772 11775 11778 11781 11784 11787 11790 11793 11796 11799 11802 11805 11808 11811 11814 11817 11820 11823 11826 11829 11832 11835 11838 11841 11844 11847 11850 11853 11856 11859 11862 11865 11868 11871 11874 11877 11880 11883 11886 11889 11892 11895 11898 11901 11904 11907 11910 11913 11916 11919 11922 11925 11928 11931 11934 11937 11940 11943 11946 11949 11952 11955 11958 11961 11964 11967 11970 11973 11976 11979 11982 11985 11988 11991 11994 11997 12000 12003 12006 12009 12012 12015 12018 12021 12024 12027 12030 12033 12036 12039 12042 12045 12048 12051 12054 12057 12060 12063 12066 12069 12072 12075 12078 12081 12084 12087 12090 12093 12096 12099 12102 12105 12108 12111 12114 12117 12120 12123 12126 12129 12132 12135 12138 12141 12144 12147 12150 12153 12156 12159 12162 12165 12168 12171 12174 12177 12180 12183 12186 12189 12192 12195 12198 12201 12204 12207 12210 12213 12216 12219 12222 12225 12228 12231 12234 12237 12240 12243 12246 12249 12252 12255 12258 12261 12264 12267 12270 12273 12276 12279 12282 12285 12288 12291 12294 12297 12300 12303 12306 12309 12312 12315 12318 12321 12324 12327 12330 12333 12336 12339 12342 12345 12348 12351 12354 12357 12360 12363 12366 12369 12372 12375 12378 12381 12384 12387 12390 12393 12396 12399 12402 12405 12408 12411 12414 12417 12420 12423 12426 12429 12432 12435 12438 12441 12444 12447 12450 12453 12456 12459 12462 12465 12468 12471 12474 12477 12480 12483 12486 12489 12492 12495 12498 12501 12504 12507 12510 12513 12516 12519 12522 12525 12528 12531 12534 12537 12540 12543 12546 12549 12552 12555 12558 12561 12564 12567 12570 12573 12576 12579 12582 12585 12588 12591 12594 12597 12600 12603 12606 12609 12612 12615 12618 12621 12624 12627 12630 12633 12636 12639 12642 12645 12648 12651 12654 12657 12660 12663 12666 12669 12672 12675 12678 12681 12684 12687 12690 12693 12696 12699 12702 12705 12708 12711 12714 12717 12720 12723 12726 12729 12732 12735 12738 12741 12744 12747 12750 12753 12756 12759 12762 12765 12768 12771 12774 12777 12780 12783 12786 12789 12792 12795 12798 12801 12804 12807 12810 12813 12816 12819 12822 12825 12828 12831 12834 12837 12840 12843 12846 12849 12852 12855 12858 12861 12864 12867 12870 12873 12876 12879 12882 12885 12888 12891 12894 12897 12900 12903 12906 12909 12912 12915 12918 12921 12924 12927 12930 12933 12936 12939 12942 12945 12948 12951 12954 12957 12960 12963 12966 12969 12972 12975 12978 12981 12984 12987 12990 12993 12996 12999 13002 13005 13008 13011 13014 13017 13020 13023 13026 13029 13032 13035 13038 13041 13044 13047 13050 13053 13056 13059 13062 13065 13068 13071 13074 13077 13080 13083 13086 13089 13092 13095 13098 13101 13104 13107 13110 13113 13116 13119 13122 13125 13128 13131 13134 13137 13140 13143 13146 13149 13152 13155 13158 13161 13164 13167 13170 13173 13176 13179 13182 13185 13188 13191 13194 13197 13200 13203 13206 13209 13212 13215 13218 13221 13224 13227 13230 13233 13236 13239 13242 13245 13248 13251 13254 13257 13260 13263 13266 13269 13272 13275 13278 13281 13284 13287 13290 13293 13296 13299 13302 13305 13308 13311 13314 13317 13320 13323 13326 13329 13332 13335 13338 13341 13344 13347 13350 13353 13356 13359 13362 13365 13368 13371 13374 13377 13380 13383 13386 13389 13392 13395 13398 13401 13404 13407 13410 13413 13416 13419 13422 13425 13428 13431 13434 13437 13440 13443 13446 13449 13452 13455 13458 13461 13464 13467 13470 13473 13476 13479 13482 13485 13488 13491 13494 13497 13500 13503 13506 13509 13512 13515 13518 13521 13524 13527 13530 13533 13536 13539 13542 13545 13548 13551 13554 13557 13560 13563 13566 13569 13572 13575 13578 13581 13584 13587 13590 13593 13596 13599 13602 13605 13608 13611 13614 13617 13620 13623 13626 13629 13632 13635 13638 13641 13644 13647 13650 13653 13656 13659 13662 13665 13668 13671 13674 13677 13680 13683 13686 13689 13692 13695 13698 13701 13704 13707 13710 13713 13716 13719 13722 13725 13728 13731 13734 13737 13740 13743 13746 13749 13752 13755 13758 13761 13764 13767 13770 13773 13776 13779 13782 13785 13788 13791 13794 13797 13800 13803 13806 13809 13812 13815 13818 13821 13824 13827 13830 13833 13836 13839 13842 13845 13848 13851 13854 13857 13860 13863 13866 13869 13872 13875 13878 13881 13884 13887 13890 13893 13896 13899 13902 13905 13908 13911 13914 13917 13920 13923 13926 13929 13932 13935 13938 13941 13944 13947 13950 13953 13956 13959 13962 13965 13968 13971 13974 13977 13980 13983 13986 13989 13992 13995 13998 14001 14004 14007 14010 14013 14016 14019 14022 14025 14028 14031 14034 14037 14040 14043 14046 14049 14052 14055 14058 14061 14064 14067 14070 14073 14076 14079 14082 14085 14088 14091 14094 14097 14100 14103 14106 14109 14112 14115 14118 14121 14124 14127 14130 14133 14136 14139 14142 14145 14148 14151 14154 14157 14160 14163 14166 14169 14172 14175 14178 14181 14184 14187 14190 14193 14196 14199 14202 14205 14208 14211 14214 14217 14220 14223 14226 14229 14232 14235 14238 14241 14244 14247 14250 14253 14256 14259 14262 14265 14268 14271 14274 14277 14280 14283 14286 14289 14292 14295 14298 14301 14304 14307 14310 14313 14316 14319 14322 14325 14328 14331 14334 14337 14340 14343 14346 14349 14352 14355 14358 14361 14364 14367 14370 14373 14376 14379 14382 14385 14388 14391 14394 14397 14400 14403 14406 14409 14412 14415 14418 14421 14424 14427 14430 14433 14436 14439 14442 14445 14448 14451 14454 14457 14460 14463 14466 14469 14472 14475 14478 14481 14484 14487 14490 14493 14496 14499 14502 14505 14508 14511 14514 14517 14520 14523 14526 14529 14532 14535 14538 14541 14544 14547 14550 14553 14556 14559 14562 14565 14568 14571 14574 14577 14580 14583 14586 14589 14592 14595 14598 14601 14604 14607 14610 14613 14616 14619 14622 14625 14628 14631 14634 14637 14640 14643 14646 14649 14652 14655 14658 14661 14664 14667 14670 14673 14676 14679 14682 14685 14688 14691 14694 14697 14700 14703 14706 14709 14712 14715 14718 14721 14724 14727 14730 14733 14736 14739 14742 14745 14748 14751 14754 14757 14760 14763 14766 14769 14772 14775 14778 14781 14784 14787 14790 14793 14796 14799 14802 14805 14808 14811 14814 14817 14820 14823 14826 14829 14832 14835 14838 14841 14844 14847 14850 14853 14856 14859 14862 14865 14868 14871 14874 14877 14880 14883 14886 14889 14892 14895 14898 14901 14904 14907 14910 14913 14916 14919 14922 14925 14928 14931 14934 14937 14940 14943 14946 14949 14952 14955 14958 14961 14964 14967 14970 14973 14976 14979 14982 14985 14988 14991 14994 14997 15000 15003 15006 15009 15012 15015 15018 15021 15024 15027 15030 15033 15036 15039 15042 15045 15048 15051 15054 15057 15060 15063 15066 15069 15072 15075 15078 15081 15084 15087 15090 15093 15096 15099 15102 15105 15108 15111 15114 15117 15120 15123 15126 15129 15132 15135 15138 15141 15144 15147 15150 15153 15156 15159 15162 15165 15168 15171 15174 15177 15180 15183 15186 15189 15192 15195 15198 15201 15204 15207 15210 15213 15216 15219 15222 15225 15228 15231 15234 15237 15240 15243 15246 15249 15252 15255 15258 15261 15264 15267 15270 15273 15276 15279 15282 15285 15288 15291 15294 15297 15300 15303 15306 15309 15312 15315 15318 15321 15324 15327 15330 15333 15336 15339 15342 15345 15348 15351 15354 15357 15360 15363 15366 15369 15372 15375 15378 15381 15384 15387 15390 15393 15396 15399 15402 15405 15408 15411 15414 15417 15420 15423 15426 15429 15432 15435 15438 15441 15444 15447 15450 15453 15456 15459 15462 15465 15468 15471 15474 15477 15480 15483 15486 15489 15492 15495 15498 15501 15504 15507 15510 15513 15516 15519 15522 15525 15528 15531 15534 15537 15540 15543 15546 15549 15552 15555 15558 15561 15564 15567 15570 15573 15576 15579 15582 15585 15588 15591 15594 15597 15600 15603 15606 15609 15612 15615 15618 15621 15624 15627 15630 15633 15636 15639 15642 15645 15648 15651 15654 15657 15660 15663 15666 15669 15672 15675 15678 15681 15684 15687 15690 15693 15696 15699 15702 15705 15708 15711 15714 15717 15720 15723 15726 15729 15732 15735 15738 15741 15744 15747 15750 15753 15756 15759 15762 15765 15768 15771 15774 15777 15780 15783 15786 15789 15792 15795 15798 15801 15804 15807 15810 15813 15816 15819 15822 15825 15828 15831 15834 15837 15840 15843 15846 15849 15852 15855 15858 15861 15864 15867 15870 15873 15876 15879 15882 15885 15888 15891 15894 15897 15900 15903 15906 15909 15912 15915 15918 15921 15924 15927 15930 15933 15936 15939 15942 15945 15948 15951 15954 15957 15960 15963 15966 15969 15972 15975 15978 15981 15984 15987 15990 15993 15996 15999 16002 16005 16008 16011 16014 16017 16020 16023 16026 16029 16032 16035 16038 16041 16044 16047 16050 16053 16056 16059 16062 16065 16068 16071 16074 16077 16080 16083 16086 16089 16092 16095 16098 16101 16104 16107 16110 16113 16116 16119 16122 16125 16128 16131 16134 16137 16140 16143 16146 16149 16152 16155 16158 16161 16164 16167 16170 16173 16176 16179 16182 16185 16188 16191 16194 16197 16200 16203 16206 16209 16212 16215 16218 16221 16224 16227 16230 16233 16236 16239 16242 16245 16248 16251 16254 16257 16260 16263 16266 16269 16272 16275 16278 16281 16284 16287 16290 16293 16296 16299 16302 16305 16308 16311 16314 16317 16320 16323 16326 16329 16332 16335 16338 16341 16344 16347 16350 16353 16356 16359 16362 16365 16368 16371 16374 16377 16380 16383 16386 16389 16392 16395 16398 16401 16404 16407 16410 16413 16416 16419 16422 16425 16428 16431 16434 16437 16440 16443 16446 16449 16452 16455 16458 16461 16464 16467 16470 16473 16476 16479 16482 16485 16488 16491 16494 16497 16500 16503 16506 16509 16512 16515 16518 16521 16524 16527 16530 16533 16536 16539 16542 16545 16548 16551 16554 16557 16560 16563 16566 16569 16572 16575 16578 16581 16584 16587 16590 16593 16596 16599 16602 16605 16608 16611 16614 16617 16620 16623 16626 16629 16632 16635 16638 16641 16644 16647 16650 16653 16656 16659 16662 16665 16668 16671 16674 16677 16680 16683 16686 16689 16692 16695 16698 16701 16704 16707 16710 16713 16716 16719 16722 16725 16728 16731 16734 16737 16740 16743 16746 16749 16752 16755 16758 16761 16764 16767 16770 16773 16776 16779 16782 16785 16788 16791 16794 16797 16800 16803 16806 16809 16812 16815 16818 16821 16824 16827 16830 16833 16836 16839 16842 16845 16848 16851 16854 16857 16860 16863 16866 16869 16872 16875 16878 16881 16884 16887 16890 16893 16896 16899 16902 16905 16908 16911 16914 16917 16920 16923 16926 16929 16932 16935 16938 16941 16944 16947 16950 16953 16956 16959 16962 16965 16968 16971 16974 16977 16980 16983 16986 16989 16992 16995 16998 17001 17004 17007 17010 17013 17016 17019 17022 17025 17028 17031 17034 17037 17040 17043 17046 17049 17052 17055 17058 17061 17064 17067 17070 17073 17076 17079 17082 17085 17088 17091 17094 17097 17100 17103 17106 17109 17112 17115 17118 17121 17124 17127 17130 17133 17136 17139 17142 17145 17148 17151 17154 17157 17160 17163 17166 17169 17172 17175 17178 17181 17184 17187 17190 17193 17196 17199 17202 17205 17208 17211 17214 17217 17220 17223 17226 17229 17232 17235 17238 17241 17244 17247 17250 17253 17256 17259 17262 17265 17268 17271 17274 17277 17280 17283 17286 17289 17292 17295 17298 17301 17304 17307 17310 17313 17316 17319 17322 17325 17328 17331 17334 17337 17340 17343 17346 17349 17352 17355 17358 17361 17364 17367 17370 17373 17376 17379 17382 17385 17388 17391 17394 17397 17400 17403 17406 17409 17412 17415 17418 17421 17424 17427 17430 17433 17436 17439 17442 17445 17448 17451 17454 17457 17460 17463 17466 17469 17472 17475 17478 17481 17484 17487 17490 17493 17496 17499 17502 17505 17508 17511 17514 17517 17520 17523 17526 17529 17532 17535 17538 17541 17544 17547 17550 17553 17556 17559 17562 17565 17568 17571 17574 17577 17580 17583 17586 17589 17592 17595 17598 17601 17604 17607 17610 17613 17616 17619 17622 17625 17628 17631 17634 17637 17640 17643 17646 17649 17652 17655 17658 17661 17664 17667 17670 17673 17676 17679 17682 17685 17688 17691 17694 17697 17700 17703 17706 17709 17712 17715 17718 17721 17724 17727 17730 17733 17736 17739 17742 17745 17748 17751 17754 17757 17760 17763 17766 17769 17772 17775 17778 17781 17784 17787 17790 17793 17796 17799 17802 17805 17808 17811 17814 17817 17820 17823 17826 17829 17832 17835 17838 17841 17844 17847 17850 17853 17856 17859 17862 17865 17868 17871 17874 17877 17880 17883 17886 17889 17892 17895 17898 17901 17904 17907 17910 17913 17916 17919 17922 17925 17928 17931 17934 17937 17940 17943 17946 17949 17952 17955 17958 17961 17964 17967 17970 17973 17976 17979 17982 17985 17988 17991 17994 17997 18000 18003 18006 18009 18012 18015 18018 18021 18024 18027 18030 18033 18036 18039 18042 18045 18048 18051 18054 18057 18060 18063 18066 18069 18072 18075 18078 18081 18084 18087 18090 18093 18096 18099 18102 18105 18108 18111 18114 18117 18120 18123 18126 18129 18132 18135 18138 18141 18144 18147 18150 18153 18156 18159 18162 18165 18168 18171 18174 18177 18180 18183 18186 18189 18192 18195 18198 18201 18204 18207 18210 18213 18216 18219 18222 18225 18228 18231 18234 18237 18240 18243 18246 18249 18252 18255 18258 18261 18264 18267 18270 18273 18276 18279 18282 18285 18288 18291 18294 18297 18300 18303 18306 18309 18312 18315 18318 18321 18324 18327 18330 18333 18336 18339 18342 18345 18348 18351 18354 18357 18360 18363 18366 18369 18372 18375 18378 18381 18384 18387 18390 18393 18396 18399 18402 18405 18408 18411 18414 18417 18420 18423 18426 18429 18432 18435 18438 18441 18444 18447 18450 18453 18456 18459 18462 18465 18468 18471 18474 18477 18480 18483 18486 18489 18492 18495 18498 18501 18504 18507 18510 18513 18516 18519 18522 18525 18528 18531 18534 18537 18540 18543 18546 18549 18552 18555 18558 18561 18564 18567 18570 18573 18576 18579 18582 18585 18588 18591 18594 18597 18600 18603 18606 18609 18612 18615 18618 18621 18624 18627 18630 18633 18636 18639 18642 18645 18648 18651 18654 18657 18660 18663 18666 18669 18672 18675 18678 18681 18684 18687 18690 18693 18696 18699 18702 18705 18708 18711 18714 18717 18720 18723 18726 18729 18732 18735 18738 18741 18744 18747 18750 18753 18756 18759 18762 18765 18768 18771 18774 18777 18780 18783 18786 18789 18792 18795 18798 18801 18804 18807 18810 18813 18816 18819 18822 18825 18828 18831 18834 18837 18840 18843 18846 18849 18852 18855 18858 18861 18864 18867 18870 18873 18876 18879 18882 18885 18888 18891 18894 18897 18900 18903 18906 18909 18912 18915 18918 18921 18924 18927 18930 18933 18936 18939 18942 18945 18948 18951 18954 18957 18960 18963 18966 18969 18972 18975 18978 18981 18984 18987 18990 18993 18996 18999 19002 19005 19008 19011 19014 19017 19020 19023 19026 19029 19032 19035 19038 19041 19044 19047 19050 19053 19056 19059 19062 19065 19068 19071 19074 19077 19080 19083 19086 19089 19092 19095 19098 19101 19104 19107 19110 19113 19116 19119 19122 19125 19128 19131 19134 19137 19140 19143 19146 19149 19152 19155 19158 19161 19164 19167 19170 19173 19176 19179 19182 19185 19188 19191 19194 19197 19200 19203 19206 19209 19212 19215 19218 19221 19224 19227 19230 19233 19236 19239 19242 19245 19248 19251 19254 19257 19260 19263 19266 19269 19272 19275 19278 19281 19284 19287 19290 19293 19296 19299 19302 19305 19308 19311 19314 19317 19320 19323 19326 19329 19332 19335 19338 19341 19344 19347 19350 19353 19356 19359 19362 19365 19368 19371 19374 19377 19380 19383 19386 19389 19392 19395 19398 19401 19404 19407 19410 19413 19416 19419 19422 19425 19428 19431 19434 19437 19440 19443 19446 19449 19452 19455 19458 19461 19464 19467 19470 19473 19476 19479 19482 19485 19488 19491 19494 19497 19500 19503 19506 19509 19512 19515 19518 19521 19524 19527 19530 19533 19536 19539 19542 19545 19548 19551 19554 19557 19560 19563 19566 19569 19572 19575 19578 19581 19584 19587 19590 19593 19596 19599 19602 19605 19608 19611 19614 19617 19620 19623 19626 19629 19632 19635 19638 19641 19644 19647 19650 19653 19656 19659 19662 19665 19668 19671 19674 19677 19680 19683 19686 19689 19692 19695 19698 19701 19704 19707 19710 19713 19716 19719 19722 19725 19728 19731 19734 19737 19740 19743 19746 19749 19752 19755 19758 19761 19764 19767 19770 19773 19776 19779 19782 19785 19788 19791 19794 19797 19800 19803 19806 19809 19812 19815 19818 19821 19824 19827 19830 19833 19836 19839 19842 19845 19848 19851 19854 19857 19860 19863 19866 19869 19872 19875 19878 19881 19884 19887 19890 19893 19896 19899 19902 19905 19908 19911 19914 19917 19920 19923 19926 19929 19932 19935 19938 19941 19944 19947 19950 19953 19956 19959 19962 19965 19968 19971 19974 19977 19980 19983 19986 19989 19992 19995 19998 20001 20004 20007 20010 20013 20016 20019 20022 20025 20028 20031 20034 20037 20040 20043 20046 20049 20052 20055 20058 20061 20064 20067 20070 20073 20076 20079 20082 20085 20088 20091 20094 20097 20100 20103 20106 20109 20112 20115 20118 20121 20124 20127 20130 20133 20136 20139 20142 20145 20148 20151 20154 20157 20160 20163 20166 20169 20172 20175 20178 20181 20184 20187 20190 20193 20196 20199 20202 20205 20208 20211 20214 20217 20220 20223 20226 20229 20232 20235 20238 20241 20244 20247 20250 20253 20256 20259 20262 20265 20268 20271 20274 20277 20280 20283 20286 20289 20292 20295 20298 20301 20304 20307 20310 20313 20316 20319 20322 20325 20328 20331 20334 20337 20340 20343 20346 20349 20352 20355 20358 20361 20364 20367 20370 20373 20376 20379 20382 20385 20388 20391 20394 20397 20400 20403 20406 20409 20412 20415 20418 20421 20424 20427 20430 20433 20436 20439 20442 20445 20448 20451 20454 20457 20460 20463 20466 20469 20472 20475 20478 20481 20484 20487 20490 20493 20496 20499 20502 20505 20508 20511 20514 20517 20520 20523 20526 20529 20532 20535 20538 20541 20544 20547 20550 20553 20556 20559 20562 20565 20568 20571 20574 20577 20580 20583 20586 20589 20592 20595 20598 20601 20604 20607 20610 20613 20616 20619 20622 20625 20628 20631 20634 20637 20640 20643 20646 20649 20652 20655 20658 20661 20664 20667 20670 20673 20676 20679 20682 20685 20688 20691 20694 20697 20700 20703 20706 20709 20712 20715 20718 20721 20724 20727 20730 20733 20736 20739 20742 20745 20748 20751 20754 20757 20760 20763 20766 20769 20772 20775 20778 20781 20784 20787 20790 20793 20796 20799 20802 20805 20808 20811 20814 20817 20820 20823 20826 20829 20832 20835 20838 20841 20844 20847 20850 20853 20856 20859 20862 20865 20868 20871 20874 20877 20880 20883 20886 20889 20892 20895 20898 20901 20904 20907 20910 20913 20916 20919 20922 20925 20928 20931 20934 20937 20940 20943 20946 20949 20952 20955 20958 20961 20964 20967 20970 20973 20976 20979 20982 20985 20988 20991 20994 20997 21000 21003 21006 21009 21012 21015 21018 21021 21024 21027 21030 21033 21036 21039 21042 21045 21048 21051 21054 21057 21060 21063 21066 21069 21072 21075 21078 21081 21084 21087 21090 21093 21096 21099 21102 21105 21108 21111 21114 21117 21120 21123 21126 21129 21132 21135 21138 21141 21144 21147 21150 21153 21156 21159 21162 21165 21168 21171 21174 21177 21180 21183 21186 21189 21192 21195 21198 21201 21204 21207 21210 21213 21216 21219 21222 21225 21228 21231 21234 21237 21240 21243 21246 21249 21252 21255 21258 21261 21264 21267 21270 21273 21276 21279 21282 21285 21288 21291 21294 21297 21300 21303 21306 21309 21312 21315 21318 21321 21324 21327 21330 21333 21336 21339 21342 21345 21348 21351 21354 21357 21360 21363 21366 21369 21372 21375 21378 21381 21384 21387 21390 21393 21396 21399 21402 21405 21408 21411 21414 21417 21420 21423 21426 21429 21432 21435 21438 21441 21444 21447 21450 21453 21456 21459 21462 21465 21468 21471 21474 21477 21480 21483 21486 21489 21492 21495 21498 21501 21504 21507 21510 21513 21516 21519 21522 21525 21528 21531 21534 21537 21540 21543 21546 21549 21552 21555 21558 21561 21564 21567 21570 21573 21576 21579 21582 21585 21588 21591 21594 21597 21600 21603 21606 21609 21612 21615 21618 21621 21624 21627 21630 21633 21636 21639 21642 21645 21648 21651 21654 21657 21660 21663 21666 21669 21672 21675 21678 21681 21684 21687 21690 21693 21696 21699 21702 21705 21708 21711 21714 21717 21720 21723 21726 21729 21732 21735 21738 21741 21744 21747 21750 21753 21756 21759 21762 21765 21768 21771 21774 21777 21780 21783 21786 21789 21792 21795 21798 21801 21804 21807 21810 21813 21816 21819 21822 21825 21828 21831 21834 21837 21840 21843 21846 21849 21852 21855 21858 21861 21864 21867 21870 21873 21876 21879 21882 21885 21888 21891 21894 21897 21900 21903 21906 21909 21912 21915 21918 21921 21924 21927 21930 21933 21936 21939 21942 21945 21948 21951 21954 21957 21960 21963 21966 21969 21972 21975 21978 21981 21984 21987 21990 21993 21996 21999 22002 22005 22008 22011 22014 22017 22020 22023 22026 22029 22032 22035 22038 22041 22044 22047 22050 22053 22056 22059 22062 22065 22068 22071 22074 22077 22080 22083 22086 22089 22092 22095 22098 22101 22104 22107 22110 22113 22116 22119 22122 22125 22128 22131 22134 22137 22140 22143 22146 22149 22152 22155 22158 22161 22164 22167 22170 22173 22176 22179 22182 22185 22188 22191 22194 22197 22200 22203 22206 22209 22212 22215 22218 22221 22224 22227 22230 22233 22236 22239 22242 22245 22248 22251 22254 22257 22260 22263 22266 22269 22272 22275 22278 22281 22284 22287 22290 22293 22296 22299 22302 22305 22308 22311 22314 22317 22320 22323 22326 22329 22332 22335 22338 22341 22344 22347 22350 22353 22356 22359 22362 22365 22368 22371 22374 22377 22380 22383 22386 22389 22392 22395 22398 22401 22404 22407 22410 22413 22416 22419 22422 22425 22428 22431 22434 22437 22440 22443 22446 22449 22452 22455 22458 22461 22464 22467 22470 22473 22476 22479 22482 22485 22488 22491 22494 22497 22500 22503 22506 22509 22512 22515 22518 22521 22524 22527 22530 22533 22536 22539 22542 22545 22548 22551 22554 22557 22560 22563 22566 22569 22572 22575 22578 22581 22584 22587 22590 22593 22596 22599 22602 22605 22608 22611 22614 22617 22620 22623 22626 22629 22632 22635 22638 22641 22644 22647 22650 22653 22656 22659 22662 22665 22668 22671 22674 22677 22680 22683 22686 22689 22692 22695 22698 22701 22704 22707 22710 22713 22716 22719 22722 22725 22728 22731 22734 22737 22740 22743 22746 22749 22752 22755 22758 22761 22764 22767 22770 22773 22776 22779 22782 22785 22788 22791 22794 22797 22800 22803 22806 22809 22812 22815 22818 22821 22824 22827 22830 22833 22836 22839 22842 22845 22848 22851 22854 22857 22860 22863 22866 22869 22872 22875 22878 22881 22884 22887 22890 22893 22896 22899 22902 22905 22908 22911 22914 22917 22920 22923 22926 22929 22932 22935 22938 22941 22944 22947 22950 22953 22956 22959 22962 22965 22968 22971 22974 22977 22980 22983 22986 22989 22992 22995 22998 23001 23004 23007 23010 23013 23016 23019 23022 23025 23028 23031 23034 23037 23040 23043 23046 23049 23052 23055 23058 23061 23064 23067 23070 23073 23076 23079 23082 23085 23088 23091 23094 23097 23100 23103 23106 23109 23112 23115 23118 23121 23124 23127 23130 23133 23136 23139 23142 23145 23148 23151 23154 23157 23160 23163 23166 23169 23172 23175 23178 23181 23184 23187 23190 23193 23196 23199 23202 23205 23208 23211 23214 23217 23220 23223 23226 23229 23232 23235 23238 23241 23244 23247 23250 23253 23256 23259 23262 23265 23268 23271 23274 23277 23280 23283 23286 23289 23292 23295 23298 23301 23304 23307 23310 23313 23316 23319 23322 23325 23328 23331 23334 23337 23340 23343 23346 23349 23352 23355 23358 23361 23364 23367 23370 23373 23376 23379 23382 23385 23388 23391 23394 23397 23400 23403 23406 23409 23412 23415 23418 23421 23424 23427 23430 23433 23436 23439 23442 23445 23448 23451 23454 23457 23460 23463 23466 23469 23472 23475 23478 23481 23484 23487 23490 23493 23496 23499 23502 23505 23508 23511 23514 23517 23520 23523 23526 23529 23532 23535 23538 23541 23544 23547 23550 23553 23556 23559 23562 23565 23568 23571 23574 23577 23580 23583 23586 23589 23592 23595 23598 23601 23604 23607 23610 23613 23616 23619 23622 23625 23628 23631 23634 23637 23640 23643 23646 23649 23652 23655 23658 23661 23664 23667 23670 23673 23676 23679 23682 23685 23688 23691 23694 23697 23700 23703 23706 23709 23712 23715 23718 23721 23724 23727 23730 23733 23736 23739 23742 23745 23748 23751 23754 23757 23760 23763 23766 23769 23772 23775 23778 23781 23784 23787 23790 23793 23796 23799 23802 23805 23808 23811 23814 23817 23820 23823 23826 23829 23832 23835 23838 23841 23844 23847 23850 23853 23856 23859 23862 23865 23868 23871 23874 23877 23880 23883 23886 23889 23892 23895 23898 23901 23904 23907 23910 23913 23916 23919 23922 23925 23928 23931 23934 23937 23940 23943 23946 23949 23952 23955 23958 23961 23964 23967 23970 23973 23976 23979 23982 23985 23988 23991 23994 23997 24000 24003 24006 24009 24012 24015 24018 24021 24024 24027 24030 24033 24036 24039 24042 24045 24048 24051 24054 24057 24060 24063 24066 24069 24072 24075 24078 24081 24084 24087 24090 24093 24096 24099 24102 24105 24108 24111 24114 24117 24120 24123 24126 24129 24132 24135 24138 24141 24144 24147 24150 24153 24156 24159 24162 24165 24168 24171 24174 24177 24180 24183 24186 24189 24192 24195 24198 24201 24204 24207 24210 24213 24216 24219 24222 24225 24228 24231 24234 24237 24240 24243 24246 24249 24252 24255 24258 24261 24264 24267 24270 24273 24276 24279 24282 24285 24288 24291 24294 24297 24300 24303 24306 24309 24312 24315 24318 24321 24324 24327 24330 24333 24336 24339 24342 24345 24348 24351 24354 24357 24360 24363 24366 24369 24372 24375 24378 24381 24384 24387 24390 24393 24396 24399 24402 24405 24408 24411 24414 24417 24420 24423 24426 24429 24432 24435 24438 24441 24444 24447 24450 24453 24456 24459 24462 24465 24468 24471 24474 24477 24480 24483 24486 24489 24492 24495 24498 24501 24504 24507 24510 24513 24516 24519 24522 24525 24528 24531 24534 24537 24540 24543 24546 24549 24552 24555 24558 24561 24564 24567 24570 24573 24576 24579 24582 24585 24588 24591 24594 24597 24600 24603 24606 24609 24612 24615 24618 24621 24624 24627 24630 24633 24636 24639 24642 24645 24648 24651 24654 24657 24660 24663 24666 24669 24672 24675 24678 24681 24684 24687 24690 24693 24696 24699 24702 24705 24708 24711 24714 24717 24720 24723 24726 24729 24732 24735 24738 24741 24744 24747 24750 24753 24756 24759 24762 24765 24768 24771 24774 24777 24780 24783 24786 24789 24792 24795 24798 24801 24804 24807 24810 24813 24816 24819 24822 24825 24828 24831 24834 24837 24840 24843 24846 24849 24852 24855 24858 24861 24864 24867 24870 24873 24876 24879 24882 24885 24888 24891 24894 24897 24900 24903 24906 24909 24912 24915 24918 24921 24924 24927 24930 24933 24936 24939 24942 24945 24948 24951 24954 24957 24960 24963 24966 24969 24972 24975 24978 24981 24984 24987 24990 24993 24996 24999 25002 25005 25008 25011 25014 25017 25020 25023 25026 25029 25032 25035 25038 25041 25044 25047 25050 25053 25056 25059 25062 25065 25068 25071 25074 25077 25080 25083 25086 25089 25092 25095 25098 25101 25104 25107 25110 25113 25116 25119 25122 25125 25128 25131 25134 25137 25140 25143 25146 25149 25152 25155 25158 25161 25164 25167 25170 25173 25176 25179 25182 25185 25188 25191 25194 25197 25200 25203 25206 25209 25212 25215 25218 25221 25224 25227 25230 25233 25236 25239 25242 25245 25248 25251 25254 25257 25260 25263 25266 25269 25272 25275 25278 25281 25284 25287 25290 25293 25296 25299 25302 25305 25308 25311 25314 25317 25320 25323 25326 25329 25332 25335 25338 25341 25344 25347 25350 25353 25356 25359 25362 25365 25368 25371 25374 25377 25380 25383 25386 25389 25392 25395 25398 25401 25404 25407 25410 25413 25416 25419 25422 25425 25428 25431 25434 25437 25440 25443 25446 25449 25452 25455 25458 25461 25464 25467 25470 25473 25476 25479 25482 25485 25488 25491 25494 25497 25500 25503 25506 25509 25512 25515 25518 25521 25524 25527 25530 25533 25536 25539 25542 25545 25548 25551 25554 25557 25560 25563 25566 25569 25572 25575 25578 25581 25584 25587 25590 25593 25596 25599 25602 25605 25608 25611 25614 25617 25620 25623 25626 25629 25632 25635 25638 25641 25644 25647 25650 25653 25656 25659 25662 25665 25668 25671 25674 25677 25680 25683 25686 25689 25692 25695 25698 25701 25704 25707 25710 25713 25716 25719 25722 25725 25728 25731 25734 25737 25740 25743 25746 25749 25752 25755 25758 25761 25764 25767 25770 25773 25776 25779 25782 25785 25788 25791 25794 25797 25800 25803 25806 25809 25812 25815 25818 25821 25824 25827 25830 25833 25836 25839 25842 25845 25848 25851 25854 25857 25860 25863 25866 25869 25872 25875 25878 25881 25884 25887 25890 25893 25896 25899 25902 25905 25908 25911 25914 25917 25920 25923 25926 25929 25932 25935 25938 25941 25944 25947 25950 25953 25956 25959 25962 25965 25968 25971 25974 25977 25980 25983 25986 25989 25992 25995 25998 26001 26004 26007 26010 26013 26016 26019 26022 26025 26028 26031 26034 26037 26040 26043 26046 26049 26052 26055 26058 26061 26064 26067 26070 26073 26076 26079 26082 26085 26088 26091 26094 26097 26100 26103 26106 26109 26112 26115 26118 26121 26124 26127 26130 26133 26136 26139 26142 26145 26148 26151 26154 26157 26160 26163 26166 26169 26172 26175 26178 26181 26184 26187 26190 26193 26196 26199 26202 26205 26208 26211 26214 26217 26220 26223 26226 26229 26232 26235 26238 26241 26244 26247 26250 26253 26256 26259 26262 26265 26268 26271 26274 26277 26280 26283 26286 26289 26292 26295 26298 26301 26304 26307 26310 26313 26316 26319 26322 26325 26328 26331 26334 26337 26340 26343 26346 26349 26352 26355 26358 26361 26364 26367 26370 26373 26376 26379 26382 26385 26388 26391 26394 26397 26400 26403 26406 26409 26412 26415 26418 26421 26424 26427 26430 26433 26436 26439 26442 26445 26448 26451 26454 26457 26460 26463 26466 26469 26472 26475 26478 26481 26484 26487 26490 26493 26496 26499 26502 26505 26508 26511 26514 26517 26520 26523 26526 26529 26532 26535 26538 26541 26544 26547 26550 26553 26556 26559 26562 26565 26568 26571 26574 26577 26580 26583 26586 26589 26592 26595 26598 26601 26604 26607 26610 26613 26616 26619 26622 26625 26628 26631 26634 26637 26640 26643 26646 26649 26652 26655 26658 26661 26664 26667 26670 26673 26676 26679 26682 26685 26688 26691 26694 26697 26700 26703 26706 26709 26712 26715 26718 26721 26724 26727 26730 26733 26736 26739 26742 26745 26748 26751 26754 26757 26760 26763 26766 26769 26772 26775 26778 26781 26784 26787 26790 26793 26796 26799 26802 26805 26808 26811 26814 26817 26820 26823 26826 26829 26832 26835 26838 26841 26844 26847 26850 26853 26856 26859 26862 26865 26868 26871 26874 26877 26880 26883 26886 26889 26892 26895 26898 26901 26904 26907 26910 26913 26916 26919 26922 26925 26928 26931 26934 26937 26940 26943 26946 26949 26952 26955 26958 26961 26964 26967 26970 26973 26976 26979 26982 26985 26988 26991 26994 26997 27000 27003 27006 27009 27012 27015 27018 27021 27024 27027 27030 27033 27036 27039 27042 27045 27048 27051 27054 27057 27060 27063 27066 27069 27072 27075 27078 27081 27084 27087 27090 27093 27096 27099 27102 27105 27108 27111 27114 27117 27120 27123 27126 27129 27132 27135 27138 27141 27144 27147 27150 27153 27156 27159 27162 27165 27168 27171 27174 27177 27180 27183 27186 27189 27192 27195 27198 27201 27204 27207 27210 27213 27216 27219 27222 27225 27228 27231 27234 27237 27240 27243 27246 27249 27252 27255 27258 27261 27264 27267 27270 27273 27276 27279 27282 27285 27288 27291 27294 27297 27300 27303 27306 27309 27312 27315 27318 27321 27324 27327 27330 27333 27336 27339 27342 27345 27348 27351 27354 27357 27360 27363 27366 27369 27372 27375 27378 27381 27384 27387 27390 27393 27396 27399 27402 27405 27408 27411 27414 27417 27420 27423 27426 27429 27432 27435 27438 27441 27444 27447 27450 27453 27456 27459 27462 27465 27468 27471 27474 27477 27480 27483 27486 27489 27492 27495 27498 27501 27504 27507 27510 27513 27516 27519 27522 27525 27528 27531 27534 27537 27540 27543 27546 27549 27552 27555 27558 27561 27564 27567 27570 27573 27576 27579 27582 27585 27588 27591 27594 27597 27600 27603 27606 27609 27612 27615 27618 27621 27624 27627 27630 27633 27636 27639 27642 27645 27648 27651 27654 27657 27660 27663 27666 27669 27672 27675 27678 27681 27684 27687 27690 27693 27696 27699 27702 27705 27708 27711 27714 27717 27720 27723 27726 27729 27732 27735 27738 27741 27744 27747 27750 27753 27756 27759 27762 27765 27768 27771 27774 27777 27780 27783 27786 27789 27792 27795 27798 27801 27804 27807 27810 27813 27816 27819 27822 27825 27828 27831 27834 27837 27840 27843 27846 27849 27852 27855 27858 27861 27864 27867 27870 27873 27876 27879 27882 27885 27888 27891 27894 27897 27900 27903 27906 27909 27912 27915 27918 27921 27924 27927 27930 27933 27936 27939 27942 27945 27948 27951 27954 27957 27960 27963 27966 27969 27972 27975 27978 27981 27984 27987 27990 27993 27996 27999 28002 28005 28008 28011 28014 28017 28020 28023 28026 28029 28032 28035 28038 28041 28044 28047 28050 28053 28056 28059 28062 28065 28068 28071 28074 28077 28080 28083 28086 28089 28092 28095 28098 28101 28104 28107 28110 28113 28116 28119 28122 28125 28128 28131 28134 28137 28140 28143 28146 28149 28152 28155 28158 28161 28164 28167 28170 28173 28176 28179 28182 28185 28188 28191 28194 28197 28200 28203 28206 28209 28212 28215 28218 28221 28224 28227 28230 28233 28236 28239 28242 28245 28248 28251 28254 28257 28260 28263 28266 28269 28272 28275 28278 28281 28284 28287 28290 28293 28296 28299 28302 28305 28308 28311 28314 28317 28320 28323 28326 28329 28332 28335 28338 28341 28344 28347 28350 28353 28356 28359 28362 28365 28368 28371 28374 28377 28380 28383 28386 28389 28392 28395 28398 28401 28404 28407 28410 28413 28416 28419 28422 28425 28428 28431 28434 28437 28440 28443 28446 28449 28452 28455 28458 28461 28464 28467 28470 28473 28476 28479 28482 28485 28488 28491 28494 28497 28500 28503 28506 28509 28512 28515 28518 28521 28524 28527 28530 28533 28536 28539 28542 28545 28548 28551 28554 28557 28560 28563 28566 28569 28572 28575 28578 28581 28584 28587 28590 28593 28596 28599 28602 28605 28608 28611 28614 28617 28620 28623 28626 28629 28632 28635 28638 28641 28644 28647 28650 28653 28656 28659 28662 28665 28668 28671 28674 28677 28680 28683 28686 28689 28692 28695 28698 28701 28704 28707 28710 28713 28716 28719 28722 28725 28728 28731 28734 28737 28740 28743 28746 28749 28752 28755 28758 28761 28764 28767 28770 28773 28776 28779 28782 28785 28788 28791 28794 28797 28800 28803 28806 28809 28812 28815 28818 28821 28824 28827 28830 28833 28836 28839 28842 28845 28848 28851 28854 28857 28860 28863 28866 28869 28872 28875 28878 28881 28884 28887 28890 28893 28896 28899 28902 28905 28908 28911 28914 28917 28920 28923 28926 28929 28932 28935 28938 28941 28944 28947 28950 28953 28956 28959 28962 28965 28968 28971 28974 28977 28980 28983 28986 28989 28992 28995 28998 29001 29004 29007 29010 29013 29016 29019 29022 29025 29028 29031 29034 29037 29040 29043 29046 29049 29052 29055 29058 29061 29064 29067 29070 29073 29076 29079 29082 29085 29088 29091 29094 29097 29100 29103 29106 29109 29112 29115 29118 29121 29124 29127 29130 29133 29136 29139 29142 29145 29148 29151 29154 29157 29160 29163 29166 29169 29172 29175 29178 29181 29184 29187 29190 29193 29196 29199 29202 29205 29208 29211 29214 29217 29220 29223 29226 29229 29232 29235 29238 29241 29244 29247 29250 29253 29256 29259 29262 29265 29268 29271 29274 29277 29280 29283 29286 29289 29292 29295 29298 29301 29304 29307 29310 29313 29316 29319 29322 29325 29328 29331 29334 29337 29340 29343 29346 29349 29352 29355 29358 29361 29364 29367 29370 29373 29376 29379 29382 29385 29388 29391 29394 29397 29400 29403 29406 29409 29412 29415 29418 29421 29424 29427 29430 29433 29436 29439 29442 29445 29448 29451 29454 29457 29460 29463 29466 29469 29472 29475 29478 29481 29484 29487 29490 29493 29496 29499 29502 29505 29508 29511 29514 29517 29520 29523 29526 29529 29532 29535 29538 29541 29544 29547 29550 29553 29556 29559 29562 29565 29568 29571 29574 29577 29580 29583 29586 29589 29592 29595 29598 29601 29604 29607 29610 29613 29616 29619 29622 29625 29628 29631 29634 29637 29640 29643 29646 29649 29652 29655 29658 29661 29664 29667 29670 29673 29676 29679 29682 29685 29688 29691 29694 29697 29700 29703 29706 29709 29712 29715 29718 29721 29724 29727 29730 29733 29736 29739 29742 29745 29748 29751 29754 29757 29760 29763 29766 29769 29772 29775 29778 29781 29784 29787 29790 29793 29796 29799 29802 29805 29808 29811 29814 29817 29820 29823 29826 29829 29832 29835 29838 29841 29844 29847 29850 29853 29856 29859 29862 29865 29868 29871 29874 29877 29880 29883 29886 29889 29892 29895 29898 29901 29904 29907 29910 29913 29916 29919 29922 29925 29928 29931 29934 29937 29940 29943 29946 29949 29952 29955 29958 29961 29964 29967 29970 29973 29976 29979 29982 29985 29988 29991 29994 29997 30000 30003 30006 30009 30012 30015 30018 30021 30024 30027 30030 30033 30036 30039 30042 30045 30048 30051 30054 30057 30060 30063 30066 30069 30072 30075 30078 30081 30084 30087 30090 30093 30096 30099 30102 30105 30108 30111 30114 30117 30120 30123 30126 30129 30132 30135 30138 30141 30144 30147 30150 30153 30156 30159 30162 30165 30168 30171 30174 30177 30180 30183 30186 30189 30192 30195 30198 30201 30204 30207 30210 30213 30216 30219 30222 30225 30228 30231 30234 30237 30240 30243 30246 30249 30252 30255 30258 30261 30264 30267 30270 30273 30276 30279 30282 30285 30288 30291 30294 30297 30300 30303 30306 30309 30312 30315 30318 30321 30324 30327 30330 30333 30336 30339 30342 30345 30348 30351 30354 30357 30360 30363 30366 30369 30372 30375 30378 30381 30384 30387 30390 30393 30396 30399 30402 30405 30408 30411 30414 30417 30420 30423 30426 30429 30432 30435 30438 30441 30444 30447 30450 30453 30456 30459 30462 30465 30468 30471 30474 30477 30480 30483 30486 30489 30492 30495 30498 30501 30504 30507 30510 30513 30516 30519 30522 30525 30528 30531 30534 30537 30540 30543 30546 30549 30552 30555 30558 30561 30564 30567 30570 30573 30576 30579 30582 30585 30588 30591 30594 30597 30600 30603 30606 30609 30612 30615 30618 30621 30624 30627 30630 30633 30636 30639 30642 30645 30648 30651 30654 30657 30660 30663 30666 30669 30672 30675 30678 30681 30684 30687 30690 30693 30696 30699 30702 30705 30708 30711 30714 30717 30720 30723 30726 30729 30732 30735 30738 30741 30744 30747 30750 30753 30756 30759 30762 30765 30768 30771 30774 30777 30780 30783 30786 30789 30792 30795 30798 30801 30804 30807 30810 30813 30816 30819 30822 30825 30828 30831 30834 30837 30840 30843 30846 30849 30852 30855 30858 30861 30864 30867 30870 30873 30876 30879 30882 30885 30888 30891 30894 30897 30900 30903 30906 30909 30912 30915 30918 30921 30924 30927 30930 30933 30936 30939 30942 30945 30948 30951 30954 30957 30960 30963 30966 30969 30972 30975 30978 30981 30984 30987 30990 30993 30996 30999 31002 31005 31008 31011 31014 31017 31020 31023 31026 31029 31032 31035 31038 31041 31044 31047 31050 31053 31056 31059 31062 31065 31068 31071 31074 31077 31080 31083 31086 31089 31092 31095 31098 31101 31104 31107 31110 31113 31116 31119 31122 31125 31128 31131 31134 31137 31140 31143 31146 31149 31152 31155 31158 31161 31164 31167 31170 31173 31176 31179 31182 31185 31188 31191 31194 31197 31200 31203 31206 31209 31212 31215 31218 31221 31224 31227 31230 31233 31236 31239 31242 31245 31248 31251 31254 31257 31260 31263 31266 31269 31272 31275 31278 31281 31284 31287 31290 31293 31296 31299 31302 31305 31308 31311 31314 31317 31320 31323 31326 31329 31332 31335 31338 31341 31344 31347 31350 31353 31356 31359 31362 31365 31368 31371 31374 31377 31380 31383 31386 31389 31392 31395 31398 31401 31404 31407 31410 31413 31416 31419 31422 31425 31428 31431 31434 31437 31440 31443 31446 31449 31452 31455 31458 31461 31464 31467 31470 31473 31476 31479 31482 31485 31488 31491 31494 31497 31500 31503 31506 31509 31512 31515 31518 31521 31524 31527 31530 31533 31536 31539 31542 31545 31548 31551 31554 31557 31560 31563 31566 31569 31572 31575 31578 31581 31584 31587 31590 31593 31596 31599 31602 31605 31608 31611 31614 31617 31620 31623 31626 31629 31632 31635 31638 31641 31644 31647 31650 31653 31656 31659 31662 31665 31668 31671 31674 31677 31680 31683 31686 31689 31692 31695 31698 31701 31704 31707 31710 31713 31716 31719 31722 31725 31728 31731 31734 31737 31740 31743 31746 31749 31752 31755 31758 31761 31764 31767 31770 31773 31776 31779 31782 31785 31788 31791 31794 31797 31800 31803 31806 31809 31812 31815 31818 31821 31824 31827 31830 31833 31836 31839 31842 31845 31848 31851 31854 31857 31860 31863 31866 31869 31872 31875 31878 31881 31884 31887 31890 31893 31896 31899 31902 31905 31908 31911 31914 31917 31920 31923 31926 31929 31932 31935 31938 31941 31944 31947 31950 31953 31956 31959 31962 31965 31968 31971 31974 31977 31980 31983 31986 31989 31992 31995 31998 32001 32004 32007 32010 32013 32016 32019 32022 32025 32028 32031 32034 32037 32040 32043 32046 32049 32052 32055 32058 32061 32064 32067 32070 32073 32076 32079 32082 32085 32088 32091 32094 32097 32100 32103 32106 32109 32112 32115 32118 32121 32124 32127 32130 32133 32136 32139 32142 32145 32148 32151 32154 32157 32160 32163 32166 32169 32172 32175 32178 32181 32184 32187 32190 32193 32196 32199 32202 32205 32208 32211 32214 32217 32220 32223 32226 32229 32232 32235 32238 32241 32244 32247 32250 32253 32256 32259 32262 32265 32268 32271 32274 32277 32280 32283 32286 32289 32292 32295 32298 32301 32304 32307 32310 32313 32316 32319 32322 32325 32328 32331 32334 32337 32340 32343 32346 32349 32352 32355 32358 32361 32364 32367 32370 32373 32376 32379 32382 32385 32388 32391 32394 32397 32400 32403 32406 32409 32412 32415 32418 32421 32424 32427 32430 32433 32436 32439 32442 32445 32448 32451 32454 32457 32460 32463 32466 32469 32472 32475 32478 32481 32484 32487 32490 32493 32496 32499 32502 32505 32508 32511 32514 32517 32520 32523 32526 32529 32532 32535 32538 32541 32544 32547 32550 32553 32556 32559 32562 32565 32568 32571 32574 32577 32580 32583 32586 32589 32592 32595 32598 32601 32604 32607 32610 32613 32616 32619 32622 32625 32628 32631 32634 32637 32640 32643 32646 32649 32652 32655 32658 32661 32664 32667 32670 32673 32676 32679 32682 32685 32688 32691 32694 32697 32700 32703 32706 32709 32712 32715 32718 32721 32724 32727 32730 32733 32736 32739 32742 32745 32748 32751 32754 32757 32760 32763 32766 32769 32772 32775 32778 32781 32784 32787 32790 32793 32796 32799 32802 32805 32808 32811 32814 32817 32820 32823 32826 32829 32832 32835 32838 32841 32844 32847 32850 32853 32856 32859 32862 32865 32868 32871 32874 32877 32880 32883 32886 32889 32892 32895 32898 32901 32904 32907 32910 32913 32916 32919 32922 32925 32928 32931 32934 32937 32940 32943 32946 32949 32952 32955 32958 32961 32964 32967 32970 32973 32976 32979 32982 32985 32988 32991 32994 32997 33000 33003 33006 33009 33012 33015 33018 33021 33024 33027 33030 33033 33036 33039 33042 33045 33048 33051 33054 33057 33060 33063 33066 33069 33072 33075 33078 33081 33084 33087 33090 33093 33096 33099 33102 33105 33108 33111 33114 33117 33120 33123 33126 33129 33132 33135 33138 33141 33144 33147 33150 33153 33156 33159 33162 33165 33168 33171 33174 33177 33180 33183 33186 33189 33192 33195 33198 33201 33204 33207 33210 33213 33216 33219 33222 33225 33228 33231 33234 33237 33240 33243 33246 33249 33252 33255 33258 33261 33264 33267 33270 33273 33276 33279 33282 33285 33288 33291 33294 33297 33300 33303 33306 33309 33312 33315 33318 33321 33324 33327 33330 33333 33336 33339 33342 33345 33348 33351 33354 33357 33360 33363 33366 33369 33372 33375 33378 33381 33384 33387 33390 33393 33396 33399 33402 33405 33408 33411 33414 33417 33420 33423 33426 33429 33432 33435 33438 33441 33444 33447 33450 33453 33456 33459 33462 33465 33468 33471 33474 33477 33480 33483 33486 33489 33492 33495 33498 33501 33504 33507 33510 33513 33516 33519 33522 33525 33528 33531 33534 33537 33540 33543 33546 33549 33552 33555 33558 33561 33564 33567 33570 33573 33576 33579 33582 33585 33588 33591 33594 33597 33600 33603 33606 33609 33612 33615 33618 33621 33624 33627 33630 33633 33636 33639 33642 33645 33648 33651 33654 33657 33660 33663 33666 33669 33672 33675 33678 33681 33684 33687 33690 33693 33696 33699 33702 33705 33708 33711 33714 33717 33720 33723 33726 33729 33732 33735 33738 33741 33744 33747 33750 33753 33756 33759 33762 33765 33768 33771 33774 33777 33780 33783 33786 33789 33792 33795 33798 33801 33804 33807 33810 33813 33816 33819 33822 33825 33828 33831 33834 33837 33840 33843 33846 33849 33852 33855 33858 33861 33864 33867 33870 33873 33876 33879 33882 33885 33888 33891 33894 33897 33900 33903 33906 33909 33912 33915 33918 33921 33924 33927 33930 33933 33936 33939 33942 33945 33948 33951 33954 33957 33960 33963 33966 33969 33972 33975 33978 33981 33984 33987 33990 33993 33996 33999 34002 34005 34008 34011 34014 34017 34020 34023 34026 34029 34032 34035 34038 34041 34044 34047 34050 34053 34056 34059 34062 34065 34068 34071 34074 34077 34080 34083 34086 34089 34092 34095 34098 34101 34104 34107 34110 34113 34116 34119 34122 34125 34128 34131 34134 34137 34140 34143 34146 34149 34152 34155 34158 34161 34164 34167 34170 34173 34176 34179 34182 34185 34188 34191 34194 34197 34200 34203 34206 34209 34212 34215 34218 34221 34224 34227 34230 34233 34236 34239 34242 34245 34248 34251 34254 34257 34260 34263 34266 34269 34272 34275 34278 34281 34284 34287 34290 34293 34296 34299 34302 34305 34308 34311 34314 34317 34320 34323 34326 34329 34332 34335 34338 34341 34344 34347 34350 34353 34356 34359 34362 34365 34368 34371 34374 34377 34380 34383 34386 34389 34392 34395 34398 34401 34404 34407 34410 34413 34416 34419 34422 34425 34428 34431 34434 34437 34440 34443 34446 34449 34452 34455 34458 34461 34464 34467 34470 34473 34476 34479 34482 34485 34488 34491 34494 34497 34500 34503 34506 34509 34512 34515 34518 34521 34524 34527 34530 34533 34536 34539 34542 34545 34548 34551 34554 34557 34560 34563 34566 34569 34572 34575 34578 34581 34584 34587 34590 34593 34596 34599 34602 34605 34608 34611 34614 34617 34620 34623 34626 34629 34632 34635 34638 34641 34644 34647 34650 34653 34656 34659 34662 34665 34668 34671 34674 34677 34680 34683 34686 34689 34692 34695 34698 34701 34704 34707 34710 34713 34716 34719 34722 34725 34728 34731 34734 34737 34740 34743 34746 34749 34752 34755 34758 34761 34764 34767 34770 34773 34776 34779 34782 34785 34788 34791 34794 34797 34800 34803 34806 34809 34812 34815 34818 34821 34824 34827 34830 34833 34836 34839 34842 34845 34848 34851 34854 34857 34860 34863 34866 34869 34872 34875 34878 34881 34884 34887 34890 34893 34896 34899 34902 34905 34908 34911 34914 34917 34920 34923 34926 34929 34932 34935 34938 34941 34944 34947 34950 34953 34956 34959 34962 34965 34968 34971 34974 34977 34980 34983 34986 34989 34992 34995 34998 35001 35004 35007 35010 35013 35016 35019 35022 35025 35028 35031 35034 35037 35040 35043 35046 35049 35052 35055 35058 35061 35064 35067 35070 35073 35076 35079 35082 35085 35088 35091 35094 35097 35100 35103 35106 35109 35112 35115 35118 35121 35124 35127 35130 35133 35136 35139 35142 35145 35148 35151 35154 35157 35160 35163 35166 35169 35172 35175 35178 35181 35184 35187 35190 35193 35196 35199 35202 35205 35208 35211 35214 35217 35220 35223 35226 35229 35232 35235 35238 35241 35244 35247 35250 35253 35256 35259 35262 35265 35268 35271 35274 35277 35280 35283 35286 35289 35292 35295 35298 35301 35304 35307 35310 35313 35316 35319 35322 35325 35328 35331 35334 35337 35340 35343 35346 35349 35352 35355 35358 35361 35364 35367 35370 35373 35376 35379 35382 35385 35388 35391 35394 35397 35400 35403 35406 35409 35412 35415 35418 35421 35424 35427 35430 35433 35436 35439 35442 35445 35448 35451 35454 35457 35460 35463 35466 35469 35472 35475 35478 35481 35484 35487 35490 35493 35496 35499 35502 35505 35508 35511 35514 35517 35520 35523 35526 35529 35532 35535 35538 35541 35544 35547 35550 35553 35556 35559 35562 35565 35568 35571 35574 35577 35580 35583 35586 35589 35592 35595 35598 35601 35604 35607 35610 35613 35616 35619 35622 35625 35628 35631 35634 35637 35640 35643 35646 35649 35652 35655 35658 35661 35664 35667 35670 35673 35676 35679 35682 35685 35688 35691 35694 35697 35700 35703 35706 35709 35712 35715 35718 35721 35724 35727 35730 35733 35736 35739 35742 35745 35748 35751 35754 35757 35760 35763 35766 35769 35772 35775 35778 35781 35784 35787 35790 35793 35796 35799 35802 35805 35808 35811 35814 35817 35820 35823 35826 35829 35832 35835 35838 35841 35844 35847 35850 35853 35856 35859 35862 35865 35868 35871 35874 35877 35880 35883 35886 35889 35892 35895 35898 35901 35904 35907 35910 35913 35916 35919 35922 35925 35928 35931 35934 35937 35940 35943 35946 35949 35952 35955 35958 35961 35964 35967 35970 35973 35976 35979 35982 35985 35988 35991 35994 35997 36000 36003 36006 36009 36012 36015 36018 36021 36024 36027 36030 36033 36036 36039 36042 36045 36048 36051 36054 36057 36060 36063 36066 36069 36072 36075 36078 36081 36084 36087 36090 36093 36096 36099 36102 36105 36108 36111 36114 36117 36120 36123 36126 36129 36132 36135 36138 36141 36144 36147 36150 36153 36156 36159 36162 36165 36168 36171 36174 36177 36180 36183 36186 36189 36192 36195 36198 36201 36204 36207 36210 36213 36216 36219 36222 36225 36228 36231 36234 36237 36240 36243 36246 36249 36252 36255 36258 36261 36264 36267 36270 36273 36276 36279 36282 36285 36288 36291 36294 36297 36300 36303 36306 36309 36312 36315 36318 36321 36324 36327 36330 36333 36336 36339 36342 36345 36348 36351 36354 36357 36360 36363 36366 36369 36372 36375 36378 36381 36384 36387 36390 36393 36396 36399 36402 36405 36408 36411 36414 36417 36420 36423 36426 36429 36432 36435 36438 36441 36444 36447 36450 36453 36456 36459 36462 36465 36468 36471 36474 36477 36480 36483 36486 36489 36492 36495 36498 36501 36504 36507 36510 36513 36516 36519 36522 36525 36528 36531 36534 36537 36540 36543 36546 36549 36552 36555 36558 36561 36564 36567 36570 36573 36576 36579 36582 36585 36588 36591 36594 36597 36600 36603 36606 36609 36612 36615 36618 36621 36624 36627 36630 36633 36636 36639 36642 36645 36648 36651 36654 36657 36660 36663 36666 36669 36672 36675 36678 36681 36684 36687 36690 36693 36696 36699 36702 36705 36708 36711 36714 36717 36720 36723 36726 36729 36732 36735 36738 36741 36744 36747 36750 36753 36756 36759 36762 36765 36768 36771 36774 36777 36780 36783 36786 36789 36792 36795 36798 36801 36804 36807 36810 36813 36816 36819 36822 36825 36828 36831 36834 36837 36840 36843 36846 36849 36852 36855 36858 36861 36864 36867 36870 36873 36876 36879 36882 36885 36888 36891 36894 36897 36900 36903 36906 36909 36912 36915 36918 36921 36924 36927 36930 36933 36936 36939 36942 36945 36948 36951 36954 36957 36960 36963 36966 36969 36972 36975 36978 36981 36984 36987 36990 36993 36996 36999 37002 37005 37008 37011 37014 37017 37020 37023 37026 37029 37032 37035 37038 37041 37044 37047 37050 37053 37056 37059 37062 37065 37068 37071 37074 37077 37080 37083 37086 37089 37092 37095 37098 37101 37104 37107 37110 37113 37116 37119 37122 37125 37128 37131 37134 37137 37140 37143 37146 37149 37152 37155 37158 37161 37164 37167 37170 37173 37176 37179 37182 37185 37188 37191 37194 37197 37200 37203 37206 37209 37212 37215 37218 37221 37224 37227 37230 37233 37236 37239 37242 37245 37248 37251 37254 37257 37260 37263 37266 37269 37272 37275 37278 37281 37284 37287 37290 37293 37296 37299 37302 37305 37308 37311 37314 37317 37320 37323 37326 37329 37332 37335 37338 37341 37344 37347 37350 37353 37356 37359 37362 37365 37368 37371 37374 37377 37380 37383 37386 37389 37392 37395 37398 37401 37404 37407 37410 37413 37416 37419 37422 37425 37428 37431 37434 37437 37440 37443 37446 37449 37452 37455 37458 37461 37464 37467 37470 37473 37476 37479 37482 37485 37488 37491 37494 37497 37500 37503 37506 37509 37512 37515 37518 37521 37524 37527 37530 37533 37536 37539 37542 37545 37548 37551 37554 37557 37560 37563 37566 37569 37572 37575 37578 37581 37584 37587 37590 37593 37596 37599 37602 37605 37608 37611 37614 37617 37620 37623 37626 37629 37632 37635 37638 37641 37644 37647 37650 37653 37656 37659 37662 37665 37668 37671 37674 37677 37680 37683 37686 37689 37692 37695 37698 37701 37704 37707 37710 37713 37716 37719 37722 37725 37728 37731 37734 37737 37740 37743 37746 37749 37752 37755 37758 37761 37764 37767 37770 37773 37776 37779 37782 37785 37788 37791 37794 37797 37800 37803 37806 37809 37812 37815 37818 37821 37824 37827 37830 37833 37836 37839 37842 37845 37848 37851 37854 37857 37860 37863 37866 37869 37872 37875 37878 37881 37884 37887 37890 37893 37896 37899 37902 37905 37908 37911 37914 37917 37920 37923 37926 37929 37932 37935 37938 37941 37944 37947 37950 37953 37956 37959 37962 37965 37968 37971 37974 37977 37980 37983 37986 37989 37992 37995 37998 38001 38004 38007 38010 38013 38016 38019 38022 38025 38028 38031 38034 38037 38040 38043 38046 38049 38052 38055 38058 38061 38064 38067 38070 38073 38076 38079 38082 38085 38088 38091 38094 38097 38100 38103 38106 38109 38112 38115 38118 38121 38124 38127 38130 38133 38136 38139 38142 38145 38148 38151 38154 38157 38160 38163 38166 38169 38172 38175 38178 38181 38184 38187 38190 38193 38196 38199 38202 38205 38208 38211 38214 38217 38220 38223 38226 38229 38232 38235 38238 38241 38244 38247 38250 38253 38256 38259 38262 38265 38268 38271 38274 38277 38280 38283 38286 38289 38292 38295 38298 38301 38304 38307 38310 38313 38316 38319 38322 38325 38328 38331 38334 38337 38340 38343 38346 38349 38352 38355 38358 38361 38364 38367 38370 38373 38376 38379 38382 38385 38388 38391 38394 38397 38400 38403 38406 38409 38412 38415 38418 38421 38424 38427 38430 38433 38436 38439 38442 38445 38448 38451 38454 38457 38460 38463 38466 38469 38472 38475 38478 38481 38484 38487 38490 38493 38496 38499 38502 38505 38508 38511 38514 38517 38520 38523 38526 38529 38532 38535 38538 38541 38544 38547 38550 38553 38556 38559 38562 38565 38568 38571 38574 38577 38580 38583 38586 38589 38592 38595 38598 38601 38604 38607 38610 38613 38616 38619 38622 38625 38628 38631 38634 38637 38640 38643 38646 38649 38652 38655 38658 38661 38664 38667 38670 38673 38676 38679 38682 38685 38688 38691 38694 38697 38700 38703 38706 38709 38712 38715 38718 38721 38724 38727 38730 38733 38736 38739 38742 38745 38748 38751 38754 38757 38760 38763 38766 38769 38772 38775 38778 38781 38784 38787 38790 38793 38796 38799 38802 38805 38808 38811 38814 38817 38820 38823 38826 38829 38832 38835 38838 38841 38844 38847 38850 38853 38856 38859 38862 38865 38868 38871 38874 38877 38880 38883 38886 38889 38892 38895 38898 38901 38904 38907 38910 38913 38916 38919 38922 38925 38928 38931 38934 38937 38940 38943 38946 38949 38952 38955 38958 38961 38964 38967 38970 38973 38976 38979 38982 38985 38988 38991 38994 38997 39000 39003 39006 39009 39012 39015 39018 39021 39024 39027 39030 39033 39036 39039 39042 39045 39048 39051 39054 39057 39060 39063 39066 39069 39072 39075 39078 39081 39084 39087 39090 39093 39096 39099 39102 39105 39108 39111 39114 39117 39120 39123 39126 39129 39132 39135 39138 39141 39144 39147 39150 39153 39156 39159 39162 39165 39168 39171 39174 39177 39180 39183 39186 39189 39192 39195 39198 39201 39204 39207 39210 39213 39216 39219 39222 39225 39228 39231 39234 39237 39240 39243 39246 39249 39252 39255 39258 39261 39264 39267 39270 39273 39276 39279 39282 39285 39288 39291 39294 39297 39300 39303 39306 39309 39312 39315 39318 39321 39324 39327 39330 39333 39336 39339 39342 39345 39348 39351 39354 39357 39360 39363 39366 39369 39372 39375 39378 39381 39384 39387 39390 39393 39396 39399 39402 39405 39408 39411 39414 39417 39420 39423 39426 39429 39432 39435 39438 39441 39444 39447 39450 39453 39456 39459 39462 39465 39468 39471 39474 39477 39480 39483 39486 39489 39492 39495 39498 39501 39504 39507 39510 39513 39516 39519 39522 39525 39528 39531 39534 39537 39540 39543 39546 39549 39552 39555 39558 39561 39564 39567 39570 39573 39576 39579 39582 39585 39588 39591 39594 39597 39600 39603 39606 39609 39612 39615 39618 39621 39624 39627 39630 39633 39636 39639 39642 39645 39648 39651 39654 39657 39660 39663 39666 39669 39672 39675 39678 39681 39684 39687 39690 39693 39696 39699 39702 39705 39708 39711 39714 39717 39720 39723 39726 39729 39732 39735 39738 39741 39744 39747 39750 39753 39756 39759 39762 39765 39768 39771 39774 39777 39780 39783 39786 39789 39792 39795 39798 39801 39804 39807 39810 39813 39816 39819 39822 39825 39828 39831 39834 39837 39840 39843 39846 39849 39852 39855 39858 39861 39864 39867 39870 39873 39876 39879 39882 39885 39888 39891 39894 39897 39900 39903 39906 39909 39912 39915 39918 39921 39924 39927 39930 39933 39936 39939 39942 39945 39948 39951 39954 39957 39960 39963 39966 39969 39972 39975 39978 39981 39984 39987 39990 39993 39996 39999 40002 40005 40008 40011 40014 40017 40020 40023 40026 40029 40032 40035 40038 40041 40044 40047 40050 40053 40056 40059 40062 40065 40068 40071 40074 40077 40080 40083 40086 40089 40092 40095 40098 40101 40104 40107 40110 40113 40116 40119 40122 40125 40128 40131 40134 40137 40140 40143 40146 40149 40152 40155 40158 40161 40164 40167 40170 40173 40176 40179 40182 40185 40188 40191 40194 40197 40200 40203 40206 40209 40212 40215 40218 40221 40224 40227 40230 40233 40236 40239 40242 40245 40248 40251 40254 40257 40260 40263 40266 40269 40272 40275 40278 40281 40284 40287 40290 40293 40296 40299 40302 40305 40308 40311 40314 40317 40320 40323 40326 40329 40332 40335 40338 40341 40344 40347 40350 40353 40356 40359 40362 40365 40368 40371 40374 40377 40380 40383 40386 40389 40392 40395 40398 40401 40404 40407 40410 40413 40416 40419 40422 40425 40428 40431 40434 40437 40440 40443 40446 40449 40452 40455 40458 40461 40464 40467 40470 40473 40476 40479 40482 40485 40488 40491 40494 40497 40500 40503 40506 40509 40512 40515 40518 40521 40524 40527 40530 40533 40536 40539 40542 40545 40548 40551 40554 40557 40560 40563 40566 40569 40572 40575 40578 40581 40584 40587 40590 40593 40596 40599 40602 40605 40608 40611 40614 40617 40620 40623 40626 40629 40632 40635 40638 40641 40644 40647 40650 40653 40656 40659 40662 40665 40668 40671 40674 40677 40680 40683 40686 40689 40692 40695 40698 40701 40704 40707 40710 40713 40716 40719 40722 40725 40728 40731 40734 40737 40740 40743 40746 40749 40752 40755 40758 40761 40764 40767 40770 40773 40776 40779 40782 40785 40788 40791 40794 40797 40800 40803 40806 40809 40812 40815 40818 40821 40824 40827 40830 40833 40836 40839 40842 40845 40848 40851 40854 40857 40860 40863 40866 40869 40872 40875 40878 40881 40884 40887 40890 40893 40896 40899 40902 40905 40908 40911 40914 40917 40920 40923 40926 40929 40932 40935 40938 40941 40944 40947 40950 40953 40956 40959 40962 40965 40968 40971 40974 40977 40980 40983 40986 40989 40992 40995 40998 41001 41004 41007 41010 41013 41016 41019 41022 41025 41028 41031 41034 41037 41040 41043 41046 41049 41052 41055 41058 41061 41064 41067 41070 41073 41076 41079 41082 41085 41088 41091 41094 41097 41100 41103 41106 41109 41112 41115 41118 41121 41124 41127 41130 41133 41136 41139 41142 41145 41148 41151 41154 41157 41160 41163 41166 41169 41172 41175 41178 41181 41184 41187 41190 41193 41196 41199 41202 41205 41208 41211 41214 41217 41220 41223 41226 41229 41232 41235 41238 41241 41244 41247 41250 41253 41256 41259 41262 41265 41268 41271 41274 41277 41280 41283 41286 41289 41292 41295 41298 41301 41304 41307 41310 41313 41316 41319 41322 41325 41328 41331 41334 41337 41340 41343 41346 41349 41352 41355 41358 41361 41364 41367 41370 41373 41376 41379 41382 41385 41388 41391 41394 41397 41400 41403 41406 41409 41412 41415 41418 41421 41424 41427 41430 41433 41436 41439 41442 41445 41448 41451 41454 41457 41460 41463 41466 41469 41472 41475 41478 41481 41484 41487 41490 41493 41496 41499 41502 41505 41508 41511 41514 41517 41520 41523 41526 41529 41532 41535 41538 41541 41544 41547 41550 41553 41556 41559 41562 41565 41568 41571 41574 41577 41580 41583 41586 41589 41592 41595 41598 41601 41604 41607 41610 41613 41616 41619 41622 41625 41628 41631 41634 41637 41640 41643 41646 41649 41652 41655 41658 41661 41664 41667 41670 41673 41676 41679 41682 41685 41688 41691 41694 41697 41700 41703 41706 41709 41712 41715 41718 41721 41724 41727 41730 41733 41736 41739 41742 41745 41748 41751 41754 41757 41760 41763 41766 41769 41772 41775 41778 41781 41784 41787 41790 41793 41796 41799 41802 41805 41808 41811 41814 41817 41820 41823 41826 41829 41832 41835 41838 41841 41844 41847 41850 41853 41856 41859 41862 41865 41868 41871 41874 41877 41880 41883 41886 41889 41892 41895 41898 41901 41904 41907 41910 41913 41916 41919 41922 41925 41928 41931 41934 41937 41940 41943 41946 41949 41952 41955 41958 41961 41964 41967 41970 41973 41976 41979 41982 41985 41988 41991 41994 41997 42000 42003 42006 42009 42012 42015 42018 42021 42024 42027 42030 42033 42036 42039 42042 42045 42048 42051 42054 42057 42060 42063 42066 42069 42072 42075 42078 42081 42084 42087 42090 42093 42096 42099 42102 42105 42108 42111 42114 42117 42120 42123 42126 42129 42132 42135 42138 42141 42144 42147 42150 42153 42156 42159 42162 42165 42168 42171 42174 42177 42180 42183 42186 42189 42192 42195 42198 42201 42204 42207 42210 42213 42216 42219 42222 42225 42228 42231 42234 42237 42240 42243 42246 42249 42252 42255 42258 42261 42264 42267 42270 42273 42276 42279 42282 42285 42288 42291 42294 42297 42300 42303 42306 42309 42312 42315 42318 42321 42324 42327 42330 42333 42336 42339 42342 42345 42348 42351 42354 42357 42360 42363 42366 42369 42372 42375 42378 42381 42384 42387 42390 42393 42396 42399 42402 42405 42408 42411 42414 42417 42420 42423 42426 42429 42432 42435 42438 42441 42444 42447 42450 42453 42456 42459 42462 42465 42468 42471 42474 42477 42480 42483 42486 42489 42492 42495 42498 42501 42504 42507 42510 42513 42516 42519 42522 42525 42528 42531 42534 42537 42540 42543 42546 42549 42552 42555 42558 42561 42564 42567 42570 42573 42576 42579 42582 42585 42588 42591 42594 42597 42600 42603 42606 42609 42612 42615 42618 42621 42624 42627 42630 42633 42636 42639 42642 42645 42648 42651 42654 42657 42660 42663 42666 42669 42672 42675 42678 42681 42684 42687 42690 42693 42696 42699 42702 42705 42708 42711 42714 42717 42720 42723 42726 42729 42732 42735 42738 42741 42744 42747 42750 42753 42756 42759 42762 42765 42768 42771 42774 42777 42780 42783 42786 42789 42792 42795 42798 42801 42804 42807 42810 42813 42816 42819 42822 42825 42828 42831 42834 42837 42840 42843 42846 42849 42852 42855 42858 42861 42864 42867 42870 42873 42876 42879 42882 42885 42888 42891 42894 42897 42900 42903 42906 42909 42912 42915 42918 42921 42924 42927 42930 42933 42936 42939 42942 42945 42948 42951 42954 42957 42960 42963 42966 42969 42972 42975 42978 42981 42984 42987 42990 42993 42996 42999 43002 43005 43008 43011 43014 43017 43020 43023 43026 43029 43032 43035 43038 43041 43044 43047 43050 43053 43056 43059 43062 43065 43068 43071 43074 43077 43080 43083 43086 43089 43092 43095 43098 43101 43104 43107 43110 43113 43116 43119 43122 43125 43128 43131 43134 43137 43140 43143 43146 43149 43152 43155 43158 43161 43164 43167 43170 43173 43176 43179 43182 43185 43188 43191 43194 43197 43200 43203 43206 43209 43212 43215 43218 43221 43224 43227 43230 43233 43236 43239 43242 43245 43248 43251 43254 43257 43260 43263 43266 43269 43272 43275 43278 43281 43284 43287 43290 43293 43296 43299 43302 43305 43308 43311 43314 43317 43320 43323 43326 43329 43332 43335 43338 43341 43344 43347 43350 43353 43356 43359 43362 43365 43368 43371 43374 43377 43380 43383 43386 43389 43392 43395 43398 43401 43404 43407 43410 43413 43416 43419 43422 43425 43428 43431 43434 43437 43440 43443 43446 43449 43452 43455 43458 43461 43464 43467 43470 43473 43476 43479 43482 43485 43488 43491 43494 43497 43500 43503 43506 43509 43512 43515 43518 43521 43524 43527 43530 43533 43536 43539 43542 43545 43548 43551 43554 43557 43560 43563 43566 43569 43572 43575 43578 43581 43584 43587 43590 43593 43596 43599 43602 43605 43608 43611 43614 43617 43620 43623 43626 43629 43632 43635 43638 43641 43644 43647 43650 43653 43656 43659 43662 43665 43668 43671 43674 43677 43680 43683 43686 43689 43692 43695 43698 43701 43704 43707 43710 43713 43716 43719 43722 43725 43728 43731 43734 43737 43740 43743 43746 43749 43752 43755 43758 43761 43764 43767 43770 43773 43776 43779 43782 43785 43788 43791 43794 43797 43800 43803 43806 43809 43812 43815 43818 43821 43824 43827 43830 43833 43836 43839 43842 43845 43848 43851 43854 43857 43860 43863 43866 43869 43872 43875 43878 43881 43884 43887 43890 43893 43896 43899 43902 43905 43908 43911 43914 43917 43920 43923 43926 43929 43932 43935 43938 43941 43944 43947 43950 43953 43956 43959 43962 43965 43968 43971 43974 43977 43980 43983 43986 43989 43992 43995 43998 44001 44004 44007 44010 44013 44016 44019 44022 44025 44028 44031 44034 44037 44040 44043 44046 44049 44052 44055 44058 44061 44064 44067 44070 44073 44076 44079 44082 44085 44088 44091 44094 44097 44100 44103 44106 44109 44112 44115 44118 44121 44124 44127 44130 44133 44136 44139 44142 44145 44148 44151 44154 44157 44160 44163 44166 44169 44172 44175 44178 44181 44184 44187 44190 44193 44196 44199 44202 44205 44208 44211 44214 44217 44220 44223 44226 44229 44232 44235 44238 44241 44244 44247 44250 44253 44256 44259 44262 44265 44268 44271 44274 44277 44280 44283 44286 44289 44292 44295 44298 44301 44304 44307 44310 44313 44316 44319 44322 44325 44328 44331 44334 44337 44340 44343 44346 44349 44352 44355 44358 44361 44364 44367 44370 44373 44376 44379 44382 44385 44388 44391 44394 44397 44400 44403 44406 44409 44412 44415 44418 44421 44424 44427 44430 44433 44436 44439 44442 44445 44448 44451 44454 44457 44460 44463 44466 44469 44472 44475 44478 44481 44484 44487 44490 44493 44496 44499 44502 44505 44508 44511 44514 44517 44520 44523 44526 44529 44532 44535 44538 44541 44544 44547 44550 44553 44556 44559 44562 44565 44568 44571 44574 44577 44580 44583 44586 44589 44592 44595 44598 44601 44604 44607 44610 44613 44616 44619 44622 44625 44628 44631 44634 44637 44640 44643 44646 44649 44652 44655 44658 44661 44664 44667 44670 44673 44676 44679 44682 44685 44688 44691 44694 44697 44700 44703 44706 44709 44712 44715 44718 44721 44724 44727 44730 44733 44736 44739 44742 44745 44748 44751 44754 44757 44760 44763 44766 44769 44772 44775 44778 44781 44784 44787 44790 44793 44796 44799 44802 44805 44808 44811 44814 44817 44820 44823 44826 44829 44832 44835 44838 44841 44844 44847 44850 44853 44856 44859 44862 44865 44868 44871 44874 44877 44880 44883 44886 44889 44892 44895 44898 44901 44904 44907 44910 44913 44916 44919 44922 44925 44928 44931 44934 44937 44940 44943 44946 44949 44952 44955 44958 44961 44964 44967 44970 44973 44976 44979 44982 44985 44988 44991 44994 44997 45000 45003 45006 45009 45012 45015 45018 45021 45024 45027 45030 45033 45036 45039 45042 45045 45048 45051 45054 45057 45060 45063 45066 45069 45072 45075 45078 45081 45084 45087 45090 45093 45096 45099 45102 45105 45108 45111 45114 45117 45120 45123 45126 45129 45132 45135 45138 45141 45144 45147 45150 45153 45156 45159 45162 45165 45168 45171 45174 45177 45180 45183 45186 45189 45192 45195 45198 45201 45204 45207 45210 45213 45216 45219 45222 45225 45228 45231 45234 45237 45240 45243 45246 45249 45252 45255 45258 45261 45264 45267 45270 45273 45276 45279 45282 45285 45288 45291 45294 45297 45300 45303 45306 45309 45312 45315 45318 45321 45324 45327 45330 45333 45336 45339 45342 45345 45348 45351 45354 45357 45360 45363 45366 45369 45372 45375 45378 45381 45384 45387 45390 45393 45396 45399 45402 45405 45408 45411 45414 45417 45420 45423 45426 45429 45432 45435 45438 45441 45444 45447 45450 45453 45456 45459 45462 45465 45468 45471 45474 45477 45480 45483 45486 45489 45492 45495 45498 45501 45504 45507 45510 45513 45516 45519 45522 45525 45528 45531 45534 45537 45540 45543 45546 45549 45552 45555 45558 45561 45564 45567 45570 45573 45576 45579 45582 45585 45588 45591 45594 45597 45600 45603 45606 45609 45612 45615 45618 45621 45624 45627 45630 45633 45636 45639 45642 45645 45648 45651 45654 45657 45660 45663 45666 45669 45672 45675 45678 45681 45684 45687 45690 45693 45696 45699 45702 45705 45708 45711 45714 45717 45720 45723 45726 45729 45732 45735 45738 45741 45744 45747 45750 45753 45756 45759 45762 45765 45768 45771 45774 45777 45780 45783 45786 45789 45792 45795 45798 45801 45804 45807 45810 45813 45816 45819 45822 45825 45828 45831 45834 45837 45840 45843 45846 45849 45852 45855 45858 45861 45864 45867 45870 45873 45876 45879 45882 45885 45888 45891 45894 45897 45900 45903 45906 45909 45912 45915 45918 45921 45924 45927 45930 45933 45936 45939 45942 45945 45948 45951 45954 45957 45960 45963 45966 45969 45972 45975 45978 45981 45984 45987 45990 45993 45996 45999 46002 46005 46008 46011 46014 46017 46020 46023 46026 46029 46032 46035 46038 46041 46044 46047 46050 46053 46056 46059 46062 46065 46068 46071 46074 46077 46080 46083 46086 46089 46092 46095 46098 46101 46104 46107 46110 46113 46116 46119 46122 46125 46128 46131 46134 46137 46140 46143 46146 46149 46152 46155 46158 46161 46164 46167 46170 46173 46176 46179 46182 46185 46188 46191 46194 46197 46200 46203 46206 46209 46212 46215 46218 46221 46224 46227 46230 46233 46236 46239 46242 46245 46248 46251 46254 46257 46260 46263 46266 46269 46272 46275 46278 46281 46284 46287 46290 46293 46296 46299 46302 46305 46308 46311 46314 46317 46320 46323 46326 46329 46332 46335 46338 46341 46344 46347 46350 46353 46356 46359 46362 46365 46368 46371 46374 46377 46380 46383 46386 46389 46392 46395 46398 46401 46404 46407 46410 46413 46416 46419 46422 46425 46428 46431 46434 46437 46440 46443 46446 46449 46452 46455 46458 46461 46464 46467 46470 46473 46476 46479 46482 46485 46488 46491 46494 46497 46500 46503 46506 46509 46512 46515 46518 46521 46524 46527 46530 46533 46536 46539 46542 46545 46548 46551 46554 46557 46560 46563 46566 46569 46572 46575 46578 46581 46584 46587 46590 46593 46596 46599 46602 46605 46608 46611 46614 46617 46620 46623 46626 46629 46632 46635 46638 46641 46644 46647 46650 46653 46656 46659 46662 46665 46668 46671 46674 46677 46680 46683 46686 46689 46692 46695 46698 46701 46704 46707 46710 46713 46716 46719 46722 46725 46728 46731 46734 46737 46740 46743 46746 46749 46752 46755 46758 46761 46764 46767 46770 46773 46776 46779 46782 46785 46788 46791 46794 46797 46800 46803 46806 46809 46812 46815 46818 46821 46824 46827 46830 46833 46836 46839 46842 46845 46848 46851 46854 46857 46860 46863 46866 46869 46872 46875 46878 46881 46884 46887 46890 46893 46896 46899 46902 46905 46908 46911 46914 46917 46920 46923 46926 46929 46932 46935 46938 46941 46944 46947 46950 46953 46956 46959 46962 46965 46968 46971 46974 46977 46980 46983 46986 46989 46992 46995 46998 47001 47004 47007 47010 47013 47016 47019 47022 47025 47028 47031 47034 47037 47040 47043 47046 47049 47052 47055 47058 47061 47064 47067 47070 47073 47076 47079 47082 47085 47088 47091 47094 47097 47100 47103 47106 47109 47112 47115 47118 47121 47124 47127 47130 47133 47136 47139 47142 47145 47148 47151 47154 47157 47160 47163 47166 47169 47172 47175 47178 47181 47184 47187 47190 47193 47196 47199 47202 47205 47208 47211 47214 47217 47220 47223 47226 47229 47232 47235 47238 47241 47244 47247 47250 47253 47256 47259 47262 47265 47268 47271 47274 47277 47280 47283 47286 47289 47292 47295 47298 47301 47304 47307 47310 47313 47316 47319 47322 47325 47328 47331 47334 47337 47340 47343 47346 47349 47352 47355 47358 47361 47364 47367 47370 47373 47376 47379 47382 47385 47388 47391 47394 47397 47400 47403 47406 47409 47412 47415 47418 47421 47424 47427 47430 47433 47436 47439 47442 47445 47448 47451 47454 47457 47460 47463 47466 47469 47472 47475 47478 47481 47484 47487 47490 47493 47496 47499 47502 47505 47508 47511 47514 47517 47520 47523 47526 47529 47532 47535 47538 47541 47544 47547 47550 47553 47556 47559 47562 47565 47568 47571 47574 47577 47580 47583 47586 47589 47592 47595 47598 47601 47604 47607 47610 47613 47616 47619 47622 47625 47628 47631 47634 47637 47640 47643 47646 47649 47652 47655 47658 47661 47664 47667 47670 47673 47676 47679 47682 47685 47688 47691 47694 47697 47700 47703 47706 47709 47712 47715 47718 47721 47724 47727 47730 47733 47736 47739 47742 47745 47748 47751 47754 47757 47760 47763 47766 47769 47772 47775 47778 47781 47784 47787 47790 47793 47796 47799 47802 47805 47808 47811 47814 47817 47820 47823 47826 47829 47832 47835 47838 47841 47844 47847 47850 47853 47856 47859 47862 47865 47868 47871 47874 47877 47880 47883 47886 47889 47892 47895 47898 47901 47904 47907 47910 47913 47916 47919 47922 47925 47928 47931 47934 47937 47940 47943 47946 47949 47952 47955 47958 47961 47964 47967 47970 47973 47976 47979 47982 47985 47988 47991 47994 47997 48000 48003 48006 48009 48012 48015 48018 48021 48024 48027 48030 48033 48036 48039 48042 48045 48048 48051 48054 48057 48060 48063 48066 48069 48072 48075 48078 48081 48084 48087 48090 48093 48096 48099 48102 48105 48108 48111 48114 48117 48120 48123 48126 48129 48132 48135 48138 48141 48144 48147 48150 48153 48156 48159 48162 48165 48168 48171 48174 48177 48180 48183 48186 48189 48192 48195 48198 48201 48204 48207 48210 48213 48216 48219 48222 48225 48228 48231 48234 48237 48240 48243 48246 48249 48252 48255 48258 48261 48264 48267 48270 48273 48276 48279 48282 48285 48288 48291 48294 48297 48300 48303 48306 48309 48312 48315 48318 48321 48324 48327 48330 48333 48336 48339 48342 48345 48348 48351 48354 48357 48360 48363 48366 48369 48372 48375 48378 48381 48384 48387 48390 48393 48396 48399 48402 48405 48408 48411 48414 48417 48420 48423 48426 48429 48432 48435 48438 48441 48444 48447 48450 48453 48456 48459 48462 48465 48468 48471 48474 48477 48480 48483 48486 48489 48492 48495 48498 48501 48504 48507 48510 48513 48516 48519 48522 48525 48528 48531 48534 48537 48540 48543 48546 48549 48552 48555 48558 48561 48564 48567 48570 48573 48576 48579 48582 48585 48588 48591 48594 48597 48600 48603 48606 48609 48612 48615 48618 48621 48624 48627 48630 48633 48636 48639 48642 48645 48648 48651 48654 48657 48660 48663 48666 48669 48672 48675 48678 48681 48684 48687 48690 48693 48696 48699 48702 48705 48708 48711 48714 48717 48720 48723 48726 48729 48732 48735 48738 48741 48744 48747 48750 48753 48756 48759 48762 48765 48768 48771 48774 48777 48780 48783 48786 48789 48792 48795 48798 48801 48804 48807 48810 48813 48816 48819 48822 48825 48828 48831 48834 48837 48840 48843 48846 48849 48852 48855 48858 48861 48864 48867 48870 48873 48876 48879 48882 48885 48888 48891 48894 48897 48900 48903 48906 48909 48912 48915 48918 48921 48924 48927 48930 48933 48936 48939 48942 48945 48948 48951 48954 48957 48960 48963 48966 48969 48972 48975 48978 48981 48984 48987 48990 48993 48996 48999 49002 49005 49008 49011 49014 49017 49020 49023 49026 49029 49032 49035 49038 49041 49044 49047 49050 49053 49056 49059 49062 49065 49068 49071 49074 49077 49080 49083 49086 49089 49092 49095 49098 49101 49104 49107 49110 49113 49116 49119 49122 49125 49128 49131 49134 49137 49140 49143 49146 49149 49152 49155 49158 49161 49164 49167 49170 49173 49176 49179 49182 49185 49188 49191 49194 49197 49200 49203 49206 49209 49212 49215 49218 49221 49224 49227 49230 49233 49236 49239 49242 49245 49248 49251 49254 49257 49260 49263 49266 49269 49272 49275 49278 49281 49284 49287 49290 49293 49296 49299 49302 49305 49308 49311 49314 49317 49320 49323 49326 49329 49332 49335 49338 49341 49344 49347 49350 49353 49356 49359 49362 49365 49368 49371 49374 49377 49380 49383 49386 49389 49392 49395 49398 49401 49404 49407 49410 49413 49416 49419 49422 49425 49428 49431 49434 49437 49440 49443 49446 49449 49452 49455 49458 49461 49464 49467 49470 49473 49476 49479 49482 49485 49488 49491 49494 49497 49500 49503 49506 49509 49512 49515 49518 49521 49524 49527 49530 49533 49536 49539 49542 49545 49548 49551 49554 49557 49560 49563 49566 49569 49572 49575 49578 49581 49584 49587 49590 49593 49596 49599 49602 49605 49608 49611 49614 49617 49620 49623 49626 49629 49632 49635 49638 49641 49644 49647 49650 49653 49656 49659 49662 49665 49668 49671 49674 49677 49680 49683 49686 49689 49692 49695 49698 49701 49704 49707 49710 49713 49716 49719 49722 49725 49728 49731 49734 49737 49740 49743 49746 49749 49752 49755 49758 49761 49764 49767 49770 49773 49776 49779 49782 49785 49788 49791 49794 49797 49800 49803 49806 49809 49812 49815 49818 49821 49824 49827 49830 49833 49836 49839 49842 49845 49848 49851 49854 49857 49860 49863 49866 49869 49872 49875 49878 49881 49884 49887 49890 49893 49896 49899 49902 49905 49908 49911 49914 49917 49920 49923 49926 49929 49932 49935 49938 49941 49944 49947 49950 49953 49956 49959 49962 49965 49968 49971 49974 49977 49980 49983 49986 49989 49992 49995 49998 50001 50004 50007 50010 50013 50016 50019 50022 50025 50028 50031 50034 50037 50040 50043 50046 50049 50052 50055 50058 50061 50064 50067 50070 50073 50076 50079 50082 50085 50088 50091 50094 50097 50100 50103 50106 50109 50112 50115 50118 50121 50124 50127 50130 50133 50136 50139 50142 50145 50148 50151 50154 50157 50160 50163 50166 50169 50172 50175 50178 50181 50184 50187 50190 50193 50196 50199 50202 50205 50208 50211 50214 50217 50220 50223 50226 50229 50232 50235 50238 50241 50244 50247 50250 50253 50256 50259 50262 50265 50268 50271 50274 50277 50280 50283 50286 50289 50292 50295 50298 50301 50304 50307 50310 50313 50316 50319 50322 50325 50328 50331 50334 50337 50340 50343 50346 50349 50352 50355 50358 50361 50364 50367 50370 50373 50376 50379 50382 50385 50388 50391 50394 50397 50400 50403 50406 50409 50412 50415 50418 50421 50424 50427 50430 50433 50436 50439 50442 50445 50448 50451 50454 50457 50460 50463 50466 50469 50472 50475 50478 50481 50484 50487 50490 50493 50496 50499 50502 50505 50508 50511 50514 50517 50520 50523 50526 50529 50532 50535 50538 50541 50544 50547 50550 50553 50556 50559 50562 50565 50568 50571 50574 50577 50580 50583 50586 50589 50592 50595 50598 50601 50604 50607 50610 50613 50616 50619 50622 50625 50628 50631 50634 50637 50640 50643 50646 50649 50652 50655 50658 50661 50664 50667 50670 50673 50676 50679 50682 50685 50688 50691 50694 50697 50700 50703 50706 50709 50712 50715 50718 50721 50724 50727 50730 50733 50736 50739 50742 50745 50748 50751 50754 50757 50760 50763 50766 50769 50772 50775 50778 50781 50784 50787 50790 50793 50796 50799 50802 50805 50808 50811 50814 50817 50820 50823 50826 50829 50832 50835 50838 50841 50844 50847 50850 50853 50856 50859 50862 50865 50868 50871 50874 50877 50880 50883 50886 50889 50892 50895 50898 50901 50904 50907 50910 50913 50916 50919 50922 50925 50928 50931 50934 50937 50940 50943 50946 50949 50952 50955 50958 50961 50964 50967 50970 50973 50976 50979 50982 50985 50988 50991 50994 50997 51000 51003 51006 51009 51012 51015 51018 51021 51024 51027 51030 51033 51036 51039 51042 51045 51048 51051 51054 51057 51060 51063 51066 51069 51072 51075 51078 51081 51084 51087 51090 51093 51096 51099 51102 51105 51108 51111 51114 51117 51120 51123 51126 51129 51132 51135 51138 51141 51144 51147 51150 51153 51156 51159 51162 51165 51168 51171 51174 51177 51180 51183 51186 51189 51192 51195 51198 51201 51204 51207 51210 51213 51216 51219 51222 51225 51228 51231 51234 51237 51240 51243 51246 51249 51252 51255 51258 51261 51264 51267 51270 51273 51276 51279 51282 51285 51288 51291 51294 51297 51300 51303 51306 51309 51312 51315 51318 51321 51324 51327 51330 51333 51336 51339 51342 51345 51348 51351 51354 51357 51360 51363 51366 51369 51372 51375 51378 51381 51384 51387 51390 51393 51396 51399 51402 51405 51408 51411 51414 51417 51420 51423 51426 51429 51432 51435 51438 51441 51444 51447 51450 51453 51456 51459 51462 51465 51468 51471 51474 51477 51480 51483 51486 51489 51492 51495 51498 51501 51504 51507 51510 51513 51516 51519 51522 51525 51528 51531 51534 51537 51540 51543 51546 51549 51552 51555 51558 51561 51564 51567 51570 51573 51576 51579 51582 51585 51588 51591 51594 51597 51600 51603 51606 51609 51612 51615 51618 51621 51624 51627 51630 51633 51636 51639 51642 51645 51648 51651 51654 51657 51660 51663 51666 51669 51672 51675 51678 51681 51684 51687 51690 51693 51696 51699 51702 51705 51708 51711 51714 51717 51720 51723 51726 51729 51732 51735 51738 51741 51744 51747 51750 51753 51756 51759 51762 51765 51768 51771 51774 51777 51780 51783 51786 51789 51792 51795 51798 51801 51804 51807 51810 51813 51816 51819 51822 51825 51828 51831 51834 51837 51840 51843 51846 51849 51852 51855 51858 51861 51864 51867 51870 51873 51876 51879 51882 51885 51888 51891 51894 51897 51900 51903 51906 51909 51912 51915 51918 51921 51924 51927 51930 51933 51936 51939 51942 51945 51948 51951 51954 51957 51960 51963 51966 51969 51972 51975 51978 51981 51984 51987 51990 51993 51996 51999 52002 52005 52008 52011 52014 52017 52020 52023 52026 52029 52032 52035 52038 52041 52044 52047 52050 52053 52056 52059 52062 52065 52068 52071 52074 52077 52080 52083 52086 52089 52092 52095 52098 52101 52104 52107 52110 52113 52116 52119 52122 52125 52128 52131 52134 52137 52140 52143 52146 52149 52152 52155 52158 52161 52164 52167 52170 52173 52176 52179 52182 52185 52188 52191 52194 52197 52200 52203 52206 52209 52212 52215 52218 52221 52224 52227 52230 52233 52236 52239 52242 52245 52248 52251 52254 52257 52260 52263 52266 52269 52272 52275 52278 52281 52284 52287 52290 52293 52296 52299 52302 52305 52308 52311 52314 52317 52320 52323 52326 52329 52332 52335 52338 52341 52344 52347 52350 52353 52356 52359 52362 52365 52368 52371 52374 52377 52380 52383 52386 52389 52392 52395 52398 52401 52404 52407 52410 52413 52416 52419 52422 52425 52428 52431 52434 52437 52440 52443 52446 52449 52452 52455 52458 52461 52464 52467 52470 52473 52476 52479 52482 52485 52488 52491 52494 52497 52500 52503 52506 52509 52512 52515 52518 52521 52524 52527 52530 52533 52536 52539 52542 52545 52548 52551 52554 52557 52560 52563 52566 52569 52572 52575 52578 52581 52584 52587 52590 52593 52596 52599 52602 52605 52608 52611 52614 52617 52620 52623 52626 52629 52632 52635 52638 52641 52644 52647 52650 52653 52656 52659 52662 52665 52668 52671 52674 52677 52680 52683 52686 52689 52692 52695 52698 52701 52704 52707 52710 52713 52716 52719 52722 52725 52728 52731 52734 52737 52740 52743 52746 52749 52752 52755 52758 52761 52764 52767 52770 52773 52776 52779 52782 52785 52788 52791 52794 52797 52800 52803 52806 52809 52812 52815 52818 52821 52824 52827 52830 52833 52836 52839 52842 52845 52848 52851 52854 52857 52860 52863 52866 52869 52872 52875 52878 52881 52884 52887 52890 52893 52896 52899 52902 52905 52908 52911 52914 52917 52920 52923 52926 52929 52932 52935 52938 52941 52944 52947 52950 52953 52956 52959 52962 52965 52968 52971 52974 52977 52980 52983 52986 52989 52992 52995 52998 53001 53004 53007 53010 53013 53016 53019 53022 53025 53028 53031 53034 53037 53040 53043 53046 53049 53052 53055 53058 53061 53064 53067 53070 53073 53076 53079 53082 53085 53088 53091 53094 53097 53100 53103 53106 53109 53112 53115 53118 53121 53124 53127 53130 53133 53136 53139 53142 53145 53148 53151 53154 53157 53160 53163 53166 53169 53172 53175 53178 53181 53184 53187 53190 53193 53196 53199 53202 53205 53208 53211 53214 53217 53220 53223 53226 53229 53232 53235 53238 53241 53244 53247 53250 53253 53256 53259 53262 53265 53268 53271 53274 53277 53280 53283 53286 53289 53292 53295 53298 53301 53304 53307 53310 53313 53316 53319 53322 53325 53328 53331 53334 53337 53340 53343 53346 53349 53352 53355 53358 53361 53364 53367 53370 53373 53376 53379 53382 53385 53388 53391 53394 53397 53400 53403 53406 53409 53412 53415 53418 53421 53424 53427 53430 53433 53436 53439 53442 53445 53448 53451 53454 53457 53460 53463 53466 53469 53472 53475 53478 53481 53484 53487 53490 53493 53496 53499 53502 53505 53508 53511 53514 53517 53520 53523 53526 53529 53532 53535 53538 53541 53544 53547 53550 53553 53556 53559 53562 53565 53568 53571 53574 53577 53580 53583 53586 53589 53592 53595 53598 53601 53604 53607 53610 53613 53616 53619 53622 53625 53628 53631 53634 53637 53640 53643 53646 53649 53652 53655 53658 53661 53664 53667 53670 53673 53676 53679 53682 53685 53688 53691 53694 53697 53700 53703 53706 53709 53712 53715 53718 53721 53724 53727 53730 53733 53736 53739 53742 53745 53748 53751 53754 53757 53760 53763 53766 53769 53772 53775 53778 53781 53784 53787 53790 53793 53796 53799 53802 53805 53808 53811 53814 53817 53820 53823 53826 53829 53832 53835 53838 53841 53844 53847 53850 53853 53856 53859 53862 53865 53868 53871 53874 53877 53880 53883 53886 53889 53892 53895 53898 53901 53904 53907 53910 53913 53916 53919 53922 53925 53928 53931 53934 53937 53940 53943 53946 53949 53952 53955 53958 53961 53964 53967 53970 53973 53976 53979 53982 53985 53988 53991 53994 53997 54000 54003 54006 54009 54012 54015 54018 54021 54024 54027 54030 54033 54036 54039 54042 54045 54048 54051 54054 54057 54060 54063 54066 54069 54072 54075 54078 54081 54084 54087 54090 54093 54096 54099 54102 54105 54108 54111 54114 54117 54120 54123 54126 54129 54132 54135 54138 54141 54144 54147 54150 54153 54156 54159 54162 54165 54168 54171 54174 54177 54180 54183 54186 54189 54192 54195 54198 54201 54204 54207 54210 54213 54216 54219 54222 54225 54228 54231 54234 54237 54240 54243 54246 54249 54252 54255 54258 54261 54264 54267 54270 54273 54276 54279 54282 54285 54288 54291 54294 54297 54300 54303 54306 54309 54312 54315 54318 54321 54324 54327 54330 54333 54336 54339 54342 54345 54348 54351 54354 54357 54360 54363 54366 54369 54372 54375 54378 54381 54384 54387 54390 54393 54396 54399 54402 54405 54408 54411 54414 54417 54420 54423 54426 54429 54432 54435 54438 54441 54444 54447 54450 54453 54456 54459 54462 54465 54468 54471 54474 54477 54480 54483 54486 54489 54492 54495 54498 54501 54504 54507 54510 54513 54516 54519 54522 54525 54528 54531 54534 54537 54540 54543 54546 54549 54552 54555 54558 54561 54564 54567 54570 54573 54576 54579 54582 54585 54588 54591 54594 54597 54600 54603 54606 54609 54612 54615 54618 54621 54624 54627 54630 54633 54636 54639 54642 54645 54648 54651 54654 54657 54660 54663 54666 54669 54672 54675 54678 54681 54684 54687 54690 54693 54696 54699 54702 54705 54708 54711 54714 54717 54720 54723 54726 54729 54732 54735 54738 54741 54744 54747 54750 54753 54756 54759 54762 54765 54768 54771 54774 54777 54780 54783 54786 54789 54792 54795 54798 54801 54804 54807 54810 54813 54816 54819 54822 54825 54828 54831 54834 54837 54840 54843 54846 54849 54852 54855 54858 54861 54864 54867 54870 54873 54876 54879 54882 54885 54888 54891 54894 54897 54900 54903 54906 54909 54912 54915 54918 54921 54924 54927 54930 54933 54936 54939 54942 54945 54948 54951 54954 54957 54960 54963 54966 54969 54972 54975 54978 54981 54984 54987 54990 54993 54996 54999 55002 55005 55008 55011 55014 55017 55020 55023 55026 55029 55032 55035 55038 55041 55044 55047 55050 55053 55056 55059 55062 55065 55068 55071 55074 55077 55080 55083 55086 55089 55092 55095 55098 55101 55104 55107 55110 55113 55116 55119 55122 55125 55128 55131 55134 55137 55140 55143 55146 55149 55152 55155 55158 55161 55164 55167 55170 55173 55176 55179 55182 55185 55188 55191 55194 55197 55200 55203 55206 55209 55212 55215 55218 55221 55224 55227 55230 55233 55236 55239 55242 55245 55248 55251 55254 55257 55260 55263 55266 55269 55272 55275 55278 55281 55284 55287 55290 55293 55296 55299 55302 55305 55308 55311 55314 55317 55320 55323 55326 55329 55332 55335 55338 55341 55344 55347 55350 55353 55356 55359 55362 55365 55368 55371 55374 55377 55380 55383 55386 55389 55392 55395 55398 55401 55404 55407 55410 55413 55416 55419 55422 55425 55428 55431 55434 55437 55440 55443 55446 55449 55452 55455 55458 55461 55464 55467 55470 55473 55476 55479 55482 55485 55488 55491 55494 55497 55500 55503 55506 55509 55512 55515 55518 55521 55524 55527 55530 55533 55536 55539 55542 55545 55548 55551 55554 55557 55560 55563 55566 55569 55572 55575 55578 55581 55584 55587 55590 55593 55596 55599 55602 55605 55608 55611 55614 55617 55620 55623 55626 55629 55632 55635 55638 55641 55644 55647 55650 55653 55656 55659 55662 55665 55668 55671 55674 55677 55680 55683 55686 55689 55692 55695 55698 55701 55704 55707 55710 55713 55716 55719 55722 55725 55728 55731 55734 55737 55740 55743 55746 55749 55752 55755 55758 55761 55764 55767 55770 55773 55776 55779 55782 55785 55788 55791 55794 55797 55800 55803 55806 55809 55812 55815 55818 55821 55824 55827 55830 55833 55836 55839 55842 55845 55848 55851 55854 55857 55860 55863 55866 55869 55872 55875 55878 55881 55884 55887 55890 55893 55896 55899 55902 55905 55908 55911 55914 55917 55920 55923 55926 55929 55932 55935 55938 55941 55944 55947 55950 55953 55956 55959 55962 55965 55968 55971 55974 55977 55980 55983 55986 55989 55992 55995 55998 56001 56004 56007 56010 56013 56016 56019 56022 56025 56028 56031 56034 56037 56040 56043 56046 56049 56052 56055 56058 56061 56064 56067 56070 56073 56076 56079 56082 56085 56088 56091 56094 56097 56100 56103 56106 56109 56112 56115 56118 56121 56124 56127 56130 56133 56136 56139 56142 56145 56148 56151 56154 56157 56160 56163 56166 56169 56172 56175 56178 56181 56184 56187 56190 56193 56196 56199 56202 56205 56208 56211 56214 56217 56220 56223 56226 56229 56232 56235 56238 56241 56244 56247 56250 56253 56256 56259 56262 56265 56268 56271 56274 56277 56280 56283 56286 56289 56292 56295 56298 56301 56304 56307 56310 56313 56316 56319 56322 56325 56328 56331 56334 56337 56340 56343 56346 56349 56352 56355 56358 56361 56364 56367 56370 56373 56376 56379 56382 56385 56388 56391 56394 56397 56400 56403 56406 56409 56412 56415 56418 56421 56424 56427 56430 56433 56436 56439 56442 56445 56448 56451 56454 56457 56460 56463 56466 56469 56472 56475 56478 56481 56484 56487 56490 56493 56496 56499 56502 56505 56508 56511 56514 56517 56520 56523 56526 56529 56532 56535 56538 56541 56544 56547 56550 56553 56556 56559 56562 56565 56568 56571 56574 56577 56580 56583 56586 56589 56592 56595 56598 56601 56604 56607 56610 56613 56616 56619 56622 56625 56628 56631 56634 56637 56640 56643 56646 56649 56652 56655 56658 56661 56664 56667 56670 56673 56676 56679 56682 56685 56688 56691 56694 56697 56700 56703 56706 56709 56712 56715 56718 56721 56724 56727 56730 56733 56736 56739 56742 56745 56748 56751 56754 56757 56760 56763 56766 56769 56772 56775 56778 56781 56784 56787 56790 56793 56796 56799 56802 56805 56808 56811 56814 56817 56820 56823 56826 56829 56832 56835 56838 56841 56844 56847 56850 56853 56856 56859 56862 56865 56868 56871 56874 56877 56880 56883 56886 56889 56892 56895 56898 56901 56904 56907 56910 56913 56916 56919 56922 56925 56928 56931 56934 56937 56940 56943 56946 56949 56952 56955 56958 56961 56964 56967 56970 56973 56976 56979 56982 56985 56988 56991 56994 56997 57000 57003 57006 57009 57012 57015 57018 57021 57024 57027 57030 57033 57036 57039 57042 57045 57048 57051 57054 57057 57060 57063 57066 57069 57072 57075 57078 57081 57084 57087 57090 57093 57096 57099 57102 57105 57108 57111 57114 57117 57120 57123 57126 57129 57132 57135 57138 57141 57144 57147 57150 57153 57156 57159 57162 57165 57168 57171 57174 57177 57180 57183 57186 57189 57192 57195 57198 57201 57204 57207 57210 57213 57216 57219 57222 57225 57228 57231 57234 57237 57240 57243 57246 57249 57252 57255 57258 57261 57264 57267 57270 57273 57276 57279 57282 57285 57288 57291 57294 57297 57300 57303 57306 57309 57312 57315 57318 57321 57324 57327 57330 57333 57336 57339 57342 57345 57348 57351 57354 57357 57360 57363 57366 57369 57372 57375 57378 57381 57384 57387 57390 57393 57396 57399 57402 57405 57408 57411 57414 57417 57420 57423 57426 57429 57432 57435 57438 57441 57444 57447 57450 57453 57456 57459 57462 57465 57468 57471 57474 57477 57480 57483 57486 57489 57492 57495 57498 57501 57504 57507 57510 57513 57516 57519 57522 57525 57528 57531 57534 57537 57540 57543 57546 57549 57552 57555 57558 57561 57564 57567 57570 57573 57576 57579 57582 57585 57588 57591 57594 57597 57600 57603 57606 57609 57612 57615 57618 57621 57624 57627 57630 57633 57636 57639 57642 57645 57648 57651 57654 57657 57660 57663 57666 57669 57672 57675 57678 57681 57684 57687 57690 57693 57696 57699 57702 57705 57708 57711 57714 57717 57720 57723 57726 57729 57732 57735 57738 57741 57744 57747 57750 57753 57756 57759 57762 57765 57768 57771 57774 57777 57780 57783 57786 57789 57792 57795 57798 57801 57804 57807 57810 57813 57816 57819 57822 57825 57828 57831 57834 57837 57840 57843 57846 57849 57852 57855 57858 57861 57864 57867 57870 57873 57876 57879 57882 57885 57888 57891 57894 57897 57900 57903 57906 57909 57912 57915 57918 57921 57924 57927 57930 57933 57936 57939 57942 57945 57948 57951 57954 57957 57960 57963 57966 57969 57972 57975 57978 57981 57984 57987 57990 57993 57996 57999 58002 58005 58008 58011 58014 58017 58020 58023 58026 58029 58032 58035 58038 58041 58044 58047 58050 58053 58056 58059 58062 58065 58068 58071 58074 58077 58080 58083 58086 58089 58092 58095 58098 58101 58104 58107 58110 58113 58116 58119 58122 58125 58128 58131 58134 58137 58140 58143 58146 58149 58152 58155 58158 58161 58164 58167 58170 58173 58176 58179 58182 58185 58188 58191 58194 58197 58200 58203 58206 58209 58212 58215 58218 58221 58224 58227 58230 58233 58236 58239 58242 58245 58248 58251 58254 58257 58260 58263 58266 58269 58272 58275 58278 58281 58284 58287 58290 58293 58296 58299 58302 58305 58308 58311 58314 58317 58320 58323 58326 58329 58332 58335 58338 58341 58344 58347 58350 58353 58356 58359 58362 58365 58368 58371 58374 58377 58380 58383 58386 58389 58392 58395 58398 58401 58404 58407 58410 58413 58416 58419 58422 58425 58428 58431 58434 58437 58440 58443 58446 58449 58452 58455 58458 58461 58464 58467 58470 58473 58476 58479 58482 58485 58488 58491 58494 58497 58500 58503 58506 58509 58512 58515 58518 58521 58524 58527 58530 58533 58536 58539 58542 58545 58548 58551 58554 58557 58560 58563 58566 58569 58572 58575 58578 58581 58584 58587 58590 58593 58596 58599 58602 58605 58608 58611 58614 58617 58620 58623 58626 58629 58632 58635 58638 58641 58644 58647 58650 58653 58656 58659 58662 58665 58668 58671 58674 58677 58680 58683 58686 58689 58692 58695 58698 58701 58704 58707 58710 58713 58716 58719 58722 58725 58728 58731 58734 58737 58740 58743 58746 58749 58752 58755 58758 58761 58764 58767 58770 58773 58776 58779 58782 58785 58788 58791 58794 58797 58800 58803 58806 58809 58812 58815 58818 58821 58824 58827 58830 58833 58836 58839 58842 58845 58848 58851 58854 58857 58860 58863 58866 58869 58872 58875 58878 58881 58884 58887 58890 58893 58896 58899 58902 58905 58908 58911 58914 58917 58920 58923 58926 58929 58932 58935 58938 58941 58944 58947 58950 58953 58956 58959 58962 58965 58968 58971 58974 58977 58980 58983 58986 58989 58992 58995 58998 59001 59004 59007 59010 59013 59016 59019 59022 59025 59028 59031 59034 59037 59040 59043 59046 59049 59052 59055 59058 59061 59064 59067 59070 59073 59076 59079 59082 59085 59088 59091 59094 59097 59100 59103 59106 59109 59112 59115 59118 59121 59124 59127 59130 59133 59136 59139 59142 59145 59148 59151 59154 59157 59160 59163 59166 59169 59172 59175 59178 59181 59184 59187 59190 59193 59196 59199 59202 59205 59208 59211 59214 59217 59220 59223 59226 59229 59232 59235 59238 59241 59244 59247 59250 59253 59256 59259 59262 59265 59268 59271 59274 59277 59280 59283 59286 59289 59292 59295 59298 59301 59304 59307 59310 59313 59316 59319 59322 59325 59328 59331 59334 59337 59340 59343 59346 59349 59352 59355 59358 59361 59364 59367 59370 59373 59376 59379 59382 59385 59388 59391 59394 59397 59400 59403 59406 59409 59412 59415 59418 59421 59424 59427 59430 59433 59436 59439 59442 59445 59448 59451 59454 59457 59460 59463 59466 59469 59472 59475 59478 59481 59484 59487 59490 59493 59496 59499 59502 59505 59508 59511 59514 59517 59520 59523 59526 59529 59532 59535 59538 59541 59544 59547 59550 59553 59556 59559 59562 59565 59568 59571 59574 59577 59580 59583 59586 59589 59592 59595 59598 59601 59604 59607 59610 59613 59616 59619 59622 59625 59628 59631 59634 59637 59640 59643 59646 59649 59652 59655 59658 59661 59664 59667 59670 59673 59676 59679 59682 59685 59688 59691 59694 59697 59700 59703 59706 59709 59712 59715 59718 59721 59724 59727 59730 59733 59736 59739 59742 59745 59748 59751 59754 59757 59760 59763 59766 59769 59772 59775 59778 59781 59784 59787 59790 59793 59796 59799 59802 59805 59808 59811 59814 59817 59820 59823 59826 59829 59832 59835 59838 59841 59844 59847 59850 59853 59856 59859 59862 59865 59868 59871 59874 59877 59880 59883 59886 59889 59892 59895 59898 59901 59904 59907 59910 59913 59916 59919 59922 59925 59928 59931 59934 59937 59940 59943 59946 59949 59952 59955 59958 59961 59964 59967 59970 59973 59976 59979 59982 59985 59988 59991 59994 59997 60000 60003 60006 60009 60012 60015 60018 60021 60024 60027 60030 60033 60036 60039 60042 60045 60048 60051 60054 60057 60060 60063 60066 60069 60072 60075 60078 60081 60084 60087 60090 60093 60096 60099 60102 60105 60108 60111 60114 60117 60120 60123 60126 60129 60132 60135 60138 60141 60144 60147 60150 60153 60156 60159 60162 60165 60168 60171 60174 60177 60180 60183 60186 60189 60192 60195 60198 60201 60204 60207 60210 60213 60216 60219 60222 60225 60228 60231 60234 60237 60240 60243 60246 60249 60252 60255 60258 60261 60264 60267 60270 60273 60276 60279 60282 60285 60288 60291 60294 60297 60300 60303 60306 60309 60312 60315 60318 60321 60324 60327 60330 60333 60336 60339 60342 60345 60348 60351 60354 60357 60360 60363 60366 60369 60372 60375 60378 60381 60384 60387 60390 60393 60396 60399 60402 60405 60408 60411 60414 60417 60420 60423 60426 60429 60432 60435 60438 60441 60444 60447 60450 60453 60456 60459 60462 60465 60468 60471 60474 60477 60480 60483 60486 60489 60492 60495 60498 60501 60504 60507 60510 60513 60516 60519 60522 60525 60528 60531 60534 60537 60540 60543 60546 60549 60552 60555 60558 60561 60564 60567 60570 60573 60576 60579 60582 60585 60588 60591 60594 60597 60600 60603 60606 60609 60612 60615 60618 60621 60624 60627 60630 60633 60636 60639 60642 60645 60648 60651 60654 60657 60660 60663 60666 60669 60672 60675 60678 60681 60684 60687 60690 60693 60696 60699 60702 60705 60708 60711 60714 60717 60720 60723 60726 60729 60732 60735 60738 60741 60744 60747 60750 60753 60756 60759 60762 60765 60768 60771 60774 60777 60780 60783 60786 60789 60792 60795 60798 60801 60804 60807 60810 60813 60816 60819 60822 60825 60828 60831 60834 60837 60840 60843 60846 60849 60852 60855 60858 60861 60864 60867 60870 60873 60876 60879 60882 60885 60888 60891 60894 60897 60900 60903 60906 60909 60912 60915 60918 60921 60924 60927 60930 60933 60936 60939 60942 60945 60948 60951 60954 60957 60960 60963 60966 60969 60972 60975 60978 60981 60984 60987 60990 60993 60996 60999 61002 61005 61008 61011 61014 61017 61020 61023 61026 61029 61032 61035 61038 61041 61044 61047 61050 61053 61056 61059 61062 61065 61068 61071 61074 61077 61080 61083 61086 61089 61092 61095 61098 61101 61104 61107 61110 61113 61116 61119 61122 61125 61128 61131 61134 61137 61140 61143 61146 61149 61152 61155 61158 61161 61164 61167 61170 61173 61176 61179 61182 61185 61188 61191 61194 61197 61200 61203 61206 61209 61212 61215 61218 61221 61224 61227 61230 61233 61236 61239 61242 61245 61248 61251 61254 61257 61260 61263 61266 61269 61272 61275 61278 61281 61284 61287 61290 61293 61296 61299 61302 61305 61308 61311 61314 61317 61320 61323 61326 61329 61332 61335 61338 61341 61344 61347 61350 61353 61356 61359 61362 61365 61368 61371 61374 61377 61380 61383 61386 61389 61392 61395 61398 61401 61404 61407 61410 61413 61416 61419 61422 61425 61428 61431 61434 61437 61440 61443 61446 61449 61452 61455 61458 61461 61464 61467 61470 61473 61476 61479 61482 61485 61488 61491 61494 61497 61500 61503 61506 61509 61512 61515 61518 61521 61524 61527 61530 61533 61536 61539 61542 61545 61548 61551 61554 61557 61560 61563 61566 61569 61572 61575 61578 61581 61584 61587 61590 61593 61596 61599 61602 61605 61608 61611 61614 61617 61620 61623 61626 61629 61632 61635 61638 61641 61644 61647 61650 61653 61656 61659 61662 61665 61668 61671 61674 61677 61680 61683 61686 61689 61692 61695 61698 61701 61704 61707 61710 61713 61716 61719 61722 61725 61728 61731 61734 61737 61740 61743 61746 61749 61752 61755 61758 61761 61764 61767 61770 61773 61776 61779 61782 61785 61788 61791 61794 61797 61800 61803 61806 61809 61812 61815 61818 61821 61824 61827 61830 61833 61836 61839 61842 61845 61848 61851 61854 61857 61860 61863 61866 61869 61872 61875 61878 61881 61884 61887 61890 61893 61896 61899 61902 61905 61908 61911 61914 61917 61920 61923 61926 61929 61932 61935 61938 61941 61944 61947 61950 61953 61956 61959 61962 61965 61968 61971 61974 61977 61980 61983 61986 61989 61992 61995 61998 62001 62004 62007 62010 62013 62016 62019 62022 62025 62028 62031 62034 62037 62040 62043 62046 62049 62052 62055 62058 62061 62064 62067 62070 62073 62076 62079 62082 62085 62088 62091 62094 62097 62100 62103 62106 62109 62112 62115 62118 62121 62124 62127 62130 62133 62136 62139 62142 62145 62148 62151 62154 62157 62160 62163 62166 62169 62172 62175 62178 62181 62184 62187 62190 62193 62196 62199 62202 62205 62208 62211 62214 62217 62220 62223 62226 62229 62232 62235 62238 62241 62244 62247 62250 62253 62256 62259 62262 62265 62268 62271 62274 62277 62280 62283 62286 62289 62292 62295 62298 62301 62304 62307 62310 62313 62316 62319 62322 62325 62328 62331 62334 62337 62340 62343 62346 62349 62352 62355 62358 62361 62364 62367 62370 62373 62376 62379 62382 62385 62388 62391 62394 62397 62400 62403 62406 62409 62412 62415 62418 62421 62424 62427 62430 62433 62436 62439 62442 62445 62448 62451 62454 62457 62460 62463 62466 62469 62472 62475 62478 62481 62484 62487 62490 62493 62496 62499 62502 62505 62508 62511 62514 62517 62520 62523 62526 62529 62532 62535 62538 62541 62544 62547 62550 62553 62556 62559 62562 62565 62568 62571 62574 62577 62580 62583 62586 62589 62592 62595 62598 62601 62604 62607 62610 62613 62616 62619 62622 62625 62628 62631 62634 62637 62640 62643 62646 62649 62652 62655 62658 62661 62664 62667 62670 62673 62676 62679 62682 62685 62688 62691 62694 62697 62700 62703 62706 62709 62712 62715 62718 62721 62724 62727 62730 62733 62736 62739 62742 62745 62748 62751 62754 62757 62760 62763 62766 62769 62772 62775 62778 62781 62784 62787 62790 62793 62796 62799 62802 62805 62808 62811 62814 62817 62820 62823 62826 62829 62832 62835 62838 62841 62844 62847 62850 62853 62856 62859 62862 62865 62868 62871 62874 62877 62880 62883 62886 62889 62892 62895 62898 62901 62904 62907 62910 62913 62916 62919 62922 62925 62928 62931 62934 62937 62940 62943 62946 62949 62952 62955 62958 62961 62964 62967 62970 62973 62976 62979 62982 62985 62988 62991 62994 62997 63000 63003 63006 63009 63012 63015 63018 63021 63024 63027 63030 63033 63036 63039 63042 63045 63048 63051 63054 63057 63060 63063 63066 63069 63072 63075 63078 63081 63084 63087 63090 63093 63096 63099 63102 63105 63108 63111 63114 63117 63120 63123 63126 63129 63132 63135 63138 63141 63144 63147 63150 63153 63156 63159 63162 63165 63168 63171 63174 63177 63180 63183 63186 63189 63192 63195 63198 63201 63204 63207 63210 63213 63216 63219 63222 63225 63228 63231 63234 63237 63240 63243 63246 63249 63252 63255 63258 63261 63264 63267 63270 63273 63276 63279 63282 63285 63288 63291 63294 63297 63300 63303 63306 63309 63312 63315 63318 63321 63324 63327 63330 63333 63336 63339 63342 63345 63348 63351 63354 63357 63360 63363 63366 63369 63372 63375 63378 63381 63384 63387 63390 63393 63396 63399 63402 63405 63408 63411 63414 63417 63420 63423 63426 63429 63432 63435 63438 63441 63444 63447 63450 63453 63456 63459 63462 63465 63468 63471 63474 63477 63480 63483 63486 63489 63492 63495 63498 63501 63504 63507 63510 63513 63516 63519 63522 63525 63528 63531 63534 63537 63540 63543 63546 63549 63552 63555 63558 63561 63564 63567 63570 63573 63576 63579 63582 63585 63588 63591 63594 63597 63600 63603 63606 63609 63612 63615 63618 63621 63624 63627 63630 63633 63636 63639 63642 63645 63648 63651 63654 63657 63660 63663 63666 63669 63672 63675 63678 63681 63684 63687 63690 63693 63696 63699 63702 63705 63708 63711 63714 63717 63720 63723 63726 63729 63732 63735 63738 63741 63744 63747 63750 63753 63756 63759 63762 63765 63768 63771 63774 63777 63780 63783 63786 63789 63792 63795 63798 63801 63804 63807 63810 63813 63816 63819 63822 63825 63828 63831 63834 63837 63840 63843 63846 63849 63852 63855 63858 63861 63864 63867 63870 63873 63876 63879 63882 63885 63888 63891 63894 63897 63900 63903 63906 63909 63912 63915 63918 63921 63924 63927 63930 63933 63936 63939 63942 63945 63948 63951 63954 63957 63960 63963 63966 63969 63972 63975 63978 63981 63984 63987 63990 63993 63996 63999 64002 64005 64008 64011 64014 64017 64020 64023 64026 64029 64032 64035 64038 64041 64044 64047 64050 64053 64056 64059 64062 64065 64068 64071 64074 64077 64080 64083 64086 64089 64092 64095 64098 64101 64104 64107 64110 64113 64116 64119 64122 64125 64128 64131 64134 64137 64140 64143 64146 64149 64152 64155 64158 64161 64164 64167 64170 64173 64176 64179 64182 64185 64188 64191 64194 64197 64200 64203 64206 64209 64212 64215 64218 64221 64224 64227 64230 64233 64236 64239 64242 64245 64248 64251 64254 64257 64260 64263 64266 64269 64272 64275 64278 64281 64284 64287 64290 64293 64296 64299 64302 64305 64308 64311 64314 64317 64320 64323 64326 64329 64332 64335 64338 64341 64344 64347 64350 64353 64356 64359 64362 64365 64368 64371 64374 64377 64380 64383 64386 64389 64392 64395 64398 64401 64404 64407 64410 64413 64416 64419 64422 64425 64428 64431 64434 64437 64440 64443 64446 64449 64452 64455 64458 64461 64464 64467 64470 64473 64476 64479 64482 64485 64488 64491 64494 64497 64500 64503 64506 64509 64512 64515 64518 64521 64524 64527 64530 64533 64536 64539 64542 64545 64548 64551 64554 64557 64560 64563 64566 64569 64572 64575 64578 64581 64584 64587 64590 64593 64596 64599 64602 64605 64608 64611 64614 64617 64620 64623 64626 64629 64632 64635 64638 64641 64644 64647 64650 64653 64656 64659 64662 64665 64668 64671 64674 64677 64680 64683 64686 64689 64692 64695 64698 64701 64704 64707 64710 64713 64716 64719 64722 64725 64728 64731 64734 64737 64740 64743 64746 64749 64752 64755 64758 64761 64764 64767 64770 64773 64776 64779 64782 64785 64788 64791 64794 64797 64800 64803 64806 64809 64812 64815 64818 64821 64824 64827 64830 64833 64836 64839 64842 64845 64848 64851 64854 64857 64860 64863 64866 64869 64872 64875 64878 64881 64884 64887 64890 64893 64896 64899 64902 64905 64908 64911 64914 64917 64920 64923 64926 64929 64932 64935 64938 64941 64944 64947 64950 64953 64956 64959 64962 64965 64968 64971 64974 64977 64980 64983 64986 64989 64992 64995 64998 65001 65004 65007 65010 65013 65016 65019 65022 65025 65028 65031 65034 65037 65040 65043 65046 65049 65052 65055 65058 65061 65064 65067 65070 65073 65076 65079 65082 65085 65088 65091 65094 65097 65100 65103 65106 65109 65112 65115 65118 65121 65124 65127 65130 65133 65136 65139 65142 65145 65148 65151 65154 65157 65160 65163 65166 65169 65172 65175 65178 65181 65184 65187 65190 65193 65196 65199 65202 65205 65208 65211 65214 65217 65220 65223 65226 65229 65232 65235 65238 65241 65244 65247 65250 65253 65256 65259 65262 65265 65268 65271 65274 65277 65280 65283 65286 65289 65292 65295 65298 65301 65304 65307 65310 65313 65316 65319 65322 65325 65328 65331 65334 65337 65340 65343 65346 65349 65352 65355 65358 65361 65364 65367 65370 65373 65376 65379 65382 65385 65388 65391 65394 65397 65400 65403 65406 65409 65412 65415 65418 65421 65424 65427 65430 65433 65436 65439 65442 65445 65448 65451 65454 65457 65460 65463 65466 65469 65472 65475 65478 65481 65484 65487 65490 65493 65496 65499 65502 65505 65508 65511 65514 65517 65520 65523 65526 65529 65532 65535 65538 65541 65544 65547 65550 65553 65556 65559 65562 65565 65568 65571 65574 65577 65580 65583 65586 65589 65592 65595 65598 65601 65604 65607 65610 65613 65616 65619 65622 65625 65628 65631 65634 65637 65640 65643 65646 65649 65652 65655 65658 65661 65664 65667 65670 65673 65676 65679 65682 65685 65688 65691 65694 65697 65700 65703 65706 65709 65712 65715 65718 65721 65724 65727 65730 65733 65736 65739 65742 65745 65748 65751 65754 65757 65760 65763 65766 65769 65772 65775 65778 65781 65784 65787 65790 65793 65796 65799 65802 65805 65808 65811 65814 65817 65820 65823 65826 65829 65832 65835 65838 65841 65844 65847 65850 65853 65856 65859 65862 65865 65868 65871 65874 65877 65880 65883 65886 65889 65892 65895 65898 65901 65904 65907 65910 65913 65916 65919 65922 65925 65928 65931 65934 65937 65940 65943 65946 65949 65952 65955 65958 65961 65964 65967 65970 65973 65976 65979 65982 65985 65988 65991 65994 65997 66000 66003 66006 66009 66012 66015 66018 66021 66024 66027 66030 66033 66036 66039 66042 66045 66048 66051 66054 66057 66060 66063 66066 66069 66072 66075 66078 66081 66084 66087 66090 66093 66096 66099 66102 66105 66108 66111 66114 66117 66120 66123 66126 66129 66132 66135 66138 66141 66144 66147 66150 66153 66156 66159 66162 66165 66168 66171 66174 66177 66180 66183 66186 66189 66192 66195 66198 66201 66204 66207 66210 66213 66216 66219 66222 66225 66228 66231 66234 66237 66240 66243 66246 66249 66252 66255 66258 66261 66264 66267 66270 66273 66276 66279 66282 66285 66288 66291 66294 66297 66300 66303 66306 66309 66312 66315 66318 66321 66324 66327 66330 66333 66336 66339 66342 66345 66348 66351 66354 66357 66360 66363 66366 66369 66372 66375 66378 66381 66384 66387 66390 66393 66396 66399 66402 66405 66408 66411 66414 66417 66420 66423 66426 66429 66432 66435 66438 66441 66444 66447 66450 66453 66456 66459 66462 66465 66468 66471 66474 66477 66480 66483 66486 66489 66492 66495 66498 66501 66504 66507 66510 66513 66516 66519 66522 66525 66528 66531 66534 66537 66540 66543 66546 66549 66552 66555 66558 66561 66564 66567 66570 66573 66576 66579 66582 66585 66588 66591 66594 66597 66600 66603 66606 66609 66612 66615 66618 66621 66624 66627 66630 66633 66636 66639 66642 66645 66648 66651 66654 66657 66660 66663 66666 66669 66672 66675 66678 66681 66684 66687 66690 66693 66696 66699 66702 66705 66708 66711 66714 66717 66720 66723 66726 66729 66732 66735 66738 66741 66744 66747 66750 66753 66756 66759 66762 66765 66768 66771 66774 66777 66780 66783 66786 66789 66792 66795 66798 66801 66804 66807 66810 66813 66816 66819 66822 66825 66828 66831 66834 66837 66840 66843 66846 66849 66852 66855 66858 66861 66864 66867 66870 66873 66876 66879 66882 66885 66888 66891 66894 66897 66900 66903 66906 66909 66912 66915 66918 66921 66924 66927 66930 66933 66936 66939 66942 66945 66948 66951 66954 66957 66960 66963 66966 66969 66972 66975 66978 66981 66984 66987 66990 66993 66996 66999 67002 67005 67008 67011 67014 67017 67020 67023 67026 67029 67032 67035 67038 67041 67044 67047 67050 67053 67056 67059 67062 67065 67068 67071 67074 67077 67080 67083 67086 67089 67092 67095 67098 67101 67104 67107 67110 67113 67116 67119 67122 67125 67128 67131 67134 67137 67140 67143 67146 67149 67152 67155 67158 67161 67164 67167 67170 67173 67176 67179 67182 67185 67188 67191 67194 67197 67200 67203 67206 67209 67212 67215 67218 67221 67224 67227 67230 67233 67236 67239 67242 67245 67248 67251 67254 67257 67260 67263 67266 67269 67272 67275 67278 67281 67284 67287 67290 67293 67296 67299 67302 67305 67308 67311 67314 67317 67320 67323 67326 67329 67332 67335 67338 67341 67344 67347 67350 67353 67356 67359 67362 67365 67368 67371 67374 67377 67380 67383 67386 67389 67392 67395 67398 67401 67404 67407 67410 67413 67416 67419 67422 67425 67428 67431 67434 67437 67440 67443 67446 67449 67452 67455 67458 67461 67464 67467 67470 67473 67476 67479 67482 67485 67488 67491 67494 67497 67500 67503 67506 67509 67512 67515 67518 67521 67524 67527 67530 67533 67536 67539 67542 67545 67548 67551 67554 67557 67560 67563 67566 67569 67572 67575 67578 67581 67584 67587 67590 67593 67596 67599 67602 67605 67608 67611 67614 67617 67620 67623 67626 67629 67632 67635 67638 67641 67644 67647 67650 67653 67656 67659 67662 67665 67668 67671 67674 67677 67680 67683 67686 67689 67692 67695 67698 67701 67704 67707 67710 67713 67716 67719 67722 67725 67728 67731 67734 67737 67740 67743 67746 67749 67752 67755 67758 67761 67764 67767 67770 67773 67776 67779 67782 67785 67788 67791 67794 67797 67800 67803 67806 67809 67812 67815 67818 67821 67824 67827 67830 67833 67836 67839 67842 67845 67848 67851 67854 67857 67860 67863 67866 67869 67872 67875 67878 67881 67884 67887 67890 67893 67896 67899 67902 67905 67908 67911 67914 67917 67920 67923 67926 67929 67932 67935 67938 67941 67944 67947 67950 67953 67956 67959 67962 67965 67968 67971 67974 67977 67980 67983 67986 67989 67992 67995 67998 68001 68004 68007 68010 68013 68016 68019 68022 68025 68028 68031 68034 68037 68040 68043 68046 68049 68052 68055 68058 68061 68064 68067 68070 68073 68076 68079 68082 68085 68088 68091 68094 68097 68100 68103 68106 68109 68112 68115 68118 68121 68124 68127 68130 68133 68136 68139 68142 68145 68148 68151 68154 68157 68160 68163 68166 68169 68172 68175 68178 68181 68184 68187 68190 68193 68196 68199 68202 68205 68208 68211 68214 68217 68220 68223 68226 68229 68232 68235 68238 68241 68244 68247 68250 68253 68256 68259 68262 68265 68268 68271 68274 68277 68280 68283 68286 68289 68292 68295 68298 68301 68304 68307 68310 68313 68316 68319 68322 68325 68328 68331 68334 68337 68340 68343 68346 68349 68352 68355 68358 68361 68364 68367 68370 68373 68376 68379 68382 68385 68388 68391 68394 68397 68400 68403 68406 68409 68412 68415 68418 68421 68424 68427 68430 68433 68436 68439 68442 68445 68448 68451 68454 68457 68460 68463 68466 68469 68472 68475 68478 68481 68484 68487 68490 68493 68496 68499 68502 68505 68508 68511 68514 68517 68520 68523 68526 68529 68532 68535 68538 68541 68544 68547 68550 68553 68556 68559 68562 68565 68568 68571 68574 68577 68580 68583 68586 68589 68592 68595 68598 68601 68604 68607 68610 68613 68616 68619 68622 68625 68628 68631 68634 68637 68640 68643 68646 68649 68652 68655 68658 68661 68664 68667 68670 68673 68676 68679 68682 68685 68688 68691 68694 68697 68700 68703 68706 68709 68712 68715 68718 68721 68724 68727 68730 68733 68736 68739 68742 68745 68748 68751 68754 68757 68760 68763 68766 68769 68772 68775 68778 68781 68784 68787 68790 68793 68796 68799 68802 68805 68808 68811 68814 68817 68820 68823 68826 68829 68832 68835 68838 68841 68844 68847 68850 68853 68856 68859 68862 68865 68868 68871 68874 68877 68880 68883 68886 68889 68892 68895 68898 68901 68904 68907 68910 68913 68916 68919 68922 68925 68928 68931 68934 68937 68940 68943 68946 68949 68952 68955 68958 68961 68964 68967 68970 68973 68976 68979 68982 68985 68988 68991 68994 68997 69000 69003 69006 69009 69012 69015 69018 69021 69024 69027 69030 69033 69036 69039 69042 69045 69048 69051 69054 69057 69060 69063 69066 69069 69072 69075 69078 69081 69084 69087 69090 69093 69096 69099 69102 69105 69108 69111 69114 69117 69120 69123 69126 69129 69132 69135 69138 69141 69144 69147 69150 69153 69156 69159 69162 69165 69168 69171 69174 69177 69180 69183 69186 69189 69192 69195 69198 69201 69204 69207 69210 69213 69216 69219 69222 69225 69228 69231 69234 69237 69240 69243 69246 69249 69252 69255 69258 69261 69264 69267 69270 69273 69276 69279 69282 69285 69288 69291 69294 69297 69300 69303 69306 69309 69312 69315 69318 69321 69324 69327 69330 69333 69336 69339 69342 69345 69348 69351 69354 69357 69360 69363 69366 69369 69372 69375 69378 69381 69384 69387 69390 69393 69396 69399 69402 69405 69408 69411 69414 69417 69420 69423 69426 69429 69432 69435 69438 69441 69444 69447 69450 69453 69456 69459 69462 69465 69468 69471 69474 69477 69480 69483 69486 69489 69492 69495 69498 69501 69504 69507 69510 69513 69516 69519 69522 69525 69528 69531 69534 69537 69540 69543 69546 69549 69552 69555 69558 69561 69564 69567 69570 69573 69576 69579 69582 69585 69588 69591 69594 69597 69600 69603 69606 69609 69612 69615 69618 69621 69624 69627 69630 69633 69636 69639 69642 69645 69648 69651 69654 69657 69660 69663 69666 69669 69672 69675 69678 69681 69684 69687 69690 69693 69696 69699 69702 69705 69708 69711 69714 69717 69720 69723 69726 69729 69732 69735 69738 69741 69744 69747 69750 69753 69756 69759 69762 69765 69768 69771 69774 69777 69780 69783 69786 69789 69792 69795 69798 69801 69804 69807 69810 69813 69816 69819 69822 69825 69828 69831 69834 69837 69840 69843 69846 69849 69852 69855 69858 69861 69864 69867 69870 69873 69876 69879 69882 69885 69888 69891 69894 69897 69900 69903 69906 69909 69912 69915 69918 69921 69924 69927 69930 69933 69936 69939 69942 69945 69948 69951 69954 69957 69960 69963 69966 69969 69972 69975 69978 69981 69984 69987 69990 69993 69996 69999 70002 70005 70008 70011 70014 70017 70020 70023 70026 70029 70032 70035 70038 70041 70044 70047 70050 70053 70056 70059 70062 70065 70068 70071 70074 70077 70080 70083 70086 70089 70092 70095 70098 70101 70104 70107 70110 70113 70116 70119 70122 70125 70128 70131 70134 70137 70140 70143 70146 70149 70152 70155 70158 70161 70164 70167 70170 70173 70176 70179 70182 70185 70188 70191 70194 70197 70200 70203 70206 70209 70212 70215 70218 70221 70224 70227 70230 70233 70236 70239 70242 70245 70248 70251 70254 70257 70260 70263 70266 70269 70272 70275 70278 70281 70284 70287 70290 70293 70296 70299 70302 70305 70308 70311 70314 70317 70320 70323 70326 70329 70332 70335 70338 70341 70344 70347 70350 70353 70356 70359 70362 70365 70368 70371 70374 70377 70380 70383 70386 70389 70392 70395 70398 70401 70404 70407 70410 70413 70416 70419 70422 70425 70428 70431 70434 70437 70440 70443 70446 70449 70452 70455 70458 70461 70464 70467 70470 70473 70476 70479 70482 70485 70488 70491 70494 70497 70500 70503 70506 70509 70512 70515 70518 70521 70524 70527 70530 70533 70536 70539 70542 70545 70548 70551 70554 70557 70560 70563 70566 70569 70572 70575 70578 70581 70584 70587 70590 70593 70596 70599 70602 70605 70608 70611 70614 70617 70620 70623 70626 70629 70632 70635 70638 70641 70644 70647 70650 70653 70656 70659 70662 70665 70668 70671 70674 70677 70680 70683 70686 70689 70692 70695 70698 70701 70704 70707 70710 70713 70716 70719 70722 70725 70728 70731 70734 70737 70740 70743 70746 70749 70752 70755 70758 70761 70764 70767 70770 70773 70776 70779 70782 70785 70788 70791 70794 70797 70800 70803 70806 70809 70812 70815 70818 70821 70824 70827 70830 70833 70836 70839 70842 70845 70848 70851 70854 70857 70860 70863 70866 70869 70872 70875 70878 70881 70884 70887 70890 70893 70896 70899 70902 70905 70908 70911 70914 70917 70920 70923 70926 70929 70932 70935 70938 70941 70944 70947 70950 70953 70956 70959 70962 70965 70968 70971 70974 70977 70980 70983 70986 70989 70992 70995 70998 71001 71004 71007 71010 71013 71016 71019 71022 71025 71028 71031 71034 71037 71040 71043 71046 71049 71052 71055 71058 71061 71064 71067 71070 71073 71076 71079 71082 71085 71088 71091 71094 71097 71100 71103 71106 71109 71112 71115 71118 71121 71124 71127 71130 71133 71136 71139 71142 71145 71148 71151 71154 71157 71160 71163 71166 71169 71172 71175 71178 71181 71184 71187 71190 71193 71196 71199 71202 71205 71208 71211 71214 71217 71220 71223 71226 71229 71232 71235 71238 71241 71244 71247 71250 71253 71256 71259 71262 71265 71268 71271 71274 71277 71280 71283 71286 71289 71292 71295 71298 71301 71304 71307 71310 71313 71316 71319 71322 71325 71328 71331 71334 71337 71340 71343 71346 71349 71352 71355 71358 71361 71364 71367 71370 71373 71376 71379 71382 71385 71388 71391 71394 71397 71400 71403 71406 71409 71412 71415 71418 71421 71424 71427 71430 71433 71436 71439 71442 71445 71448 71451 71454 71457 71460 71463 71466 71469 71472 71475 71478 71481 71484 71487 71490 71493 71496 71499 71502 71505 71508 71511 71514 71517 71520 71523 71526 71529 71532 71535 71538 71541 71544 71547 71550 71553 71556 71559 71562 71565 71568 71571 71574 71577 71580 71583 71586 71589 71592 71595 71598 71601 71604 71607 71610 71613 71616 71619 71622 71625 71628 71631 71634 71637 71640 71643 71646 71649 71652 71655 71658 71661 71664 71667 71670 71673 71676 71679 71682 71685 71688 71691 71694 71697 71700 71703 71706 71709 71712 71715 71718 71721 71724 71727 71730 71733 71736 71739 71742 71745 71748 71751 71754 71757 71760 71763 71766 71769 71772 71775 71778 71781 71784 71787 71790 71793 71796 71799 71802 71805 71808 71811 71814 71817 71820 71823 71826 71829 71832 71835 71838 71841 71844 71847 71850 71853 71856 71859 71862 71865 71868 71871 71874 71877 71880 71883 71886 71889 71892 71895 71898 71901 71904 71907 71910 71913 71916 71919 71922 71925 71928 71931 71934 71937 71940 71943 71946 71949 71952 71955 71958 71961 71964 71967 71970 71973 71976 71979 71982 71985 71988 71991 71994 71997 72000 72003 72006 72009 72012 72015 72018 72021 72024 72027 72030 72033 72036 72039 72042 72045 72048 72051 72054 72057 72060 72063 72066 72069 72072 72075 72078 72081 72084 72087 72090 72093 72096 72099 72102 72105 72108 72111 72114 72117 72120 72123 72126 72129 72132 72135 72138 72141 72144 72147 72150 72153 72156 72159 72162 72165 72168 72171 72174 72177 72180 72183 72186 72189 72192 72195 72198 72201 72204 72207 72210 72213 72216 72219 72222 72225 72228 72231 72234 72237 72240 72243 72246 72249 72252 72255 72258 72261 72264 72267 72270 72273 72276 72279 72282 72285 72288 72291 72294 72297 72300 72303 72306 72309 72312 72315 72318 72321 72324 72327 72330 72333 72336 72339 72342 72345 72348 72351 72354 72357 72360 72363 72366 72369 72372 72375 72378 72381 72384 72387 72390 72393 72396 72399 72402 72405 72408 72411 72414 72417 72420 72423 72426 72429 72432 72435 72438 72441 72444 72447 72450 72453 72456 72459 72462 72465 72468 72471 72474 72477 72480 72483 72486 72489 72492 72495 72498 72501 72504 72507 72510 72513 72516 72519 72522 72525 72528 72531 72534 72537 72540 72543 72546 72549 72552 72555 72558 72561 72564 72567 72570 72573 72576 72579 72582 72585 72588 72591 72594 72597 72600 72603 72606 72609 72612 72615 72618 72621 72624 72627 72630 72633 72636 72639 72642 72645 72648 72651 72654 72657 72660 72663 72666 72669 72672 72675 72678 72681 72684 72687 72690 72693 72696 72699 72702 72705 72708 72711 72714 72717 72720 72723 72726 72729 72732 72735 72738 72741 72744 72747 72750 72753 72756 72759 72762 72765 72768 72771 72774 72777 72780 72783 72786 72789 72792 72795 72798 72801 72804 72807 72810 72813 72816 72819 72822 72825 72828 72831 72834 72837 72840 72843 72846 72849 72852 72855 72858 72861 72864 72867 72870 72873 72876 72879 72882 72885 72888 72891 72894 72897 72900 72903 72906 72909 72912 72915 72918 72921 72924 72927 72930 72933 72936 72939 72942 72945 72948 72951 72954 72957 72960 72963 72966 72969 72972 72975 72978 72981 72984 72987 72990 72993 72996 72999 73002 73005 73008 73011 73014 73017 73020 73023 73026 73029 73032 73035 73038 73041 73044 73047 73050 73053 73056 73059 73062 73065 73068 73071 73074 73077 73080 73083 73086 73089 73092 73095 73098 73101 73104 73107 73110 73113 73116 73119 73122 73125 73128 73131 73134 73137 73140 73143 73146 73149 73152 73155 73158 73161 73164 73167 73170 73173 73176 73179 73182 73185 73188 73191 73194 73197 73200 73203 73206 73209 73212 73215 73218 73221 73224 73227 73230 73233 73236 73239 73242 73245 73248 73251 73254 73257 73260 73263 73266 73269 73272 73275 73278 73281 73284 73287 73290 73293 73296 73299 73302 73305 73308 73311 73314 73317 73320 73323 73326 73329 73332 73335 73338 73341 73344 73347 73350 73353 73356 73359 73362 73365 73368 73371 73374 73377 73380 73383 73386 73389 73392 73395 73398 73401 73404 73407 73410 73413 73416 73419 73422 73425 73428 73431 73434 73437 73440 73443 73446 73449 73452 73455 73458 73461 73464 73467 73470 73473 73476 73479 73482 73485 73488 73491 73494 73497 73500 73503 73506 73509 73512 73515 73518 73521 73524 73527 73530 73533 73536 73539 73542 73545 73548 73551 73554 73557 73560 73563 73566 73569 73572 73575 73578 73581 73584 73587 73590 73593 73596 73599 73602 73605 73608 73611 73614 73617 73620 73623 73626 73629 73632 73635 73638 73641 73644 73647 73650 73653 73656 73659 73662 73665 73668 73671 73674 73677 73680 73683 73686 73689 73692 73695 73698 73701 73704 73707 73710 73713 73716 73719 73722 73725 73728 73731 73734 73737 73740 73743 73746 73749 73752 73755 73758 73761 73764 73767 73770 73773 73776 73779 73782 73785 73788 73791 73794 73797 73800 73803 73806 73809 73812 73815 73818 73821 73824 73827 73830 73833 73836 73839 73842 73845 73848 73851 73854 73857 73860 73863 73866 73869 73872 73875 73878 73881 73884 73887 73890 73893 73896 73899 73902 73905 73908 73911 73914 73917 73920 73923 73926 73929 73932 73935 73938 73941 73944 73947 73950 73953 73956 73959 73962 73965 73968 73971 73974 73977 73980 73983 73986 73989 73992 73995 73998 74001 74004 74007 74010 74013 74016 74019 74022 74025 74028 74031 74034 74037 74040 74043 74046 74049 74052 74055 74058 74061 74064 74067 74070 74073 74076 74079 74082 74085 74088 74091 74094 74097 74100 74103 74106 74109 74112 74115 74118 74121 74124 74127 74130 74133 74136 74139 74142 74145 74148 74151 74154 74157 74160 74163 74166 74169 74172 74175 74178 74181 74184 74187 74190 74193 74196 74199 74202 74205 74208 74211 74214 74217 74220 74223 74226 74229 74232 74235 74238 74241 74244 74247 74250 74253 74256 74259 74262 74265 74268 74271 74274 74277 74280 74283 74286 74289 74292 74295 74298 74301 74304 74307 74310 74313 74316 74319 74322 74325 74328 74331 74334 74337 74340 74343 74346 74349 74352 74355 74358 74361 74364 74367 74370 74373 74376 74379 74382 74385 74388 74391 74394 74397 74400 74403 74406 74409 74412 74415 74418 74421 74424 74427 74430 74433 74436 74439 74442 74445 74448 74451 74454 74457 74460 74463 74466 74469 74472 74475 74478 74481 74484 74487 74490 74493 74496 74499 74502 74505 74508 74511 74514 74517 74520 74523 74526 74529 74532 74535 74538 74541 74544 74547 74550 74553 74556 74559 74562 74565 74568 74571 74574 74577 74580 74583 74586 74589 74592 74595 74598 74601 74604 74607 74610 74613 74616 74619 74622 74625 74628 74631 74634 74637 74640 74643 74646 74649 74652 74655 74658 74661 74664 74667 74670 74673 74676 74679 74682 74685 74688 74691 74694 74697 74700 74703 74706 74709 74712 74715 74718 74721 74724 74727 74730 74733 74736 74739 74742 74745 74748 74751 74754 74757 74760 74763 74766 74769 74772 74775 74778 74781 74784 74787 74790 74793 74796 74799 74802 74805 74808 74811 74814 74817 74820 74823 74826 74829 74832 74835 74838 74841 74844 74847 74850 74853 74856 74859 74862 74865 74868 74871 74874 74877 74880 74883 74886 74889 74892 74895 74898 74901 74904 74907 74910 74913 74916 74919 74922 74925 74928 74931 74934 74937 74940 74943 74946 74949 74952 74955 74958 74961 74964 74967 74970 74973 74976 74979 74982 74985 74988 74991 74994 74997 75000 75003 75006 75009 75012 75015 75018 75021 75024 75027 75030 75033 75036 75039 75042 75045 75048 75051 75054 75057 75060 75063 75066 75069 75072 75075 75078 75081 75084 75087 75090 75093 75096 75099 75102 75105 75108 75111 75114 75117 75120 75123 75126 75129 75132 75135 75138 75141 75144 75147 75150 75153 75156 75159 75162 75165 75168 75171 75174 75177 75180 75183 75186 75189 75192 75195 75198 75201 75204 75207 75210 75213 75216 75219 75222 75225 75228 75231 75234 75237 75240 75243 75246 75249 75252 75255 75258 75261 75264 75267 75270 75273 75276 75279 75282 75285 75288 75291 75294 75297 75300 75303 75306 75309 75312 75315 75318 75321 75324 75327 75330 75333 75336 75339 75342 75345 75348 75351 75354 75357 75360 75363 75366 75369 75372 75375 75378 75381 75384 75387 75390 75393 75396 75399 75402 75405 75408 75411 75414 75417 75420 75423 75426 75429 75432 75435 75438 75441 75444 75447 75450 75453 75456 75459 75462 75465 75468 75471 75474 75477 75480 75483 75486 75489 75492 75495 75498 75501 75504 75507 75510 75513 75516 75519 75522 75525 75528 75531 75534 75537 75540 75543 75546 75549 75552 75555 75558 75561 75564 75567 75570 75573 75576 75579 75582 75585 75588 75591 75594 75597 75600 75603 75606 75609 75612 75615 75618 75621 75624 75627 75630 75633 75636 75639 75642 75645 75648 75651 75654 75657 75660 75663 75666 75669 75672 75675 75678 75681 75684 75687 75690 75693 75696 75699 75702 75705 75708 75711 75714 75717 75720 75723 75726 75729 75732 75735 75738 75741 75744 75747 75750 75753 75756 75759 75762 75765 75768 75771 75774 75777 75780 75783 75786 75789 75792 75795 75798 75801 75804 75807 75810 75813 75816 75819 75822 75825 75828 75831 75834 75837 75840 75843 75846 75849 75852 75855 75858 75861 75864 75867 75870 75873 75876 75879 75882 75885 75888 75891 75894 75897 75900 75903 75906 75909 75912 75915 75918 75921 75924 75927 75930 75933 75936 75939 75942 75945 75948 75951 75954 75957 75960 75963 75966 75969 75972 75975 75978 75981 75984 75987 75990 75993 75996 75999 76002 76005 76008 76011 76014 76017 76020 76023 76026 76029 76032 76035 76038 76041 76044 76047 76050 76053 76056 76059 76062 76065 76068 76071 76074 76077 76080 76083 76086 76089 76092 76095 76098 76101 76104 76107 76110 76113 76116 76119 76122 76125 76128 76131 76134 76137 76140 76143 76146 76149 76152 76155 76158 76161 76164 76167 76170 76173 76176 76179 76182 76185 76188 76191 76194 76197 76200 76203 76206 76209 76212 76215 76218 76221 76224 76227 76230 76233 76236 76239 76242 76245 76248 76251 76254 76257 76260 76263 76266 76269 76272 76275 76278 76281 76284 76287 76290 76293 76296 76299 76302 76305 76308 76311 76314 76317 76320 76323 76326 76329 76332 76335 76338 76341 76344 76347 76350 76353 76356 76359 76362 76365 76368 76371 76374 76377 76380 76383 76386 76389 76392 76395 76398 76401 76404 76407 76410 76413 76416 76419 76422 76425 76428 76431 76434 76437 76440 76443 76446 76449 76452 76455 76458 76461 76464 76467 76470 76473 76476 76479 76482 76485 76488 76491 76494 76497 76500 76503 76506 76509 76512 76515 76518 76521 76524 76527 76530 76533 76536 76539 76542 76545 76548 76551 76554 76557 76560 76563 76566 76569 76572 76575 76578 76581 76584 76587 76590 76593 76596 76599 76602 76605 76608 76611 76614 76617 76620 76623 76626 76629 76632 76635 76638 76641 76644 76647 76650 76653 76656 76659 76662 76665 76668 76671 76674 76677 76680 76683 76686 76689 76692 76695 76698 76701 76704 76707 76710 76713 76716 76719 76722 76725 76728 76731 76734 76737 76740 76743 76746 76749 76752 76755 76758 76761 76764 76767 76770 76773 76776 76779 76782 76785 76788 76791 76794 76797 76800 76803 76806 76809 76812 76815 76818 76821 76824 76827 76830 76833 76836 76839 76842 76845 76848 76851 76854 76857 76860 76863 76866 76869 76872 76875 76878 76881 76884 76887 76890 76893 76896 76899 76902 76905 76908 76911 76914 76917 76920 76923 76926 76929 76932 76935 76938 76941 76944 76947 76950 76953 76956 76959 76962 76965 76968 76971 76974 76977 76980 76983 76986 76989 76992 76995 76998 77001 77004 77007 77010 77013 77016 77019 77022 77025 77028 77031 77034 77037 77040 77043 77046 77049 77052 77055 77058 77061 77064 77067 77070 77073 77076 77079 77082 77085 77088 77091 77094 77097 77100 77103 77106 77109 77112 77115 77118 77121 77124 77127 77130 77133 77136 77139 77142 77145 77148 77151 77154 77157 77160 77163 77166 77169 77172 77175 77178 77181 77184 77187 77190 77193 77196 77199 77202 77205 77208 77211 77214 77217 77220 77223 77226 77229 77232 77235 77238 77241 77244 77247 77250 77253 77256 77259 77262 77265 77268 77271 77274 77277 77280 77283 77286 77289 77292 77295 77298 77301 77304 77307 77310 77313 77316 77319 77322 77325 77328 77331 77334 77337 77340 77343 77346 77349 77352 77355 77358 77361 77364 77367 77370 77373 77376 77379 77382 77385 77388 77391 77394 77397 77400 77403 77406 77409 77412 77415 77418 77421 77424 77427 77430 77433 77436 77439 77442 77445 77448 77451 77454 77457 77460 77463 77466 77469 77472 77475 77478 77481 77484 77487 77490 77493 77496 77499 77502 77505 77508 77511 77514 77517 77520 77523 77526 77529 77532 77535 77538 77541 77544 77547 77550 77553 77556 77559 77562 77565 77568 77571 77574 77577 77580 77583 77586 77589 77592 77595 77598 77601 77604 77607 77610 77613 77616 77619 77622 77625 77628 77631 77634 77637 77640 77643 77646 77649 77652 77655 77658 77661 77664 77667 77670 77673 77676 77679 77682 77685 77688 77691 77694 77697 77700 77703 77706 77709 77712 77715 77718 77721 77724 77727 77730 77733 77736 77739 77742 77745 77748 77751 77754 77757 77760 77763 77766 77769 77772 77775 77778 77781 77784 77787 77790 77793 77796 77799 77802 77805 77808 77811 77814 77817 77820 77823 77826 77829 77832 77835 77838 77841 77844 77847 77850 77853 77856 77859 77862 77865 77868 77871 77874 77877 77880 77883 77886 77889 77892 77895 77898 77901 77904 77907 77910 77913 77916 77919 77922 77925 77928 77931 77934 77937 77940 77943 77946 77949 77952 77955 77958 77961 77964 77967 77970 77973 77976 77979 77982 77985 77988 77991 77994 77997 78000 78003 78006 78009 78012 78015 78018 78021 78024 78027 78030 78033 78036 78039 78042 78045 78048 78051 78054 78057 78060 78063 78066 78069 78072 78075 78078 78081 78084 78087 78090 78093 78096 78099 78102 78105 78108 78111 78114 78117 78120 78123 78126 78129 78132 78135 78138 78141 78144 78147 78150 78153 78156 78159 78162 78165 78168 78171 78174 78177 78180 78183 78186 78189 78192 78195 78198 78201 78204 78207 78210 78213 78216 78219 78222 78225 78228 78231 78234 78237 78240 78243 78246 78249 78252 78255 78258 78261 78264 78267 78270 78273 78276 78279 78282 78285 78288 78291 78294 78297 78300 78303 78306 78309 78312 78315 78318 78321 78324 78327 78330 78333 78336 78339 78342 78345 78348 78351 78354 78357 78360 78363 78366 78369 78372 78375 78378 78381 78384 78387 78390 78393 78396 78399 78402 78405 78408 78411 78414 78417 78420 78423 78426 78429 78432 78435 78438 78441 78444 78447 78450 78453 78456 78459 78462 78465 78468 78471 78474 78477 78480 78483 78486 78489 78492 78495 78498 78501 78504 78507 78510 78513 78516 78519 78522 78525 78528 78531 78534 78537 78540 78543 78546 78549 78552 78555 78558 78561 78564 78567 78570 78573 78576 78579 78582 78585 78588 78591 78594 78597 78600 78603 78606 78609 78612 78615 78618 78621 78624 78627 78630 78633 78636 78639 78642 78645 78648 78651 78654 78657 78660 78663 78666 78669 78672 78675 78678 78681 78684 78687 78690 78693 78696 78699 78702 78705 78708 78711 78714 78717 78720 78723 78726 78729 78732 78735 78738 78741 78744 78747 78750 78753 78756 78759 78762 78765 78768 78771 78774 78777 78780 78783 78786 78789 78792 78795 78798 78801 78804 78807 78810 78813 78816 78819 78822 78825 78828 78831 78834 78837 78840 78843 78846 78849 78852 78855 78858 78861 78864 78867 78870 78873 78876 78879 78882 78885 78888 78891 78894 78897 78900 78903 78906 78909 78912 78915 78918 78921 78924 78927 78930 78933 78936 78939 78942 78945 78948 78951 78954 78957 78960 78963 78966 78969 78972 78975 78978 78981 78984 78987 78990 78993 78996 78999 79002 79005 79008 79011 79014 79017 79020 79023 79026 79029 79032 79035 79038 79041 79044 79047 79050 79053 79056 79059 79062 79065 79068 79071 79074 79077 79080 79083 79086 79089 79092 79095 79098 79101 79104 79107 79110 79113 79116 79119 79122 79125 79128 79131 79134 79137 79140 79143 79146 79149 79152 79155 79158 79161 79164 79167 79170 79173 79176 79179 79182 79185 79188 79191 79194 79197 79200 79203 79206 79209 79212 79215 79218 79221 79224 79227 79230 79233 79236 79239 79242 79245 79248 79251 79254 79257 79260 79263 79266 79269 79272 79275 79278 79281 79284 79287 79290 79293 79296 79299 79302 79305 79308 79311 79314 79317 79320 79323 79326 79329 79332 79335 79338 79341 79344 79347 79350 79353 79356 79359 79362 79365 79368 79371 79374 79377 79380 79383 79386 79389 79392 79395 79398 79401 79404 79407 79410 79413 79416 79419 79422 79425 79428 79431 79434 79437 79440 79443 79446 79449 79452 79455 79458 79461 79464 79467 79470 79473 79476 79479 79482 79485 79488 79491 79494 79497 79500 79503 79506 79509 79512 79515 79518 79521 79524 79527 79530 79533 79536 79539 79542 79545 79548 79551 79554 79557 79560 79563 79566 79569 79572 79575 79578 79581 79584 79587 79590 79593 79596 79599 79602 79605 79608 79611 79614 79617 79620 79623 79626 79629 79632 79635 79638 79641 79644 79647 79650 79653 79656 79659 79662 79665 79668 79671 79674 79677 79680 79683 79686 79689 79692 79695 79698 79701 79704 79707 79710 79713 79716 79719 79722 79725 79728 79731 79734 79737 79740 79743 79746 79749 79752 79755 79758 79761 79764 79767 79770 79773 79776 79779 79782 79785 79788 79791 79794 79797 79800 79803 79806 79809 79812 79815 79818 79821 79824 79827 79830 79833 79836 79839 79842 79845 79848 79851 79854 79857 79860 79863 79866 79869 79872 79875 79878 79881 79884 79887 79890 79893 79896 79899 79902 79905 79908 79911 79914 79917 79920 79923 79926 79929 79932 79935 79938 79941 79944 79947 79950 79953 79956 79959 79962 79965 79968 79971 79974 79977 79980 79983 79986 79989 79992 79995 79998 80001 80004 80007 80010 80013 80016 80019 80022 80025 80028 80031 80034 80037 80040 80043 80046 80049 80052 80055 80058 80061 80064 80067 80070 80073 80076 80079 80082 80085 80088 80091 80094 80097 80100 80103 80106 80109 80112 80115 80118 80121 80124 80127 80130 80133 80136 80139 80142 80145 80148 80151 80154 80157 80160 80163 80166 80169 80172 80175 80178 80181 80184 80187 80190 80193 80196 80199 80202 80205 80208 80211 80214 80217 80220 80223 80226 80229 80232 80235 80238 80241 80244 80247 80250 80253 80256 80259 80262 80265 80268 80271 80274 80277 80280 80283 80286 80289 80292 80295 80298 80301 80304 80307 80310 80313 80316 80319 80322 80325 80328 80331 80334 80337 80340 80343 80346 80349 80352 80355 80358 80361 80364 80367 80370 80373 80376 80379 80382 80385 80388 80391 80394 80397 80400 80403 80406 80409 80412 80415 80418 80421 80424 80427 80430 80433 80436 80439 80442 80445 80448 80451 80454 80457 80460 80463 80466 80469 80472 80475 80478 80481 80484 80487 80490 80493 80496 80499 80502 80505 80508 80511 80514 80517 80520 80523 80526 80529 80532 80535 80538 80541 80544 80547 80550 80553 80556 80559 80562 80565 80568 80571 80574 80577 80580 80583 80586 80589 80592 80595 80598 80601 80604 80607 80610 80613 80616 80619 80622 80625 80628 80631 80634 80637 80640 80643 80646 80649 80652 80655 80658 80661 80664 80667 80670 80673 80676 80679 80682 80685 80688 80691 80694 80697 80700 80703 80706 80709 80712 80715 80718 80721 80724 80727 80730 80733 80736 80739 80742 80745 80748 80751 80754 80757 80760 80763 80766 80769 80772 80775 80778 80781 80784 80787 80790 80793 80796 80799 80802 80805 80808 80811 80814 80817 80820 80823 80826 80829 80832 80835 80838 80841 80844 80847 80850 80853 80856 80859 80862 80865 80868 80871 80874 80877 80880 80883 80886 80889 80892 80895 80898 80901 80904 80907 80910 80913 80916 80919 80922 80925 80928 80931 80934 80937 80940 80943 80946 80949 80952 80955 80958 80961 80964 80967 80970 80973 80976 80979 80982 80985 80988 80991 80994 80997 81000 81003 81006 81009 81012 81015 81018 81021 81024 81027 81030 81033 81036 81039 81042 81045 81048 81051 81054 81057 81060 81063 81066 81069 81072 81075 81078 81081 81084 81087 81090 81093 81096 81099 81102 81105 81108 81111 81114 81117 81120 81123 81126 81129 81132 81135 81138 81141 81144 81147 81150 81153 81156 81159 81162 81165 81168 81171 81174 81177 81180 81183 81186 81189 81192 81195 81198 81201 81204 81207 81210 81213 81216 81219 81222 81225 81228 81231 81234 81237 81240 81243 81246 81249 81252 81255 81258 81261 81264 81267 81270 81273 81276 81279 81282 81285 81288 81291 81294 81297 81300 81303 81306 81309 81312 81315 81318 81321 81324 81327 81330 81333 81336 81339 81342 81345 81348 81351 81354 81357 81360 81363 81366 81369 81372 81375 81378 81381 81384 81387 81390 81393 81396 81399 81402 81405 81408 81411 81414 81417 81420 81423 81426 81429 81432 81435 81438 81441 81444 81447 81450 81453 81456 81459 81462 81465 81468 81471 81474 81477 81480 81483 81486 81489 81492 81495 81498 81501 81504 81507 81510 81513 81516 81519 81522 81525 81528 81531 81534 81537 81540 81543 81546 81549 81552 81555 81558 81561 81564 81567 81570 81573 81576 81579 81582 81585 81588 81591 81594 81597 81600 81603 81606 81609 81612 81615 81618 81621 81624 81627 81630 81633 81636 81639 81642 81645 81648 81651 81654 81657 81660 81663 81666 81669 81672 81675 81678 81681 81684 81687 81690 81693 81696 81699 81702 81705 81708 81711 81714 81717 81720 81723 81726 81729 81732 81735 81738 81741 81744 81747 81750 81753 81756 81759 81762 81765 81768 81771 81774 81777 81780 81783 81786 81789 81792 81795 81798 81801 81804 81807 81810 81813 81816 81819 81822 81825 81828 81831 81834 81837 81840 81843 81846 81849 81852 81855 81858 81861 81864 81867 81870 81873 81876 81879 81882 81885 81888 81891 81894 81897 81900 81903 81906 81909 81912 81915 81918 81921 81924 81927 81930 81933 81936 81939 81942 81945 81948 81951 81954 81957 81960 81963 81966 81969 81972 81975 81978 81981 81984 81987 81990 81993 81996 81999 82002 82005 82008 82011 82014 82017 82020 82023 82026 82029 82032 82035 82038 82041 82044 82047 82050 82053 82056 82059 82062 82065 82068 82071 82074 82077 82080 82083 82086 82089 82092 82095 82098 82101 82104 82107 82110 82113 82116 82119 82122 82125 82128 82131 82134 82137 82140 82143 82146 82149 82152 82155 82158 82161 82164 82167 82170 82173 82176 82179 82182 82185 82188 82191 82194 82197 82200 82203 82206 82209 82212 82215 82218 82221 82224 82227 82230 82233 82236 82239 82242 82245 82248 82251 82254 82257 82260 82263 82266 82269 82272 82275 82278 82281 82284 82287 82290 82293 82296 82299 82302 82305 82308 82311 82314 82317 82320 82323 82326 82329 82332 82335 82338 82341 82344 82347 82350 82353 82356 82359 82362 82365 82368 82371 82374 82377 82380 82383 82386 82389 82392 82395 82398 82401 82404 82407 82410 82413 82416 82419 82422 82425 82428 82431 82434 82437 82440 82443 82446 82449 82452 82455 82458 82461 82464 82467 82470 82473 82476 82479 82482 82485 82488 82491 82494 82497 82500 82503 82506 82509 82512 82515 82518 82521 82524 82527 82530 82533 82536 82539 82542 82545 82548 82551 82554 82557 82560 82563 82566 82569 82572 82575 82578 82581 82584 82587 82590 82593 82596 82599 82602 82605 82608 82611 82614 82617 82620 82623 82626 82629 82632 82635 82638 82641 82644 82647 82650 82653 82656 82659 82662 82665 82668 82671 82674 82677 82680 82683 82686 82689 82692 82695 82698 82701 82704 82707 82710 82713 82716 82719 82722 82725 82728 82731 82734 82737 82740 82743 82746 82749 82752 82755 82758 82761 82764 82767 82770 82773 82776 82779 82782 82785 82788 82791 82794 82797 82800 82803 82806 82809 82812 82815 82818 82821 82824 82827 82830 82833 82836 82839 82842 82845 82848 82851 82854 82857 82860 82863 82866 82869 82872 82875 82878 82881 82884 82887 82890 82893 82896 82899 82902 82905 82908 82911 82914 82917 82920 82923 82926 82929 82932 82935 82938 82941 82944 82947 82950 82953 82956 82959 82962 82965 82968 82971 82974 82977 82980 82983 82986 82989 82992 82995 82998 83001 83004 83007 83010 83013 83016 83019 83022 83025 83028 83031 83034 83037 83040 83043 83046 83049 83052 83055 83058 83061 83064 83067 83070 83073 83076 83079 83082 83085 83088 83091 83094 83097 83100 83103 83106 83109 83112 83115 83118 83121 83124 83127 83130 83133 83136 83139 83142 83145 83148 83151 83154 83157 83160 83163 83166 83169 83172 83175 83178 83181 83184 83187 83190 83193 83196 83199 83202 83205 83208 83211 83214 83217 83220 83223 83226 83229 83232 83235 83238 83241 83244 83247 83250 83253 83256 83259 83262 83265 83268 83271 83274 83277 83280 83283 83286 83289 83292 83295 83298 83301 83304 83307 83310 83313 83316 83319 83322 83325 83328 83331 83334 83337 83340 83343 83346 83349 83352 83355 83358 83361 83364 83367 83370 83373 83376 83379 83382 83385 83388 83391 83394 83397 83400 83403 83406 83409 83412 83415 83418 83421 83424 83427 83430 83433 83436 83439 83442 83445 83448 83451 83454 83457 83460 83463 83466 83469 83472 83475 83478 83481 83484 83487 83490 83493 83496 83499 83502 83505 83508 83511 83514 83517 83520 83523 83526 83529 83532 83535 83538 83541 83544 83547 83550 83553 83556 83559 83562 83565 83568 83571 83574 83577 83580 83583 83586 83589 83592 83595 83598 83601 83604 83607 83610 83613 83616 83619 83622 83625 83628 83631 83634 83637 83640 83643 83646 83649 83652 83655 83658 83661 83664 83667 83670 83673 83676 83679 83682 83685 83688 83691 83694 83697 83700 83703 83706 83709 83712 83715 83718 83721 83724 83727 83730 83733 83736 83739 83742 83745 83748 83751 83754 83757 83760 83763 83766 83769 83772 83775 83778 83781 83784 83787 83790 83793 83796 83799 83802 83805 83808 83811 83814 83817 83820 83823 83826 83829 83832 83835 83838 83841 83844 83847 83850 83853 83856 83859 83862 83865 83868 83871 83874 83877 83880 83883 83886 83889 83892 83895 83898 83901 83904 83907 83910 83913 83916 83919 83922 83925 83928 83931 83934 83937 83940 83943 83946 83949 83952 83955 83958 83961 83964 83967 83970 83973 83976 83979 83982 83985 83988 83991 83994 83997 84000 84003 84006 84009 84012 84015 84018 84021 84024 84027 84030 84033 84036 84039 84042 84045 84048 84051 84054 84057 84060 84063 84066 84069 84072 84075 84078 84081 84084 84087 84090 84093 84096 84099 84102 84105 84108 84111 84114 84117 84120 84123 84126 84129 84132 84135 84138 84141 84144 84147 84150 84153 84156 84159 84162 84165 84168 84171 84174 84177 84180 84183 84186 84189 84192 84195 84198 84201 84204 84207 84210 84213 84216 84219 84222 84225 84228 84231 84234 84237 84240 84243 84246 84249 84252 84255 84258 84261 84264 84267 84270 84273 84276 84279 84282 84285 84288 84291 84294 84297 84300 84303 84306 84309 84312 84315 84318 84321 84324 84327 84330 84333 84336 84339 84342 84345 84348 84351 84354 84357 84360 84363 84366 84369 84372 84375 84378 84381 84384 84387 84390 84393 84396 84399 84402 84405 84408 84411 84414 84417 84420 84423 84426 84429 84432 84435 84438 84441 84444 84447 84450 84453 84456 84459 84462 84465 84468 84471 84474 84477 84480 84483 84486 84489 84492 84495 84498 84501 84504 84507 84510 84513 84516 84519 84522 84525 84528 84531 84534 84537 84540 84543 84546 84549 84552 84555 84558 84561 84564 84567 84570 84573 84576 84579 84582 84585 84588 84591 84594 84597 84600 84603 84606 84609 84612 84615 84618 84621 84624 84627 84630 84633 84636 84639 84642 84645 84648 84651 84654 84657 84660 84663 84666 84669 84672 84675 84678 84681 84684 84687 84690 84693 84696 84699 84702 84705 84708 84711 84714 84717 84720 84723 84726 84729 84732 84735 84738 84741 84744 84747 84750 84753 84756 84759 84762 84765 84768 84771 84774 84777 84780 84783 84786 84789 84792 84795 84798 84801 84804 84807 84810 84813 84816 84819 84822 84825 84828 84831 84834 84837 84840 84843 84846 84849 84852 84855 84858 84861 84864 84867 84870 84873 84876 84879 84882 84885 84888 84891 84894 84897 84900 84903 84906 84909 84912 84915 84918 84921 84924 84927 84930 84933 84936 84939 84942 84945 84948 84951 84954 84957 84960 84963 84966 84969 84972 84975 84978 84981 84984 84987 84990 84993 84996 84999 85002 85005 85008 85011 85014 85017 85020 85023 85026 85029 85032 85035 85038 85041 85044 85047 85050 85053 85056 85059 85062 85065 85068 85071 85074 85077 85080 85083 85086 85089 85092 85095 85098 85101 85104 85107 85110 85113 85116 85119 85122 85125 85128 85131 85134 85137 85140 85143 85146 85149 85152 85155 85158 85161 85164 85167 85170 85173 85176 85179 85182 85185 85188 85191 85194 85197 85200 85203 85206 85209 85212 85215 85218 85221 85224 85227 85230 85233 85236 85239 85242 85245 85248 85251 85254 85257 85260 85263 85266 85269 85272 85275 85278 85281 85284 85287 85290 85293 85296 85299 85302 85305 85308 85311 85314 85317 85320 85323 85326 85329 85332 85335 85338 85341 85344 85347 85350 85353 85356 85359 85362 85365 85368 85371 85374 85377 85380 85383 85386 85389 85392 85395 85398 85401 85404 85407 85410 85413 85416 85419 85422 85425 85428 85431 85434 85437 85440 85443 85446 85449 85452 85455 85458 85461 85464 85467 85470 85473 85476 85479 85482 85485 85488 85491 85494 85497 85500 85503 85506 85509 85512 85515 85518 85521 85524 85527 85530 85533 85536 85539 85542 85545 85548 85551 85554 85557 85560 85563 85566 85569 85572 85575 85578 85581 85584 85587 85590 85593 85596 85599 85602 85605 85608 85611 85614 85617 85620 85623 85626 85629 85632 85635 85638 85641 85644 85647 85650 85653 85656 85659 85662 85665 85668 85671 85674 85677 85680 85683 85686 85689 85692 85695 85698 85701 85704 85707 85710 85713 85716 85719 85722 85725 85728 85731 85734 85737 85740 85743 85746 85749 85752 85755 85758 85761 85764 85767 85770 85773 85776 85779 85782 85785 85788 85791 85794 85797 85800 85803 85806 85809 85812 85815 85818 85821 85824 85827 85830 85833 85836 85839 85842 85845 85848 85851 85854 85857 85860 85863 85866 85869 85872 85875 85878 85881 85884 85887 85890 85893 85896 85899 85902 85905 85908 85911 85914 85917 85920 85923 85926 85929 85932 85935 85938 85941 85944 85947 85950 85953 85956 85959 85962 85965 85968 85971 85974 85977 85980 85983 85986 85989 85992 85995 85998 86001 86004 86007 86010 86013 86016 86019 86022 86025 86028 86031 86034 86037 86040 86043 86046 86049 86052 86055 86058 86061 86064 86067 86070 86073 86076 86079 86082 86085 86088 86091 86094 86097 86100 86103 86106 86109 86112 86115 86118 86121 86124 86127 86130 86133 86136 86139 86142 86145 86148 86151 86154 86157 86160 86163 86166 86169 86172 86175 86178 86181 86184 86187 86190 86193 86196 86199 86202 86205 86208 86211 86214 86217 86220 86223 86226 86229 86232 86235 86238 86241 86244 86247 86250 86253 86256 86259 86262 86265 86268 86271 86274 86277 86280 86283 86286 86289 86292 86295 86298 86301 86304 86307 86310 86313 86316 86319 86322 86325 86328 86331 86334 86337 86340 86343 86346 86349 86352 86355 86358 86361 86364 86367 86370 86373 86376 86379 86382 86385 86388 86391 86394 86397 86400 86403 86406 86409 86412 86415 86418 86421 86424 86427 86430 86433 86436 86439 86442 86445 86448 86451 86454 86457 86460 86463 86466 86469 86472 86475 86478 86481 86484 86487 86490 86493 86496 86499 86502 86505 86508 86511 86514 86517 86520 86523 86526 86529 86532 86535 86538 86541 86544 86547 86550 86553 86556 86559 86562 86565 86568 86571 86574 86577 86580 86583 86586 86589 86592 86595 86598 86601 86604 86607 86610 86613 86616 86619 86622 86625 86628 86631 86634 86637 86640 86643 86646 86649 86652 86655 86658 86661 86664 86667 86670 86673 86676 86679 86682 86685 86688 86691 86694 86697 86700 86703 86706 86709 86712 86715 86718 86721 86724 86727 86730 86733 86736 86739 86742 86745 86748 86751 86754 86757 86760 86763 86766 86769 86772 86775 86778 86781 86784 86787 86790 86793 86796 86799 86802 86805 86808 86811 86814 86817 86820 86823 86826 86829 86832 86835 86838 86841 86844 86847 86850 86853 86856 86859 86862 86865 86868 86871 86874 86877 86880 86883 86886 86889 86892 86895 86898 86901 86904 86907 86910 86913 86916 86919 86922 86925 86928 86931 86934 86937 86940 86943 86946 86949 86952 86955 86958 86961 86964 86967 86970 86973 86976 86979 86982 86985 86988 86991 86994 86997 87000 87003 87006 87009 87012 87015 87018 87021 87024 87027 87030 87033 87036 87039 87042 87045 87048 87051 87054 87057 87060 87063 87066 87069 87072 87075 87078 87081 87084 87087 87090 87093 87096 87099 87102 87105 87108 87111 87114 87117 87120 87123 87126 87129 87132 87135 87138 87141 87144 87147 87150 87153 87156 87159 87162 87165 87168 87171 87174 87177 87180 87183 87186 87189 87192 87195 87198 87201 87204 87207 87210 87213 87216 87219 87222 87225 87228 87231 87234 87237 87240 87243 87246 87249 87252 87255 87258 87261 87264 87267 87270 87273 87276 87279 87282 87285 87288 87291 87294 87297 87300 87303 87306 87309 87312 87315 87318 87321 87324 87327 87330 87333 87336 87339 87342 87345 87348 87351 87354 87357 87360 87363 87366 87369 87372 87375 87378 87381 87384 87387 87390 87393 87396 87399 87402 87405 87408 87411 87414 87417 87420 87423 87426 87429 87432 87435 87438 87441 87444 87447 87450 87453 87456 87459 87462 87465 87468 87471 87474 87477 87480 87483 87486 87489 87492 87495 87498 87501 87504 87507 87510 87513 87516 87519 87522 87525 87528 87531 87534 87537 87540 87543 87546 87549 87552 87555 87558 87561 87564 87567 87570 87573 87576 87579 87582 87585 87588 87591 87594 87597 87600 87603 87606 87609 87612 87615 87618 87621 87624 87627 87630 87633 87636 87639 87642 87645 87648 87651 87654 87657 87660 87663 87666 87669 87672 87675 87678 87681 87684 87687 87690 87693 87696 87699 87702 87705 87708 87711 87714 87717 87720 87723 87726 87729 87732 87735 87738 87741 87744 87747 87750 87753 87756 87759 87762 87765 87768 87771 87774 87777 87780 87783 87786 87789 87792 87795 87798 87801 87804 87807 87810 87813 87816 87819 87822 87825 87828 87831 87834 87837 87840 87843 87846 87849 87852 87855 87858 87861 87864 87867 87870 87873 87876 87879 87882 87885 87888 87891 87894 87897 87900 87903 87906 87909 87912 87915 87918 87921 87924 87927 87930 87933 87936 87939 87942 87945 87948 87951 87954 87957 87960 87963 87966 87969 87972 87975 87978 87981 87984 87987 87990 87993 87996 87999 88002 88005 88008 88011 88014 88017 88020 88023 88026 88029 88032 88035 88038 88041 88044 88047 88050 88053 88056 88059 88062 88065 88068 88071 88074 88077 88080 88083 88086 88089 88092 88095 88098 88101 88104 88107 88110 88113 88116 88119 88122 88125 88128 88131 88134 88137 88140 88143 88146 88149 88152 88155 88158 88161 88164 88167 88170 88173 88176 88179 88182 88185 88188 88191 88194 88197 88200 88203 88206 88209 88212 88215 88218 88221 88224 88227 88230 88233 88236 88239 88242 88245 88248 88251 88254 88257 88260 88263 88266 88269 88272 88275 88278 88281 88284 88287 88290 88293 88296 88299 88302 88305 88308 88311 88314 88317 88320 88323 88326 88329 88332 88335 88338 88341 88344 88347 88350 88353 88356 88359 88362 88365 88368 88371 88374 88377 88380 88383 88386 88389 88392 88395 88398 88401 88404 88407 88410 88413 88416 88419 88422 88425 88428 88431 88434 88437 88440 88443 88446 88449 88452 88455 88458 88461 88464 88467 88470 88473 88476 88479 88482 88485 88488 88491 88494 88497 88500 88503 88506 88509 88512 88515 88518 88521 88524 88527 88530 88533 88536 88539 88542 88545 88548 88551 88554 88557 88560 88563 88566 88569 88572 88575 88578 88581 88584 88587 88590 88593 88596 88599 88602 88605 88608 88611 88614 88617 88620 88623 88626 88629 88632 88635 88638 88641 88644 88647 88650 88653 88656 88659 88662 88665 88668 88671 88674 88677 88680 88683 88686 88689 88692 88695 88698 88701 88704 88707 88710 88713 88716 88719 88722 88725 88728 88731 88734 88737 88740 88743 88746 88749 88752 88755 88758 88761 88764 88767 88770 88773 88776 88779 88782 88785 88788 88791 88794 88797 88800 88803 88806 88809 88812 88815 88818 88821 88824 88827 88830 88833 88836 88839 88842 88845 88848 88851 88854 88857 88860 88863 88866 88869 88872 88875 88878 88881 88884 88887 88890 88893 88896 88899 88902 88905 88908 88911 88914 88917 88920 88923 88926 88929 88932 88935 88938 88941 88944 88947 88950 88953 88956 88959 88962 88965 88968 88971 88974 88977 88980 88983 88986 88989 88992 88995 88998 89001 89004 89007 89010 89013 89016 89019 89022 89025 89028 89031 89034 89037 89040 89043 89046 89049 89052 89055 89058 89061 89064 89067 89070 89073 89076 89079 89082 89085 89088 89091 89094 89097 89100 89103 89106 89109 89112 89115 89118 89121 89124 89127 89130 89133 89136 89139 89142 89145 89148 89151 89154 89157 89160 89163 89166 89169 89172 89175 89178 89181 89184 89187 89190 89193 89196 89199 89202 89205 89208 89211 89214 89217 89220 89223 89226 89229 89232 89235 89238 89241 89244 89247 89250 89253 89256 89259 89262 89265 89268 89271 89274 89277 89280 89283 89286 89289 89292 89295 89298 89301 89304 89307 89310 89313 89316 89319 89322 89325 89328 89331 89334 89337 89340 89343 89346 89349 89352 89355 89358 89361 89364 89367 89370 89373 89376 89379 89382 89385 89388 89391 89394 89397 89400 89403 89406 89409 89412 89415 89418 89421 89424 89427 89430 89433 89436 89439 89442 89445 89448 89451 89454 89457 89460 89463 89466 89469 89472 89475 89478 89481 89484 89487 89490 89493 89496 89499 89502 89505 89508 89511 89514 89517 89520 89523 89526 89529 89532 89535 89538 89541 89544 89547 89550 89553 89556 89559 89562 89565 89568 89571 89574 89577 89580 89583 89586 89589 89592 89595 89598 89601 89604 89607 89610 89613 89616 89619 89622 89625 89628 89631 89634 89637 89640 89643 89646 89649 89652 89655 89658 89661 89664 89667 89670 89673 89676 89679 89682 89685 89688 89691 89694 89697 89700 89703 89706 89709 89712 89715 89718 89721 89724 89727 89730 89733 89736 89739 89742 89745 89748 89751 89754 89757 89760 89763 89766 89769 89772 89775 89778 89781 89784 89787 89790 89793 89796 89799 89802 89805 89808 89811 89814 89817 89820 89823 89826 89829 89832 89835 89838 89841 89844 89847 89850 89853 89856 89859 89862 89865 89868 89871 89874 89877 89880 89883 89886 89889 89892 89895 89898 89901 89904 89907 89910 89913 89916 89919 89922 89925 89928 89931 89934 89937 89940 89943 89946 89949 89952 89955 89958 89961 89964 89967 89970 89973 89976 89979 89982 89985 89988 89991 89994 89997 90000 90003 90006 90009 90012 90015 90018 90021 90024 90027 90030 90033 90036 90039 90042 90045 90048 90051 90054 90057 90060 90063 90066 90069 90072 90075 90078 90081 90084 90087 90090 90093 90096 90099 90102 90105 90108 90111 90114 90117 90120 90123 90126 90129 90132 90135 90138 90141 90144 90147 90150 90153 90156 90159 90162 90165 90168 90171 90174 90177 90180 90183 90186 90189 90192 90195 90198 90201 90204 90207 90210 90213 90216 90219 90222 90225 90228 90231 90234 90237 90240 90243 90246 90249 90252 90255 90258 90261 90264 90267 90270 90273 90276 90279 90282 90285 90288 90291 90294 90297 90300 90303 90306 90309 90312 90315 90318 90321 90324 90327 90330 90333 90336 90339 90342 90345 90348 90351 90354 90357 90360 90363 90366 90369 90372 90375 90378 90381 90384 90387 90390 90393 90396 90399 90402 90405 90408 90411 90414 90417 90420 90423 90426 90429 90432 90435 90438 90441 90444 90447 90450 90453 90456 90459 90462 90465 90468 90471 90474 90477 90480 90483 90486 90489 90492 90495 90498 90501 90504 90507 90510 90513 90516 90519 90522 90525 90528 90531 90534 90537 90540 90543 90546 90549 90552 90555 90558 90561 90564 90567 90570 90573 90576 90579 90582 90585 90588 90591 90594 90597 90600 90603 90606 90609 90612 90615 90618 90621 90624 90627 90630 90633 90636 90639 90642 90645 90648 90651 90654 90657 90660 90663 90666 90669 90672 90675 90678 90681 90684 90687 90690 90693 90696 90699 90702 90705 90708 90711 90714 90717 90720 90723 90726 90729 90732 90735 90738 90741 90744 90747 90750 90753 90756 90759 90762 90765 90768 90771 90774 90777 90780 90783 90786 90789 90792 90795 90798 90801 90804 90807 90810 90813 90816 90819 90822 90825 90828 90831 90834 90837 90840 90843 90846 90849 90852 90855 90858 90861 90864 90867 90870 90873 90876 90879 90882 90885 90888 90891 90894 90897 90900 90903 90906 90909 90912 90915 90918 90921 90924 90927 90930 90933 90936 90939 90942 90945 90948 90951 90954 90957 90960 90963 90966 90969 90972 90975 90978 90981 90984 90987 90990 90993 90996 90999 91002 91005 91008 91011 91014 91017 91020 91023 91026 91029 91032 91035 91038 91041 91044 91047 91050 91053 91056 91059 91062 91065 91068 91071 91074 91077 91080 91083 91086 91089 91092 91095 91098 91101 91104 91107 91110 91113 91116 91119 91122 91125 91128 91131 91134 91137 91140 91143 91146 91149 91152 91155 91158 91161 91164 91167 91170 91173 91176 91179 91182 91185 91188 91191 91194 91197 91200 91203 91206 91209 91212 91215 91218 91221 91224 91227 91230 91233 91236 91239 91242 91245 91248 91251 91254 91257 91260 91263 91266 91269 91272 91275 91278 91281 91284 91287 91290 91293 91296 91299 91302 91305 91308 91311 91314 91317 91320 91323 91326 91329 91332 91335 91338 91341 91344 91347 91350 91353 91356 91359 91362 91365 91368 91371 91374 91377 91380 91383 91386 91389 91392 91395 91398 91401 91404 91407 91410 91413 91416 91419 91422 91425 91428 91431 91434 91437 91440 91443 91446 91449 91452 91455 91458 91461 91464 91467 91470 91473 91476 91479 91482 91485 91488 91491 91494 91497 91500 91503 91506 91509 91512 91515 91518 91521 91524 91527 91530 91533 91536 91539 91542 91545 91548 91551 91554 91557 91560 91563 91566 91569 91572 91575 91578 91581 91584 91587 91590 91593 91596 91599 91602 91605 91608 91611 91614 91617 91620 91623 91626 91629 91632 91635 91638 91641 91644 91647 91650 91653 91656 91659 91662 91665 91668 91671 91674 91677 91680 91683 91686 91689 91692 91695 91698 91701 91704 91707 91710 91713 91716 91719 91722 91725 91728 91731 91734 91737 91740 91743 91746 91749 91752 91755 91758 91761 91764 91767 91770 91773 91776 91779 91782 91785 91788 91791 91794 91797 91800 91803 91806 91809 91812 91815 91818 91821 91824 91827 91830 91833 91836 91839 91842 91845 91848 91851 91854 91857 91860 91863 91866 91869 91872 91875 91878 91881 91884 91887 91890 91893 91896 91899 91902 91905 91908 91911 91914 91917 91920 91923 91926 91929 91932 91935 91938 91941 91944 91947 91950 91953 91956 91959 91962 91965 91968 91971 91974 91977 91980 91983 91986 91989 91992 91995 91998 92001 92004 92007 92010 92013 92016 92019 92022 92025 92028 92031 92034 92037 92040 92043 92046 92049 92052 92055 92058 92061 92064 92067 92070 92073 92076 92079 92082 92085 92088 92091 92094 92097 92100 92103 92106 92109 92112 92115 92118 92121 92124 92127 92130 92133 92136 92139 92142 92145 92148 92151 92154 92157 92160 92163 92166 92169 92172 92175 92178 92181 92184 92187 92190 92193 92196 92199 92202 92205 92208 92211 92214 92217 92220 92223 92226 92229 92232 92235 92238 92241 92244 92247 92250 92253 92256 92259 92262 92265 92268 92271 92274 92277 92280 92283 92286 92289 92292 92295 92298 92301 92304 92307 92310 92313 92316 92319 92322 92325 92328 92331 92334 92337 92340 92343 92346 92349 92352 92355 92358 92361 92364 92367 92370 92373 92376 92379 92382 92385 92388 92391 92394 92397 92400 92403 92406 92409 92412 92415 92418 92421 92424 92427 92430 92433 92436 92439 92442 92445 92448 92451 92454 92457 92460 92463 92466 92469 92472 92475 92478 92481 92484 92487 92490 92493 92496 92499 92502 92505 92508 92511 92514 92517 92520 92523 92526 92529 92532 92535 92538 92541 92544 92547 92550 92553 92556 92559 92562 92565 92568 92571 92574 92577 92580 92583 92586 92589 92592 92595 92598 92601 92604 92607 92610 92613 92616 92619 92622 92625 92628 92631 92634 92637 92640 92643 92646 92649 92652 92655 92658 92661 92664 92667 92670 92673 92676 92679 92682 92685 92688 92691 92694 92697 92700 92703 92706 92709 92712 92715 92718 92721 92724 92727 92730 92733 92736 92739 92742 92745 92748 92751 92754 92757 92760 92763 92766 92769 92772 92775 92778 92781 92784 92787 92790 92793 92796 92799 92802 92805 92808 92811 92814 92817 92820 92823 92826 92829 92832 92835 92838 92841 92844 92847 92850 92853 92856 92859 92862 92865 92868 92871 92874 92877 92880 92883 92886 92889 92892 92895 92898 92901 92904 92907 92910 92913 92916 92919 92922 92925 92928 92931 92934 92937 92940 92943 92946 92949 92952 92955 92958 92961 92964 92967 92970 92973 92976 92979 92982 92985 92988 92991 92994 92997 93000 93003 93006 93009 93012 93015 93018 93021 93024 93027 93030 93033 93036 93039 93042 93045 93048 93051 93054 93057 93060 93063 93066 93069 93072 93075 93078 93081 93084 93087 93090 93093 93096 93099 93102 93105 93108 93111 93114 </DataArray>
<DataArray  type="UInt8"  Name="types"  format="ascii">5 5 5 5 5 5 5 5 5 5 5 5 5 5 5 5 5 5 5 5 5 5 5 5 5 5 5 5 5 5 5 5 5 5 5 5 5 5 5 5 5 5 5 5 5 5 5 5 5 5 5 5 5 5 5 5 5 5 5 5 5 5 5 5 5 5 5 5 5 5 5 5 5 5 5 5 5 5 5 5 5 5 5 5 5 5 5 5 5 5 5 5 5 5 5 5 5 5 5 5 5 5 5 5 5 5 5 5 5 5 5 5 5 5 5 5 5 5 5 5 5 5 5 5 5 5 5 5 5 5 5 5 5 5 5 5 5 5 5 5 5 5 5 5 5 5 5 5 5 5 5 5 5 5 5 5 5 5 5 5 5 5 5 5 5 5 5 5 5 5 5 5 5 5 5 5 5 5 5 5 5 5 5 5 5 5 5 5 5 5 5 5 5 5 5 5 5 5 5 5 5 5 5 5 5 5 5 5 5 5 5 5 5 5 5 5 5 5 5 5 5 5 5 5 5 5 5 5 5 5 5 5 5 5 5 5 5 5 5 5 5 5 5 5 5 5 5 5 5 5 5 5 5 5 5 5 5 5 5 5 5 5 5 5 5 5 5 5 5 5 5 5 5 5 5 5 5 5 5 5 5 5 5 5 5 5 5 5 5 5 5 5 5 5 5 5 5 5 5 5 5 5 5 5 5 5 5 5 5 5 5 5 5 5 5 5 5 5 5 5 5 5 5 5 5 5 5 5 5 5 5 5 5 5 5 5 5 5 5 5 5 5 5 5 5 5 5 5 5 5 5 5 5 5 5 5 5 5 5 5 5 5 5 5 5 5 5 5 5 5 5 5 5 5 5 5 5 5 5 5 5 5 5 5 5 5 5 5 5 5 5 5 5 5 5 5 5 5 5 5 5 5 5 5 5 5 5 5 5 5 5 5 5 5 5 5 5 5 5 5 5 5 5 5 5 5 5 5 5 5 5 5 5 5 5 5 5 5 5 5 5 5 5 5 5 5 5 5 5 5 5 5 5 5 5 5 5 5 5 5 5 5 5 5 5 5 5 5 5 5 5 5 5 5 5 5 5 5 5 5 5 5 5 5 5 5 5 5 5 5 5 5 5 5 5 5 5 5 5 5 5 5 5 5 5 5 5 5 5 5 5 5 5 5 5 5 5 5 5 5 5 5 5 5 5 5 5 5 5 5 5 5 5 5 5 5 5 5 5 5 5 5 5 5 5 5 5 5 5 5 5 5 5 5 5 5 5 5 5 5 5 5 5 5 5 5 5 5 5 5 5 5 5 5 5 5 5 5 5 5 5 5 5 5 5 5 5 5 5 5 5 5 5 5 5 5 5 5 5 5 5 5 5 5 5 5 5 5 5 5 5 5 5 5 5 5 5 5 5 5 5 5 5 5 5 5 5 5 5 5 5 5 5 5 5 5 5 5 5 5 5 5 5 5 5 5 5 5 5 5 5 5 5 5 5 5 5 5 5 5 5 5 5 5 5 5 5 5 5 5 5 5 5 5 5 5 5 5 5 5 5 5 5 5 5 5 5 5 5 5 5 5 5 5 5 5 5 5 5 5 5 5 5 5 5 5 5 5 5 5 5 5 5 5 5 5 5 5 5 5 5 5 5 5 5 5 5 5 5 5 5 5 5 5 5 5 5 5 5 5 5 5 5 5 5 5 5 5 5 5 5 5 5 5 5 5 5 5 5 5 5 5 5 5 5 5 5 5 5 5 5 5 5 5 5 5 5 5 5 5 5 5 5 5 5 5 5 5 5 5 5 5 5 5 5 5 5 5 5 5 5 5 5 5 5 5 5 5 5 5 5 5 5 5 5 5 5 5 5 5 5 5 5 5 5 5 5 5 5 5 5 5 5 5 5 5 5 5 5 5 5 5 5 5 5 5 5 5 5 5 5 5 5 5 5 5 5 5 5 5 5 5 5 5 5 5 5 5 5 5 5 5 5 5 5 5 5 5 5 5 5 5 5 5 5 5 5 5 5 5 5 5 5 5 5 5 5 5 5 5 5 5 5 5 5 5 5 5 5 5 5 5 5 5 5 5 5 5 5 5 5 5 5 5 5 5 5 5 5 5 5 5 5 5 5 5 5 5 5 5 5 5 5 5 5 5 5 5 5 5 5 5 5 5 5 5 5 5 5 5 5 5 5 5 5 5 5 5 5 5 5 5 5 5 5 5 5 5 5 5 5 5 5 5 5 5 5 5 5 5 5 5 5 5 5 5 5 5 5 5 5 5 5 5 5 5 5 5 5 5 5 5 5 5 5 5 5 5 5 5 5 5 5 5 5 5 5 5 5 5 5 5 5 5 5 5 5 5 5 5 5 5 5 5 5 5 5 5 5 5 5 5 5 5 5 5 5 5 5 5 5 5 5 5 5 5 5 5 5 5 5 5 5 5 5 5 5 5 5 5 5 5 5 5 5 5 5 5 5 5 5 5 5 5 5 5 5 5 5 5 5 5 5 5 5 5 5 5 5 5 5 5 5 5 5 5 5 5 5 5 5 5 5 5 5 5 5 5 5 5 5 5 5 5 5 5 5 5 5 5 5 5 5 5 5 5 5 5 5 5 5 5 5 5 5 5 5 5 5 5 5 5 5 5 5 5 5 5 5 5 5 5 5 5 5 5 5 5 5 5 5 5 5 5 5 5 5 5 5 5 5 5 5 5 5 5 5 5 5 5 5 5 5 5 5 5 5 5 5 5 5 5 5 5 5 5 5 5 5 5 5 5 5 5 5 5 5 5 5 5 5 5 5 5 5 5 5 5 5 5 5 5 5 5 5 5 5 5 5 5 5 5 5 5 5 5 5 5 5 5 5 5 5 5 5 5 5 5 5 5 5 5 5 5 5 5 5 5 5 5 5 5 5 5 5 5 5 5 5 5 5 5 5 5 5 5 5 5 5 5 5 5 5 5 5 5 5 5 5 5 5 5 5 5 5 5 5 5 5 5 5 5 5 5 5 5 5 5 5 5 5 5 5 5 5 5 5 5 5 5 5 5 5 5 5 5 5 5 5 5 5 5 5 5 5 5 5 5 5 5 5 5 5 5 5 5 5 5 5 5 5 5 5 5 5 5 5 5 5 5 5 5 5 5 5 5 5 5 5 5 5 5 5 5 5 5 5 5 5 5 5 5 5 5 5 5 5 5 5 5 5 5 5 5 5 5 5 5 5 5 5 5 5 5 5 5 5 5 5 5 5 5 5 5 5 5 5 5 5 5 5 5 5 5 5 5 5 5 5 5 5 5 5 5 5 5 5 5 5 5 5 5 5 5 5 5 5 5 5 5 5 5 5 5 5 5 5 5 5 5 5 5 5 5 5 5 5 5 5 5 5 5 5 5 5 5 5 5 5 5 5 5 5 5 5 5 5 5 5 5 5 5 5 5 5 5 5 5 5 5 5 5 5 5 5 5 5 5 5 5 5 5 5 5 5 5 5 5 5 5 5 5 5 5 5 5 5 5 5 5 5 5 5 5 5 5 5 5 5 5 5 5 5 5 5 5 5 5 5 5 5 5 5 5 5 5 5 5 5 5 5 5 5 5 5 5 5 5 5 5 5 5 5 5 5 5 5 5 5 5 5 5 5 5 5 5 5 5 5 5 5 5 5 5 5 5 5 5 5 5 5 5 5 5 5 5 5 5 5 5 5 5 5 5 5 5 5 5 5 5 5 5 5 5 5 5 5 5 5 5 5 5 5 5 5 5 5 5 5 5 5 5 5 5 5 5 5 5 5 5 5 5 5 5 5 5 5 5 5 5 5 5 5 5 5 5 5 5 5 5 5 5 5 5 5 5 5 5 5 5 5 5 5 5 5 5 5 5 5 5 5 5 5 5 5 5 5 5 5 5 5 5 5 5 5 5 5 5 5 5 5 5 5 5 5 5 5 5 5 5 5 5 5 5 5 5 5 5 5 5 5 5 5 5 5 5 5 5 5 5 5 5 5 5 5 5 5 5 5 5 5 5 5 5 5 5 5 5 5 5 5 5 5 5 5 5 5 5 5 5 5 5 5 5 5 5 5 5 5 5 5 5 5 5 5 5 5 5 5 5 5 5 5 5 5 5 5 5 5 5 5 5 5 5 5 5 5 5 5 5 5 5 5 5 5 5 5 5 5 5 5 5 5 5 5 5 5 5 5 5 5 5 5 5 5 5 5 5 5 5 5 5 5 5 5 5 5 5 5 5 5 5 5 5 5 5 5 5 5 5 5 5 5 5 5 5 5 5 5 5 5 5 5 5 5 5 5 5 5 5 5 5 5 5 5 5 5 5 5 5 5 5 5 5 5 5 5 5 5 5 5 5 5 5 5 5 5 5 5 5 5 5 5 5 5 5 5 5 5 5 5 5 5 5 5 5 5 5 5 5 5 5 5 5 5 5 5 5 5 5 5 5 5 5 5 5 5 5 5 5 5 5 5 5 5 5 5 5 5 5 5 5 5 5 5 5 5 5 5 5 5 5 5 5 5 5 5 5 5 5 5 5 5 5 5 5 5 5 5 5 5 5 5 5 5 5 5 5 5 5 5 5 5 5 5 5 5 5 5 5 5 5 5 5 5 5 5 5 5 5 5 5 5 5 5 5 5 5 5 5 5 5 5 5 5 5 5 5 5 5 5 5 5 5 5 5 5 5 5 5 5 5 5 5 5 5 5 5 5 5 5 5 5 5 5 5 5 5 5 5 5 5 5 5 5 5 5 5 5 5 5 5 5 5 5 5 5 5 5 5 5 5 5 5 5 5 5 5 5 5 5 5 5 5 5 5 5 5 5 5 5 5 5 5 5 5 5 5 5 5 5 5 5 5 5 5 5 5 5 5 5 5 5 5 5 5 5 5 5 5 5 5 5 5 5 5 5 5 5 5 5 5 5 5 5 5 5 5 5 5 5 5 5 5 5 5 5 5 5 5 5 5 5 5 5 5 5 5 5 5 5 5 5 5 5 5 5 5 5 5 5 5 5 5 5 5 5 5 5 5 5 5 5 5 5 5 5 5 5 5 5 5 5 5 5 5 5 5 5 5 5 5 5 5 5 5 5 5 5 5 5 5 5 5 5 5 5 5 5 5 5 5 5 5 5 5 5 5 5 5 5 5 5 5 5 5 5 5 5 5 5 5 5 5 5 5 5 5 5 5 5 5 5 5 5 5 5 5 5 5 5 5 5 5 5 5 5 5 5 5 5 5 5 5 5 5 5 5 5 5 5 5 5 5 5 5 5 5 5 5 5 5 5 5 5 5 5 5 5 5 5 5 5 5 5 5 5 5 5 5 5 5 5 5 5 5 5 5 5 5 5 5 5 5 5 5 5 5 5 5 5 5 5 5 5 5 5 5 5 5 5 5 5 5 5 5 5 5 5 5 5 5 5 5 5 5 5 5 5 5 5 5 5 5 5 5 5 5 5 5 5 5 5 5 5 5 5 5 5 5 5 5 5 5 5 5 5 5 5 5 5 5 5 5 5 5 5 5 5 5 5 5 5 5 5 5 5 5 5 5 5 5 5 5 5 5 5 5 5 5 5 5 5 5 5 5 5 5 5 5 5 5 5 5 5 5 5 5 5 5 5 5 5 5 5 5 5 5 5 5 5 5 5 5 5 5 5 5 5 5 5 5 5 5 5 5 5 5 5 5 5 5 5 5 5 5 5 5 5 5 5 5 5 5 5 5 5 5 5 5 5 5 5 5 5 5 5 5 5 5 5 5 5 5 5 5 5 5 5 5 5 5 5 5 5 5 5 5 5 5 5 5 5 5 5 5 5 5 5 5 5 5 5 5 5 5 5 5 5 5 5 5 5 5 5 5 5 5 5 5 5 5 5 5 5 5 5 5 5 5 5 5 5 5 5 5 5 5 5 5 5 5 5 5 5 5 5 5 5 5 5 5 5 5 5 5 5 5 5 5 5 5 5 5 5 5 5 5 5 5 5 5 5 5 5 5 5 5 5 5 5 5 5 5 5 5 5 5 5 5 5 5 5 5 5 5 5 5 5 5 5 5 5 5 5 5 5 5 5 5 5 5 5 5 5 5 5 5 5 5 5 5 5 5 5 5 5 5 5 5 5 5 5 5 5 5 5 5 5 5 5 5 5 5 5 5 5 5 5 5 5 5 5 5 5 5 5 5 5 5 5 5 5 5 5 5 5 5 5 5 5 5 5 5 5 5 5 5 5 5 5 5 5 5 5 5 5 5 5 5 5 5 5 5 5 5 5 5 5 5 5 5 5 5 5 5 5 5 5 5 5 5 5 5 5 5 5 5 5 5 5 5 5 5 5 5 5 5 5 5 5 5 5 5 5 5 5 5 5 5 5 5 5 5 5 5 5 5 5 5 5 5 5 5 5 5 5 5 5 5 5 5 5 5 5 5 5 5 5 5 5 5 5 5 5 5 5 5 5 5 5 5 5 5 5 5 5 5 5 5 5 5 5 5 5 5 5 5 5 5 5 5 5 5 5 5 5 5 5 5 5 5 5 5 5 5 5 5 5 5 5 5 5 5 5 5 5 5 5 5 5 5 5 5 5 5 5 5 5 5 5 5 5 5 5 5 5 5 5 5 5 5 5 5 5 5 5 5 5 5 5 5 5 5 5 5 5 5 5 5 5 5 5 5 5 5 5 5 5 5 5 5 5 5 5 5 5 5 5 5 5 5 5 5 5 5 5 5 5 5 5 5 5 5 5 5 5 5 5 5 5 5 5 5 5 5 5 5 5 5 5 5 5 5 5 5 5 5 5 5 5 5 5 5 5 5 5 5 5 5 5 5 5 5 5 5 5 5 5 5 5 5 5 5 5 5 5 5 5 5 5 5 5 5 5 5 5 5 5 5 5 5 5 5 5 5 5 5 5 5 5 5 5 5 5 5 5 5 5 5 5 5 5 5 5 5 5 5 5 5 5 5 5 5 5 5 5 5 5 5 5 5 5 5 5 5 5 5 5 5 5 5 5 5 5 5 5 5 5 5 5 5 5 5 5 5 5 5 5 5 5 5 5 5 5 5 5 5 5 5 5 5 5 5 5 5 5 5 5 5 5 5 5 5 5 5 5 5 5 5 5 5 5 5 5 5 5 5 5 5 5 5 5 5 5 5 5 5 5 5 5 5 5 5 5 5 5 5 5 5 5 5 5 5 5 5 5 5 5 5 5 5 5 5 5 5 5 5 5 5 5 5 5 5 5 5 5 5 5 5 5 5 5 5 5 5 5 5 5 5 5 5 5 5 5 5 5 5 5 5 5 5 5 5 5 5 5 5 5 5 5 5 5 5 5 5 5 5 5 5 5 5 5 5 5 5 5 5 5 5 5 5 5 5 5 5 5 5 5 5 5 5 5 5 5 5 5 5 5 5 5 5 5 5 5 5 5 5 5 5 5 5 5 5 5 5 5 5 5 5 5 5 5 5 5 5 5 5 5 5 5 5 5 5 5 5 5 5 5 5 5 5 5 5 5 5 5 5 5 5 5 5 5 5 5 5 5 5 5 5 5 5 5 5 5 5 5 5 5 5 5 5 5 5 5 5 5 5 5 5 5 5 5 5 5 5 5 5 5 5 5 5 5 5 5 5 5 5 5 5 5 5 5 5 5 5 5 5 5 5 5 5 5 5 5 5 5 5 5 5 5 5 5 5 5 5 5 5 5 5 5 5 5 5 5 5 5 5 5 5 5 5 5 5 5 5 5 5 5 5 5 5 5 5 5 5 5 5 5 5 5 5 5 5 5 5 5 5 5 5 5 5 5 5 5 5 5 5 5 5 5 5 5 5 5 5 5 5 5 5 5 5 5 5 5 5 5 5 5 5 5 5 5 5 5 5 5 5 5 5 5 5 5 5 5 5 5 5 5 5 5 5 5 5 5 5 5 5 5 5 5 5 5 5 5 5 5 5 5 5 5 5 5 5 5 5 5 5 5 5 5 5 5 5 5 5 5 5 5 5 5 5 5 5 5 5 5 5 5 5 5 5 5 5 5 5 5 5 5 5 5 5 5 5 5 5 5 5 5 5 5 5 5 5 5 5 5 5 5 5 5 5 5 5 5 5 5 5 5 5 5 5 5 5 5 5 5 5 5 5 5 5 5 5 5 5 5 5 5 5 5 5 5 5 5 5 5 5 5 5 5 5 5 5 5 5 5 5 5 5 5 5 5 5 5 5 5 5 5 5 5 5 5 5 5 5 5 5 5 5 5 5 5 5 5 5 5 5 5 5 5 5 5 5 5 5 5 5 5 5 5 5 5 5 5 5 5 5 5 5 5 5 5 5 5 5 5 5 5 5 5 5 5 5 5 5 5 5 5 5 5 5 5 5 5 5 5 5 5 5 5 5 5 5 5 5 5 5 5 5 5 5 5 5 5 5 5 5 5 5 5 5 5 5 5 5 5 5 5 5 5 5 5 5 5 5 5 5 5 5 5 5 5 5 5 5 5 5 5 5 5 5 5 5 5 5 5 5 5 5 5 5 5 5 5 5 5 5 5 5 5 5 5 5 5 5 5 5 5 5 5 5 5 5 5 5 5 5 5 5 5 5 5 5 5 5 5 5 5 5 5 5 5 5 5 5 5 5 5 5 5 5 5 5 5 5 5 5 5 5 5 5 5 5 5 5 5 5 5 5 5 5 5 5 5 5 5 5 5 5 5 5 5 5 5 5 5 5 5 5 5 5 5 5 5 5 5 5 5 5 5 5 5 5 5 5 5 5 5 5 5 5 5 5 5 5 5 5 5 5 5 5 5 5 5 5 5 5 5 5 5 5 5 5 5 5 5 5 5 5 5 5 5 5 5 5 5 5 5 5 5 5 5 5 5 5 5 5 5 5 5 5 5 5 5 5 5 5 5 5 5 5 5 5 5 5 5 5 5 5 5 5 5 5 5 5 5 5 5 5 5 5 5 5 5 5 5 5 5 5 5 5 5 5 5 5 5 5 5 5 5 5 5 5 5 5 5 5 5 5 5 5 5 5 5 5 5 5 5 5 5 5 5 5 5 5 5 5 5 5 5 5 5 5 5 5 5 5 5 5 5 5 5 5 5 5 5 5 5 5 5 5 5 5 5 5 5 5 5 5 5 5 5 5 5 5 5 5 5 5 5 5 5 5 5 5 5 5 5 5 5 5 5 5 5 5 5 5 5 5 5 5 5 5 5 5 5 5 5 5 5 5 5 5 5 5 5 5 5 5 5 5 5 5 5 5 5 5 5 5 5 5 5 5 5 5 5 5 5 5 5 5 5 5 5 5 5 5 5 5 5 5 5 5 5 5 5 5 5 5 5 5 5 5 5 5 5 5 5 5 5 5 5 5 5 5 5 5 5 5 5 5 5 5 5 5 5 5 5 5 5 5 5 5 5 5 5 5 5 5 5 5 5 5 5 5 5 5 5 5 5 5 5 5 5 5 5 5 5 5 5 5 5 5 5 5 5 5 5 5 5 5 5 5 5 5 5 5 5 5 5 5 5 5 5 5 5 5 5 5 5 5 5 5 5 5 5 5 5 5 5 5 5 5 5 5 5 5 5 5 5 5 5 5 5 5 5 5 5 5 5 5 5 5 5 5 5 5 5 5 5 5 5 5 5 5 5 5 5 5 5 5 5 5 5 5 5 5 5 5 5 5 5 5 5 5 5 5 5 5 5 5 5 5 5 5 5 5 5 5 5 5 5 5 5 5 5 5 5 5 5 5 5 5 5 5 5 5 5 5 5 5 5 5 5 5 5 5 5 5 5 5 5 5 5 5 5 5 5 5 5 5 5 5 5 5 5 5 5 5 5 5 5 5 5 5 5 5 5 5 5 5 5 5 5 5 5 5 5 5 5 5 5 5 5 5 5 5 5 5 5 5 5 5 5 5 5 5 5 5 5 5 5 5 5 5 5 5 5 5 5 5 5 5 5 5 5 5 5 5 5 5 5 5 5 5 5 5 5 5 5 5 5 5 5 5 5 5 5 5 5 5 5 5 5 5 5 5 5 5 5 5 5 5 5 5 5 5 5 5 5 5 5 5 5 5 5 5 5 5 5 5 5 5 5 5 5 5 5 5 5 5 5 5 5 5 5 5 5 5 5 5 5 5 5 5 5 5 5 5 5 5 5 5 5 5 5 5 5 5 5 5 5 5 5 5 5 5 5 5 5 5 5 5 5 5 5 5 5 5 5 5 5 5 5 5 5 5 5 5 5 5 5 5 5 5 5 5 5 5 5 5 5 5 5 5 5 5 5 5 5 5 5 5 5 5 5 5 5 5 5 5 5 5 5 5 5 5 5 5 5 5 5 5 5 5 5 5 5 5 5 5 5 5 5 5 5 5 5 5 5 5 5 5 5 5 5 5 5 5 5 5 5 5 5 5 5 5 5 5 5 5 5 5 5 5 5 5 5 5 5 5 5 5 5 5 5 5 5 5 5 5 5 5 5 5 5 5 5 5 5 5 5 5 5 5 5 5 5 5 5 5 5 5 5 5 5 5 5 5 5 5 5 5 5 5 5 5 5 5 5 5 5 5 5 5 5 5 5 5 5 5 5 5 5 5 5 5 5 5 5 5 5 5 5 5 5 5 5 5 5 5 5 5 5 5 5 5 5 5 5 5 5 5 5 5 5 5 5 5 5 5 5 5 5 5 5 5 5 5 5 5 5 5 5 5 5 5 5 5 5 5 5 5 5 5 5 5 5 5 5 5 5 5 5 5 5 5 5 5 5 5 5 5 5 5 5 5 5 5 5 5 5 5 5 5 5 5 5 5 5 5 5 5 5 5 5 5 5 5 5 5 5 5 5 5 5 5 5 5 5 5 5 5 5 5 5 5 5 5 5 5 5 5 5 5 5 5 5 5 5 5 5 5 5 5 5 5 5 5 5 5 5 5 5 5 5 5 5 5 5 5 5 5 5 5 5 5 5 5 5 5 5 5 5 5 5 5 5 5 5 5 5 5 5 5 5 5 5 5 5 5 5 5 5 5 5 5 5 5 5 5 5 5 5 5 5 5 5 5 5 5 5 5 5 5 5 5 5 5 5 5 5 5 5 5 5 5 5 5 5 5 5 5 5 5 5 5 5 5 5 5 5 5 5 5 5 5 5 5 5 5 5 5 5 5 5 5 5 5 5 5 5 5 5 5 5 5 5 5 5 5 5 5 5 5 5 5 5 5 5 5 5 5 5 5 5 5 5 5 5 5 5 5 5 5 5 5 5 5 5 5 5 5 5 5 5 5 5 5 5 5 5 5 5 5 5 5 5 5 5 5 5 5 5 5 5 5 5 5 5 5 5 5 5 5 5 5 5 5 5 5 5 5 5 5 5 5 5 5 5 5 5 5 5 5 5 5 5 5 5 5 5 5 5 5 5 5 5 5 5 5 5 5 5 5 5 5 5 5 5 5 5 5 5 5 5 5 5 5 5 5 5 5 5 5 5 5 5 5 5 5 5 5 5 5 5 5 5 5 5 5 5 5 5 5 5 5 5 5 5 5 5 5 5 5 5 5 5 5 5 5 5 5 5 5 5 5 5 5 5 5 5 5 5 5 5 5 5 5 5 5 5 5 5 5 5 5 5 5 5 5 5 5 5 5 5 5 5 5 5 5 5 5 5 5 5 5 5 5 5 5 5 5 5 5 5 5 5 5 5 5 5 5 5 5 5 5 5 5 5 5 5 5 5 5 5 5 5 5 5 5 5 5 5 5 5 5 5 5 5 5 5 5 5 5 5 5 5 5 5 5 5 5 5 5 5 5 5 5 5 5 5 5 5 5 5 5 5 5 5 5 5 5 5 5 5 5 5 5 5 5 5 5 5 5 5 5 5 5 5 5 5 5 5 5 5 5 5 5 5 5 5 5 5 5 5 5 5 5 5 5 5 5 5 5 5 5 5 5 5 5 5 5 5 5 5 5 5 5 5 5 5 5 5 5 5 5 5 5 5 5 5 5 5 5 5 5 5 5 5 5 5 5 5 5 5 5 5 5 5 5 5 5 5 5 5 5 5 5 5 5 5 5 5 5 5 5 5 5 5 5 5 5 5 5 5 5 5 5 5 5 5 5 5 5 5 5 5 5 5 5 5 5 5 5 5 5 5 5 5 5 5 5 5 5 5 5 5 5 5 5 5 5 5 5 5 5 5 5 5 5 5 5 5 5 5 5 5 5 5 5 5 5 5 5 5 5 5 5 5 5 5 5 5 5 5 5 5 5 5 5 5 5 5 5 5 5 5 5 5 5 5 5 5 5 5 5 5 5 5 5 5 5 5 5 5 5 5 5 5 5 5 5 5 5 5 5 5 5 5 5 5 5 5 5 5 5 5 5 5 5 5 5 5 5 5 5 5 5 5 5 5 5 5 5 5 5 5 5 5 5 5 5 5 5 5 5 5 5 5 5 5 5 5 5 5 5 5 5 5 5 5 5 5 5 5 5 5 5 5 5 5 5 5 5 5 5 5 5 5 5 5 5 5 5 5 5 5 5 5 5 5 5 5 5 5 5 5 5 5 5 5 5 5 5 5 5 5 5 5 5 5 5 5 5 5 5 5 5 5 5 5 5 5 5 5 5 5 5 5 5 5 5 5 5 5 5 5 5 5 5 5 5 5 5 5 5 5 5 5 5 5 5 5 5 5 5 5 5 5 5 5 5 5 5 5 5 5 5 5 5 5 5 5 5 5 5 5 5 5 5 5 5 5 5 5 5 5 5 5 5 5 5 5 5 5 5 5 5 5 5 5 5 5 5 5 5 5 5 5 5 5 5 5 5 5 5 5 5 5 5 5 5 5 5 5 5 5 5 5 5 5 5 5 5 5 5 5 5 5 5 5 5 5 5 5 5 5 5 5 5 5 5 5 5 5 5 5 5 5 5 5 5 5 5 5 5 5 5 5 5 5 5 5 5 5 5 5 5 5 5 5 5 5 5 5 5 5 5 5 5 5 5 5 5 5 5 5 5 5 5 5 5 5 5 5 5 5 5 5 5 5 5 5 5 5 5 5 5 5 5 5 5 5 5 5 5 5 5 5 5 5 5 5 5 5 5 5 5 5 5 5 5 5 5 5 5 5 5 5 5 5 5 5 5 5 5 5 5 5 5 5 5 5 5 5 5 5 5 5 5 5 5 5 5 5 5 5 5 5 5 5 5 5 5 5 5 5 5 5 5 5 5 5 5 5 5 5 5 5 5 5 5 5 5 5 5 5 5 5 5 5 5 5 5 5 5 5 5 5 5 5 5 5 5 5 5 5 5 5 5 5 5 5 5 5 5 5 5 5 5 5 5 5 5 5 5 5 5 5 5 5 5 5 5 5 5 5 5 5 5 5 5 5 5 5 5 5 5 5 5 5 5 5 5 5 5 5 5 5 5 5 5 5 5 5 5 5 5 5 5 5 5 5 5 5 5 5 5 5 5 5 5 5 5 5 5 5 5 5 5 5 5 5 5 5 5 5 5 5 5 5 5 5 5 5 5 5 5 5 5 5 5 5 5 5 5 5 5 5 5 5 5 5 5 5 5 5 5 5 5 5 5 5 5 5 5 5 5 5 5 5 5 5 5 5 5 5 5 5 5 5 5 5 5 5 5 5 5 5 5 5 5 5 5 5 5 5 5 5 5 5 5 5 5 5 5 5 5 5 5 5 5 5 5 5 5 5 5 5 5 5 5 5 5 5 5 5 5 5 5 5 5 5 5 5 5 5 5 5 5 5 5 5 5 5 5 5 5 5 5 5 5 5 5 5 5 5 5 5 5 5 5 5 5 5 5 5 5 5 5 5 5 5 5 5 5 5 5 5 5 5 5 5 5 5 5 5 5 5 5 5 5 5 5 5 5 5 5 5 5 5 5 5 5 5 5 5 5 5 5 5 5 5 5 5 5 5 5 5 5 5 5 5 5 5 5 5 5 5 5 5 5 5 5 5 5 5 5 5 5 5 5 5 5 5 5 5 5 5 5 5 5 5 5 5 5 5 5 5 5 5 5 5 5 5 5 5 5 5 5 5 5 5 5 5 5 5 5 5 5 5 5 5 5 5 5 5 5 5 5 5 5 5 5 5 5 5 5 5 5 5 5 5 5 5 5 5 5 5 5 5 5 5 5 5 5 5 5 5 5 5 5 5 5 5 5 5 5 5 5 5 5 5 5 5 5 5 5 5 5 5 5 5 5 5 5 5 5 5 5 5 5 5 5 5 5 5 5 5 5 5 5 5 5 5 5 5 5 5 5 5 5 5 5 5 5 5 5 5 5 5 5 5 5 5 5 5 5 5 5 5 5 5 5 5 5 5 5 5 5 5 5 5 5 5 5 5 5 5 5 5 5 5 5 5 5 5 5 5 5 5 5 5 5 5 5 5 5 5 5 5 5 5 5 5 5 5 5 5 5 5 5 5 5 5 5 5 5 5 5 5 5 5 5 5 5 5 5 5 5 5 5 5 5 5 5 5 5 5 5 5 5 5 5 5 5 5 5 5 5 5 5 5 5 5 5 5 5 5 5 5 5 5 5 5 5 5 5 5 5 5 5 5 5 5 5 5 5 5 5 5 5 5 5 5 5 5 5 5 5 5 5 5 5 5 5 5 5 5 5 5 5 5 5 5 5 5 5 5 5 5 5 5 5 5 5 5 5 5 5 5 5 5 5 5 5 5 5 5 5 5 5 5 5 5 5 5 5 5 5 5 5 5 5 5 5 5 5 5 5 5 5 5 5 5 5 5 5 5 5 5 5 5 5 5 5 5 5 5 5 5 5 5 5 5 5 5 5 5 5 5 5 5 5 5 5 5 5 5 5 5 5 5 5 5 5 5 5 5 5 5 5 5 5 5 5 5 5 5 5 5 5 5 5 5 5 5 5 5 5 5 5 5 5 5 5 5 5 5 5 5 5 5 5 5 5 5 5 5 5 5 5 5 5 5 5 5 5 5 5 5 5 5 5 5 5 5 5 5 5 5 5 5 5 5 5 5 5 5 5 5 5 5 5 5 5 5 5 5 5 5 5 5 5 5 5 5 5 5 5 5 5 5 5 5 5 5 5 5 5 5 5 5 5 5 5 5 5 5 5 5 5 5 5 5 5 5 5 5 5 5 5 5 5 5 5 5 5 5 5 5 5 5 5 5 5 5 5 5 5 5 5 5 5 5 5 5 5 5 5 5 5 5 5 5 5 5 5 5 5 5 5 5 5 5 5 5 5 5 5 5 5 5 5 5 5 5 5 5 5 5 5 5 5 5 5 5 5 5 5 5 5 5 5 5 5 5 5 5 5 5 5 5 5 5 5 5 5 5 5 5 5 5 5 5 5 5 5 5 5 5 5 5 5 5 5 5 5 5 5 5 5 5 5 5 5 5 5 5 5 5 5 5 5 5 5 5 5 5 5 5 5 5 5 5 5 5 5 5 5 5 5 5 5 5 5 5 5 5 5 5 5 5 5 5 5 5 5 5 5 5 5 5 5 5 5 5 5 5 5 5 5 5 5 5 5 5 5 5 5 5 5 5 5 5 5 5 5 5 5 5 5 5 5 5 5 5 5 5 5 5 5 5 5 5 5 5 5 5 5 5 5 5 5 5 5 5 5 5 5 5 5 5 5 5 5 5 5 5 5 5 5 5 5 5 5 5 5 5 5 5 5 5 5 5 5 5 5 5 5 5 5 5 5 5 5 5 5 5 5 5 5 5 5 5 5 5 5 5 5 5 5 5 5 5 5 5 5 5 5 5 5 5 5 5 5 5 5 5 5 5 5 5 5 5 5 5 5 5 5 5 5 5 5 5 5 5 5 5 5 5 5 5 5 5 5 5 5 5 5 5 5 5 5 5 5 5 5 5 5 5 5 5 5 5 5 5 5 5 5 5 5 5 5 5 5 5 5 5 5 5 5 5 5 5 5 5 5 5 5 5 5 5 5 5 5 5 5 5 5 5 5 5 5 5 5 5 5 5 5 5 5 5 5 5 5 5 5 5 5 5 5 5 5 5 5 5 5 5 5 5 5 5 5 5 5 5 5 5 5 5 5 5 5 5 5 5 5 5 5 5 5 5 5 5 5 5 5 5 5 5 5 5 5 5 5 5 5 5 5 5 5 5 5 5 5 5 5 5 5 5 5 5 5 5 5 5 5 5 5 5 5 5 5 5 5 5 5 5 5 5 5 5 5 5 5 5 5 5 5 5 5 5 5 5 5 5 5 5 5 5 5 5 5 5 5 5 5 5 5 5 5 5 5 5 5 5 5 5 5 5 5 5 5 5 5 5 5 5 5 5 5 5 5 5 5 5 5 5 5 5 5 5 5 5 5 5 5 5 5 5 5 5 5 5 5 5 5 5 5 5 5 5 5 5 5 5 5 5 5 5 5 5 5 5 5 5 5 5 5 5 5 5 5 5 5 5 5 5 5 5 5 5 5 5 5 5 5 5 5 5 5 5 5 5 5 5 5 5 5 5 5 5 5 5 5 5 5 5 5 5 5 5 5 5 5 5 5 5 5 5 5 5 5 5 5 5 5 5 5 5 5 5 5 5 5 5 5 5 5 5 5 5 5 5 5 5 5 5 5 5 5 5 5 5 5 5 5 5 5 5 5 5 5 5 5 5 5 5 5 5 5 5 5 5 5 5 5 5 5 5 5 5 5 5 5 5 5 5 5 5 5 5 5 5 5 5 5 5 5 5 5 5 5 5 5 5 5 5 5 5 5 5 5 5 5 5 5 5 5 5 5 5 5 5 5 5 5 5 5 5 5 5 5 5 5 5 5 5 5 5 5 5 5 5 5 5 5 5 5 5 5 5 5 5 5 5 5 5 5 5 5 5 5 5 5 5 5 5 5 5 5 5 5 5 5 5 5 5 5 5 5 5 5 5 5 5 5 5 5 5 5 5 5 5 5 5 5 5 5 5 5 5 5 5 5 5 5 5 5 5 5 5 5 5 5 5 5 5 5 5 5 5 5 5 5 5 5 5 5 5 5 5 5 5 5 5 5 5 5 5 5 5 5 5 5 5 5 5 5 5 5 5 5 5 5 5 5 5 5 5 5 5 5 5 5 5 5 5 5 5 5 5 5 5 5 5 5 5 5 5 5 5 5 5 5 5 5 5 5 5 5 5 5 5 5 5 5 5 5 5 5 5 5 5 5 5 5 5 5 5 5 5 5 5 5 5 5 5 5 5 5 5 5 5 5 5 5 5 5 5 5 5 5 5 5 5 5 5 5 5 5 5 5 5 5 5 5 5 5 5 5 5 5 5 5 5 5 5 5 5 5 5 5 5 5 5 5 5 5 5 5 5 5 5 5 5 5 5 5 5 5 5 5 5 5 5 5 5 5 5 5 5 5 5 5 5 5 5 5 5 5 5 5 5 5 5 5 5 5 5 5 5 5 5 5 5 5 5 5 5 5 5 5 5 5 5 5 5 5 5 5 5 5 5 5 5 5 5 5 5 5 5 5 5 5 5 5 5 5 5 5 5 5 5 5 5 5 5 5 5 5 5 5 5 5 5 5 5 5 5 5 5 5 5 5 5 5 5 5 5 5 5 5 5 5 5 5 5 5 5 5 5 5 5 5 5 5 5 5 5 5 5 5 5 5 5 5 5 5 5 5 5 5 5 5 5 5 5 5 5 5 5 5 5 5 5 5 5 5 5 5 5 5 5 5 5 5 5 5 5 5 5 5 5 5 5 5 5 5 5 5 5 5 5 5 5 5 5 5 5 5 5 5 5 5 5 5 5 5 5 5 5 5 5 5 5 5 5 5 5 5 5 5 5 5 5 5 5 5 5 5 5 5 5 5 5 5 5 5 5 5 5 5 5 5 5 5 5 5 5 5 5 5 5 5 5 5 5 5 5 5 5 5 5 5 5 5 5 5 5 5 5 5 5 5 5 5 5 5 5 5 5 5 5 5 5 5 5 5 5 5 5 5 5 5 5 5 5 5 5 5 5 5 5 5 5 5 5 5 5 5 5 5 5 5 5 5 5 5 5 5 5 5 5 5 5 5 5 5 5 5 5 5 5 5 5 5 5 5 5 5 5 5 5 5 5 5 5 5 5 5 5 5 5 5 5 5 5 5 5 5 5 5 5 5 5 5 5 5 5 5 5 5 5 5 5 5 5 5 5 5 5 5 5 5 5 5 5 5 5 5 5 5 5 5 5 5 5 5 5 5 5 5 5 5 5 5 5 5 5 5 5 5 5 5 5 5 5 5 5 5 5 5 5 5 5 5 5 5 5 5 5 5 5 5 5 5 5 5 5 5 5 5 5 5 5 5 5 5 5 5 5 5 5 5 5 5 5 5 5 5 5 5 5 5 5 5 5 5 5 5 5 5 5 5 5 5 5 5 5 5 5 5 5 5 5 5 5 5 5 5 5 5 5 5 5 5 5 5 5 5 5 5 5 5 5 5 5 5 5 5 5 5 5 5 5 5 5 5 5 5 5 5 5 5 5 5 5 5 5 5 5 5 5 5 5 5 5 5 5 5 5 5 5 5 5 5 5 5 5 5 5 5 5 5 5 5 5 5 5 5 5 5 5 5 5 5 5 5 5 5 5 5 5 5 5 5 5 5 5 5 5 5 5 5 5 5 5 5 5 5 5 5 5 5 5 5 5 5 5 5 5 5 5 5 5 5 5 5 5 5 5 5 5 5 5 5 5 5 5 5 5 5 5 5 5 5 5 5 5 5 5 5 5 5 5 5 5 5 5 5 5 5 5 5 5 5 5 5 5 5 5 5 5 5 5 5 5 5 5 5 5 5 5 5 5 5 5 5 5 5 5 5 5 5 5 5 5 5 5 5 5 5 5 5 5 5 5 5 5 5 5 5 5 5 5 5 5 5 5 5 5 5 5 5 5 5 5 5 5 5 5 5 5 5 5 5 5 5 5 5 5 5 5 5 5 5 5 5 5 5 5 5 5 5 5 5 5 5 5 5 5 5 5 5 5 5 5 5 5 5 5 5 5 5 5 5 5 5 5 5 5 5 5 5 5 5 5 5 5 5 5 5 5 5 5 5 5 5 5 5 5 5 5 5 5 5 5 5 5 5 5 5 5 5 5 5 5 5 5 5 5 5 5 5 5 5 5 5 5 5 5 5 5 5 5 5 5 5 5 5 5 5 5 5 5 5 5 5 5 5 5 5 5 5 5 5 5 5 5 5 5 5 5 5 5 5 5 5 5 5 5 5 5 5 5 5 5 5 5 5 5 5 5 5 5 5 5 5 5 5 5 5 5 5 5 5 5 5 5 5 5 5 5 5 5 5 5 5 5 5 5 5 5 5 5 5 5 5 5 5 5 5 5 5 5 5 5 5 5 5 5 5 5 5 5 5 5 5 5 5 5 5 5 5 5 5 5 5 5 5 5 5 5 5 5 5 5 5 5 5 5 5 5 5 5 5 5 5 5 5 5 5 5 5 5 5 5 5 5 5 5 5 5 5 5 5 5 5 5 5 5 5 5 5 5 5 5 5 5 5 5 5 5 5 5 5 5 5 5 5 5 5 5 5 5 5 5 5 5 5 5 5 5 5 5 5 5 5 5 5 5 5 5 5 5 5 5 5 5 5 5 5 5 5 5 5 5 5 5 5 5 5 5 5 5 5 5 5 5 5 5 5 5 5 5 5 5 5 5 5 5 5 5 5 5 5 5 5 5 5 5 5 5 5 5 5 5 5 5 5 5 5 5 5 5 5 5 5 5 5 5 5 5 5 5 5 5 5 5 5 5 5 5 5 5 5 5 5 5 5 5 5 5 5 5 5 5 5 5 5 5 5 5 5 5 5 5 5 5 5 5 5 5 5 5 5 5 5 5 5 5 5 5 5 5 5 5 5 5 5 5 5 5 5 5 5 5 5 5 5 5 5 5 5 5 5 5 5 5 5 5 5 5 5 5 5 5 5 5 5 5 5 5 5 5 5 5 5 5 5 5 5 5 5 5 5 5 5 5 5 5 5 5 5 5 5 5 5 5 5 5 5 5 5 5 5 5 5 5 5 5 5 5 5 5 5 5 5 5 5 5 5 5 5 5 5 5 5 5 5 5 5 5 5 5 5 5 5 5 5 5 5 5 5 5 5 5 5 5 5 5 5 5 5 5 5 5 5 5 5 5 5 5 5 5 5 5 5 5 5 5 5 5 5 5 5 5 5 5 5 5 5 5 5 5 5 5 5 5 5 5 5 5 5 5 5 5 5 5 5 5 5 5 5 5 5 5 5 5 5 5 5 5 5 5 5 5 5 5 5 5 5 5 5 5 5 5 5 5 5 5 5 5 5 5 5 5 5 5 5 5 5 5 5 5 5 5 5 5 5 5 5 5 5 5 5 5 5 5 5 5 5 5 5 5 5 5 5 5 5 5 5 5 5 5 5 5 5 5 5 5 5 5 5 5 5 5 5 5 5 5 5 5 5 5 5 5 5 5 5 5 5 5 5 5 5 5 5 5 5 5 5 5 5 5 5 5 5 5 5 5 5 5 5 5 5 5 5 5 5 5 5 5 5 5 5 5 5 5 5 5 5 5 5 5 5 5 5 5 5 5 5 5 5 5 5 5 5 5 5 5 5 5 5 5 5 5 5 5 5 5 5 5 5 5 5 5 5 5 5 5 5 5 5 5 5 5 5 5 5 5 5 5 5 5 5 5 5 5 5 5 5 5 5 5 5 5 5 5 5 5 5 5 5 5 5 5 5 5 5 5 5 5 5 5 5 5 5 5 5 5 5 5 5 5 5 5 5 5 5 5 5 5 5 5 5 5 5 5 5 5 5 5 5 5 5 5 5 5 5 5 5 5 5 5 5 5 5 5 5 5 5 5 5 5 5 5 5 5 5 5 5 5 5 5 5 5 5 5 5 5 5 5 5 5 5 5 5 5 5 5 5 5 5 5 5 5 5 5 5 5 5 5 5 5 5 5 5 5 5 5 5 5 5 5 5 5 5 5 5 5 5 5 5 5 5 5 5 5 5 5 5 5 5 5 5 5 5 5 5 5 5 5 5 5 5 5 5 5 5 5 5 5 5 5 5 5 5 5 5 5 5 5 5 5 5 5 5 5 5 5 5 5 5 5 5 5 5 5 5 5 5 5 5 5 5 5 5 5 5 5 5 5 5 5 5 5 5 5 5 5 5 5 5 5 5 5 5 5 5 5 5 5 5 5 5 5 5 5 5 5 5 5 5 5 5 5 5 5 5 5 5 5 5 5 5 5 5 5 5 5 5 5 5 5 5 5 5 5 5 5 5 5 5 5 5 5 5 5 5 5 5 5 5 5 5 5 5 5 5 5 5 5 5 5 5 5 5 5 5 5 5 5 5 5 5 5 5 5 5 5 5 5 5 5 5 5 5 5 5 5 5 5 5 5 5 5 5 5 5 5 5 5 5 5 5 5 5 5 5 5 5 5 5 5 5 5 5 5 5 5 5 5 5 5 5 5 5 5 5 5 5 5 5 5 5 5 5 5 5 5 5 5 5 5 5 5 5 5 5 5 5 5 5 5 5 5 5 5 5 5 5 5 5 5 5 5 5 5 5 5 5 5 5 5 5 5 5 5 5 5 5 5 5 5 5 5 5 5 5 5 5 5 5 5 5 5 5 5 5 5 5 5 5 5 5 5 5 5 5 5 5 5 5 5 5 5 5 5 5 5 5 5 5 5 5 5 5 5 5 5 5 5 5 5 5 5 5 5 5 5 5 5 5 5 5 5 5 5 5 5 5 5 5 5 5 5 5 5 5 5 5 5 5 5 5 5 5 5 5 5 5 5 5 5 5 5 5 5 5 5 5 5 5 5 5 5 5 5 5 5 5 5 5 5 5 5 5 5 5 5 5 5 5 5 5 5 5 5 5 5 5 5 5 5 5 5 5 5 5 5 5 5 5 5 5 5 5 5 5 5 5 5 5 5 5 5 5 5 5 5 5 5 5 5 5 5 5 5 5 5 5 5 5 5 5 5 5 5 5 5 5 5 5 5 5 5 5 5 5 5 5 5 5 5 5 5 5 5 5 5 5 5 5 5 5 5 5 5 5 5 5 5 5 5 5 5 5 5 5 5 5 5 5 5 5 5 5 5 5 5 5 5 5 5 5 5 5 5 5 5 5 5 5 5 5 5 5 5 5 5 5 5 5 5 5 5 5 5 5 5 5 5 5 5 5 5 5 5 5 5 5 5 5 5 5 5 5 5 5 5 5 5 5 5 5 5 5 5 5 5 5 5 5 5 5 5 5 5 5 5 5 5 5 5 5 5 5 5 5 5 5 5 5 5 5 5 5 5 5 5 5 5 5 5 5 5 5 5 5 5 5 5 5 5 5 5 5 5 5 5 5 5 5 5 5 5 5 5 5 5 5 5 5 5 5 5 5 5 5 5 5 5 5 5 5 5 5 5 5 5 5 5 5 5 5 5 5 5 5 5 5 5 5 5 5 5 5 5 5 5 5 5 5 5 5 5 5 5 5 5 5 5 5 5 5 5 5 5 5 5 5 5 5 5 5 5 5 5 5 5 5 5 5 5 5 5 5 5 5 5 5 5 5 5 5 5 5 5 5 5 5 5 5 5 5 5 5 5 5 5 5 5 5 5 5 5 5 5 5 5 5 5 5 5 5 5 5 5 5 5 5 5 5 5 5 5 5 5 5 5 5 5 5 5 5 5 5 5 5 5 5 5 5 5 5 5 5 5 5 5 5 5 5 5 5 5 5 5 5 5 5 5 5 5 5 5 5 5 5 5 5 5 5 5 5 5 5 5 5 5 5 5 5 5 5 5 5 5 5 5 5 5 5 5 5 5 5 5 5 5 5 5 5 5 5 5 5 5 5 5 5 5 5 5 5 5 5 5 5 5 5 5 5 5 5 5 5 5 5 5 5 5 5 5 5 5 5 5 5 5 5 5 5 5 5 5 5 5 5 5 5 5 5 5 5 5 5 5 5 5 5 5 5 5 5 5 5 5 5 5 5 5 5 5 5 5 5 5 5 5 5 5 5 5 5 5 5 5 5 5 5 5 5 5 5 5 5 5 5 5 5 5 5 5 5 5 5 5 5 5 5 5 5 5 5 5 5 5 5 5 5 5 5 5 5 5 5 5 5 5 5 5 5 5 5 5 5 5 5 5 5 5 5 5 5 5 5 5 5 5 5 5 5 5 5 5 5 5 5 5 5 5 5 5 5 5 5 5 5 5 5 5 5 5 5 5 5 5 5 5 5 5 5 5 5 5 5 5 5 5 5 5 5 5 5 5 5 5 5 5 5 5 5 5 5 5 5 5 5 5 5 5 5 5 5 5 5 5 5 5 5 5 5 5 5 5 5 5 5 5 5 5 5 5 5 5 5 5 5 5 5 5 5 5 5 5 5 5 5 5 5 5 5 5 5 5 5 5 5 5 5 5 5 5 5 5 5 5 5 5 5 5 5 5 5 5 5 5 5 5 5 5 5 5 5 5 5 5 5 5 5 5 5 5 5 5 5 5 5 5 5 5 5 5 5 5 5 5 5 5 5 5 5 5 5 5 5 5 5 5 5 5 5 5 5 5 5 5 5 5 5 5 5 5 5 5 5 5 5 5 5 5 5 5 5 5 5 5 5 5 5 5 5 5 5 5 5 5 5 5 5 5 5 5 5 5 5 5 5 5 5 5 5 5 5 5 5 5 5 5 5 5 5 5 5 5 5 5 5 5 5 5 5 5 5 5 5 5 5 5 5 5 5 5 5 5 5 5 5 5 5 5 5 5 5 5 5 5 5 5 5 5 5 5 5 5 5 5 5 5 5 5 5 5 5 5 5 5 5 5 5 5 5 5 5 5 5 5 5 5 5 5 5 5 5 5 5 5 5 5 5 5 5 5 5 5 5 5 5 5 5 5 5 5 5 5 5 5 5 5 5 5 5 5 5 5 5 5 5 5 5 5 5 5 5 5 5 5 5 5 5 5 5 5 5 5 5 5 5 5 5 5 5 5 5 5 5 5 5 5 5 5 5 5 5 5 5 5 5 5 5 5 5 5 5 5 5 5 5 5 5 5 5 5 5 5 5 5 5 5 5 5 5 5 5 5 5 5 5 5 5 5 5 5 5 5 5 5 5 5 5 5 5 5 5 5 5 5 5 5 5 5 5 5 5 5 5 5 5 5 5 5 5 5 5 5 5 5 5 5 5 5 5 5 5 5 5 5 5 5 5 5 5 5 5 5 5 5 5 5 5 5 5 5 5 5 5 5 5 5 5 5 5 5 5 5 5 5 5 5 5 5 5 5 5 5 5 5 5 5 5 5 5 5 5 5 5 5 5 5 5 5 5 5 5 5 5 5 5 5 5 5 5 5 5 5 5 5 5 5 5 5 5 5 5 5 5 5 5 5 5 5 5 5 5 5 5 5 5 5 5 5 5 5 5 5 5 5 5 5 5 5 5 5 5 5 5 5 5 5 5 5 5 5 5 5 5 5 5 5 5 5 5 5 5 5 5 5 5 5 5 5 5 5 5 5 5 5 5 5 5 5 5 5 5 5 5 5 5 5 5 5 5 5 5 5 5 5 5 5 5 5 5 5 5 5 5 5 5 5 5 5 5 5 5 5 5 5 5 5 5 5 5 5 5 5 5 5 5 5 5 5 5 5 5 5 5 5 5 5 5 5 5 5 5 5 5 5 5 5 5 5 5 5 5 5 5 5 5 5 5 5 5 5 5 5 5 5 5 5 5 5 5 5 5 5 5 5 5 5 5 5 5 5 5 5 5 5 5 5 5 5 5 5 5 5 5 5 5 5 5 5 5 5 5 5 5 5 5 5 5 5 5 5 5 5 5 5 5 5 5 5 5 5 5 5 5 5 5 5 5 5 5 5 5 5 5 5 5 5 5 5 5 5 5 5 5 5 5 5 5 5 5 5 5 5 5 5 5 5 5 5 5 5 5 5 5 5 5 5 5 5 5 5 5 5 5 5 5 5 5 5 5 5 5 5 5 5 5 5 5 5 5 5 5 5 5 5 5 5 5 5 5 5 5 5 5 5 5 5 5 5 5 5 5 5 5 5 5 5 5 5 5 5 5 5 5 5 5 5 5 5 5 5 5 5 5 5 5 5 5 5 5 5 5 5 5 5 5 5 5 5 5 5 5 5 5 5 5 5 5 5 5 5 5 5 5 5 5 5 5 5 5 5 5 5 5 5 5 5 5 5 5 5 5 5 5 5 5 5 5 5 5 5 5 5 5 5 5 5 5 5 5 5 5 5 5 5 5 5 5 5 5 5 5 5 5 5 5 5 5 5 5 5 5 5 5 5 5 5 5 5 5 5 5 5 5 5 5 5 5 5 5 5 5 5 5 5 5 5 5 5 5 5 5 5 5 5 5 5 5 5 5 5 5 5 5 5 5 5 5 5 5 5 5 5 5 5 5 5 5 5 5 5 5 5 5 5 5 5 5 5 5 5 5 5 5 5 5 5 5 5 5 5 5 5 5 5 5 5 5 5 5 5 5 5 5 5 5 5 5 5 5 5 5 5 5 5 5 5 5 5 5 5 5 5 5 5 5 5 5 5 5 5 5 5 5 5 5 5 5 5 5 5 5 5 5 5 5 5 5 5 5 5 5 5 5 5 5 5 5 5 5 5 5 5 5 5 5 5 5 5 5 5 5 5 5 5 5 5 5 5 5 5 5 5 5 5 5 5 5 5 5 5 5 5 5 5 5 5 5 5 5 5 5 5 5 5 5 5 5 5 5 5 5 5 5 5 5 5 5 5 5 5 5 5 5 5 5 5 5 5 5 5 5 5 5 5 5 5 5 5 5 5 5 5 5 5 5 5 5 5 5 5 5 5 5 5 5 5 5 5 5 5 5 5 5 5 5 5 5 5 5 5 5 5 5 5 5 5 5 5 5 5 5 5 5 5 5 5 5 5 5 5 5 5 5 5 5 5 5 5 5 5 5 5 5 5 5 5 5 5 5 5 5 5 5 5 5 5 5 5 5 5 5 5 5 5 5 5 5 5 5 5 5 5 5 5 5 5 5 5 5 5 5 5 5 5 5 5 5 5 5 5 5 5 5 5 5 5 5 5 5 5 5 5 5 5 5 5 5 5 5 5 5 5 5 5 5 5 5 5 5 5 5 5 5 5 5 5 5 5 5 5 5 5 5 5 5 5 5 5 5 5 5 5 5 5 5 5 5 5 5 5 5 5 5 5 5 5 5 5 5 5 5 5 5 5 5 5 5 5 5 5 5 5 5 5 5 5 5 5 5 5 5 5 5 5 5 5 5 5 5 5 5 5 5 5 5 5 5 5 5 5 5 5 5 5 5 5 5 5 5 5 5 5 5 5 5 5 5 5 5 5 5 5 5 5 5 5 5 5 5 5 5 5 5 5 5 5 5 5 5 5 5 5 5 5 5 5 5 5 5 5 5 5 5 5 5 5 5 5 5 5 5 5 5 5 5 5 5 5 5 5 5 5 5 5 5 5 5 5 5 5 5 5 5 5 5 5 5 5 5 5 5 5 5 5 5 5 5 5 5 5 5 5 5 5 5 5 5 5 5 5 5 5 5 5 5 5 5 5 5 5 5 5 5 5 5 5 5 5 5 5 5 5 5 5 5 5 5 5 5 5 5 5 5 5 5 5 5 5 5 5 5 5 5 5 5 5 5 5 5 5 5 5 5 5 5 5 5 5 5 5 5 5 5 5 5 5 5 5 5 5 5 5 5 5 5 5 5 5 5 5 5 5 5 5 5 5 5 5 5 5 5 5 5 5 5 5 5 5 5 5 5 5 5 5 5 5 5 5 5 5 5 5 5 5 5 5 5 5 5 5 5 5 5 5 5 5 5 5 5 5 5 5 5 5 5 5 5 5 5 5 5 5 5 5 5 5 5 5 5 5 5 5 5 5 5 5 5 5 5 5 5 5 5 5 5 5 5 5 5 5 5 5 5 5 5 5 5 5 5 5 5 5 5 5 5 5 5 5 5 5 5 5 5 5 5 5 5 5 5 5 5 5 5 5 5 5 5 5 5 5 5 5 5 5 5 5 5 5 5 5 5 5 5 5 5 5 5 5 5 5 5 5 5 5 5 5 5 5 5 5 5 5 5 5 5 5 5 5 5 5 5 5 5 5 5 5 5 5 5 5 5 5 5 5 5 5 5 5 5 5 5 5 5 5 5 5 5 5 5 5 5 5 5 5 5 5 5 5 5 5 5 5 5 5 5 5 5 5 5 5 5 5 5 5 5 5 5 5 5 5 5 5 5 5 5 5 5 5 5 5 5 5 5 5 5 5 5 5 5 5 5 5 5 5 5 5 5 5 5 5 5 5 5 5 5 5 5 5 5 5 5 5 5 5 5 5 5 5 5 5 5 5 5 5 5 5 5 5 5 5 5 5 5 5 5 5 5 5 5 5 5 5 5 5 5 5 5 5 5 5 5 5 5 5 5 5 5 5 5 5 5 5 5 5 5 5 5 5 5 5 5 5 5 5 5 5 5 5 5 5 5 5 5 5 5 5 5 5 5 5 5 5 5 5 5 5 5 5 5 5 5 5 5 5 5 5 5 5 5 5 5 5 5 5 5 5 5 5 5 5 5 5 5 5 5 5 5 5 5 5 5 5 5 5 5 5 5 5 5 5 5 5 5 5 5 5 5 5 5 5 5 5 5 5 5 5 5 5 5 5 5 5 5 5 5 5 5 5 5 5 5 5 5 5 5 5 5 5 5 5 5 5 5 5 5 5 5 5 5 5 5 5 5 5 5 5 5 5 5 5 5 5 5 5 5 5 5 5 5 5 5 5 5 5 5 5 5 5 5 5 5 5 5 5 5 5 5 5 5 5 5 5 5 5 5 5 5 5 5 5 5 5 5 5 5 5 5 5 5 5 5 5 5 5 5 5 5 5 5 5 5 5 5 5 5 5 5 5 5 5 5 5 5 5 5 5 5 5 5 5 5 5 5 5 5 5 5 5 5 5 5 5 5 5 5 5 5 5 5 5 5 5 5 5 5 5 5 5 5 5 5 5 5 5 5 5 5 5 5 5 5 5 5 5 5 5 5 5 5 5 5 5 5 5 5 5 5 5 5 5 5 5 5 5 5 5 5 5 5 5 5 5 5 5 5 5 5 5 5 5 5 5 5 5 5 5 5 5 5 5 5 5 5 5 5 5 5 5 5 5 5 5 5 5 5 5 5 5 5 5 5 5 5 5 5 5 5 5 5 5 5 5 5 5 5 5 5 5 5 5 5 5 5 5 5 5 5 5 5 5 5 5 5 5 5 5 5 5 5 5 5 5 5 5 5 5 5 5 5 5 5 5 5 5 5 5 5 5 5 5 5 5 5 5 5 5 5 5 5 5 5 5 5 5 5 5 5 5 5 5 5 5 5 5 5 5 5 5 5 5 5 5 5 5 5 5 5 5 5 5 5 5 5 5 5 5 5 5 5 5 5 5 5 5 5 5 5 5 5 5 5 5 5 5 5 5 5 5 5 5 5 5 5 5 5 5 5 5 5 5 5 5 5 5 5 5 5 5 5 5 5 5 5 5 5 5 5 5 5 5 5 5 5 5 5 5 5 5 5 5 5 5 5 5 5 5 5 5 5 5 5 5 5 5 5 5 5 5 5 5 5 5 5 5 5 5 5 5 5 5 5 5 5 5 5 5 5 5 5 5 5 5 5 5 5 5 5 5 5 5 5 5 5 5 5 5 5 5 5 5 5 5 5 5 5 5 5 5 5 5 5 5 5 5 5 5 5 5 5 5 5 5 5 5 5 5 5 5 5 5 5 5 5 5 5 5 5 5 5 5 5 5 5 5 5 5 5 5 5 5 5 5 5 5 5 5 5 5 5 5 5 5 5 5 5 5 5 5 5 5 5 5 5 5 5 5 5 5 5 5 5 5 5 5 5 5 5 5 5 5 5 5 5 5 5 5 5 5 5 5 5 5 5 5 5 5 5 5 5 5 5 5 5 5 5 5 5 5 5 5 5 5 5 5 5 5 5 5 5 5 5 5 5 5 5 5 5 5 5 5 5 5 5 5 5 5 5 5 5 5 5 5 5 5 5 5 5 5 5 5 5 5 5 5 5 5 5 5 5 5 5 5 5 5 5 5 5 5 5 5 5 5 5 5 5 5 5 5 5 5 5 5 5 5 5 5 5 5 5 5 5 5 5 5 5 5 5 5 5 5 5 5 5 5 5 5 5 5 5 5 5 5 5 5 5 5 5 5 5 5 5 5 5 5 5 5 5 5 5 5 5 5 5 5 5 5 5 5 5 5 5 5 5 5 5 5 5 5 5 5 5 5 5 5 5 5 5 5 5 5 5 5 5 5 5 5 5 5 5 5 5 5 5 5 5 5 5 5 5 5 5 5 5 5 5 5 5 5 5 5 5 5 5 5 5 5 5 5 5 5 5 5 5 5 5 5 5 5 5 5 5 5 5 5 5 5 5 5 5 5 5 5 5 5 5 5 5 5 5 5 5 5 5 5 5 5 5 5 5 5 5 5 5 5 5 5 5 5 5 5 5 5 5 5 5 5 5 5 5 5 5 5 5 5 5 5 5 5 5 5 5 5 5 5 5 5 5 5 5 5 5 5 5 5 5 5 5 5 5 5 5 5 5 5 5 5 5 5 5 5 5 5 5 5 5 5 5 5 5 5 5 5 5 5 5 5 5 5 5 5 5 5 5 5 5 5 5 5 5 5 5 5 5 5 5 5 5 5 5 5 5 5 5 5 5 5 5 5 5 5 5 5 5 5 5 5 5 5 5 5 5 5 5 5 5 5 5 5 5 5 5 5 5 5 5 5 5 5 5 5 5 5 5 5 5 5 5 5 5 5 5 5 5 5 5 5 5 5 5 5 5 5 5 5 5 5 5 5 5 5 5 5 5 5 5 5 5 5 5 5 5 5 5 5 5 5 5 5 5 5 5 5 5 5 5 5 5 5 5 5 5 5 5 5 5 5 5 5 5 5 5 5 5 5 5 5 5 5 5 5 5 5 5 5 5 5 5 5 5 5 5 5 5 5 5 5 5 5 5 5 5 5 5 5 5 5 5 5 5 5 5 5 5 5 5 5 5 5 5 5 5 5 5 5 5 5 5 5 5 5 5 5 5 5 5 5 5 5 5 5 5 5 5 5 5 5 5 5 5 5 5 5 5 5 5 5 5 5 5 5 5 5 5 5 5 5 5 5 5 5 5 5 5 5 5 5 5 5 5 5 5 5 5 5 5 5 5 5 5 5 5 5 5 5 5 5 5 5 5 5 5 5 5 5 5 5 5 5 5 5 5 5 5 5 5 5 5 5 5 5 5 5 5 5 5 5 5 5 5 5 5 5 5 5 5 5 5 5 5 5 5 5 5 5 5 5 5 5 5 5 5 5 5 5 5 5 5 5 5 5 5 5 5 5 5 5 5 5 5 5 5 5 5 5 5 5 5 5 5 5 5 5 5 5 5 5 5 5 5 5 5 5 5 5 5 5 5 5 5 5 5 5 5 5 5 5 5 5 5 5 5 5 5 5 5 5 5 5 5 5 5 5 5 5 5 5 5 5 5 5 5 5 5 5 5 5 5 5 5 5 5 5 5 5 5 5 5 5 5 5 5 5 5 5 5 5 5 5 5 5 5 5 5 5 5 5 5 5 5 5 5 5 5 5 5 5 5 5 5 5 5 5 5 5 5 5 5 5 5 5 5 5 5 5 5 5 5 5 5 5 5 5 5 5 5 5 5 5 5 5 5 5 5 5 5 5 5 5 5 5 5 5 5 5 5 5 5 5 5 5 5 5 5 5 5 5 5 5 5 5 5 5 5 5 5 5 5 5 5 5 5 5 5 5 5 5 5 5 5 5 5 5 5 5 5 5 5 5 5 5 5 5 5 5 5 5 5 5 5 5 5 5 5 5 5 5 5 5 5 5 5 5 5 5 5 5 5 5 5 5 5 5 5 5 5 5 5 5 5 5 5 5 5 5 5 5 5 5 5 5 5 5 5 5 5 5 5 5 5 5 5 5 5 5 5 5 5 5 5 5 5 5 5 5 5 5 5 5 5 5 5 5 5 5 5 5 5 5 5 5 5 5 5 5 5 5 5 5 5 5 5 5 5 5 5 5 5 5 5 5 5 5 5 5 5 5 5 5 5 5 5 5 5 5 5 5 5 5 5 5 5 5 5 5 5 5 5 5 5 5 5 5 5 5 5 5 5 5 5 5 5 5 5 5 5 5 5 5 5 5 5 5 5 5 5 5 5 5 5 5 5 5 5 5 5 5 5 5 5 5 5 5 5 5 5 5 5 5 5 5 5 5 5 5 5 5 5 5 5 5 5 5 5 5 5 5 5 5 5 5 5 5 5 5 5 5 5 5 5 5 5 5 5 5 5 5 5 5 5 5 5 5 5 5 5 5 5 5 5 5 5 5 5 5 5 5 5 5 5 5 5 5 5 5 5 5 5 5 5 5 5 5 5 5 5 5 5 5 5 5 5 5 5 5 5 5 5 5 5 5 5 5 5 5 5 5 5 5 5 5 5 5 5 5 5 5 5 5 5 5 5 5 5 5 5 5 5 5 5 5 5 5 5 5 5 5 5 5 5 5 5 5 5 5 5 5 5 5 5 5 5 5 5 5 5 5 5 5 5 5 5 5 5 5 5 5 5 5 5 5 5 5 5 5 5 5 5 5 5 5 5 5 5 5 5 5 5 5 5 5 5 5 5 5 5 5 5 5 5 5 5 5 5 5 5 5 5 5 5 5 5 5 5 5 5 5 5 5 5 5 5 5 5 5 5 5 5 5 5 5 5 5 5 5 5 5 5 5 5 5 5 5 5 5 5 5 5 5 5 5 5 5 5 5 5 5 5 5 5 5 5 5 5 5 5 5 5 5 5 5 5 5 5 5 5 5 5 5 5 5 5 5 5 5 5 5 5 5 5 5 5 5 5 5 5 5 5 5 5 5 5 5 5 5 5 5 5 5 5 5 5 5 5 5 5 5 5 5 5 5 5 5 5 5 5 5 5 5 5 5 5 5 5 5 5 5 5 5 5 5 5 5 5 5 5 5 5 5 5 5 5 5 5 5 5 5 5 5 5 5 5 5 5 5 5 5 5 5 5 5 5 5 5 5 5 5 5 5 5 5 5 5 5 5 5 5 5 5 5 5 5 5 5 5 5 5 5 5 5 5 5 5 5 5 5 5 5 5 5 5 5 5 5 5 5 5 5 5 5 5 5 5 5 5 5 5 5 5 5 5 5 5 5 5 5 5 5 5 5 5 5 5 5 5 5 5 5 5 5 5 5 5 5 5 5 5 5 5 5 5 5 5 5 5 5 5 5 5 5 5 5 5 5 5 5 5 5 5 5 5 5 5 5 5 5 5 5 5 5 5 5 5 5 5 5 5 5 5 5 5 5 5 5 5 5 5 5 5 5 5 5 5 5 5 5 5 5 5 5 5 5 5 5 5 5 5 5 5 5 5 5 5 5 5 5 5 5 5 5 5 5 5 5 5 5 5 5 5 5 5 5 5 5 5 5 5 5 5 5 5 5 5 5 5 5 5 5 5 5 5 5 5 5 5 5 5 5 5 5 5 5 5 5 5 5 5 5 5 5 5 5 5 5 5 5 5 5 5 5 5 5 5 5 5 5 5 5 5 5 5 5 5 5 5 5 5 5 5 5 5 5 5 5 5 5 5 5 5 5 5 5 5 5 5 5 5 5 5 5 5 5 5 5 5 5 5 5 5 5 5 5 5 5 5 5 5 5 5 5 5 5 5 5 5 5 5 5 5 5 5 5 5 5 5 5 5 5 5 5 5 5 5 5 5 5 5 5 5 5 5 5 5 5 5 5 5 5 5 5 5 5 5 5 5 5 5 5 5 5 5 5 5 5 5 5 5 5 5 5 5 5 5 5 5 5 5 5 5 5 5 5 5 5 5 5 5 5 5 5 5 5 5 5 5 5 5 5 5 5 5 5 5 5 5 5 5 5 5 5 5 5 5 5 5 5 5 5 5 5 5 5 5 5 5 5 5 5 5 5 5 5 5 5 5 5 5 5 5 5 5 5 5 5 5 5 5 5 5 5 5 5 5 5 5 5 5 5 5 5 5 5 5 5 5 5 5 5 5 5 5 5 5 5 5 5 5 5 5 5 5 5 5 5 5 5 5 5 5 5 5 5 5 5 5 5 5 5 5 5 5 5 5 5 5 5 5 5 5 5 5 5 5 5 5 5 5 5 5 5 5 5 5 5 5 5 5 5 5 5 5 5 5 5 5 5 5 5 5 5 5 5 5 5 5 5 5 5 5 5 5 5 5 5 5 5 5 5 5 5 5 5 5 5 5 5 5 5 5 5 5 5 5 5 5 5 5 5 5 5 5 5 5 5 5 5 5 5 5 5 5 5 5 5 5 5 5 5 5 5 5 5 5 5 5 5 5 5 5 5 5 5 5 5 5 5 5 5 5 5 5 5 5 5 5 5 5 5 5 5 5 5 5 5 5 5 5 5 5 5 5 5 5 5 5 5 5 5 5 5 5 5 5 5 5 5 5 5 5 5 5 5 5 5 5 5 5 5 5 5 5 5 5 5 5 5 5 5 5 5 5 5 5 5 5 5 5 5 5 5 5 5 5 5 5 5 5 5 5 5 5 5 5 5 5 5 5 5 5 5 5 5 5 5 5 5 5 5 5 5 5 5 5 5 5 5 5 5 5 5 5 5 5 5 5 5 5 5 5 5 5 5 5 5 5 5 5 5 5 5 5 5 5 5 5 5 5 5 5 5 5 5 5 5 5 5 5 5 5 5 5 5 5 5 5 5 5 5 5 5 5 5 5 5 5 5 5 5 5 5 5 5 5 5 5 5 5 5 5 5 5 5 5 5 5 5 5 5 5 5 5 5 5 5 5 5 5 5 5 5 5 5 5 5 5 5 5 5 5 5 5 5 5 5 5 5 5 5 5 5 5 5 5 5 5 5 5 5 5 5 5 5 5 5 5 5 5 5 5 5 5 5 5 5 5 5 5 5 5 5 5 5 5 5 5 5 5 5 5 5 5 5 5 5 5 5 5 5 5 5 5 5 5 5 5 5 5 5 5 5 5 5 5 5 5 5 5 5 5 5 5 5 5 5 5 5 5 5 5 5 5 5 5 5 5 5 5 5 5 5 5 5 5 5 5 5 5 5 5 5 5 5 5 5 5 5 5 5 5 5 5 5 5 5 5 5 5 5 5 5 5 5 5 5 5 5 5 5 5 5 5 5 5 5 5 5 5 5 5 5 5 5 5 5 5 5 5 5 5 5 5 5 5 5 5 5 5 5 5 5 5 5 5 5 5 5 5 5 5 5 5 5 5 5 5 5 5 5 5 5 5 5 5 5 5 5 5 5 5 5 5 5 5 5 5 5 5 5 5 5 5 5 5 5 5 5 5 5 5 5 5 5 5 5 5 5 5 5 5 5 5 5 5 5 5 5 5 5 5 5 5 5 5 5 5 5 5 5 5 5 5 5 5 5 5 5 5 5 5 5 5 5 5 5 5 5 5 5 5 5 5 5 5 5 5 5 5 5 5 5 5 5 5 5 5 5 5 5 5 5 5 5 5 5 5 5 5 5 5 5 5 5 5 5 5 5 5 5 5 5 5 5 5 5 5 5 5 5 5 5 5 5 5 5 5 5 5 5 5 5 5 5 5 5 5 5 5 5 5 5 5 5 5 5 5 5 5 5 5 5 5 5 5 5 5 5 5 5 5 5 5 5 5 5 5 5 5 5 5 5 5 5 5 5 5 5 5 5 5 5 5 5 5 5 5 5 5 5 5 5 5 5 5 5 5 5 5 5 5 5 5 5 5 5 5 5 5 5 5 5 5 5 5 5 5 5 5 5 5 5 5 5 5 5 5 5 5 5 5 5 5 5 5 5 5 5 5 5 5 5 5 5 5 5 5 5 5 5 5 5 5 5 5 5 5 5 5 5 5 5 5 5 5 5 5 5 5 5 5 5 5 5 5 5 5 5 5 5 5 5 5 5 5 5 5 5 5 5 5 5 5 5 5 5 5 5 5 5 5 5 5 5 5 5 5 5 5 5 5 5 5 5 5 5 5 5 5 5 5 5 5 5 5 5 5 5 5 5 5 5 5 5 5 5 5 5 5 5 5 5 5 5 5 5 5 5 5 5 5 5 5 5 5 5 5 5 5 5 5 5 5 5 5 5 5 5 5 5 5 5 5 5 5 5 5 5 5 5 5 5 5 5 5 5 5 5 5 5 5 5 5 5 5 5 5 5 5 5 5 5 5 5 5 5 5 5 5 5 5 5 5 5 5 5 5 5 5 5 5 5 5 5 5 5 5 5 5 5 5 5 5 5 5 5 5 5 5 5 5 5 5 5 5 5 5 5 5 5 5 5 5 5 5 5 5 5 5 5 5 5 5 5 5 5 5 5 5 5 5 5 5 5 5 5 5 5 5 5 5 5 5 5 5 5 5 5 5 5 5 5 5 5 5 5 5 5 5 5 5 5 5 5 5 5 5 5 5 5 5 5 5 5 5 5 5 5 5 5 5 5 5 5 5 5 5 5 5 5 5 5 5 5 5 5 5 5 5 5 5 5 5 5 5 5 5 5 5 5 5 5 5 5 5 5 5 5 5 5 5 5 5 5 5 5 5 5 5 5 5 5 5 5 5 5 5 5 5 5 5 5 5 5 5 5 5 5 5 5 5 5 5 5 5 5 5 5 5 5 5 5 5 5 5 5 5 5 5 5 5 5 5 5 5 5 5 5 5 5 5 5 5 5 5 5 5 5 5 5 5 5 5 5 5 5 5 5 5 5 5 5 5 5 5 5 5 5 5 5 5 5 5 5 5 5 5 5 5 5 5 5 5 5 5 5 5 5 5 5 5 5 5 5 5 5 5 5 5 5 5 5 5 5 5 5 5 5 5 5 5 5 5 5 5 5 5 5 5 5 5 5 5 5 5 5 5 5 5 5 5 5 5 5 5 5 5 5 5 5 5 5 5 5 5 5 5 5 5 5 5 5 5 5 5 5 5 5 5 5 5 5 5 5 5 5 5 5 5 5 5 5 5 5 5 5 5 5 5 5 5 5 5 5 5 5 5 5 5 5 5 5 5 5 5 5 5 5 5 5 5 5 5 5 5 5 5 5 5 5 5 5 5 5 5 5 5 5 5 5 5 5 5 5 5 5 5 5 5 5 5 5 5 5 5 5 5 5 5 5 5 5 5 5 5 5 5 5 5 5 5 5 5 5 5 5 5 5 5 5 5 5 5 5 5 5 5 5 5 5 5 5 5 5 5 5 5 5 5 5 5 5 5 5 5 5 5 5 5 5 5 5 5 5 5 5 5 5 5 5 5 5 5 5 5 5 5 5 5 5 5 5 5 5 5 5 5 5 5 5 5 5 5 5 5 5 5 5 5 5 5 5 5 5 5 5 5 5 5 5 5 5 5 5 5 5 5 5 5 5 5 5 5 5 5 5 5 5 5 5 5 5 5 5 5 5 5 5 5 5 5 5 5 5 5 5 5 5 5 5 5 5 5 5 5 5 5 5 5 5 5 5 5 5 5 5 5 5 5 5 5 5 5 5 5 5 5 5 5 5 5 5 5 5 5 5 5 5 5 5 5 5 5 5 5 5 5 5 5 5 5 5 5 5 5 5 5 5 5 5 5 5 5 5 5 5 5 5 5 5 5 5 5 5 5 5 5 5 5 5 5 5 5 5 5 5 5 5 5 5 5 5 5 5 5 5 5 5 5 5 5 5 5 5 5 5 5 5 5 5 5 5 5 5 5 5 5 5 5 5 5 5 5 5 5 5 5 5 5 5 5 5 5 5 5 5 5 5 5 5 5 5 5 5 5 5 5 5 5 5 5 5 5 5 5 5 5 5 5 5 5 5 5 5 5 5 5 5 5 5 5 5 5 5 5 5 5 5 5 5 5 5 5 5 5 5 5 5 5 5 5 5 5 5 5 5 5 5 5 5 5 5 5 5 5 5 5 5 5 5 5 5 5 5 5 5 5 5 5 5 5 5 5 5 5 5 5 5 5 5 5 5 5 5 5 5 5 5 5 5 5 5 5 5 5 5 5 5 5 5 5 5 5 5 5 5 5 5 5 5 5 5 5 5 5 5 5 5 5 5 5 5 5 5 5 5 5 5 5 5 5 5 5 5 5 5 5 5 5 5 5 5 5 5 5 5 5 5 5 5 5 5 5 5 5 5 5 5 5 5 5 5 5 5 5 5 5 5 5 5 5 5 5 5 5 5 5 5 5 5 5 5 5 5 5 5 5 5 5 5 5 5 5 5 5 5 5 5 5 5 5 5 5 5 5 5 5 5 5 5 5 5 5 5 5 5 5 5 5 5 5 5 5 5 5 5 5 5 5 5 5 5 5 5 5 5 5 5 5 5 5 5 5 5 5 5 5 5 5 5 5 5 5 5 5 5 5 5 5 5 5 5 5 5 5 5 5 5 5 5 5 5 5 5 5 5 5 5 5 5 5 5 5 5 5 5 5 5 5 5 5 5 5 5 5 5 5 5 5 5 5 5 5 5 5 5 5 5 5 5 5 5 5 5 5 5 5 5 5 5 5 5 5 5 5 5 5 5 5 5 5 5 5 5 5 5 5 5 5 5 5 5 5 5 5 5 5 5 5 5 5 5 5 5 5 5 5 5 5 5 5 5 5 5 5 5 5 5 5 5 5 5 5 5 5 5 5 5 5 5 5 5 5 5 5 5 5 5 5 5 5 5 5 5 5 5 5 5 5 5 5 5 5 5 5 5 5 5 5 5 5 5 5 5 5 5 5 5 5 5 5 5 5 5 5 5 5 5 5 5 5 5 5 5 5 5 5 5 5 5 5 5 5 5 5 5 5 5 5 5 5 5 5 5 5 5 5 5 5 5 5 5 5 5 5 5 5 5 5 5 5 5 5 5 5 5 5 5 5 5 5 5 5 5 5 5 5 5 5 5 5 5 5 5 5 5 5 5 5 5 5 5 5 5 5 5 5 5 5 5 5 5 5 5 5 5 5 5 5 5 5 5 5 5 5 5 5 5 5 5 5 5 5 5 5 5 5 5 5 5 5 5 5 5 5 5 5 5 5 5 5 5 5 5 5 5 5 5 5 5 5 5 5 5 5 5 5 5 5 5 5 5 5 5 5 5 5 5 5 5 5 5 5 5 5 5 5 5 5 5 5 5 5 5 5 5 5 5 5 5 5 5 5 5 5 5 5 5 5 5 5 5 5 5 5 5 5 5 5 5 5 5 5 5 5 5 5 5 5 5 5 5 5 5 5 5 5 5 5 5 5 5 5 5 5 5 5 5 5 5 5 5 5 5 5 5 5 5 5 5 5 5 5 5 5 5 5 5 5 5 5 5 5 5 5 5 5 5 5 5 5 5 5 5 5 5 5 5 5 5 5 5 5 5 5 5 5 5 5 5 5 5 5 5 5 5 5 5 5 5 5 5 5 5 5 5 5 5 5 5 5 5 5 5 5 5 5 5 5 5 5 5 5 5 5 5 5 5 5 5 5 5 5 5 5 5 5 5 5 5 5 5 5 5 5 5 5 5 5 5 5 5 5 5 5 5 5 5 5 5 5 5 5 5 5 5 5 5 5 5 5 5 5 5 5 5 5 5 5 5 5 5 5 5 5 5 5 5 5 5 5 5 5 5 5 5 5 5 5 5 5 5 5 5 5 5 5 5 5 5 5 5 5 5 5 5 5 5 5 5 5 5 5 5 5 5 5 5 5 5 5 5 5 5 5 5 5 5 5 5 5 5 5 5 5 5 5 5 5 5 5 5 5 5 5 5 5 5 5 5 5 5 5 5 5 5 5 5 5 5 5 5 5 5 5 5 5 5 5 5 5 5 5 5 5 5 5 5 5 5 5 5 5 5 5 5 5 5 5 5 5 5 5 5 5 5 5 5 5 5 5 5 5 5 5 5 5 5 5 5 5 5 5 5 5 5 5 5 5 5 5 5 5 5 5 5 5 5 5 5 5 5 5 5 5 5 5 5 5 5 5 5 5 5 5 5 5 5 5 5 5 5 5 5 5 5 5 5 5 5 5 5 5 5 5 5 5 5 5 5 5 5 5 5 5 5 5 5 5 5 5 5 5 5 5 5 5 5 5 5 5 5 5 5 5 5 5 5 5 5 5 5 5 5 5 5 5 5 5 5 5 5 5 5 5 5 5 5 5 5 5 5 5 5 5 5 5 5 5 5 5 5 5 5 5 5 5 5 5 5 5 5 5 5 5 5 5 5 5 5 5 5 5 5 5 5 5 5 5 5 5 5 5 5 5 5 5 5 5 5 5 5 5 5 5 5 5 5 5 5 5 5 5 5 5 5 5 5 5 5 5 5 5 5 5 5 5 5 5 5 5 5 5 5 5 5 5 5 5 5 5 5 5 5 5 5 5 5 5 5 5 5 5 5 5 5 5 5 5 5 5 5 5 5 5 5 5 5 5 5 5 5 5 5 5 5 5 5 5 5 5 5 5 5 5 5 5 5 5 5 5 5 5 5 5 5 5 5 5 5 5 5 5 5 5 5 5 5 5 5 5 5 5 5 5 5 5 5 5 5 5 5 5 5 5 5 5 5 5 5 5 5 5 5 5 5 5 5 5 5 5 5 5 5 5 5 5 5 5 5 5 5 5 5 5 5 5 5 5 5 5 5 5 5 5 5 5 5 5 5 5 5 5 5 5 5 5 5 5 5 5 5 5 5 5 5 5 5 5 5 5 5 5 5 5 5 5 5 5 5 5 5 5 5 5 5 5 5 5 5 5 5 5 5 5 5 5 5 5 5 5 5 5 5 5 5 5 5 5 5 5 5 5 5 5 5 5 5 5 5 5 5 5 5 5 5 5 5 5 5 5 5 5 5 5 5 5 5 5 5 5 5 5 5 5 5 5 5 5 5 5 5 5 5 5 5 5 5 5 5 5 5 5 5 5 5 5 5 5 5 5 5 5 5 5 5 5 5 5 5 5 5 5 5 5 5 5 5 5 5 5 5 5 5 5 5 5 5 5 5 5 5 5 5 5 5 5 5 5 5 5 5 5 5 5 5 5 5 5 5 5 5 5 5 5 5 5 5 5 5 5 5 5 5 5 5 5 5 5 5 5 5 5 5 5 5 5 5 5 5 5 5 5 5 5 5 5 5 5 5 5 5 5 5 5 5 5 5 5 5 5 5 5 5 5 5 5 5 5 5 5 5 5 5 5 5 5 5 5 5 5 5 5 5 5 5 5 5 5 5 5 5 5 5 5 5 5 5 5 5 5 5 5 5 5 5 5 5 5 5 5 5 5 5 5 5 5 5 5 5 5 5 5 5 5 5 5 5 5 5 5 5 5 5 5 5 5 5 5 5 5 5 5 5 5 5 5 5 5 5 5 5 5 5 5 5 5 5 5 5 5 5 5 5 5 5 5 5 5 5 5 5 5 5 5 5 5 5 5 5 5 5 5 5 5 5 5 5 5 5 5 5 5 5 5 5 5 5 5 5 5 5 5 5 5 5 5 5 5 5 5 5 5 5 5 5 5 5 5 5 5 5 5 5 5 5 5 5 5 5 5 5 5 5 5 5 5 5 5 5 5 5 5 5 5 5 5 5 5 5 5 5 5 5 5 5 5 5 5 5 5 5 5 5 5 5 5 5 5 5 5 5 5 5 5 5 5 5 5 5 5 5 5 5 5 5 5 5 5 5 5 5 5 5 5 5 5 5 5 5 5 5 5 5 5 5 5 5 5 5 5 5 5 5 5 5 5 5 5 5 5 5 5 5 5 5 5 5 5 5 5 5 5 5 5 5 5 5 5 5 5 5 5 5 5 5 5 5 5 5 5 5 5 5 5 5 5 5 5 5 5 5 5 5 5 5 5 5 5 5 5 5 5 5 5 5 5 5 5 5 5 5 5 5 5 5 5 5 5 5 5 5 5 5 5 5 5 5 5 5 5 5 5 5 5 5 5 5 5 5 5 5 5 5 5 5 5 5 5 5 5 5 5 5 5 5 5 5 5 5 5 5 5 5 5 5 5 5 5 5 5 5 5 5 5 5 5 5 5 5 5 5 5 5 5 5 5 5 5 5 5 5 5 5 5 5 5 5 5 5 5 5 5 5 5 5 5 5 5 5 5 5 5 5 5 5 5 5 5 5 5 5 5 5 5 5 5 5 5 5 5 5 5 5 5 5 5 5 5 5 5 5 5 5 5 5 5 5 5 5 5 5 5 5 5 5 5 5 5 5 5 5 5 5 5 5 5 5 5 5 5 5 5 5 5 5 5 5 5 5 5 5 5 5 5 5 5 5 5 5 5 5 5 5 5 5 5 5 5 5 5 5 5 5 5 5 5 5 5 5 5 5 5 5 5 5 5 5 5 5 5 5 5 5 5 5 5 5 5 5 5 5 5 5 5 5 5 5 5 5 5 5 5 5 5 5 5 5 5 5 5 5 5 5 5 5 5 5 5 5 5 5 5 5 5 5 5 5 5 5 5 5 5 5 5 5 5 5 5 5 5 5 5 5 5 5 5 5 5 5 5 5 5 5 5 5 5 5 5 5 5 5 5 5 5 5 5 5 5 5 5 5 5 5 5 5 5 5 5 5 5 5 5 5 5 5 5 5 5 5 5 5 5 5 5 5 5 5 5 5 5 5 5 5 5 5 5 5 5 5 5 5 5 5 5 5 5 5 5 5 5 5 5 5 5 5 5 5 5 5 5 5 5 5 5 5 5 5 5 5 5 5 5 5 5 5 5 5 5 5 5 5 5 5 5 5 5 5 5 5 5 5 5 5 5 5 5 5 5 5 5 5 5 5 5 5 5 5 5 5 5 5 5 5 5 5 5 5 5 5 5 5 5 5 5 5 5 5 5 5 5 5 5 5 5 5 5 5 5 5 5 5 5 5 5 5 5 5 5 5 5 5 5 5 5 5 5 5 5 5 5 5 5 5 5 5 5 5 5 5 5 5 5 5 5 5 5 5 5 5 5 5 5 5 5 5 5 5 5 5 5 5 5 5 5 5 5 5 5 5 5 5 5 5 5 5 5 5 5 5 5 5 5 5 5 5 5 5 5 5 5 5 5 5 5 5 5 5 5 5 5 5 5 5 5 5 5 5 5 5 5 5 5 5 5 5 5 5 5 5 5 5 5 5 5 5 5 5 5 5 5 5 5 5 5 5 5 5 5 5 5 5 5 5 5 5 5 5 5 5 5 5 5 5 5 5 5 5 5 5 5 5 5 5 5 5 5 5 5 5 5 5 5 5 5 5 5 5 5 5 5 5 5 5 5 5 5 5 5 5 5 5 5 5 5 5 5 5 5 5 5 5 5 5 5 5 5 5 5 5 5 5 5 5 5 5 5 5 5 5 5 5 5 5 5 5 5 5 5 5 5 5 5 5 5 5 5 5 5 5 5 5 5 5 5 5 5 5 5 5 5 5 5 5 5 5 5 5 5 5 5 5 5 5 5 5 5 5 5 5 5 5 5 5 5 5 5 5 5 5 5 5 5 5 5 5 5 5 5 5 5 5 5 5 5 5 5 5 5 5 5 5 5 5 5 5 5 5 5 5 5 5 5 5 5 5 5 5 5 5 5 5 5 5 5 5 5 5 5 5 5 5 5 5 5 5 5 5 5 5 5 5 5 5 5 5 5 5 5 5 5 5 5 5 5 5 5 5 5 5 5 5 5 5 5 5 5 5 5 5 5 5 5 5 5 5 5 5 5 5 5 5 5 5 5 5 5 5 5 5 5 5 5 5 5 5 5 5 5 5 5 5 5 5 5 5 5 5 5 5 5 5 5 5 5 5 5 5 5 5 5 5 5 5 5 5 5 5 5 5 5 5 5 5 5 5 5 5 5 5 5 5 5 5 5 5 5 5 5 5 5 5 5 5 5 5 5 5 5 5 5 5 5 5 5 5 5 5 5 5 5 5 5 5 5 5 5 5 5 5 5 5 5 5 5 5 5 5 5 5 5 5 5 5 5 5 5 5 5 5 5 5 5 5 5 5 5 5 5 5 5 5 5 5 5 5 5 5 5 5 5 5 5 5 5 5 5 5 5 5 5 5 5 5 5 5 5 5 5 5 5 5 5 5 5 5 5 5 5 5 5 5 5 5 5 5 5 5 5 5 5 5 5 5 5 5 5 5 5 5 5 5 5 5 5 5 5 5 5 5 5 5 5 5 5 5 5 5 5 5 5 5 5 5 5 5 5 5 5 5 5 5 5 5 5 5 5 5 5 5 5 5 5 5 5 5 5 5 5 5 5 5 5 5 5 5 5 5 5 5 5 5 5 5 5 5 5 5 5 5 5 5 5 5 5 5 5 5 5 5 5 5 5 5 5 5 5 5 5 5 5 5 5 5 5 5 5 5 5 5 5 5 5 5 5 5 5 5 5 5 5 5 5 5 5 5 5 5 5 5 5 5 5 5 5 5 5 5 5 5 5 5 5 5 5 5 5 5 5 5 5 5 5 5 5 5 5 5 5 5 5 5 5 5 5 5 5 5 5 5 5 5 5 5 5 5 5 5 5 5 5 5 5 5 5 5 5 5 5 5 5 5 5 5 5 5 5 5 5 5 5 5 5 5 5 5 5 5 5 5 5 5 5 5 5 5 5 5 5 5 5 5 5 5 5 5 5 5 5 5 5 5 5 5 5 5 5 5 5 5 5 5 5 5 5 5 5 5 5 5 5 5 5 5 5 5 5 5 5 5 5 5 5 5 5 5 5 5 5 5 5 5 5 5 5 5 5 5 5 5 5 5 5 5 5 5 5 5 5 5 5 5 5 5 5 5 5 5 5 5 5 5 5 5 5 5 5 5 5 5 5 5 5 5 5 5 5 5 5 5 5 5 5 5 5 5 5 5 5 5 5 5 5 5 5 5 5 5 5 5 5 5 5 5 5 5 5 5 5 5 5 5 5 5 5 5 5 5 5 5 5 5 5 5 5 5 5 5 5 5 5 5 5 5 5 5 5 5 5 5 5 5 5 5 5 5 5 5 5 5 5 5 5 5 5 5 5 5 5 5 5 5 5 5 5 5 5 5 5 5 5 5 5 5 5 5 5 5 5 5 5 5 5 5 5 5 5 5 5 5 5 5 5 5 5 5 5 5 5 5 5 5 5 5 5 5 5 5 5 5 5 5 5 5 5 5 5 5 5 5 5 5 5 5 5 5 5 5 5 5 5 5 5 5 5 5 5 5 5 5 5 5 5 5 5 5 5 5 5 5 5 5 5 5 5 5 5 5 5 5 5 5 5 5 5 5 5 5 5 5 5 5 5 5 5 5 5 5 5 5 5 5 5 5 5 5 5 5 5 5 5 5 5 5 5 5 5 5 5 5 5 5 5 5 5 5 5 5 5 5 5 5 5 5 5 5 5 5 5 5 5 5 5 5 5 5 5 5 5 5 5 5 5 5 5 5 5 5 5 5 5 5 5 5 5 5 5 5 5 5 5 5 5 5 5 5 5 5 5 5 5 5 5 5 5 5 5 5 5 5 5 5 5 5 5 5 5 5 5 5 5 5 5 5 5 5 5 5 5 5 5 5 5 5 5 5 5 5 5 5 5 5 5 5 5 5 5 5 5 5 5 5 5 5 5 5 5 5 5 5 5 5 5 5 5 5 5 5 5 5 5 5 5 5 5 5 5 5 5 5 5 5 5 5 5 5 5 5 5 5 5 5 5 5 5 5 5 5 5 5 5 5 5 5 5 5 5 5 5 5 5 5 5 5 5 5 5 5 5 5 5 5 5 5 5 5 5 5 5 5 5 5 5 5 5 5 5 5 5 5 5 5 5 5 5 5 5 5 5 5 5 5 5 5 5 5 5 5 5 5 5 5 5 5 5 5 5 5 5 5 5 5 5 5 5 5 5 5 5 5 5 5 5 5 5 5 5 5 5 5 5 5 5 5 5 5 5 5 5 5 5 5 5 5 5 5 5 5 5 5 5 5 5 5 5 5 5 5 5 5 5 5 5 5 5 5 5 5 5 5 5 5 5 5 5 5 5 5 5 5 5 5 5 5 5 5 5 5 5 5 5 5 5 5 5 5 5 5 5 5 5 5 5 5 5 5 5 5 5 5 5 5 5 5 5 5 5 5 5 5 5 5 5 5 5 5 5 5 5 5 5 5 5 5 5 5 5 5 5 5 5 5 5 5 5 5 5 5 5 5 5 5 5 5 5 5 5 5 5 5 5 5 5 5 5 5 5 5 5 5 5 5 5 5 5 5 5 5 5 5 5 5 5 5 5 5 5 5 5 5 5 5 5 5 5 5 5 5 5 5 5 5 5 5 5 5 5 5 5 5 5 5 5 5 5 5 5 5 5 5 5 5 5 5 5 5 5 5 5 5 5 5 5 5 5 5 5 5 5 5 5 5 5 5 5 5 5 5 5 5 5 5 5 5 5 5 5 5 5 5 5 5 5 5 5 5 5 5 5 5 5 5 5 5 5 5 5 5 5 5 5 5 5 5 5 5 5 5 5 5 5 5 5 5 5 5 5 5 5 5 5 5 5 5 5 5 5 5 5 5 5 5 5 5 5 5 5 5 5 5 5 5 5 5 5 5 5 5 5 5 5 5 5 5 5 5 5 5 5 5 5 5 5 5 5 5 5 5 5 5 5 5 5 5 5 5 5 5 5 5 5 5 5 5 5 5 5 5 5 5 5 5 5 5 5 5 5 5 5 5 5 5 5 5 5 5 5 5 5 5 5 5 5 5 5 5 5 5 5 5 5 5 5 5 5 5 5 5 5 5 5 5 5 5 5 5 5 5 5 5 5 5 5 5 5 5 5 5 5 5 5 5 5 5 5 5 5 5 5 5 5 5 5 5 5 5 5 5 5 5 5 5 5 5 5 5 5 5 5 5 5 5 5 5 5 5 5 5 5 5 5 5 5 5 5 5 5 5 5 5 5 5 5 5 5 5 5 5 5 5 5 5 5 5 5 5 5 5 5 5 5 5 5 5 5 5 5 5 5 5 5 5 5 5 5 5 5 5 5 5 5 5 5 5 5 5 5 5 5 5 5 5 5 5 5 5 5 5 5 5 5 5 5 5 5 5 5 5 5 5 5 5 5 5 5 5 5 5 5 5 5 5 5 5 5 5 5 5 5 5 5 5 5 5 5 5 5 5 5 5 5 5 5 5 5 5 5 5 5 5 5 5 5 5 5 5 5 5 5 5 5 5 5 5 5 5 5 5 5 5 5 5 5 5 5 5 5 5 5 5 5 5 5 5 5 5 5 5 5 5 5 5 5 5 5 5 5 5 5 5 5 5 5 5 5 5 5 5 5 5 5 5 5 5 5 5 5 5 5 5 5 5 5 5 5 5 5 5 5 5 5 5 5 5 5 5 5 5 5 5 5 5 5 5 5 5 5 5 5 5 5 5 5 5 5 5 5 5 5 5 5 5 5 5 5 5 5 5 5 5 5 5 5 5 5 5 5 5 5 5 5 5 5 5 5 5 5 5 5 5 5 5 5 5 5 5 5 5 5 5 5 5 5 5 5 5 5 5 5 5 5 5 5 5 5 5 5 5 5 5 5 5 5 5 5 5 5 5 5 5 5 5 5 5 5 5 5 5 5 5 5 5 5 5 5 5 5 5 5 5 5 5 5 5 5 5 5 5 5 5 5 5 5 5 5 5 5 5 5 5 5 5 5 5 5 5 5 5 5 5 5 5 5 5 5 5 5 5 5 5 5 5 5 5 5 5 5 5 5 5 5 5 5 5 5 5 5 5 5 5 5 5 5 5 5 5 5 5 5 5 5 5 5 5 5 5 5 5 5 5 5 5 5 5 5 5 5 5 5 5 5 5 5 5 5 5 5 5 5 5 5 5 5 5 5 5 5 5 5 5 5 5 5 5 5 5 5 5 5 5 5 5 5 5 5 5 5 5 5 5 5 5 5 5 5 5 5 5 5 5 5 5 5 5 5 5 5 5 5 5 5 5 5 5 5 5 5 5 5 5 5 5 5 5 5 5 5 5 5 5 5 5 5 5 5 5 5 5 5 5 5 5 5 5 5 5 5 5 5 5 5 5 5 5 5 5 5 5 5 5 5 5 5 5 5 5 5 5 5 5 5 5 5 5 5 5 5 5 5 5 5 5 5 5 5 5 5 5 5 5 5 5 5 5 5 5 5 5 5 5 5 5 5 5 5 5 5 5 5 5 5 5 5 5 5 5 5 5 5 5 5 5 5 5 5 5 5 5 5 5 5 5 5 5 5 5 5 5 5 5 5 5 5 5 5 5 5 5 5 5 5 5 5 5 5 5 5 5 5 5 5 5 5 5 5 5 5 5 5 5 5 5 5 5 5 5 5 5 5 5 5 5 5 5 5 5 5 5 5 5 5 5 5 5 5 5 5 5 5 5 5 5 5 5 5 5 5 5 5 5 5 5 5 5 5 5 5 5 5 5 5 5 5 5 5 5 5 5 5 5 5 5 5 5 5 5 5 5 5 5 5 5 5 5 5 5 5 5 5 5 5 5 5 5 5 5 5 5 5 5 5 5 5 5 5 5 5 5 5 5 5 5 5 5 5 5 5 5 5 5 5 5 5 5 5 5 5 5 5 5 5 5 5 5 5 5 5 5 5 5 5 5 5 5 5 5 5 5 5 5 5 5 5 5 5 5 5 5 5 5 5 5 5 5 5 5 5 5 5 5 5 5 5 5 5 5 5 5 5 5 5 5 5 5 5 5 5 5 5 5 5 5 5 5 5 5 5 5 5 5 5 5 5 5 5 5 5 5 5 5 5 5 5 5 5 5 5 5 5 5 5 5 5 5 5 5 5 5 5 5 5 5 5 5 5 5 5 5 5 5 5 5 5 5 5 5 5 5 5 5 5 5 5 5 5 5 5 5 5 5 5 5 5 5 5 5 5 5 5 5 5 5 5 5 5 5 5 5 5 5 5 5 5 5 5 5 5 5 5 5 5 5 5 5 5 5 5 5 5 5 5 5 5 5 5 5 5 5 5 5 5 5 5 5 5 5 5 5 5 5 5 5 5 5 5 5 5 5 5 5 5 5 5 5 5 5 5 5 5 5 5 5 5 5 5 5 5 5 5 5 5 5 5 5 5 5 5 5 5 5 5 5 5 5 5 5 5 5 5 5 5 5 5 5 5 5 5 5 5 5 5 5 5 5 5 5 5 5 5 5 5 5 5 5 5 5 5 5 5 5 5 5 5 5 5 5 5 5 5 5 5 5 5 5 5 5 5 5 5 5 5 5 5 5 5 5 5 5 5 5 5 5 5 5 5 5 5 5 5 5 5 5 5 5 5 5 5 5 5 5 5 5 5 5 5 5 5 5 5 5 5 5 5 5 5 5 5 5 5 5 5 5 5 5 5 5 5 5 5 5 5 5 5 5 5 5 5 5 5 5 5 5 5 5 5 5 5 5 5 5 5 5 5 5 5 5 5 5 5 5 5 5 5 5 5 5 5 5 5 5 5 5 5 5 5 5 5 5 5 5 5 5 5 5 5 5 5 5 5 5 5 5 5 5 5 5 5 5 5 5 5 5 5 5 5 5 5 5 5 5 5 5 5 5 5 5 5 5 5 5 5 5 5 5 5 5 5 5 5 5 5 5 5 5 5 5 5 5 5 5 5 5 5 5 5 5 5 5 5 5 5 5 5 5 5 5 5 5 5 5 5 5 5 5 5 5 5 5 5 5 5 5 5 5 5 5 5 5 5 5 5 5 5 5 5 5 5 5 5 5 5 5 5 5 5 5 5 5 5 5 5 5 5 5 5 5 5 5 5 5 5 5 5 5 5 5 5 5 5 5 5 5 5 5 5 5 5 5 5 5 5 5 5 5 5 5 5 5 5 5 5 5 5 5 5 5 5 5 5 5 5 5 5 5 5 5 5 5 5 5 5 5 5 5 5 5 5 5 5 5 5 5 5 5 5 5 5 5 5 5 5 5 5 5 5 5 5 5 5 5 5 5 5 5 5 5 5 5 5 5 5 5 5 5 5 5 5 5 5 5 5 5 5 5 5 5 5 5 5 5 5 5 5 5 5 5 5 5 5 5 5 5 5 5 5 5 5 5 5 5 5 5 5 5 5 5 5 5 5 5 5 5 5 5 5 5 5 5 5 5 5 5 5 5 5 5 5 5 5 5 5 5 5 5 5 5 5 5 5 5 5 5 5 5 5 5 5 5 5 5 5 5 5 5 5 5 5 5 5 5 5 5 5 5 5 5 5 5 5 5 5 5 5 5 5 5 5 5 5 5 5 5 5 5 5 5 5 5 5 5 5 5 5 5 5 5 5 5 5 5 5 5 5 5 5 5 5 5 5 5 5 5 5 5 5 5 5 5 5 5 5 5 5 5 5 5 5 5 5 5 5 5 5 5 5 5 5 5 5 5 5 5 5 5 5 5 5 5 5 5 5 5 5 5 5 5 5 5 5 5 5 5 5 5 5 5 5 5 5 5 5 5 5 5 5 5 5 5 5 5 5 5 5 5 5 5 5 5 5 5 5 5 5 5 5 5 5 5 5 5 5 5 5 5 5 5 5 5 5 5 5 5 5 5 5 5 5 5 5 5 5 5 5 5 5 5 5 5 5 5 5 5 5 5 5 5 5 5 5 5 5 5 5 5 5 5 5 5 5 5 5 5 5 5 5 5 5 5 5 5 5 5 5 5 5 5 5 5 5 5 5 5 5 5 5 5 5 5 5 5 5 5 5 5 5 5 5 5 5 5 5 5 5 5 5 5 5 5 5 5 5 5 5 5 5 5 5 5 5 5 5 5 5 5 5 5 5 5 5 5 5 5 5 5 5 5 5 5 5 5 5 5 5 5 5 5 5 5 5 5 5 5 5 5 5 5 5 5 5 5 5 5 5 5 5 5 5 5 5 5 5 5 5 5 5 5 5 5 5 5 5 5 5 5 5 5 5 5 5 5 5 5 5 5 5 5 5 5 5 5 5 5 5 5 5 5 5 5 5 5 5 5 5 5 5 5 5 5 5 5 5 5 5 5 5 5 5 5 5 5 5 5 5 5 5 5 5 5 5 5 5 5 5 5 5 5 5 5 5 5 5 5 5 5 5 5 5 5 5 5 5 5 5 5 5 5 5 5 5 5 5 5 5 5 5 5 5 5 5 5 5 5 5 5 5 5 5 5 5 5 5 5 5 5 5 5 5 5 5 5 5 5 5 5 5 5 5 5 5 5 5 5 5 5 5 5 5 5 5 5 5 5 5 5 5 5 5 5 5 5 5 5 5 5 5 5 5 5 5 5 5 5 5 5 5 5 5 5 5 5 5 5 5 5 5 5 5 5 5 5 5 5 5 5 5 5 5 5 5 5 5 5 5 5 5 5 5 5 5 5 5 5 5 5 5 5 5 5 5 5 5 5 5 5 5 5 5 5 5 5 5 5 5 5 5 5 5 5 5 5 5 5 5 5 5 5 5 5 5 5 5 5 5 5 5 5 5 5 5 5 5 5 5 5 5 5 5 5 5 5 5 5 5 5 5 5 5 5 5 5 5 5 5 5 5 5 5 5 5 5 5 5 5 5 5 5 5 5 5 5 5 5 5 5 5 5 5 5 5 5 5 5 5 5 5 5 5 5 5 5 5 5 5 5 5 5 5 5 5 5 5 5 5 5 5 5 5 5 5 5 5 5 5 5 5 5 5 5 5 5 5 5 5 5 5 5 5 5 5 5 5 5 5 5 5 5 5 5 5 5 5 5 5 5 5 5 5 5 5 5 5 5 5 5 5 5 5 5 5 5 5 5 5 5 5 5 5 5 5 5 5 5 5 5 5 5 5 5 5 5 5 5 5 5 5 5 5 5 5 5 5 5 5 5 5 5 5 5 5 5 5 5 5 5 5 5 5 5 5 5 5 5 5 5 5 5 5 5 5 5 5 5 5 5 5 5 5 5 5 5 5 5 5 5 5 5 5 5 5 5 5 5 5 5 5 5 5 5 5 5 5 5 5 5 5 5 5 5 5 5 5 5 5 5 5 5 5 5 5 5 5 5 5 5 5 5 5 5 5 5 5 5 5 5 5 5 5 5 5 5 5 5 5 5 5 5 5 5 5 5 5 5 5 5 5 5 5 5 5 5 5 5 5 5 5 5 5 5 5 5 5 5 5 5 5 5 5 5 5 5 5 5 5 5 5 5 5 5 5 5 5 5 5 5 5 5 5 5 5 5 5 5 5 5 5 5 5 5 5 5 5 5 5 5 5 5 5 5 5 5 5 5 5 5 5 5 5 5 5 5 5 5 5 5 5 5 5 5 5 5 5 5 5 5 5 5 5 5 5 5 5 5 5 5 5 5 5 5 5 5 5 5 5 5 5 5 5 5 5 5 5 5 5 5 5 5 5 5 5 5 5 5 5 5 5 5 5 5 5 5 5 5 5 5 5 5 5 5 5 5 5 5 5 5 5 5 5 5 5 5 5 5 5 5 5 5 5 5 5 5 5 5 5 5 5 5 5 5 5 5 5 5 5 5 5 5 5 5 5 5 5 5 5 5 5 5 5 5 5 5 5 5 5 5 5 5 5 5 5 5 5 5 5 5 5 5 5 5 5 5 5 5 5 5 5 5 5 5 5 5 5 5 5 5 5 5 5 5 5 5 5 5 5 5 5 5 5 5 5 5 5 5 5 5 5 5 5 5 5 5 5 5 5 5 5 5 5 5 5 5 5 5 5 5 5 5 5 5 5 5 5 5 5 5 5 5 5 5 5 5 5 5 5 5 5 5 5 5 5 5 5 5 5 5 5 5 5 5 5 5 5 5 5 5 5 5 5 5 5 5 5 5 5 5 5 5 5 5 5 5 5 5 5 5 5 5 5 5 5 5 5 5 5 5 5 5 5 5 5 5 5 5 5 5 5 5 5 5 5 5 5 5 5 5 5 5 5 5 5 5 5 5 5 5 5 5 5 5 5 5 5 5 5 5 5 5 5 5 5 5 5 5 5 5 5 5 5 5 5 5 5 5 5 5 5 5 5 5 5 5 5 5 5 5 5 5 5 5 5 5 5 5 5 5 5 5 5 5 5 5 5 5 5 5 5 5 5 5 5 5 5 5 5 5 5 5 5 5 5 5 5 5 5 5 5 5 5 5 5 5 5 5 5 5 5 5 5 5 5 5 5 5 5 5 5 5 5 5 5 5 5 5 5 5 5 5 5 5 5 5 5 5 5 5 5 5 5 5 5 5 5 5 5 5 5 5 5 5 5 5 5 5 5 5 5 5 5 5 5 5 5 5 5 5 5 5 5 5 5 5 5 5 5 5 5 5 5 5 5 5 5 5 5 5 5 5 5 5 5 5 5 5 5 5 5 5 5 5 5 5 5 5 5 5 5 5 5 5 5 5 5 5 5 5 5 5 5 5 5 5 5 5 5 5 5 5 5 5 5 5 5 5 5 5 5 5 5 5 5 5 5 5 5 5 5 5 5 5 5 5 5 5 5 5 5 5 5 5 5 5 5 5 5 5 5 5 5 5 5 5 5 5 5 5 5 5 5 5 5 5 5 5 5 5 5 5 5 5 5 5 5 5 5 5 5 5 5 5 5 5 5 5 5 5 5 5 5 5 5 5 5 5 5 5 5 5 5 5 5 5 5 5 5 5 5 5 5 5 5 5 5 5 5 5 5 5 5 5 5 5 5 5 5 5 5 5 5 5 5 5 5 5 5 5 5 5 5 5 5 5 5 5 5 5 5 5 5 5 5 5 5 5 5 5 5 5 5 5 5 5 5 5 5 5 5 5 5 5 5 5 5 5 5 5 5 5 5 5 5 5 5 5 5 5 5 5 5 5 5 5 5 5 5 5 5 5 5 5 5 5 5 5 5 5 5 5 5 5 5 5 5 5 5 5 5 5 5 5 5 5 5 5 5 5 5 5 5 5 5 5 5 5 5 5 5 5 5 5 5 5 5 5 5 5 5 5 5 5 5 5 5 5 5 5 5 5 5 5 5 5 5 5 5 5 5 5 5 5 5 5 5 5 5 5 5 5 5 5 5 5 5 5 5 5 5 5 5 5 5 5 5 5 5 5 5 5 5 5 5 5 5 5 5 5 5 5 5 5 5 5 5 5 5 5 5 5 5 5 5 5 5 5 5 5 5 5 5 5 5 5 5 5 5 5 5 5 5 5 5 5 5 5 5 5 5 5 5 5 5 5 5 5 5 5 5 5 5 5 5 5 5 5 5 5 5 5 5 5 5 5 5 5 5 5 5 5 5 5 5 5 5 5 5 5 5 5 5 5 5 5 5 5 5 5 5 5 5 5 5 5 5 5 5 5 5 5 5 5 5 5 5 5 5 5 5 5 5 5 5 5 5 5 5 5 5 5 5 5 5 5 5 5 5 5 5 5 5 5 5 5 5 5 5 5 5 5 5 5 5 5 5 5 5 5 5 5 5 5 5 5 5 5 5 5 5 5 5 5 5 5 5 5 5 5 5 5 5 5 5 5 5 5 5 5 5 5 5 5 5 5 5 5 5 5 5 5 5 5 5 5 5 5 5 5 5 5 5 5 5 5 5 5 5 5 5 5 5 5 5 5 5 5 5 5 5 5 5 5 5 5 5 5 5 5 5 5 5 5 5 5 5 5 5 5 5 5 5 5 5 5 5 5 5 5 5 5 5 5 5 5 5 5 5 5 5 5 5 5 5 5 5 5 5 5 5 5 5 5 5 5 5 5 5 5 5 5 5 5 5 5 5 5 5 5 5 5 5 5 5 5 5 5 5 5 5 5 5 5 5 5 5 5 5 5 5 5 5 5 5 5 5 5 5 5 5 5 5 5 5 5 5 5 5 5 5 5 5 5 5 5 5 5 5 5 5 5 5 5 5 5 5 5 5 5 5 5 5 5 5 5 5 5 5 5 5 5 5 5 5 5 5 5 5 5 5 5 5 5 5 5 5 5 5 5 5 5 5 5 5 5 5 5 5 5 5 5 5 5 5 5 5 5 5 5 5 5 5 5 5 5 5 5 5 5 5 5 5 5 5 5 5 5 5 5 5 5 5 5 5 5 5 5 5 5 5 5 5 5 5 5 5 5 5 5 5 5 5 5 5 5 5 5 5 5 5 5 5 5 5 5 5 5 5 5 5 5 5 5 5 5 5 5 5 5 5 5 5 5 5 5 5 5 5 5 5 5 5 5 5 5 5 5 5 5 5 5 5 5 5 5 5 5 5 5 5 5 5 5 5 5 5 5 5 5 5 5 5 5 5 5 5 5 5 5 5 5 5 5 5 5 5 5 5 5 5 5 5 5 5 5 5 5 5 5 5 5 5 5 5 5 5 5 5 5 5 5 5 5 5 5 5 5 5 5 5 5 5 5 5 5 5 5 5 5 5 5 5 5 5 5 5 5 5 5 5 5 5 5 5 5 5 5 5 5 5 5 5 5 5 5 5 5 5 5 5 5 5 5 5 5 5 5 5 5 5 5 5 5 5 5 5 5 5 5 5 5 5 5 5 5 5 5 5 5 5 5 5 5 5 5 5 5 5 5 5 5 5 5 5 5 5 5 5 5 5 5 5 5 5 5 5 5 5 5 5 5 5 5 5 5 5 5 5 5 5 5 5 5 5 5 5 5 5 5 5 5 5 5 5 5 5 5 5 5 5 5 5 5 5 5 5 5 5 5 5 5 5 5 5 5 5 5 5 5 5 5 5 5 5 5 5 5 5 5 5 5 5 5 5 5 5 5 5 5 5 5 5 5 5 5 5 5 5 5 5 5 5 5 5 5 5 5 5 5 5 5 5 5 5 5 5 5 5 5 5 5 5 5 5 5 5 5 5 5 5 5 5 5 5 5 5 5 5 5 5 5 5 5 5 5 5 5 5 5 5 5 5 5 5 5 5 5 5 5 5 5 5 5 5 5 5 5 5 5 5 5 5 5 5 5 5 5 5 5 5 5 5 5 5 5 5 5 5 5 5 5 5 5 5 5 5 5 5 5 5 5 5 5 5 5 5 5 5 5 5 5 5 5 5 5 5 5 5 5 5 5 5 5 5 5 5 5 5 5 5 5 5 5 5 5 5 5 5 5 5 5 5 5 5 5 5 5 5 5 5 5 5 5 5 5 5 5 5 5 5 5 5 5 5 5 5 5 5 5 5 5 5 5 5 5 5 5 5 5 5 5 5 5 5 5 5 5 5 5 5 5 5 5 5 5 5 5 5 5 5 5 5 5 5 5 5 5 5 5 5 5 5 5 5 5 5 5 5 5 5 5 5 5 5 5 5 5 5 5 5 5 5 5 5 5 5 5 5 5 5 5 5 5 5 5 5 5 5 5 5 5 5 5 5 5 5 5 5 5 5 5 5 5 5 5 5 5 5 5 5 5 5 5 5 5 5 5 5 5 5 5 5 5 5 5 5 5 5 5 5 5 5 5 5 5 5 5 5 5 5 5 5 5 5 5 5 5 5 5 5 5 5 5 5 5 5 5 5 5 5 5 5 5 5 5 5 5 5 5 5 5 5 5 5 5 5 5 5 5 5 5 5 5 5 5 5 5 5 5 5 5 5 5 5 5 5 5 5 5 5 5 5 5 5 5 5 5 5 5 5 5 5 5 5 5 5 5 5 5 5 5 5 5 5 5 5 5 5 5 5 5 5 5 5 5 5 5 5 5 5 5 5 5 5 5 5 5 5 5 5 5 5 5 5 5 5 5 5 5 5 5 5 5 5 5 5 5 5 5 5 5 5 5 5 5 5 5 5 5 5 5 5 5 5 5 5 5 5 5 5 5 5 5 5 5 5 5 5 5 5 5 5 5 5 5 5 5 5 5 5 5 5 5 5 5 5 5 5 5 5 5 5 5 5 5 5 5 5 5 5 5 5 5 5 5 5 5 5 5 5 5 5 5 5 5 5 5 5 5 5 5 5 5 5 5 5 5 5 5 5 5 5 5 5 5 5 5 5 5 5 5 5 5 5 5 5 5 5 5 5 5 5 5 5 5 5 5 5 5 5 5 5 5 5 5 5 5 5 5 5 5 5 5 5 5 5 5 5 5 5 5 5 5 5 5 5 5 5 5 5 5 5 5 5 5 5 5 5 5 5 5 5 5 5 5 5 5 5 5 5 5 5 5 5 5 5 5 5 5 5 5 5 5 5 5 5 5 5 5 5 5 5 5 5 5 5 5 5 5 5 5 5 5 5 5 5 5 5 5 5 5 5 5 5 5 5 5 5 5 5 5 5 5 5 5 5 5 5 5 5 5 5 5 5 5 5 5 5 5 5 5 5 5 5 5 5 5 5 5 5 5 5 5 5 5 5 5 5 5 5 5 5 5 5 5 5 5 5 5 5 5 5 5 5 5 5 5 5 5 5 5 5 5 5 5 5 5 5 5 5 5 5 5 5 5 5 5 5 5 5 5 5 5 5 5 5 5 5 5 5 5 5 5 5 5 5 5 5 5 5 5 5 5 5 5 5 5 5 5 5 5 5 5 5 5 5 5 5 5 5 5 5 5 5 5 5 5 5 5 5 5 5 5 5 5 5 5 5 5 5 5 5 5 5 5 5 5 5 5 5 5 5 5 5 5 5 5 5 5 5 5 5 5 5 5 5 5 5 5 5 5 5 5 5 5 5 5 5 5 5 5 5 5 5 5 5 5 5 5 5 5 5 5 5 5 5 5 5 5 5 5 5 5 5 5 5 5 5 5 5 5 5 5 5 5 5 5 5 5 5 5 5 5 5 5 5 5 5 5 5 5 5 5 5 5 5 5 5 5 5 5 5 5 5 5 5 5 5 5 5 5 5 5 5 5 5 5 5 5 5 5 5 5 5 5 5 5 5 5 5 5 5 5 5 5 5 5 5 5 5 5 5 5 5 5 5 5 5 5 5 5 5 5 5 5 5 5 5 5 5 5 5 5 5 5 5 5 5 5 5 5 5 5 5 5 5 5 5 5 5 5 5 5 5 5 5 5 5 5 5 5 5 5 5 5 5 5 5 5 5 5 5 5 5 5 5 5 5 5 5 5 5 5 5 5 5 5 5 5 5 5 5 5 5 5 5 5 5 5 5 5 5 5 5 5 5 5 5 5 5 5 5 5 5 5 5 5 5 5 5 5 5 5 5 5 5 5 5 5 5 5 5 5 5 5 5 5 5 5 5 5 5 5 5 5 5 5 5 5 5 5 5 5 5 5 5 5 5 5 5 5 5 5 5 5 5 5 5 5 5 5 5 5 5 5 5 5 5 5 5 5 5 5 5 5 5 5 5 5 5 5 5 5 5 5 5 5 5 5 5 5 5 5 5 5 5 5 5 5 5 5 5 5 5 5 5 5 5 5 5 5 5 5 5 5 5 5 5 5 5 5 5 5 5 5 5 5 5 5 5 5 5 5 5 5 5 5 5 5 5 5 5 5 5 5 5 5 5 5 5 5 5 5 5 5 5 5 5 5 5 5 5 5 5 5 5 5 5 5 5 5 5 5 5 5 5 5 5 5 5 5 5 5 5 5 5 5 5 5 5 5 5 5 5 5 5 5 5 5 5 5 5 5 5 5 5 5 5 5 5 5 5 5 5 5 5 5 5 5 5 5 5 5 5 5 5 5 5 5 5 5 5 5 5 5 5 5 5 5 5 5 5 5 5 5 5 5 5 5 5 5 5 5 5 5 5 5 5 5 5 5 5 5 5 5 5 5 5 5 5 5 5 5 5 5 5 5 5 5 5 5 5 5 5 5 5 5 5 5 5 5 5 5 5 5 5 5 5 5 5 5 5 5 5 5 5 5 5 5 5 5 5 5 5 5 5 5 5 5 5 5 5 5 5 5 5 5 5 5 5 5 5 5 5 5 5 5 5 5 5 5 5 5 5 5 5 5 5 5 5 5 5 5 5 5 5 5 5 5 5 5 5 5 5 5 5 5 5 5 5 5 5 5 5 5 5 5 5 5 5 5 5 5 5 5 5 5 5 5 5 5 5 5 5 5 5 5 5 5 5 5 5 5 5 5 5 5 5 5 5 5 5 5 5 5 5 5 5 5 5 5 5 5 5 5 5 5 5 5 5 5 5 5 5 5 5 5 5 5 5 5 5 5 5 5 5 5 5 5 5 5 5 5 5 5 5 5 5 5 5 5 5 5 5 5 5 5 5 5 5 5 5 5 5 5 5 5 5 5 5 5 5 5 5 5 5 5 5 5 5 5 5 5 5 5 5 5 5 5 5 5 5 5 5 5 5 5 5 5 5 5 5 5 5 5 5 5 5 5 5 5 5 5 5 5 5 5 5 5 5 5 5 5 5 5 5 5 5 5 5 5 5 5 5 5 5 5 5 5 5 5 5 5 5 5 5 5 5 5 5 5 5 5 5 5 5 5 5 5 5 5 5 5 5 5 5 5 5 5 5 5 5 5 5 5 5 5 5 5 5 5 5 5 5 5 5 5 5 5 5 5 5 5 5 5 5 5 5 5 5 5 5 5 5 5 5 5 5 5 5 5 5 5 5 5 5 5 5 5 5 5 5 5 5 5 5 5 5 5 5 5 5 5 5 5 5 5 5 5 5 5 5 5 5 5 5 5 5 5 5 5 5 5 5 5 5 5 5 5 5 5 5 5 5 5 5 5 5 5 5 5 5 5 5 5 5 5 5 5 5 5 5 5 5 5 5 5 5 5 5 5 5 5 5 5 5 5 5 5 5 5 5 5 5 5 5 5 5 5 5 5 5 5 5 5 5 5 5 5 5 5 5 5 5 5 5 5 5 5 5 5 5 5 5 5 5 5 5 5 5 5 5 5 5 5 5 5 5 5 5 5 5 5 5 5 5 5 5 5 5 5 5 5 5 5 5 5 5 5 5 5 5 5 5 5 5 5 5 5 5 5 5 5 5 5 5 5 5 5 5 5 5 5 5 5 5 5 5 5 5 5 5 5 5 5 5 5 5 5 5 5 5 5 5 5 5 5 5 5 5 5 5 5 5 5 5 5 5 5 5 5 5 5 5 5 5 5 5 5 5 5 5 5 5 5 5 5 5 5 5 5 5 5 5 5 5 5 5 5 5 5 5 5 5 5 5 5 5 5 5 5 5 5 5 5 5 5 5 5 5 5 5 5 5 5 5 5 5 5 5 5 5 5 5 5 5 5 5 5 5 5 5 5 5 5 5 5 5 5 5 5 5 5 5 5 5 5 5 5 5 5 5 5 5 5 5 5 5 5 5 5 5 5 5 5 5 5 5 5 5 5 5 5 5 5 5 5 5 5 5 5 5 5 5 5 5 5 5 5 5 5 5 5 5 5 5 5 5 5 5 5 5 5 5 5 5 5 5 5 5 5 5 5 5 5 5 5 5 5 5 5 5 5 5 5 5 5 5 5 5 5 5 5 5 5 5 5 5 5 5 5 5 5 5 5 5 5 5 5 5 5 5 5 5 5 5 5 5 5 5 5 5 5 5 5 5 5 5 5 5 5 5 5 5 5 5 5 5 5 5 5 5 5 5 5 5 5 5 5 5 5 5 5 5 5 5 5 5 5 5 5 5 5 5 5 5 5 5 5 5 5 5 5 5 5 5 5 5 5 5 5 5 5 5 5 5 5 5 5 5 5 5 5 5 5 5 5 5 5 5 5 5 5 5 5 5 5 5 5 5 5 5 5 5 5 5 5 5 5 5 5 5 5 5 5 5 5 5 5 5 5 5 5 5 5 5 5 5 5 5 5 5 5 5 5 5 5 5 5 5 5 5 5 5 5 5 5 5 5 5 5 5 5 5 5 5 5 5 5 5 5 5 5 5 5 5 5 5 5 5 5 5 5 5 5 5 5 5 5 5 5 5 5 5 5 5 5 5 5 5 5 5 5 5 5 5 5 5 5 5 5 5 5 5 5 5 5 5 5 5 5 5 5 5 5 5 5 5 5 5 5 5 5 5 5 5 5 5 5 5 5 5 5 5 5 5 5 5 5 5 5 5 5 5 5 5 5 5 5 5 5 5 5 5 5 5 5 5 5 5 5 5 5 5 5 5 5 5 5 5 5 5 5 5 5 5 5 5 5 5 5 5 5 5 5 5 5 5 5 5 5 5 5 5 5 5 5 5 5 5 5 5 5 5 5 5 5 5 5 5 5 5 5 5 5 5 5 5 5 5 5 5 5 5 5 5 5 5 5 5 5 5 5 5 5 5 5 5 5 5 5 5 5 5 5 5 5 5 5 5 5 5 5 5 5 5 5 5 5 5 5 5 5 5 5 5 5 5 5 5 5 5 5 5 5 5 5 5 5 5 5 5 5 5 5 5 5 5 5 5 5 5 5 5 5 5 5 5 5 5 5 5 5 5 5 5 5 5 5 5 5 5 5 5 5 5 5 5 5 5 5 5 5 5 5 5 5 5 5 5 5 5 5 5 5 5 5 5 5 5 5 5 5 5 5 5 5 5 5 5 5 5 5 5 5 5 5 5 5 5 5 5 5 5 5 5 5 5 5 5 5 5 5 5 5 5 5 5 5 5 5 5 5 5 5 5 5 5 5 5 5 5 5 5 5 5 5 5 5 5 5 5 5 5 5 5 5 5 5 5 5 5 5 5 5 5 5 5 5 5 5 5 5 5 5 5 5 5 5 5 5 5 5 5 5 5 5 5 5 5 5 5 5 5 5 5 5 5 5 5 5 5 5 5 5 5 5 5 5 5 5 5 5 5 5 5 5 5 5 5 5 5 5 5 5 5 5 5 5 5 5 5 5 5 5 5 5 5 5 5 5 5 5 5 5 5 5 5 5 5 5 5 5 5 5 5 5 5 5 5 5 5 5 5 5 5 5 5 5 5 5 5 5 5 5 5 5 5 5 5 5 5 5 5 5 5 5 5 5 5 5 5 5 5 5 5 5 5 5 5 5 5 5 5 5 5 5 5 5 5 5 5 5 5 5 5 5 5 5 5 5 5 5 5 5 5 5 5 5 5 5 5 5 5 5 5 5 5 5 5 5 5 5 5 5 5 5 5 5 5 5 5 5 5 5 5 5 5 5 5 5 5 5 5 5 5 5 5 5 5 5 5 5 5 5 5 5 5 5 5 5 5 5 5 5 5 5 5 5 5 5 5 5 5 5 5 5 5 5 5 5 5 5 5 5 5 5 5 5 5 5 5 5 5 5 5 5 5 5 5 5 5 5 5 5 5 5 5 5 5 5 5 5 5 5 5 5 5 5 5 5 5 5 5 5 5 5 5 5 5 5 5 5 5 5 5 5 5 5 5 5 5 5 5 5 5 5 5 5 5 5 5 5 5 5 5 5 5 5 5 5 5 5 5 5 5 5 5 5 5 5 5 5 5 5 5 5 5 5 5 5 5 5 5 5 5 5 5 5 5 5 5 5 5 5 5 5 5 5 5 5 5 5 5 5 5 5 5 5 5 5 5 5 5 5 5 5 5 5 5 5 5 5 5 5 5 5 5 5 5 5 5 5 5 5 5 5 5 5 5 5 5 5 5 5 5 5 5 5 5 5 5 5 5 5 5 5 5 5 5 5 5 5 5 5 5 5 5 5 5 5 5 5 5 5 5 5 5 5 5 5 5 5 5 5 5 5 5 5 5 5 5 5 5 5 5 5 5 5 5 5 5 5 5 5 5 5 5 5 5 5 5 5 5 5 5 5 5 5 5 5 5 5 5 5 5 5 5 5 5 5 5 5 5 5 5 5 5 5 5 5 5 5 5 5 5 5 5 5 5 5 5 5 5 5 5 5 5 5 5 5 5 5 5 5 5 5 5 5 5 5 5 5 5 5 5 5 5 5 5 5 5 5 5 5 5 5 5 5 5 5 5 5 5 5 5 5 5 5 5 5 5 5 5 5 5 5 5 5 5 5 5 5 5 5 5 5 5 5 5 5 5 5 5 5 5 5 5 5 5 5 5 5 5 5 5 5 5 5 5 5 5 5 5 5 5 5 5 5 5 5 5 5 5 5 5 5 5 5 5 5 5 5 5 5 5 5 5 5 5 5 5 5 5 5 5 5 5 5 5 5 5 5 5 5 5 5 5 5 5 5 5 5 5 5 5 5 5 5 5 5 5 5 5 5 5 5 5 5 5 5 5 5 5 5 5 5 5 5 5 5 5 5 5 5 5 5 5 5 5 5 5 5 5 5 5 5 5 5 5 5 5 5 5 5 5 5 5 5 5 5 5 5 5 5 5 5 5 5 5 5 5 5 5 5 5 5 5 5 5 5 5 5 5 5 5 5 5 5 5 5 5 5 5 5 5 5 5 5 5 5 5 5 5 5 5 5 5 5 5 5 5 5 5 5 5 5 5 5 5 5 5 5 5 5 5 5 5 5 5 5 5 5 5 5 5 5 5 5 5 5 5 5 5 5 5 5 5 5 5 5 5 5 5 5 5 5 5 5 5 5 5 5 5 5 5 5 5 5 5 5 5 5 5 5 5 5 5 5 5 5 5 5 5 5 5 5 5 5 5 5 5 5 5 5 5 5 5 5 5 5 5 5 5 5 5 5 5 5 5 5 5 5 5 5 5 5 5 5 5 5 5 5 5 5 5 5 5 5 5 5 5 5 5 5 5 5 5 5 5 5 5 5 5 5 5 5 5 5 5 5 5 5 5 5 5 5 5 5 5 5 5 5 5 5 5 5 5 5 5 5 5 5 5 5 5 5 5 5 5 5 5 5 5 5 5 5 5 5 5 5 5 5 5 5 5 5 5 5 5 5 5 5 5 5 5 5 5 5 5 5 5 5 5 5 5 5 5 5 5 5 5 5 5 5 5 5 5 5 5 5 5 5 5 5 5 5 5 5 5 5 5 5 5 5 5 5 5 5 5 5 5 5 5 5 5 5 5 5 5 5 5 5 5 5 5 5 5 5 5 5 5 5 5 5 5 5 5 5 5 5 5 5 5 5 5 5 5 5 5 5 5 5 5 5 5 5 5 5 5 5 5 5 5 5 5 5 5 5 5 5 5 5 5 5 5 5 5 5 5 5 5 5 5 5 5 5 5 5 5 5 5 5 5 5 5 5 5 5 5 5 5 5 5 5 5 5 5 5 5 5 5 5 5 5 5 5 5 5 5 5 5 5 5 5 5 5 5 5 5 5 5 5 5 5 5 5 5 5 5 5 5 5 5 5 5 5 5 5 5 5 5 5 5 5 5 5 5 5 5 5 5 5 5 5 5 5 5 5 5 5 5 5 5 5 5 5 5 5 5 5 5 5 5 5 5 5 5 5 5 5 5 5 5 5 5 5 5 5 5 5 5 5 5 5 5 5 5 5 5 5 5 5 5 5 5 5 5 5 5 5 5 5 5 5 5 5 5 5 5 5 5 5 5 5 5 5 5 5 5 5 5 5 5 5 5 5 5 5 5 5 5 5 5 5 5 5 5 5 5 5 5 5 5 5 5 5 5 5 5 5 5 5 5 5 5 5 5 5 5 5 5 5 5 5 5 5 5 5 5 5 5 5 5 5 5 5 5 5 5 5 5 5 5 5 5 5 5 5 5 5 5 5 5 5 5 5 5 5 5 5 5 5 5 5 5 5 5 5 5 5 5 5 5 5 5 5 5 5 5 5 5 5 5 5 5 5 5 5 5 5 5 5 5 5 5 5 5 5 5 5 5 5 5 5 5 5 5 5 5 5 5 5 5 5 5 5 5 5 5 5 5 5 5 5 5 5 5 5 5 5 5 5 5 5 5 5 5 5 5 5 5 5 5 5 5 5 5 5 5 5 5 5 5 5 5 5 5 5 5 5 5 5 5 5 5 5 5 5 5 5 5 5 5 5 5 5 5 5 5 5 5 5 5 5 5 5 5 5 5 5 5 5 5 5 5 5 5 5 5 5 5 5 5 5 5 5 5 5 5 5 5 5 5 5 5 5 5 5 5 5 5 5 5 5 5 5 5 5 5 5 5 5 5 5 5 5 5 5 5 5 5 5 5 5 5 5 5 5 5 5 5 5 5 5 5 5 5 5 5 5 5 5 5 5 5 5 5 5 5 5 5 5 5 5 5 5 5 5 5 5 5 5 5 5 5 5 5 5 5 5 5 5 5 5 5 5 5 5 5 5 5 5 5 5 5 5 5 5 5 5 5 5 5 5 5 5 5 5 5 5 5 5 5 5 5 5 5 5 5 5 5 5 5 5 5 5 5 5 5 5 5 5 5 5 5 5 5 5 5 5 5 5 5 5 5 5 5 5 5 5 5 5 5 5 5 5 5 5 5 5 5 5 5 5 5 5 5 5 5 5 5 5 5 5 5 5 5 5 5 5 5 5 5 5 5 5 5 5 5 5 5 5 5 5 5 5 5 5 5 5 5 5 5 5 5 5 5 5 5 5 5 5 5 5 5 5 5 5 5 5 5 5 5 5 5 5 5 5 5 5 5 5 5 5 5 5 5 5 5 5 5 5 5 5 5 5 5 5 5 5 5 5 5 5 5 5 5 5 5 5 5 5 5 5 5 5 5 5 5 5 5 5 5 5 5 5 5 5 5 5 5 5 5 5 5 5 5 5 5 5 5 5 5 5 5 5 5 5 5 5 5 5 5 5 5 5 5 5 5 5 5 5 5 5 5 5 5 5 5 5 5 5 5 5 5 5 5 5 5 5 5 5 5 5 5 5 5 5 5 5 5 5 5 5 5 5 5 5 5 5 5 5 5 5 5 5 5 5 5 5 5 5 5 5 5 5 5 5 5 5 5 5 5 5 5 5 5 5 5 5 5 5 5 5 5 5 5 5 5 5 5 5 5 5 5 5 5 5 5 5 5 5 5 5 5 5 5 5 5 5 5 5 5 5 5 5 5 5 5 5 5 5 5 5 5 5 5 5 5 5 5 5 5 5 5 5 5 5 5 5 5 5 5 5 5 5 5 5 5 5 5 5 5 5 5 5 5 5 5 5 5 5 5 5 5 5 5 5 5 5 5 5 5 5 5 5 5 5 5 5 5 5 5 5 5 5 5 5 5 5 5 5 5 5 5 5 5 5 5 5 5 5 5 5 5 5 5 5 5 5 5 5 5 5 5 5 5 5 5 5 5 5 5 5 5 5 5 5 5 5 5 5 5 5 5 5 5 5 5 5 5 5 5 5 5 5 5 5 5 5 5 5 5 5 5 5 5 5 5 5 5 5 5 5 5 5 5 5 5 5 5 5 5 5 5 5 5 5 5 5 5 5 5 5 5 5 5 5 5 5 5 5 5 5 5 5 5 5 5 5 5 5 5 5 5 5 5 5 5 5 5 5 5 5 5 5 5 5 5 5 5 5 5 5 5 5 5 5 5 5 5 5 5 5 5 5 5 5 5 5 5 5 5 5 5 5 5 5 5 5 5 5 5 5 5 5 5 5 5 5 5 5 5 5 5 5 5 5 5 5 5 5 5 5 5 5 5 5 5 5 5 5 5 5 5 5 5 5 5 5 5 5 5 5 5 5 5 5 5 5 5 5 5 5 5 5 5 5 5 5 5 5 5 5 5 5 5 5 5 5 5 5 5 5 5 5 5 5 5 5 5 5 5 5 5 5 5 5 5 5 5 5 5 5 5 5 5 5 5 5 5 5 5 5 5 5 5 5 5 5 5 5 5 5 5 5 5 5 5 5 5 5 5 5 5 5 5 5 5 5 5 5 5 5 5 5 5 5 5 5 5 5 5 5 5 5 5 5 5 5 5 5 5 5 5 5 5 5 5 5 5 5 5 5 5 5 5 5 5 5 5 5 5 5 5 5 5 5 5 5 5 5 5 5 5 5 5 5 5 5 5 5 5 5 5 5 5 5 5 5 5 5 5 5 5 5 5 5 5 5 5 5 5 5 5 5 5 5 5 5 5 5 5 5 5 5 5 5 5 5 5 5 5 5 5 5 5 5 5 5 5 5 5 5 5 5 5 5 5 5 5 5 5 5 5 5 5 5 5 5 5 5 5 5 5 5 5 5 5 5 5 5 5 5 5 5 5 5 5 5 5 5 5 5 5 5 5 5 5 5 5 5 5 5 5 5 5 5 5 5 5 5 5 5 5 5 5 5 5 5 5 5 5 5 5 5 5 5 5 5 5 5 5 5 5 5 5 5 5 5 5 5 5 5 5 5 5 5 5 5 5 5 5 5 5 5 5 5 5 5 5 5 5 5 5 5 5 5 5 5 5 5 5 5 5 5 5 5 5 5 5 5 5 5 5 5 5 5 5 5 5 5 5 5 5 5 5 5 5 5 5 5 5 5 5 5 5 5 5 5 5 5 5 5 5 5 5 5 5 5 5 5 5 5 5 5 5 5 5 5 5 5 5 5 5 5 5 5 5 5 5 5 5 5 5 5 5 5 5 5 5 5 5 5 5 5 5 5 5 5 5 5 5 5 5 5 5 5 5 5 5 5 5 5 5 5 5 5 5 5 5 5 5 5 5 5 5 5 5 5 5 5 5 5 5 5 5 5 5 5 5 5 5 5 5 5 5 5 5 5 5 5 5 5 5 5 5 5 5 5 5 5 5 5 5 5 5 5 5 5 5 5 5 5 5 5 5 5 5 5 5 5 5 5 5 5 5 5 5 5 5 5 5 5 5 5 5 5 5 5 5 5 5 5 5 5 5 5 5 5 5 5 5 5 5 5 5 5 5 5 5 5 5 5 5 5 5 5 5 5 5 5 5 5 5 5 5 5 5 5 5 5 5 5 5 5 5 5 5 5 5 5 5 5 5 5 5 5 5 5 5 5 5 5 5 5 5 5 5 5 5 5 5 5 5 5 5 5 5 5 5 5 5 5 5 5 5 5 5 5 5 5 5 5 5 5 5 5 5 5 5 5 5 5 5 5 5 5 5 5 5 5 5 5 5 5 5 5 5 5 5 5 5 5 5 5 5 5 5 5 5 5 5 5 5 5 5 5 5 5 5 5 5 5 5 5 5 5 5 5 5 5 5 5 5 5 5 5 5 5 5 5 5 5 5 5 5 5 5 5 5 5 5 5 5 5 5 5 5 5 5 5 5 5 5 5 5 5 5 5 5 5 5 5 5 5 5 5 5 5 5 5 5 5 5 5 5 5 5 5 5 5 5 5 5 5 5 5 5 5 5 5 5 5 5 5 5 5 5 5 5 5 5 5 5 5 5 5 5 5 5 5 5 5 5 5 5 5 5 5 5 5 5 5 5 5 5 5 5 5 5 5 5 5 5 5 5 5 5 5 5 5 5 5 5 5 5 5 5 5 5 5 5 5 5 5 5 5 5 5 5 5 5 5 5 5 5 5 5 5 5 5 5 5 5 5 5 5 5 5 5 5 5 5 5 5 5 5 5 5 5 5 5 5 5 5 5 5 5 5 5 5 5 5 5 5 5 5 5 5 5 5 5 5 5 5 5 5 5 5 5 5 5 5 5 5 5 5 5 5 5 5 5 5 5 5 5 5 5 5 5 5 5 5 5 5 5 5 5 5 5 5 5 5 5 5 5 5 5 5 5 5 5 5 5 5 5 5 5 5 5 5 5 5 5 5 5 5 5 5 5 5 5 5 5 5 5 5 5 5 5 5 5 5 5 5 5 5 5 5 5 5 5 5 5 5 5 5 5 5 5 5 5 5 5 5 5 5 5 5 5 5 5 5 5 5 5 5 5 5 5 5 5 5 5 5 5 5 5 5 5 5 5 5 5 5 5 5 5 5 5 5 5 5 5 5 5 5 5 5 5 5 5 5 5 5 5 5 5 5 5 5 5 5 5 5 5 5 5 5 5 5 5 5 5 5 5 5 5 5 5 5 5 5 5 5 5 5 5 5 5 5 5 5 5 5 5 5 5 5 5 5 5 5 5 5 5 5 5 5 5 5 5 5 5 5 5 5 5 5 5 5 5 5 5 5 5 5 5 5 5 5 5 5 5 5 5 5 5 5 5 5 5 5 5 5 5 5 5 5 5 5 5 5 5 5 5 5 5 5 5 5 5 5 5 5 5 5 5 5 5 5 5 5 5 5 5 5 5 5 5 5 5 5 5 5 5 5 5 5 5 5 5 5 5 5 5 5 5 5 5 5 5 5 5 5 5 5 5 5 5 5 5 5 5 5 5 5 5 5 5 5 5 5 5 5 5 5 5 5 5 5 5 5 5 5 5 5 5 5 5 5 5 5 5 5 5 5 5 5 5 5 5 5 5 5 5 5 5 5 5 5 5 5 5 5 5 5 5 5 5 5 5 5 5 5 5 5 5 5 5 5 5 5 5 5 5 5 5 5 5 5 5 5 5 5 5 5 5 5 5 5 5 5 5 5 5 5 5 5 5 5 5 5 5 5 5 5 5 5 5 5 5 5 5 5 5 5 5 5 5 5 5 5 5 5 5 5 5 5 5 5 5 5 5 5 5 5 5 5 5 5 5 5 5 5 5 5 5 5 5 5 5 5 5 5 5 5 5 5 5 5 5 5 5 5 5 5 5 5 5 5 5 5 5 5 5 5 5 5 5 5 5 5 5 5 5 5 5 5 5 5 5 5 5 5 5 5 5 5 5 5 5 5 5 5 5 5 5 5 5 5 5 5 5 5 5 5 5 5 5 5 5 5 5 5 5 5 5 5 5 5 5 5 5 5 5 5 5 5 5 5 5 5 5 5 5 5 5 5 5 5 5 5 5 5 5 5 5 5 5 5 5 5 5 5 5 5 5 5 5 5 5 5 5 5 5 5 5 5 5 5 5 5 5 5 5 5 5 5 5 5 5 5 5 5 5 5 5 5 5 5 5 5 5 5 5 5 5 5 5 5 5 5 5 5 5 5 5 5 5 5 5 5 5 5 5 5 5 5 5 5 5 5 5 5 5 5 5 5 5 5 5 5 5 5 5 5 5 5 5 5 5 5 5 5 5 5 5 5 5 5 5 5 5 5 5 5 5 5 5 5 5 5 5 5 5 5 5 5 5 5 5 5 5 5 5 5 5 5 5 5 5 5 5 5 5 5 5 5 5 5 5 5 5 5 5 5 5 5 5 5 5 5 5 5 5 5 5 5 5 5 5 5 5 5 5 5 5 5 5 5 5 5 5 5 5 5 5 5 5 5 5 5 5 5 5 5 5 5 5 5 5 5 5 5 5 5 5 5 5 5 5 5 5 5 5 5 5 5 5 5 5 5 5 5 5 5 5 5 5 5 5 5 5 5 5 5 5 5 5 5 5 5 5 5 5 5 5 5 5 5 5 5 5 5 5 5 5 5 5 5 5 5 5 5 5 5 5 5 5 5 5 5 5 5 5 5 5 5 5 5 5 5 5 5 5 5 5 5 5 5 5 5 5 5 5 5 5 5 5 5 5 5 5 5 5 5 5 5 5 5 5 5 5 5 5 5 5 5 5 5 5 5 5 5 5 5 5 5 5 5 5 5 5 5 5 5 5 5 5 5 5 5 5 5 5 5 5 5 5 5 5 5 5 5 5 5 5 5 5 5 5 5 5 5 5 5 5 5 5 5 5 5 5 5 5 5 5 5 5 5 5 5 5 5 5 5 5 5 5 5 5 5 5 5 5 5 5 5 5 5 5 5 5 5 5 5 5 5 5 5 5 5 5 5 5 5 5 5 5 5 5 5 5 5 5 5 5 5 5 5 5 5 5 5 5 5 5 5 5 5 5 5 5 5 5 5 5 5 5 5 5 5 5 5 5 5 5 5 5 5 5 5 5 5 5 5 5 5 5 5 5 5 5 5 5 5 5 5 5 5 5 5 5 5 5 5 5 5 5 5 5 5 5 5 5 5 5 5 5 5 5 5 5 5 5 5 5 5 5 5 5 5 5 5 5 5 5 5 5 5 5 5 5 5 5 5 5 5 5 5 5 5 5 5 5 5 5 5 5 5 5 5 5 5 5 5 5 5 5 5 5 5 5 5 5 5 5 5 5 5 5 5 5 5 5 5 5 5 5 5 5 5 5 5 5 5 5 5 5 5 5 5 5 5 5 5 5 5 5 5 5 5 5 5 5 5 5 5 5 5 5 5 5 5 5 5 5 5 5 5 5 5 5 5 5 5 5 5 5 5 5 5 5 5 </DataArray>
</Cells>
<PointData  Scalars=" mean stress"> 
<DataArray  type="Float64"  Name=" mean stress"  format="ascii">1.2667319201891510e+09  3.3810491801631527e+09  3.5776201783768044e+09  1.2935688044023144e+09  5.8769746972972333e+07  1.3276998667116362e+08  1.6382322682283902e+09  1.3281455603412206e+08  1.7649569006175876e+08  5.7992811750824742e+07  1.6322349275122063e+09  5.3407434901862031e+08  5.7972995290712155e+07  5.3323907198885399e+08  1.6303551498229547e+09  7.4810881159696922e+07  3.2140633229839915e+08  5.1922639566421908e+08  5.6019921292977966e+07  7.3591176351429969e+07  5.6108080638354361e+07  6.2897968883978319e+08  7.1405729119742513e+07  1.6477575691422689e+08  8.4638201406847286e+08  6.2388421242225870e+07  1.0789477127788744e+09  2.9356533823272449e+08  8.8496566363919422e+07  9.3844407644432497e+08  4.7797538035883769e+07  5.8190089204641357e+07  5.8088819446204506e+07  5.8232223257254384e+07  1.6334331507233276e+09  5.8554839505950160e+07  6.3151917457767136e+07  9.9975427831628546e+07  1.2591776533722414e+08  3.0662031950314045e+08  1.0792643484180707e+08  1.8871624735525173e+08  6.5361443112745714e+08  4.2027513248488039e+08  7.4804090738389194e+07  1.1150923339333043e+09  8.8893318923648834e+08  1.6323646086107497e+09  6.3200558849664800e+07  1.1279499042812300e+09  3.2508747934930080e+08  7.4892214877227440e+07  1.6356935192557962e+09  2.7248674301361537e+08  5.8547728976235956e+07  1.6263522731818171e+09  8.8628603368946099e+08  5.8080685188706033e+07  2.7059676585830200e+08  4.7695090711402245e+07  5.8003128083484626e+08  6.2247445796020783e+07  7.1952520908203572e+07  6.5232370175150931e+07  2.0984387179527140e+08  1.1354986317387395e+08  1.4853544038931474e+08  7.3857856154481471e+07  6.2092921993709110e+07  1.1612662979182508e+09  5.4534135002224874e+08  9.8082309568638653e+07  1.7408814524188626e+08  2.9432686048269856e+08  1.0969199078627959e+08  9.1284461240820277e+08  2.1053651611213967e+08  1.1527475747775786e+09  6.6734565668676794e+08  5.3624047645456225e+08  6.5489611964746676e+07  8.2851358577310160e+07  3.9398149573491806e+08  1.2671306378584785e+09  1.7868687835006371e+08  6.4523922110660739e+07  5.9498127598035924e+07  5.8337540632144928e+07  5.4652489970258839e+07  5.7738362993511505e+07  5.7802197575372949e+07  5.7936567956974737e+07  5.4586364806216389e+07  7.5836612326301765e+08  1.2248905680352778e+09  4.0430995138176155e+08  5.9350096805431440e+07  4.5462749143273056e+08  7.8276563119610083e+08  1.2804745823415031e+09  7.5518954660225070e+08  6.0674260450519212e+07  1.3460547263198597e+09  9.7438920294146851e+07  8.3436404850255638e+07  1.2649431009599957e+08  8.7317355570676640e+07  9.0635126897395110e+08  1.2863995317736308e+08  6.3129943605068848e+07  3.6092166405832654e+08  1.8904685376006240e+08  6.6797549844218649e+07  6.7572626566490620e+07  6.0681804537616469e+07  8.3500477380463406e+07  8.4898653735569164e+07  1.3680162691619989e+08  1.6320425644106727e+09  1.9588309177891693e+08  2.6763758495677349e+08  9.7617311688539171e+08  2.9613353141387939e+08  6.2598440728339218e+07  1.2799449337590833e+08  1.9741339845764288e+08  2.6729478414481074e+08  6.7461767216548622e+07  5.5685785776481175e+08  1.3692413863873407e+08  4.0069687483792597e+08  1.3083045983323024e+08  2.2451686105880815e+08  9.1509708938798681e+07  8.4620670702714190e+07  7.4509419692752182e+08  1.3205879972732022e+09  2.0635340529060239e+08  4.7522987590461701e+08  1.2884518058689773e+09  1.6322582468965816e+09  7.6166946521150306e+07  6.1748471502057567e+07  6.0480092293157554e+08  2.9769112096360660e+08  1.6422543587702634e+09  4.6639820945935863e+08  6.4101796904415941e+08  9.7152520389931366e+07  5.9184630381558798e+07  5.8687371883118786e+07  1.3471481689166932e+09  8.5317960258384871e+08  6.2384280973975964e+07  2.8423063649606213e+07  7.9365046124508560e+08  5.7740991671530955e+07  8.5283442188023674e+08  6.1750354054971196e+07  3.0914418965519047e+08  9.3635918856559622e+08  6.1609151348847263e+07  2.5944286169928264e+07  1.6586929280773323e+09  9.7675555245490515e+08  4.6415816976206720e+08  2.6324178193948275e+08  5.7689493426693387e+07  6.0252644600667372e+07  5.8706567723643720e+07  1.0248781432989888e+09  1.3936357936727257e+09  6.6716746234408095e+07  7.0841353986786649e+07  5.7632716131405465e+07  5.8827350065217584e+07  6.5494067450765625e+07  1.3383597031927016e+09  1.8959533005680984e+08  6.2790847567966335e+07  6.0040411647318289e+07  6.2711966752766050e+07  1.6292045711755028e+09  5.7804214110752709e+07  1.6316678657664411e+09  3.8543203598543721e+08  3.8966215305039167e+08  5.7757327417345323e+07  5.8718595268447101e+07  5.8287571995915771e+07  7.1102157008785558e+08  5.8296556865234263e+07  1.6232061261560073e+09  1.6280478462225380e+09  7.1074634355327690e+08  9.6657851361190081e+07  5.2110476953925736e+07  5.2245325816306740e+07  2.1086539853580838e+08  4.2133486980071235e+08  5.4997118770882118e+08  5.6072077617220354e+08  8.7833388294013429e+08  6.5931090894992948e+07  7.2850360116236642e+07  1.1158697958554475e+09  6.1046091999028154e+07  7.1160366294620007e+07  1.3595451790385444e+09  1.4130221425841525e+09  1.5215260732554558e+08  1.1207019643845466e+08  8.9468682786258042e+07  7.6193420499451444e+07  1.3059482448517704e+08  1.0974732486951707e+08  2.0771833643803039e+08  7.4131880125767374e+08  1.6314301505017155e+08  7.5333070301561996e+07  1.5504218313179249e+08  9.4545212436388969e+07  9.8375002976279631e+07  6.6062354474834047e+07  5.9700531122371525e+07  1.1039515382316937e+09  7.4325741788419485e+08  1.3931842838558061e+09  3.9715112282066351e+08  4.9736184989341980e+08  5.9682461527514726e+07  4.0910538163871413e+08  6.0388347749130502e+07  6.7313634173628643e+07  1.3958544413936348e+09  1.0725732441985114e+09  8.5320676533575904e+08  1.2713490786447795e+08  8.7703792284187883e+07  8.4092405901316255e+07  7.4199910730375409e+07  6.7390752788612306e+07  7.2584546381507382e+07  5.8409157315362334e+07  1.5826614334734553e+08  1.0293937551989286e+08  7.2061451734062839e+08  6.1802605668532021e+07  5.7670922058400609e+07  5.6258219718404725e+07  5.2996484534041338e+07  2.3456757108972842e+08  9.8569194279159510e+08  1.6605393681470498e+08  2.1717507948118669e+08  9.6746481387884274e+07  1.3800661956762144e+08  1.0936675999323535e+08  5.6843254574260390e+08  2.2972930600019401e+08  1.3397807825881225e+08  1.7053750031694230e+08  3.0221639562756449e+08  3.9209721908250344e+08  6.2779705407765873e+07  8.4369980484337121e+07  2.2325068042908052e+08  1.0886204699770768e+08  3.9159097262910765e+08  5.2003139496786749e+08  3.6098481718610561e+08  7.6964820912725836e+07  6.7850903445299730e+07  6.3598848907516144e+07  2.6683677261744341e+08  1.5990480185836509e+08  2.6029921859686294e+08  6.7629016275947571e+07  6.4270915300430231e+07  3.1314254105934143e+08  7.4557278700661436e+07  6.2870775232370341e+08  4.1883004751410735e+08  6.7206710264288235e+08  5.3583569865191686e+08  1.4464104812165508e+09  5.9802213951398931e+07  5.7743170683422565e+07  9.4088080754046035e+08  9.6149025934910262e+08  1.1657546422240551e+09  1.2213793564468491e+09  1.4358305151494558e+09  1.4276704728293008e+08  1.9895580645329475e+08  5.6238134659448519e+07  5.2812041135667995e+07  5.7715542063731156e+07  1.5174189446797638e+09  2.2006673922686830e+08  5.8955028364371777e+07  1.1272390435752838e+09  6.0529299915519166e+08  9.1753984291878670e+07  1.1336344104222841e+09  6.0459302678580873e+07  5.9051943826833189e+07  5.8434215436382622e+07  6.0915576212733142e+07  6.3509289234338321e+07  6.0337837179764040e+07  6.3558991621744119e+07  5.0497274013245630e+08  6.1925371495815158e+08  3.7899803426524311e+08  9.7728345050713038e+08  9.1482772753584957e+08  7.6310477600119126e+08  5.7724292575148396e+07  5.4477951381520525e+07  1.0192858027144812e+09  3.8226994777293241e+08  6.2364831510217056e+07  5.8798569114772253e+07  1.4858310252789021e+09  5.4430951080361716e+07  1.4819243285790472e+09  2.5250059954407567e+08  1.0915264716096470e+09  1.3828246246925130e+09  1.0333173407684723e+08  6.7333546461205259e+07  5.8293655579138204e+07  7.6176849642620370e+07  7.3681517564214706e+08  2.4349119394090033e+08  6.0696145994974665e+07  1.1305171661552896e+08  6.3477282282472885e+08  6.6419271616367650e+08  9.2692720382138538e+08  1.1705730194134517e+09  6.0173106612725988e+07  1.0678687749096292e+08  2.7338609198774660e+08  6.1463642431277432e+07  7.8586896273530588e+07  7.7021778189029232e+07  1.5957820881269893e+08  1.0641197284953089e+08  1.0640340340163222e+08  3.2597791345864117e+08  4.4618141589489871e+08  5.7782105357497282e+07  8.2449471142670676e+07  1.1259813813711002e+09  5.9421907955809459e+07  5.9154260749359317e+07  6.0949737376578934e+07  5.9433731268814623e+07  5.8945765964307077e+07  1.4988991145821939e+09  1.4570043792255688e+09  1.4943428303309886e+09  6.8816353418452716e+08  4.8558230418310976e+08  3.3437868260255277e+08  1.4644503187007434e+09  6.7651026589060113e+07  6.3965266192714274e+07  1.3138768722727296e+08  9.8907671233580321e+07  8.4157594501011401e+07  7.8702535730955148e+08  4.9846995125924475e+07  7.5345265491467446e+07  6.2322103836803764e+07  1.6768837061565009e+08  1.4542427536394265e+09  6.3265843429543041e+07  2.6243238182549834e+08  1.3567234826414278e+08  8.9886943323036835e+07  3.8110691150106323e+08  2.3593803440338570e+08  1.0702614638045434e+09  1.4537934746423590e+09  3.1180978416176009e+08  1.6230909608029583e+08  1.5176509461406410e+09  6.1362847247321181e+07  4.7880640346072048e+08  6.7423827859074786e+07  8.1509440491105542e+07  9.2664585265949637e+07  9.4505719366131425e+07  1.0849529385811645e+08  1.1459595568216264e+08  6.5233851346509069e+07  6.9565096614647046e+07  7.0198575331483543e+07  9.2996878101403201e+08  5.6666828575295299e+07  6.1044450119243033e+07  7.1133094054767326e+07  6.7797871943906069e+07  1.2065125901508495e+08  1.5547672109819683e+08  5.7081051394770905e+07  8.0368309826678187e+07  5.2110994250061117e+07  4.9476599204266196e+08  3.3427677361299616e+08  5.6736744113580085e+07  1.4658662060631945e+09  1.2529083448102283e+09  6.0082542936713803e+08  9.2800928049095556e+07  7.8040963479766637e+07  2.7645055708054334e+08  5.8173394705494881e+07  1.6297868362946293e+08  6.1151432064902775e+07  6.9994833325452209e+07  7.7476476957345486e+08  1.3235383999312603e+08  5.1269516316886377e+08  8.4094039320254534e+07  6.2014891389185929e+08  2.1375826978977308e+08  3.3533496246727318e+08  1.5479659230949524e+08  1.9247627611184219e+08  1.8958840971741048e+08  1.3176493208077636e+09  3.2476887930410868e+08  3.6275584694323260e+08  6.2477717101323819e+08  4.6892728932617575e+08  1.4956668455482540e+09  1.2512921447431776e+08  4.9648465465699412e+07  1.1609076373003720e+08  7.9798034259259120e+07  9.8661479878173602e+08  1.0133986166875125e+09  9.4855821312489375e+07  6.5946020125176299e+08  1.6291378311972692e+09  4.1682506065258515e+08  1.0896510959966023e+08  7.9904898535252047e+08  7.8254970871335030e+08  8.2748498049357489e+07  6.0646648267073654e+07  1.2035779167664473e+08  1.5382067135598996e+08  2.9289929692845106e+08  2.2596831595782131e+08  3.3973720748235649e+08  7.4644865075305045e+08  5.8123549994411245e+07  6.0133095804413192e+07  2.3994318797155377e+08  4.3227655640659052e+08  8.8501947165274367e+07  6.1319776596672028e+07  5.8952185988703966e+07  9.3362721464731836e+08  7.0657365370458663e+07  6.4691481082019575e+07  6.9634417989907429e+07  2.5906872321246138e+08  1.6289894291345558e+08  1.9352973665445516e+08  6.1414343841352665e+08  5.0358643270697199e+07  5.2114596564681888e+07  8.0202210758147970e+07  3.2088786440377736e+08  1.4789613149718385e+09  1.1803511214405520e+09  8.6551551176240909e+08  1.2347146897785933e+09  1.2168247610337304e+08  5.7893400347474933e+07  6.7187700457576022e+07  5.9226163956984431e+07  5.8255943155663691e+07  6.0311976433678351e+07  2.4167260110981837e+08  9.4188292711370540e+08  1.2192208170359610e+08  1.9646058326363203e+08  3.2335378512207800e+08  1.2675229494556959e+09  5.8571099087408938e+07  2.5624895189147636e+08  1.5470273842357650e+08  1.9147834816131705e+08  3.4411350836407924e+08  4.7370888309895360e+08  3.7081523410752577e+08  2.6258188642392778e+08  1.9707034397948802e+08  1.4976472515273598e+08  1.4850118405412273e+09  8.6230510802503198e+07  7.6734669206882298e+07  7.6930183639991775e+07  6.1548820506288424e+07  9.9540561169688869e+08  8.2888106973833621e+07  6.9537778057423174e+07  7.5820769458977938e+07  8.5405753028687999e+07  7.1101729479204321e+08  6.3238053398153913e+08  5.9716352785961211e+07  1.0129354089878672e+08  1.6280853202602513e+09  9.0597225929630429e+07  2.4065421850221640e+08  5.8958717753510967e+07  5.9396068783925571e+07  5.5357809388727343e+08  4.3177682773217893e+08  5.0542439826243812e+08  8.0349900261199081e+08  1.6275055041962223e+09  6.8001200690088987e+07  1.3703551281193474e+08  5.7582747395492323e+07  8.1290253999870539e+07  5.8469202100090690e+07  5.6437589131832749e+07  4.8235869506612217e+08  1.9545013170385325e+08  6.5501949549580604e+07  7.3831790265003845e+07  6.4930875950579599e+07  1.0030760837048494e+09  3.9944511830258250e+08  8.7345230552671298e+07  5.2993217962579650e+08  6.3563744896198928e+08  4.9823213101204896e+08  7.6649847487529278e+07  5.5783427426796865e+08  6.3583716399422131e+07  9.4331427978669152e+07  2.1922162191168705e+08  1.4873451587839904e+09  1.2672725503679011e+09  1.2651570213478224e+09  6.6301021697486711e+08  5.5316090966914964e+08  6.0003900061692774e+08  5.9723019917858407e+07  7.4121369713762653e+08  8.4156967743201768e+08  1.2698241086625791e+09  7.7334875749430969e+07  5.9108359343124174e+07  7.9457580119740248e+08  8.0388046031924665e+08  6.1638901653622493e+07  5.8081518897070862e+07  1.8673744317277879e+08  2.6805667814103782e+08  6.1205282490202129e+07  1.4995643264364138e+09  7.7694559057845747e+08  5.7897440110212587e+07  5.7714449762032576e+07  5.8114128548571900e+07  6.4719892414609902e+07  2.9497744777141225e+08  3.7216939653501952e+08  3.0943478647263628e+08  8.3393973442037538e+07  7.1981752281973943e+07  2.8837772507269198e+08  7.1938460681692410e+08  1.5741882051868710e+08  4.5308304259953135e+08  2.2257938458596930e+08  8.3230079284017432e+08  3.8488752188879514e+08  1.3257903928843052e+09  1.3700166119471619e+09  1.0962603828897340e+09  8.5423429365129817e+08  5.9910628880214438e+07  7.3144799201380682e+08  5.6885533931506000e+07  2.5640096374588969e+08  9.7330335282065257e+07  6.4247978127488062e+07  6.0961703734162241e+07  5.6588321872021578e+07  5.5716840095120676e+07  1.0068345513198187e+09  6.1808339430777296e+07  5.7536680358270489e+07  2.6695484486408368e+08  7.4576228970451176e+07  6.5864964320968725e+07  1.1705166800882597e+09  1.0431360106347574e+09  6.1820239603568837e+07  6.1092875820491709e+07  6.2994280091542475e+07  5.7879261805181772e+07  7.1727547379773140e+08  1.2113281352140799e+08  8.6938886532333052e+08  1.5365378110007234e+09  9.1633465323235512e+07  5.3309203312658793e+08  3.8657411708339500e+08  1.1586636435116608e+09  8.5961528767652023e+08  1.0289838803095526e+09  8.3834568748751748e+08  1.1281324350142448e+08  6.9213411022209838e+07  1.7446679546043471e+08  5.9670857870014206e+07  1.5414351525693187e+08  6.8398904493029368e+08  1.5108829938534851e+09  1.5082351924289637e+09  1.2610043568242629e+09  6.9655347811439231e+07  5.8091287592290513e+07  6.4115460193788886e+07  1.6334509538400838e+09  5.7858386452975854e+07  6.5742708858227476e+07  9.8376741936125588e+08  6.2298964054146178e+07  3.5150366082228982e+08  1.6355718033340652e+09  6.4747583913264163e+07  6.6599539407794721e+07  6.6565922900429678e+08  1.0140697872008260e+08  1.3213699349809563e+09  1.2112385623633616e+09  1.3153705055876231e+09  1.9052171496125066e+08  9.0241285780661613e+07  1.5796173427456968e+09  1.1161491935520299e+08  3.3422772714067948e+08  1.3153666875636930e+09  1.5433751506521933e+09  1.0532313378535839e+09  6.2675734544871831e+08  5.8650635109785771e+08  5.7769547078139350e+07  4.7393455205978924e+08  2.2317135747084352e+08  1.5236595365733829e+08  1.9760625177606347e+08  5.8686223965135932e+07  6.4524523557365842e+07  6.4931318318649836e+07  5.9791952473859124e+07  6.0318101384189025e+07  5.9216005734129675e+07  5.6329893269241333e+07  1.6290792508410358e+09  5.8878109502696320e+07  5.8841625107347645e+07  3.2630176034045070e+08  5.4035812534703247e+07  5.3938536437849037e+07  1.6283465832318499e+09  5.8425883685475059e+07  5.8411813939631164e+07  8.1379182473798621e+08  5.8679494976873457e+07  5.8667923726754174e+07  1.6327315867952528e+09  9.6399884324553072e+08  9.6333872258021665e+08  8.3797320778337920e+08  5.8745722858347535e+07  5.8770898614615120e+07  1.6286286696744256e+09  1.7092868883678243e+09  1.6207943618167460e+09  5.7866979629319504e+07  4.5586206573984492e+08  1.1258957725809608e+08  1.5821816707547402e+08  2.2682201163981554e+08  1.6299494143317578e+09  5.8122667296680160e+07  5.9077869814593732e+07  1.6379678300407648e+09  5.8951704835669696e+07  6.1970425126660216e+08  2.2744924831571725e+08  1.8160723361004546e+09  1.1321691123560901e+08  1.6281382758405108e+09  1.6299168018502738e+09  4.1697573616204537e+07  5.0458357650413111e+07  4.2526425397646807e+07  6.6032548400519930e+07  6.5236787386023119e+07  8.1073128312097538e+08  4.4909480491923851e+08  6.1996361616105832e+07  6.0005090943677127e+07  6.0024823649435394e+07  1.1328827887385323e+09  5.9424366263669193e+07  6.9201787165443823e+07  3.2745200546268743e+08  4.0682457533232158e+08  4.9557424973529422e+08  1.8162306994633684e+08  3.4599332945811337e+08  2.6840056749433482e+08  1.5267058921720531e+09  2.9214064283306408e+08  5.3708271778949603e+07  7.9240105718188450e+07  1.1959259832095580e+09  9.7703704340420887e+07  4.6886701076886046e+08  8.1725984807998824e+08  7.0402541551730442e+08  1.0771379470273514e+08  6.6003219445458427e+07  6.8474751788762406e+07  6.3506036596685219e+08  5.8097443674740471e+07  6.0398315594478987e+07  2.8994024881382298e+08  8.1482363181533492e+08  1.7675920989968985e+08  1.3096230217474796e+08  1.5792433958350393e+08  1.5118695424271229e+08  1.4093625556276187e+08  5.7138653809117568e+08  6.5663654404675283e+07  1.5578026111777782e+08  1.4500296035252467e+08  1.7302317343419600e+08  6.2655229599706747e+07  1.0313457067399172e+09  6.0678017540600531e+07  7.2817481080938295e+07  7.3617369558087483e+07  7.7397817965059012e+07  7.5527887395077550e+08  5.7181023079279810e+07  5.4802159870137081e+07  1.1069920229647098e+09  1.1650006551520386e+09  1.3821731288819757e+08  5.8599702787254021e+07  1.1669004482902955e+08  1.1659183393261480e+08  5.6043737544324063e+07  7.3894785397339836e+07  7.3101199345857829e+07  7.0198452034872144e+07  8.5222025476900980e+07  6.9084350635377467e+07  9.8445924418996334e+08  6.0887558579850204e+07  9.3947669829075527e+08  7.8917031621262148e+07  1.0987661728103231e+08  9.0407886505742654e+07  5.7857466509280376e+07  8.5102696576878238e+08  6.3540809495566869e+08  8.6347872707809734e+08  6.3424491477773748e+07  9.1829202890390918e+07  1.0094418054206687e+08  7.9876356764841869e+07  2.4982137915795094e+08  5.7268732659684055e+07  1.3909064869623643e+08  1.2690325644304720e+08  1.2647466559366381e+09  2.6467664532142398e+08  1.0682847376375697e+09  1.0204866430253757e+09  1.0196907884907646e+08  1.2626706011770150e+08  9.6958351659844816e+07  5.9669931731207639e+07  1.3900021360272992e+08  8.1276570102374643e+07  5.8185736089511372e+07  7.9059963302234218e+07  1.0199724858160988e+09  4.9065039094774801e+08  5.1623281179087079e+08  9.6141597541133034e+08  6.6103218218083465e+08  1.2212195184404723e+08  7.1232702259948388e+07  1.1029072629464338e+09  5.8692658678790629e+07  6.6152888271804526e+07  6.3748398286778830e+07  1.5290633220260043e+09  5.0315289267884612e+07  1.2040901972337109e+08  4.2969998008808148e+08  5.7952058589662917e+07  1.3889766768640454e+09  5.5705080700149044e+07  1.5451403221635475e+09  1.1691300570083373e+09  1.0917871521157017e+08  8.0675531750827968e+07  9.2329071822528839e+07  6.8196975490910441e+07  5.7271872380564258e+07  5.8818420252915114e+07  5.9574518486933157e+07  2.2789167261613151e+08  1.1269482133222816e+09  1.0524899703361125e+09  1.2547126837265654e+09  4.5152331618881285e+08  3.9674366388858396e+08  3.4812228381014913e+08  9.7297840841440171e+07  6.0298254258775242e+07  5.9737737332654402e+07  1.7883109800146541e+08  3.4620982951285356e+08  3.6828973617578590e+08  4.6524691812766683e+08  6.7509441585561976e+07  3.5681779703208262e+08  7.3784998404748881e+08  1.4016739806282327e+08  1.6842030318273690e+08  1.4307027185095876e+08  7.1782227877365902e+07  1.3751370237237519e+08  4.0477188289432764e+08  7.1335356156032756e+07  4.9974175848547709e+08  5.2348035802139038e+08  9.9259842912937462e+07  5.4824427873331928e+08  6.3577903369104199e+07  5.2854387028749190e+07  8.0207989942873463e+07  5.6648650431934819e+07  8.2324637663764551e+07  2.1604856971573415e+08  2.0451850936199114e+08  1.8035459195653415e+08  1.8934610419296202e+08  7.5757332165989056e+07  7.1444939869235456e+07  6.7102317624528728e+07  5.4024261476330996e+08  4.4253712957018977e+08  1.5152500200669402e+08  8.4540467007156444e+08  6.4093785143993866e+08  8.0987766182713437e+08  5.9708314395739985e+08  5.5554668624506764e+07  5.4180753370627195e+07  8.5857310038475180e+08  1.3743474535875139e+09  5.7906650640018456e+07  6.9838615401833117e+07  7.5128342581659651e+08  1.1004086905922367e+08  7.5102799756061345e+07  7.2579716574499756e+07  6.0191781507074364e+07  1.3496636036544135e+09  5.9747874140527174e+07  5.0327848836621322e+07  5.5826586531456850e+07  1.5541631561509914e+09  1.7989954388431555e+08  7.0119201843372524e+07  2.5648692073018318e+08  4.2330392055481046e+08  1.8860535328107706e+08  8.7297810165202782e+07  9.3637762032639301e+08  6.7760066885094002e+07  8.4135552464923620e+07  9.1507645595380038e+07  7.8443544014121383e+07  8.4209888999955535e+08  7.8680898410334200e+07  1.2530352099785855e+09  1.0420905332820433e+08  7.0206572306272998e+07  1.1342511242512645e+08  1.3607104479654126e+09  3.0766139890068752e+08  1.1159404973694797e+09  5.8805610549314193e+07  1.4240944914927346e+08  7.2782572458176577e+08  5.7710480553292200e+07  5.7806744399268068e+07  5.7604771967451222e+07  7.8299548170243174e+07  6.1166301918462932e+07  6.4224015174731463e+07  6.2385173750644587e+07  1.3251325599745617e+09  1.3652079127191429e+09  1.7633665552544019e+08  7.3113352510082638e+08  9.0563336230158889e+08  5.8696623866874643e+07  4.2746942732435620e+08  1.5364764068630826e+09  5.6786780350483954e+07  5.5219844737606086e+07  1.5883382527198014e+09  6.6209315242693245e+08  2.0876580066089678e+08  2.4511463814027417e+08  5.8092226706305958e+07  9.1284439285986274e+07  6.0308877753915139e+07  3.4125290300229484e+08  1.4020023570547092e+09  9.3677546628475285e+08  3.4554898153358561e+08  4.2146537392958236e+08  6.1589438464161016e+07  2.0737842214157417e+08  1.7231683695487973e+08  6.9482401992136136e+07  7.0268772528838292e+07  5.4728863591583359e+08  1.2205807486386372e+08  6.2751653457897998e+07  5.3530075388247564e+07  1.1491136706834053e+08  6.2088343907741264e+07  2.9859991910205561e+08  3.6181995041954064e+08  2.4291530687071639e+08  2.3255840073503360e+08  1.0802088377295333e+08  2.5797826987646767e+08  8.7898312212529346e+07  1.2129782941451217e+08  9.9985828056683183e+07  1.2825051103334713e+09  6.1200609953408375e+07  1.1013618305461721e+08  8.9175351431785059e+08  1.0216265816848425e+09  1.3662864270878905e+08  8.5843733377400249e+07  1.3802111393871036e+08  9.2202232707274270e+08  1.6422472508193102e+08  5.9307825821099862e+07  5.8324230963872075e+07  1.2244073841755651e+08  1.3788248255232531e+08  3.4772889351454204e+08  9.4027134239241585e+07  6.4933101925851770e+07  1.2491872785172330e+08  1.1878498687859099e+09  8.8750443998618141e+07  2.2769894987082338e+08  6.3069116828220320e+08  1.3561287066894770e+08  4.5443832702966446e+08  3.0466174278429061e+08  2.9589341440684766e+08  3.9829799455495512e+08  1.5245989986529571e+08  1.4950567609988856e+08  1.7250832818099430e+08  2.5939860911590114e+08  3.3932500317956614e+08  2.2264994684760505e+08  1.9579626281895038e+08  3.8984466237913102e+08  1.2895439941974976e+09  6.0299798581339471e+07  6.1610469318039171e+07  4.6000782657256281e+08  8.0086633353936836e+07  9.1222728655269742e+07  6.8853262410017633e+08  8.4992480597955823e+07  7.0144567473597139e+07  5.9169906655175559e+07  1.3722371780786891e+09  6.6256252491358794e+07  1.8143668648182905e+08  4.8076290029234715e+07  1.1665865868121541e+09  1.0807766691255131e+09  5.7685913897266972e+08  1.9603600728501827e+08  2.4183281093031669e+08  3.6190617685657841e+08  5.7995992960389636e+07  5.9170502746874742e+07  5.9966087377113409e+07  8.9046734860099271e+07  1.3838237461294444e+09  6.2161942681358516e+07  6.5329291415238082e+07  4.5488659617708683e+08  5.7676722707913411e+08  5.4586813942636144e+08  1.0182917667585678e+09  7.9773072141215026e+07  7.3301833189021572e+07  7.0995701720891565e+07  6.3081710257719167e+07  5.7725882911369219e+07  8.3885631754759443e+08  1.5172006911739045e+08  1.8251955384814700e+08  1.2805241727620099e+08  1.9933747734296873e+08  6.9919545181473926e+07  6.3586243781371281e+07  1.0291518258140022e+08  8.3304286356138086e+08  2.2590558913764164e+08  4.0966954072560775e+08  3.3910572507226038e+08  1.2010250971374383e+09  1.1740450401759729e+09  1.1088676687398944e+09  6.2275385713331267e+07  2.3570382026069850e+08  4.3280229326717776e+08  1.5428763018462901e+09  1.3356799338719163e+09  2.6042494934189975e+08  1.2075585771516800e+08  5.7125386115639962e+07  6.5177578536404766e+07  6.7001534040730700e+07  1.3293096319942640e+08  9.8526571520242631e+08  1.3866403498300004e+09  5.8331297526438251e+07  6.2832378620235749e+07  7.3754502870099831e+08  5.0698933012748706e+08  3.0909085021310264e+08  5.8434524234136917e+07  6.3305386288718998e+07  6.6435288092416966e+08  5.9024276030141413e+08  2.0766287135050285e+08  1.9664256573766977e+08  2.4136714659916833e+08  3.0440835188554662e+08  5.9080660666762091e+07  5.8015520788714305e+07  1.9175781565862516e+08  6.6286706234582104e+07  4.4850724558798373e+08  3.7711671115561235e+08  5.8126803229948692e+07  9.2553234503959417e+07  1.3889128804526863e+09  1.5546628906186204e+09  8.0033205222946382e+08  6.1539573454334013e+07  5.3592273559912138e+07  8.7100394623632681e+08  5.9618732680077446e+08  5.6541414849653304e+08  5.0083927088417268e+08  5.9921270666116345e+08  3.2407061642320728e+08  1.1408628927602060e+09  5.8467412274249506e+08  5.6259473676362801e+08  6.8917334099359369e+08  4.5425418743375790e+08  5.8185891153349690e+07  6.5226750038319536e+07  5.9626143220872380e+07  4.0677842118213493e+08  7.6417259498742893e+07  5.9451277425494604e+07  6.1942510710639291e+07  1.1106712456998035e+08  2.9529511477147722e+08  2.9265875502698523e+08  1.5861204401918857e+09  5.3143890372591686e+08  6.3512786607525921e+08  6.5940907834790862e+08  9.9058666483224487e+08  1.1753905913448159e+08  4.9431537928173798e+08  2.7726272713902432e+08  5.9318804548149385e+07  6.3199047649068147e+07  1.1660946503531203e+09  1.0193233463872772e+09  1.5317886929444640e+09  2.3756617025708824e+08  4.2530606517718112e+08  1.5377394256012840e+09  7.8619348093170941e+07  6.0646559981170662e+07  6.1950657049982257e+07  5.8807314380327009e+07  5.9240025364892125e+07  5.8888481021907717e+07  9.3104667137887585e+08  1.1107028146369204e+08  5.7559372090313606e+07  1.5716553320916879e+08  6.3186280772178710e+07  5.8381606228987180e+07  8.3870293638383061e+07  1.2116677557714373e+08  5.8895162175113782e+07  6.1118332329759441e+07  5.9633694716158979e+07  6.8257692821842849e+08  1.7056577786441073e+08  1.9815904982388756e+08  1.2071241629889350e+09  6.4689867743321694e+07  2.4328988443145645e+08  5.6861337739826202e+08  5.3028597933142376e+08  5.8300660527619667e+07  8.8894751900079384e+07  1.5259256597584276e+09  1.5563296442594917e+09  1.5091242818576452e+08  5.3147526749086209e+07  1.4143968940110285e+09  1.5492990472610123e+09  9.8227474344401014e+08  7.5468402558621275e+08  1.9175045677195117e+08  6.2704881523820192e+07  1.4579262478936601e+09  1.4092986455912607e+09  5.7684612239965022e+07  1.3625822891084452e+09  1.1769887902231596e+09  8.1432744634916693e+07  6.0394171696731634e+07  5.7481138456820726e+08  5.7656493229648724e+07  1.0101213163150044e+08  6.5684465027030379e+07  4.1074635449772340e+08  5.8005814367684484e+07  9.2495985035075510e+08  1.0015004734308633e+08  9.8597554750063729e+08  9.2537765024747348e+08  5.5901916706673659e+07  5.5059773348699532e+07  4.2235143963480943e+08  9.6633249937312379e+07  1.2704768245018396e+08  2.7567045388775778e+08  2.9609734934212899e+08  2.3943873250036582e+08  9.0178192470223892e+08  2.2364133977947190e+08  2.5333778720335320e+08  2.8716510433006263e+08  6.1990389311008580e+07  1.3392873786411250e+08  5.8837942088395429e+08  1.0299120866216752e+08  5.3184318565354697e+07  3.5532203010301852e+08  7.9730962908330470e+07  2.7390162338807100e+08  1.2071282590873473e+09  9.2936274547652543e+08  5.8416420890790634e+07  5.8668548574645981e+07  6.2807991486100443e+07  4.4337860734037215e+08  9.0177971199147075e+07  2.0345163502580062e+08  7.5405982101995587e+07  8.1689524361077979e+07  8.0053440853527963e+07  1.4746246869655643e+09  1.4732670719776261e+09  1.5888822584747255e+09  1.5873504337218590e+09  8.4419497852348328e+08  3.0028873042138922e+08  8.3224618031555057e+08  1.2479065441134255e+09  1.0173766288794498e+08  1.0024477038829149e+08  2.3021452448394763e+08  2.5928321150933722e+08  2.7557703295530564e+08  1.0276276325391454e+08  2.1996981219945806e+08  7.3485982674541903e+08  6.2962149890334189e+08  8.3087564128501058e+08  1.0950330253768410e+08  1.2122761501365577e+08  8.4748068540579766e+07  5.9926365477674328e+07  1.5602802659063952e+09  9.6636227548320875e+07  1.0214293519996166e+08  4.8249055763112831e+08  1.2185341402404651e+08  3.5402915829510522e+08  1.5633297696130311e+08  5.7861588736900434e+07  5.7709882456871688e+07  6.2520189476499610e+07  6.4692314826748677e+07  8.1151764529530334e+08  1.6802371568682394e+09  1.3077844819159884e+09  3.0601906191706657e+08  4.8166864563194662e+07  5.4745177571879849e+07  9.5840859786189705e+07  1.0652666543496349e+08  7.5087117871926561e+07  7.3235437196670666e+07  6.1336011908583745e+07  1.1181857141342473e+09  6.0952986649570219e+07  6.1475090087381952e+07  5.9952672977118164e+07  8.0414719259134173e+07  4.7237178152969760e+08  6.0770474451380610e+07  1.2026553784218163e+09  8.9157029232435510e+07  7.7974988049533439e+08  6.8565652732218719e+08  6.2547532582258391e+08  7.0154599380680168e+08  5.7430317840204746e+07  2.1184192146076119e+08  6.6092571764205195e+07  9.0118705958357000e+08  7.4304905890147537e+07  2.6349916955244273e+08  6.1444363454052158e+07  3.5475087800792515e+08  2.9241091934826809e+08  6.7502943346934065e+07  4.8141386681853849e+08  2.3775275202304739e+08  6.1853034206344135e+07  1.4540367409679446e+08  1.7336800700603783e+08  8.5755358436109316e+08  1.1045272255472686e+09  5.8140479810105890e+07  8.7638489894569993e+07  1.7283504917594075e+08  1.1107546329945368e+08  3.3231924442943472e+08  1.7088013487389106e+08  7.0235036519630119e+07  1.1770896809660010e+09  6.8237372052150473e+07  8.7921694767148942e+07  1.3115021731550639e+09  5.8343221487447806e+07  6.8833423096202746e+07  7.1394459874605983e+07  9.8988378209571242e+07  4.8939669598909795e+08  7.9199651510223567e+08  1.5160827156016955e+08  2.2076188974025583e+08  5.8950322334729917e+07  1.0723689658276480e+09  7.0108701710430443e+07  1.1886045802750974e+09  9.9746732447546041e+08  6.5664700967008844e+07  4.2397219891918379e+08  1.0844582559198381e+08  1.5356786518957360e+09  1.0719561652273762e+09  7.8844898856214917e+08  5.8923324327047281e+07  6.0064808168202758e+07  1.4571682807448462e+08  6.8935339177769452e+07  1.1397578575875869e+09  6.0820708397418648e+07  5.8644032636722296e+07  2.8394139425011158e+08  2.9240191918097234e+08  4.0304606877721804e+08  1.5731294746630566e+09  5.7997942770574152e+07  4.0081618912360644e+08  5.9708070770576432e+07  1.3980294065969193e+09  1.5483331473073075e+09  1.3926172763432448e+09  5.9220270812611707e+07  5.7557991374312282e+07  5.8544921431988321e+07  5.9455465543839335e+07  1.2642716265959272e+09  1.2505877787969351e+08  6.7907595177591726e+07  9.3662347237509072e+08  1.7149110812671580e+09  1.0833228945530682e+09  5.8951168650724232e+07  5.9733651652405627e+07  1.0259257891025395e+09  5.5023962272840932e+07  5.8796053120126382e+07  1.5274290059661692e+08  1.4647332400423367e+09  1.5081929513778369e+09  9.9064699592653537e+08  9.7028716203731567e+07  7.1562608988151580e+07  6.1438422485439651e+07  6.0841534919088773e+07  7.3464180084279224e+07  6.0592759644799747e+07  1.8993002040499505e+08  3.8876716700789261e+08  7.4331685606856957e+07  2.5746915630587921e+08  2.3607930448328286e+08  8.7791459817497388e+07  5.4105279606346309e+08  1.6995954355004963e+08  1.0288878447509587e+08  5.9607095307893842e+07  7.7968541006545022e+07  8.4777897572613788e+08  7.7324667165734649e+07  1.2512776896830018e+08  6.7791808028817987e+08  6.3016573650019377e+07  6.4911035291961662e+07  3.6091884421517283e+08  1.0256666183156741e+09  1.3899736086520677e+09  1.1778733353027716e+08  1.3570375973659852e+08  6.7372680529615140e+08  8.0439833938565910e+07  7.5142489788255423e+07  7.2497612427017421e+07  5.8733055894673966e+07  7.7850608072629169e+07  7.2127231907294536e+08  1.0695103256434837e+08  5.7531328277564764e+08  5.3250346461594179e+07  5.6421213456486300e+07  6.0498853774046086e+07  6.2415708604636252e+07  6.1798133960538983e+07  6.0174859544521280e+07  6.3095893483593725e+07  1.6762084828972861e+08  6.2553306946094170e+07  6.2882905510263085e+07  6.4324908121111810e+07  1.3178292283571258e+09  7.5513933341489136e+08  7.5426385020908356e+07  1.4156006387338433e+09  1.1139666880436097e+08  2.4195293915126967e+08  7.5492014853607500e+08  8.7948426616672051e+08  7.0000405357718837e+08  6.0594321756350942e+07  4.7867700296578623e+07  8.8482445701481983e+07  5.7947680223460302e+07  7.6954017795895785e+07  7.7431828513045371e+07  8.5194407132128835e+07  6.2053617349073040e+08  7.0129983985812843e+08  1.5630561868290424e+08  6.6599335987684309e+08  9.2149327789004043e+07  8.2721583211301517e+08  5.4437318919019729e+07  1.6404920909995673e+09  1.6135565083194735e+09  2.5647174853959304e+08  9.4191812052698803e+08  1.2181677782508317e+08  3.3136367335841119e+08  1.4218742719066545e+08  9.4033118958258235e+08  5.8373482103849672e+07  6.3711573771806329e+07  1.0502807861500582e+08  1.0849935891537519e+09  5.8925751796741474e+08  9.9596332477690503e+07  7.4034086417154872e+08  1.1934718067944820e+09  5.7860147965265833e+07  9.4328174206789744e+08  1.8275346152708822e+08  3.7007273346292293e+08  6.1753585216842949e+07  6.0975991502882399e+07  6.1053716768414922e+07  6.6406806081233062e+07  7.1355825537737116e+07  5.1371109304163508e+07  5.2239813147892676e+07  5.2254072951113150e+07  4.9654517022534627e+08  1.2994091152678857e+09  1.3179849909179337e+08  7.6109928848176092e+07  1.6153521156548947e+08  1.3474252988483608e+09  1.4864348440191543e+09  3.3901004932790679e+08  5.8529314077611971e+08  6.6350735356118396e+07  1.4509938382349725e+09  1.6265331108708398e+09  1.5494716671033032e+09  5.2466343666515946e+08  1.0350742516730573e+09  7.0609814096818060e+07  6.5550198653037763e+08  1.4443155601935191e+09  4.3492748265744233e+08  4.5357713780975097e+08  5.1258816515324670e+08  7.0748250153906569e+07  6.0042307352118099e+08  1.2295532125020065e+09  7.0248522209263027e+08  4.7645125390047026e+08  5.6436261249236509e+07  5.5678921885375082e+07  8.6933233268834400e+08  5.8506106211859010e+07  3.7216529813720062e+07  1.5717109438186214e+09  2.9969397971786994e+08  1.6303799355113084e+09  2.4804062774695992e+08  9.4173372909630015e+07  1.2292828674975795e+08  3.7929362898445272e+08  4.4400372546480131e+08  1.1727627126368000e+08  6.6477113154613718e+07  1.5276677099229228e+08  6.9836778841285259e+07  7.1816915640970275e+07  7.6573267754455197e+08  8.8535041404803133e+08  1.0384404060869342e+09  1.0320876658831711e+08  9.9142972733780161e+07  9.9122405228962392e+07  5.7439499157509640e+07  5.7387840519489728e+07  5.6635428447635673e+07  9.4629341369806731e+08  3.2872564406680715e+08  5.7689537882216834e+07  1.2254833863181370e+08  2.3689518892050204e+08  1.5614447567954999e+08  4.4731619392977720e+08  5.7391252370470846e+08  1.0452370952675921e+09  9.3254644861228395e+08  6.1075683916264541e+07  1.0133721961708041e+08  8.8354508121475995e+07  1.4106591449409811e+09  6.6212939650603652e+07  6.6430811934655614e+07  4.6835133277410316e+08  7.5412585500855994e+08  1.1810849986026597e+08  5.9493443722248308e+07  5.3495023943866409e+07  3.4618649431859100e+08  1.2169014523895545e+08  6.9162740592271760e+07  6.0229093744846091e+07  2.8188250576517332e+08  5.8508491302448824e+07  5.3674754194058585e+08  4.5899547460976100e+08  5.2503412080133468e+08  1.4538257362143588e+09  1.3768252955965972e+08  5.6085240107165031e+07  6.5109153182239342e+08  1.0897747558520560e+09  1.0788992693585956e+09  6.1623525727529064e+07  5.8102108677435353e+07  6.0161896655318427e+08  4.0159202493494374e+08  1.4840650276702607e+08  1.4661887214974430e+08  1.7071995947054210e+08  1.4356315759000570e+08  2.9429262550693989e+08  7.2020429429975912e+07  6.1856962774763979e+07  3.7178742234740096e+08  1.5751256848233325e+09  6.7421188215379834e+08  7.5261597493799663e+08  7.2445107877211154e+08  5.5677527369150877e+08  5.8034417829714918e+08  6.0835687789155729e+07  1.0114263215542333e+09  6.0687404588648093e+08  1.4464166008106525e+09  1.1381837921124296e+09  5.5626600552884981e+07  5.7099284249969378e+07  7.5200413059474573e+07  5.7421495292281604e+08  5.2263506712320879e+07  1.2546275673815572e+09  8.8112656688649550e+07  8.0770931002711400e+07  8.8988536892315596e+07  8.0197600099166632e+07  1.3800254084263422e+09  1.5534317248103378e+09  5.4725778592333698e+08  1.2499754555277038e+09  1.2700602741765966e+09  4.3560454016011626e+08  3.8402169226164502e+08  5.8754581709762424e+07  6.1511313449225903e+07  1.4681570599708158e+08  1.3886280735987419e+08  1.7545509819049662e+08  6.9601027442964643e+07  9.9752298049169749e+07  8.5395527680227005e+08  3.2316701053886789e+08  4.0134164681361979e+08  3.6510225350525975e+08  9.1103052606556654e+08  1.0100459925425671e+09  1.1785765278084667e+09  3.5434642206491292e+08  7.5374748698320580e+08  1.0811298256993220e+09  5.0662638110408567e+07  4.5535181764247328e+07  6.2365877807140946e+08  6.7848839179029956e+07  1.1269403284035511e+09  6.9317133477631733e+07  5.7026560695313461e+07  6.1381466140836537e+07  5.8442110348911393e+08  1.4282861788099215e+09  5.8046080764303319e+07  5.8157896405698001e+07  8.4806820036063939e+07  1.5461465157717595e+09  1.4759808283025336e+09  1.4091422795700112e+08  1.1967603015243921e+08  6.0852904296400420e+07  8.3547401831723616e+07  8.1916857568398252e+07  1.0033170383971339e+08  2.3057113630914763e+08  6.7497521532804310e+07  7.3603624067002177e+07  7.9095894051174247e+08  5.8655693233809769e+07  1.7116907541310656e+08  2.0327459271157563e+08  1.4439401467317966e+08  7.1222777198499382e+07  5.9906128019545697e+07  3.3310193046194130e+08  7.6848734471120298e+08  8.5837059296339846e+08  6.8007145723921403e+07  6.0278290259586722e+07  8.0879097324814156e+07  1.4655735123688905e+09  1.3865346324891207e+08  8.4819768311591730e+07  5.1268607293322814e+08  6.4657639637033470e+07  8.1141873515981004e+07  1.5715531992302924e+08  5.8160676818953864e+07  1.3188267343113494e+09  7.5151964393929765e+07  3.8395398243864918e+08  9.5446836224162233e+08  5.7076585260929085e+07  3.0225103084732598e+08  7.0475414153070688e+07  4.5352341654298770e+08  4.9987745942814767e+08  3.6804339380984968e+08  5.7586210630569138e+07  3.6081519086872441e+08  1.7181977097095224e+08  8.5929492248718157e+07  5.8438338140098087e+07  1.2483461585268962e+09  1.9623614383040032e+08  2.1944169677808371e+08  6.6212276032581374e+07  5.8770371595430069e+07  2.9791825619771087e+08  5.7949319993237033e+07  2.0989768466377494e+08  1.8410407026099584e+08  6.3166401195021905e+07  2.9190973421436912e+08  2.1307045511795583e+08  2.3635655791786668e+08  7.1844174685985088e+07  1.5557555284970217e+09  1.2511620442915706e+08  1.1155444524340406e+08  1.0670698817892583e+08  5.7610306476089664e+07  6.2209034447078787e+07  3.5064201714470744e+08  1.4745977687454572e+09  1.7071786862796837e+08  2.0040133393618190e+08  6.2300502665879138e+07  6.5339599873802416e+07  6.8557767059220299e+07  1.3815021418132129e+08  7.0999806723807204e+08  6.0623838538780653e+08  7.2640312161452964e+07  8.9874147769251418e+08  1.2127179027070131e+09  2.8976445869195276e+08  1.1209378989780092e+08  1.2102404981351921e+08  4.4341451744321752e+08  5.4711678838456190e+08  6.3762812805711739e+07  5.9872146921537292e+08  1.8506686467345411e+08  1.1297326594746201e+09  1.3348135475655878e+09  4.7773950585056193e+07  6.5023555968602873e+07  2.3143840606473395e+08  2.0859892480546379e+08  9.1257136259775448e+08  6.2111965843525529e+07  6.3597849995978430e+07  6.3537014649665914e+07  6.1474385574151613e+07  6.8113789255838677e+07  9.7487307458126828e+07  1.4341990204497820e+08  6.0320110702457823e+07  9.4601958780745089e+07  1.3230456139118888e+09  7.8369804765827572e+08  5.7847925867248192e+07  7.9435428661237180e+07  5.3345892940906040e+07  5.2846883479127616e+07  5.0938719457128018e+07  7.6601315120195299e+07  6.0760096827800952e+07  5.9630970426749274e+07  6.0218725346559189e+07  5.8970576588275068e+07  5.5243422704965100e+07  3.4969871403938323e+08  2.6438130996052563e+08  1.0210937977934604e+09  1.1053119582726753e+09  1.6302831838705719e+09  1.5545120088564670e+09  1.4528834173283186e+09  1.1185893708039986e+08  7.6499954049629256e+07  1.7156294701518902e+08  5.9183590109012924e+07  9.3719583928504646e+08  8.8721750358476892e+07  8.5927506308767462e+08  8.8790384927351665e+08  3.2717636870049691e+08  1.1566829359773431e+09  1.2415526962852011e+09  1.1074865908270862e+09  3.6947325338679290e+08  4.7798933470216101e+08  3.8112958311920595e+08  3.3345484237461132e+08  1.2468372275410630e+08  1.1022206726933533e+08  1.2118558742215352e+08  6.0057850632655598e+07  9.1856754638024879e+08  2.1499646711930019e+08  2.1040465677528954e+08  2.3992780905461618e+08  8.2565632777501643e+08  2.1422180990882769e+08  4.6145324431327391e+08  4.0929119053643471e+08  3.9695123856210440e+08  5.1777713840930998e+08  4.3133300081397098e+08  5.2192393239543796e+08  4.9533847241377896e+08  1.4092798268579236e+08  1.4385530536674452e+09  1.2342397348585074e+09  6.4983721932147644e+07  3.0813281769073576e+08  3.2493986535395736e+08  2.6971893021551800e+08  5.7583093756362028e+07  2.1763741309434044e+08  2.1733733505271465e+08  3.3026421892890638e+08  8.0561571823258385e+07  4.5025328352954584e+08  8.7146071297739044e+07  1.3107355124158925e+08  2.6610677537398523e+08  7.1148212572395995e+07  6.7928330587856734e+08  5.4653299867617555e+07  1.1855249624072835e+09  9.1104969827450573e+08  6.3502506617869049e+07  6.4878462025912084e+07  6.8121704549218893e+07  6.8624925579272062e+07  7.8626555653759038e+08  5.9984950182577774e+07  6.3887519860996701e+07  8.2690412575192833e+08  2.1605656245008415e+08  5.7560462547437087e+07  5.7599421861374624e+07  5.8726197838153280e+07  5.9296943191613920e+07  5.7397430440646935e+08  5.9263697284277283e+07  5.9348342041142404e+07  9.2584213244985595e+07  6.7679957331977174e+07  8.1973604065583155e+07  1.1412528227057137e+09  1.2546411407905729e+09  1.4499735142988038e+09  9.0442654383222997e+08  1.4697045779986906e+09  5.9851430365593188e+07  1.3414750266534450e+09  2.6593662528943339e+08  9.4392897714445487e+07  1.8957593073700917e+08  6.7174361655275822e+08  8.4200192688866571e+07  7.6555171809252426e+07  7.6969000664947554e+07  7.5675117197943509e+07  7.8494556035162270e+07  8.0178887518738940e+07  6.0523414328379825e+07  6.4510421179742232e+07  2.6700215754339656e+08  1.7399543502365464e+08  2.0073329168650401e+08  1.8959977360381252e+08  1.5630714476335034e+08  1.6272346391484540e+09  1.8643124330566815e+08  1.7979121555830419e+08  1.6831352522638452e+08  1.4928843085779759e+08  6.0429903485068433e+07  6.2003494473634690e+07  1.6717916414599550e+08  6.3435786404296808e+07  5.7767248339422569e+07  1.0941397324033062e+08  2.8490103846984279e+08  3.5838386400241929e+08  3.0712258179089832e+08  7.2633661481204003e+07  1.5612150854375851e+09  1.4011387784717357e+09  1.1925892242128408e+09  5.8573890197285816e+07  7.6811972969000459e+08  5.6497479215529971e+07  5.5392704855423637e+07  2.1817917188109845e+08  6.5881110254862234e+07  6.9630982777748436e+07  9.1736617807709515e+07  5.0830363196878619e+07  5.8609692940654442e+07  1.3165006952459213e+08  6.9405399047924483e+08  2.5886528995657140e+08  2.6619830141583964e+08  5.7694561913741209e+07  1.2087368984153354e+09  5.9354920611121856e+07  5.8738227553150967e+07  5.9231871517529882e+07  1.4204290939729588e+09  9.1770409997297853e+07  2.3266522947822022e+08  2.5135790252430832e+08  4.5204743779139465e+08  1.1547531343204395e+08  3.2089382798964047e+08  2.7178107789244819e+08  8.8274869309269950e+07  9.3867322948320106e+07  7.2722578677267775e+07  6.7938581722696140e+07  6.8073903154333508e+08  1.1882267631961162e+09  1.1855307247335670e+09  3.1465943898080641e+08  3.6212417649510831e+08  3.1248335074986482e+08  2.9450465952520061e+08  9.9465367060878322e+07  9.3490894733298913e+07  1.0811821055285949e+08  8.5214412974482909e+07  8.6594209061988854e+08  1.2906406465964189e+08  1.1368152968479048e+08  1.7587759847022116e+08  1.9317877107934478e+08  2.1724057882321417e+08  7.4281519007315189e+07  7.2155419836076808e+08  7.9626849394358933e+08  3.5911518899624485e+08  4.2350089964115071e+08  8.1473445911115199e+07  6.0325692608090714e+07  5.8447020289534353e+07  5.8296320282570779e+07  1.9937651006751749e+08  1.7763589000051537e+08  2.0079207709278664e+08  1.0387443724477609e+08  9.5694462611520851e+08  3.3289711912005091e+08  1.0229652155125864e+09  6.3324497650423549e+07  6.3249315436383374e+07  6.4985933580569848e+07  7.1798298221448600e+07  7.9456415113956496e+07  7.5343802661046654e+07  7.6052524563336581e+07  5.7998768725902602e+07  1.1578666636399730e+08  1.9399338681642973e+08  2.1558475894225532e+08  3.7095463067804879e+08  2.7892085877713925e+08  2.8174437913351536e+08  2.6949316494058377e+08  2.4076062662298980e+08  2.4393786480017900e+08  1.8200680588766617e+08  1.6433664217317402e+08  1.8262750092225209e+08  1.6202459541627520e+08  1.4291041116259909e+08  2.1109389026112530e+08  1.5943860531597894e+08  1.4181776896440792e+08  2.0826537427165630e+08  3.6589513721836346e+08  3.1832295702444321e+08  2.8291552723983800e+08  5.6969264612571105e+07  1.2794864772938624e+08  5.0769309654212303e+07  7.4306751286906019e+07  7.6572787779081225e+08  1.2849930073305352e+09  1.3024442486190600e+09  5.9021980056905180e+07  1.1661676975447042e+09  5.9388797127609625e+07  8.0794932685684100e+07  1.3707946884035487e+09  5.4444678164166532e+07  6.5792754502785432e+08  6.8625399233644199e+08  5.3516872770527959e+08  7.8456661654620481e+08  8.7197254090212488e+08  8.0838552039470792e+07  8.6145456885326475e+07  9.1347417256986648e+07  7.8358658637314022e+07  6.4582654210081488e+07  1.3613574233206096e+09  1.7953216565036437e+08  6.1061575928024881e+07  1.4096628348774266e+09  1.1527566472271784e+08  2.1382586443407425e+08  1.4724193768700334e+08  1.2452660188831903e+08  8.6236867129572535e+08  1.0143874853033741e+09  5.0273527090823907e+08  8.6571174686631525e+08  1.8484816970529890e+08  5.7603267994487917e+08  6.8796872914122236e+08  1.1026687441106966e+09  1.1040183913744373e+09  6.0247012804590717e+07  5.8462292400618292e+07  5.7927617311669715e+07  6.0975070773530826e+07  5.0482538329817343e+08  2.9582382447122347e+08  2.4898736409616408e+08  2.6190699757581773e+08  8.3927135156161487e+07  8.9786422789933622e+07  2.3213284505837142e+08  1.2398842173008697e+09  5.9257335816147946e+07  5.4560236176633410e+07  6.4264838672591157e+07  4.9302946916505709e+07  5.7596836036441468e+07  5.4104436593970990e+08  7.2638664603275323e+08  9.4656895761784458e+08  2.6310259983764663e+08  1.4787289040170214e+08  1.1272717968406287e+08  1.5648883035472445e+09  1.0447144107613666e+09  7.6687206295659944e+07  5.8919952916845627e+07  2.5880350492825344e+08  5.7947123365196764e+07  5.7974999767732166e+07  8.5690922676956356e+07  6.2880879378474861e+07  3.8801145071681905e+08  7.9177755029999435e+08  6.4372257272096351e+07  6.2069650614817798e+07  1.5588660609714835e+09  5.8053595288702607e+08  5.1058903702836877e+08  6.0361429141626990e+08  6.3146848272033699e+07  6.1632619144714713e+08  6.3729388298634611e+07  5.7934611606670186e+07  5.8006446434470296e+07  5.7964839202118807e+07  5.8322616578088775e+07  5.7784852525934711e+07  5.1748320529358935e+08  4.9405600436550170e+08  6.2689084470119283e+07  6.2589656138720679e+08  1.9148343475565645e+08  4.6553042898374987e+08  3.9693335987383026e+08  5.2613161038558817e+08  1.6198249522866955e+09  6.6038045755868711e+07  6.3226394231824294e+07  6.7686855488861144e+07  6.3515284327659994e+07  6.6814353051737592e+07  5.9344257736057572e+07  6.0123735449917980e+07  8.5264113741376317e+08  6.8246682085047364e+08  7.3263809701541269e+08  1.0751571247284920e+09  4.6418031419565248e+08  5.9878363471894175e+07  7.4640265509182703e+08  2.4797717897207040e+08  1.5033229554891987e+09  1.6294242282602956e+09  5.6304089460685678e+07  7.7997472158657813e+08  7.3425989186083660e+07  8.1910139953136131e+07  1.1342759877463380e+08  1.0622836418999771e+09  3.4740981564297897e+08  7.2332780928670049e+07  1.6332186655680611e+09  6.6735848963432185e+07  6.8420610873243719e+07  5.4808646825876141e+08  4.5945187179373664e+08  7.3398063170323849e+08  6.8140201716478360e+08  8.0099512621576273e+08  2.4255887719997552e+08  5.3730991909745765e+08  5.9201265305532023e+07  1.0127886906276681e+09  1.0326109185823482e+08  4.7913827357965535e+08  5.9758691977824770e+07  1.2510024741724551e+09  4.3110519616376942e+08  4.0820768604309136e+08  9.4511514319522068e+07  7.0013456771229908e+07  1.1566293232647157e+08  5.5403225905551769e+07  1.5745209290596726e+09  3.8421960227039528e+08  1.4701223145805991e+09  6.7731539878805146e+07  8.4955028330630079e+07  8.4568377027568176e+07  9.9856391236016428e+08  1.4466777095817891e+08  5.7835632319317013e+07  7.0019894170084089e+07  2.8351039249664044e+08  7.0564034122602031e+07  5.9598538509776123e+07  5.9054507221763164e+07  9.2025552155015588e+08  6.3688194345370412e+07  7.5607319852642268e+07  7.7127109017367408e+07  8.8006569906010187e+08  6.9804785871880934e+07  5.6506792910725184e+07  9.4015353831076786e+07  1.0018535634598410e+09  9.1625515683068669e+08  5.4861578341712928e+08  5.0707317212254262e+08  1.7300988760841364e+08  1.6337814431822636e+09  6.1229467477892697e+07  1.0103591884276666e+08  9.1173319862064227e+07  8.8574216649044216e+07  1.2957781123492020e+08  2.2993774344596311e+08  2.0253360852792916e+08  1.1365182206531353e+08  1.0670431955638359e+09  6.3143631058698021e+07  3.0321627216614783e+08  5.8000260980712213e+07  9.5143093664932418e+08  5.8377751166592348e+08  6.1093764395247364e+08  5.4962462879764545e+08  2.3959602824651632e+08  2.1537480804942796e+08  1.1831398794279745e+09  5.9025741942599811e+07  6.4350534548461422e+07  1.3352361573307581e+09  6.7015347953180298e+07  6.9160664899068072e+07  7.1626178884995088e+07  1.0055797276066970e+09  6.0616709841457061e+07  5.9280340956920579e+07  6.3878138362104309e+08  9.7865309176514053e+08  1.5646456678028829e+09  1.0207755150945958e+09  6.1968851146472551e+07  5.9932882863040276e+07  5.9164890049122140e+07  2.5333804869149360e+08  7.1188585442308807e+08  9.2741761881181851e+07  2.4617161800355598e+08  6.5624565335292265e+07  6.4491236759398095e+07  7.6010197673271254e+07  6.7696472609047711e+07  1.6386926919353473e+09  1.5355476977163386e+09  6.6794620780136079e+07  6.3678299085513003e+07  1.3299858098912320e+09  2.0931271005204904e+08  5.8089805987139992e+07  5.7833780893083051e+07  5.7781174908873126e+07  8.4573176385276437e+07  4.3731034508021578e+07  4.1411191659192753e+08  3.0261782118912250e+08  7.5408892652843738e+08  5.8032158508786947e+07  1.2173423699111116e+09  1.1363406499159942e+09  7.2201852091985095e+08  8.5840275444878852e+08  2.4733549397035211e+08  2.9042558574884152e+08  4.2314999063814342e+08  6.1164132858613074e+07  5.4286208763867211e+08  1.0536271312144564e+09  1.0058986497259126e+09  6.2354598387931116e+07  9.8475075384367079e+07  5.8807667041464105e+07  6.2656711292891420e+07  6.1579465977655545e+07  6.2825948909713969e+07  9.4525775697266710e+08  6.9110011978863657e+07  5.7992325725351050e+07  6.6259925202026099e+07  1.3162764198218451e+08  5.6386216685547799e+07  5.7774986911996149e+07  1.2656379662464309e+09  9.3764116441845965e+08  8.2913003148916149e+08  6.6445199772171773e+07  5.7773753687748358e+07  1.6299910605019083e+09  6.8112050539707348e+07  1.0146684049421878e+08  1.1865976131776899e+08  1.0435197299450396e+08  5.4080311584622994e+07  5.8036117099118300e+07  7.4488875446871743e+07  7.8442765395731121e+07  2.0825679022826201e+08  1.8061647630860129e+08  1.4039039186808798e+08  1.5113406774594092e+08  1.3913107002331755e+08  1.6134489883131683e+08  6.1555423302818120e+07  7.2071794058807224e+07  6.8743319143111348e+07  2.8328630410425198e+08  2.6534905563626230e+08  2.5901615318033734e+08  7.5844259777025163e+08  7.8045591828519750e+08  2.2702087559458309e+08  1.4654341689069445e+09  8.7110095693238974e+07  1.0442522905037290e+09  1.0043824032993611e+09  6.8920697910134763e+07  5.7892676702951305e+07  3.4093894090052348e+08  9.1919377454884207e+08  8.2182383376776740e+07  9.3170435160458073e+07  7.9885884026720151e+07  8.3894230262849450e+07  3.2443777598713714e+08  6.3985832682713792e+07  1.0139798555787167e+08  1.5251680516910279e+08  1.6630510195585871e+08  1.6534813259050956e+08  1.5341735681215000e+08  6.8013101992102176e+07  6.3846770618434176e+07  1.1160127966275166e+08  7.3310066670409948e+07  5.3290363080769503e+08  6.6623558776663995e+08  5.8451586606607628e+08  5.9449096787723534e+07  5.9616354762626745e+07  6.0441750596966051e+07  3.1972475032754171e+08  3.5122694878248787e+08  3.7121363060122150e+08  3.9008801056626093e+08  5.4786079308807969e+07  1.1154793607950670e+08  1.0375066823937373e+08  1.4561788594496968e+09  1.2519883918003125e+09  8.8149183675402254e+07  7.1405383816332385e+07  1.4668864648253961e+09  2.0634237947695228e+08  1.2805281602604063e+09  5.7163066073499992e+07  5.8959698549144462e+07  4.9378125810644215e+08  7.0355580105628705e+08  1.3724273904492888e+08  6.8071718144716516e+07  1.2929524978900865e+08  3.2379344356983417e+08  6.5363485401598239e+08  5.8198761017940678e+07  1.0986896049394517e+08  1.0183944240558660e+08  1.0319623283793201e+08  9.1556483588801622e+07  7.2161365483685553e+07  1.7940426749410701e+08  1.1029248567256651e+09  1.0380347047511625e+09  2.8515207613760173e+08  6.3989297264953814e+07  6.8599701201896176e+07  6.1808238383809410e+07  6.2480331709397234e+07  1.6649020102755526e+08  1.3675671484932754e+09  1.2983553193109677e+09  5.7838423353331637e+08  5.0955600809125543e+08  1.6538272877237055e+09  8.9578943684751078e+07  4.8320249713842314e+08  1.6291758722337244e+09  6.3062611085695535e+07  6.0649470008782424e+07  5.9096165815606631e+07  5.7122527488637090e+07  5.5491202900085606e+07  3.6418634347399014e+08  9.2219880096354997e+08  1.0106199566974314e+09  3.1179870275936663e+08  3.3240235671862209e+08  1.0088543189540288e+08  6.7525369107459021e+08  4.4257818382020199e+08  3.5943087321536201e+08  1.2766391631196640e+09  1.2079139837226264e+09  6.1490661717189401e+07  8.3493714422240183e+07  1.2524552434330896e+08  1.1365846127456363e+08  8.6640730817476583e+08  6.2295357624714814e+07  5.7872871490451358e+07  1.6453299044793409e+08  6.6492468157423306e+08  1.4692898387904978e+09  6.7428776476647109e+07  7.5203047806532550e+08  5.7618168172292732e+07  5.7590599080870956e+07  8.4723730293091273e+08  4.4602644116335802e+07  3.6935760742076740e+07  4.7859731038028544e+08  4.0529381543402469e+08  1.4083781546256058e+09  1.2818450481680624e+09  1.4079223047182041e+08  7.8514893693917707e+07  6.0968289328467779e+07  6.1396804219055511e+07  1.5017176956778667e+09  1.3962299215433666e+08  1.0741137406171691e+08  9.4124754746268594e+08  9.8081957231504381e+08  6.2507597431710206e+07  1.9406342087199509e+08  6.6335956198099680e+07  5.5993800384036052e+08  6.0170854678890482e+07  5.9431190996808782e+07  3.5970262268344641e+08  6.6237866358470552e+07  5.1258453309483267e+07  8.9417087645876452e+07  5.2627328085363013e+08  5.8797620133800127e+07  1.4380049847329299e+09  1.4199419225237095e+09  6.5343540517786346e+07  6.5903636198973179e+07  6.8097804832123160e+08  8.5328597718978375e+07  1.8355550395051086e+08  1.6154612769010922e+08  2.0526300819747782e+08  6.5909636055158943e+07  1.5674995709725192e+09  1.0853492541847999e+08  5.2304274529248476e+08  1.2140108176184103e+09  1.0942244182816348e+09  1.2361657047176538e+09  6.6598866165140033e+07  6.5213341299919687e+07  6.7532707718372449e+07  6.5859076400134616e+07  1.5847763184592825e+08  1.0133864858473531e+09  5.9137345215718940e+07  3.2397344457330537e+08  4.2114030693391556e+08  3.8916551691882992e+08  1.0326079858173138e+08  1.1552733182131158e+08  1.4132555878302392e+08  1.0370791330109365e+08  1.5869170964295912e+09  1.6338433702102952e+09  1.2870872665452149e+09  1.3331092608606505e+09  1.1903857702078016e+09  3.7358653678175426e+08  9.7972161963199925e+08  5.5402582152084780e+08  1.5762477071481311e+09  1.5886422927136481e+09  5.8312510260508813e+07  5.7216107398137860e+07  6.8765054047292626e+08  1.4180032767595816e+09  1.2362256003401890e+09  1.5954672547225770e+08  1.7213945555469337e+08  1.4699848334146490e+09  2.8331912825205368e+08  1.3394893251816504e+09  8.1594379359142756e+08  7.9560937015705764e+08  8.0533633721975446e+08  1.4088159153184483e+09  5.7263404889817633e+07  7.3645951555892730e+08  6.8391995735558009e+08  1.2927767977178508e+08  1.3028786295252013e+08  6.5233782337308921e+07  6.6296753388606705e+07  8.4200284033394694e+07  6.6484774569885038e+07  1.0690613913424762e+08  6.2257714804472730e+07  6.3404562693460733e+07  7.5526784676208600e+07  7.4654116610071391e+07  7.1040908645541549e+07  1.2140966498443811e+09  7.0240588485549822e+07  7.1785222519237638e+07  6.8653758222222805e+07  9.2844230002985048e+08  8.8496468661759686e+08  5.2301135327218264e+08  6.0496988145322397e+07  9.4910918444063261e+07  1.1768119180043621e+08  5.3177164802449334e+08  5.7678390561488837e+07  1.3548275653427684e+09  1.2607956767758420e+09  1.4784250624299030e+09  5.9738067964846514e+07  6.0339910920754097e+07  6.4046525523291245e+07  9.5334944438589916e+07  1.3321104820421250e+09  5.9612723388066784e+07  9.1933580736651778e+08  8.4179800022402301e+07  1.1844107402451955e+08  6.5798519086101547e+07  6.4391499046049528e+07  6.4150856716300949e+07  5.7598050176046066e+07  9.0794737397368610e+08  1.1979990694340734e+08  9.0158310948266998e+07  5.5826059110816881e+07  1.0850364709922998e+09  5.9346850304969776e+08  6.3665471831097531e+08  5.5503576213543482e+07  6.2294675224954315e+07  8.4046880246980989e+08  1.0630453894728496e+09  6.7920660961365342e+07  7.0429024859862602e+08  7.1671982057449830e+08  4.3904557542834324e+08  1.0386125589861974e+09  1.4796924516870007e+08  1.8519299701996705e+08  6.0667456016796350e+07  2.4688783016138372e+09  6.8646692647456443e+08  8.9911219559205562e+07  9.3967851662114114e+07  8.7269077326449111e+07  3.2540943701317936e+08  1.7605521937561044e+08  5.8184194951644607e+07  5.8239331144162267e+07  1.2473627287127013e+09  9.6933929644520715e+07  1.0687535967579092e+08  1.0197815457446176e+08  4.3709471497646040e+08  1.1518122660548134e+08  1.4053096637870806e+08  1.6424282899903527e+08  6.2203983739543907e+07  1.1805080047546723e+09  8.5290122940773034e+08  1.3844215075431108e+09  5.7461336254309043e+07  1.1359231759647056e+08  1.9781870493228495e+08  6.2438808490356840e+07  6.2641183785072827e+08  2.2883943558415523e+08  5.9006294493086465e+07  1.4684831993564403e+09  3.7651240137347335e+08  6.2548795683444500e+07  6.1629805448435009e+07  1.4565597918390200e+08  6.7244574748881012e+07  1.5952478492519507e+09  7.5803539335037142e+07  7.9259500077303275e+07  1.5770780637566733e+09  6.5198996632179372e+07  5.7539734087874264e+07  1.5732845080115740e+09  8.0524564286659765e+08  1.1387805603765501e+07  5.7903614064949684e+07  5.7828195293711729e+07  8.4568519667691916e+07  9.1329095100269198e+07  1.0404768034517965e+08  1.5643986157727224e+08  6.6539234260714948e+08  5.2619199620654121e+07  1.1832167952712573e+08  5.8420894661927164e+07  5.8576034712883629e+07  5.8954581890892521e+07  5.8420171042754658e+07  9.1794259538587153e+07  1.0296507786064331e+08  6.6536940625163548e+07  2.2648377309977388e+08  1.6280724648754208e+09  2.4382420620219982e+08  6.4744109186648476e+08  6.9418493451296580e+08  8.2331555773258477e+07  6.2240165918392742e+08  6.2024976642326862e+07  6.0450973906787515e+07  5.9987054120179661e+07  8.9785913813393474e+08  1.8399041895727712e+08  1.6381392250194737e+08  2.3967035628102311e+08  1.0416248521104416e+08  1.2005652706574166e+08  1.3206378755157988e+08  6.3183476984820433e+07  5.7780329744418487e+07  5.7764755834223285e+07  4.9170257662575507e+08  4.3960071695365971e+08  2.4175712853723216e+08  6.3748830134028442e+07  1.3259344980741255e+09  6.9559074250278190e+07  7.5047106018962562e+07  9.4382516766908169e+07  9.8823367597218645e+08  5.8855628275344312e+07  1.2322880898826880e+09  6.2319100392102651e+07  3.0062409277080780e+08  8.5537753745471895e+08  7.7301014425430334e+08  7.8303362795798230e+08  4.4292066990534955e+08  6.4597566705566756e+07  1.2144937395735748e+08  1.9163894739233813e+08  1.4778796254367840e+08  1.5744781634623104e+08  1.7208685104652223e+08  6.7525763764451599e+08  4.7325780003794205e+08  5.9458817177063003e+07  2.5303554407258692e+08  7.9152219027456808e+08  2.4799717137775186e+08  2.3846679790643790e+08  8.4506751708920491e+08  1.3155068238971461e+08  1.0381994762290186e+09  5.8751896411403447e+07  4.6716989276906556e+08  5.9091340370860517e+07  6.5566716804682791e+07  6.5129132380439222e+07  6.3610714011999473e+07  6.0634236574365042e+07  5.8903176587544471e+07  1.3239714246142685e+09  1.3195188081753929e+09  5.9612819074333243e+07  6.0211345091429733e+07  1.5325598938798289e+09  1.1784773214694712e+09  6.1203360948393360e+07  1.5282450503787999e+09  1.6318614228285582e+09  8.0382380362356079e+08  3.6202292225572371e+08  5.1142767566528493e+08  4.7051359311996871e+08  2.6631843413258728e+08  2.0095385077927703e+08  4.8679727770912427e+08  4.3583827027491885e+08  4.1841321592389834e+08  4.3580955851242042e+08  5.6775171444955170e+07  7.7450055347690749e+08  3.2999519196080041e+08  3.1573053599426407e+08  7.9313752808146134e+07  5.8948192378967337e+07  5.7597279212873720e+07  5.6188683337257423e+07  5.5413524517205060e+07  4.7881808626761335e+08  1.0657115399986674e+09  1.1216616345139973e+09  1.2608892279558276e+08  1.1145758437033626e+08  6.7062348048257105e+07  1.5336160085167542e+09  6.0378249597816840e+07  5.9875794871811152e+07  5.9045416395641200e+07  1.2872684768121549e+08  5.8850197255306907e+07  5.9643052322024055e+07  5.9833196463855483e+07  5.9613336085471772e+07  5.9330187877817847e+07  5.9336241219869167e+07  1.5740487867060022e+09  9.8401325654980794e+07  2.4682408579654059e+08  5.9637642661912642e+07  5.7753565243286587e+07  5.3592136962252825e+08  5.0030935306022543e+08  6.1971004036522794e+08  2.1485180069693461e+08  3.0213956522698021e+08  3.2171980004019421e+08  1.3310319886115204e+08  5.4120791396248154e+07  1.5209137913244638e+09  1.6305538300240524e+09  1.5761349128092437e+09  3.8708375854711622e+08  7.5358595037869263e+08  6.0715004041236423e+07  6.5107697625805020e+07  1.6272276392983062e+09  8.5953760940951128e+06  6.6042049249049699e+08  5.8308123077920072e+07  5.8286983945259348e+07  1.4497795359009641e+08  2.9647410815278554e+08  3.5610343055634522e+08  5.4995604734509595e+07  5.7508079934911497e+07  1.6200352053269124e+09  5.3102345575521879e+07  5.4919356654532775e+07  5.3081928920212425e+07  5.8039086382979847e+07  1.6348831594589133e+09  5.8335398160760596e+07  1.6311141113612401e+09  1.6258577490708561e+09  4.9191934097561441e+07  1.2180315403692286e+08  4.5785546890952595e+07  1.4489066825439438e+08  1.1124980371654701e+08  2.7026520193394299e+09  3.5518958257766235e+08  5.7803951451297015e+07  5.7398284275875814e+07  1.6342379501638410e+09  1.6360155364813950e+09  9.8063351424612963e+08  5.8707860671646148e+07  9.5622213706359756e+08  5.8742631638142943e+07  1.6322345839068203e+09  1.6238246679165318e+09  5.8692879887574993e+07  7.1249217954274440e+08  8.4387071524596536e+08  1.6294658566016381e+09  5.7919629265651040e+07  6.6367794351416588e+08  5.8414191674813874e+07  5.8552003529673293e+07  5.8612641703775220e+07  5.8200623126627006e+07  5.7819506089106217e+07  4.1965132148947465e+08  1.6336526426920033e+09  5.8484361116889931e+07  5.7788572167227089e+07  1.6336667439494488e+09  5.7396135258982742e+08  6.5935136922893369e+08  4.1905907076282924e+08  4.9629199424453962e+08  5.7396767873338377e+08  1.6286542872367923e+09  9.2917298406515813e+08  5.8045038405773766e+07  8.4571860455981004e+08  5.7906310131123662e+07  5.9830973125537612e+07  6.5246578998243541e+07  1.6566612761268864e+09  1.5833861995611733e+08  1.7280952377941057e+08  1.6863292198965662e+09  5.9762259501879983e+07  2.0713658875619572e+08  1.6331290954619372e+08  1.0481806154099137e+08  9.8024863275491491e+07  1.2272955344410784e+09  6.6435494399335913e+07  6.9020457931561470e+07  1.7563612417275295e+08  7.6004370110768735e+07  7.2856382179845765e+07  1.6408580969483423e+08  6.0040336818563335e+07  5.8316298095563686e+08  6.4037244694684841e+07  3.9555832704197401e+08  4.4192801464524508e+08  7.2082458160911411e+07  1.2359936545261333e+09  6.7315699590520471e+07  8.5096851727387607e+08  9.5605363381316945e+07  9.4303977339479864e+07  5.1564105495049722e+07  6.4445845569477163e+07  1.1425363963171666e+09  6.2818699690877759e+08  7.0973768932091486e+08  5.0710446466386259e+08  5.8261709410937726e+08  9.9346102485056961e+08  1.1851152552147733e+08  1.6166107671266955e+08  1.4877788147584447e+08  5.7716667945112921e+07  6.4666013039562583e+07  1.5612202879230697e+09  7.6548314533560678e+07  5.0520502552918577e+08  6.0234329713672332e+07  2.3263417738557538e+08  4.1576827696022564e+08  9.0028619635861948e+07  1.0724343196429799e+09  2.7854684783983809e+08  5.9640648473131515e+07  8.6871894157041892e+07  9.4668073692823088e+08  1.0513359596630937e+09  1.0024862504889339e+09  1.4866801068964574e+09  3.6283279471043652e+08  2.2292489575216237e+08  7.4896855932681024e+08  4.9739804057456481e+08  1.0531013474739836e+09  9.9557468994059503e+08  1.0642458681918848e+09  9.7683910893848526e+08  5.4213240064686261e+07  5.3411605525516041e+07  1.3582410946826625e+08  2.6054206591806677e+08  7.1082310494117767e+07  4.0549757485669184e+08  4.1716918967659980e+08  4.6539370995337743e+08  6.2515072810796618e+07  1.2641767064416020e+08  1.1818563723624575e+08  5.8408586432857953e+07  5.8001448895355910e+07  5.7885347925795808e+07  5.7988471580825336e+07  1.9967787692129496e+08  6.9796176964944148e+08  6.3293962614120197e+08  6.5264285582382619e+08  1.0044826813247979e+09  6.9412541126956522e+07  1.6386050989196414e+08  1.3240513667677155e+08  5.9882672679285377e+07  8.4198362132505178e+07  5.9038778574852638e+07  5.8888098475491360e+07  5.8314544190156206e+07  5.8599882589551479e+07  5.0182094857041365e+08  5.4624231767220724e+08  1.0483481081862091e+09  7.0972136264709935e+07  5.7800252016069978e+07  5.7803742672006696e+07  6.4966512958551295e+07  6.0323727279755026e+07  1.1949415873194895e+09  8.3579664194610819e+07  5.9931653620315820e+07  7.1347351589532065e+08  5.1389762598452801e+08  6.7373170671264732e+08  1.3181891905596223e+08  8.5693564923528719e+08  4.2305208958477229e+08  2.0596198237117806e+08  6.1777112358646490e+07  2.7293545555363470e+08  7.4670713684147567e+07  1.1037480443330579e+09  2.9530064758570671e+08  1.1365957861908786e+09  7.9888562066231579e+07  7.7516575165736720e+07  8.8059268809161258e+08  1.0274428245942529e+09  1.6586767357466802e+08  9.6762969829340592e+07  9.0699978465143397e+07  1.3943972650160782e+09  1.1139890666999607e+09  1.0338028069686830e+09  1.1183426528775184e+09  4.8353772540126759e+08  4.6774856182811487e+08  2.3604462174013516e+08  5.7891604196521807e+08  4.8439629891645586e+08  1.2077541171394818e+09  7.9791224114905250e+08  9.5979065721364290e+07  6.3425534231392428e+07  5.9267928017902270e+07  6.0347155265171014e+07  1.3632821636714670e+08  1.6843605148478124e+08  1.8419577066835180e+08  6.3461050785737288e+08  7.3565058271244824e+08  9.4776865499884892e+08  3.5766378238520175e+08  3.5629302433247167e+08  5.4687706391856575e+08  7.2941800264031500e+07  7.5135600314322799e+07  8.0084946727818146e+07  7.0920791127801681e+08  6.1199415108267933e+07  6.0763371029653333e+07  8.0944932862082332e+07  7.1457878875666186e+07  7.3282066740468219e+07  1.0852758305898327e+08  6.1565873973144865e+08  7.3542964680676594e+07  1.3024740291941769e+08  1.8970277541552514e+08  1.1230365115422618e+09  1.1653254851201172e+09  5.6643610017777935e+07  1.3248803387442801e+09  3.7261609157912779e+08  8.2582301486228988e+07  6.9239996213691235e+08  6.8789270056836474e+08  3.0829914902047861e+08  7.4139751342961133e+07  7.0008306050162539e+07  1.0846879529605985e+09  5.4223536609406255e+07  7.2351460862738535e+07  1.4929339857508857e+09  5.4485397494746590e+08  2.2903043007280850e+08  6.0808126158579223e+07  1.1497285336696763e+09  6.1200213472068541e+07  2.3717755381481349e+08  1.5115263359592214e+09  8.8929255790786922e+08  1.3283874811382067e+09  1.3103431635862029e+08  1.2682454613784508e+08  2.7347526274552679e+08  6.5549965883684248e+07  8.8822628795018280e+08  1.0333894660491017e+08  4.5203358464748728e+08  5.7777621423486650e+07  2.6027256968101513e+08  4.0932778449406010e+08  5.4814622710569903e+07  4.7021577250260192e+08  3.2295161584723204e+08  6.1050566095579192e+07  6.0533513540245026e+07  1.0656366148837410e+08  5.7785922750768170e+07  5.7748310256347694e+07  5.8020806738512434e+07  7.3076807866689280e+07  8.2519297536830258e+08  9.7186642170644724e+08  8.1667539744631314e+08  5.9322978432361685e+07  1.1471750343861578e+08  1.0411243224338616e+08  6.1544743171510898e+07  1.2946085990184405e+08  5.6554831935522422e+07  5.7610482878142416e+07  2.7922203728045845e+08  1.5688343597742705e+09  1.4595546500448635e+09  3.2442739270932788e+08  5.8588653378365970e+08  5.4820296362665184e+07  8.1336135054659277e+07  6.0883243380917817e+07  5.4335898810540959e+07  4.5760038606211764e+08  6.4340271097158775e+07  6.1036953698015116e+07  7.8543106028046742e+07  8.3120486524288297e+07  8.0041705427195892e+07  6.1468378106962299e+08  1.4687149942202516e+09  7.6546517385632455e+07  9.5638142603942171e+07  5.4790673237571158e+07  1.3253190043974541e+08  6.1518690923669167e+07  5.8810128074958712e+07  1.3918768552286844e+09  7.1317414824117437e+07  2.7347587147657567e+08  1.0076617957670165e+09  5.6924061213650629e+07  5.7642077272187307e+07  5.2881501976838902e+07  1.2871570902135863e+09  1.3998641642920310e+09  5.6652261992626584e+08  2.4545511755864626e+08  6.2470024576330535e+07  1.1953490425065331e+09  1.7164217550597150e+09  5.9759486504573233e+07  6.0086137772722609e+07  5.9278629724181369e+07  1.0071605241447213e+08  1.0771221983660255e+08  1.7288330204715347e+08  8.2208168459253645e+08  7.2619897632849956e+08  7.2869640168850392e+07  4.8652272078384444e+07  8.8751413883334011e+07  5.8296059042927109e+07  9.6450757564861655e+08  1.0353877178617736e+09  1.5527186808146629e+09  1.9987057375068417e+08  7.8930308287610602e+08  6.7065827891693151e+08  1.5185354203338495e+08  1.1292472367743626e+09  4.1053482584420748e+07  1.0029384205746880e+08  1.2842205617436771e+08  1.1883826747420730e+08  8.1878982843339711e+07  8.5071348126340345e+07  5.9921366817994073e+07  6.4024188726916432e+07  4.0196086679389274e+08  4.0970347854900229e+08  5.8925075357803009e+07  1.0327659185254194e+08  6.1246199137531556e+07  1.3327245750086270e+08  1.5926465159391946e+08  6.6263151733329594e+07  1.4182370231268156e+08  6.7067186718222082e+07  6.0653176483633824e+07  6.8386191935465083e+07  6.1897325809711587e+08  6.7511532266319871e+07  6.3224333526022509e+07  5.6670502164755180e+07  6.0939500658215106e+08  6.1711059050346918e+07  2.8067719764371115e+08  1.8484778885172057e+08  6.2890043758065850e+07  2.4533404639816317e+08  2.6849659050961667e+08  2.9006425495088506e+08  6.3031185980525784e+07  1.5583659290666562e+08  1.5494154715191352e+08  8.7701972059300691e+07  5.1928852576891130e+08  1.2856392580768387e+09  5.0109330131690904e+07  3.7455510796610439e+08  9.8079908466962886e+08  6.2881622471824639e+07  1.1776699579449048e+09  7.8882861654519725e+08  7.7832585660728589e+07  5.1477070574873179e+07  4.8764840181084111e+07  7.3574675293759808e+07  6.9378144156714097e+07  1.6932306291416207e+08  3.3830811375600910e+08  5.6821223222015202e+07  5.8030929761043295e+07  1.0808497004469399e+09  7.1736821089436221e+08  8.0991339529259592e+07  5.8552920410695165e+07  5.8461639187777035e+07  5.9685247054211982e+07  3.2012840640275109e+08  3.3642438960053283e+08  3.7603506525924754e+08  1.1383557110801837e+09  2.9667508851080900e+08  7.4497459712543383e+07  6.9869444311356530e+07  5.3535094647903338e+07  4.5563951411824338e+07  5.4012505215128869e+07  6.3431179338960491e+07  7.7931164668054938e+07  9.2294052942977142e+08  6.5117723928073280e+07  1.4754245508529961e+09  5.6003600967921942e+07  6.2274737651620135e+07  6.2139943409778424e+07  1.3523191040593794e+08  5.8608004332218461e+07  6.9975236548284411e+07  5.9119088205064557e+07  8.9292874917984813e+07  6.0967247598119617e+07  4.1716769350487942e+08  7.5662090106469646e+07  7.7891084986051932e+07  2.4652804601055720e+08  1.6087716595237714e+08  5.3143398397883898e+08  5.5573508200863111e+08  2.7522975068271571e+08  2.0457439517173275e+08  2.2532084290119410e+08  7.2042529114557594e+07  1.1348324776536667e+09  5.8671805881796002e+07  5.7279070443063557e+07  5.8132858909052022e+07  5.8639926851834379e+07  5.8828992394207522e+07  4.3691811380632591e+08  5.8549515771682896e+07  5.8650971699400403e+07  4.9812618311314017e+08  4.3085945880711484e+08  7.4621909169021368e+07  6.3691367951518513e+07  6.3968890876773775e+07  6.4560977163137324e+07  1.3563838933208531e+08  1.1930333219133075e+08  6.3135177973980725e+08  6.1457534152548172e+07  9.7040069861346209e+08  1.5110283119551425e+09  5.9777551513694391e+07  5.7943466921879463e+07  9.0670506220284593e+08  5.4999855738849156e+07  5.6119655596899785e+07  8.5520140401977137e+07  2.5001457589325437e+08  1.2768282310219021e+08  5.6404060784477793e+07  2.0994451621653825e+08  5.6565527968614452e+07  1.3355565248102496e+09  3.6917028652412695e+08  3.2057777479548413e+08  3.3711889887650746e+08  1.6010372017252538e+09  7.0022771541124642e+07  8.8011839237766758e+07  3.4022178625328612e+08  3.6678240438212752e+08  4.2350217147864681e+08  1.0003208273507131e+09  1.3234025454390044e+09  5.8394003651571006e+07  6.0549321592060469e+07  6.0153035487052500e+07  1.3160633472330136e+09  5.8898325342881858e+07  8.3184119302900791e+07  7.7558190128902733e+07  2.1653024108324474e+08  9.9223906669978523e+08  5.9704364574593790e+07  5.8698048377388194e+07  6.1964254023625612e+08  6.7659236655882448e+07  9.8206425721408904e+07  8.1932751171374127e+07  2.7205726762565106e+08  6.9379416369830653e+07  1.5021377600048323e+09  9.6063459506942049e+07  5.8180153206331104e+07  1.8494732215300888e+08  1.1171084070001395e+09  1.2298085188087785e+09  1.2656459996345332e+09  1.9698214510545343e+08  1.5679063353212669e+08  3.9639099981895840e+08  6.8571759967916563e+07  1.9880727737155458e+08  6.1209680612639204e+07  7.8037699522978976e+07  1.4386233580257145e+08  1.0319608323810098e+08  1.1041347777441752e+08  1.1332211146118538e+09  8.7914426072682455e+07  1.5346730664868599e+08  8.9303462399721473e+07  9.1039257531522408e+07  9.4774751481249183e+07  1.4335047390938285e+08  6.0499636974970199e+07  7.3003247486717805e+07  2.4024807927274862e+08  6.1393994596692719e+07  5.9479737210046180e+07  5.9484946162185326e+07  5.7629928306378148e+07  3.0027291656467187e+08  4.0694392745683873e+08  9.2650086355176911e+07  6.3641300885978711e+08  6.5700116079318613e+07  6.3271027615636699e+07  6.3417091044643603e+07  8.5085238264165476e+07  9.6356502122386396e+07  1.0043401717718138e+08  6.2812958405214322e+08  4.5505192126268715e+08  1.9182608703290558e+08  6.3859959302826256e+07  7.6047214571757868e+07  1.3090851373657751e+08  1.3241029107514539e+08  1.3536689042884722e+09  1.4279370946407428e+09  6.8720532165550306e+07  1.7636762792926189e+08  5.2958775525931157e+07  5.9550831253875755e+07  3.9945036255735390e+07  4.9201862344837457e+07  8.1566783023404491e+08  7.2670269823321447e+07  5.7452255618997768e+07  1.3116184740058508e+09  3.3284104946659428e+08  3.4109761734222108e+08  3.7903296679306406e+08  8.3978041005053177e+07  5.4729497130437762e+07  7.3196733449592486e+07  9.2948846677757442e+07  1.5751637168128715e+09  7.1878561078208029e+07  6.1337096731310725e+07  4.3539075134844583e+08  3.7827070199025619e+08  3.9321728993507034e+08  3.6371523120910299e+08  7.4070506126943603e+07  6.1732305634774216e+07  1.4593402744211607e+09  1.0911913228843698e+08  9.6774092073891962e+08  5.8824865505966854e+08  5.3461104199082333e+08  1.8578779736117780e+08  3.7890980036876476e+08  2.8713987216759217e+08  1.4321603071827567e+09  1.3574772888271439e+09  6.0719803476799734e+07  6.2906309444066502e+07  5.7703234666279592e+07  6.4332706937002011e+07  7.2693384684670484e+08  4.7270860254158741e+08  3.7263429323920125e+08  1.3933683191937873e+09  4.2756509605996144e+08  9.4515381999216175e+08  8.5672201975147104e+08  1.1875721241186864e+09  1.1038441472286043e+09  1.5623473378443010e+09  5.5615093920050204e+08  8.0016440119310665e+08  8.9025278275072694e+07  6.5032690190376334e+07  6.7192548046188474e+07  6.9629984808611974e+07  7.4474759196378469e+07  7.1923775272118378e+08  5.9569060057264626e+07  1.1771437402742180e+08  8.1057009026586369e+07  6.5715914500253439e+07  1.2201071218021993e+08  8.5577982502153724e+07  6.5699860226371154e+07  6.1419634534697197e+07  1.2752692936846086e+08  2.0060595519304922e+08  1.7516371557944080e+08  5.8946323051253903e+08  5.9380780746548027e+07  8.5366879258780926e+07  2.1839148040787411e+08  2.0684065508895725e+08  1.9613545672091040e+08  1.9076765508270419e+08  6.5263069946213678e+07  5.8990936887223430e+07  4.3812889188013673e+08  6.4079120284849755e+07  3.6774287675662076e+08  7.3420940917426914e+07  7.4507243036252648e+07  6.4565509404054955e+07  1.8035587568345699e+08  8.5860221862765336e+08  7.6274282170435643e+08  1.2769217445189965e+09  7.6057132436878741e+08  7.8800774817890537e+08  2.4134018823712498e+08  5.8195340962622464e+07  7.8247280401233494e+08  4.8688320920554954e+08  5.9445240034895025e+07  1.3914841553026197e+09  5.8661029903125212e+07  9.5759909468917519e+07  9.1633699256537169e+07  9.1957811000634074e+07  1.2935696269817556e+08  5.4044193973767914e+07  5.2872901439582132e+07  9.6650554812253034e+08  3.5175311156234223e+08  5.5599708895796463e+07  1.4109926351361004e+08  1.5943991733800280e+09  5.9174229716953866e+07  6.1038276106271043e+07  5.1064807035250056e+08  8.0899718224009597e+08  2.6629841431776199e+08  2.2610458108870375e+08  1.7347835256472546e+08  1.4155611206722435e+08  1.5090842491863140e+08  8.2843922182936001e+08  8.9487041216134918e+08  7.8972454706281960e+08  5.8594756089395270e+07  1.3395288447087929e+09  1.4100640968032150e+09  8.1243009107994664e+08  1.4129292158978167e+08  3.1966396214045495e+08  3.2404303045386428e+08  8.0094794272204196e+08  1.1362445922563967e+08  7.0879257908480436e+07  7.1771295757083088e+07  7.3686069366573796e+07  6.7889538036685467e+07  6.6271511135460198e+08  6.0157298452268966e+07  6.1024067122450821e+07  5.8068065468076445e+07  5.7924093239341632e+07  5.0378380644758123e+08  5.8196858403502449e+07  5.9053448600459218e+07  5.8528950229464464e+07  7.2499045650792405e+07  6.8933837902422264e+07  6.9040102412435129e+07  2.1552660566948786e+08  2.0729705878639594e+08  1.9384361308196047e+08  5.6876218118974090e+07  1.0863612839633400e+09  6.0465521920695722e+07  6.7319294621664679e+08  7.7969701266943410e+07  8.1612281635274792e+08  8.0948514273397541e+08  7.1405089064728308e+08  6.2647537242475599e+07  1.7286515866621697e+08  5.5548330426347196e+08  1.0599859375609963e+08  6.4454740672046971e+08  7.3298201574309599e+08  7.0668067216903639e+08  1.1404626738030590e+08  1.2278037873375778e+08  3.0816756069276023e+08  6.0054234742056906e+07  2.2610507369904786e+08  1.9865917413318524e+08  1.7688013187454078e+08  1.8173716788767287e+08  2.0254375305232218e+08  6.8905070541629210e+07  5.3454166061899352e+08  3.6561672416641021e+08  1.5374988521019206e+09  7.6130165665505245e+07  6.1415863927519523e+07  7.1153719465012535e+07  1.2034243706099868e+09  8.0565502610040557e+08  1.1881293674562607e+09  7.9130927354379982e+07  1.5820472254122970e+09  1.6578134043039298e+08  8.0464988249477655e+07  5.7667068578531608e+07  6.1696928246830553e+07  5.6347364138360596e+08  6.3762218408605896e+07  1.5847975230178463e+09  8.8334620122125638e+08  6.7672025798407733e+07  6.9255443469705403e+07  6.7333532262975290e+07  3.2341038337686908e+08  2.4801371826631165e+08  3.8676430737795109e+08  4.1515792171574932e+08  6.0618078503149301e+07  1.3485154819114316e+09  6.5980927402882367e+07  6.6890529234698512e+07  6.5613508560707442e+07  6.0706004019092456e+07  5.9891808652762003e+07  6.0066670267994344e+07  6.3792074242875360e+07  5.1352951052681319e+07  4.3597595017318392e+08  1.2858734096386399e+09  4.1975171072762221e+08  2.3942429069084600e+08  1.6732880580368823e+08  6.4597923376726359e+07  7.4179833359580982e+08  8.7678257198740885e+07  8.5145700929208666e+07  8.4528287459779903e+07  9.6020792800915018e+07  8.0839171291586801e+07  5.8299185916069061e+07  1.3220032523041959e+09  1.3479477087592461e+09  1.4235243488858726e+09  1.1372926370139050e+09  3.3587190975353420e+08  6.3943180911764073e+08  6.8715014974746299e+08  8.1476016725385547e+08  7.3324017318617210e+07  6.8698560001975104e+07  1.4762168378874002e+09  9.4668026652628765e+07  4.6186586683120453e+08  6.1081444087650895e+07  1.2404539485748377e+09  2.8993605705614340e+08  4.5806339301096213e+08  5.7584449171402358e+07  3.1324728972756094e+08  2.1511641227723420e+08  2.4797234044917658e+08  2.3395788424866059e+08  9.8670176096243635e+07  1.0885374859162007e+08  6.3003614144506454e+08  1.5248571527440381e+09  1.0987754190071683e+08  2.0038443279968959e+08  8.8601375624632701e+07  6.6962616686200500e+07  4.9626275627685797e+08  1.1433892951868102e+08  1.2241291759056138e+08  1.0870684795032421e+08  8.3942457694432542e+07  1.5859530739679916e+09  1.0938673645764606e+08  8.9926364009980333e+08  7.2296353538737500e+08  9.3464220480289495e+08  1.1414120480697994e+09  1.4915449556090447e+08  1.2830954514825752e+08  7.9298263445277795e+07  1.6378454004236131e+09  5.7665182602895364e+07  6.9223748086193964e+07  6.2949603395962119e+07  6.1432296481653698e+07  1.1309033759013679e+09  8.0311016208707094e+08  1.0653153026801908e+08  1.0189833400728707e+08  1.6695261828120714e+08  1.4693990801537663e+08  1.9967928455715749e+08  8.6500047872429752e+08  1.1536790204633637e+08  1.1672812009772813e+09  1.1193951603940637e+09  4.9742056511287533e+07  1.5999684898766463e+09  2.7612355627811432e+08  3.2086139233371782e+08  3.0673561479065907e+08  1.5925133768210535e+09  8.7791028409039244e+07  6.3032704827291667e+07  5.8980229957053781e+07  2.8821954575563794e+08  3.2565915666395020e+08  1.1824392797306743e+09  1.2675097314175138e+09  1.0389283582769808e+09  2.5224384045732015e+08  6.4913551615922548e+07  8.7973053233050868e+07  1.0638988845167986e+08  1.3724288532223892e+08  1.4987090150549026e+09  7.4794493000551820e+07  1.3947391764936492e+08  6.0827419394748166e+07  1.0544437168235867e+08  1.0462217606056303e+09  8.7038779990086210e+08  6.0486031689160734e+07  1.2083677265694566e+09  1.5072188746220928e+08  1.0715301733283188e+09  4.8616672981723928e+08  6.6327141620036200e+07  1.0807186413383706e+09  4.9831938584788002e+07  7.9324223899867308e+08  1.2694742240267208e+09  7.3629540215144247e+07  6.6148830002947606e+07  5.7741188877712406e+07  7.8979320962134570e+07  9.5681624424528480e+08  5.8654639262902282e+07  5.7139658406074367e+07  4.0066823377961576e+08  4.1682370195374888e+08  4.5960335010555261e+08  5.9156071230620432e+08  1.4556492691697916e+08  5.7110362752198291e+08  6.4535691849722363e+07  1.0230102246788590e+08  7.4062028061201125e+07  1.4980988148230594e+08  2.8343795760694969e+08  1.9546819642959210e+08  2.5968088166132405e+08  4.2835349029860902e+08  1.1537641998500967e+08  2.0657820444926873e+08  2.7376624433689600e+08  1.1717627086479141e+08  1.8661889255557799e+08  1.8703182743270379e+08  7.0134083209240663e+08  1.1430985365559557e+08  7.6154356653096423e+07  7.6681557218448058e+07  9.9105725810016826e+07  1.4636363414207485e+08  1.3831579411414805e+08  8.4005642205907390e+07  6.4469200282600498e+08  9.0909042137383795e+08  1.3585985442077312e+08  1.4068348639267540e+08  2.2214534737316120e+08  4.6994107486372286e+08  5.9233487653025411e+07  5.6644899543455444e+07  7.8649794531739819e+08  9.0536538119450331e+08  8.4283948309893441e+08  6.2176979949069321e+07  6.3462024151580006e+07  9.9258447638737023e+07  6.8609961348760056e+08  5.8285223365720071e+07  5.8205593130854934e+07  1.4860093790199263e+09  7.6036142231238985e+08  5.8492623813669890e+07  5.8974238269338377e+07  8.4471355948333311e+08  7.7131821372483984e+07  5.5821403573038779e+07  5.4969834283558175e+07  6.2033154197102353e+07  8.7109224398921981e+07  7.3727353861762673e+07  6.1956936002123572e+07  6.0173403933117473e+08  2.8153799909804553e+08  2.7784451530145133e+08  5.8083451776772700e+07  1.2333602938038092e+09  1.2465615177343073e+09  6.2125549834454864e+07  6.5913486118177140e+08  6.4957005637258625e+08  5.7804171828431264e+07  6.2166209388659894e+08  5.7804038146426737e+07  5.7664537898612633e+07  5.7695191426702842e+07  9.4491194141883135e+07  9.6066412282747790e+07  8.6816477589152008e+07  9.9294376517789111e+07  6.0914123873814203e+07  6.6236508174881890e+07  1.1365080502451749e+09  1.0211377231704770e+08  1.0624060194120090e+08  9.5953925823147014e+07  1.4946140458716351e+08  1.2048084451413102e+09  3.5721830682024086e+08  3.9431938308248585e+08  1.3330967709381311e+09  2.0156134435567129e+08  5.8533699220034349e+08  5.4593692541869545e+08  5.1656093511018634e+08  3.5087992174836946e+08  9.0938614335294473e+08  7.1435826607417381e+08  5.4074054758894287e+07  1.2561855708696693e+08  9.0090583422424316e+08  9.5433548364790833e+08  8.1241518294902667e+07  6.0520333483136937e+07  6.2078623454008065e+07  5.8517837870311223e+07  1.2442730918195031e+09  4.1738577300718158e+08  3.9036764807398748e+08  9.0615855048396325e+08  6.6524409035804309e+07  6.3716530502554871e+07  6.6067970541997507e+07  8.6922149607782617e+07  9.0403048894961298e+07  3.3752857163907123e+08  8.8881265673568118e+08  2.1090465881675652e+08  4.9218021573696744e+08  4.0592971366805172e+08  1.8369327975713548e+08  7.7374553892972946e+08  1.2271581960227506e+08  1.0533315073462224e+08  5.7392076495554060e+07  9.3921562251105502e+07  5.8753773506182551e+07  1.6332057355106962e+08  1.6521696312798423e+08  1.8086411599742189e+08  7.0801526480476773e+08  1.4776235967995110e+08  5.8712518211422332e+07  9.8203066831597292e+08  1.7533634580367631e+08  1.8580112897545251e+08  9.2256522967307746e+08  6.1606929013757110e+07  1.3338967356150405e+09  5.3424677828487337e+07  2.8499548534975380e+08  6.0460110540312730e+07  1.0552800103624558e+08  9.5986051956431255e+07  9.5278091252470970e+07  7.1832001769537970e+07  1.0354917890755237e+09  1.1627558053891887e+08  6.3191833689022705e+07  7.7672632252978712e+07  5.7454261433043890e+07  6.6115515190351558e+08  9.3705225616288662e+07  6.8906908102623165e+07  3.5369555982250381e+08  8.9827958415420920e+07  5.4131197148417667e+07  1.0501658492193409e+09  1.1897624343202397e+08  4.0710439298441477e+07  7.4048491330395854e+08  5.9615899561266042e+07  5.8143090291028902e+07  5.8052940008068301e+07  1.4629045331025207e+09  1.5800270782394550e+09  1.2883201636603364e+08  9.6244961033676350e+08  6.5690598697501831e+07  7.1411722137016699e+07  7.4368086114626110e+07  3.4005467127255058e+08  1.4949184140921528e+09  9.1745912577402815e+07  5.7780827874764286e+07  2.8997940908284962e+08  5.9784567436732069e+07  6.5273446062087083e+08  1.2651092575100353e+09  1.4523040669373612e+09  6.4391286908219308e+07  1.4307795505770195e+09  5.2870290903100237e+07  5.3918237528843231e+07  5.3769702462848410e+07  7.0377030481132358e+07  5.7774490608176403e+07  9.8912625415042269e+08  5.8351160491368622e+07  1.8789115949624243e+08  3.7577270552127987e+08  1.8656314756763119e+08  1.7390512447711322e+08  1.3933599298118405e+09  1.3044526404044056e+09  1.3001070183895144e+09  1.2513331152174141e+09  1.4306366078253124e+09  1.4177776929610393e+09  6.1025152774769224e+07  7.9799595279723310e+08  8.8296306569804871e+08  1.0034253612423043e+09  9.7507374894927812e+08  1.0645332258084627e+09  2.4421793808743224e+08  4.3878289504126889e+08  1.4503530441581735e+08  1.3105008244594547e+08  1.3819586179889733e+08  5.5022810054824889e+08  1.1314293067101991e+09  5.0135042031383878e+08  6.2706293474707082e+07  9.6913484622497693e+07  5.4520505509894967e+07  2.8204676630098987e+08  9.0209577627007231e+07  5.8098113631525762e+07  1.3028449150432524e+08  8.8595389133121336e+08  7.8042116184477970e+07  2.5156040364804938e+08  6.9284648726362541e+07  6.0208606439142361e+07  5.9615841472211443e+07  5.7875902850995094e+07  4.9753648713322955e+08  7.7353041520728439e+07  5.1577933382380337e+08  6.4121816866039746e+07  6.4321353043482423e+07  8.7998159086316967e+08  7.6855123878760323e+07  8.1900220237821087e+07  8.0065680531547159e+07  1.8035592606526572e+08  1.1802909371640927e+08  1.0473535252021034e+09  5.1617416190944701e+07  5.7491846020819150e+07  8.1558467400481868e+08  5.7753612940132551e+07  3.4334466000448710e+08  1.4023796240941718e+08  1.4814464672519502e+08  8.6026931496619940e+07  9.8313352444867969e+08  5.8019009741696082e+07  1.2134100520266329e+08  6.4577372688738358e+08  3.5716145707891136e+08  1.5259832598951256e+08  1.2911173204166429e+08  1.2965927218012062e+08  1.2040354848480788e+08  1.1539313559784704e+08  1.3614615892148747e+09  4.8759721087223250e+08  1.0737036268578082e+09  3.0809350367446965e+08  9.8309867022411084e+08  8.7703535041734084e+07  5.9519303670092478e+07  4.7699683000298405e+08  5.9559021636989929e+07  1.5879392364781556e+09  2.4532460669690323e+08  2.7579399816374135e+08  5.5152720845272577e+08  1.3618523240268424e+08  3.9892508057269412e+08  1.4436033933561507e+08  2.8126997063666111e+08  2.6061939736252758e+08  2.8008794078858429e+08  2.9294758583069050e+08  3.1955476030509472e+08  3.1599905008215833e+08  3.4081913748294204e+08  2.3725106244936594e+08  2.2338614737246183e+08  1.4317504606178313e+08  1.6149703844657046e+08  2.2616423586468521e+08  1.5196605696159256e+08  1.6289190747389224e+08  1.7144567956081355e+08  1.8464557557697585e+08  1.5981496049137342e+08  1.5035824769243437e+08  1.9449515424127948e+08  2.4214419794220936e+08  2.5875399504338121e+08  3.6877997779348320e+08  2.1198601575017616e+08  2.0987048414796472e+08  1.9683302750198108e+08  1.8210166295559075e+08  1.5325152698836109e+08  1.5804480292826097e+09  1.4326297279228704e+09  3.8525046213721000e+07  1.8786064627436963e+08  4.0427557861775434e+08  2.2558600499069425e+08  6.2939076241146244e+07  8.9127869518751860e+07  5.2848481028009683e+07  6.1385995258217625e+07  6.1139137398933567e+07  5.9628997417896777e+07  5.5913214743849277e+07  1.0386320041133801e+09  2.5408596005322656e+08  5.5933863695367470e+07  3.0816900585887820e+08  3.7787670037129474e+08  1.0981867907224431e+09  4.2314757085697061e+08  4.8829848363213831e+08  1.5918700102414224e+09  4.9412163858077461e+08  1.7153399074263951e+08  3.7517774516426009e+08  1.0807418514938639e+08  4.9823543004398711e+07  6.8758113656829566e+07  5.8655226986612225e+08  5.5085762768497205e+08  5.3368617585246760e+08  4.8338087177660304e+08  7.4389662219473839e+07  2.8173492810143477e+08  5.9571982376295134e+07  5.1615735319931000e+07  1.8691801253493533e+08  1.5895487654509635e+09  1.5024831290989084e+09  1.6000013509468374e+09  3.1669960242667252e+08  6.2221359606469482e+07  7.8732490155634701e+07  8.2614684663980335e+07  8.3075495575992480e+07  7.2071383705475762e+07  1.9076449630898464e+08  6.1867169895967573e+07  1.2235769112827959e+09  1.2311950475586958e+09  2.1843660170224229e+08  3.3560309603956228e+08  8.2650255097241163e+08  1.1548710936365492e+09  1.1447326419926016e+08  1.2556939147288685e+08  6.0448096784162663e+07  9.2822107084367824e+08  1.4476483232284563e+09  1.1916151749758089e+09  1.5777764224727094e+09  9.0410381276766825e+08  1.8219023965140224e+08  1.8208979795419189e+08  6.0648096585063092e+07  9.0269141801313490e+07  9.8183987782041475e+07  7.9288285434556201e+07  8.1491839050993606e+07  7.7836383900888786e+07  1.5150031936358986e+09  5.5116674309018791e+07  7.0962358150392920e+07  3.9054948498633325e+08  9.6606057255583787e+08  7.6276979607985795e+07  2.0781722726271799e+08  5.8754333101261742e+07  6.0449991064990804e+07  6.0931016470185809e+07  7.2502775400305435e+07  7.0339357064307854e+07  6.9061062901921585e+07  1.6644112159931133e+09  1.8575658484547564e+08  2.0032674663137653e+08  1.9851376175401351e+08  1.7289761878040314e+08  1.4014148025060585e+09  1.4603522379365890e+09  1.3537872621287315e+09  1.2954979865345573e+09  1.5247137873948009e+09  5.9184103175424360e+07  5.9219867712162480e+07  5.8956208039513610e+07  9.7302292565971226e+07  6.8747322670616105e+07  6.2664635282299444e+07  6.0476488572432421e+07  6.1853344897501118e+07  1.6275845476660356e+08  1.4131297388373584e+08  1.5545048469246349e+08  6.1591189351951015e+08  5.6930239460003543e+08  9.6194309133741820e+08  5.7825459298010677e+07  5.4982430948240006e+08  5.9233754711090434e+08  6.7583697942472649e+08  9.7210915922355592e+08  1.0334914214430144e+09  1.0736901320724716e+09  8.7518207193393946e+08  1.4580292768662577e+09  3.5658890748169464e+08  5.3027468159282655e+08  1.1778587711403951e+08  1.0546467164463340e+08  6.0761409529164702e+07  1.1684101513534939e+09  2.2831550707765642e+08  2.2809866380451843e+08  9.2946855658633482e+08  9.2514175263334632e+08  6.6436158365645058e+07  1.0635737125687747e+09  1.0674794510122575e+09  9.7439750405329955e+08  5.8071280372306176e+07  9.5259989138711154e+08  5.7997133097991422e+07  2.5692903332695568e+08  5.9480299093177140e+08  5.7452709878698087e+08  1.0719542673527510e+09  2.8237032276174659e+08  8.0913568989637896e+07  6.9861252013616815e+07  7.1252900025308028e+07  1.5204166372517374e+08  2.2158512666282496e+08  2.4470715617399532e+08  1.3993096608186374e+09  6.0696435329355374e+07  5.1029633138015710e+07  1.4405627834269524e+09  1.0431713997709841e+08  2.4729441139981881e+08  1.0557150578061463e+08  1.4718502171757820e+09  3.0258152023538136e+08  3.9401417350747246e+08  9.6904109032157317e+07  1.5935340144939847e+09  1.0560909100822060e+09  3.4752876819983441e+08  1.1435649259100358e+08  3.2728052244733530e+08  3.4629434678325856e+08  1.3909639736288075e+09  6.2220683056902158e+08  1.4078838701382697e+09  5.7866856474884152e+07  1.6206669009839270e+08  8.9812947223802820e+07  5.7629387147015631e+07  5.7559028638652153e+07  5.7637800161285266e+07  9.0491019498828188e+07  4.3275446135122454e+08  8.8545754889259547e+07  1.1973769298621845e+09  1.1561003808326647e+09  5.7958590216748334e+07  8.3985260201840901e+08  7.5549177347430313e+08  1.5388326673251672e+09  9.5116722501465333e+08  5.1806118823296148e+08  4.6404020274582511e+08  4.4804685049718511e+08  7.8653232016015738e+07  3.0290128625256312e+08  2.8442225653698319e+08  3.1859493181447643e+08  6.2391163734363317e+08  1.4551971790963930e+08  1.4028208879547030e+08  9.4694423755084395e+07  4.3921524306211311e+08  1.4269588457806761e+09  1.3247887461180966e+09  5.8339829291575447e+07  6.0382180699410610e+07  6.8400337181572050e+07  7.8820980004923213e+08  9.3265819101287818e+08  6.7326103255397037e+07  6.8284000884479478e+07  5.8194582224222489e+07  5.8109243093316577e+07  1.4865405499655199e+09  1.5654844299012532e+09  6.7700952654186025e+07  5.9863782688670933e+07  7.7615821039139295e+08  7.7720689276278377e+08  5.8309956822986238e+07  1.5152721895870028e+09  4.5151680201580638e+08  7.0597217812259540e+07  5.7818265244031452e+07  5.8153686839986749e+07  5.9043705512928084e+07  5.9097342681494638e+07  3.9192816315132934e+08  4.3051994527036333e+08  4.4048181913569355e+08  6.7414240673598975e+07  1.9898303537565038e+08  9.0344032075835556e+07  5.7875681598141648e+07  5.7828982033997670e+07  4.7244030069564193e+08  2.1304002523482960e+08  8.2205931145685172e+08  3.0208645275360221e+08  1.1400807076620014e+09  1.2265830279146738e+09  2.5991302809621006e+08  2.6711223174799499e+08  5.7663746317148842e+07  7.0845002187458527e+08  9.4531489695496714e+08  3.8534807229224718e+08  5.5130644053067327e+07  5.9071405242306225e+07  5.9230386016587928e+07  1.0760500147428028e+08  6.3628654677360065e+07  1.4043744620226021e+09  1.1773119817691457e+08  1.5198351194393814e+09  8.0297987418182835e+07  5.7614376399642080e+07  1.6614828166409245e+08  1.4712083225790701e+09  1.7660659613236117e+08  3.8827394145119601e+08  1.7069151920684382e+08  2.2632051923026174e+08  6.0544903206484228e+07  6.0988096932172336e+07  6.1295845745830111e+07  5.6530833632593371e+07  5.8936665763284504e+07  8.6512467092473641e+07  9.6370675050014615e+07  6.0455800764993213e+07  8.0937186269285500e+07  7.8110811921282798e+07  7.6547825268479005e+07  6.3395333864041321e+07  1.0060130058264224e+08  2.0970650705380854e+08  5.9216424567595817e+07  3.7669772887607539e+08  6.1670047497165114e+07  8.2686170938789892e+08  9.6976457501049984e+08  6.4874377423348963e+07  6.9372184951937425e+08  6.9548030867800915e+08  6.2302046265885383e+07  5.9245421392975539e+07  5.7150756698051117e+07  7.6546785023665667e+07  2.0600203113306579e+08  9.5396627331436801e+08  2.2417828022957122e+08  6.4201296605365977e+07  7.2390274532212660e+07  2.2760002084645733e+08  4.3954102535642022e+08  4.0988333612747806e+08  6.6747673925825171e+07  6.0244474198766217e+07  1.5795957560124004e+09  6.2674276185577422e+07  1.5818451917057433e+09  8.1472337435611799e+07  6.1290963233433679e+07  1.0071696721230409e+09  8.1005270272517100e+07  4.5437233667415328e+07  2.2302006835537341e+08  6.5509167561107978e+07  7.0034929125428990e+07  1.5819072913695748e+09  1.6299096476579490e+09  1.5613142969044194e+09  4.8142407733835983e+08  1.2979009771007101e+08  6.0059380716270238e+07  8.0006505117954776e+07  6.1086039643248595e+07  5.8611490164008975e+07  4.2914148355512053e+08  5.7800318308853418e+07  1.9384486782818383e+08  1.2608827384430355e+08  8.2363712869267297e+08  5.8170570942829542e+07  1.1714037583626448e+08  2.0368448666130203e+08  3.7175639719099635e+08  4.4863960012823129e+08  6.4141937623777544e+08  5.9462878423814550e+07  1.9457284877440122e+08  1.3152110988350196e+08  1.2553444036571887e+09  4.1404371285208672e+08  6.7276876244974181e+07  5.7716559636218190e+07  1.0521536374116316e+08  1.0049627718138455e+08  9.6437203876782745e+07  9.4770059566642448e+07  6.3679503283749953e+07  1.4512901380298796e+08  5.8699353563589990e+08  1.1539503727600275e+08  2.4411040469231579e+08  2.2587882551460084e+08  5.7701204621307321e+07  2.1955198739609888e+08  1.0399513970076110e+09  3.1048595605202323e+08  4.6611438881899279e+08  4.7298756458844399e+08  5.7737011529704347e+07  3.3702019848481071e+08  3.4154029308534169e+08  3.5385298285067219e+08  7.8892175041317582e+07  4.6636564403021646e+08  4.3706085456346893e+08  6.2768213304644696e+07  5.9225916541437447e+08  6.3422458294256830e+08  5.5132952056588185e+08  5.6812379094683850e+08  5.8418800535168588e+08  9.9749220756196305e+07  6.2150426061949003e+08  9.6048583165460384e+08  1.1261505576571040e+09  1.2062052483008943e+09  6.3250718397292709e+08  1.2162275934380150e+08  5.6093162913841344e+07  1.5988943175824864e+09  3.8087222959484988e+08  1.1719468663953986e+09  2.2175278086181393e+08  4.7549827617076194e+08  5.3193452137261772e+08  5.1515635733046460e+08  5.7921068304036605e+08  6.1549843707931447e+08  5.6203427322356808e+08  1.3961109792951694e+09  1.3718608255496454e+09  1.4452096567732103e+09  2.4306642216377467e+08  1.8049979889858791e+08  5.8494959099459127e+07  4.2950853917345339e+08  1.2352076973887089e+08  5.5513065901098736e+07  5.8692934286737077e+07  2.1714303204343906e+08  1.0058867296263690e+08  2.2312425197568616e+08  9.0705881985359743e+07  8.0172572368539140e+07  1.3960676969613048e+08  6.7706506905122742e+07  6.9116047508789524e+07  6.2695663822628394e+07  6.1726705431227542e+07  1.0216822768349659e+08  6.5672029254545701e+08  1.2400704221804309e+09  6.2551307550187886e+07  8.6765899010931402e+07  1.5840974611771029e+08  2.3237500846789697e+08  6.4041068747741067e+08  5.5479318874937224e+08  2.7784269001982731e+08  3.0421569048912299e+08  2.7723307871465796e+08  2.7749837559879512e+08  2.4662598815077558e+08  2.3856772430020335e+08  5.7981500660455659e+07  5.7132425503748730e+07  2.8590605418962860e+08  2.2896170617155743e+08  2.5459281552990600e+08  2.3247245505004168e+08  2.1929860426265931e+08  1.7586762796330595e+08  5.9092719963188767e+07  3.6419640854323077e+08  1.2375631923512664e+08  1.7275292895282142e+09  1.5651274522538218e+09  3.1413511926225561e+08  2.7463623719772035e+08  1.4023316877601054e+09  6.4837010928808481e+07  6.4720461040483132e+07  6.3245839823072746e+07  1.3823731930599570e+09  4.0010429217522913e+08  2.9878178585089505e+08  3.1958414940332043e+08  3.0689406168276685e+08  2.8060992598906600e+08  6.6927856726643682e+07  1.4017988929890115e+09  1.7969444583713892e+08  9.5074703341745818e+08  2.2994389700128311e+08  4.5227839085664713e+08  5.9864856163144529e+07  5.8919375300072588e+07  7.2001869228047919e+08  1.1791732065075436e+09  1.3194986510800254e+09  5.8675424209384270e+07  6.6743896386600137e+08  6.4130636181597888e+08  6.1685144177863359e+08  5.8248569760357726e+08  5.3890149387057245e+08  5.5788399726313524e+07  6.5916458512869403e+07  3.3853680995635670e+08  8.6657222654199708e+08  3.0532579601432246e+08  6.7020055841041291e+08  6.5126539339635623e+08  7.0752777108098006e+08  1.7910440274186775e+08  1.5697853568989593e+08  5.8514721594527222e+07  1.2737022989297794e+08  1.0484956133404416e+08  2.6560480743576878e+08  3.0120372139501143e+08  1.4242484216471996e+09  1.3357883737407570e+08  9.6181975562768531e+08  1.0427276427568481e+09  6.4493955401624650e+07  7.5681856172372222e+07  1.5989246777193668e+09  5.8745141317619830e+07  5.9025121206685863e+07  5.9126046970238253e+07  5.7866890190604240e+07  5.0300415919614726e+08  5.6498672303640509e+08  5.4070934219459498e+08  7.7864589315933895e+08  1.3775616623253357e+09  5.7736240958282828e+07  1.0621245442885083e+08  1.0154842254470346e+09  6.1635553010583118e+07  7.3495271670555800e+07  9.4013302601056159e+07  9.1362631802987850e+08  9.1016407771777406e+07  7.5990251012232229e+07  6.8607412900014848e+07  1.0517319102958520e+08  1.1032230153684227e+08  1.1598016107032846e+08  1.0501102107224967e+08  9.9270321078170732e+07  1.6850234034710649e+08  7.2314744830250889e+07  1.8872903557038018e+08  1.1122749082535340e+08  1.0565653926781796e+08  1.6223590609331906e+09  6.6270160729496010e+07  3.3505593857773054e+08  8.2582572570973784e+07  7.7041269652237341e+07  8.0154309942040160e+07  3.2740431163251513e+08  1.1636054310802622e+08  1.4916204186630638e+09  1.5025475909136529e+09  6.2357745967352517e+07  7.4066200022977412e+07  8.7313665884051836e+08  1.6000522067391944e+09  9.1469775009958044e+07  1.1259122810925721e+08  1.0301354178647227e+09  9.4660324651497221e+08  9.4864907921960390e+08  9.0525738839549616e+07  9.4940109698762879e+07  6.0765235328508474e+07  1.0904345462976549e+09  1.1058029402257524e+09  5.4228879643477452e+08  6.1258505640244573e+07  5.7780804068279475e+07  5.9707314668011628e+07  1.4948530761086957e+09  1.5083527431711617e+09  1.5260719162200494e+09  3.1928737607205349e+08  7.5553222102030194e+08  6.3840146037707463e+07  6.2863612910444401e+07  6.2434770598478466e+07  6.8859031830567884e+08  7.5328110309447974e+07  4.4625076249109334e+08  8.7262738641320193e+08  9.4594427508850300e+08  8.7017076882669389e+08  1.6026606625130622e+09  1.5420753498026389e+08  1.6921076147624370e+08  6.5016878804958351e+07  1.5232425847830138e+09  1.1905419881517032e+08  6.4676103820087709e+07  6.4005396634702966e+07  5.9528741151940621e+07  5.7606286975868851e+07  7.3272156745580956e+07  2.6015393347665694e+08  5.8283277493962511e+07  3.6441476778715849e+08  1.3777141282263942e+09  4.3335069091675347e+08  8.8757739899724782e+08  9.5362524936525679e+08  9.9110572028720617e+07  7.5298786617689684e+07  1.5030303103264194e+09  1.6036183093396814e+09  4.7960731985224682e+08  6.4175610191765755e+07  6.3272336649146646e+07  6.2462010783427805e+07  6.2112260716723666e+07  6.1476105318750508e+07  1.1979779738091459e+09  5.8719133102852225e+07  5.8925267312698372e+07  3.0477031582548910e+08  5.9877449398860402e+07  6.1959576344736539e+07  1.0140014844338915e+08  1.0813801520025979e+08  6.0707427142630607e+07  6.1149408309013508e+07  6.1417176008551821e+07  1.0765608058812978e+09  1.2903928305236231e+08  7.5689472330653638e+07  7.4353609037098929e+07  7.1983829343969196e+07  1.0859733100061898e+09  3.8839663680876929e+08  3.5313073090310621e+08  6.5059149276853994e+07  1.2165876383700414e+08  4.5988168703151029e+08  1.1617573781579563e+08  1.1917484617117496e+08  1.2459775143611474e+08  9.9273768187256187e+07  5.8127706141068317e+07  8.6607384722874260e+08  4.8352265369597352e+08  2.5453265151614764e+08  7.7869207800695017e+07  5.3324215054388285e+07  6.0331167167547539e+07  4.5349998187282890e+08  6.7058041417997167e+07  8.8978377794968009e+08  1.2765702516547835e+09  1.6171642607518969e+09  1.5626948343086662e+09  1.5265836547587547e+09  1.5527257736490149e+09  2.4911321863893384e+08  1.1806997210098147e+08  1.2480064834362540e+08  1.4023991652750688e+09  5.5696086866916537e+07  1.3458710928935535e+09  1.1590033791689147e+08  1.2346508144132742e+08  5.7671258719850488e+07  1.2491406355260156e+08  9.7709019462039039e+07  1.0221803855274718e+08  3.9133508791190523e+08  1.3260937207914464e+09  3.2151482159959003e+07  5.6296922204698697e+07  1.9765908122507000e+08  1.8477218655903906e+08  2.1171707325081882e+08  2.6705981975525755e+08  2.9140937618428308e+08  2.5977297048747411e+08  5.5850112861815527e+07  5.9559179871026561e+07  8.2050852243415937e+07  8.3261537774424568e+07  7.9843720186608762e+07  7.9590242902732238e+07  7.8464962048162341e+07  7.0902843752273589e+07  5.9805974044465795e+07  3.9849187456265104e+08  1.6018610873258872e+09  9.7324461238123155e+08  9.4121419742313492e+08  8.5737441114842534e+08  8.8054287190649998e+08  5.9583691602500312e+07  5.9659928707996197e+07  3.9658106425775224e+08  7.0101310112838790e+07  1.5007283433396051e+09  5.8458990519329652e+07  1.5964113402544281e+09  8.5856584842747554e+07  1.6103019871695025e+09  7.6746151051670879e+07  6.5601804442677476e+07  8.7130151300471053e+07  5.7850615560315922e+07  1.1670590175850928e+09  1.2129002141940901e+09  5.6158310709321952e+08  5.8585308644297428e+07  7.2282408374477714e+07  1.4694667220743939e+08  7.1656421284936443e+07  7.2942533193388730e+07  7.4981536006871983e+07  3.2819991815074861e+08  6.3301935007659204e+07  5.8702831069302976e+08  5.1989569482075661e+08  5.3873651073212481e+08  6.1573396720379829e+08  5.4178452372129440e+08  6.2953250043844533e+08  2.3851708102990600e+08  7.7092034079665232e+08  8.2871004519252157e+08  1.2727881946313454e+08  1.1896519442312859e+08  1.3386564859713860e+08  6.6229977817767119e+08  6.2890608203682929e+07  1.0076637699465997e+09  9.5760353150221014e+08  1.4893623798419294e+08  6.5635622494900167e+07  1.5349770919484222e+09  8.1267823929619715e+07  5.8332950569748133e+07  2.0767311720557398e+08  1.2062682405000505e+09  5.8374828345580257e+07  2.5663256816668203e+08  2.5945886630361253e+08  1.2452472517200367e+09  1.1390135587107859e+09  1.0357743331749752e+08  7.3953406854304731e+08  6.1933304630024999e+07  1.4183701031074572e+09  5.7974257893407799e+07  5.9119978449422628e+07  8.0732352410222411e+08  8.7283860172715712e+08  1.5013160756405170e+09  6.8810661381693617e+07  1.7177585839421239e+08  1.0643541866008453e+08  1.0727181403484925e+09  5.3517917964891486e+07  5.2505421586867571e+07  4.7328472909122229e+07  6.2172944702554643e+08  6.6525511744281697e+08  6.1650752708709931e+08  1.5692945488464551e+09  1.0774629265829614e+08  6.5336433784004860e+07  6.6930444387281530e+07  1.1030928329356542e+08  4.3044245070844018e+08  4.0210620300197631e+08  4.3738126741306132e+08  1.1302683887822871e+09  8.0392161805638361e+08  7.5645065746931148e+08  2.9064916191951537e+08  6.7480244984673068e+07  1.6652607951216072e+08  1.6898145942664197e+08  1.3413958627339141e+09  1.3910921245154161e+09  1.3150871463957441e+09  8.9846541391799164e+08  1.5627946356411439e+08  1.6394818558409804e+08  1.4852345162680930e+08  1.2287889454467173e+08  1.5435587785460699e+08  1.9375569972638136e+08  1.0708235574858587e+09  4.7831944370983219e+08  2.1578994362804386e+08  2.5354487599892172e+08  1.3961170731743231e+09  1.5045929868946321e+09  7.5535957009026498e+07  7.2762422141618446e+07  8.3304770543362033e+08  1.1414129346324120e+08  5.2267972367136097e+08  1.4948581006322308e+09  1.2927053338097503e+09  6.2391540981895469e+07  6.1973867970923930e+07  6.0629106612991259e+07  8.2637809860919666e+08  6.0057849179769397e+07  6.0754398424999245e+07  6.0515421908632874e+07  1.0400269413876124e+08  1.0768904972053552e+08  5.2841196729911375e+08  6.5109207141825333e+07  5.7607300537205867e+07  5.8644342955240212e+07  1.5423538000171680e+09  5.9581932088695443e+08  6.3176771912586522e+08  5.8161133633656216e+08  6.1783681939710416e+07  6.1101196509256542e+07  5.0321859468648952e+08  6.5964482307521485e+07  6.4191609611696333e+07  1.2151563694229984e+09  1.3145873473652361e+08  8.7544587488594532e+08  3.1967589774327856e+08  5.8280873937462538e+07  7.4192518816364452e+07  1.2638027954311581e+08  6.3471084702201217e+07  9.1402715082303748e+07  6.0150910786709011e+08  3.4157860338429236e+08  2.0354451186304817e+08  5.8497190217470586e+07  8.8252173948477530e+08  9.3281072527239132e+08  1.0389316491747922e+08  9.3027614869273111e+07  8.4388510831320786e+08  8.1895239255281603e+08  1.3573739189591068e+08  2.4470466443456882e+08  2.3779967054189676e+08  6.3208355487404644e+07  2.2089314597891706e+08  7.0594501878888175e+07  1.2845058101717952e+08  1.3399010705556647e+08  1.4388585551812530e+08  6.0538659911850676e+07  1.0656913381243370e+08  5.6124358167460218e+07  5.4528802823723778e+07  9.5594906043550098e+08  1.0422537223345668e+09  8.9834783699858630e+08  9.2510259967893004e+07  5.9514589644211888e+07  5.3635894253429659e+07  6.3799399762100232e+08  1.2454917013632967e+09  1.1581121222107797e+09  1.2009530770114429e+08  6.5001329176805139e+07  5.7454498481274262e+07  2.2491079091709068e+08  6.0803032568423593e+08  5.8226238914398298e+07  6.3134673046084128e+07  6.5016427656330727e+07  1.0630413778136599e+09  9.6833923998153076e+07  5.7703882121951587e+07  8.1879925077277169e+07  8.7860470387783587e+07  1.2987979055778837e+09  6.1913942066344008e+07  7.2667584605554983e+07  8.7892862628913239e+07  6.0273977915130579e+08  6.0134026821469806e+07  6.1546132110110506e+07  9.1919832313783526e+07  8.4727416701535568e+07  1.2977685603504510e+09  6.4115642752037466e+07  1.1864691483478217e+09  1.9391888412425074e+08  2.9083264248271120e+08  2.7246110544209296e+08  3.1084012204799384e+08  1.4261359294251056e+09  8.5797431585395738e+07  1.6815923209079151e+09  1.8160807045911500e+08  6.4845382140112467e+07  9.7824326879046202e+08  7.4780714697797179e+07  4.6041028641134930e+08  4.2003247686298245e+08  1.9132020413833618e+08  5.9294908713589601e+07  1.6202896250752145e+08  1.0906362320280027e+08  1.1500212354257102e+08  6.5255498964788243e+07  1.7626182647540665e+08  5.9117571533402875e+07  6.1923604491209701e+07  1.4890277871999401e+08  4.6911805111110073e+08  4.4018305547197318e+08  1.4421198004794395e+09  1.5125662981943097e+09  1.4610923919967866e+09  1.4967901673833256e+09  1.2867907172945743e+09  3.1823031225962603e+08  1.0344984239989316e+09  1.0819519464847648e+09  8.9208051253608012e+08  5.4304366391449735e+07  5.3894694034636177e+07  5.2657086944244750e+07  1.5406435806375641e+08  6.0970435658245809e+07  1.1504724302436092e+09  6.8516171032584155e+08  7.1698914884998158e+07  1.1641919651006009e+08  8.8965101378775036e+08  9.6984382367609572e+08  5.6749781966986716e+07  2.5150709090382358e+08  4.9359074986733705e+07  6.1494403985455549e+08  2.2725263699899137e+08  4.9008880529183991e+07  4.6876894092064011e+08  1.0681284490535116e+09  6.4815894661942855e+07  6.4425663900611818e+07  6.1976390151950978e+07  6.1932101695842683e+07  5.6913170052576154e+07  6.0415272304979526e+07  6.7125718066107929e+07  1.4529851204527814e+09  1.3098786149954338e+09  9.7992798767085719e+08  6.2409210725832559e+07  1.6106240100022197e+09  2.2672472924876797e+08  2.1411461963799205e+08  1.6059683576400795e+09  6.2466384300341554e+07  3.0035681919559520e+08  3.0331266661636817e+08  7.6886953575138640e+08  8.1288584168439043e+08  1.0187135377785255e+09  6.2438485650749706e+07  1.5932025133715913e+09  7.2159404829320073e+08  1.1889882056215327e+09  6.0246080817752287e+07  8.4637010841729030e+07  8.4573859285641491e+07  8.9639091377405003e+07  1.0001994309038387e+08  2.0251586934407043e+08  1.0009258721434107e+08  2.6715246131806031e+08  2.7664663368864912e+08  2.6051299756076342e+08  2.8833976212397540e+08  1.2179101851215324e+09  1.2831027330549610e+09  1.2272510133752401e+09  5.5013088391968989e+08  5.0644436582321119e+08  4.8315933601551116e+08  4.6038742308898574e+08  6.3463929141179287e+08  1.1270180759453157e+08  6.2480717752046429e+07  5.9119238536301032e+07  1.0467266427745966e+09  6.3785648603129275e+07  5.4928663314162396e+07  6.0913962012238562e+07  2.0743255248040619e+08  7.7240433115631595e+07  1.5914658200065751e+09  3.5953855853494734e+08  1.2905907338860819e+08  7.0255466091137037e+07  7.1671434178083181e+07  6.9231240518646985e+07  3.1270384582949507e+08  1.3036522492969832e+09  8.6145344812382251e+07  8.6322643345551282e+07  8.8615372196909651e+07  6.4339348790689126e+07  6.4641207911812119e+07  6.5981995665547542e+07  5.2349658646221399e+08  5.1733091650161661e+07  8.4487904705077514e+07  3.8092415650597018e+08  5.8654646716579661e+07  8.6646109146448863e+08  8.2024994772930872e+08  4.9707203652759969e+08  6.6204902244611353e+07  1.5119735078243282e+09  5.9265172359901644e+07  6.0261783577249622e+08  6.1020287540018952e+08  7.1156192221564543e+08  7.1045058333985472e+08  5.5658879913189971e+08  1.2263126162027931e+09  1.5193594512223332e+09  5.7735390631970346e+07  5.7795385413580589e+07  9.5323117702232167e+07  6.1088329333012134e+07  1.1506164761904209e+09  2.2150502930713394e+08  8.1928417697605744e+07  5.8951858238992071e+08  4.0485345561735183e+08  6.8531904850235254e+07  5.8377898547125839e+07  6.0453669574531339e+07  2.2388794377301735e+08  6.0824983664561860e+07  1.1602659704467256e+08  1.1225337499377038e+08  6.6191135041957267e+07  6.6944117608936287e+07  9.2815678152338850e+08  5.8196857837347448e+07  5.1567993528557658e+08  2.7343754392882478e+08  6.7583848533496648e+07  1.1706307057358518e+08  1.1670798922210209e+08  1.2935630963921823e+08  3.6822846066111970e+08  1.0338475562927952e+08  7.3073268927008653e+08  6.9965739817765284e+08  5.0427076039857566e+08  3.2469259651006132e+08  5.8513688678477965e+07  5.8401491833644122e+07  5.8697262181751065e+07  5.9447700602681361e+07  5.8939632364931077e+07  5.1471553700296901e+07  5.1607803993841060e+07  1.0539799252604456e+08  3.0385931012485671e+08  6.0656470943452942e+08  2.0671311961136010e+08  7.8649547254580498e+08  1.0532510666738975e+08  6.9484668217770624e+08  1.1186030817235346e+08  1.0187933203031573e+08  1.0623602504088843e+08  7.0375062758128509e+07  1.3146058525335174e+09  6.1562692661748789e+07  8.0404617158974195e+08  5.9584887810236178e+07  6.0372637851809509e+07  5.9987302626637571e+07  1.0839886447174759e+08  7.6696134910985827e+07  5.8655777378767587e+07  5.6756557142534882e+07  6.0790439380393815e+08  6.3420084067468345e+08  1.1080081088038373e+09  6.6574682956721403e+07  8.5152669617155239e+07  8.6653932371203125e+07  2.7753092913223428e+08  2.7764692581862241e+08  3.0873082291031206e+08  5.3072204458203919e+07  5.4819744643886544e+07  5.1585965156004176e+07  4.9645213110813415e+08  4.5988461304457349e+08  4.5280169091947007e+08  6.7185888571263805e+07  6.1000676504104450e+07  6.1356861155286931e+07  6.0839242256232984e+07  1.1083749868050044e+09  1.1746826056826439e+09  8.5361648644783273e+07  1.5770587049638078e+08  1.6632212734432274e+08  7.3378166774966806e+07  1.5905312751410702e+08  1.6039078279511410e+08  1.1129413876666576e+08  4.0972747950991428e+08  1.0505154999776143e+08  7.3246983566305876e+08  6.8925940801944280e+08  5.8077667050175682e+07  8.1930965425547197e+07  9.4118719048809040e+08  9.8995648446856260e+07  9.2439188931727648e+07  1.2643656506227670e+09  7.1087217854507089e+08  5.7716917726792261e+07  7.8092919956935555e+07  1.1377115057077529e+09  4.1677733280416191e+08  1.7285281456357765e+08  5.5718697428973925e+08  5.4384473109714031e+08  1.3630228163933712e+08  1.6562334197456792e+08  2.2633144942391920e+08  8.1679701631966099e+07  7.8881096596261173e+07  7.8795128852023914e+07  6.1311877765489057e+07  8.0938849663165346e+07  2.0916918501704782e+08  7.0310196509125650e+07  9.2050304139569730e+07  6.5159543388727665e+07  7.3556800186044961e+07  8.7403946249453589e+07  7.0255216031253591e+07  7.1985281173726514e+07  5.7344155440163903e+07  5.7607853215083688e+07  6.9207877317172185e+07  2.1502686208005673e+08  6.0780992973299488e+07  7.0614603706501245e+07  6.7645866339462072e+07  6.0027614615328953e+07  6.8385507147459954e+07  6.6623914656214654e+07  7.3325591699774921e+07  9.7937948556169236e+08  1.8113892964744809e+08  1.6131070591442546e+08  1.7092266212158877e+08  2.4438681233601159e+08  2.4700170059538683e+08  2.6940975912135231e+08  7.5404203893910027e+08  9.5533159846188009e+07  5.0704498914790338e+08  5.9125153821288395e+08  8.9847914101656663e+08  3.7190187586980987e+08  8.9570294566232294e+07  1.5431681664782131e+09  1.5247945721415551e+09  1.5058996822076626e+09  7.5562500434760034e+07  7.1596439056712374e+07  7.1470204170057803e+07  6.9479758307428867e+07  6.8371937509125352e+07  2.3450397967442098e+08  1.1972995929537080e+08  4.7953360693408534e+07  7.0940139100926027e+07  5.8194716135867156e+07  5.8313585314421937e+07  1.1406867928155353e+09  1.2259409980983472e+09  6.1473115257769376e+07  1.6180053987941036e+09  1.4028852465954967e+09  5.9515821911123566e+07  1.0488712011211999e+08  3.1926618125946236e+08  3.5120533937642229e+08  3.6350483717954141e+08  6.4669842577494092e+07  7.5902720775161302e+08  5.8634304737677462e+07  4.1475944159829748e+08  1.6448150883395159e+08  2.5232097301153809e+08  5.9981793026943997e+07  6.0175470468425177e+07  8.5543457479360729e+07  9.0366324893358454e+07  8.9680456230851844e+07  3.3985387803203017e+08  3.3884749829998332e+08  1.0806794918261487e+09  3.7226430605222750e+08  6.6269990716996229e+08  6.9812563620614028e+08  5.6809275794850372e+07  1.1095166476784119e+08  6.7449816357021227e+07  7.0841015085783929e+07  7.0899215537268415e+07  6.9828512120661855e+07  5.2864539495229624e+07  1.0373432626709528e+08  9.6122094060138389e+07  5.8510125795847036e+07  3.3369283357248169e+08  1.3640481775540581e+09  5.8301233439382151e+07  7.2808372776295349e+07  8.9585235318149507e+08  1.5069235689980488e+09  1.3586014635890632e+09  6.7882366948426768e+07  5.9054963260782707e+08  8.9605552984068543e+07  8.4884278598440695e+08  8.5361939084041584e+08  1.6752700173670688e+08  1.4788554074116859e+08  1.8038739318331695e+08  1.5077396827329019e+08  1.6489046291890889e+08  5.8635728728820488e+07  5.8861195014394864e+07  3.7186942596592951e+08  2.6689095158790731e+08  3.9483811883257693e+08  8.4404187678835475e+08  1.1179187133651333e+09  6.5797840464591169e+08  7.0807988613787711e+08  1.5389583518272870e+09  1.2811608410011158e+09  6.4096135607047248e+08  6.0639669347861886e+08  7.4488870214456689e+08  6.6592885021340799e+08  5.9188429162017703e+07  1.6412430169642489e+09  1.6469051221654940e+09  3.0572203330351311e+08  5.9546948167673171e+07  4.3957594924329859e+08  4.0588192697302723e+08  1.6237792982110963e+09  1.3298349214862032e+08  5.6815091187594116e+08  6.0155833044869617e+07  7.8850437650394246e+07  1.1126458398715603e+09  6.5250392457729444e+07  5.8461658607966371e+07  1.2639999398180764e+09  6.0001489994836107e+07  1.0021423496438016e+08  5.9134381861481227e+07  1.1857981017366650e+09  6.4172707026463777e+07  1.5983963160182786e+09  3.3786416438029784e+08  4.6004282528698003e+08  4.5977549014819568e+08  1.3680161054620645e+09  8.8664978156290770e+07  7.1188597754058361e+07  1.4571011919687697e+08  1.4656426059458360e+08  1.3612035596592677e+08  1.5049862172542930e+08  5.8516787247845665e+07  1.4796801286809165e+09  1.4009686432486444e+09  2.5704997731589139e+08  6.8554803732140034e+07  7.0430436129982203e+07  1.0403483898847361e+09  6.2636253714258432e+07  2.7089869934984213e+08  2.9981848562996340e+08  1.8427356594061989e+08  1.2498410564496703e+09  7.7786928897831655e+08  5.9869816560721166e+07  1.7458375121519211e+08  8.2068977624241114e+07  2.0617951977916586e+08  2.4318970705533436e+08  2.3109674595542368e+08  5.5986403443091191e+07  1.0267478739930566e+08  1.3528007235844488e+09  1.3299424945801840e+09  1.0118796351256787e+09  8.0435289093546867e+07  6.1384656256030999e+07  6.3057607776836351e+07  7.8097843325936854e+07  8.0546660439487442e+07  5.5111757615427554e+07  3.4886932825482476e+08  3.5609862347355348e+08  5.8762904379166268e+07  4.9417012809346759e+08  4.7211871488410574e+08  3.2401236227915692e+08  3.4525126600588882e+08  8.4250480072697735e+08  5.1424814410389733e+08  5.8413072920898810e+07  7.6501524713917100e+08  2.8582841300307691e+08  6.1033708817528501e+07  5.1203172767906851e+08  4.6571077648862082e+08  1.2252402052543320e+08  2.4465128651496950e+08  6.7971566192428693e+07  1.7389981887147495e+08  3.0451413431233048e+08  7.4723919339286268e+07  6.0415555308860414e+07  5.9834556412848845e+07  5.7674942542959757e+07  7.5678583460076499e+08  6.8892882590620250e+07  1.4020064446008258e+09  7.7919456202162504e+07  5.8899327222906590e+08  1.3507783990905452e+09  1.2971045140063179e+09  9.2387120914028633e+08  6.3240061561038882e+07  1.5955599185618567e+09  1.6082263074739938e+09  1.5183955417937350e+09  2.2616138382496661e+08  5.4717634414894730e+07  5.7794094321836852e+07  6.3034267966798306e+07  6.3091605670558698e+07  6.2221213844223276e+07  5.7747349785780832e+07  1.4531266641424112e+09  5.8305792403774135e+07  6.6837283174212031e+07  5.7229548780138291e+07  5.8587356376047373e+07  1.0332925039406600e+09  8.2196986665528744e+07  5.9460465986439809e+07  3.1074987684634304e+08  8.1675657189310655e+07  1.0405105514057714e+09  1.1062835910656018e+09  1.0569498924577758e+08  6.9781066149687970e+08  6.3752233073376060e+08  2.3356409271000636e+08  8.2249070121216786e+08  6.7548471006441259e+08  5.7769602849605188e+07  8.1959343258397329e+08  5.9507693824281082e+07  7.4645205672535270e+07  5.1363411718454564e+08  1.4375145155277210e+08  6.0300375591464415e+07  1.0378489882692324e+09  5.9193607612519458e+07  5.8765664350955278e+07  6.7534226124238417e+07  5.9002023834562317e+07  5.7684633652000681e+07  6.2411333726431340e+07  5.4471995845620200e+07  6.8452652587143034e+07  5.7931214471243396e+07  8.7819979146869707e+08  5.8850398633590095e+07  1.1605693760720766e+09  1.1838122084176109e+09  1.1333731867267730e+09  1.1370003743127351e+09  1.0556318034005167e+08  5.7216837086098874e+08  6.3970411204861951e+08  5.9307423567592096e+08  6.2466452732627165e+08  5.4719141857027449e+07  5.5659120371671371e+07  6.1976736924218886e+07  1.1151646903797932e+09  8.4181631242589295e+07  7.7499013001231170e+08  6.6394292279363379e+07  8.3009118005004823e+07  9.6567676463933483e+07  1.0006595079862723e+08  9.7613518894479245e+07  7.3935030260335147e+08  6.6757534168542123e+08  7.0160106725757694e+08  5.8811350066919923e+07  5.8394943339671582e+07  5.9352341839031503e+07  1.3664834817513893e+09  1.3707332979276857e+09  1.3634409897767038e+09  1.3532615876082377e+09  1.4263364924815309e+09  1.4315641899312370e+09  3.0526439426264048e+08  6.1440214725695282e+07  6.3869474381089278e+07  3.9310129840311891e+08  4.2221755775827307e+08  1.8438809796630013e+09  5.7774484366326801e+07  8.5465466183563054e+07  5.5588272617262983e+08  5.1711692538409376e+08  1.1247208244171430e+08  3.9815328986250550e+08  4.0876130109489942e+08  3.9913162107346070e+08  3.6485624621512818e+08  7.4990633877627820e+07  4.0722333081074113e+08  5.8143417247530118e+07  5.8469734743913613e+07  5.6900577453923002e+07  6.0991435500248238e+07  7.6777394701220244e+07  7.1852692510740355e+07  5.8304950080110610e+07  9.9034020533797193e+08  1.4318379430438054e+09  1.7738953804853437e+09  4.0027853562889612e+08  5.6720905530457966e+07  1.4083880941090991e+09  5.8584292112180285e+07  9.8971133879211402e+08  7.2610018617495680e+08  6.0868290059311950e+08  5.3479313387382919e+08  1.4933317409920454e+09  9.0578042165629876e+08  5.5596427564933799e+07  5.9888147334793948e+07  5.9522608384244822e+07  5.9617957572635077e+07  5.9096269902010158e+07  5.8787539494513117e+07  5.8737037150246590e+07  5.9212969017104596e+07  6.0168803196628906e+07  9.6243914240130937e+08  3.0744854577927816e+08  4.0426670549238563e+08  9.4265187213628262e+07  2.7744563907408649e+08  3.7049569142968774e+08  3.5022449228438503e+08  5.4499067519637942e+07  3.7008086184093434e+08  6.5296479977533206e+07  6.2171524930898868e+07  9.9652101430001631e+07  1.6078390034186894e+08  2.6044755330191028e+08  6.9269888570893943e+08  1.0194047208138305e+09  1.1171215865634829e+08  5.8799714963807821e+07  5.8706034308132946e+07  6.5117372183165419e+08  1.5622567583595922e+09  3.9088944274811822e+08  7.3435951860295725e+08  1.5693568326598597e+09  1.5540924671574387e+08  1.4626842957190156e+08  5.9157325082362115e+07  6.0936096877895296e+07  6.0477338902610376e+07  4.9163223816813964e+08  6.1593108798358120e+07  3.4228452530301720e+08  5.7161297819367401e+07  1.4784944395066106e+08  6.1084436328101635e+07  7.4838463531299800e+07  4.9792764765557355e+08  5.8321854684899695e+07  3.7115858792476368e+08  7.9896592271541044e+07  1.5913896636974006e+09  8.2450195590126365e+07  3.8148170540737200e+08  1.3025854685985901e+09  6.7900794600256801e+07  6.5559810675872147e+07  6.6447331039601177e+07  1.0868672953740549e+09  2.7263852114345533e+08  2.9595487020816600e+08  1.3854660201885375e+08  1.1486100309600116e+08  9.4945777812674284e+07  1.6114365923260479e+09  2.0792891268817678e+08  6.7413755731142193e+07  9.5601682237973833e+08  7.9633681574499488e+07  1.2536943522193639e+09  6.4979152526938593e+08  5.0087809960130298e+08  4.7069679850146121e+08  5.8546818568511255e+07  9.1157351792828813e+07  6.1938751798390985e+07  6.2343500768205412e+07  6.4149687426950864e+07  5.9631146845942900e+07  6.1449253276739217e+07  3.8235644536151290e+08  5.1517544131302869e+08  1.0514658594381412e+09  1.0890691505488753e+09  9.0920010809194997e+07  1.3019387086493489e+08  1.1960673066220777e+08  6.1586173003758311e+07  6.3644681778933138e+07  1.5974163834087315e+09  1.5503637312904761e+09  1.0505196694324486e+08  7.4993570159602547e+08  8.0311220633993185e+08  7.5508991983307171e+08  4.1704723061107171e+08  7.4931098261573207e+08  6.9212063309363353e+08  6.9795212621376216e+08  7.4640316935019469e+08  1.0201628507402030e+08  1.4539104708088763e+09  6.3793969976089694e+07  5.8805702101985104e+07  6.5128159992368266e+07  3.9755935244870967e+08  1.5850906010942936e+08  5.8505949120252505e+07  1.0528693020672450e+09  1.0089827373667330e+09  1.9762790578275108e+08  1.8481235225411659e+08  1.7757049186373803e+08  7.1718098090403438e+08  2.9217172770585316e+08  6.5790876304914403e+08  7.1405998018418598e+08  6.1196854093321696e+07  1.4023505550837699e+08  7.6797754808718324e+07  1.0292359212063469e+08  6.5410632323067367e+07  5.7014288816643387e+07  5.1946723660834467e+08  5.5654302239250326e+08  5.6065897547287810e+08  6.0068664664706402e+07  2.3579445846291789e+08  1.0953430417085786e+09  7.8167253079746991e+07  8.0355454164304152e+07  7.5162443534468919e+07  8.4158275323826313e+07  5.4957567839101337e+07  1.3960382880604607e+08  1.0874864630875609e+09  6.7481944771914914e+07  6.9592269126551062e+07  7.0690809065029576e+07  6.9250365091448888e+07  6.9025952681489423e+07  1.5869298719806414e+09  5.3753991681431323e+07  5.2809866637042776e+07  1.2511222362950741e+08  5.7830590279851191e+07  5.7937824406681240e+07  2.9682474071477938e+08  6.1790395573466063e+07  1.7528249559822619e+08  6.2518140315150082e+07  6.3023980832056828e+07  6.3635614942159191e+07  5.2677547489391245e+07  5.3894869667634487e+07  5.8915083714607373e+07  1.3098507243552449e+09  5.0164065303324562e+08  1.7369139280484775e+08  5.8883537607833073e+07  8.2075059485463715e+08  1.3856048185183945e+09  1.3560776764188225e+09  7.4113607948249984e+08  7.3961055139826214e+08  8.0315917106973231e+08  1.9014540526619285e+08  1.6332142972042474e+08  1.5897708238680840e+08  4.1328088297007024e+08  8.5087159084029570e+07  1.3729361396081471e+08  4.0784841440452285e+07  6.1960333357316606e+07  5.8327066236443184e+07  7.6628698255219504e+07  6.6464544166159853e+07  6.5568379085515939e+07  6.4993777870319039e+07  6.7821171542013302e+07  6.0272046868876016e+08  6.2715597904950544e+07  6.1331104309444591e+07  6.2732880291037768e+07  2.7653960689236981e+08  3.7223450586813146e+08  1.1612865348575225e+08  1.1662436938471446e+09  1.0977631916031935e+09  1.0878899196711509e+09  3.1753170145270288e+08  2.2697199279750156e+08  5.9771946194316410e+07  6.7730366699594885e+07  1.2280097436234461e+08  6.0143607539383613e+07  6.5383100587457299e+07  6.0359724014984667e+07  1.4147975734976811e+09  6.2079973125768103e+07  1.0915090474660287e+09  1.0370229865954859e+09  7.6507907779673457e+07  8.0475177216067642e+07  5.6807284682365820e+07  2.1049285881332031e+08  1.2752742353099501e+09  2.7206652773450023e+08  6.3342710883471765e+07  6.3050999230100997e+07  6.2510408157079697e+07  5.9525337198556924e+08  5.7785476868182763e+07  1.2854675493193691e+09  1.2737132757129133e+08  1.3684584489674354e+08  1.3673378380693510e+08  1.0238878949259506e+09  6.4379034563916862e+07  5.4305799879387081e+08  1.2355706704823788e+08  5.7035433603902899e+07  5.6727714295158990e+07  1.8743389402545187e+08  6.4932575478364810e+07  7.5244306045596099e+08  6.0970757263853811e+07  6.3794744318558551e+07  6.4884043374515690e+07  1.6149236516323197e+09  9.9392138682723686e+07  2.6292125923229945e+08  6.0327572862461761e+07  5.9862125618299663e+07  3.4227335997289121e+08  5.8088069183436736e+07  8.3835310519810390e+08  1.6513727876857114e+09  7.9187984438216865e+07  7.5537407846179381e+07  1.0532334958212320e+09  6.9052044013072684e+07  6.9783980850254998e+07  1.1844600952533774e+09  6.1773690215049364e+07  5.7233744030977309e+07  9.2871430819689140e+07  5.2618087024714731e+07  2.0019934326704767e+08  5.8124117197388962e+07  7.9812084608531237e+07  1.2446579479307606e+09  1.3082533961313055e+09  6.2671944408902347e+07  3.3876829903245080e+08  5.7249210139340706e+07  2.3140199073201132e+08  2.5595517832835820e+08  4.5359109940984255e+08  5.7951671716518551e+07  8.1891986673137009e+07  1.3756054508609712e+08  5.2190445501210935e+07  2.0181273293787295e+08  7.6830356419412062e+07  7.8244038681828901e+07  7.1266307604615912e+07  5.4970676323458269e+07  7.0862849975784004e+08  6.2360347529367161e+08  7.5249618578914270e+07  5.7926342331154130e+07  2.0980455552233618e+08  7.2822347630596325e+07  7.0161197548038352e+08  2.3089020142563382e+08  1.2686680928017032e+09  1.1721388514216499e+09  9.8811638370103669e+08  9.0295494081021547e+08  7.3892359164161876e+07  7.4679460056560010e+07  7.6218531923442408e+07  7.2221468602011800e+07  5.8782861897364400e+07  8.0667400418147242e+08  1.0257058901463076e+08  1.3777656814913392e+08  8.2885923148548767e+07  8.4918673213199779e+07  1.5188297657293794e+09  1.3446739980060592e+08  6.6111127899013601e+07  3.1131047440656465e+08  9.0933927793530810e+08  1.3469638426003029e+09  1.1950253614167918e+08  6.5188756249969251e+07  1.4499288517129285e+09  5.8188599690960400e+07  2.3158711936721611e+08  4.7422195666735393e+08  5.8042407229053259e+07  1.0158602267954721e+09  1.1200405848304138e+08  5.3980730645955414e+07  5.1631187772169180e+07  2.3442109049777991e+08  1.0796339232634625e+09  2.1772658708069560e+08  5.5915154485835338e+08  8.6081508206849769e+07  8.7212318442492604e+07  9.0288751691477820e+07  5.9827306169265248e+07  2.4430463996356887e+08  9.7888585476280808e+07  8.8110499820950639e+08  2.0218828228028679e+08  5.0612583619173847e+07  5.1702854502507210e+07  8.9259237254281235e+08  1.1518088508062065e+09  1.6191670669494739e+08  6.8477823103747159e+07  7.0096478750139445e+07  7.1743636146952882e+07  6.9901465020973623e+07  1.1596460704317696e+09  1.2263497579298072e+09  1.2467472447179806e+09  8.2575677121966839e+07  2.4786229453724080e+08  2.3980298871514732e+08  9.3513961993167996e+08  5.5444972766936243e+08  5.6603475005484581e+08  6.4489413989176184e+07  1.3495002492538601e+08  1.3076442166132210e+08  1.2288247531846832e+08  6.5813065246306255e+07  6.3409237466832824e+07  8.8786823018272117e+07  2.2153914044509867e+08  5.4467495504285657e+08  3.8460226071413332e+08  4.7368794643197346e+08  1.5421492492868662e+09  1.6301398416417966e+09  8.0117179465515590e+08  1.1310010241352670e+09  5.7885280729252324e+07  3.0563243860096663e+08  1.9621084099569607e+08  6.0485655396713957e+07  1.5696357005331323e+09  6.0233778572477341e+08  1.4818510515236816e+09  1.4133869187742102e+09  3.7397829370854038e+08  2.5655585271188283e+08  1.9630670942218384e+08  4.3028427494502187e+08  8.1457898592930794e+07  2.0266950500899464e+08  7.8962659883854771e+08  7.2624375784533635e+07  2.1863023839263803e+08  1.5410343743366152e+08  5.7030849541024804e+07  7.7503433155877733e+08  6.0048823415395312e+07  3.3991824961623973e+08  4.0577773496511340e+08  3.0941680014946431e+08  2.8116550997160602e+08  1.1397608784484234e+08  9.9123198836672258e+08  6.5571476676218301e+07  1.2846972187489343e+09  1.5799973284662870e+08  6.3608245514870554e+07  2.4207130832518074e+08  6.0597466216772713e+07  6.0361887330218458e+08  7.3048186220531762e+08  7.7487863850469780e+08  7.1236271757257986e+08  6.4914218535890982e+07  1.1408421202918303e+08  2.6209399189461112e+08  1.0888333005053028e+08  5.7622972563117780e+07  5.8036196183613062e+07  5.7912786571416900e+07  5.7794310933599643e+07  1.3734998206370351e+08  1.5049791811954159e+08  1.3919032268040058e+08  6.2838984579065666e+07  5.8865610729508445e+07  5.8630939274445646e+07  5.8334956637364134e+07  1.8528306256228638e+08  6.7335772268604442e+07  5.7235793724219054e+07  6.5156288892300241e+07  2.4752280723553142e+08  1.0050347324233340e+08  9.5772211767151430e+07  5.6269765802145772e+07  4.3196443219265842e+08  7.5646173650513375e+08  1.3275077622835380e+08  6.5791641229386047e+07  6.6993927384453222e+07  7.0294633381258965e+08  3.4481940615568227e+08  1.6096591735350028e+08  1.6999136948181325e+08  6.3068610484245718e+07  6.4929430374724716e+07  1.1123595632994537e+09  5.8188902647873856e+07  6.1575806828146547e+07  9.0889191237485811e+07  6.2609054372290589e+07  6.1798916294206783e+07  1.8903133691901794e+08  8.6619184096296400e+07  8.8342074348789617e+07  1.1503098939981170e+09  6.4001098175610341e+07  6.6658578329730518e+07  2.3354522306737077e+08  2.1110970714730468e+08  5.9379016172568068e+07  6.0429114509709425e+07  9.8963130546128541e+07  6.1309120077808118e+08  5.8383278634025238e+07  5.9413529875845343e+07  5.3050454473729235e+08  6.2330716028290473e+07  1.0126203764382944e+09  4.9732016680283046e+08  9.5231667574117482e+08  6.2640341417878263e+07  1.9511884405078042e+08  1.0172311125137213e+08  8.1981324243121371e+07  8.4989266193507418e+07  5.7071993361521371e+07  9.7622536936695039e+07  6.3771406391707957e+07  1.6282644831091325e+09  5.6588317369209933e+08  6.1509152577552807e+08  7.3896792920482576e+07  7.8490361746942773e+07  7.6476866909211516e+07  2.1710767960091984e+08  1.9662958037000436e+08  1.9719155254899383e+08  5.7557445627108000e+07  5.7545174115875050e+07  5.7599634797973126e+07  5.7927581058586448e+07  5.7858113707705155e+07  4.3564804572195697e+08  2.7138053516723198e+08  9.4113369474429584e+08  6.9644465631523609e+07  5.5907376084412441e+07  5.6221073867865950e+07  5.5985344997904494e+07  6.0991122999668404e+07  1.9628880792740920e+08  1.1701100455190265e+08  1.4569038945797346e+09  1.5146821506636438e+09  6.6530370322128259e+07  3.6439226500560147e+08  5.8473307011148781e+07  8.8699765427609456e+08  9.4938463647128105e+08  8.8138323313761139e+08  5.8225066330542371e+07  6.6740682520189762e+08  7.5971023868785307e+07  1.2442359175739646e+09  9.1461968391295993e+08  2.7659555873389685e+08  3.0912877371260726e+08  8.4206154266465306e+07  5.8768407817218445e+07  5.8577177417159766e+07  1.3578609803700340e+08  2.3168436305569729e+08  5.9135600990794539e+07  5.9442414106095552e+07  1.3333753097099657e+09  1.4130521422929268e+09  2.7659419601226735e+08  1.2522486088716713e+08  9.3848330559364632e+07  6.4278859334217317e+07  6.9182059990942702e+07  7.1561936142082319e+07  5.8048869992635623e+07  6.3710545065850511e+07  1.5649738537836730e+09  1.1054493427953565e+09  5.9312890968672998e+07  4.9496188024181229e+08  5.3345508847757161e+08  3.5197988264933890e+08  3.1586926465418833e+08  3.5497040523348856e+08  6.6377506295493446e+07  5.8131065438482150e+07  2.8060158959314648e+07  1.7521899982169455e+08  6.8395395607051596e+07  7.3544905529390052e+07  7.1075627329812527e+07  6.8848007835485607e+07  7.3052588427707183e+08  6.7243747858001614e+08  1.0768720445527260e+08  5.5216253429952435e+07  5.1351895139642425e+07  5.8185934610162467e+07  3.6307345745957994e+08  6.5093274359159315e+08  7.2867841069665122e+08  6.4469535052784793e+07  5.5582098391211307e+08  2.5103476645056894e+08  2.5600313773562112e+08  2.2721510362634751e+08  5.6458604533449277e+07  4.3717139137743247e+08  4.5972499686585647e+08  4.7530173673696494e+08  1.8396020693905598e+08  3.3039554494021958e+08  8.6745579766624570e+07  1.1750103940013306e+09  1.1189373236810346e+09  8.2161358103048003e+08  6.6136708147822905e+08  1.1463696105770342e+09  5.8346694660498813e+07  4.5793943714064848e+08  4.2216003456135827e+08  4.1327362522892082e+08  1.0804749369556561e+09  9.9484786741602242e+08  6.1709488799488276e+07  1.0069340732058547e+09  5.8032796799668774e+07  7.2310087607335174e+08  6.9037526641007468e+07  4.7599041566666044e+07  2.6692355419396639e+08  8.8467166307699904e+07  8.7803140292507753e+07  7.3893083819679350e+07  1.1055713222537799e+09  5.4087976581898116e+07  8.7193958674223614e+08  1.4617976119703498e+08  1.5140497028014892e+08  1.5680176902506804e+08  5.7623577830827519e+07  1.2425230591054203e+08  1.2583587813041806e+09  1.2568420219131329e+09  7.6594554047430813e+08  1.3233889809012637e+09  1.0178999865797299e+08  7.2816653191748843e+07  7.9012799393396646e+07  5.8711191318090248e+08  1.0736382241887912e+08  1.0037886599206053e+09  5.6790981161238633e+07  1.5704230122936136e+08  7.2772677379249319e+07  1.0021780358063494e+09  1.0762505159305830e+09  1.0448759703981159e+09  5.8650227899294786e+07  9.3323047891145155e+07  1.3099307692059839e+08  5.7650668921990566e+07  5.7581720249330863e+07  7.2447674306870595e+07  5.2296612899310343e+07  5.9899466310030334e+07  8.8503776120666111e+08  1.4610709343213069e+09  9.6398396849665773e+08  7.0974019890756190e+08  9.2057358687745556e+07  1.0305404335075423e+08  8.0907072168230164e+08  1.6371998346407291e+08  1.4773566754098648e+08  1.6169403951719576e+08  5.1910610118903056e+07  9.6541526729605806e+08  6.8485074269294202e+07  8.5150251126788333e+07  5.8207957399240121e+07  5.8303260798840955e+07  1.3712412397627151e+09  1.8692646120964319e+08  8.6159120260040689e+08  1.5963410214174479e+08  5.5500414129953817e+07  1.2400291809067291e+08  7.3399842856284750e+08  2.8225505079603726e+08  3.3045784278406322e+08  6.2179448669503689e+07  1.6012132348371305e+09  4.9281372669923335e+08  5.2070815758159447e+08  4.8331181202379668e+08  1.1690382333998990e+08  5.9996289995744035e+07  5.9883552894871704e+07  5.3489140341147512e+07  4.5201728822912931e+08  8.6377363899047804e+08  2.7531637270849949e+08  1.6038360730734921e+09  1.3003800504049259e+08  1.2295132536530831e+08  1.3683042564244330e+09  7.3158615390590042e+07  6.3171300712447912e+07  1.4562520570982490e+09  5.9477862298083872e+07  3.0255342422013158e+08  4.0663898160295296e+08  7.9403933810373044e+08  1.4532362501067755e+09  4.8098372901247501e+08  5.9655821192066602e+07  6.1493130322845660e+07  7.4759663354702997e+08  5.9067617005183697e+07  5.5977378134938315e+07  5.5893905363880433e+07  8.3876716906708229e+08  8.5041865180187070e+08  1.1759494799141860e+08  1.2163577554729517e+08  1.2752272361484672e+08  7.0548973429315999e+07  1.3743777230387986e+09  8.5831358983666766e+08  5.5295646856419198e+07  5.5821649593326747e+07  6.5320611533088543e+07  1.2252896973318594e+09  5.6523919244391412e+07  6.2783811697023496e+07  6.0069733779541753e+07  1.1128224681120019e+08  3.8526085590872365e+08  1.3884299584254873e+09  6.3649345241815805e+07  6.4516935250218421e+07  1.0372349602502706e+09  1.5569678766598392e+08  6.1414905893101841e+07  5.7995699819221891e+07  3.1639088879816556e+08  2.8718943949618077e+08  2.8980913014606309e+08  5.7693074862088509e+07  7.9307856295527473e+07  8.2381615209640712e+07  6.0141853610605940e+07  5.7048625298103046e+08  5.7400711024552636e+07  5.7831991794135854e+07  5.8410213852875948e+07  6.4592856023854896e+07  1.2095415535482543e+09  1.2756157381161883e+09  1.2576494843704553e+08  9.7531374532463074e+07  9.2909273738007322e+07  3.3081841875847948e+08  4.5322745022261143e+08  7.4069772755356535e+07  6.8463516066394523e+07  9.0604634043596315e+08  1.0792415008592211e+08  6.0251505662307486e+07  6.7539538129725292e+07  6.4699671657093808e+07  6.7191388774465442e+07  6.1427116060138261e+08  8.2267358463269246e+08  6.2132242497070694e+08  8.1544626003537214e+08  1.5653061655169162e+08  5.6668078514075302e+07  5.7199104820636451e+07  5.7193753174527094e+07  5.7261821311168216e+07  6.8856585710125685e+07  7.3357204947034502e+08  4.3769745685696286e+08  7.0365751404708695e+08  5.9712865291929349e+07  4.9079270190233827e+08  3.1367617345606619e+08  3.2108948369952959e+08  7.0956504781068861e+07  7.0798528985525802e+07  6.0173068999370821e+07  1.4721516017604799e+09  6.6974742091033377e+07  1.2605574901833314e+08  1.6186237957207766e+09  1.3897613048410049e+08  6.5125082766966605e+08  6.0886800931835639e+08  5.7851311434324276e+08  5.6966634357975745e+08  8.7695272954857528e+07  9.1139183829230711e+07  6.6193839697922671e+08  6.0862039156687282e+07  1.4804635609718969e+08  1.5152399257827353e+08  6.3919155293676838e+07  4.7874171576819962e+08  4.7706042493387365e+08  4.4224491729675925e+08  5.5661644868325603e+08  4.6318801505157721e+08  3.5867337963050503e+08  6.7588499981777573e+08  6.2167544923336864e+07  2.2655576997813308e+08  2.4419634989690590e+08  2.1048259861281517e+08  4.3248021204819995e+08  5.4170577095717177e+07  5.9001549943063632e+07  7.6226767015742946e+08  1.4755977328145988e+09  1.4853819349201081e+09  2.1099704147128132e+08  2.0766304349048680e+08  6.0694915510118514e+07  6.0950620077965349e+07  1.3768418489550653e+09  4.9348067814161474e+08  1.2315899160005419e+09  1.5438645569281772e+08  7.3187860311718181e+07  7.3400903938796923e+07  2.2286861666684806e+08  2.4361624372369096e+08  6.0875069791883007e+07  3.5602600333050960e+08  1.5115553692784780e+08  1.0744050132359400e+09  1.7764217907955682e+08  6.3194370146711186e+07  2.5065234605983245e+08  2.3137397631698513e+08  1.0110308261463115e+09  1.4086065492993152e+08  1.1773880011658773e+09  5.9249585193565004e+07  5.9667892774550140e+07  2.3962395568173498e+08  5.7683648598053031e+07  6.1471832257265978e+07  3.0254868708953643e+08  4.1821193645502919e+08  6.5266228440767661e+07  5.5495001462988377e+07  5.5316548688454318e+08  5.1666959525730783e+08  1.2057782220411861e+09  5.7904004228521049e+07  6.8733609409498051e+07  6.8063959840277001e+07  5.9839382991644971e+07  6.6608832862613308e+08  5.7831300449251704e+07  5.9075695979548824e+08  1.3912384277900136e+08  1.4868224746787682e+08  1.4314749038853854e+08  1.4214512169609746e+08  8.6736953096476758e+08  1.9825518691490728e+08  7.8140294957919538e+07  5.9080439475687712e+07  9.3026369931207508e+07  6.6853175178180873e+07  6.6981121840515323e+07  6.9340284225080323e+08  5.7904641061889619e+07  1.1516580092740588e+09  4.2853927438628465e+08  8.8686710084940001e+07  6.5581940276513755e+07  8.9868313255355239e+08  9.3520670972435904e+08  4.2855241869536322e+08  4.5426074339020479e+08  2.1769657857353795e+08  6.6503009506559178e+07  5.8755447207862234e+08  5.7328559772602642e+08  6.1679758265638435e+08  5.3196499815052629e+08  5.0898420760167873e+08  1.7580576449666652e+08  5.4084039511772677e+07  5.3401866216434136e+07  5.3532299005232088e+07  1.1272302913118918e+09  2.1173891735011518e+08  4.8874644022222424e+08  6.5690519605415866e+07  6.4314406796718001e+07  1.0434581764814425e+08  3.8141804485330117e+08  1.5288278442898574e+08  1.5710724887681144e+08  5.7493828840415880e+07  1.7979466258859169e+08  1.5536434711582832e+09  6.3331528138828874e+07  4.7526827507998236e+07  1.1792559289708123e+08  1.4756785418728220e+09  5.8137322397401989e+07  9.7136856905339777e+07  9.4577993911774740e+07  9.1055204107536077e+07  3.7427418238039529e+08  1.2746333472771454e+09  1.3186082883765419e+09  1.3514204597044785e+09  6.1065540193838008e+07  2.5750659177143639e+08  1.5319501368600693e+09  5.7845650852343656e+07  6.9372625757882997e+07  2.9530263051345628e+08  3.1878769716471732e+08  7.4609090118786752e+08  5.9708839964379661e+07  9.8411208216093659e+07  7.3080076904291713e+08  9.6150734937736869e+08  5.6787112455193257e+08  5.9502366014472961e+08  8.2570447548183426e+07  6.5653438997452796e+08  8.3356951785414770e+07  1.5219025352779384e+09  5.3006234743485682e+07  8.5982016029997408e+07  2.3634262407051083e+08  1.1292609489872403e+08  6.2346085581762247e+07  7.9312203605910346e+07  9.3122451798382759e+07  6.9758523758089826e+07  8.4357457711037397e+08  7.1879062610449418e+07  6.2182435204723381e+07  5.8132183808615759e+07  2.9473979358696026e+08  2.7695146791874218e+08  5.8402211796274446e+07  3.8770307936382055e+08  3.8594975886622930e+08  3.4936546225451881e+08  9.8794602145364201e+08  1.3280602420837492e+08  5.2341036964812863e+08  1.1496378372219661e+08  2.5199628315320227e+08  1.1532412230108848e+08  1.1078237328352340e+08  1.3671954223719668e+08  5.5757511428530121e+08  5.4553240031602120e+08  1.4698428722859755e+09  7.3836948524424434e+07  7.6344824507151380e+07  7.6223760882643536e+07  1.6285418495632419e+08  6.4559255972646333e+07  1.9335110944387683e+08  2.2937931685495046e+08  5.6283432330180988e+07  9.2516325073207647e+07  8.1708733217821509e+07  6.9790018816103280e+07  5.6801420789970922e+08  6.2046020635869372e+08  7.9663951883938104e+07  3.8106473882788354e+08  5.9406342977688745e+07  1.1380444861147571e+08  7.3720301879596972e+08  1.7951718410135895e+08  3.4853760935187697e+08  1.2857829727032910e+08  7.3257475052638963e+07  7.5139810701618716e+07  1.3455706068693531e+08  6.6022486972215080e+08  8.9392688024601117e+07  8.8402333982428408e+08  1.4378696556507020e+09  1.3229905265443847e+08  1.4664718589278588e+08  4.5867527967599940e+08  6.4710710463457681e+07  6.3532225171761192e+07  6.3282954420798950e+07  7.6731489591507018e+07  1.2718299308463652e+09  1.2829548952887161e+09  1.2057161055424504e+09  1.1779297794591260e+09  5.8546821236163425e+08  5.7725082771012020e+08  5.3164648921904081e+08  5.3359756530118716e+08  5.8276351084413864e+07  5.7666626737980329e+07  7.3386884716349959e+07  5.7580217079572625e+07  5.2651370653295940e+08  1.4284666221207492e+09  5.4971149707100496e+07  5.6253983139331609e+07  5.7440917517475104e+08  5.8709731054753400e+07  5.7267159141126119e+07  5.6379414316317596e+07  5.7195887153194085e+07  1.5377603636389871e+09  5.9886399930347234e+07  5.2210268058887556e+07  7.1826962593444943e+08  1.6267310028467653e+09  2.1098965050661570e+08  2.5274707277311614e+08  1.5594036684697643e+08  7.4646771369754523e+07  3.8241003585841602e+08  4.6330509868497121e+08  4.2870489782900393e+08  9.8199743877808917e+08  1.2804938826397027e+08  8.2508860462340012e+07  8.2387514480994612e+07  3.6770957831526816e+08  6.5349109390872583e+07  6.5430599620412782e+07  8.1027867804846719e+07  8.3384839091847166e+07  6.6811794131513333e+08  1.5637681030494134e+09  1.5939314677802818e+09  5.8439733240098767e+07  6.6245567649881154e+07  6.6335937538842611e+07  2.8013059515725654e+08  7.2335378107282519e+08  7.1320137701087594e+08  6.8966822647728932e+08  7.5031071972968102e+08  7.8006707411463821e+08  1.0353983557101463e+09  7.4792827473620251e+07  4.6121846481697035e+08  5.8680357965347499e+07  7.3725302284357131e+08  9.1566098020635873e+07  5.9454895218486704e+07  7.3882694782612145e+07  9.8668630059172884e+07  1.6702824493671688e+08  6.2955919196243691e+08  3.2251587618846029e+08  5.6287497964399181e+07  4.1587657663579082e+08  3.1791819981246197e+08  6.6793094846001315e+08  7.6916904939710841e+07  9.7609419611131921e+07  9.7124156576179314e+08  6.1072798899084911e+07  1.4390676314784420e+09  7.6601877720048234e+07  1.1849535435079768e+09  1.1358955659574633e+09  1.1651885063735785e+09  1.0916712586638308e+08  1.0433108587288488e+09  9.6824446961767972e+07  1.0634984006767973e+09  5.0492044575599343e+07  1.5412000324962335e+09  1.6059643647613044e+09  9.5843237525415972e+07  1.0166618564152758e+08  6.6129249492177799e+07  5.7488083012748933e+08  6.0609921749097872e+08  6.2416906455644143e+08  3.7665528446824622e+08  3.4886866047239631e+08  3.5536211709849656e+08  6.0827520148920462e+07  9.5718702640111840e+08  8.0029871855770457e+08  2.8500574388382220e+08  6.3817610538796827e+07  6.8179951532255912e+08  4.4583591373451775e+08  9.2202115784289077e+07  6.0004064333815947e+07  6.0171595394662052e+07  6.0631111635316461e+07  1.2764205190215755e+09  7.0492272542421281e+07  1.3426550226561794e+08  5.9474416440464303e+07  1.2544756046722993e+08  7.7017945168592668e+08  7.7272361321289182e+08  7.2845742604530007e+07  6.0785677465037234e+07  5.7990515039019845e+07  5.4659685880926096e+08  1.0149775575530630e+09  9.6836022007113171e+08  5.8093053928913116e+07  2.4881110237575936e+08  8.1818310343226659e+08  2.7085146267106462e+08  1.5324478172759143e+08  1.4638191240669179e+08  1.1456239575027270e+09  5.9036209025466591e+07  7.8601093964953315e+08  8.0239815263041639e+08  7.6900274173446810e+08  2.7684626945879048e+08  3.6315774089559901e+08  6.8252963602310330e+07  1.2025995474008276e+09  1.2323902268141418e+09  6.5457489979599178e+08  1.4309118525956163e+09  1.4933092886034124e+09  7.2194301305205494e+07  7.4473604615410134e+07  5.6626521796721530e+08  5.5085218239943475e+07  5.7806590171063893e+07  5.7580544564293034e+07  4.0181673599781477e+08  1.0648810950355444e+09  9.8826665621807307e+07  6.5165889543794326e+07  8.2038865193165034e+07  1.3866943532568712e+09  1.3606217795465951e+09  1.2450825970529904e+09  9.1624498070958245e+08  7.0701325732800290e+07  5.7504559680815387e+08  1.6077699837328932e+09  6.4839705815009579e+07  5.8624316491963141e+07  9.5410783332682595e+07  6.7914031800549090e+08  6.4635570287846744e+07  1.9227105592209464e+08  1.1390276900549363e+08  1.2527302588534842e+09  1.1973440684090209e+09  5.7826372385072947e+07  5.9461140253839701e+07  1.4486457619512209e+08  1.3423177263987714e+08  1.4015244326539257e+08  3.4684501106706554e+08  5.9024876821676552e+07  5.7672027256590396e+07  6.0791321800468020e+07  6.0575719758345194e+07  6.1204069482758209e+07  9.9211282991494191e+08  9.1435555578346455e+08  9.0340269022952840e+07  8.5623344701400563e+07  1.6062797800757167e+09  9.2758229059447482e+07  9.5684814083824262e+07  3.9987052224462360e+08  5.5518756704059231e+08  1.2805746102923384e+09  2.9675694500739551e+08  2.7636303431897110e+08  3.0169213278260916e+08  6.9063550902272296e+08  8.9956827354079053e+07  5.1626966915151015e+07  9.7693304076354206e+07  8.4967854908243942e+08  8.4009155811416829e+08  9.8791186065275288e+08  6.2645892827845350e+07  6.3103141478339009e+07  6.3382946027028605e+07  2.3582550602419311e+08  6.1646162926333010e+07  6.1459902243024155e+07  5.8920006651272886e+07  7.6794238468511298e+07  6.3998396211850286e+07  5.9021377365441099e+07  3.4152786900317895e+08  3.5960388429074121e+08  8.4171511709016308e+07  8.6063206328445628e+07  1.5994402460683012e+09  3.7818793596597689e+08  1.0685988289871737e+09  1.4252732384806049e+09  1.0512803368143038e+08  1.3011423967631500e+09  1.6240098712402480e+09  8.2105639780833006e+07  1.4408089047535191e+09  1.1126087828327896e+08  5.8760191461087063e+07  1.2421979885371795e+08  1.2317742720487151e+08  1.1611204035040495e+08  5.0708936867436349e+07  6.1770604090087660e+07  6.7087867039216273e+07  5.5480236340400606e+07  9.0345579013184592e+07  7.7703481960739478e+07  7.8111498917288437e+07  8.0074578160228401e+07  8.5966492730901730e+08  9.2104167072306836e+08  5.7820148537331849e+07  9.9492323790106416e+07  1.0426536631476222e+08  5.9077565074173439e+08  6.3381768210646594e+08  1.9352849602191773e+08  1.6059002951325636e+09  5.9737720883918665e+07  6.0016792053975254e+07  8.3063948072953016e+07  8.0270687763854012e+07  5.8553991573744215e+07  5.2666727041313328e+07  1.1863194311783328e+09  3.8699939551512170e+08  8.3253412658424425e+08  1.6345355091048038e+09  6.3232828837095439e+07  1.4864963504862598e+08  1.5664125289127743e+08  1.6067482619361389e+09  2.4656380972306862e+08  3.3426964578518981e+08  1.4987853104819818e+09  5.7452182945734188e+07  5.7689793383047804e+07  1.9735687802688631e+08  2.0122054853287023e+08  2.1448333405216438e+08  1.0675394620742306e+09  5.9682644673590720e+07  3.7985794565387458e+08  1.7011682338015702e+08  7.6397562040234661e+08  1.0915450297273956e+08  1.4135454396064663e+08  5.8926541966147549e+07  5.7922582145421952e+07  1.5556762657083392e+09  1.6053869990552933e+09  3.5574646137435424e+08  3.3174388134896111e+08  7.1336904977603719e+07  2.1349137654775476e+08  3.3167636765699673e+08  3.4489816587288040e+08  3.0806102518151647e+08  7.1441851346919096e+08  1.3283033237541938e+08  1.4288608928454289e+08  6.2718540596600294e+07  5.7680616206917793e+07  6.5774367715725496e+07  8.2576015104232717e+08  7.7821900629508305e+08  7.6479974668954492e+08  1.2934735725791991e+09  2.7648663338525009e+08  5.8620966987644374e+07  6.6007295733098462e+07  1.1047629561197293e+09  6.7757336375246391e+07  6.0072016808062233e+07  2.0272256547228053e+08  1.1361730197907557e+09  6.7051503724926256e+07  8.3811287650839388e+07  8.1300291461579716e+08  8.9307071031125891e+08  1.1809879646620367e+09  1.2577187414001272e+09  1.1472587426284498e+08  4.1840151690555400e+08  1.9837027807455263e+08  2.2252420919346687e+08  7.6265256969727889e+07  8.1527519050874090e+08  5.9719508799796186e+07  1.4869345365063515e+08  1.4379481209376674e+09  1.3928442089149737e+09  1.4748262677528567e+09  6.0218613773655012e+07  1.5530541559584716e+08  1.9625744066891232e+08  6.0577917177085362e+07  1.3452308800911415e+08  1.4639591653997359e+08  1.5518185198202870e+09  4.8577483641681924e+07  9.3372239260087878e+07  1.3091732049328051e+09  5.8210063329490028e+07  7.5811574507748649e+07  9.3303063107202244e+08  8.9940392082112861e+08  2.1469927610127017e+08  6.1125362757276803e+07  2.5212290992297971e+08  6.0376277880719274e+07  1.1263700877628658e+09  7.3001528620528960e+08  5.9526027828549400e+07  8.5767230778002858e+07  8.3691117397262648e+07  1.2426862757866998e+09  5.4559567760167509e+07  1.1075241152856323e+08  1.1063437649191283e+08  1.0195374656376740e+08  1.1980672974198980e+09  1.1126924103485094e+08  1.0539386788765265e+08  1.1276250150777350e+08  8.3716278309988275e+07  2.8693888400961190e+08  2.9017169587870061e+08  5.9591895381879628e+07  5.9525819327224478e+07  5.9015722541216135e+07  1.4922259183851962e+09  5.2268277228451386e+07  6.2101822502001010e+07  6.0471066816168852e+07  5.8490830180580191e+07  1.2601309754248556e+08  6.5893133982521072e+07  6.4801262727651455e+07  6.4738909764965832e+07  5.9168870510081135e+07  1.5713159416838533e+08  4.1425314991184354e+08  1.3510217221150154e+08  6.8108162690235436e+07  6.2955796797873288e+07  6.3797999672889516e+07  6.3944014976346649e+07  6.3274184903666593e+07  3.3716175856584126e+08  9.5139807750520647e+07  3.1823073630921143e+08  1.4095515157560721e+08  2.0989985663537604e+08  2.0055769019192567e+08  2.1108761350970444e+08  1.0264903476101681e+09  9.7703819149002767e+08  4.3174679511051619e+08  4.7415582350611150e+08  3.9148593051338899e+08  1.1961161992412308e+08  1.0475069565404174e+08  1.1524224638696105e+09  1.2971741090664983e+08  5.8452518503599465e+07  3.9871733218345767e+08  5.4227207306660533e+08  6.0952497226933479e+07  9.4728430648456544e+07  7.7064506698822200e+08  4.8508658167905390e+08  1.5361952039414749e+09  2.1628242108075678e+08  9.7561924533611703e+08  8.2016901946499085e+08  6.4055435140835948e+07  3.9091875117411941e+08  2.6132968191475588e+08  1.5602608353693616e+09  7.1786322219887972e+07  3.4962442110698092e+08  3.8196031526271206e+08  3.5894332544427669e+08  7.9286621973009932e+08  1.8005208531277326e+08  1.7488457798119098e+08  1.6283712947712618e+08  7.3045283276325971e+07  7.2702268100922510e+07  1.3761870380044289e+09  6.2419073075928330e+07  1.7758767433961356e+09  5.0541172516440034e+07  5.7755011552184708e+07  1.1225743267192787e+08  1.2112099357035996e+08  2.8060658525735408e+08  5.2308903392175859e+08  5.3325282556974375e+08  2.8833096811404622e+08  9.7580574231338108e+08  4.4735605318992245e+08  1.1964313941740555e+08  1.6275119158985910e+08  1.8041909182026225e+08  1.7509256182608923e+08  5.6343213069149025e+07  7.0135625367898166e+08  6.2474117007998444e+07  1.1778625616724290e+08  6.0523122846797264e+08  5.9455722279952683e+07  7.1572780150203303e+07  1.4827446421035799e+08  5.8870314473444238e+07  7.1813303227928448e+08  1.0547990494456750e+09  4.3173426532528681e+08  7.1649964682449579e+08  6.8363859828805459e+08  6.2569246805369288e+07  1.9457981546605954e+08  7.3237571151804662e+08  9.7063318757471710e+07  4.5482584035882676e+08  4.1921841002122241e+08  4.1294240187518442e+08  1.2978173476614623e+09  5.9769965407788217e+07  6.3578748079622388e+07  2.5021008892213577e+08  2.7604341625971144e+08  2.5943559483777460e+08  1.6331511350227766e+09  4.0024548070514828e+08  1.0362509197000723e+09  1.6339542465258417e+08  6.0988625599807598e+07  2.2197232804648665e+08  1.9990496522615790e+08  3.1237927055721205e+08  5.7881355134052679e+07  7.7898048483384240e+08  5.0827754983995205e+08  6.0627068986141495e+07  5.9951467430783316e+07  1.7456589736810705e+08  6.4177915226983257e+07  6.0188595463179596e+07  1.0050888971558268e+08  5.9630126206813730e+07  2.4000377069625011e+08  2.4623700584413609e+08  3.7713605910490668e+08  6.8750089770049736e+07  2.0896123586105546e+08  7.1740665134319735e+08  1.8841452754889923e+08  6.7970612503167629e+07  7.2059578000929087e+07  1.5469093321570846e+08  2.8636132164195061e+08  1.9455564550287643e+08  5.7736145095095694e+07  6.5515397743356571e+07  4.2369382230627990e+08  4.7652698273181564e+08  1.0895732322551384e+09  1.7343821044913408e+08  2.1960503600169215e+08  6.0262038392544433e+07  3.3686065857738400e+08  3.3831863787081289e+08  5.9598497510909766e+07  1.5039892892600462e+08  5.0191712429364197e+07  1.0101633382169298e+09  8.5497336123419905e+08  1.0027873746373512e+08  2.4899779091468486e+08  6.1815984345366180e+07  6.1929597750413135e+07  6.2359031979213655e+07  3.3391651504532397e+08  1.1780446656493036e+08  1.1248202528270943e+08  6.3750801659896612e+07  6.2712060154604971e+07  8.6020811516114637e+07  1.3166892323424903e+08  6.0816550109204650e+08  1.4922609655020099e+09  1.4536765760885317e+09  6.2310889476295471e+07  5.5456592623339283e+08  7.4499997769138145e+08  7.3639853969027722e+08  6.8517567230763876e+08  6.7797102226116753e+08  8.5671296361760497e+07  8.8044792004623190e+07  1.3682864025505081e+08  1.3097133337252913e+08  6.6107328957905114e+07  1.0861783592955446e+09  5.9045847025537245e+07  6.8714211808062732e+07  6.4442585693658873e+07  6.6411509963020466e+07  9.3696683668686140e+08  1.2679239544737200e+08  5.0411497518590532e+07  7.4591475347290456e+07  7.5625631894840136e+07  6.0960680955155373e+08  6.0247806112843730e+07  8.0033296626901567e+07  7.3543176787190244e+07  8.0154758161501616e+07  5.1859651344121808e+08  3.5418396154764521e+08  1.4425336457685122e+09  6.2664719733416706e+07  8.1871121932378292e+07  5.9532945609704487e+07  5.7979266569645368e+07  1.6365680597892973e+08  1.7222187300143811e+08  1.7891138176680356e+08  1.1180382449829772e+09  1.5447172838050804e+09  5.2567916859613222e+08  1.3486658720754755e+08  3.0242533857121438e+08  6.0083362712328136e+07  2.9654910226400548e+08  6.2888490150095537e+07  5.7695108045196861e+07  7.3895959594534114e+07  7.8572691873252720e+07  7.9633096056119323e+07  8.0221187082691774e+07  1.1505618150318654e+09  7.8235085627533153e+07  5.7773231735037461e+07  5.7630322569235861e+07  6.3017987910175964e+07  6.1002892037257485e+07  7.6074297352539048e+07  1.3762101419350207e+09  1.2973296781998496e+09  8.9482379769551623e+08  1.3281239931241372e+09  1.3606382166037049e+09  8.3506570914705551e+08  5.9606767767531946e+07  7.1070497316634440e+08  6.5156298990595031e+08  5.4189928298849535e+08  5.1123067195791662e+08  6.8145073841171420e+08  3.2335970233876675e+08  3.4574414764598167e+08  1.1559007572202171e+08  5.9234848587064721e+07  7.9798305272299275e+07  6.1954746194157228e+07  5.9551107103300013e+07  3.8634931854091132e+08  3.6726209198429525e+08  1.6293117807338002e+09  1.8791223387881160e+08  1.5183879307365525e+08  1.0936147226847258e+08  1.0227267684150211e+09  5.8725819101716571e+07  7.6504191597508386e+07  7.2333267292820975e+07  7.3059398896329534e+08  9.3065256246775374e+07  9.5015037666395485e+07  9.7964081783950016e+07  1.2558811387452203e+08  1.2714800243890378e+09  1.2075391200135279e+09  5.1564678912631094e+07  4.0987778834412622e+08  7.7179063868558973e+07  1.3577743994664037e+08  1.3864222803112847e+08  1.3699418487166816e+08  1.4904097744286251e+08  1.2697377714575620e+08  2.0273043850928354e+08  7.3103685074806070e+08  7.4976339829905236e+08  5.8861393497151487e+07  5.9957246577746637e+07  1.8108823690974197e+08  6.1204811586626716e+07  5.6736168172784245e+08  1.0755459854491894e+08  1.1396584202982815e+08  1.2503474369200110e+09  2.2460496362936258e+08  6.6094079953175850e+07  1.2606025663345325e+08  6.0523266236924671e+07  8.4282983251465559e+07  9.2943821455298638e+08  3.3740634720739383e+08  8.4024881979551780e+08  5.6959718754143640e+07  2.5524415234941116e+08  5.2523096358731961e+08  3.4122433530694139e+08  6.2955044930254541e+07  7.9355221871718037e+08  6.5798199661613800e+07  6.0001532689862214e+07  6.0159293400776431e+07  8.2518363233396247e+07  8.2226961580783069e+07  6.0317876859096698e+07  5.7897459205174372e+07  5.7794781964218788e+07  1.2794817358024337e+09  2.5350981599746320e+08  2.7049766695111299e+08  8.9613314746034229e+08  1.0723584941352160e+08  7.5151483115933910e+07  1.2976951719144456e+09  7.9367957161446166e+08  7.5388783572815195e+07  1.0707102000893813e+09  1.4886227935263505e+09  5.9399789707811110e+07  6.1523993933706298e+07  6.5311111632070489e+07  6.4423218455464296e+07  6.0512928228123859e+07  6.0817883376910493e+07  8.5581106270631170e+08  8.4289343355252433e+08  6.0062757880359478e+07  6.0480027075188987e+07  5.0219269691947889e+08  1.4197697478865438e+09  1.8679181962199637e+08  1.0270386991342551e+08  8.7052766412084305e+08  6.6936195049087808e+07  2.8135073616610342e+08  9.3377088227177238e+08  2.2097709986436945e+08  3.0442830335762793e+08  3.0662934764007485e+08  1.6650344955371511e+09  5.3260154486683959e+08  1.4636964416534348e+09  4.3772239673411012e+08  3.3046171315540403e+08  3.0253285444658947e+08  1.3639309503717716e+09  1.3088362218277018e+09  5.9073855415612817e+07  9.0207234106552973e+07  5.7071108158928938e+07  6.6850347816036515e+07  6.9028806834183350e+07  2.1391548021986189e+08  6.6740110787660730e+08  5.8954685832063779e+07  5.9379708569459833e+07  1.1218332373985050e+09  7.8915680343556786e+08  8.2145196951581299e+08  2.0661674289887112e+08  2.0557268772903073e+08  7.5295294680878901e+08  5.5654170208642490e+07  9.6951740776385352e+07  1.1677266680214067e+09  5.8211014755123116e+07  1.4303708498983607e+09  3.5808519973041952e+08  3.5060584621316266e+08  3.8748462048581749e+08  6.3831920554998219e+07  7.5273864701749787e+07  6.5646095787130266e+07  1.6373659279143491e+08  7.9745597080759838e+07  3.1935472245268899e+08  3.0544072200886995e+08  6.1821621694432664e+08  4.8076141201855195e+08  5.0515888128711385e+08  4.5321461073127973e+08  2.5480689273394999e+08  9.9841804887386039e+07  6.3787605893210813e+07  1.3242218076313052e+09  1.0540365313720831e+09  1.0677237308595116e+09  1.1142661890561376e+09  1.0354909708609549e+09  9.8975207983033621e+08  9.7645255717686713e+08  7.4977951110815871e+08  5.2499475378429002e+08  5.9166371107307032e+07  1.4330260718549027e+09  5.4905481463517383e+07  5.5532882909886681e+07  5.6792666430458918e+07  8.9815124885495797e+07  1.1899664304803833e+08  5.1677416357253677e+08  2.7743373832529676e+08  2.8747731423657912e+08  1.2489786400602534e+08  6.9850570466814101e+07  5.3415002935383409e+08  1.3489244086422187e+08  1.1782405331628191e+09  6.5059937849760115e+08  1.7492712971834939e+09  8.8220717653954530e+08  9.1487387453403211e+08  4.0370202533384073e+08  3.6173228616384971e+08  1.9391861052617475e+08  1.8531539689069843e+08  3.2206441980422848e+08  1.0194742534759868e+09  8.6579941071932912e+08  1.1377164265146297e+08  7.1693176412590936e+07  5.1165339570332521e+08  8.6401130084448770e+07  7.4218756476783216e+07  7.0929203146421820e+07  7.2009845547467396e+07  4.4049558241649097e+08  4.8089457728502625e+08  4.4571303130482996e+08  1.3968379698526272e+08  6.9377877016618669e+07  6.8352918163358063e+07  1.2107402245501733e+09  5.7680500386139229e+07  5.7757358696984582e+07  1.5009484313845742e+08  1.4281198141760662e+08  5.8394629917651340e+07  6.4234827178568713e+07  6.9790183143529803e+07  2.3488192302332029e+08  1.5697794572841206e+08  6.8952789769425011e+08  6.7917082080820441e+07  6.7827620662887156e+07  6.1175417424946010e+07  6.2035053417687565e+07  5.1929428691928083e+08  8.5299712274506658e+07  5.9644989026651599e+07  5.9610864607972659e+07  1.0324529158285004e+09  5.0355013161209083e+08  4.8435572926796138e+08  1.4804337225555247e+08  1.3444730294737113e+08  5.9496222595680736e+07  5.9108939735522784e+07  5.9382682510389991e+07  5.9079674632933386e+07  5.9515716019223854e+07  4.1655652068059009e+08  5.4316358306847863e+07  5.5187871981942758e+07  5.3657554966447175e+07  1.1338248536568694e+08  2.1828976635566089e+08  1.3219852597446744e+09  2.1931738468867707e+08  9.3456251725541756e+07  6.5766120633499110e+08  6.6519961189514875e+08  6.1873356024680823e+07  1.4647876252950320e+09  5.9368370255068111e+08  8.0953113481142843e+08  7.7404248896738029e+08  2.6146258497312042e+08  5.9623783914045423e+07  5.8759014129362799e+07  5.7778477625654913e+07  6.5396497842912979e+07  6.2698333747769818e+07  2.3005194459789640e+08  1.1197456012043626e+09  5.3525849076576419e+07  1.5617616485955236e+09  1.5807552073959033e+09  1.7908713673689398e+08  9.5558068315391684e+08  5.8542845353102408e+07  6.0525774261850789e+07  6.0348438736721054e+07  1.8560467383894610e+08  1.7978204758756286e+08  1.6714511431573495e+08  6.0432279527191900e+07  7.8468329400442258e+07  1.2295580552495432e+09  6.8669416026035368e+07  3.9249881961412859e+08  8.6744517469718322e+07  2.5814663554800823e+08  7.7344197567330033e+07  7.8894882458915442e+07  7.4777589267867893e+07  8.1932455633490264e+07  5.7777918061890334e+07  7.1005537914007634e+07  7.2363707133077860e+07  7.2988908962459207e+07  2.6111546349774569e+08  1.4152264824771851e+08  3.1403290246994942e+08  2.5163634128451872e+08  6.6543825493540190e+07  4.2118417899312419e+08  8.1525805945918417e+08  7.4770070444559979e+08  1.0023371677514908e+08  6.7136646597748026e+07  1.7749709345302230e+08  1.3227479885292130e+09  6.7011989765563004e+07  6.9356791472544348e+08  8.1459103721158415e+07  5.7487101219813931e+08  1.5110318737724407e+09  8.7622180261511421e+08  9.4216967587812686e+08  3.0746598091940892e+08  3.3827505784291238e+07  1.6810718411632892e+08  1.7043616624561754e+08  1.7421479290347627e+08  5.8080360723765790e+07  5.7718576721171372e+07  2.6276071811316195e+08  1.5113148503888640e+09  1.5274639860422726e+09  1.6031701009586878e+09  1.5700987573083611e+09  6.6038899330150910e+07  7.4354998778339660e+08  5.8601060728071585e+07  3.2182991188428062e+08  2.7253339334166372e+08  2.6181883577602604e+08  1.1324646239603469e+09  1.7802096488398814e+08  5.6789841546023083e+08  5.7934367559780931e+08  4.5312128780272263e+08  1.3628300284715667e+09  5.6706178335761487e+07  5.6530306928330846e+07  7.5290363456915885e+07  5.8738318288087301e+07  1.4585578788205383e+09  5.6112321847462714e+08  7.5799066715495849e+08  5.2817463036301337e+07  7.8068092900751069e+07  1.2522148842984137e+08  1.2557755589516015e+08  2.3729274248910731e+08  1.2414069553467047e+09  6.1986755730038278e+07  7.3401811949181330e+08  8.4765091696061641e+07  8.1062647075126871e+07  6.7169283257237422e+08  8.9863794666460901e+07  5.8420743603954814e+07  2.1052049224557674e+08  5.4124161397218311e+08  8.7817618693415463e+08  6.5304927698219515e+07  5.2238140199233539e+07  8.0422630353276297e+07  1.4963302596577351e+09  2.1037153967644143e+08  2.2112938038124937e+08  5.4300665703359537e+07  1.7152457425483444e+08  2.2023595560665277e+08  5.9426706426871225e+07  4.9258680474713898e+08  5.8430059878704935e+07  7.3372108763685808e+07  3.5767035074411249e+08  3.7482761671497065e+08  3.4149776314033335e+08  5.9010541430886857e+07  5.7610395804662019e+07  5.8572668474871904e+07  5.7838473548008494e+07  8.0067087620381653e+08  1.0198249300130317e+09  7.4164379344765067e+07  1.1412199130814724e+09  1.0945620704397137e+09  9.9657991608915091e+08  1.0173917804884720e+08  2.4021914337229022e+08  2.3445062018239003e+08  6.0675744326584846e+07  1.0970088201907554e+09  6.6301990357530427e+08  4.0977967298748225e+08  1.4779532341598098e+09  1.4678351153197408e+09  8.2502460174561337e+07  2.0819513718832618e+08  7.1944828498668790e+07  4.9761860621608078e+07  5.9207299013720143e+08  5.1389335701143585e+07  9.0871027758720958e+08  5.1637014268110222e+08  4.8197706125870878e+08  2.0982609540349731e+08  6.6287789809872508e+08  8.6011594288874984e+07  6.0713968909431346e+07  5.8636523182498440e+07  7.3065795964713782e+07  7.3900899255748168e+07  2.3422885341960320e+08  1.4459503918247435e+09  8.9117733778905427e+08  8.6316354831804410e+07  7.7510741264210150e+07  1.5104447456851399e+08  1.5433780432692462e+08  6.3332192822380245e+07  1.1284192139958010e+09  5.8119765126753360e+07  1.6093109774656231e+09  5.8040916784296006e+07  5.3979876623024797e+08  8.1705769800426170e+07  9.6650092255182290e+08  6.1841780948781587e+07  1.4994720676547116e+08  1.6314144617499683e+09  8.3216312127471119e+07  1.2269488470474305e+09  1.4699274266094310e+09  1.4256398794721205e+09  5.7654663921660624e+07  5.7561220898913480e+07  6.4532680052444518e+08  6.1141946565544091e+07  1.2205764392312300e+09  6.9871237179827794e+07  1.7050522523587337e+08  7.8031547720623896e+07  7.7270208948971522e+08  7.4725043155479744e+07  7.7079195395438001e+07  6.4868997928088093e+08  7.1515857633535886e+08  5.7964193909972198e+07  5.8145054378096193e+07  5.7926708414232925e+07  1.6577568030944809e+08  1.7909366112648773e+08  1.8308346651919192e+08  1.8925852733497956e+08  1.9291963313436216e+08  5.9342738544958794e+08  6.0041491724256031e+07  6.1540884278174259e+07  8.3192016760104239e+07  8.5056939643315941e+07  8.7200838200809121e+07  1.6339247505211943e+08  1.5707477184204942e+08  1.4898506334531799e+08  4.5308758428431338e+08  7.1942808277201682e+07  4.4282912540316880e+08  1.7169410968942907e+08  1.8794144775909030e+08  8.2492708360308290e+08  1.4123505405850174e+09  1.1339907453076538e+08  5.6009923496753439e+07  5.6736545954686418e+07  2.8608850393747169e+08  2.5113787422082835e+08  1.0394815580747105e+09  6.3817068289617062e+07  3.3886031478442270e+08  2.2470486919569984e+08  1.0972613902419241e+08  7.1165249093426108e+07  6.8431382755301759e+07  6.3480170822664630e+08  1.4127579941112275e+09  5.6658555213315114e+07  1.2997095686085556e+09  6.2210380018179163e+07  1.2120518903449215e+08  1.5162381263699849e+09  3.1868454411723810e+08  5.5146567281290412e+08  5.9870980884343795e+07  5.8226226405015379e+07  1.1223122425005860e+09  6.0125296990218472e+08  7.6387428372952843e+08  5.9430233083379589e+07  4.3868087129640013e+08  1.4094545295370517e+09  1.4393137577591174e+09  6.0106478819007680e+07  5.2067754590655424e+07  5.7750877158896565e+07  5.7784422998238146e+07  5.7819758840791017e+07  9.4305175667079639e+08  9.0571689492390203e+08  3.3671721577981591e+08  9.1287377315377116e+08  4.2527406315669465e+08  4.7393710585606229e+08  9.2956060510173649e+07  7.0298859633301288e+07  6.3628308840378471e+07  3.2086217458738053e+08  1.7409419238817301e+08  1.7040461830820021e+08  8.9906879314211762e+08  5.9935837243313491e+07  5.9368325953853518e+07  5.9727088634897821e+07  1.2759223105893883e+08  2.2072080215642881e+08  1.1509332824581432e+09  1.2223360307812223e+09  1.1832822417779548e+09  7.7923383151190475e+07  2.0773277237942469e+08  5.8125466024493217e+07  5.8660768020087779e+07  1.2390772272878881e+09  6.0459882930718511e+07  1.4662095265404451e+08  1.3639671431819287e+08  1.3582056712505639e+08  1.3308861093111724e+08  7.1630777524511263e+07  7.4044141755230576e+07  6.8688667022499040e+07  1.2320520674974606e+09  1.9601169864247704e+08  5.5699018323786177e+07  2.5762809759487683e+08  2.7687721043537521e+08  8.6801505108313709e+07  3.7551730544236326e+08  7.3815333898210198e+07  1.0736446336865636e+09  5.7452076785462208e+07  6.6717080588005495e+08  3.5687355379170728e+08  1.4357711917130113e+09  9.8541882839387819e+07  5.9349205664503336e+07  1.0061130289245795e+08  8.7187025481444150e+07  7.8923273263135865e+07  6.2887058609789237e+07  5.7927274351100251e+07  5.7907708649721973e+07  8.8915504760072768e+08  8.3767432013270497e+08  6.7827683275485754e+07  6.7947263994955927e+07  5.8229627044645652e+07  1.1461070341907005e+08  9.9792712778857315e+08  1.0879598130228164e+09  7.8462360292894408e+07  6.0472584384959869e+07  2.0856289496261880e+08  1.4328528188454933e+09  4.0515946019748563e+08  1.5764696877862675e+09  2.2980354925466233e+08  6.3805281865016222e+07  6.1349793750989527e+07  5.2743916162306249e+08  4.9447421599185985e+08  4.8434450651901382e+08  5.7914607209758408e+07  9.7862062568952441e+08  7.9357032325424552e+07  1.3662481032546582e+09  7.3825339703381419e+07  2.8189077715497023e+08  8.8741478967199549e+07  5.9235708940328963e+07  7.5139962218641639e+07  1.3456654914477625e+09  1.4382245286832291e+08  5.9021304825882375e+07  5.9354722448295645e+07  3.6626558030774927e+08  1.5841252304148772e+09  5.7837776737261504e+07  5.9011263530385680e+07  9.8744490745188403e+08  1.9180912257536033e+08  2.8906228638990259e+08  1.4627777061187083e+08  1.4582958111462986e+09  8.0821651113760248e+07  7.7872950788071990e+07  5.7494924793156818e+07  5.6071761777085245e+08  1.1311432511612859e+09  1.1277409666710753e+09  1.0652893620331584e+09  4.9211623582478005e+08  1.1877605051714287e+09  5.8965566453717053e+07  5.8722012261043280e+07  5.8557975700170077e+07  5.9294385359281011e+07  2.0794690654634488e+08  3.6359103088547248e+08  1.2074546135985980e+09  1.1611560986560993e+09  1.2710278450382679e+09  8.7232619464427680e+07  6.5651969702248144e+08  1.0260110674339810e+08  5.5950268570945702e+07  1.6089873069762793e+09  1.1365057352209848e+08  6.0513390974548914e+07  9.2892937929724306e+07  9.6567953030085281e+07  9.0802540898085669e+07  2.2567078636029956e+08  2.3843278905188355e+08  4.6346980771089101e+08  8.5074488245889232e+07  8.5943949996450961e+07  1.1244594774781921e+09  6.1021298497637220e+07  6.7117007089334238e+08  8.7756833969119751e+08  5.5600656502310634e+08  1.1845858150946406e+08  1.1942578326699436e+08  7.7644309629702851e+07  5.9371406260993794e+07  6.5523748336935386e+07  2.6250770270132113e+08  1.3639093171752489e+09  1.5513275755841942e+09  1.6087903454544015e+09  2.4541516872616729e+08  8.4703095893527997e+08  6.2376439684144951e+07  1.6292168548304560e+09  1.1476542629697967e+09  5.2120978933591175e+08  6.2637919824802244e+08  5.9355186745234050e+07  8.2709576488552845e+08  1.5072142639046898e+09  5.8470090243538737e+07  2.2205542396990067e+08  2.0778895418508950e+08  7.9366739048542345e+08  6.4662788567280567e+08  4.3029662354694146e+08  4.8037358679907382e+08  1.0663488607693954e+09  7.8441170132148421e+08  7.4421745216494548e+08  1.0003270350154104e+09  1.5559734520005730e+08  1.4663033093136531e+08  6.0057261510358274e+07  1.1717903574643822e+09  1.1490097717068713e+09  1.2097882609919226e+09  3.6893658352277750e+08  1.0733328495049816e+09  9.8262845843174517e+07  1.0377413158988822e+08  5.7639089069654852e+07  2.0501320580140272e+08  1.0727410955023740e+08  6.7927676977051288e+07  1.3377071796685545e+09  5.9921675687482364e+07  1.1916508146250668e+08  1.1228047074836367e+08  1.1000270896117752e+09  6.8250334668751526e+08  6.9240768552725089e+08  1.8034537744906029e+08  6.2983026233291842e+07  7.2637017864647686e+07  1.7400594615321630e+08  8.9070908001527101e+07  4.5902550337526768e+08  5.6994913456630789e+07  3.0471601214386648e+08  9.3795603920517936e+07  6.4137808751092099e+07  6.2502219771800101e+07  7.0345947651402280e+07  4.0851207916482311e+08  2.0219515629530284e+08  4.8420843484898067e+08  5.8069574982411794e+07  1.7307782634582227e+08  7.8510544075703293e+07  5.9168297642690696e+07  5.8239555598310970e+07  8.1879239064985633e+08  1.1960601372356585e+08  3.2941887615316725e+08  1.3223551503015542e+08  1.2442982418979432e+08  1.2668311839406814e+08  8.3514935776490140e+08  8.7439967721093976e+08  3.5963503114128661e+08  4.0574538947869897e+07  1.0955920484037945e+08  6.6495331774111056e+08  5.8746051140093125e+07  6.7167655990161270e+07  6.8546993650989413e+07  1.8277638811842075e+08  1.9355235601166108e+08  4.6243603192801660e+08  7.1239068033085182e+07  1.8268283272753298e+08  5.3980843508721709e+07  1.2156019117720842e+09  9.0864758419486284e+08  1.2628184327348669e+09  1.3242765233564594e+09  2.0026230769797713e+08  1.9970361411265716e+08  1.8939047188520125e+08  5.9352315906915911e+07  1.3758317866049852e+09  1.3297587588677709e+09  1.4076003104529388e+09  5.7866044011225946e+07  1.6061950529676526e+09  6.7000219500210918e+07  6.5230026360553451e+07  6.2273963514731698e+07  9.8384421085766506e+08  9.6658660231141150e+08  9.2348764578086460e+08  7.8764773018105596e+07  6.4365592461428918e+07  7.4317925704689145e+08  7.6036829178626716e+08  7.2310389378886557e+08  8.4090192490870762e+08  8.9329024679967046e+08  8.3960612048525006e+07  5.2062886166283615e+07  5.0599742186714120e+07  1.3324802649676826e+09  6.5964182141289197e+07  2.9325736656336343e+08  5.9426958138751999e+07  7.2754290019719258e+07  9.4594608143179879e+07  8.6846052695961863e+07  8.5082603236364543e+07  8.8516662699885800e+07  1.2757646743125622e+09  8.4957057403788462e+07  8.9258232747940958e+07  6.0318655872114360e+07  1.2954814078492556e+09  5.7814514259646840e+07  8.9038539608560371e+08  1.0086613595128080e+08  7.8120579404337943e+07  7.7014035320629910e+07  7.5532432094645828e+07  6.6771081541717243e+08  6.3783972015333831e+08  6.9029590336187077e+08  9.1059908204616934e+07  8.8700424381912470e+08  9.0672337886512327e+08  5.8008237916266263e+07  5.7974709196835831e+07  5.8010474469122030e+07  4.8910435432893592e+08  6.6295109278968728e+08  5.4970574389678299e+08  5.1764514024341983e+08  8.8479657218480960e+07  9.2290056179924443e+07  9.1598668251675591e+07  8.9200651046236306e+07  6.2274493522463858e+07  4.6851792329626185e+08  4.4306186346768278e+08  1.1557867488339922e+09  2.7099432952030694e+08  2.7030006256725055e+08  2.9307843712007987e+08  7.0149226788609251e+07  6.8857205481425703e+07  6.8422881862775952e+07  6.0021126428033650e+07  6.4601539608099274e+07  2.0110097334049594e+08  3.0255236321591681e+08  1.3979561366444272e+08  2.4931272353147948e+08  1.8674385854271540e+08  2.3484085223910636e+08  2.3036053145301422e+08  2.5169861968019545e+08  2.6977890932843411e+08  1.7804257957692379e+08  1.3822876636251932e+08  2.1736247627821779e+08  1.6634739993982759e+08  2.6903719203921795e+08  3.8471002309895545e+08  1.8736978812539643e+08  1.8919774079365534e+08  2.0550617591270676e+08  3.8326627859631348e+08  2.5058473749078295e+08  2.3263521431786239e+08  2.3340955855801198e+08  2.0185599772523469e+08  3.5426046468103224e+08  3.0518699212178087e+08  2.8828210815340239e+08  1.4894510766216904e+08  1.5835175878331625e+08  2.0353337900664914e+08  1.9084594657170895e+08  1.4819931901653928e+08  1.6917633855336323e+08  2.7079593524788284e+08  1.4580078153636187e+08  2.9107117281292170e+08  2.1767165614684880e+08  2.1685370835007039e+08  3.5525216313641739e+08  2.5097318097167778e+08  1.5581120978022301e+08  1.5345019657498747e+08  1.5713348783208850e+08  1.4774363598015568e+08  3.3019957380053633e+08  3.2919236351984489e+08  1.7616274621770665e+08  1.6538962398572776e+08  2.7160516245154971e+08  1.5635037743707302e+08  6.3542347937474333e+07  5.0668412650161691e+07  1.7869914213804099e+08  1.3566494725234060e+09  6.4622951560808957e+07  9.0864874144235933e+08  5.2951714594726014e+08  1.0792308973122983e+08  7.6272798011652812e+07  1.5224604745415432e+09  1.5479268313198225e+09  5.7947606848519444e+07  2.6132764100722444e+08  2.5240264144062990e+08  5.9071058536230087e+07  5.8970202519738309e+07  1.3598744975059301e+08  1.3222910123547272e+08  1.2655532124989255e+08  7.3559688483095133e+08  7.4578883842815900e+08  1.0043318406225288e+09  1.0397278975095704e+09  1.3914018349730713e+09  1.3330428571975057e+08  1.5099067756202564e+08  2.1398100884165391e+08  6.9577626902698308e+07  6.3718028983079642e+07  6.4492967765100971e+07  3.6913218694337887e+08  5.6009927436446674e+07  9.0109658059397042e+07  9.0545304215630203e+07  5.2788600510515660e+07  5.7849074963176206e+07  5.9466449537878796e+07  5.8979708432929903e+07  4.7907937471448791e+08  5.9202912835962988e+07  1.5502959175101397e+09  1.1826610983839226e+09  1.1394794645564766e+09  7.0462396389592648e+07  7.5234743095787972e+07  5.0774067187440151e+08  9.1392609065382624e+08  4.6363129191639788e+07  1.9159076211172128e+08  8.7382613915236741e+07  1.0253820772948561e+09  1.0654596442917897e+09  1.3984442182857230e+09  1.3364785406628499e+09  6.7140025557397023e+07  5.9807647801184297e+08  4.6356631677080327e+08  4.8547516513539201e+08  1.7860295226245886e+08  1.6083985519743648e+08  1.7458350720964122e+08  1.2182554470382643e+08  5.6780437850886829e+07  5.7680951395395271e+07  1.6304551465714214e+09  6.1878774751232974e+07  8.6741466598125741e+07  6.8839325031739533e+07  5.3352644237939382e+08  5.5168272758976154e+07  1.6277888527640371e+09  1.1703096050134048e+09  1.3831880326489501e+09  5.9997146231160946e+07  6.0629983992708229e+07  6.1512884487858325e+07  5.7667423120668285e+07  5.7968573397963054e+07  3.6259198641514003e+08  8.6982913245516753e+08  4.8463313532735389e+08  1.0044838370233299e+08  8.8821266101156092e+08  9.1101610355823195e+08  6.1355721802311346e+07  9.8709650548454627e+07  1.5402832275143349e+08  1.4505492500078437e+08  9.0673155043536678e+07  1.1980639915990973e+08  5.9238055075091273e+07  6.1924242932285577e+07  6.2294068434069306e+07  9.1124663809340149e+07  6.4149014548960015e+07  6.2386090622171246e+07  6.2809002177564226e+07  7.3201256495639563e+08  1.0184543691472772e+08  8.6177402215534955e+07  1.2924946578010915e+08  3.9386836614496624e+08  5.8212893680781811e+07  7.0493189096604198e+07  7.5201521965714544e+07  7.9807242428457499e+07  6.6945162264368165e+08  5.8012251300695568e+07  5.8049557666898258e+07  1.1448686687544007e+09  5.8559423732133046e+07  7.2571734657698885e+07  4.0564001366247243e+08  1.3335649103487474e+08  6.5894582540894341e+08  5.9911371618342236e+07  8.7349038122928238e+08  1.5896483789498620e+09  4.8683771874747641e+07  8.6240586949522734e+07  5.4790652521580957e+07  6.5013925223343000e+07  1.0956738211941187e+09  9.7076215514852226e+08  1.0309024873206381e+09  9.0968211191004023e+07  9.6198434475726068e+07  9.5741386783337176e+07  1.1162018067454465e+08  8.3141284715250105e+07  5.9463171075342320e+07  5.2808450211867952e+08  6.3238262782576330e+07  1.3048108775136349e+08  1.1821202062589367e+08  4.5326135385431796e+08  5.8326215382184401e+07  1.0782364359767747e+09  6.1945418265150619e+08  1.4153568243134210e+09  9.9264308054368842e+08  6.4126888001516664e+08  9.7372701190768826e+08  1.5563612755601337e+09  4.7035461339837027e+08  5.8776320385960095e+07  5.3498383655394576e+07  1.9196436048877215e+08  1.7987180158307397e+08  1.7813179853586143e+08  1.2126904773689485e+09  1.2511344845843153e+09  7.0407973864808574e+07  1.6718460428081429e+08  1.2012669090422184e+09  6.5020753921384163e+07  6.5437684629324012e+07  1.2641997332800087e+08  1.1047866437851501e+08  1.1599484976445815e+08  6.3364259937772140e+07  5.9372331761900365e+07  8.8280059437533712e+08  5.7001116368899338e+07  5.7772513075430445e+07  5.5192032164447449e+07  1.6020346417662108e+09  4.0923678227457088e+08  1.1967004226124282e+09  2.6762865563334236e+08  5.8101502682698943e+07  9.3598485659194374e+08  6.1248623205012441e+07  1.4214981006983271e+09  6.3833922767637479e+08  5.9317647940732263e+07  5.8053670652321450e+07  2.1639139819709933e+08  1.1727463657543603e+08  7.1912212686846077e+07  6.7286248731019273e+07  7.5118714478881061e+07  7.3263359249838099e+07  5.7469610562068987e+08  7.8446906152794945e+08  1.2360308010179470e+09  7.5267421013637602e+07  1.8264496784559193e+08  2.8150609684723628e+08  6.1763435644385779e+08  7.7950958686086106e+08  1.1752751668153836e+08  1.1130801569456887e+08  5.5897408389001839e+07  1.0658136986697656e+08  7.0763367686158943e+08  7.0968787759509087e+07  1.2761599053320970e+08  5.7920353888410568e+07  6.7080118654615290e+07  1.6321733340872891e+09  2.4502324976110700e+08  5.8821613940409034e+07  6.0161935268505201e+07  1.1047927119298352e+08  6.2624351742047243e+07  5.7879949664959438e+07  5.7829627802684575e+07  2.9278633002236658e+08  7.4103037560681379e+08  8.1730364077001369e+08  6.1523553472717047e+07  1.0673125055412495e+09  1.2938205391056919e+08  7.2188236687773854e+07  3.3788896265859002e+08  7.8132602908776075e+07  9.7895718550643647e+08  9.4137869510807633e+07  1.9247238031684244e+08  1.8277762161073008e+08  8.3683356658059731e+07  4.8164259952954412e+08  9.5791426415827966e+08  6.9729344924285519e+08  1.2311091256020762e+08  1.0391334926253746e+08  1.0012685925663179e+08  2.6233959409552282e+08  9.5352875483098492e+07  5.7974655406706832e+07  5.8106132158253394e+07  5.8017319035248443e+07  3.2059206421534342e+08  1.7427288292704356e+08  7.2192915306753471e+07  8.3999034417627335e+07  1.2600435781216416e+09  9.9896189326114327e+07  5.8251031160834201e+07  7.9996503032491118e+07  6.0741577322050013e+07  5.6596461621722603e+08  5.3783682401998591e+08  1.2252182540889339e+09  4.6283160405137295e+08  4.4492278852530497e+08  5.8821730994863242e+07  5.9044183107194386e+07  5.8567361934199758e+07  5.7994270191486157e+07  9.5990721572890043e+08  6.2068581675751157e+07  4.8490694733076692e+07  4.9017846497197278e+07  1.0018134569151181e+08  1.3014341579102955e+09  2.6374542704391232e+08  2.7272358280659842e+08  2.4792206935676047e+08  5.9148050738201641e+07  6.0846491268192448e+07  5.9636486438872188e+07  1.5069883820428634e+09  5.9040061798418865e+07  5.9048123322168492e+07  6.2309863360683762e+07  6.3757797753796883e+07  6.4301345077567108e+07  1.3132360067398746e+09  5.6565086244203341e+08  5.7911325715762734e+08  5.8459714278647041e+08  6.8901787721310842e+08  7.0527503576860264e+07  1.7691243262454528e+08  5.9623135992326163e+07  1.5096401792651348e+09  5.7637684984948322e+07  7.1313200870789319e+07  6.9766501254902110e+07  7.1647305006792814e+07  6.8238324912104264e+07  3.1701790327418160e+08  1.1672202962548973e+08  1.0185121731894562e+08  7.3201532706651866e+07  5.8911903430578671e+07  1.6132164613706991e+08  9.5902975804737836e+07  1.6504974016421297e+09  3.0259808475953984e+08  7.9001450376780003e+07  5.7006699788766623e+07  5.9378441749932982e+07  6.3081853720955119e+07  6.3504344302310199e+07  1.4678136924841037e+09  7.2006341048105705e+08  1.2997619999476635e+09  1.3562197679579465e+09  6.0756982559825981e+08  7.4380082142758811e+08  7.4170104200858653e+08  6.6239016172741160e+07  8.3546711384923100e+07  5.8583053087276727e+07  5.7764849538501048e+08  7.0547940128608966e+08  5.5026405840695187e+07  1.0188627922615532e+09  1.0202771635140712e+09  7.8595282251789749e+08  5.0004948262824094e+08  5.7843616243748941e+07  1.0276012976575480e+08  5.8195636360080749e+07  5.8296878724610426e+07  4.4957031409337503e+08  5.3320605406920716e+07  5.4383485791861385e+07  1.8998643195048848e+08  7.7134105873725295e+08  1.5984189719908149e+09  4.4295454042804790e+08  1.3833074055148470e+09  1.1810667233311734e+09  6.1528555000342369e+08  3.7342825673887604e+08  3.9058866215092939e+08  6.5252076132345513e+07  8.6286767376733407e+07  6.0010938472395793e+07  5.8236204048374198e+07  3.4988206023080015e+08  4.3480861987828285e+07  5.8857729760694154e+07  1.5372258875372934e+08  5.2968859232258432e+07  6.8043282845251635e+07  6.2017351199251592e+07  5.0432237451803607e+08  1.3001749086195815e+09  1.3556856882293408e+09  2.3525062037933680e+08  1.2208657297022197e+09  9.0106541163357243e+07  6.7910075684239280e+08  1.0274952049920323e+09  1.1786961369201681e+08  6.0915505499198747e+08  8.3354234887514949e+07  1.5409222269716126e+08  3.2854518497623968e+08  1.6214902597340302e+09  1.4073323405950707e+08  1.4044831474414542e+08  1.5126481587501484e+08  5.9224430740340255e+07  6.8977195182268843e+07  9.1569864288882911e+07  3.0814936785344225e+08  7.2861379790925875e+07  3.5087578852846754e+08  6.1083539517424025e+07  6.7259597824125156e+07  4.7407968974676317e+08  9.5645600452712536e+07  7.5821451746920002e+08  8.1111995940531325e+08  7.6412566185575616e+08  1.8411614598553759e+08  1.4990455568974623e+08  3.7255851995096463e+08  1.9915476847156027e+08  1.8623145255305669e+08  4.1793255261798680e+08  3.8887500720764726e+08  3.7881899453030461e+08  6.5500140074697995e+08  6.1081551950411379e+08  6.3807279977224851e+08  7.1840596901337102e+07  6.6126656174954787e+07  1.4149477339288148e+08  2.1630080887270093e+08  1.0312581689566242e+09  1.3632985367794313e+09  6.9493429204892114e+07  5.3992630441551864e+07  1.3040052910998166e+08  9.6285231861694610e+08  7.1168107383268607e+08  6.5271975860151792e+08  6.6890593914745843e+08  6.2915157242674083e+07  6.2830498072218806e+07  6.3952359203970574e+07  2.9904853923660439e+08  3.0151080278854090e+08  9.5504629826435947e+08  1.1422888159822823e+08  5.9233770687347102e+08  7.6110105690082717e+08  9.6891015210651696e+07  1.0529831143914688e+08  5.9191090809172750e+07  3.3795410855374110e+08  6.8686867028339267e+07  7.8818140134866223e+07  2.0253880389977711e+08  3.7503580122719717e+08  7.5636081377944499e+07  9.1521130160283789e+07  8.6887065453875333e+07  1.3718786553028431e+09  6.3429771161890097e+07  9.7261170868258357e+07  6.2578230092234619e+07  1.1553468161644140e+08  2.2281827472519338e+08  1.2871290601561298e+09  1.4349414742607992e+09  6.2426572126968548e+07  1.5618802852294736e+09  3.2514186358915448e+08  5.5956863494137608e+07  1.9304405338871011e+08  1.3306699884318925e+08  1.3814673062596732e+08  1.0241861726571633e+09  5.7914576704408176e+07  6.4805188611357920e+07  8.5419020269651079e+08  5.8721868657334730e+07  8.0976586915680945e+08  1.9995949791128409e+08  6.1695243477391101e+07  1.1578361044641091e+08  3.0840410188532186e+08  6.7294862387095004e+07  7.1019414309418380e+08  5.7685004070329022e+08  6.1331516689598060e+08  9.4878041157516986e+07  6.4126579914450601e+07  6.1494400475984775e+07  6.1944987358802907e+07  6.2042922180424526e+07  1.3404104290261879e+09  9.0337183710434809e+07  9.5033731875731945e+07  5.3441489105407560e+08  5.7702961262046434e+07  8.3291987843800020e+08  1.4072549833006468e+09  1.0436226647325929e+09  5.1145735440830106e+08  1.1942866438838328e+08  1.2927023735347631e+09  5.9584146438260451e+07  5.8788297779569104e+07  6.2779924485382371e+07  8.2352567312831402e+07  8.3466885455013767e+07  4.4208653587050325e+08  4.2188497687444729e+08  4.0189005786625803e+08  6.0331862286399022e+07  6.0522782043617778e+07  2.1849109961563110e+08  1.2312716659504075e+09  1.1805568899116018e+09  4.2496846703603917e+08  5.6609543582935512e+08  5.2389822541112494e+08  1.4269793292105021e+09  4.9612610391381949e+08  6.6542434857195854e+07  6.9012619841131926e+07  6.7512158495295078e+07  5.7936683620060042e+07  1.3056074741581645e+09  6.7589985926252171e+07  7.2201972165609285e+07  2.9464730953167486e+08  7.7988960738607928e+07  5.3069657621842158e+08  1.1659774329539468e+09  8.6931198543044180e+07  5.9566137027406305e+07  6.8504914151479483e+07  3.4453828294064477e+07  3.2240629052322838e+07  8.4933650205986726e+08  8.5679958410047865e+08  9.0256427954059005e+08  4.1344830713662595e+08  9.7449804263590872e+08  6.9468481163043261e+07  5.9288539239171669e+07  1.1498670455585167e+08  1.1132400013639341e+08  1.2138075342080754e+08  4.6327458446042083e+07  4.3322011668851130e+07  4.7368677829904199e+07  1.0750137322522482e+08  1.2239560256207895e+09  1.2745762716145098e+09  1.2008213874122527e+09  6.5113346128761053e+07  5.3321071249637216e+08  1.0505490229028983e+08  7.4500174263485408e+08  6.1869771173952430e+07  1.4197383926507056e+08  3.4390262711375839e+08  6.7160461677223191e+07  6.5205807609361619e+07  4.9205681414589542e+08  3.3723264047203428e+08  1.6903004914413366e+08  5.7857739399873391e+07  5.0656137632387763e+08  2.3515257475441453e+08  4.2277890635451490e+08  5.0278296337394452e+08  9.8049786906238043e+08  1.0292315496863625e+09  1.0567904687511706e+09  6.6827708595456921e+07  6.7617006097904518e+07  6.7839625358425900e+07  1.3393026507374828e+09  7.5220650686372846e+07  1.5133633731261213e+09  3.9079980370867157e+08  3.2399582660851824e+08  5.8790390727940954e+07  1.3924613346016189e+08  1.3106177178027766e+09  1.4706145421089381e+08  1.5115447752744484e+08  1.6025462146114832e+08  3.2614012052656907e+08  8.0350927385714874e+07  2.1593878844798642e+08  6.8823016083680406e+07  2.3336747849272573e+08  2.1840535989847788e+08  2.2762684422488409e+08  3.5522383053668290e+08  4.8084723393684280e+08  7.1761500683812574e+07  4.4553629272302055e+08  5.8438353863282137e+07  4.1031597108235747e+08  5.8096400490351416e+07  5.7870927155781686e+07  1.0816313412915058e+08  1.4286143979309997e+08  5.7575783794456176e+07  1.1760252070239256e+08  1.6178808034557180e+09  2.0621564289468881e+08  9.1449573430807126e+08  7.0243904828031674e+07  6.0580015471284956e+07  5.4007514072089732e+07  1.1841209943841219e+08  5.7651265997166723e+07  8.7177035674749643e+07  5.9773879558449470e+07  9.8328967679322451e+07  9.9147557228648543e+07  1.0518790292816071e+08  5.9421350188029535e+07  6.4517187580902016e+08  8.5783243991392744e+08  1.3247156933512988e+09  1.3194492222187819e+09  5.8294581602905072e+07  1.6067682410221913e+09  6.1098729103631444e+07  8.9757610949435163e+08  7.9376537731020582e+08  6.1618573267341107e+07  2.4970679463258603e+08  1.1609181376947002e+09  5.2483655310779995e+08  1.3007743325244865e+09  5.5688637698516977e+08  4.8540145424204743e+08  7.1458099505882517e+07  7.1730100840768859e+07  7.0659923812248856e+07  1.4204599594707999e+08  1.1108366495253326e+08  2.5258605546835053e+08  5.5417206722586945e+07  5.4909610446172260e+07  5.5403390792354591e+07  5.9078417927846961e+07  1.0198408656898842e+09  9.6849313915993834e+08  9.8058079916505277e+08  6.8721021251229346e+08  1.7388650557563955e+08  7.3289041021672234e+07  5.8592053802235067e+07  9.5794549277651703e+08  1.2381153952208915e+08  1.6333470804533153e+09  1.6078158717680316e+09  4.0736074244961226e+08  1.4278892273238876e+09  6.2868900834816241e+08  7.5120880791480407e+07  7.7675909393609524e+07  7.6573328519151211e+07  5.9207935630365901e+07  8.2275682649344355e+07  8.7514753634865090e+07  8.6970060162131116e+07  5.8522496795056596e+07  6.1837816661834240e+07  1.5636875840183413e+08  4.7663638796777761e+08  6.6767536233479962e+07  6.4360373785945274e+07  6.5916051359492350e+08  2.2558467754123992e+08  5.7747463203904510e+07  5.7731666696693376e+07  5.8632972573714368e+07  2.9095700849529052e+08  1.1391558601970156e+08  1.4844453221363707e+09  7.6090640840439066e+07  1.6136971644472454e+09  1.0796606209177675e+09  2.6819421345053551e+08  1.1101377886263676e+09  7.4168305429337993e+07  9.1838239884999394e+07  6.6680381395759031e+07  1.4297268355647905e+09  1.3552833359955211e+09  7.0107879973508790e+07  7.0527687613042399e+07  7.0802721706635773e+07  1.2927928086444499e+09  5.9061345532138638e+07  5.7832423540788352e+07  5.9650361255627501e+08  2.6754936378451297e+08  6.2923002295322254e+07  5.8722445600241296e+07  5.7646182560403235e+07  5.7551347622224778e+07  5.7344672851645827e+07  5.7615889499634154e+07  6.2188839638138182e+07  2.9648139107674164e+08  3.1978687741221201e+08  3.1053885698372263e+08  1.0725829348279579e+09  5.2738588995938498e+08  7.0477577981724128e+07  8.7329994481511247e+08  1.4471826498637280e+08  5.4457745184788609e+08  1.5038518784198682e+09  7.1083049060852036e+07  7.0747853457242116e+07  1.5908228113443756e+08  2.0475143371939209e+08  6.7005441773942515e+07  1.1463361418801084e+09  2.7866029895112085e+08  9.8818483927785027e+08  9.6844174226445854e+08  1.3553266341182661e+08  3.2386120496841091e+08  5.6936961324286357e+07  5.6651032033639066e+07  5.7497306155341044e+07  2.4162604304629356e+08  2.5435372104655910e+08  3.1126185279873258e+08  5.7451556340956450e+07  5.7579738692767873e+07  6.7439840518549681e+07  5.9609311760395825e+07  1.0002365896401660e+09  1.6930228249203296e+09  6.6252442008714892e+07  6.7578536383660287e+07  8.4398548342839599e+08  8.5411681258888423e+08  7.1073593673679993e+07  5.5571586925608742e+08  5.0907890631501329e+08  1.9490157084175754e+08  8.2752457756171316e+07  5.9325589495071545e+07  1.0442789193371651e+08  3.7337913078298098e+08  1.0422390253287517e+09  1.9030085634626906e+09  1.0047960739153148e+08  1.0437841489880589e+08  1.0423138919737680e+08  6.1572775182520859e+07  1.0441607423522679e+09  5.7503077246844463e+07  6.3857207309550442e+07  1.2049064042297454e+08  5.9110749628115982e+07  2.7506918291500795e+08  8.9920558653518271e+08  1.6181040775197205e+08  1.5610705938173094e+09  6.6544873673177347e+07  5.7571509427564465e+07  1.2472858193981332e+08  1.2614451244306919e+08  1.3534390099290398e+08  2.1073855628049743e+08  3.5393604312757987e+08  1.5331588320173352e+09  6.5761895902359962e+07  7.8106471846793383e+07  7.4771499752587008e+08  1.2274248840150983e+09  8.2421855190837264e+07  1.6085156879842231e+09  1.5203923947240803e+08  2.9946094398174620e+08  2.7515553153061646e+08  1.5639205779864073e+09  7.0172116211803079e+07  5.7568067145294532e+07  6.4224634498675466e+07  6.7152289053013885e+08  1.5358643143050608e+08  1.5672518999020228e+08  1.5209959392369077e+08  1.3673807796629071e+09  5.9906180260460317e+07  1.5951908539785010e+08  8.0615491422871840e+08  1.1411137679468589e+09  6.0705594110989332e+07  5.4216194485453105e+08  1.4382645536034417e+09  5.5866411751356828e+08  5.9065478211935019e+08  6.0604979225887263e+08  5.9052196712562835e+08  5.1892336608420229e+08  5.4995931916683626e+08  5.6712692291423953e+08  1.6158485476197782e+09  7.3698434391872063e+07  1.0407002568322714e+08  2.7514034034164482e+08  6.9012434478386119e+07  6.4123374889465541e+07  6.2271965309578486e+07  9.4554316141597316e+07  6.1718729715530552e+07  3.3097410774628991e+08  2.1831837197375670e+08  2.2480624180502680e+08  5.8880408519834593e+07  6.1239409184451945e+07  1.0961330172904332e+08  5.9994654724890165e+07  1.4805396983725762e+09  2.9010321289356005e+08  5.9983960889443047e+07  6.8204185078974277e+07  3.9135029253141457e+08  5.6703767951916941e+07  6.0386581297118120e+07  6.5512624977555645e+08  6.0256129893020369e+07  2.6492786122224250e+08  2.5972109137795532e+08  6.5425462049633645e+07  7.7704836069729447e+07  6.2630120659325592e+07  9.2953961033068970e+07  4.6239053753175810e+07  2.9453064988194191e+08  1.4510732973156044e+08  6.6804679830523527e+08  7.1056364972960308e+07  8.2494753485847786e+07  8.1996874790150359e+07  1.4938339942410202e+09  5.9663071495456636e+07  4.6829923138350952e+08  1.6128433913429379e+09  5.4550038447826043e+07  1.1805575340585701e+09  7.2897177220744610e+08  1.2356831536163534e+08  5.1767802413844056e+07  1.1009775082822595e+09  1.0853970833850037e+08  1.0294592780122806e+08  1.0059812577749285e+08  1.4332575938135965e+09  3.6297220408063066e+08  6.2262330958908066e+07  1.1854386748037760e+08  5.7583102597585455e+07  1.9258618754603511e+08  9.8191081263224316e+08  1.0407687421413206e+09  6.6799305515637375e+07  6.3752419877828881e+07  1.0506995218363198e+09  9.0789179748484105e+07  8.9559552892314151e+07  1.2680786496677251e+09  8.5070725154128626e+07  1.1335208771823769e+09  2.5763033266278118e+08  1.3742864585613725e+08  5.9248738707896598e+07  1.7151235071273628e+08  1.4628342897426481e+09  9.8721197665243864e+08  1.3239150416296923e+09  5.3393495799171157e+07  1.1540366815453987e+08  1.2327204602895583e+08  2.4090836701908025e+08  6.1688470669890597e+07  7.7582475028698504e+07  3.0806156031961977e+08  6.7940476894655958e+07  1.6348110336719775e+09  9.9635033889865422e+08  2.9222458420127964e+08  2.0818428743884996e+08  1.6151498458019750e+07  3.1177963176940318e+07  6.9240849477776915e+07  1.0374559542482115e+08  1.5342567430450497e+09  1.2620807263595724e+09  1.6442777904296103e+09  9.3291463751812607e+07  6.0167378510779440e+07  5.8764753295333512e+07  5.8900350845315874e+07  5.9274690034050174e+07  5.9461524262981683e+07  3.3919895881786990e+08  1.2985625483270841e+09  7.9505930756455705e+07  6.2180507914488733e+07  7.3028003591571063e+07  7.3230832740250275e+07  7.0704813500010133e+07  8.8082868689542198e+08  5.6492083947627917e+07  5.6807640657916829e+07  5.6480201704439044e+07  1.3469170555769291e+09  2.6741360443561271e+08  2.5805561001836413e+08  1.5292303056248934e+09  6.8634188502945113e+08  2.1146642537321749e+08  4.7650530875495189e+08  4.3748040446675342e+08  2.9391451020181566e+08  6.1180052765861988e+07  3.4146843398061401e+08  2.5556245206826144e+08  7.7995597304652393e+08  6.2769519983011596e+07  2.2203092700243777e+08  5.9761763675952427e+07  1.1956363693405564e+08  9.7678684958726215e+08  9.2311546958250988e+08  9.3980123773020232e+08  1.0664521904955646e+08  1.3477131147796339e+08  1.3514621394571000e+08  1.1151868428248416e+08  5.7727052180314995e+07  1.8432416265896890e+08  9.6002680625946373e+07  8.8902362934052899e+07  2.5111415504645687e+08  6.6582291859401666e+07  7.4372168043774545e+07  8.5703085955054224e+07  6.8812848609767109e+07  7.2235780349712104e+07  8.2039868463325226e+08  4.3112972376364216e+07  3.9990291883375816e+07  1.4438840172922167e+08  6.2336294990171097e+07  3.0260869766988343e+08  9.0713270467818081e+08  7.1912381201793051e+08  1.7868189004460829e+08  6.2342923502178364e+07  3.6619334241295296e+08  7.0412531648956910e+07  2.3715361532163620e+08  2.5703660453218797e+08  2.6224314022315827e+08  6.2821612056945845e+07  4.6899227279166222e+08  9.2909377312406147e+08  6.1237855581076838e+07  6.4825197256890364e+07  6.4327379549204424e+07  6.5708969385500729e+07  5.8553591841766402e+07  5.5978517876105928e+08  5.6731885616629946e+08  6.5074773037333079e+07  6.0310561459192894e+07  6.0576793062387399e+07  7.1666403621588305e+07  3.5004932091268080e+08  4.0147337871081007e+08  4.3555846475758922e+08  3.9457622552317202e+08  9.0406389460101187e+08  6.5033082094099581e+08  8.6379905885656759e+07  1.3189595778998590e+09  3.0042920449056703e+08  1.1410671399623185e+08  1.0586046234182860e+09  8.8032192206402624e+08  6.3839153915588543e+07  3.2242173700818831e+08  7.6009416390661335e+08  4.2397384282770437e+08  6.8221408005095527e+07  9.0337248838955581e+07  6.1770536848805554e+07  1.6541750876411626e+09  4.9874678100528473e+08  4.6182000521846759e+08  8.3404564204211816e+07  1.3408612361343281e+09  5.7577190779657923e+07  1.2323208420872062e+08  1.2439739725165007e+08  8.2586460090486452e+07  1.9956407196632215e+08  2.0207027575662246e+08  6.2464347850649677e+07  6.3271463902811326e+07  6.5627464882339031e+07  1.6033795374526307e+08  6.2698448773443550e+07  7.3297540120975956e+07  1.0958964254746215e+08  1.5902431250455752e+08  1.2337186111296980e+09  4.5597581783382285e+08  1.1125673783618772e+09  7.7717849217216659e+08  1.0629903457293198e+08  1.0452067127627067e+08  1.0023500675707299e+08  6.4899792735108882e+07  6.6625765818770491e+07  6.9001877770113021e+07  6.1327579735814951e+07  6.1927380619730279e+07  6.1271042657504387e+07  9.1434213233693469e+08  9.9472344502627373e+08  3.0353623241970223e+08  1.9794491216978970e+08  5.8445587262966521e+07  4.0698281008281909e+07  1.0395724265837026e+09  9.6967788217388499e+08  1.1688687175997634e+09  8.2036676253020895e+08  6.2678936729003042e+07  1.0492599207175106e+09  1.0319140426333187e+09  1.3265548379872964e+08  7.3630790951860845e+07  6.9552916820798486e+07  6.9820498471399784e+07  6.8191500402568966e+07  2.7112222980562720e+07  5.7959633710652553e+07  5.7884642873453282e+07  7.6425279753424251e+08  6.4596985411509740e+08  6.2722805694893610e+08  6.8132292913806474e+08  9.9829222100141808e+07  1.4694308578351948e+08  9.5008925912061587e+07  6.6074996321996860e+07  6.6923834465117276e+07  2.8400297229613161e+08  2.4995924776835233e+08  5.8306073525479041e+07  1.6318426731017852e+08  1.2346592288824499e+09  1.2856516759800825e+09  1.2985598106633468e+09  1.2184959820811119e+09  1.2138581817290333e+08  5.6995421152037573e+08  6.1243181091381168e+08  8.7596457508003458e+07  7.1501174805842668e+07  1.6835602566009730e+08  8.3585450401712701e+07  7.4159414523187637e+07  7.5984286510637388e+07  5.7782816951746985e+07  1.4173668673415394e+09  5.7779554165132359e+07  1.3016752308196120e+09  1.2622415823290358e+09  5.9683833050944015e+07  5.9241783459894881e+07  5.9860111420523100e+07  2.8785482736057276e+08  2.7434257143865114e+08  2.8010983792215919e+08  1.0287534491440798e+08  8.1258836049073279e+08  8.2517838389364874e+08  8.0550547321045291e+08  6.3045520612440157e+08  2.6207698372478670e+08  6.3966979825290275e+08  8.2827235466734540e+08  6.1264084373110935e+07  2.6439676068546000e+08  2.5140029554515141e+08  1.6070463292669493e+08  6.6648652565426540e+08  1.6269805006124907e+09  2.3907136567735881e+08  1.4067214827891555e+09  5.3996668269426361e+07  1.3666934611971280e+08  5.7856643702805184e+07  2.4524680686401150e+08  2.5927091201734135e+08  7.0541547681369853e+08  6.7494565098637068e+08  1.7708764639359674e+08  1.7446418717799124e+08  5.8519015736687817e+07  1.6643341998990375e+08  1.2041475692828168e+08  1.2684255577080116e+08  1.3070690816079713e+08  5.8528032543717131e+07  1.6582542165837669e+08  1.6907901883773398e+08  3.6812603155685830e+08  8.1835980709612966e+07  1.0776404824951115e+09  8.0913527094752848e+07  2.8246526621324438e+08  6.9126639317767489e+08  6.4760889087840453e+07  6.3609252394070461e+07  6.3732499188398145e+07  7.5177754016850024e+07  6.3262469456245564e+07  5.5331653893860781e+08  5.1072536989378011e+08  5.8547582182797112e+07  2.9275722240712547e+08  2.4411513828854081e+08  1.3557414993680396e+09  1.0193444139926629e+09  2.9277590597599316e+08  2.7126509616066456e+08  2.9529453292251265e+08  6.1413820665531412e+07  6.0910400657938085e+07  1.6155708866313844e+09  6.2782749961994588e+07  6.6752163480091050e+07  5.8431250151056334e+07  1.6308172783217921e+09  1.6077198588615551e+09  6.0353234681770481e+07  6.0252928453409903e+07  1.7068508071424010e+08  3.8079355252408361e+08  5.2045493833714688e+08  4.1084372462671864e+08  8.7963386698777288e+07  3.8127740195863318e+08  1.2258708870153656e+09  1.1303423117349429e+08  5.3601336687760431e+08  2.9259413780408341e+08  5.6631095788680561e+07  7.7095956005884337e+08  8.2059555680100858e+08  7.9561056457082009e+08  6.0940536160582207e+07  3.6770831398923546e+08  1.4401391228979394e+08  1.2738806072990968e+09  6.7589889940503085e+08  5.7802534587018095e+07  8.4225731248170400e+08  3.5462889745116764e+08  1.7625045239273334e+08  5.9936545633767605e+07  9.6633568934057385e+07  7.8705092776247650e+07  5.8744651341093078e+07  1.1475238913727968e+09  1.3493357222749584e+09  1.3640644457752216e+08  1.4029988950711465e+09  1.4040387740249379e+09  1.0316078681327280e+09  1.0101787694995577e+09  8.8898130573665023e+08  9.1254723669167352e+08  1.6213155957748854e+09  1.0155827620987755e+08  6.4021324432038677e+08  1.1334859008189252e+08  7.8915128069271672e+08  9.1762526641673207e+08  2.3084077871237347e+08  3.8166613389396727e+08  3.4915747341281247e+08  6.2161441487164803e+07  7.3624011714207900e+08  9.1564801936448896e+08  5.8576515096712478e+07  6.0093552275745220e+07  2.7456736881151319e+08  3.2341225435667229e+08  2.1646980655206200e+08  2.0884317011346444e+08  1.1665439425900666e+08  6.0705543444828294e+07  6.0489697192838557e+07  6.0128932473825641e+07  7.9246356345809209e+08  3.4309663281776857e+08  3.7129338909413946e+08  3.8631268145056641e+08  3.5200285343846852e+08  8.0319097731568590e+07  7.0411511689797550e+07  5.7828692077026658e+07  1.1376639963389368e+09  7.9488252802256286e+07  3.1774964526405030e+08  7.4827645515677512e+07  2.9468233026188797e+08  6.2816273683677554e+08  6.5052574128224397e+08  1.5768500089539318e+09  1.4936940546200793e+09  6.3441598392774418e+07  7.6375346260105264e+08  1.2732141983525047e+08  1.3116465834399816e+08  1.0464406307098912e+08  1.0386053946420214e+08  4.3114776921514648e+08  4.3722571309146321e+08  9.5028865131597966e+07  7.7786962771039808e+08  1.7923856235028893e+08  1.8049265084835163e+08  6.9326166275179297e+07  5.1992255757167429e+08  6.0857927356605971e+08  5.8254588176136374e+07  6.0621453007631652e+07  3.3515210613280386e+08  1.5078637371954608e+09  5.6272543530311085e+07  5.4772607676840357e+07  5.5223396732774764e+07  1.1623786458603611e+09  1.2436239078756449e+09  1.7976781298674250e+08  7.8255502680035874e+07  6.4817332284191296e+07  6.5476194164097466e+07  6.5847493600584775e+07  7.0149178268339053e+07  1.1810573239766111e+09  6.3335730354584567e+07  6.3047479332589306e+07  1.2928742390082072e+08  6.2347229408365823e+07  7.0405750501972228e+07  1.5683121579497948e+09  4.6094264120470822e+07  5.7821610730480053e+07  1.0562872067402382e+08  1.6691223426642129e+08  5.8129365224898338e+07  4.1399537829729867e+08  6.9701907951187447e+07  5.8071462521675117e+07  5.7686014549274258e+07  5.7744575819697827e+07  1.1914430497609112e+09  6.1651289068139091e+07  1.0754383221516037e+08  1.4954210839545548e+09  7.1739017922847450e+07  5.6393631482013367e+07  1.6932734079671872e+08  5.7715619198672615e+07  1.5318592340941033e+09  6.3520511754754096e+07  5.7806855183622688e+07  1.1892493591436024e+08  1.0896842851929721e+08  1.1074062363364784e+08  5.8023230841315061e+07  6.1218008719301552e+07  5.1702021671958745e+08  9.4117955507331324e+08  7.5949950378141597e+07  9.4048975461483300e+08  9.4613123566572464e+08  1.4442512996187264e+08  8.2833118044845998e+07  8.6512820778458908e+07  4.9026126079535246e+07  1.2791420919082436e+08  6.2596823003436053e+08  1.7434779619541323e+08  1.6626674730095372e+08  2.2572275167650437e+08  1.2995883964313550e+09  6.2107902545177318e+07  6.0546055705174886e+07  5.7889510500501528e+07  6.8533169999146864e+07  9.2525014971979603e+07  1.5559722873534205e+09  4.3740763467136152e+07  3.3521017569420099e+08  8.1587684367316291e+07  8.0287668733899996e+07  1.3094976234263843e+08  5.9653876521975242e+07  5.8824182878482215e+07  5.7983050034674712e+07  2.0017838095714208e+08  1.9916240696067271e+08  1.6059205389087737e+08  8.3580518931746155e+07  8.1175853070731983e+07  1.8540793951961267e+08  5.8901218777466834e+07  1.2987256320403447e+09  1.2484246462489839e+09  5.2693990789367825e+07  1.2317247795649466e+08  4.7654305678485548e+08  5.3071314441490650e+07  1.4143356144715226e+08  1.2559742371606216e+09  1.1857888638614628e+09  9.2554308812814668e+07  5.9399875272753008e+07  1.0015885896287044e+09  9.8098577476728773e+08  9.4884791935083830e+08  9.2358702229432356e+08  3.1042754180031270e+08  6.2609416128016971e+07  1.0496665035214143e+09  4.2960916882853264e+08  1.3936385421517622e+08  6.5106082234105967e+07  6.3937779860761809e+08  6.5111540714658904e+08  1.0235665083199801e+09  6.5695317842734918e+07  7.7053351793203497e+08  6.7564144498290941e+07  1.1642256203772395e+09  1.0513170717231445e+08  6.5501550492091991e+07  1.0219686809052424e+08  1.0492717405463493e+08  1.8729136759363177e+08  5.8777960899366125e+07  1.2205370950834825e+09  1.1294941535315061e+09  7.4333726620197982e+07  9.0442458354524076e+07  2.1712310297607803e+08  5.9325393738825269e+07  5.8149017219540194e+07  6.8665532096088016e+08  5.7116060940609068e+07  5.7173206163885780e+07  5.7471842264889687e+07  5.7258748488067709e+07  5.7860020361595750e+08  1.3696791453424189e+09  1.3192269046494303e+09  1.3899224859959741e+09  6.1899042767866567e+07  6.0281942026993704e+08  6.9778547270125195e+07  2.0597359358203411e+08  6.8227537223832652e+07  8.4873930809065878e+07  5.7863519760748446e+08  5.5914597826380515e+08  1.8379360492947215e+08  3.5941579433868104e+08  3.7543436760926533e+08  5.7902828529677145e+07  7.3379576527752355e+07  2.1826538624626407e+08  1.0851518787668781e+08  1.0519192040007506e+08  1.0848311908386478e+09  7.2479952950420141e+07  5.5106812229853265e+07  7.1411409149612695e+07  7.3575572890545264e+07  1.0462099153471835e+08  9.3779940316837043e+07  9.9485680420201033e+07  9.4197838568604961e+07  4.5582329099827796e+08  1.4834974829450607e+09  3.1288047314145094e+08  6.0978840777120776e+07  1.3338933608952465e+09  7.9562933534934655e+07  1.0856402569960305e+08  6.2900802096755765e+07  2.4645756450296172e+08  2.8335330940395355e+08  2.0571692422517470e+08  3.0925223622356302e+08  6.4200914612189852e+07  8.2213982503898591e+07  1.5174620696768239e+08  5.8850691529107720e+07  1.5308230802968523e+08  1.5974804449316168e+08  3.3803315380656260e+08  3.4895988779785585e+08  1.6701825138704476e+09  5.6560579023679934e+07  6.5579307849827513e+07  9.0412201858410180e+08  6.7884323206896722e+07  6.6360723993802577e+07  6.8259941726029515e+07  6.0630369673533432e+07  1.6292495713455936e+08  1.4960542496865396e+09  6.8164454389212227e+08  6.3910631086980164e+08  4.1465275746608591e+08  1.0202831390761350e+09  9.3630139367278710e+07  9.4993315863330275e+07  4.3143411571543306e+08  9.0146723707790166e+07  5.9470210704378217e+07  7.3345183897645995e+07  3.8871513343328243e+08  3.9592987234831131e+08  1.0072488464616392e+09  1.0256550508150011e+09  9.6434009613730955e+08  1.2852687750830293e+09  1.2830323988153477e+09  1.2292588134218779e+09  1.2133793866290886e+09  1.2698973138570771e+09  5.5880606261667773e+07  5.8136717148015216e+07  8.4234563545315608e+07  1.1240405548895984e+09  2.8926454022482139e+08  4.0648399799367410e+08  6.6438612471264958e+07  8.2036600633976206e+07  1.1068462941465618e+08  6.6964512516158514e+07  9.6230152884092844e+08  5.8360766858012743e+07  5.8226608780859478e+07  6.3057471876152873e+07  6.1820741111046918e+07  1.0756037199042273e+09  7.7530918831628883e+08  5.8153193997915998e+07  6.5584164324499357e+08  5.7341139529767364e+07  5.6904906743854940e+07  5.7786012127591774e+07  6.6694791977948934e+07  6.0633348510154016e+07  6.0911422676990591e+07  6.1828774274237856e+07  1.1262208655451499e+08  7.5565661903867269e+08  1.2569853414554527e+08  6.1092417338580513e+08  1.5675729807895870e+09  1.5502191143437636e+08  1.7032831275962815e+08  6.0304901027276151e+07  1.1563093818407760e+09  3.4469337456511343e+08  3.6996305129816628e+08  1.3661412711449633e+09  1.0431189342678612e+08  1.0788537925190221e+08  7.5567048271111190e+07  6.8644122546806276e+07  6.7056853522657178e+07  8.0372042690450072e+07  7.8603512348030478e+07  1.5384307513874032e+09  1.5265374705544000e+09  5.5680172020414762e+07  5.5901586090784289e+07  3.7257723871534479e+08  5.8632835232652530e+07  1.9462454294253817e+08  6.5612506067611113e+07  4.9411375555648577e+08  1.6920221513689658e+08  3.0997364952762377e+08  6.1060059502208099e+07  3.3497974388351274e+08  1.1182319402390695e+08  1.1253367983029266e+08  1.1644082978728326e+08  1.6174267137526679e+08  1.5055064709116032e+09  7.6609911249456123e+07  8.4705990293018210e+08  1.3943731662508771e+08  8.0376680559563971e+08  6.0324493223192632e+08  6.5334760321974516e+07  6.9950081174416631e+07  1.6124941343649302e+09  7.2130684511835063e+08  1.3929406805907483e+09  1.4167407433757241e+09  1.4850036893370674e+09  2.4446892712301990e+08  5.8470787140038840e+07  2.0090529516487584e+08  1.8131225159263766e+08  1.8992707271498960e+08  6.0279923149521895e+07  3.7689045452654254e+08  3.8929830771173155e+08  3.7711625150249189e+08  1.6887767656826171e+08  1.5008002028534371e+08  1.2196261056709993e+08  5.9724821235074133e+07  9.4025241772725105e+07  9.2631304787280262e+07  6.3533447446766093e+07  6.3909283621435948e+07  5.7574768580590747e+07  5.7650777148046494e+07  1.2327856143456410e+08  1.2216417952113310e+08  5.9939515059060715e+07  6.0277870758683011e+07  4.4335300783182371e+08  4.3203299856539249e+08  4.4781261359805959e+08  4.6530281017266154e+07  1.5914209658146110e+09  3.0777941944216406e+08  1.5999063577966884e+08  1.3628992805707800e+09  7.0356184066428080e+07  1.5770462392001593e+08  6.6203957194642648e+07  6.6350544774055026e+07  6.7066955430098735e+07  8.3960774288259149e+08  6.5762574308580048e+07  6.6102500250776999e+07  1.0347814233020567e+09  6.5437976353335075e+07  6.6900445859423891e+07  6.6432615779805295e+07  2.5947345401546481e+08  5.8640956549377859e+07  6.3065172773549907e+07  1.8939471268844357e+08  1.0763512683916317e+08  9.1953294025762871e+07  7.2922410479151869e+08  7.0274491329689503e+08  1.0149777077901013e+09  6.3866521466679238e+07  2.1766285040469673e+08  6.8276301688475296e+07  1.6334472380894539e+09  1.3831097946324232e+08  1.3679758245483953e+08  6.1529982042139806e+07  6.1319852214492530e+07  6.1195309857307956e+07  1.2517637002457204e+09  6.2662560069276318e+07  5.7953596498552546e+07  5.7814998548966311e+07  8.3903046787692678e+08  8.3694114848806715e+08  8.6967500022236609e+08  5.7934243321511477e+07  6.7912009386636794e+07  1.9217347231660482e+08  7.9295701281840026e+08  7.9910586667298764e+07  1.0278357943739278e+09  1.0059464907228605e+09  1.0421214941762002e+09  7.4309716624377370e+07  1.3191035938941060e+08  6.1961448260084860e+07  1.1370829217474470e+08  5.9651350369330637e+07  5.8917713328803964e+07  6.0466036171211950e+07  5.9814673103910439e+07  1.1118689081548488e+08  8.6513973083374763e+08  2.3315867226482263e+08  5.1642188201290625e+08  7.4996128726485357e+07  6.5317256928301074e+07  7.6571477665047362e+07  7.5903543552843019e+07  4.3263355569929200e+08  5.9864616108140194e+08  1.4975991199908191e+08  6.4171691435798429e+07  1.0595943593179990e+09  5.0064397099409044e+08  1.4873921233476367e+09  5.2345451030685532e+08  5.0527233261958629e+08  5.2042447710083091e+08  3.5142930991416574e+08  6.5671299019672841e+07  6.5620285086752340e+07  1.5752676835160882e+09  6.0994161265959777e+07  8.2835381273450896e+07  6.1001715277412266e+07  1.0570333771895155e+09  5.2785691170428522e+07  5.0319599763821429e+08  1.6287732474379222e+09  5.5582557738948032e+07  6.5693545937860847e+07  6.6481083212755978e+07  6.0461415785776898e+07  1.4147429248998228e+08  1.0432397151737195e+08  1.0998907125517873e+08  1.1224971975683117e+08  1.6227060570778522e+08  1.4154022339474675e+08  1.5394559622323678e+09  8.3404662717483974e+08  5.7659767988257572e+07  6.6830641431119248e+07  8.8010452802688345e+07  5.9125660889524259e+07  3.1357292258008260e+08  6.9260270614584744e+08  1.0613839009489362e+09  6.0824399922806866e+07  4.1601767433811200e+08  7.8010617045959055e+08  6.1336526896909796e+07  6.4560436907696314e+07  6.4243140486727431e+07  6.4979287708234966e+07  8.5192463368179008e+07  5.8762287243441448e+07  1.4709068166370745e+09  1.4683150936105766e+09  1.6210148793757853e+08  1.5855473894309697e+08  1.7156128708610103e+08  3.4406235521983898e+08  6.0258172006279305e+07  7.0867019299186349e+07  6.4013442271776430e+07  7.9133990760611370e+07  1.0914021518990599e+08  1.0297301328761184e+08  5.6102013657116926e+08  4.9861649380803514e+08  7.5149422260699356e+08  7.6004823075531915e+07  1.4031890684456038e+09  6.6482667635238469e+07  7.2210278040779963e+07  5.6399048073501855e+07  7.9530078621047586e+07  1.1845144965876968e+08  1.1328020891133295e+08  7.8419557918525383e+07  5.4776165296959080e+07  1.2773936519005051e+08  4.0750026639311928e+08  4.1373887286615151e+08  5.2858966697700030e+08  9.2830983135281730e+08  9.7867822946339023e+08  7.7197300584534287e+07  7.4644863714168906e+07  1.1622786305179667e+09  2.4301246786378708e+08  1.5559090668913779e+08  1.6360672832671201e+08  6.0383993215979531e+07  6.0267866478373654e+07  6.0658967343339458e+07  5.8445366786757693e+07  3.1876130519378847e+08  3.0707478562444395e+08  7.2399678077178848e+08  5.2728022252953762e+08  1.3002249169732529e+08  1.2628976295217623e+08  1.1119462938870718e+08  2.3700145674366328e+08  1.8945170190806186e+08  1.9023464341848326e+08  2.0378336956007355e+08  9.2699080379387403e+08  3.2287904087820095e+08  1.0932501638570490e+09  7.8241239085785615e+08  5.8158308943674251e+07  5.8611330515932366e+07  1.0034539562339763e+08  1.0749476294408238e+08  6.1816548891529404e+07  1.0127907216218820e+08  1.5469054560567954e+09  1.6112615521113381e+09  1.6115460399151013e+09  6.2550763183111832e+07  1.3144048746166451e+09  5.9059301293951556e+07  5.9929952856653035e+07  1.7169051875713545e+08  3.5023432878204674e+08  1.5366561316021209e+09  1.5585753868490088e+09  5.4042481697493300e+07  6.1347060820194855e+07  1.8706615583675128e+08  5.9013974120337397e+07  5.5571610282023445e+07  7.1329147725775659e+07  5.9245680119061992e+07  1.2063586427985809e+09  4.7167243084318554e+08  5.9503867915206984e+07  1.8956093335004875e+08  1.2563628712326429e+09  5.8401139890605949e+07  5.8926337573325470e+07  1.0260656214193836e+09  5.7334645399521388e+07  1.2595754436816968e+08  8.9849932118802354e+07  8.9446142171024784e+07  9.4297239870406210e+07  1.0325725485376057e+08  1.4570858712358099e+08  2.6576040612888092e+08  1.1643514644551241e+08  1.2204324025515482e+08  1.3725097794024536e+08  9.8721313120708361e+07  4.2596476704725587e+08  4.4455089125233543e+08  5.4393910496329629e+08  2.1495367184088454e+08  1.1492664065660744e+09  5.7622509252023734e+07  1.1733524238249464e+09  1.1110095457597463e+09  1.1499842564029524e+09  1.1537757584349802e+09  1.1233678858210695e+08  9.1779064429625034e+08  7.3964755365174800e+07  6.4024955038766660e+07  9.1254866722581863e+08  8.9567897047621176e+07  1.5586230290496883e+09  1.1989554875827678e+08  1.2398702779797022e+08  1.1723354563380104e+08  1.1061046097395699e+08  6.8212977885864466e+07  1.4628660024124746e+09  3.4002002293330735e+08  6.4374128564745106e+07  5.7299465063192233e+07  5.8411436326021895e+07  5.8674630961286269e+07  6.2633539658233456e+07  6.2709946109521732e+07  6.9283480919662431e+07  8.5989017315912008e+08  3.5568901639448118e+08  3.6862537526569319e+08  3.2360246314781678e+08  3.2203755906258321e+08  9.0439214625544262e+08  1.4447009690905491e+08  2.3000737338072020e+08  1.0495248500025339e+08  1.0123509710270786e+08  5.0876716684500761e+07  6.0119423279911064e+07  1.0119182212133055e+09  1.3193279912680510e+08  5.6310296722214751e+07  5.5396646697923407e+07  7.4880840894406363e+07  7.6833248379726931e+07  7.3607960304582965e+08  1.3592403093114753e+09  1.3183596147896962e+09  9.0000502761578962e+07  6.0022444603929147e+07  6.2020410390232295e+07  4.8145683339314157e+08  5.5338056734595470e+07  2.9963507503589189e+08  6.5192619202186577e+07  9.8111762919538331e+08  2.4291074879199189e+08  2.5699459016347277e+08  2.5318035791584942e+08  7.0864154281730041e+07  3.7071316928883237e+08  3.8688448181461859e+08  1.5249702699207287e+09  1.4668452185316734e+09  8.2642513148813903e+07  1.8500772129899129e+08  9.0286631320529982e+07  6.0853557086648352e+07  5.5910903103127234e+07  7.6086099645217454e+08  1.6241148711227813e+09  1.1941146233295696e+09  1.2484581709759820e+09  1.1617264830671546e+09  3.4993272801511836e+08  6.3217355649677932e+07  2.2968434170098886e+08  6.1602970529445179e+07  5.6294283749429095e+08  5.7343108258523083e+08  5.8443788932347834e+07  4.0172888001479852e+08  9.8257424302137271e+07  9.5894864327875122e+07  9.4319506661056712e+07  6.2475718443986118e+07  2.1910236195458829e+08  1.5132101472174761e+08  1.2367366795445056e+08  8.8848681952255815e+07  1.2699762216374722e+09  1.2577987227956598e+09  1.2075050326999240e+09  5.2237763207054377e+08  1.1976279804553430e+09  5.7708281676692896e+07  5.7822689837192602e+07  9.5421866293031585e+08  2.7893545852568114e+08  8.9686050509359515e+08  1.6057841708238351e+08  1.1841732836299646e+08  1.2507997863531961e+08  6.5300679059215292e+07  3.7866794296644950e+08  3.9492140623725075e+08  4.0570575718613136e+08  6.0477936924663357e+07  6.0602191674913593e+07  1.2356695836332102e+09  6.4252806780801050e+07  5.9503342794655167e+07  5.7525277572929770e+07  4.4986281428970218e+08  4.5702459194133025e+08  1.8956495107070735e+08  1.8118002305883843e+08  1.7993061238427168e+08  9.3211659533445263e+08  5.9342973673808306e+07  1.0638414062601389e+08  7.1784599485508949e+07  6.7760555258793578e+07  1.3174644466305916e+09  9.1679803163264707e+07  5.8066352233851433e+07  6.1917054950644203e+07  4.5170188546087694e+08  9.1127312052037239e+07  8.2808555717401719e+08  7.6923753796736252e+08  7.7946660772482848e+08  8.2678002767399943e+08  8.2003533266293955e+08  8.1564839715553439e+08  5.7243511743798338e+07  5.8403247438432865e+07  4.8887855291839957e+08  8.4489428491487741e+07  2.0752503561994201e+08  4.9988114435035151e+08  1.1131400755604900e+08  5.0696162593220347e+08  2.6893365837698591e+08  1.5427556183588102e+09  7.0854790862643528e+08  5.7633458806821294e+07  1.5554279961456048e+08  6.2268399364210464e+07  1.3801556095401162e+08  2.0102035833249924e+08  6.1554753340199009e+07  1.1249018285196163e+08  6.0529491713346727e+07  3.7921045031903499e+08  1.0473380102892131e+08  6.9204195464688748e+07  8.8653543210740733e+08  6.5011190741232581e+07  1.3201724499552152e+09  1.3793988557430909e+09  1.4357311351454334e+09  1.3756484121613004e+09  1.5569216862092457e+09  1.6123976829172311e+09  1.5477892317989314e+09  6.5618653171703406e+07  2.5515424395894131e+08  1.2696141963961606e+09  1.6996647582185346e+08  6.8521051583748832e+07  6.2573352562767655e+07  4.2131733714807051e+08  5.7554086682331756e+07  3.0977834650858241e+08  6.8144980299181926e+08  7.0887273644511473e+08  5.8279374370251976e+07  6.0047294540215738e+07  2.8998837220956171e+08  8.1301300362896991e+08  4.1810691524809802e+08  5.7988279254182547e+07  6.0992671976849452e+07  6.1016986472434044e+07  6.0465240581983134e+07  8.3351088105142221e+07  1.2430128830378798e+08  1.6846689785963437e+08  6.6776543831240848e+07  6.1626160058321185e+07  7.4046144106059805e+07  1.8629737268302250e+08  1.4276858380024162e+08  5.4687539379556805e+07  5.7715953375204459e+07  6.5827120240571484e+07  6.6929078698604010e+07  1.0946921229385529e+09  1.3853570512314403e+09  1.4262342098135054e+09  1.1920985348172731e+09  1.5896786243448424e+08  8.0533367573847309e+07  9.0497946780852866e+08  1.8744919123885006e+08  1.2691358166974811e+08  1.1754131666203363e+08  6.4618563651348017e+07  7.8570743800692782e+07  1.0724686556769478e+08  9.8019322115280226e+07  9.6279665211290255e+07  6.2005060772938229e+07  6.1683417327353142e+07  6.4437523252157785e+07  6.4330782784889266e+07  6.3567685880415268e+07  1.6177970959524259e+08  7.2811235253512073e+08  1.6265559761153133e+09  6.4205061517554849e+07  1.3821288586329439e+09  1.3425511381220934e+09  1.6933488018997100e+08  2.0039293117720604e+08  1.4423588797107503e+08  5.6698621515243065e+08  3.9264043344920152e+08  1.9323631376786965e+08  1.9480240466139477e+08  7.2376763142890096e+07  3.4398335499143708e+08  1.1321795777718170e+09  6.2190652026698723e+07  1.3502975946264294e+08  1.6396368846470276e+08  6.7744866355920762e+07  9.1567791728137577e+08  2.6171438548239663e+08  7.5982807945365191e+07  7.4870584772419870e+07  5.7916224539090678e+07  1.4792413118860848e+09  1.0895770852170379e+09  1.1403270858861008e+09  1.1696270544151580e+08  6.8433605444788873e+08  6.8165316126437902e+08  7.2537066736638355e+08  9.1657345093544304e+07  1.8622737377447453e+08  8.8396884979381010e+07  9.8852588735796154e+07  5.8689793572217993e+07  1.2466780229158051e+08  9.4610926987521574e+07  1.5141842651681620e+08  1.5060465982324776e+08  8.4414872734176850e+08  8.7107713396394539e+08  9.0921453965994847e+08  7.3264410246628225e+07  8.4529392663302016e+08  1.2135462655154080e+09  3.8454248956030649e+08  7.2417807904953063e+07  1.2137302869711171e+08  2.1101439706624785e+08  1.6253564185956624e+09  1.0376291252243851e+09  1.0895279626145589e+09  1.8272172348635665e+08  1.7224819919342914e+08  4.7228054204288834e+08  5.9383010490492955e+07  1.1892576990864535e+08  5.7110432012753177e+08  1.0528870132582945e+08  1.3951241203244879e+09  6.1166689042206272e+07  9.7327736784747362e+08  1.4909026000801115e+09  1.4614761772023799e+09  2.4757408673126867e+08  7.1234085619499433e+08  1.3072293231701826e+08  5.3333763619827010e+07  5.9743029173359223e+07  5.8862199423675023e+07  5.9185812072480530e+07  5.9024718887138985e+07  5.8888505850646555e+07  5.9256040074261993e+07  1.2138601941616075e+09  9.3826142484551013e+08  6.0236005885838985e+07  6.0804869327825621e+07  7.1982701675454959e+07  5.8234760380149506e+07  4.7929565301992007e+07  1.0806320396972840e+08  1.4209933329637831e+08  1.1783490493237255e+09  2.1231890603861064e+08  9.2798209092489868e+07  5.9970003132138655e+07  1.4987585042012665e+09  9.8426561215834773e+08  1.2667595838685881e+08  6.6985579947497256e+07  7.2656441234132484e+07  9.2594638944432974e+07  6.8303315544617534e+07  1.5010747233193460e+08  6.4756962140350148e+07  5.8079637361060530e+07  5.8344835993429326e+07  6.8323821626953959e+08  1.3463264332383710e+08  6.0539638673541471e+07  9.5452763005514669e+08  6.5868318558539957e+07  5.6062469729545131e+07  1.0610242727313673e+08  1.0745451886673985e+08  6.8152636427244329e+08  1.1484585873220763e+09  1.6158991711471090e+09  3.2137982646195459e+08  3.3352925693038303e+08  5.8050471009815550e+08  5.6561084760850275e+08  1.5914848186286747e+09  5.7918345456221998e+07  4.3182068054410487e+08  4.2015489458686972e+08  1.2425824154516735e+09  7.5206138415401593e+07  3.7868637056199592e+08  5.8105228176293343e+07  5.7750793194935404e+07  3.1425784228863034e+07  6.1785570513706215e+07  6.1530472032892764e+07  1.6619683274557766e+08  1.5362618653584039e+08  1.0516145625759949e+08  1.0604378643212340e+09  1.0949384086043234e+09  2.0335555356798658e+08  2.1992592502140814e+08  1.1713722359592471e+09  9.8437293744095057e+07  1.2272385150789741e+08  9.2745341383480859e+08  7.8949128029270276e+07  5.8865281944793180e+07  5.3735131641638219e+08  8.5162954927481949e+08  8.6796521682420087e+08  8.3852499039622557e+08  8.8712459915448964e+08  8.5486900845557678e+08  6.7347128620298162e+07  2.6624065279227650e+08  5.7668541965464592e+07  5.7651596711305156e+07  3.2256655204357636e+08  9.9338674226912647e+07  6.2029201821583755e+07  8.0520658045633838e+07  7.2104099360852838e+07  5.2399070050173116e+08  5.6665697085808039e+08  8.9414430082987130e+08  2.3215716020962253e+08  5.9432244304547453e+08  6.0631236317460585e+08  5.8268054435952649e+07  8.6665657277979836e+07  6.2301388412674606e+07  5.7711631029357329e+07  5.8112853189843014e+07  6.5049588111824624e+07  5.2428593499867278e+08  2.7337100756411391e+08  9.3683696193591684e+07  1.0714251515781709e+09  6.2724234860281959e+07  1.4354210781087196e+08  5.8332125338755295e+07  9.3882310442002380e+08  9.8550811358602956e+07  9.5242224335117772e+07  9.2347366428937420e+07  9.1556877591594651e+07  1.3964821803217967e+09  3.5725926769333869e+08  6.9420939515106916e+07  1.0039716404038210e+09  1.3368436358471166e+08  1.2929096383226526e+08  1.5093228470801587e+09  4.2412121836278176e+08  1.4513244445324585e+08  5.9073979589125201e+07  5.9082833337213777e+07  1.3883852252002025e+08  1.3601904832418437e+09  6.0124289812271881e+08  6.4446277872724199e+08  6.1548758385447478e+08  8.4826134399505019e+07  2.3779761339058131e+08  2.2759291791540498e+08  2.3136244342534426e+08  6.3986384299149990e+07  6.3561812766987994e+07  1.2787200632631956e+08  5.1787826458978646e+07  9.1068779338653982e+08  1.4690341335107389e+08  2.7646331685455382e+08  1.3683425288067188e+09  5.9241058159314893e+07  8.7665877527031630e+07  8.7050583330662310e+07  8.4463828377570152e+07  6.1720959585870527e+07  3.8685976450091779e+08  9.2772648468920422e+08  2.1648263746276304e+08  5.3552557210457332e+07  1.1963495368880768e+09  6.8401649992276728e+08  7.0197707768344253e+07  6.1757056400657952e+08  6.3526918871361470e+08  6.0983020470917916e+08  1.5713317532470524e+08  1.0615454895256754e+09  1.1712208683495502e+09  6.9858733232244030e+07  6.2894819683702901e+07  5.8586868742133848e+07  5.8344979027012244e+07  6.1722571773693457e+07  5.2424952072716320e+08  2.4040093477951291e+08  1.0547362896692644e+08  6.8340663386113495e+07  1.0569477878052515e+08  4.5216819783592343e+08  4.5403770575130641e+08  5.8942814273895480e+07  6.7257537509490669e+07  4.9880155620919138e+07  6.4938784950304382e+07  5.9840552573324524e+07  6.3692597857965386e+08  6.7332945583099627e+08  1.3062461430812567e+08  2.8232675142540640e+08  1.9139605730184081e+08  1.2788162486974363e+09  5.8517443187101111e+07  1.1122149378872881e+09  2.4465232890551585e+08  2.2492367891340879e+08  4.0061259229069108e+08  1.4692567349655211e+08  6.4177120686939061e+08  6.5050797837403223e+07  8.2057959377822411e+08  5.6042861742330968e+08  9.4742255801411414e+08  5.7647472176658772e+07  1.5030423455228657e+08  1.4264370260053748e+08  6.6963474081068739e+07  1.1464887748904198e+08  7.8442081191195831e+07  5.7584671353322580e+07  5.7625580487948105e+07  9.6684754768834138e+08  3.0397087314260584e+08  4.5603827648870707e+08  4.2178849642544788e+08  4.4920457652908295e+08  2.2826594832615736e+08  5.1754022095308423e+08  3.5489923731764722e+08  1.0872532744852221e+09  8.8233615932399738e+08  8.6910473440466240e+07  6.2816494003325969e+07  5.8537612220755637e+07  5.9662462471263573e+07  1.3301469991944373e+09  5.1227310455628419e+08  1.3341259938122911e+09  1.2723816135113630e+08  1.6144041882276568e+09  1.4236612752502045e+08  6.4315055956375971e+07  8.2453236740073264e+07  1.4491472605374403e+09  8.9191992550287294e+08  1.4280713849336164e+09  6.2302286885738708e+07  1.1858518259696534e+08  3.1076316503533059e+08  8.7039679585493758e+07  4.2164331217939520e+08  2.2446185938394356e+08  2.3617223487880504e+08  2.3748600237953237e+08  6.0506625594213657e+07  5.8024912864200920e+07  6.3209147718554534e+07  1.0130791057089372e+08  2.0757254436900863e+08  2.0127382144236955e+08  1.9072601339944115e+08  1.4227031064792004e+09  6.1025999232720912e+07  6.2628628531529002e+07  6.2201377139553271e+07  1.5952174260720475e+09  4.0813307442621297e+08  3.2297997170158041e+08  6.9037591113051593e+08  3.7819697113041830e+08  4.9849129541108322e+08  6.8989181109311485e+08  6.5450803703029089e+07  5.7830619130046606e+07  6.3862376205940402e+08  3.8984666455975503e+08  3.9468908410633844e+08  5.7928077961142220e+07  9.7689095462354213e+07  1.1413969871126865e+08  1.2478341251657279e+09  1.4774742976949017e+09  1.5067852699828002e+09  1.5466883846513362e+09  5.5484634370410526e+08  8.0756161020406663e+08  8.2683091558910596e+08  7.7462404695093334e+08  7.3062975472740501e+07  1.3606640567653775e+08  9.7291103669153973e+07  5.8233856350922182e+07  5.8444651739504635e+07  5.6983324170733944e+07  1.2404330485686300e+09  1.2507651441223962e+09  1.2000998381469531e+09  9.9118844256721780e+07  6.0137407127967343e+07  5.9034117674902305e+07  5.8516183693690710e+07  5.9141591570961095e+07  4.1425297009776956e+08  2.0571448654151717e+08  1.5421732056962361e+09  5.8896440010573819e+07  6.8100016283426881e+07  4.1124374769049025e+08  2.4877164185670042e+08  9.2275752411586726e+08  8.5845940277920318e+08  2.6969695094503546e+08  1.4637461511398110e+09  2.4744715089712423e+08  2.4745539789715761e+08  2.3039374098207700e+08  3.3496056521449214e+08  6.2022852286580451e+07  7.5000779433940911e+08  2.4847091655799377e+08  6.1706572072499588e+07  1.6340792820401304e+09  6.5435209654712841e+07  2.5448200179004103e+08  6.1660511065014553e+08  1.0794436486559947e+08  2.3370277520730966e+08  9.3452513222611845e+08  1.5188169982235691e+08  9.8898463897423789e+07  9.6240283566556454e+07  6.4549996043961301e+07  1.6131859587317359e+09  3.8967673539454180e+08  1.4104885125842357e+09  1.3411834503322635e+09  5.1449486939859480e+08  5.9801171895944841e+07  6.0254282388259627e+07  8.9332036899302459e+08  1.6688083629293051e+08  6.0074355168149449e+07  7.0911047254874992e+08  4.5333040882791603e+08  2.4787432514601889e+08  2.7800636288050067e+08  1.0823198076009263e+08  1.1998663635027401e+09  8.2179552904852390e+07  1.0369706346873695e+08  1.5601587480868039e+09  5.8434929568987541e+07  5.8661902399242491e+07  1.5762691661898849e+09  4.5570341251841778e+08  2.5038609619314945e+08  5.8468391755035818e+07  8.5514487478885710e+08  6.6307549961663082e+07  3.2114753444310594e+08  6.1615222307326233e+08  2.9720592423876846e+08  7.9222665438077760e+08  7.6680479142745268e+08  7.6013170263975310e+08  5.8866196999030955e+07  1.5431846783508999e+09  1.6172140490529187e+09  3.3380363334740307e+07  6.3846584599056654e+07  1.6405168921082509e+09  2.3238935553321868e+08  2.2277044513376889e+08  1.5693300028916517e+08  1.6641200957113570e+08  1.6869403218151024e+08  5.7704424295275643e+07  5.7791131220201932e+07  5.7755361816311814e+07  1.2179449108592446e+08  6.0916733732203923e+07  1.5407777908634923e+09  1.5687558929800346e+09  3.2982654986566979e+08  6.0679926252085142e+07  6.0578189068082936e+07  1.3207372346808745e+08  1.3063297820744930e+08  1.4194614306029236e+08  7.0275538239026713e+08  6.1025269508840635e+07  6.0056022551387660e+07  6.9936338700803727e+07  8.6723168819380701e+08  2.1513097639153591e+08  5.7772830787141874e+07  3.1648329487593067e+08  1.3049577586898057e+09  5.9579208347699463e+07  6.0028073630633250e+07  6.1421371085071214e+07  9.6679724856852686e+08  7.7763526078354284e+07  1.7931741158779079e+08  3.8790383238047129e+08  1.0816335739648004e+09  1.6204953004786675e+09  7.4953747475590420e+08  7.3451307515519476e+08  6.1491782276312023e+07  1.4087083719881864e+09  1.8472624937352607e+08  5.7708598346288048e+07  5.7715694089376159e+07  1.0758400915932900e+08  1.6327781929884608e+09  5.9407158069487765e+07  7.3853551469328493e+07  4.1357341323021972e+08  7.0617302897344097e+07  2.8642851950006992e+08  1.1633993196539816e+08  2.5676947058163222e+07  7.9384503022496152e+08  3.2731637791938573e+08  9.0768809523972631e+07  8.3168045833670646e+07  5.7786316250385992e+07  5.7713959502879836e+07  1.8997469466988930e+08  5.6281562828684442e+07  5.9549925009255104e+07  5.9335902199789740e+07  5.9177739350934289e+07  3.3009280727959120e+08  2.3706539346267447e+08  5.8462255425451830e+07  3.0265016115402192e+08  5.7676474846847206e+07  1.1521320761436816e+08  2.2345041288488853e+08  4.9051259264572060e+08  6.5329531224787436e+07  5.9653612603586763e+07  5.8463869267419919e+07  7.3191586473782563e+08  7.7534939562351179e+08  4.9569903308216475e+07  5.3426653630186535e+07  9.6077990058608592e+08  6.0914967983029805e+07  6.2053049448937595e+07  3.5867069287306535e+08  8.2428655793358356e+07  5.8724676869696982e+07  5.8488493381105445e+07  3.9957424335827839e+08  4.3353694842476493e+08  4.3098678099348992e+08  4.8594058147568309e+08  4.5809674815898621e+08  4.7114554422676873e+08  4.5289278723065263e+08  4.4294338237628275e+08  5.6969184151753038e+07  5.6891709223689735e+07  1.1078217584827153e+08  5.7919298620622627e+07  2.3596812530894464e+08  4.1954103300589871e+08  5.9783694640973821e+07  1.2391123077959495e+09  6.0763684259271324e+07  5.2269594879319829e+08  5.7867753368947171e+07  6.0126231519258313e+07  4.7865863340604901e+08  5.0840292289001876e+08  4.6860577652709192e+08  1.7221598298946136e+08  1.2025628558333342e+09  7.5763228258007967e+08  1.3754069348653504e+08  1.4968391309119916e+09  8.3196839179472387e+07  1.2440636644667022e+09  9.5933445518236899e+08  1.1907727494535637e+09  1.4875965821174574e+09  3.4161071698724318e+08  5.9286558506660700e+07  8.8498950306521714e+08  5.9482339077650324e+07  6.3582789374421112e+07  8.2422252897203159e+08  1.2890262465630322e+09  1.3559034187943618e+09  1.3189712358314695e+09  1.0234655489838417e+08  1.0393916031496683e+09  8.3582227091435897e+08  5.4498680116429649e+07  1.1374133054854025e+08  8.6830280619747907e+07  3.7445274528061491e+08  3.5105311143759459e+08  6.9731557931255651e+08  6.9750096731945693e+07  1.3345212625355567e+08  1.2805678971672475e+08  1.2478663836296032e+08  8.2843454129243270e+07  1.4084314203942246e+09  1.3701925032874520e+09  5.8768236603147626e+08  5.8735873527438283e+07  5.0751246808604501e+07  2.7004327343905234e+08  2.8524758342925507e+08  2.9303885545060503e+08  7.7609024394983187e+07  7.8358954055677757e+07  2.6023003497275430e+08  2.7866695624636012e+08  1.5910577919288027e+08  7.1102789326173186e+07  7.0347711209935933e+07  6.8496667537992552e+07  6.9280585913764313e+07  3.8711286847378772e+08  1.2470511402030994e+08  6.1760154367860988e+07  6.2206096925992861e+07  6.2013261041956633e+07  7.7719082589950311e+08  6.8455430927233830e+07  7.2882653233397520e+08  7.0172980483183491e+08  4.5751710026207879e+07  7.4120160083836958e+07  7.7664211088591307e+07  8.3592804530482233e+08  8.4246409454096711e+08  8.8607267306675184e+08  4.4114867633720458e+08  1.2751161095401411e+09  1.4980567679171979e+09  1.5279834743017716e+09  1.6162203870184619e+09  1.8444008292382133e+08  2.3905800942486522e+08  1.1140109346441396e+08  6.0708285764358200e+07  5.6591395462213434e+07  8.6200345002295211e+07  1.0043942875188553e+09  7.9365614399782479e+08  1.3858194179314306e+08  1.1906734358632781e+08  5.9522829432270670e+08  1.7249464183158112e+08  1.7082928343279037e+08  6.4101082128113665e+07  6.3167992244921900e+07  3.9478788311342621e+08  6.9913335116486537e+08  7.7199669208336198e+08  7.9887076058074981e+07  7.2791291415492177e+07  1.2621430872406067e+08  1.2393754646407150e+08  5.7952182206926763e+07  5.5184462173899785e+07  5.3643273102991655e+07  5.7617351196122453e+07  2.8478149673262316e+08  5.7717323334415771e+07  6.6099118819643728e+07  3.7184739902767044e+08  8.3970270519710326e+08  8.2324986067170501e+08  5.8127047622485116e+07  6.0563171696947627e+07  6.0268143930821985e+07  6.0179327929633960e+07  5.9432152765157983e+07  6.0027457905551627e+07  5.9840041111646228e+07  5.9649709919522338e+07  6.0099659473205067e+07  5.4068364710380507e+08  1.3213458479108509e+08  1.2506474016523654e+09  1.5794865455162227e+09  6.1775983253940783e+07  2.1245882252140856e+08  9.1406310976278806e+08  9.6867840964737463e+08  1.4851328150629187e+09  1.6045103941470575e+08  8.0990950169787776e+08  8.3481965180466449e+08  8.6623231613540483e+08  1.5471737176573489e+09  1.5453133505434649e+09  5.6180054359160435e+08  6.5134551505101003e+07  8.3036219156490862e+08  8.5892722967630088e+07  6.6801935374472223e+07  4.4196768243867896e+07  4.5566134699048609e+07  1.3654214286498575e+09  1.3834344570870275e+09  1.2526398642568970e+09  1.2842508476540582e+09  1.5596878721456497e+09  9.3392364304224595e+07  1.0630682887755910e+09  1.1392296949964473e+09  5.0979215552170104e+08  5.7131666457749081e+08  3.9972480757608879e+08  1.1623249521229398e+08  4.5007297951402807e+08  1.6943460210009283e+08  8.2829068469265378e+08  9.7087031026756096e+08  6.2337234258879490e+07  6.0820394564716160e+07  1.0790862382571173e+09  1.0459563504408852e+09  1.1022588321670020e+09  5.3687868113560729e+07  5.4223527082488351e+07  5.4475993460876517e+07  2.7270204875361919e+08  2.5444896486367998e+08  2.3482295519904062e+08  1.1492706118977882e+08  6.0143955034476034e+07  7.6466227723052537e+08  6.7559424763510859e+08  4.8959141559326613e+08  4.7180486665285873e+08  5.0834027287894607e+08  1.2380382126749182e+09  1.0264484977887379e+08  9.7517416674913824e+07  9.5550051853051573e+07  4.5546805149263281e+08  3.6063367311509269e+08  1.3007474204280200e+09  7.7796561794254482e+07  7.8540595745180225e+08  6.1100957651800692e+07  6.1046893577031344e+07  6.1349555219126515e+07  6.0963652208069339e+07  5.8985988833796307e+07  6.1344998178002030e+07  1.3176250587439832e+08  7.5612108964088663e+07  1.6124290611020082e+08  9.5901380346497625e+07  7.3173808375845075e+07  8.0685689391030267e+07  8.2830689857963666e+07  8.0827911372048646e+07  1.4957780935252824e+09  1.4420238900495100e+08  8.4543838550949678e+07  3.1264947880909002e+08  1.6293871955604992e+09  1.5548507253652520e+09  1.4319104239599624e+09  5.9792523560487874e+07  4.9805395576104000e+07  9.7614107940244555e+08  9.3194986816712499e+07  1.2337746657246902e+09  1.1791261983106202e+08  6.6104885918144417e+08  6.4682910069151199e+08  6.2921420410996117e+07  8.8973767810871816e+08  1.1305443481259773e+09  2.2755784101831743e+08  9.7746888472559229e+07  5.4535591782399178e+07  5.4542638683718152e+07  5.3770084567409463e+07  5.3279676018854901e+07  1.4042273427459711e+08  9.9013326956031454e+08  1.8337354642385712e+08  2.1209334582275912e+08  7.8138179541540861e+08  5.7888553741515301e+07  5.8811348808740862e+07  5.8098740375034250e+07  8.9338089721502379e+07  8.1120614634256184e+08  5.7997937932299994e+07  6.1889789445273466e+07  4.5029464645449251e+08  5.5339266597732626e+07  1.4653030292943676e+09  4.3989574379746902e+08  5.8899750952627808e+07  1.9003050942271844e+08  4.0796849883224148e+08  7.3901089503024086e+07  1.1068043233191438e+09  6.0952721311552264e+07  3.2261556185767281e+08  3.4140797441525656e+08  3.3649907839059883e+08  9.2328563215379044e+07  6.8422014490886405e+07  6.4545119885011859e+07  6.0784628285395525e+07  5.8033640433381990e+07  6.0485741280539954e+08  7.9851588326044247e+07  5.9929900494119577e+07  5.9827270882671222e+07  6.6346981449128687e+07  9.7167991000011772e+07  2.7581826013626552e+08  5.5175780116813093e+07  5.4995904455553398e+07  5.6138487979886338e+07  5.6219154404071361e+07  5.7081120584483363e+07  5.7608500669513129e+07  5.8363096620474659e+07  5.7735939132934272e+07  4.5422676172763276e+08  1.0934959659238727e+09  1.0677334119366385e+09  6.8488609335363865e+07  5.4447328870351344e+07  8.3076733245788097e+08  8.4952216182261109e+08  7.2671720140760994e+08  5.0188820062742537e+08  1.5569133540054354e+08  2.1907818880906612e+08  5.9507789203319445e+07  5.9760872064137325e+07  8.1347525122636870e+07  7.9332973523597941e+07  7.8938452707901403e+07  1.1103024905205081e+08  1.0751077214792398e+08  5.9760452449184008e+07  1.2085664992023594e+09  5.9513013063456327e+07  6.4216717044542544e+07  5.9664688222289898e+07  5.9842494714029521e+07  6.0147993554644592e+07  1.2324323653915687e+09  5.9142426765699789e+07  5.8979732732863128e+07  3.0161649298446268e+08  7.1190638923088002e+08  9.3048936089376950e+08  7.7737199251202211e+07  8.1311989851241812e+07  7.7773138099335477e+07  8.3491426774687752e+07  5.6771496887764275e+07  9.2095073337663859e+07  1.1619852222250650e+09  1.7677496496071437e+08  1.8854119924529165e+08  5.3727462665679169e+08  5.8434626164939314e+07  6.1323952379992418e+07  3.8108133845411408e+08  6.1850181530084327e+07  5.9416855654870965e+07  5.9675133986790031e+07  5.8977144282948703e+07  5.9087950331767961e+07  5.8629529396317609e+07  6.9079543379230559e+07  1.0271998849605446e+09  7.6410052262389168e+07  5.0652324232303423e+08  5.1648206905959606e+08  4.8729915224150079e+08  1.4855661736360666e+08  1.6294992600292013e+09  3.3827516575154722e+08  5.9418394654942945e+07  5.9101094643818021e+07  5.9518244219346941e+07  8.8273719093902218e+08  3.7012363214009851e+08  3.8823769880800110e+08  4.0467630892529964e+08  1.6445723825585148e+08  2.3929752092724794e+08  2.5384263660731238e+08  5.8126907443514027e+07  5.7985726846553519e+07  9.0768784318379176e+08  1.3501040101675415e+08  8.8850374143662244e+07  8.8304543722656474e+07  3.4938363126092482e+08  5.8706460426955350e+07  7.6306908146133229e+07  9.8761595557482451e+07  6.6933389632213756e+07  5.8193361851994991e+07  5.8006129070652179e+07  2.1429374648736039e+08  2.2564114949543747e+08  2.2548367954304171e+08  5.9256050211435303e+07  6.0980010836144939e+07  6.0418234526328340e+07  1.6007249656444392e+08  5.4008079085138381e+07  5.5008529638097733e+07  6.0093675859769724e+07  4.6649263367904983e+07  2.8332333094928926e+08  6.6306662775705025e+07  6.9542974724741012e+07  6.6363428358920723e+07  5.4451514099731199e+07  5.4461357474807002e+07  4.6746368868003346e+07  5.3423210195798144e+07  1.7108679786223385e+08  5.7931985294989347e+07  5.8036069509901188e+07  6.9600492659457251e+07  7.7075799017946556e+07  2.8507628615020853e+08  1.6307464107794685e+09  1.6307344187624114e+09  5.8221213597662099e+07  1.9872034635683995e+08  5.8577443210132368e+07  6.8990971755849600e+08  1.6843766062412922e+09  5.8317521974041775e+07  1.3332695144421588e+08  6.2018684569940008e+07  5.8001638416544050e+07  1.5067094430166835e+08  1.3883534090941679e+08  1.6270218012860830e+09  1.3800784447019330e+08  1.5051647636699924e+08  1.7934977605756810e+08  2.3782691206284252e+08  2.6002463227863184e+08  2.8506870278207356e+08  3.1150216099221843e+08  3.4054591174475312e+08  1.6259291806736748e+09  7.3281944584408927e+08  1.2674132688248006e+08  1.1727546323714605e+08  5.7840960942165099e+07  1.6312716277456310e+09  9.7034095272475338e+08  1.6158988681453793e+09  4.1969653308150089e+08  4.0214082477427834e+08  5.8305042351128370e+07  5.1355277004078662e+08  5.5291482095900500e+08  1.6292534331819098e+09  1.6368475407544541e+09  1.6315401095128102e+09  1.6265838746343420e+09  1.0031060635129556e+08  5.7827561580005810e+07  5.7839637710409202e+07  9.9291543126216084e+07  5.7826741162842162e+07  5.8193542633837171e+07  5.8305647074273042e+07  1.6323651027169540e+09  1.8137961416164100e+08  1.9649568611125579e+08  5.8732432996099837e+07  1.6354517357867477e+09  6.0835842496975921e+07  5.7813504669434957e+07  1.6318751622187536e+09  3.4005455217738891e+08  8.1694394075359553e+07  1.1693785131760858e+08  1.2707946291044897e+08  7.7620997133253431e+08  5.8358431378806181e+07  6.3339151942432851e+07  3.7147848410025960e+08  4.0180888788254452e+08  1.6457252817041578e+09  9.7126599496142483e+08  1.6254649524913385e+09  1.6341875439686236e+09  1.6270053456674614e+09  5.7783015171359055e+07  8.1774628987296179e+07  1.6302965157302747e+09  1.6358062734356380e+09  8.8378456604908037e+08  5.8747842156562209e+07  5.7909741343377292e+08  1.6388018139153850e+09  1.6311266484212773e+09  1.6289952902441831e+09  1.6298844647476013e+09  5.8825212229365021e+07  5.8959444800743908e+07  5.8775639194281898e+07  6.9845352094146574e+08  5.8708556950305596e+07  1.6253505599680097e+09  9.8349524752946627e+08  8.6832699233631325e+08  5.8601281107324407e+07  5.8572111860815227e+07  5.8622272658264041e+07  9.8694492404692006e+08  9.4636657709600258e+08  5.8565505794016004e+07  1.6294886464845417e+09  5.8694407665738285e+07  1.6289831109644415e+09  5.8502879633481510e+07  9.0729609550611281e+08  9.4464535760765123e+08  1.6361610778495598e+09  8.6706094006229317e+08  5.8556214989488296e+07  1.6317995147478559e+09  1.6350486355875359e+09  5.8447512616675146e+07  5.8716913713152491e+07  9.4131851979854083e+08  5.8152348224917360e+07  1.6284121502812829e+09  5.7839254275015965e+07  5.7885241048090607e+07  5.7898959441256911e+07  4.3844743879094166e+08  6.0165375359937656e+08  6.3956953410380936e+08  1.6333060506751616e+09  4.7484512499679393e+08  4.3792236011706227e+08  5.7826390833282493e+07  1.6311635376215866e+09  5.8105762527475752e+07  5.9752897386283743e+08  1.6324933728357670e+09  1.6279936364320600e+09  2.1717439653932804e+08  5.5522975460285902e+07  6.3762425085577890e+07  3.2457964371758673e+07  1.6554182442858491e+09  1.6616327596867025e+08  5.1694317426804885e+07  1.1580866994051206e+09  5.5574316003912240e+07  5.6763250002643935e+07  1.6591888386592231e+09  1.6198889273093162e+09  1.6659105474822551e+08  1.7272854538175642e+08  7.2854641540096581e+07  5.2766445349232689e+07  6.1666555438173279e+07  4.3824029566771843e+07  4.9888581515002549e+07  5.0936450605038069e+07  4.9748736275712654e+07  1.6438167055597405e+09  6.1527543162995137e+07  5.0912188974707097e+07  1.7836190757954974e+07  6.1264408985706404e+07  1.1574347389257739e+09  2.7230866356132066e+08  5.9011910673935518e+07  5.7209231519450791e+07  1.6146713394558400e+08  1.6360392032072324e+08  5.9756304557700358e+07  5.9726112363627017e+07  8.1826554316627204e+08  1.5043702415487962e+09  6.2866666034674898e+07  1.3815397175906441e+08  1.0120126054960635e+08  1.0363516952961400e+08  1.0675318630606155e+08  6.5811607710006654e+07  5.8233379929645173e+07  7.2101776383680016e+07  1.1970185158859944e+09  1.2130921428981335e+09  1.1543379865626445e+09  7.2980696643246353e+08  1.1777906589790552e+09  3.6660831325742507e+08  9.6806433534798115e+07  5.6647137382380307e+08  5.8680694642927825e+08  6.0335878858233190e+08  2.4552537807496938e+08  8.4012675787719131e+08  5.7545884301693112e+07  4.6626258859704274e+08  6.9988563396058750e+08  2.0109642569315454e+08  5.0546877141076553e+08  4.6962042499987704e+08  3.7174644376716882e+08  5.3979236709557280e+07  5.4564307185065016e+07  5.3849873408872053e+07  3.2596747217854196e+08  6.0527011217111611e+08  1.3413771318370508e+08  6.9023811621058568e+07  6.1123617136507416e+08  7.3739970885010123e+07  7.5271237484093785e+07  7.3033592176545203e+07  5.9643333116741098e+07  6.3330305308853619e+07  5.1813644340107417e+08  7.1623133804201007e+07  7.2632335747343540e+07  7.1105225874665096e+07  4.9937687122601610e+08  8.7500082929697409e+07  8.6815903994563073e+07  4.2655536091467696e+08  4.1244728852795470e+08  4.0128794783908272e+08  1.0009800491991701e+09  5.7319620115432888e+07  5.6800799091637462e+07  1.0297438547777140e+08  5.7728155604728788e+07  1.5354376695715053e+09  1.9325275646382606e+08  6.8900712292828843e+07  7.5088372006309032e+07  7.4761345953721166e+07  9.3723445832885587e+08  8.4128037676763102e+07  1.2272727458125769e+08  1.2136215416343768e+08  7.4644400084247351e+07  1.4125121852070739e+09  8.8620122430993497e+07  1.1041842375965454e+08  2.1468309445496309e+08  4.2165728013886213e+08  5.7396453737943605e+07  4.3608843068490505e+08  6.2428186305606373e+07  1.1036825809665743e+08  1.2384548987575161e+08  8.2786623855789304e+07  8.4741971263474852e+07  5.6737988997611709e+07  6.0510905990842558e+07  6.0828934129581660e+07  7.8495946522028124e+08  9.6302986628040290e+08  1.2347601818241505e+08  1.2652193024324502e+08  1.2975417261766393e+08  5.8139663885655418e+07  6.4233078962705947e+07  9.8506629520119774e+08  9.2196733821622539e+08  1.1203195194783897e+09  5.2229156461993888e+07  8.7395147643838376e+07  3.1442881022412080e+08  1.6177425031780052e+09  8.4321921004967952e+08  8.9179254903668427e+08  4.3347664424831617e+08  1.7148931898581338e+08  1.9793119837478980e+08  2.1143085229293445e+08  7.0869424898615971e+07  5.9200556281109834e+08  1.2578477199887617e+08  5.9805231513217986e+08  6.9212845370306700e+07  9.9948156370903254e+07  9.1262515696711823e+07  6.4223545148811901e+08  6.2834567800010586e+08  7.8617686644057781e+07  1.6499757206163651e+08  7.9932358170375824e+08  5.2390739103650562e+07  5.6654272589100033e+07  5.9174968814085349e+07  9.0145564917018309e+07  5.9367473453210577e+07  5.9656355558064915e+07  5.9867592830036774e+07  6.8485576841237128e+07  5.6086466510159957e+08  5.5737882543047988e+08  3.5774648728391403e+08  1.2700670555324540e+09  5.8410725428393587e+07  5.9010768434336096e+07  5.8806348848969430e+07  5.9376114074918556e+08  7.9364890375825837e+07  9.4927177017908001e+08  9.8949947939372420e+08  1.0156048901640675e+09  1.0758086293746123e+09  5.9967689937834010e+07  2.2305810378193715e+08  2.0877115206993762e+08  5.9376050654410616e+07  6.5912684859793007e+07  5.7743008936489552e+07  4.7176722008874409e+07  5.5059689914224505e+08  3.8164040158460265e+08  1.6785180368375394e+08  4.6678179516046464e+08  8.0816215296936882e+08  4.8712834088395369e+08  4.6641533132875431e+08  7.0578735709286526e+07  1.2786683816419975e+08  5.6394285543860443e+07  5.8049223869663231e+07  1.0702886953811590e+08  1.2288904910379800e+08  6.0956407847971581e+07  1.3706143067697939e+08  4.1814917859935057e+08  1.5105743654563155e+09  1.4838184884162357e+09  6.6990044884305649e+07  2.1091223352115002e+08  2.6528809415432721e+08  2.7861556374496037e+08  2.8039693342574918e+08  6.5794305076030448e+07  8.9433131314125073e+08  6.0798285025402226e+07  7.9177377758784667e+07  1.2860146248388208e+08  1.3373108625526117e+08  6.7656321539816722e+07  2.5564713687930837e+08  2.4336311001418537e+08  7.8861995936471000e+07  6.2080964292520776e+07  5.8011702406606711e+07  5.7863036429360554e+07  7.6468127229238570e+07  6.9307116843406558e+07  6.3014922401929200e+07  6.3427791452362314e+07  2.6554625093870381e+08  6.0244743010436997e+07  1.3691725348317173e+09  6.6090468825450516e+08  3.8770345790110320e+08  1.7509077970406941e+08  1.6542042378911340e+08  5.9509024722464539e+07  1.1372585894593310e+09  3.8963631695571226e+08  6.5956851275648975e+08  6.4267407215725112e+08  6.0624784048147535e+08  6.3895686713032568e+08  6.3826048743839324e+08  1.7182059232133111e+08  2.9026685360387003e+08  2.7900906566749609e+08  5.2218392149411958e+08  5.8134480381768726e+07  1.0995160414246919e+09  1.1080471630569556e+09  1.2687385164405243e+09  9.7006566619314358e+07  5.8741991583734758e+07  5.9755470305691436e+07  6.1329131537135392e+07  6.1150658715431996e+07  6.0881368099349491e+07  1.0879355087933502e+09  1.0314819965215555e+09  5.3694606835871413e+07  8.6396197354214752e+08  1.6149246127501470e+08  7.7144091563083515e+07  6.1460053289628655e+07  1.5240685978622729e+08  1.5446214448066063e+09  1.0551949156414357e+09  1.0165758035923103e+09  1.0874897147853677e+09  7.9273155438648298e+07  6.8471461219135255e+07  1.0884909327762583e+08  7.2040121248920828e+07  5.7727903080118351e+07  9.0927642702011555e+07  1.2831822572424006e+09  5.0197851833690301e+07  5.9393251023482971e+07  5.6103462489192374e+07  1.0696042073454322e+08  6.7466532579059458e+08  6.8895487566688323e+08  8.4870622811129883e+07  8.2997437715481877e+07  5.7977418037877679e+07  5.8063799184714861e+07  1.3534232511730394e+09  6.6318141895017959e+07  5.8875944804643907e+07  7.1293999990432695e+07  5.9820334028569415e+07  2.7885636279336864e+08  2.9915456488455731e+08  2.9558195734246093e+08  4.7122351185078514e+08  1.4340695086159325e+08  8.6050063781434283e+07  9.0090667219426841e+07  2.1831917839026731e+08  6.5845237684932947e+08  1.5473617649179429e+08  6.1932438896002829e+07  6.3009421855898596e+07  1.4325660725087543e+09  6.0054838795753345e+07  5.9979970703038603e+07  5.9618993182898827e+07  1.1481195735650597e+09  5.6761539584585512e+08  1.0935513664407858e+08  6.2957488902956593e+08  6.4897410182294154e+08  6.9476947911355925e+08  1.0172951864089398e+08  6.8412660911421335e+08  6.6434762874245360e+07  6.8713183880606055e+07  6.9173764206470296e+07  6.9884434511058301e+07  1.5706905799247687e+09  1.2565664207852588e+09  1.0003593201573093e+09  9.9018567013944793e+08  5.8236876920974113e+07  1.6172382615239298e+08  1.6211006138099772e+08  1.5878924680810091e+08  4.9035771044488645e+08  4.8472263057723242e+08  3.0129724198173058e+08  1.3284243618794036e+08  1.2832534184534046e+08  3.0883921937965536e+08  5.8391395705287471e+07  6.1205872873922668e+07  6.5777349477938271e+08  7.7670767266238540e+07  8.8581315180684403e+07  4.8922198621336371e+08  5.8130987957961641e+07  1.3221199342526085e+09  6.2360151341652162e+07  1.1779373143322790e+09  1.1443359003221405e+09  5.9040480260849327e+07  1.3375158150928438e+09  5.9134915652249031e+07  5.9053629778694302e+07  5.8840690581944332e+07  8.6490359096696198e+07  1.0807449046615316e+08  1.4253294170014994e+09  5.4680440916566813e+08  6.8268144929958016e+07  5.8834887150242619e+07  1.3728131246861842e+08  8.4685659227410960e+08  3.0733526984061474e+08  5.8645947957829289e+07  5.8183288613537145e+08  6.1092183173240149e+08  5.8792220129358590e+08  6.5661788166411690e+07  1.2825181355111843e+08  1.2095354138879222e+08  3.6705063655561346e+08  9.4461831115119055e+07  6.4790730204785633e+08  6.7467147326956761e+08  6.9286784568207598e+08  8.7250621213045746e+07  8.6941791773858950e+07  1.1354437048299222e+09  6.3779108890336239e+08  6.3113444762323350e+07  1.4622333219139705e+09  1.0120274072746339e+08  6.8561870821116418e+07  8.2457822392056689e+07  5.8985368877405331e+07  1.4737665856030887e+08  4.5278118325526297e+08  6.7921306804024458e+07  1.1081732746677747e+09  1.0945830235396926e+09  6.3009833046619043e+07  8.2898515804249749e+07  9.2207734153165138e+08  1.4251766295304334e+09  6.1157012223132372e+07  2.2559659450745690e+08  4.4903654529257959e+08  4.7234009771366930e+08  5.6992552731623046e+07  1.0317558145429249e+09  8.2986252497708604e+07  7.3123320928695047e+08  4.0916274027998751e+08  1.1814353172950642e+09  6.3545076474777497e+07  1.2131626209959322e+08  1.5024711958149536e+09  2.2654043126792914e+08  3.1252837829210716e+08  3.2951576136890399e+08  3.3065751356459379e+08  5.8525762979319572e+07  1.1645202504413757e+09  4.7606597203682160e+08  5.9974517820983328e+07  1.4288936999241319e+09  1.4677974627230477e+08  4.8128822109094843e+07  4.9556497072275966e+07  4.8609261397506781e+07  1.4843503089668696e+09  4.4908190076645172e+08  4.9315599944923103e+08  4.5135035613456303e+08  1.1236155191956642e+09  6.3933553306040570e+07  5.4545383991199136e+07  5.4324551313312791e+07  7.6230710709091872e+07  1.5673466264606934e+09  1.6111089960198379e+09  5.7776022555154882e+07  6.5158084067551839e+08  8.7110305069147721e+07  4.2546352373300642e+08  7.0915966385011065e+08  7.5841840735991016e+07  7.4847697064836726e+07  7.3891823640285417e+07  7.3947159680225596e+07  7.9978465789325982e+07  8.1461246637674034e+08  9.7876871093044102e+07  3.0228570027023184e+08  3.1756183657755989e+08  9.6256608993937001e+07  1.0373456808184777e+09  1.0605327267183181e+09  2.6483210062736395e+08  6.0321076368652627e+07  1.3609935190682895e+09  5.8913841601733968e+07  1.2034820784216340e+09  7.6639510591503620e+07  6.4159932238951254e+08  5.9484825923158503e+08  8.4810698065554762e+08  7.6527988825757518e+07  7.7302718049227640e+07  7.8803330635188580e+07  1.4312694969150288e+09  1.3935604995600550e+09  1.3880058301765165e+09  6.2316585254670553e+07  1.4386527364166120e+08  2.4826571938131559e+08  1.1087161734532485e+09  3.7899484186910498e+08  1.1081835129992349e+09  5.6766574653837897e+07  1.4599556330512459e+09  1.5171734425399408e+09  1.4640104077059999e+09  4.1831671894061750e+08  6.2942379772857316e+07  6.5561935554500550e+07  9.1477966101121411e+07  5.9877637165315378e+08  5.8013846225972807e+08  5.6437677875783670e+08  5.8867758539015390e+07  6.2880486411878616e+07  6.9705775952691793e+07  6.0907138418127902e+07  6.1233463906850822e+07  9.9196618660755232e+07  9.4270251349026799e+07  9.7249481953409657e+07  1.2884104109751385e+08  2.7607781959196872e+08  1.4452714951974859e+09  1.0623733546128502e+08  1.5263681010485194e+09  1.5464953526878374e+09  7.2166546567936480e+07  7.1605596482338324e+07  5.9595178751050532e+07  7.8532042678957498e+08  4.9617589317475778e+08  3.4661692429052144e+08  3.2747773773158771e+08  3.3670742335478354e+08  5.3685061786913925e+08  1.2754612874469487e+08  3.5708759904463714e+08  5.9608820446314447e+07  8.2517296536239162e+07  8.7959440306766555e+07  7.3338346886896461e+07  2.7541008697796160e+08  1.5243707736474597e+08  7.7979418090395510e+07  5.7341486288028590e+07  6.0102056399957001e+07  1.1210997090519337e+08  3.9003852086648381e+08  5.9124744647689879e+07  1.8370792910196355e+08  6.2018815150577322e+07  1.0991583804672559e+08  1.0845530330925097e+08  1.0393031287444025e+08  2.0401853320582026e+08  1.3874069782058535e+09  1.1166836924518011e+09  1.1676727538928540e+09  1.1820322988892846e+09  6.1947818472049236e+07  1.6214735801090044e+08  1.6840280395446187e+08  1.7138848485267550e+08  5.3703182101919152e+07  1.3199189731493599e+09  6.1623454916963434e+08  5.7714576881661013e+07  5.7707787607171610e+07  6.1107060096490249e+07  1.2090049174972987e+08  6.3413820653593600e+08  5.5825508774147272e+07  7.6052084864928335e+07  4.0634155361029321e+08  1.7618456561206806e+08  4.0287808336735177e+08  9.6197681096956402e+07  3.6836841099964309e+08  2.4009517152454814e+08  1.1165805553639305e+09  8.2779219879810417e+08  8.4523509645702660e+08  1.5884331031368911e+08  6.8762113400321871e+07  7.3197109996249092e+08  7.6845136266302061e+08  1.6233433986159046e+09  6.3885575716468155e+08  6.2206845086935937e+08  6.3494312491285157e+08  5.5192160609731786e+07  5.5826462957524642e+07  1.9479696256915492e+08  9.4181142049940810e+07  2.6346061458958325e+08  4.9677377765580505e+08  5.0818993248761243e+08  4.9744828810605186e+08  3.0512006430358642e+08  8.3209378416203827e+07  7.0624989994650900e+08  1.3057418752424082e+08  1.3370226454805529e+09  1.3517797187232885e+09  3.9728867357937360e+08  5.4138905759367788e+08  6.2531539935126401e+07  7.0695026693675146e+07  2.2886462619746920e+08  2.3480609071022874e+08  6.3626094003722981e+07  6.4362288328503478e+08  1.0783330863444228e+08  7.2646855308309764e+07  2.7055590976451582e+08  2.9067731444350761e+08  2.8483131181794441e+08  6.2656380965006721e+08  5.8660426418564832e+08  6.3561024498011208e+08  1.5512040031768093e+09  7.2609831753511512e+08  7.2726335832359567e+07  7.2951116495947465e+07  6.1876251604864252e+08  6.1093966628634252e+07  5.3894393716660388e+07  3.6649737893959957e+08  1.2344964913749678e+08  7.6421234458391279e+07  7.7784119269702002e+07  7.8740448557667822e+07  2.4006773664398804e+08  1.4196142846045523e+09  1.4646914334619851e+09  5.4750822860634245e+07  5.5977011971604772e+07  5.3518181751127742e+07  3.1797727280646145e+08  5.8459222080487452e+07  5.9679356758646093e+07  1.1605843062577203e+08  6.9845169414532706e+07  5.3371509206355669e+07  8.0942154124282837e+07  9.4673732692349494e+08  7.2026167343827426e+08  6.0464496086167835e+07  5.9596910867779046e+07  1.1138507097259512e+09  1.0910092351882956e+09  1.1128236419448407e+09  3.0925813611529261e+08  5.9505079372041494e+07  2.8265744131970048e+08  7.1295577524273038e+08  6.9536961520607686e+08  1.5844098030755565e+08  2.0510047983871856e+08  9.9160963348014921e+07  9.4741155391842023e+07  1.0173282311307457e+08  8.2513924483663976e+07  5.8320527438584961e+07  6.2880193447358966e+08  6.1409735794682217e+08  5.5952494923300318e+07  9.2165829872520238e+07  2.3024082236735317e+08  5.2515905894367129e+07  4.6486952536783683e+08  5.4215562349503182e+07  1.3956841007391219e+09  6.4391424474016242e+07  4.8152989377120622e+07  4.8082359937526800e+07  1.4704546639302671e+08  1.3965860472626632e+08  1.0098947956637713e+08  7.4761249140157664e+08  8.6831462203238368e+08  5.8164474059624523e+07  7.9439684376809731e+07  7.6195717016443565e+07  8.3925191434302592e+08  8.0528853698183405e+08  5.9108753450341120e+07  4.5104465361003506e+08  1.9455265623106548e+08  2.0849093292149442e+08  7.5902371690450639e+07  7.5015401560090035e+07  7.3572186048570126e+07  1.3109534710601523e+09  9.6857013665341899e+07  1.0090125355945663e+09  7.5797909538997567e+08  7.0124380769011497e+07  1.6121019177435505e+09  4.9642077594211243e+07  3.6247277127055585e+08  9.4345003788428739e+07  6.8361679692484891e+08  6.4246293038202852e+07  1.1286769283597149e+08  2.9276802394588226e+08  9.2159721064414144e+07  1.5253022303088501e+08  4.3166183434241503e+08  1.1783119787154925e+08  7.6809011954868004e+07  1.4947537751093051e+08  4.4168279356691748e+08  1.5966632860468900e+08  1.3287573503407118e+09  1.9361942635681257e+08  5.9122027063551731e+07  4.8502728876264536e+08  5.8481653647910751e+07  6.0595978377458848e+07  6.0779206049696118e+07  6.0381329514092021e+07  6.2899945904800820e+08  5.6073736242451832e+07  9.9759790679398283e+07  6.5952582295752861e+07  1.3902499746417086e+09  2.0741589032885975e+08  3.9270454532953382e+08  7.3394322691271350e+07  6.3286986522396550e+07  9.7194628784476888e+08  5.7071261543989725e+07  6.1353105230840839e+07  6.3133795902806111e+07  5.8047890365773089e+07  5.7956409370861225e+07  5.7877327413930647e+07  6.3463244255594984e+07  5.8528535375678696e+07  6.0456806614560738e+07  8.1760430742371961e+07  9.0103853547739506e+08  6.2939292231739469e+07  6.1478299086989470e+07  8.3943894653009593e+07  4.7575748531956542e+08  2.4712748284330317e+08  6.6124851650390744e+07  1.0357355131691080e+09  9.6915437684112281e+07  6.6496098687449865e+07  6.6018348044090070e+07  5.7875398278013356e+07  5.7985169139242940e+07  5.8047232360876061e+07  9.3970756462941253e+08  9.2460794704373884e+08  7.8314066244236812e+07  1.6040243332874591e+09  5.9316964209749289e+07  1.7694428627390999e+08  1.3328195756908224e+09  6.4160551341922566e+07  6.2976636031941295e+07  6.0572130630339250e+07  6.0518567472166345e+07  5.8961184300805084e+07  5.7549475465997376e+07  8.6335967934410286e+08  9.2323785740818954e+08  1.4363633747650423e+09  6.0732624356656440e+07  8.2105094693417728e+07  2.7137887664874625e+08  5.0285991947918606e+08  8.9082943423777655e+07  6.6704663262336291e+07  6.4984118605852962e+07  7.7030835617223334e+08  7.5788160971245539e+08  7.9948391382771897e+08  1.0562664634965335e+09  1.5204638375332596e+09  1.5445654536416526e+09  1.5578268163724895e+09  1.2256535376865643e+08  5.6478342129605651e+07  1.3515566807561177e+08  4.7386299635904193e+08  7.3337510654053286e+07  7.0649070493903592e+07  1.2990331603821240e+08  7.9644827986659122e+08  9.6363599461109722e+08  2.7303578898998821e+08  5.2873903829498607e+08  1.5585649027158806e+09  1.5680883355660381e+09  1.5262466745675616e+09  1.5166548771268692e+09  9.0682549181403190e+07  6.0646547042721435e+07  5.8459296697194353e+07  5.7049147084560834e+07  5.6913946655732676e+07  5.6197839749109991e+07  5.9088849131408781e+07  4.5337522944702452e+08  4.3136292467512476e+08  6.2316743528519891e+07  8.1995896621122792e+07  1.5678513320695219e+09  2.3697533260411608e+08  6.8876210205357835e+07  3.3312682111045635e+08  1.1626634244745841e+09  5.8266925731172845e+07  7.7636554961194903e+07  6.2426712170546040e+07  5.9107557834327914e+07  6.0455003484878972e+07  5.9494643925763047e+08  6.9252024827077597e+07  9.3827234670994148e+07  8.2279290684526455e+08  9.9294758356637716e+07  9.9056128483734518e+07  3.1190303632587439e+08  4.5763416397064424e+08  1.3216247437357652e+08  3.0501254341340667e+08  2.8963238056377709e+08  3.2492418089867777e+08  3.5272195432786834e+08  1.0205571779727751e+09  6.2873272975673161e+07  8.0406933893771195e+08  5.5044144773025975e+07  9.9704188377830803e+08  9.0650972814709008e+07  9.3372089544860840e+07  1.5577279077376688e+08  1.6099226275559175e+09  1.4147422329735372e+09  4.9333738006482559e+08  1.1732009296258655e+09  1.6169106716223001e+09  1.0821944032558262e+08  6.2413799467080973e+07  1.4373255704055011e+08  5.4477982889333510e+08  1.2209048434334600e+09  8.1066055686876309e+08  7.7598548342446125e+08  7.1376295782425240e+07  9.7703266905598715e+07  8.0319087585324988e+07  4.7818806333313245e+08  7.6660634750135168e+07  9.8058388989687252e+08  6.1669024942146704e+07  1.4502655751546819e+09  6.3052987357190810e+07  1.9940964007462391e+08  5.9892844289275818e+07  2.3739838465891930e+08  6.7363942373263299e+07  2.7173573987716967e+08  1.3562624201436573e+08  6.3130692780623458e+07  9.4112093146150365e+07  7.0779683720911622e+07  7.9854096532775247e+08  8.0173328248145998e+08  1.3919232212542024e+09  7.9670770353882837e+08  5.9991510829154082e+07  1.4145545582569021e+08  1.2355071771119592e+09  1.1807872681779656e+09  7.2208799752921844e+08  5.9539319654090393e+08  1.1689096801860148e+08  6.0012116035746768e+07  6.0391339916090868e+07  1.0155829323052074e+08  9.9702221561092973e+07  1.6757068225990646e+09  6.3883668588607386e+07  9.8921061907005775e+08  9.9786710487949216e+08  6.0889476486748703e+07  7.0245735524360311e+08  1.7562947807508904e+08  1.5431523560626507e+08  6.6195578287715681e+07  2.0648854343405321e+08  9.7997682609192073e+07  9.7348576046965420e+07  9.2525841321308553e+07  8.4237752511456817e+07  1.2622910674214198e+08  1.3446636904946721e+08  5.3387127168521240e+07  1.4154075305890391e+09  6.1540270291102700e+07  6.0693999954647236e+07  3.3273611565082645e+08  9.1899064375770617e+08  4.5119084305114847e+08  4.6894340850243652e+08  4.3570836452938259e+08  6.3572311784860417e+07  6.1047412028070375e+07  1.0879112860661972e+08  1.3129574684722147e+09  6.0114061444196567e+07  1.3129631123103206e+09  5.2255707817199659e+08  8.9336837446486205e+07  8.1812001320250079e+07  1.5283236718123764e+08  2.0133028662533683e+08  5.5993806032136285e+08  6.1067020999471128e+07  6.0889138589436695e+07  6.0870069621127531e+07  8.4887660503621787e+07  5.8672500546116129e+07  1.3202188438998861e+09  5.6331173851273310e+08  5.4093977812415588e+08  5.7393944561328554e+08  1.2309067688543220e+09  8.4972900734928632e+08  9.8921328976691917e+07  9.5846171689125717e+07  1.0161639737604661e+08  1.1765259488303435e+09  6.4257233706322990e+07  6.4862645331743151e+07  5.7617686129062556e+07  9.7422838664566767e+08  2.0661835365014938e+08  3.0700365973264635e+08  1.9564521757488437e+09  7.8932125167917758e+07  3.7565072211100006e+08  3.6280260603431529e+08  4.2186614202495742e+08  4.3704380849901909e+08  5.8336547858891815e+07  5.9304603974707015e+07  5.9087503943334833e+07  7.0124630175037965e+07  1.9741272383920249e+08  6.6864250741309309e+08  1.9550255896628267e+08  2.4982624091333973e+08  1.3782774762466028e+09  1.7341001358049769e+09  8.8846781446864140e+08  1.6069179069244006e+09  1.6472861130588589e+09  5.9098122204629347e+07  7.6579121824054909e+08  6.0590198480281401e+08  6.1709759429575849e+08  1.0660276882563894e+09  1.4778915280984396e+08  1.5428739545052269e+08  1.0316319840278403e+09  6.1102759378969029e+07  6.0293463860972852e+07  7.7334639450199115e+08  7.6418701459612334e+08  8.1015931582712245e+08  1.4202335951288028e+09  2.0734313667520842e+08  7.5789009020455644e+07  6.0744934433650330e+07  2.6535990996381578e+08  2.7811589177310330e+08  1.1470193287004571e+09  9.3874415180106103e+08  9.7296988568665850e+08  1.7925698966588202e+08  1.4472848576319702e+09  5.7837752737710886e+07  2.3612069603354067e+08  8.0152211104138505e+08  3.6132047477004892e+08  3.8427621569892162e+08  1.2980042365040281e+09  1.3519426104821520e+09  2.5425264175055212e+08  5.2680645516493523e+08  6.0476412181072615e+07  8.8395083814598128e+07  9.3695817828547075e+07  9.2113188255108729e+07  6.3271785156951137e+07  5.3396475085474007e+07  5.3149899884201072e+07  1.2362186849078794e+08  7.0667794269085482e+07  9.7989621379366708e+08  9.6011769740625083e+08  9.5352298220416951e+08  9.9393000113963270e+08  1.0715463993860000e+09  2.9510132331753933e+08  1.4547486927220609e+09  4.8121979526328266e+08  8.6764160155513108e+07  1.5616774159291108e+09  3.4892707047592527e+08  3.5365745286020017e+08  7.6602614403261614e+08  1.1307324129136419e+08  6.5688894037584849e+07  4.8937975401635200e+07  5.1869716013590187e+07  1.1630998268032163e+08  8.5977546987925917e+07  6.6958079502604872e+07  6.5809846511134148e+07  1.8973924426656240e+08  3.0756465755754524e+08  1.5245133881559515e+09  1.5387952091894186e+09  6.2377866212735429e+07  1.3537006587793314e+09  1.3404835997428062e+09  2.1855953434525096e+08  1.4355514747580686e+09  2.9759694754316866e+08  1.7439198887647429e+08  1.8230164616171604e+08  6.6182780397134691e+07  6.6532706426985353e+07  1.8252656435814735e+08  5.8844965195196427e+07  1.5212527277306559e+09  6.4791026860148661e+07  6.3975773899129361e+07  9.4393948189032793e+08  6.2476181143491566e+07  6.3133456397881888e+07  2.3638948515402791e+08  2.5069425494983512e+08  2.4922376878132537e+08  1.0337116826721007e+08  1.0551968724288158e+08  6.3587877403582029e+07  9.0753440464765465e+08  9.4104269681595016e+08  6.1922385709899783e+08  1.4438793282659714e+09  2.2628894196335623e+08  7.4035484000358000e+07  5.8286617371395580e+07  5.8373379024378091e+07  6.7309672598403588e+07  5.4503293926960096e+07  5.3966380593840152e+07  5.3748323230746262e+07  8.8212887458680600e+07  6.2167485460656404e+07  1.0794077691374652e+09  6.9222744611294121e+07  8.8263725664313853e+08  8.1912892090429771e+08  1.1662321464952793e+09  1.2711558014367893e+08  5.7373115843807012e+07  2.6529018208202550e+08  2.9203778782310468e+08  2.6890829464973873e+08  1.5723749050791445e+09  1.6129024369949694e+09  6.7856992242630661e+07  6.7396809573502272e+07  5.9179732421926208e+07  6.3883942857692145e+07  6.3019742578393817e+08  1.1716125893827164e+09  1.1705558380200684e+09  3.5620830422004294e+08  1.5011819261907773e+09  1.5364241390233045e+09  6.0682963730593167e+07  1.5699027357819402e+09  6.5001137347767629e+07  4.5190954015885091e+08  1.2970979678949295e+08  6.0235558624107316e+07  5.7471604398975328e+07  1.0504572775528726e+08  1.5218036129895356e+09  3.9454437197914124e+08  1.5800844404605219e+08  4.6241480966830915e+08  5.6662786500259042e+07  5.8637757746985352e+08  3.6510254300015885e+08  2.0153782759918094e+08  1.9297783542270511e+08  1.8620705524080873e+08  6.1856073852594212e+07  1.1695201747402568e+09  7.5205919189614519e+07  9.6678483861045003e+07  6.2089993638789766e+07  6.1051358490805817e+08  6.9605069719925359e+07  2.6160135373268884e+08  5.8207801360745363e+07  5.8431265258232675e+07  1.0828633501832919e+09  1.3187957204763422e+09  1.3649455500600703e+09  1.3746018722984190e+09  1.0483668252739851e+09  2.0206318992027393e+08  5.0788782061154105e+07  4.6139718365719116e+08  5.8632398520598821e+07  8.8102036905466050e+07  5.8595995230969168e+07  1.1046705189258418e+09  3.9098086583064145e+08  1.8194353577457573e+09  1.0759249057345253e+08  1.5570430249785808e+08  1.6203574110504556e+08  1.6498350632925469e+08  9.9397015254445478e+07  1.1828740513041340e+08  1.6359331303185940e+08  5.8642908365174636e+07  8.3245582055784121e+07  6.5355607371364653e+07  5.7892585782050289e+07  1.3246459068789415e+08  1.3315372373257011e+08  1.2927691684394091e+08  8.6219543469232941e+08  5.7812134931655347e+07  7.5862049197066498e+08  1.2292524452167684e+08  1.2162513792065234e+09  1.8939243162656167e+08  1.9190856070176655e+08  1.0229222318911115e+09  1.3733037291779845e+09  1.4148020750619960e+08  8.4911886612292603e+07  1.4449156372263741e+09  5.8713574095179126e+07  5.3709960394814038e+08  1.3557899516373906e+09  1.3316276525386944e+09  1.2420452128670676e+09  6.1879398400294855e+07  4.4736896106622344e+08  8.5732131120758310e+07  1.2335202330839233e+09  1.2028573306242220e+09  5.8236331533138886e+07  5.7769748482858337e+07  5.8898658890894100e+07  5.9208499493394367e+07  6.3938564797715120e+07  3.8333284176960588e+08  5.2678814942432798e+07  6.7061561798065789e+07  5.7850195954425119e+07  4.4658417072348130e+08  5.7654024209643073e+07  7.0787137085194194e+08  1.1931428548827336e+09  6.1837608711761370e+07  5.8713860167591035e+07  5.8934602461944431e+07  5.8861951450587556e+07  1.3217366617421234e+09  7.5395957671628311e+07  7.1949651324596667e+08  6.9444288492745399e+07  4.1285146741074365e+08  1.6025756581766064e+09  1.3526024881734169e+09  5.8413281311404809e+07  1.5332678812693462e+09  5.8207215265547164e+07  4.5982702602992672e+08  6.4628050308915712e+07  9.5221155119727492e+07  6.4339154095006227e+08  8.3232879365234256e+08  1.1628225938334709e+08  2.5381352952066880e+08  2.4458629486752152e+08  2.3598460558923510e+08  5.9658248483681396e+07  5.7641193380558625e+07  6.8743543003011152e+07  2.2127443193712303e+08  2.1618968960204270e+08  7.1619231954429552e+07  1.3789761478893825e+08  1.9408507470144948e+08  5.2580978640719020e+08  1.4215733601934344e+08  1.3639176726664415e+08  6.6879780178171709e+07  6.1674053897869065e+07  6.5745121644523039e+07  6.7617745678737789e+07  6.7553959529953226e+07  6.6865953393772095e+07  6.6390661888495743e+07  1.1254685040901632e+09  6.8226374782708183e+07  6.8279771444107726e+07  3.3395958774871373e+08  3.5128187885915983e+08  3.3898765866018057e+08  5.7665379851642296e+07  5.7595110849951364e+07  1.4473053553302848e+08  7.0073599804648355e+07  7.2005070030601710e+07  6.9120233735987291e+07  6.7417503814172387e+07  1.3228406815609975e+08  2.9071732398534179e+08  5.8411906171202078e+07  5.8709715413362034e+07  5.3515972205316320e+07  5.3063166319960564e+08  3.3278941065383637e+08  3.2670915711400688e+08  4.3194705849202919e+08  7.1272624596495494e+07  7.3316147747121930e+07  5.8755597148892820e+07  5.4469265174978387e+08  1.1589627474401577e+08  1.0459486370091921e+09  8.7471899962690258e+08  6.8572015934452683e+07  1.1147926129653072e+09  1.2886179353865533e+09  3.4707150650538337e+08  1.0089964034395859e+09  2.8331021587740326e+08  1.1228569585022743e+09  1.4462263852858682e+09  1.5166038608502901e+09  1.5423475590560336e+09  9.3496992483303979e+07  9.7325997776851997e+07  9.7810973900248125e+07  5.8918567955398418e+07  5.9037117062570490e+07  1.0595447945436566e+09  1.3173890607888834e+09  9.5842976110211357e+07  7.4622117641545117e+07  1.3089236068159592e+09  1.1993383097639592e+08  5.6580932748278543e+07  3.6321599026309007e+08  5.2004022401279233e+07  5.0651018223553993e+07  5.1577646234973326e+07  7.4040847665588558e+07  6.0218383195558250e+07  1.1537387624238755e+08  6.0374852087892115e+07  4.4629037234660101e+08  7.8282212404253244e+08  7.3924632468089864e+07  2.9175377266730338e+08  6.1438045926397920e+07  6.2610957268773094e+07  1.3371920287316637e+08  1.3734715604094365e+08  1.4048738814670017e+08  1.3419584223235118e+08  1.3106434217003347e+08  4.3705723622835433e+08  7.3681116339437771e+08  6.8533828581116989e+07  9.5028524609506297e+08  9.8439814055146980e+08  1.0184307360354264e+09  2.3353752255182791e+08  5.8450146501928098e+07  1.2666003440604591e+09  1.0105715315927066e+08  6.3289377218548633e+07  5.8605459087787859e+07  3.1038997655861843e+08  1.2323896282246437e+09  1.1495622966411591e+09  8.7353122047919607e+08  2.6101455171494731e+08  8.0743546617545128e+07  7.3088355699140191e+07  7.4054398431761935e+07  5.8458959716384366e+07  5.8775273307565749e+07  3.3593062973458302e+08  2.2183646090374616e+08  6.2100156668715373e+07  3.1737263615150201e+08  5.8916755325338647e+07  5.6358405649664722e+07  4.5842246112820870e+08  8.2137776819846720e+07  6.8131491555636674e+07  8.2931153856242269e+07  7.3621615539273262e+08  3.3209487352129298e+08  5.6007199594043016e+07  6.1894533930370882e+07  7.2724848729927376e+07  5.7024042666675098e+07  8.8363821141293034e+07  8.8633674359704286e+07  9.7748843940274313e+07  2.4461123331800163e+08  6.6511442391918488e+07  5.1945995424847144e+08  5.3836126248911250e+08  5.5487801855839133e+08  2.4136779663746560e+08  3.9034825678268546e+08  4.2293232721224266e+08  2.0738892176897666e+08  5.7755814453001916e+07  4.8342320029029948e+08  4.3047304433378416e+08  5.5006326966894962e+07  2.4873625358231285e+08  7.1225220230881482e+07  7.1483447655046478e+07  7.2916656277621716e+07  7.0140670645583466e+07  4.1319755781228769e+08  3.5154697474037015e+08  3.2729306027573383e+08  5.9996635183431916e+07  5.9909955502248384e+07  1.4484566500081122e+09  5.9693103686090954e+07  8.4660032135379687e+07  7.8635450710560814e+07  8.1771048694488615e+07  5.3083443321176343e+07  4.0140726520019305e+08  6.6439893667624600e+07  6.4279580920744866e+07  1.6981793879788360e+08  1.3772704269482777e+09  6.4069242934626170e+07  7.0076608860331967e+07  7.0030662443927079e+07  7.1698409662208527e+07  8.8062992902933925e+07  6.3320569333901487e+07  1.1249406150620749e+09  5.9728360860057898e+07  4.8368704580288666e+08  5.7500505364648089e+07  7.1527156918381870e+07  2.4264176500834969e+08  5.7596558179168284e+07  6.1271475317106336e+07  1.7327054930602145e+09  1.9586583171492827e+08  7.0479099915109977e+07  5.8089675320943311e+07  5.6557195111354247e+07  1.3213492520116571e+08  6.5874033957597859e+07  1.3783967135542760e+09  1.3458735189208617e+09  6.3611017480828747e+07  5.8497112705025144e+07  8.0330647280274853e+07  1.0285879159906348e+09  2.9247385106736970e+08  2.7906473842661732e+08  9.5310287201292288e+08  6.9324482560914874e+07  6.9587138117020234e+07  6.8670435897599980e+07  3.8532032908127898e+08  3.6775302872701389e+08  1.1202357142205331e+09  1.3019695606753632e+08  7.1140711526174217e+07  1.5115575243407708e+08  6.4105842026085816e+07  6.3910885079899289e+07  6.4433175484127216e+07  1.3503987568341608e+09  6.8999247698744404e+08  1.0459338517831043e+09  6.0879392260261722e+07  1.4157878367821908e+08  1.4429520197405651e+09  7.5213383940886721e+07  5.7881992294839703e+07  6.6316858220513895e+07  2.2814671219151452e+08  7.0394130481872022e+08  5.5877032095230334e+07  6.8073011714513540e+07  6.9052402909370303e+07  4.9469012228845012e+08  1.0538615377146278e+08  1.0049584729809290e+09  5.8071073244260050e+07  1.4424965654714909e+08  6.2456542021322362e+07  5.8551439664383732e+07  2.2550044025970590e+08  1.1237883992355600e+08  6.0811259545418762e+07  1.3416121206130753e+08  1.9124504553215575e+08  1.9511402967626923e+08  7.5673810093023658e+07  1.2856739707189016e+09  5.2136963112623528e+07  8.8748803156007662e+07  1.1847414968020418e+08  1.7823241859541640e+08  6.3513625595667839e+07  6.3621437154113047e+07  6.4971274379598975e+07  6.4396121312992007e+07  6.4272554507198133e+07  6.3947249871922106e+07  1.8793156827664369e+08  1.1158527087916248e+09  1.4739979672022598e+09  2.1993381194876385e+08  1.8926840960590440e+08  7.1996258439851239e+07  8.6237223315231189e+07  7.0720685333571482e+08  7.4440918060675144e+07  9.7948685230537522e+08  1.0084316294041697e+09  9.7015508257175815e+08  1.2181913623393580e+08  3.1386179235257143e+08  9.0246263600504756e+07  7.2865881671422496e+07  2.2170420007297072e+08  1.4995774230905512e+08  1.3902519467933318e+08  1.0777726717947626e+08  1.1594276668470564e+08  1.1460184446105435e+09  6.1323299812546149e+07  4.2147109890658987e+08  4.4232465176511717e+08  2.7290702566111755e+08  1.9373928768207121e+08  5.3288214338491499e+08  5.7809199713675082e+08  3.0212294905808884e+08  6.1437953138153479e+07  1.1227157455818321e+08  1.1466706607176137e+08  6.0091494640038565e+07  5.9930549032369815e+07  5.9347729595245123e+07  1.1670701274190249e+09  1.6106900694105029e+09  1.0515855561994113e+09  9.6117460804930139e+08  5.8525142788240053e+07  5.8790813358912505e+07  1.5812803027963024e+08  1.2296544554055982e+09  2.0493290576998648e+08  2.0695196861115810e+08  7.5104640682347745e+07  6.0584497906655833e+07  8.5555939208997265e+07  6.0895280731205568e+07  1.5067688513602145e+09  7.6817704107665405e+07  4.7849453356127761e+07  6.4062123549114399e+07  2.3264023584576619e+08  6.5761680022250548e+07  5.8807591865158476e+07  4.6009638425298072e+07  5.8826552814746581e+07  6.3810083819453083e+07  1.9551330055953434e+08  5.5130422351764604e+07  5.8805179592020690e+07  1.6522011085165295e+08  5.1343686352965313e+08  8.2280141551043212e+07  7.6302251323319033e+07  8.4871793569576696e+07  8.2061189228830695e+07  7.6832983061786518e+07  7.9001761475017533e+07  5.9053621261548348e+07  8.4918285000987932e+07  2.1386165174005976e+08  4.5557004154973078e+08  5.3334035401586777e+08  1.8921708617102411e+08  1.4740406567726831e+09  7.9597959856380865e+07  1.1834074992934184e+09  2.4529809278744379e+08  6.8831737704439297e+07  9.3894398225474215e+08  9.3685386770128059e+08  9.7781884126730227e+08  9.7524620129161251e+08  1.8623326647800291e+08  5.9870190124321125e+07  5.8507199397403367e+07  6.7852460808264926e+07  5.4955367575140566e+07  6.6057079122019887e+07  3.1466633359948593e+08  2.8935157810538673e+08  5.0021288208882594e+08  8.5461735788552657e+07  1.0187840149165589e+09  6.7786005480341166e+07  1.4833220485527077e+08  6.4903575035594381e+07  4.8749311180623007e+08  4.4117290923385185e+08  5.5291218329072945e+07  7.0347636565490693e+07  2.5209744634716058e+08  1.5674035230088475e+09  5.6599587838011801e+08  2.2306539678634638e+08  1.2196600873196917e+09  1.5429159856194932e+09  6.0663178305830061e+07  6.3082016533180848e+07  2.0060362831978506e+08  1.4042591192787991e+09  4.2371379200216031e+08  5.8696240664641261e+07  1.1480096535226438e+09  8.6935975792823696e+08  1.0335777639945608e+08  6.4337567073392592e+07  7.3164530516784537e+08  3.9478220301548058e+08  1.3124506260417538e+09  6.0639373376754254e+07  1.5320135682706091e+09  9.4817214960038155e+07  7.0987567914369702e+07  6.8494188576569393e+07  6.9798197119588703e+07  5.6946020334699497e+07  1.2281598298295615e+09  1.2445181159361525e+09  5.5832508006226093e+07  5.6693264198562115e+07  3.3266461101453155e+08  8.4193643530834794e+07  8.4422752321407124e+07  1.3390777030454035e+09  1.3023832675544803e+09  1.3625030241115575e+09  5.2451706656932995e+07  6.0350405931259513e+07  1.6170274561006904e+09  7.8513913026053643e+08  6.5746798956789158e+07  1.5290662985367084e+09  2.4291764589666960e+08  2.6093883040337053e+08  2.6036359452644229e+08  6.7088962073878610e+08  1.5315275781069942e+09  2.4031677409623021e+08  1.3177384735533125e+09  7.2243074332747087e+07  4.2217171665675920e+08  3.9897131632916284e+08  3.1341773748176080e+08  3.2717922949803329e+08  3.3085121011095726e+08  1.1597993523502514e+09  6.1458009077378251e+07  1.3257882202218676e+08  9.5830869989203846e+08  1.0058389897878109e+09  6.2322077280607566e+07  8.0322321093059075e+08  5.9021420855793081e+07  1.3065730021471064e+09  8.3512482899280524e+08  4.1484745435352647e+08  6.5051462582802847e+07  1.0656047703631523e+09  2.2494761046626043e+08  1.2824334198978851e+09  1.1197671537007008e+09  9.8902659319261301e+08  1.4045628435380879e+08  5.7043790806464791e+07  9.0138276785965770e+07  6.1406388591495350e+07  2.0602384374449486e+08  6.9152936848747671e+08  5.2961484043813580e+08  2.0468606658849818e+08  1.0414415077791429e+09  6.3730751757297195e+07  6.0310668758944392e+07  5.4315239945773475e+07  1.2441865955798313e+08  4.0768425377682745e+08  5.8319385611043386e+07  8.5155326570608899e+07  3.7278656165496522e+08  5.9359454009521589e+07  7.6064235061005905e+07  8.1046510181874239e+08  5.2327448751243837e+07  6.0584646003936239e+07  5.7248216849494028e+08  1.4147499265743859e+09  1.3170561042910025e+08  1.1187004387474094e+08  7.8074563379210651e+07  2.8712986306127971e+08  1.5076270530643708e+08  8.2249029366223648e+07  7.5756167794455305e+07  7.5621610311706901e+07  1.1302873991293326e+08  5.6029082725929849e+07  5.6269332596816689e+07  1.4532874680387721e+09  5.6107284604861975e+08  9.3897536598213255e+08  9.0567832748269939e+08  8.8591947545801115e+08  2.2839699058264163e+08  1.0006243015453267e+08  2.7619654304875648e+08  1.5721536443214722e+09  2.6425397463644096e+08  2.8226794607698816e+08  3.9837940278351897e+08  3.7506444167004651e+08  4.1574982441938424e+08  1.7598190276619142e+08  7.6964454154135451e+07  3.3699525687314230e+08  1.4605146333366147e+08  6.1961111678193226e+07  6.1824966911512330e+07  6.0808312949527696e+07  3.2452668757995331e+08  3.4647175867766809e+08  6.1094225538291834e+07  4.1083793641116077e+08  4.2065446328237933e+08  4.0920665237128639e+08  1.2946113038457869e+08  4.4357701618378419e+08  1.3434573573099172e+08  5.8958114196666431e+08  6.9041590432465091e+07  6.9988458974308416e+07  6.1709942885650717e+07  6.2192198473004460e+07  6.1163514855778933e+07  6.6557216212176725e+07  6.1034636298301093e+07  2.7689205967879516e+08  1.2066710827827227e+09  1.1995241169516332e+09  5.7628362248992078e+07  5.8040755325123273e+07  5.8667702846068978e+07  1.5432179076772505e+08  1.1201602911749785e+09  6.7953233496198609e+07  4.0347732399954432e+08  6.7370137451049432e+07  1.3973303317169414e+09  1.5614261968334656e+09  1.5131971716315503e+09  9.7416159541454971e+07  7.8769810218559995e+07  8.3503888377551317e+08  5.8643423031272240e+07  6.1125766098267145e+07  5.9032288805410109e+07  1.2763902222655633e+08  6.6791998209377110e+07  4.0232620791647106e+08  1.0946185996498709e+09  6.6303946179520428e+07  1.2326002434545279e+09  1.1971127406278524e+09  5.8915525496655561e+07  1.3545120673721552e+09  1.3702152572401614e+09  1.1162001102295709e+09  1.9490440284438166e+08  1.6775233474674314e+08  2.2071056075460753e+08  1.7472748764941850e+08  1.8326697103236991e+08  9.6351876750324428e+08  2.6738141840820768e+08  8.6705616748905146e+08  6.9701116529882610e+07  3.2372620075680715e+08  7.1716272833103925e+07  7.2674770566145271e+07  1.1491297517449285e+08  2.4846979368752131e+08  7.3954698255012110e+07  1.4844061234438210e+09  7.8964481956480694e+08  1.4002140174802253e+08  1.3019050786839743e+09  2.5176213259054071e+08  5.9306556476876743e+07  5.8667560672992952e+07  6.0301888490249902e+07  2.5298774890826380e+08  5.7753986161615208e+07  9.3908659134137109e+07  3.9385331717718542e+08  3.6655149401315022e+08  7.7717472190234229e+07  4.6100871958882874e+08  1.3844101017937047e+09  1.4160725545441916e+09  5.5414275103979707e+07  6.1270144620847315e+07  5.8213008447974212e+07  1.3642088178462657e+08  7.4493777295366669e+08  2.1345093529478356e+08  1.3995642340674229e+09  5.9905097824705172e+08  1.5942116669548764e+09  7.1103111879527897e+07  5.7350358234840766e+07  5.9838138453933075e+07  7.3745447505848968e+08  1.4442317490384120e+08  6.7533413404519275e+07  8.0718033398074961e+08  1.0946820261708723e+08  6.3204644443607658e+07  4.8327802884523284e+08  3.8683213999282396e+08  4.0367208888093203e+08  4.0513786181447452e+08  9.6825898506665051e+07  6.0769759353907354e+07  6.2314057690845203e+08  1.6201060681046085e+09  6.3605747857015260e+07  1.4064469861407053e+08  6.4993176374488294e+07  1.0117672946097033e+09  6.8968659943156838e+07  5.9536689933046192e+07  5.8120009323710933e+07  5.8125639718728505e+07  8.1915497531370616e+08  1.4410605598239954e+09  1.4180016567769523e+09  1.4669230878174400e+09  1.2419837528237276e+09  3.9309158764826936e+08  6.5687958188669607e+07  2.1596408851407269e+08  3.5604187804694593e+08  1.1980116880708494e+09  1.1480899319988685e+09  5.9151083373259895e+07  5.9758861209589653e+07  6.7651005883948818e+07  7.8984519298313245e+07  1.0240216991980512e+08  8.0172059392996028e+07  8.5587603162595749e+07  8.3955928560276955e+07  8.2456798431860223e+07  7.0210270048922348e+08  2.9576342196479028e+08  7.6880426073151261e+07  5.4755137085526064e+07  5.4739563013832116e+08  8.5100064691519213e+08  3.1173323249040693e+08  3.2512685207983488e+08  3.9552363653278726e+08  1.3724811296337563e+08  1.2745304254868171e+08  3.6443661498056895e+08  5.8163454727960989e+07  1.0958936317720063e+09  5.9160955077376401e+08  2.5449693295663229e+08  8.7367954809648946e+07  1.5694994808549130e+09  6.2196873745491154e+07  1.0227360768653604e+08  9.4156339241976336e+07  9.2367371987074703e+07  9.0249467914646104e+07  9.0290120609448060e+07  1.0534811739685513e+08  1.0713984499322677e+08  3.1632575271347421e+08  6.1063961471847199e+07  1.5286852278719607e+08  7.2143412942883834e+07  6.6284274420030162e+07  6.8184017825536773e+07  5.8447106871596992e+07  5.8338496060341425e+07  6.9919859543696284e+07  5.5024515044235444e+08  8.8366106864109814e+07  5.3157549753374770e+07  1.0011893556918042e+09  5.6588484046004146e+07  3.1470188571763951e+08  6.3439613827951074e+07  2.2993517785893086e+08  2.3313407178581476e+08  1.2176528742954174e+08  1.0331460173125888e+08  5.5315214313335228e+08  2.3267505948737943e+08  6.8600380176470876e+07  1.4854358711668372e+09  1.4707109278219903e+09  1.4928525582671728e+09  4.8473028692511433e+08  6.6872114872672215e+07  1.1129492646453631e+09  7.5417786866791472e+07  5.5051521570339525e+08  3.7257352835583264e+08  5.7895562941628672e+07  5.7667473703016944e+07  4.7855906641351211e+08  4.1327979592422622e+08  7.3039952159841955e+07  7.2740807490153581e+07  7.5482297854688734e+07  1.1826395195269279e+08  3.2827348241488534e+08  3.0684205712725514e+08  3.2792073985545719e+08  6.5222789250694430e+08  1.7434523292873788e+08  6.2864191545867808e+07  6.2567867235743865e+07  1.1802701523460767e+08  1.1561214654112072e+08  8.6133641042039394e+07  2.1682583437571043e+08  6.1259911247634642e+07  1.8546732686132243e+08  1.9392283738461828e+08  9.1868741761275306e+07  1.1921035110971367e+08  2.1039842443498644e+08  7.1389836095829681e+07  8.7471421560777262e+07  6.2872104838983253e+07  3.5194239017270970e+08  3.5048442458842611e+08  3.3986777632120287e+08  5.9495109166511908e+07  6.0311225902842559e+07  8.6590195083868778e+08  8.3156013546900642e+08  8.8124286308709252e+08  8.6498539183231920e+07  8.5452551667123139e+07  8.9932651103919163e+07  1.5230871556253934e+09  1.2425232052914537e+08  6.5906463510530785e+07  1.0110063910594468e+08  8.2285403706946373e+07  9.7290909769678697e+07  6.0258315593138859e+07  2.1701515144733465e+08  4.3733844805419666e+08  2.3455791100528580e+08  7.6970828821359232e+07  4.2310622548332298e+08  6.4303486492388964e+08  6.2537827568322420e+08  8.8435013529179299e+08  5.9930806196164444e+07  1.0619254553824337e+09  7.0846141712436870e+07  1.3108754022505009e+09  1.7265799062408885e+08  9.0708448569508100e+08  6.3509979615701683e+07  6.3150075968943119e+07  5.9892294099943526e+07  1.4377527729374924e+09  2.2547267343549997e+08  1.3933718800658453e+08  3.1862571787107760e+08  3.2015334883096731e+08  8.5654623059154168e+07  6.6311069955763924e+08  1.0120683219736285e+09  5.6393639427779444e+07  1.5090714878232439e+09  6.1352596520450342e+08  6.0941989900552526e+07  7.0933107555027410e+07  6.2599033176307835e+07  6.5375080964748822e+07  1.5633021492019465e+09  6.8128359612161502e+07  4.3154955560797161e+08  1.0746091229784691e+09  7.1190881938102648e+07  7.2983693527526930e+07  1.6221868431326804e+09  7.0131814387106431e+08  7.4843807529505655e+07  5.0956101979573958e+07  6.5437938147562042e+07  6.4043644097390868e+07  6.4423714017889164e+07  2.6899301199325508e+08  6.8476633291981173e+08  6.5747697531731355e+08  6.8825025537197340e+08  5.5953108888169125e+07  4.8567657958931661e+08  7.3203296057536912e+08  1.8643373457095233e+08  6.0092836264099009e+07  6.6254858791756004e+07  1.0902312466545497e+08  6.4815813287269659e+07  1.0377862392875345e+09  1.3911385725294363e+08  1.4487365628338000e+08  8.0620324802840859e+07  5.9990931889590383e+08  6.7797892648650420e+08  5.8620066914247736e+07  1.0980926622067721e+09  4.3819653494816196e+08  7.6362730833271205e+08  3.4786278217205262e+08  1.4834538277827466e+09  6.0050458924288586e+07  8.3083393304984677e+08  6.1778291050771430e+07  6.6914149009631678e+07  4.0808641229017973e+08  5.0948179512143113e+07  5.8551082188434906e+07  3.6775786273009181e+08  3.6455696361155534e+08  3.8736053929400420e+08  4.1962346008909833e+08  7.9950709984983683e+08  8.2672554549381387e+08  6.3952655566063263e+07  6.4197113843992174e+07  6.4473730458146468e+07  9.3229689433914974e+07  9.3768081707460433e+07  9.5222986780674174e+07  9.7001460484349144e+08  1.9757565093190503e+08  1.2897386251803489e+09  1.2319050527147481e+09  6.4971811170481138e+07  6.0300939521742970e+07  9.2556472138397127e+07  7.4905959496253461e+07  7.7046378808718204e+07  4.0293153683331139e+07  7.7762953100803077e+07  3.7811299394731975e+08  5.7883951014994077e+07  6.1830691839832790e+07  1.0689297707376825e+09  1.4097332837013689e+08  4.0803274767471325e+08  7.4411088674030975e+07  8.9778285319192097e+07  5.7207287785250567e+07  5.5640134169163120e+08  8.0238116070005941e+08  1.6229530613720570e+09  3.8222959677612478e+08  3.8791503397910684e+08  3.6521792024402970e+08  5.5633640443901442e+07  5.7872923621875480e+07  1.4796762000418693e+08  1.1636238202411358e+08  5.7704378316036224e+07  1.1193578202534017e+08  8.9810244673822626e+07  2.5456609711355039e+08  7.2719229712900847e+07  6.1559098640649170e+07  1.7489163784426332e+08  7.8866360978417411e+07  1.1353411905949993e+08  1.4806207975101185e+09  1.0291781983562036e+09  1.8495516758467945e+08  9.2846620041242376e+07  9.0347723795822695e+07  4.6531758911590463e+08  6.0520182440072393e+08  6.1631515220110163e+07  6.1915087014403842e+07  4.2311236548780304e+08  1.8670960641079858e+08  1.7908812329370844e+08  1.5794289980463762e+09  6.1453203958556913e+07  6.1412538024835028e+07  6.1780979768672124e+07  5.7954376659798704e+07  5.7778885152715564e+07  8.6743776937271452e+08  6.3379723787189215e+07  3.7739765969191086e+08  5.4160972844292440e+07  2.7608197176079673e+08  9.5878611879834270e+08  6.7130480486831352e+07  6.0703674732147205e+08  1.5603493672694299e+08  5.7923057226919866e+08  4.5622675437861860e+08  3.9047077921408057e+08  6.2091618999018304e+07  6.1234452114763178e+07  1.0922654003285457e+08  1.8113362371706381e+08  1.6777433495671341e+08  1.0862048779901977e+08  5.7795105192399395e+08  7.3508714986654788e+07  6.8392208406127349e+07  1.9732329048751705e+09  1.1068934368342724e+09  6.5704853116873693e+08  2.1000558570137095e+08  2.0075848567991382e+08  1.9490324955823693e+08  1.3178519363410583e+09  1.3553012761373551e+09  1.4491544391391838e+09  5.1567961403211766e+08  5.4026846127558136e+08  5.5152769499186146e+08  5.2621781563771534e+08  1.1993479632801819e+08  7.8134283912283623e+08  7.6570667759901011e+08  1.4100005834560242e+08  1.4594383035407922e+08  4.6523401596965963e+08  6.8272787024381325e+07  2.9739138756012535e+08  2.8784249175848019e+08  1.9861697980156854e+08  8.0487345961559594e+07  6.5617553821869560e+07  1.2513827741882136e+09  1.2530890241005530e+09  1.1490121333095933e+08  3.3273240723776275e+08  5.9948242699303314e+07  1.3887045023575287e+09  3.2064346904362279e+08  2.1963800240678781e+08  1.0143847369057962e+08  1.3948008469516462e+08  5.5968710895029068e+07  7.4915293330364347e+08  7.1181968590813386e+08  7.5698242859118640e+08  2.7149059695661879e+08  2.8125047358328992e+08  1.6341986491069666e+08  8.6173376530788624e+08  8.3719289336469007e+08  9.1493615575345308e+07  1.1698919421965094e+09  3.8839202104943424e+08  2.1620428135481140e+08  2.3273657221658000e+08  2.9810680419540870e+08  7.4464083314221337e+07  7.2840228749560142e+08  7.5073662674503386e+08  1.2319776361569388e+08  1.9664146468486422e+08  1.5122146848203061e+09  2.6440798230775943e+08  1.2666207464115044e+08  7.5201644701755598e+07  7.0260705082110330e+07  7.0381404612618104e+07  5.7094707730964929e+07  1.1976530315052941e+08  5.9603971737300858e+07  1.1513208079075831e+08  6.6733290227429497e+08  1.1508448244415976e+08  1.8838105737607846e+08  1.7913363103028905e+08  8.9005043721801594e+07  7.0369401318731916e+08  7.1742190323727146e+07  2.0724376908018902e+08  9.5096827334990650e+07  1.0107946223829660e+09  5.6768211694193803e+07  1.3331007389250498e+08  1.2985725314208892e+08  5.6716158564975774e+08  5.9347372684592855e+08  7.6083987724957883e+07  6.9503993881553841e+08  1.2025724554926362e+09  1.2351024450840101e+09  6.9745395250932419e+08  9.5591716825347257e+08  1.3019760999954464e+08  5.5269789182875350e+07  5.7742776991176344e+07  1.7914596675197050e+08  1.3708099686720395e+09  1.2888898329906474e+08  1.3212181697411942e+08  8.6158924900398469e+08  4.0068902652227819e+08  4.1814927986826390e+08  1.0511450923314913e+08  4.8171984816759640e+08  8.1283502117978537e+08  6.2912749583683848e+07  6.2879401061713569e+07  6.2341136348340921e+07  5.2705875726623788e+07  1.5683631607300034e+09  5.2600666870606832e+07  1.8109596092893329e+08  6.5134329797087297e+07  6.1578896169220552e+07  5.8843469497423992e+07  5.9425977924664371e+07  7.9665268881149665e+07  8.2657575599896207e+07  5.3057661070293480e+08  1.2629573034163706e+08  8.0671886403505373e+08  1.6106327871161060e+09  5.5871214262166046e+07  6.6543289037715264e+07  7.0421073215806916e+07  2.9584182267210746e+08  6.4612585575861439e+07  1.1073394969331549e+08  1.4391680009218222e+08  3.3236687257956725e+08  1.4896095325088981e+08  4.7469052782849646e+08  1.3009564145260379e+09  2.8481159712109369e+08  2.7056857851721162e+08  1.2126885299673479e+09  9.7787326606082544e+07  9.0017110705487227e+08  2.7590279733933049e+08  1.5712291293098457e+09  8.5705187023875654e+07  1.2115243862531221e+09  1.2620494723627086e+09  4.6385216165662223e+08  5.5760583064452924e+07  5.7336766628534839e+07  1.6520287292733276e+08  5.8986084124151133e+07  1.6863731181976867e+08  1.0408732513525165e+09  3.1537129372250307e+08  3.2319845302934390e+08  1.2438950490367424e+09  6.3377003354801275e+07  6.2671476038955636e+07  1.6182340970243847e+09  6.9804027746690854e+07  6.0636154273198128e+07  1.6324902447956967e+09  1.1836564018764760e+09  5.9356629151523478e+07  5.7958901932880484e+07  5.3117200989657082e+07  5.3186003380439281e+07  5.2507487439753875e+07  6.5044110857575849e+07  6.4658261781324580e+07  4.9633620933490187e+07  5.0504041595274121e+07  9.2553675704336673e+07  8.7658286461185217e+07  6.9896677225387186e+07  6.0127187312237300e+07  5.9332059402081594e+07  1.4805752487427552e+09  1.0144316655802824e+08  1.0151493916247557e+08  2.1389135297878921e+08  2.2850331348076010e+08  2.0485645138420686e+08  2.1361225435784766e+08  1.4810467392234826e+09  7.8213116140056789e+08  7.6834152896275723e+08  7.4698873664665496e+08  2.3985152449266049e+08  2.0591927756479007e+08  9.5655903492497528e+08  1.3432646665552905e+08  8.2188516507826793e+08  1.9915957890129027e+08  6.6791251500645496e+07  9.6504785659268093e+08  1.2672105080492990e+09  5.8043494481196594e+08  5.9856624402200073e+07  5.8060259771852925e+07  6.5358593857726999e+07  2.4262611129840639e+08  2.3894703449828470e+08  7.5960066756468117e+08  7.1622403736194241e+08  7.5529695495379078e+08  1.6171630317572482e+09  1.5802608298105679e+09  9.9982562209458947e+08  5.7452959201563694e+07  5.3701092290135717e+08  2.8492235962531519e+08  1.0042128173023963e+08  9.7300361686687723e+07  6.5225005045418538e+07  6.6646654717740305e+07  1.5685512565579967e+09  1.6165820977301559e+09  9.6748149893289781e+08  8.6764816092058551e+08  5.8205630402127326e+07  6.3271424931557901e+07  6.2850127569757827e+07  6.3813793880903244e+07  6.9644080651440769e+07  7.9732329596823323e+08  6.1695954414215612e+08  1.0848874606456347e+09  6.8450418574808151e+07  5.9955165375455332e+08  8.6950700620492265e+07  2.5218608412213561e+08  6.3272271970306695e+07  6.3248121845066242e+07  6.0455541117523044e+07  7.3120159039066479e+07  6.2807733712811664e+07  3.3704074476875174e+08  1.7400368802375564e+08  1.2090069230279930e+08  1.2164652717522353e+08  1.5238606383985538e+09  1.4745431732828374e+09  1.5672483450327983e+08  1.2619354851683118e+09  6.1752358494395606e+07  5.8194749838537917e+07  5.8770895685490742e+07  5.9052611721927658e+07  5.1669614097883075e+08  4.2851765541784519e+08  6.3572230480130196e+07  1.1318852178400855e+09  3.3573382285669750e+08  7.5446299663811669e+07  5.1746167446720749e+07  3.8381772569677645e+08  6.0519696833511941e+07  2.8207596529045624e+08  3.4992225463889676e+08  3.3091417247580373e+08  6.2945861763404079e+07  5.7645706270160131e+07  8.5026908594541597e+08  8.6676946140548480e+08  5.1454037224037729e+07  5.1193769678406909e+07  9.6583777999725565e+07  9.5978036736436605e+07  1.3563227361749351e+08  6.3000959613119610e+07  8.3220597911272898e+07  1.4552455312621663e+09  1.5133479840957086e+09  1.4853901903400846e+09  9.0215652840689719e+07  9.5630339245898798e+07  6.4124065485553429e+07  1.1083038306172695e+09  8.8787164299082071e+07  5.3125428192676574e+07  5.8789883328702867e+07  5.0367992888510570e+07  1.6088397715299685e+09  6.8761512389878169e+07  1.5937846709659711e+08  5.7643992730934761e+07  1.1505356820625553e+08  5.5733043845794253e+07  1.6097611979284439e+09  7.5752319659812665e+08  5.8166148820112026e+08  8.1330448905129552e+08  1.2212138742154508e+09  1.3262742964030259e+09  7.6975903274920091e+07  9.4980297024406946e+08  9.2805679675799644e+08  5.9481740933788049e+08  1.8674766555528864e+08  1.5894508769446273e+09  6.2120456440584850e+08  6.2238362604963970e+08  6.2717768329621695e+07  1.4966981481912162e+09  5.4361304506410316e+07  5.3781047882199250e+07  1.2474163602020516e+08  1.3311383634412478e+08  1.3007705839280088e+08  6.0652542921994314e+07  2.4692600407864732e+08  7.1257052825602666e+07  1.7753740213663787e+08  6.3517757963803947e+07  5.9009305808708452e+07  5.8845540409695797e+07  5.8666846131127566e+07  1.0661662937668556e+09  5.7764373124216229e+07  5.0549803757538980e+08  1.2350531088193252e+09  1.5728434356231863e+09  7.5889448572713625e+08  1.1472771830223866e+08  7.4009056914767399e+07  8.4197405137620911e+07  1.6752697756920204e+08  6.9674971866582543e+07  6.5439275598324323e+08  7.2831573668502152e+07  5.8589424649962261e+07  8.2710944545442629e+08  7.9444393083164299e+08  6.0616011098048210e+08  6.5301065914145851e+08  8.4357110020083472e+07  8.1430300649220839e+07  1.2897597138792081e+09  7.6986973315878212e+07  1.2708940228674095e+09  1.0947714460566761e+09  1.0693667338560448e+09  1.0922128593277636e+09  5.8959899210591272e+07  6.5933845982645318e+07  5.2647096123008169e+07  1.2416374771756774e+08  1.0558356947990924e+09  8.7559367887544230e+07  1.2182371044834790e+08  6.4387142340985107e+08  6.4686646297314256e+07  6.4138447929581784e+07  5.6956359734591484e+07  2.0029573739085397e+08  1.9218396036436921e+08  5.5000403301427376e+08  1.0569505350592629e+09  5.8693349191080153e+08  5.4545695491372085e+08  7.8376624213238704e+08  8.0310331525815666e+08  1.0777789471085246e+09  6.3222285820166528e+08  6.7985927588588202e+08  1.8099785739047834e+08  8.5005137615225419e+07  5.8012594217812955e+07  5.7435343112641148e+07  5.7336955091348976e+07  1.1426848389809480e+09  7.2799498875043243e+07  5.7858059372721285e+07  1.5668033536960690e+09  8.7546275883589125e+08  5.7936575935681857e+07  6.5087252792960441e+08  6.6131336439098120e+08  6.3060299537058793e+07  5.7867807352511108e+07  6.6083648011112943e+07  2.3705716864943650e+08  1.4431094262983957e+08  8.4948197778262362e+07  5.9434060137784019e+07  5.9142369029275514e+07  6.2762267184793398e+07  1.0797542940678662e+08  5.7124377952049577e+08  5.0209921475188637e+08  6.0114590118970551e+07  6.0091339531826273e+07  4.4626574362433171e+08  1.5179064405045617e+09  5.9591429049681917e+07  1.3916091677091298e+08  6.5234454922304772e+07  5.8246675870879777e+07  5.8267174456478216e+07  6.5817238757161885e+07  8.2726025203237629e+08  5.9152705980620801e+07  1.3945851069326322e+09  4.3442976803881449e+08  6.9456147625313103e+07  3.0968387307255328e+08  4.9648583986423039e+08  5.1034582304403836e+08  6.0392728659967795e+07  1.4900760205414863e+09  1.5554790440979514e+09  1.5266498386147118e+09  1.5177579666874700e+09  5.5363452350935161e+08  5.7908999187708870e+07  1.1840332024748999e+08  1.0943011717642095e+09  1.3969289456140354e+08  1.4469551188673699e+08  1.6999634310184613e+08  3.2341454361771721e+08  3.0264494806448454e+08  4.9892537588781124e+08  2.0661803761847314e+08  8.9129882919216171e+07  8.0036257322215354e+08  9.5919069013802648e+07  5.9115675971289538e+07  5.9406720469200514e+07  1.8812498384683838e+08  1.8426079429285529e+08  5.7117466405346029e+07  2.1853554651732871e+08  6.1874834337018919e+08  7.3611591843278319e+07  1.6639401309330621e+08  6.5766744581464373e+07  1.8711294451662600e+08  7.9679809885192168e+08  1.1433079764299245e+09  3.8263877630011755e+08  9.8553849353330803e+08  6.6332126554423928e+07  5.8061708911127305e+08  5.8502689678612143e+07  5.8660725269893385e+07  6.3531748375955991e+07  1.3447747043846827e+09  7.8375894137593195e+07  6.0245673913267478e+07  8.4122836932708144e+08  7.9560209253869319e+08  1.0240246776704870e+08  7.2201571937827691e+07  6.0834931707705572e+07  7.3501692601918149e+08  7.1003241895396125e+08  6.8826138163277078e+08  7.0658103127044141e+08  6.0521837850261398e+07  5.7758099640375137e+07  1.6133542490794370e+09  8.4228667351558015e+07  7.7317746138779566e+07  3.2304228917123222e+08  2.1849984750113586e+08  2.2635969119312406e+08  5.8361768993923016e+07  6.7625974820570141e+07  6.7234375644500777e+07  6.6567491160298578e+07  7.0980211273720133e+08  1.3750742208810309e+08  1.5875319394939773e+09  1.1912967241445731e+08  1.2278184066185443e+08  6.3826166252890624e+07  3.2032517550436044e+08  3.2120241864880210e+08  1.8830179792568597e+08  4.2601975931880963e+08  2.2527023682218993e+08  2.3551377380874166e+08  6.0918022401349828e+07  6.1052205188491516e+07  6.1315355131361529e+07  1.6188529700221914e+08  6.4048825251554288e+07  1.0226427059686039e+08  6.6920323409609050e+07  6.7616086928510487e+07  9.6480027379623517e+07  9.7748453604956791e+07  6.7584068374502063e+07  8.0207170225738779e+07  5.2112326440364414e+08  7.7780878952933025e+08  1.3632924555322268e+09  5.9927815926115401e+07  1.7808265708762589e+09  2.9079118910219395e+08  4.2179915385933125e+08  6.1065909004315071e+07  6.0936365537699491e+07  5.9226903703039408e+07  1.2551073742950842e+09  1.8069686166586584e+08  4.1883315842714286e+08  6.2805661970603243e+07  1.2746542453549458e+08  1.3745645435228437e+08  6.5927592584311925e+07  5.8416708296222079e+08  6.6857505370768204e+07  8.0412068932032013e+08  7.3797438269521087e+07  6.0639676999866232e+07  1.7295992302585772e+08  2.7798994532026029e+08  1.7894859965060184e+09  1.6057134549567437e+09  2.4260747910268232e+08  4.3105949863796377e+08  4.9760074721960068e+08  2.1155230482869482e+08  2.1217955425409734e+08  5.3524532269121301e+08  5.2935929348647600e+08  1.6148950181637332e+08  6.3081183819535293e+07  6.0113581416762538e+07  1.2133346672365443e+08  1.5018157600535178e+08  2.5268424736877018e+08  1.2308557881860822e+08  8.3838125424864888e+07  6.0471759636748567e+07  1.2196970192466749e+08  3.7086511969562441e+08  1.7082182708728832e+08  6.4213194960879475e+07  1.0361744353699646e+09  6.5973294832451344e+08  6.5568876219606555e+08  7.4107138224671945e+07  9.9010464641434538e+08  5.8971383718618400e+07  8.3736371393187678e+08  8.0208303004203212e+08  6.1729640015973434e+07  6.2087416419947058e+07  6.2234139760721557e+07  6.1953487712808385e+07  6.0946865910176739e+07  5.6552030359821863e+07  6.6310432639186375e+07  6.1402151215343639e+07  5.5255059111225605e+08  5.5099786415528882e+08  7.0460994064752996e+08  7.3035689035146272e+08  6.9551676155763701e+07  7.2315835397802031e+08  1.5834477443793161e+09  6.2999665346522760e+08  4.3829816733486676e+08  1.2685698831600676e+09  4.7446488930388026e+07  1.1361843322411326e+08  6.6497423493194413e+08  6.8693675847687554e+08  1.6639911745560783e+08  1.7794809852801916e+08  6.8596542122828770e+08  9.6568987339174390e+07  8.7423517568949476e+07  7.6609800260922953e+07  6.0242726017040767e+07  7.6738380177292871e+08  6.4843056310181990e+07  2.0575757731142771e+08  6.9364157736009598e+08  3.6313402024894118e+08  6.8167837403687358e+07  3.5735332949451131e+08  7.1920799416964054e+07  7.3164845614990547e+07  2.1720234249132973e+08  1.9798272958236238e+08  1.0920485269842204e+08  1.9348575646331391e+08  5.6986937666063273e+08  6.5113250121420467e+08  9.3063719920567021e+07  2.8211012232001227e+08  2.0691362418602303e+08  2.0138616212874165e+08  9.9375238395764783e+07  1.0660057625763106e+09  1.4144592325567284e+09  6.1955407356464259e+07  5.4181194079956031e+08  5.6902750420466959e+08  5.7954981127346969e+08  7.0145608799787760e+07  6.9498886533909872e+07  6.8596402616202921e+07  1.8911160330240998e+08  1.8684961566049507e+08  1.7700296743622619e+08  1.7973493275912857e+08  6.5240461433153309e+07  8.6827645228063330e+07  8.9618078562973693e+07  9.6776379148307890e+07  8.5881317100453687e+08  5.1690324220836282e+07  1.4660175887162924e+09  1.1981543548433375e+08  6.0056263200588658e+07  7.4602720119978279e+07  3.1984900086293501e+08  3.3388024648944998e+08  5.2545564618839121e+08  5.8387887337724976e+07  5.8344991490055799e+07  6.0223193737883829e+07  6.0382913043421149e+07  1.0042449987766902e+09  5.9540197464022800e+07  1.4638607410930559e+08  9.7765471611452913e+08  7.9817083125541374e+07  1.1540910990462030e+08  6.4184443531826293e+08  2.0918028825300905e+08  5.7318891858757591e+08  2.3741437958976063e+08  9.7617843683327094e+07  9.4105958973878741e+07  7.0590990525447786e+07  8.7312778111805642e+08  9.3189556533802998e+08  1.4629262331460977e+08  1.3852585000245917e+08  1.3107214127987225e+08  9.1673537640921846e+07  9.0365699758256793e+08  2.2962989069810081e+08  2.4389933757872739e+08  3.6997109216597915e+08  6.7184755992316395e+07  1.6231612471316237e+09  1.5599969791227722e+09  1.6156066610024803e+09  7.5759789101487622e+07  6.1924368375057757e+07  1.3109092274417858e+09  1.4144771357092600e+09  5.6475394008809179e+07  1.1042308796041658e+09  3.5988066981980306e+08  6.0425812694103993e+07  8.0046097397095323e+07  4.7424179009504557e+08  4.5829193103819799e+08  4.5931289476650542e+08  8.3764535674509585e+07  5.7716618478309385e+07  1.2486607875111365e+09  1.4991676237868147e+09  1.2918715779206529e+09  1.3074529976812637e+09  6.9051227420319331e+08  6.9262969017087710e+08  7.1550543332000399e+08  5.9322601949291952e+07  6.2813357395173416e+07  5.9551858030905649e+07  2.2543254501831335e+08  5.9412418881986789e+07  1.4225874242567031e+09  1.4565391155095389e+09  2.1901670380054188e+08  5.1471980212844199e+08  1.6319098443621612e+09  9.4906407748299345e+07  6.7817459814677656e+07  6.7636905964714259e+07  1.0907783385957164e+08  5.7893194845084243e+07  3.6033372710067171e+08  3.1438227874524754e+08  9.3622473987643391e+07  1.4830460893565037e+09  6.9832781626711440e+08  1.5262829006726664e+08  3.7674872981888759e+08  1.5931814915815279e+09  2.9542833354643738e+08  5.6575598253806919e+07  5.0669743394530034e+08  8.9419030868479013e+07  5.5592912261991605e+07  7.4329097735021269e+08  7.4087434187403500e+08  7.7152513420183194e+08  2.5085108136211714e+08  6.0851794711545515e+08  5.7052500459780061e+08  6.2620148353223276e+08  1.2058752178665121e+08  5.1822697238642544e+07  5.1010950649018034e+07  5.1788984122181170e+07  1.9904738694231445e+08  5.7383793127521664e+07  9.3737170989794517e+08  9.7048129255601466e+08  6.2536116448996007e+08  6.5577103572035420e+08  6.2626891621461105e+08  1.3315464149824043e+08  6.1293293886373788e+07  1.2670567886814754e+09  1.4521975478122902e+09  2.8010658647809494e+08  6.0928181630023551e+08  5.7653366517012067e+07  1.4641229843985927e+09  8.8210257074100697e+08  2.1534633786860153e+08  8.7494152561676657e+08  1.0135945733524260e+08  6.6577552372892559e+07  3.4224593679153925e+08  6.2488041385308184e+07  6.4807853748535410e+07  7.1130267835577995e+07  5.2981659864610650e+07  1.4402442644248641e+09  1.7223263026736054e+09  6.5478016374562643e+07  3.1829898233768702e+08  3.1942444265589494e+08  7.4960642081410313e+08  5.9236062746047586e+07  6.4157227570295125e+07  7.5857089657149136e+08  5.4453881917805600e+08  7.9757677910399303e+07  5.9292055703737311e+07  5.9167897286401205e+07  6.4453429723050050e+07  1.0297643419559252e+09  1.2550349662398265e+08  7.5714048187712729e+08  8.6192551282158509e+07  8.4121990273390457e+07  8.4098681955504909e+07  8.1022504392113268e+07  8.2746120721787080e+07  1.4804194373587010e+09  1.2696230488402288e+09  3.2581588853986454e+08  6.9217196935346770e+08  5.1387889343944490e+08  5.9396898243875727e+07  4.6460971676045108e+08  1.5742486686757631e+09  1.0028296255440235e+09  1.1873091917895679e+09  1.2720148486267839e+08  5.7737051132963753e+08  3.1897598902778000e+08  2.6866287165701896e+08  2.8667702300890756e+08  1.3755935060148294e+09  1.4313796081234081e+09  1.4017772485580125e+09  1.2083208628744012e+08  3.0052039745499027e+08  5.9001644093742587e+07  8.8468773350699735e+08  1.0884699358667438e+08  6.8704357569640413e+07  1.2648211193469627e+09  4.3640756491558135e+08  4.2029203763208836e+08  2.6224351137251931e+08  1.5274700839093521e+09  6.6021971229757309e+07  6.5835342698899679e+07  1.3961149003501894e+09  6.6765062733228602e+07  9.2141631216532791e+08  6.0889547034649432e+07  5.7817247622740783e+07  5.7798585171078891e+07  5.7743352084372252e+07  1.2797173115932193e+09  8.5600287579817355e+08  1.2609884554548373e+09  5.5759741192576036e+07  9.2512241008522779e+07  1.9618406278685898e+08  7.0715321620707661e+07  2.9295177802262151e+08  6.7642359172609568e+07  6.4163462321441665e+07  7.0932701889075667e+07  1.5292557224364495e+09  1.4233496051510999e+09  1.4724189765675202e+08  1.4095733257494371e+09  1.3509523857858834e+09  1.6187429216396847e+09  1.3986803442050573e+08  3.6197249126670915e+08  2.6706768876593229e+08  1.1805928206500539e+08  5.7858868589588314e+07  8.6078941450659543e+07  8.7935633225763917e+07  8.9345837869248196e+07  1.3595788163641727e+09  6.9329959507624313e+07  1.9085349387074262e+08  5.9083297165864617e+07  1.0112760187567332e+08  5.7940137245622508e+07  8.7484689912377715e+08  5.9835277184607852e+08  8.1658127490330410e+08  5.1188859123824582e+07  5.9367101126986988e+07  6.7823164022897482e+08  7.0017236479059565e+08  6.7586373877973962e+08  5.9139843068346143e+07  5.9214526914738648e+07  1.5068326259605613e+09  6.8237825784536734e+07  2.0661074506069440e+08  4.5230235968012071e+08  7.2806303222915590e+07  2.4838189411177081e+08  1.6566528195960623e+08  9.4173372583477867e+08  7.9381035754639328e+08  8.3247760309171009e+08  8.2083160062304175e+08  5.8621627314947434e+07  1.2778140145608993e+08  1.2790408042241138e+08  6.7122240456023455e+07  5.8501788271304719e+07  1.0072665372573344e+09  1.3539606426577041e+08  1.2782824102531095e+08  1.2734665445919614e+08  8.2925867901306891e+08  1.0609844252325830e+08  6.7141604124281675e+07  8.1382901316447809e+07  5.6108988617991276e+07  1.5409358293232551e+09  8.9747805762673473e+08  6.3443121414680049e+07  3.7241305612937921e+08  1.9329059495974767e+08  5.9760487474396028e+07  5.7344785175089002e+08  7.1739895074269637e+07  8.8650383598488796e+08  7.4976923099729434e+07  1.6467873683953729e+08  2.0390995581029510e+08  3.4942574178996503e+08  3.2694844567048520e+08  6.9605229764286506e+08  5.7691793970160902e+07  5.9367240244376272e+07  1.2270356492724839e+08  1.0077774054639044e+09  9.7959986302263713e+08  4.8566821118385029e+08  1.6664880281149757e+08  6.0812531313920684e+07  7.6525308270657197e+07  1.5210097009620181e+08  1.1404321981535761e+08  6.2560176447799154e+07  9.2382222431595698e+07  9.5978646430612788e+07  3.3154419502184767e+08  3.0860307730558860e+08  7.2362256318791375e+07  6.2718467422364824e+07  6.3028602030618630e+07  5.8632177864984773e+07  8.6741373121618062e+07  8.8263893375518084e+08  6.0048998427129693e+07  1.6696266190746135e+08  6.5423109357745811e+07  6.0478218143138215e+07  2.3726810088284242e+08  4.5442075196724486e+08  9.2991056480666220e+07  7.0999851839823335e+07  6.9110010392895550e+07  5.4134604609799790e+08  5.8792588809538938e+07  6.2172606553149514e+07  3.3418146047162068e+08  5.8012344404273354e+07  1.0735083418462430e+09  6.0541732915365487e+07  6.0911125251489468e+07  6.0975765846823923e+07  7.8403492070955813e+07  7.5447922981353104e+07  6.4452953829853222e+07  3.7674634340851372e+08  5.3110801064222145e+08  9.9691360680956677e+07  1.6951893743039054e+08  2.0875962503741837e+08  5.7575327355134480e+07  1.4735343099457502e+09  2.3604490963444895e+08  2.3173452488950032e+08  9.7904617761161685e+07  6.0000444155916683e+07  1.5844800320893988e+08  8.0440073325671896e+07  4.5836572876366162e+08  4.7205639937017900e+08  1.5237215744748911e+08  1.1966833383737087e+09  6.1356754914803915e+07  1.1196553021393436e+08  1.6098092325620000e+09  1.5066048899329156e+08  6.1598599950750589e+07  1.5703814203638840e+09  4.6056061029495686e+08  1.3712272635018605e+08  7.2783056475784153e+07  7.4555563262040406e+07  1.0989985569601630e+08  1.0523179822995663e+08  1.0798964696470304e+08  1.1523307533140054e+09  3.8443595121383905e+08  9.9752444162423179e+07  1.1084909926054180e+09  9.7849440013485700e+07  1.0029784743317753e+08  1.0161384970161611e+08  3.6165562093807316e+08  9.0295545025691545e+08  1.2304425940261261e+09  4.0416957101348245e+08  8.8916846542005897e+07  1.2298639030304286e+09  7.2959366454656935e+08  1.2218066533927029e+08  7.2962853539874837e+07  1.7508876734683281e+08  1.1140210778698801e+08  1.0968598393215810e+08  1.4918652327344224e+08  5.5041026519656003e+07  5.6797016768973783e+07  1.7917333894824699e+08  7.2116853229219711e+08  5.8116879274486952e+07  5.8417628553912275e+07  4.9654772967797065e+08  7.4251785475978985e+07  1.1016845166027316e+08  1.0657900321177730e+08  6.7264208782302976e+07  6.3176311727660671e+07  4.1852527639028257e+08  9.8222514068987775e+08  8.5742961086200583e+08  9.3464036882600188e+08  6.8765869932893738e+07  1.2876591629435395e+08  8.7864443627317399e+07  7.5323399035148218e+07  5.7963837423170459e+08  4.9862537414504492e+08  1.1089543590571173e+08  8.7913277457674968e+08  5.8425885876805298e+07  1.7260596940412110e+08  5.7822303093421452e+07  6.1369876925688314e+08  2.4848680417775202e+08  1.1576528913790879e+09  7.3522059919987589e+07  5.6188706062498130e+07  1.0797029054321659e+09  8.7728311006150573e+07  1.3183241471350346e+09  1.2816095359694271e+09  1.2976257545058177e+09  7.6517621895727843e+07  1.5406111142400718e+09  6.4545783912861802e+07  1.7873169936398166e+08  5.2446087898340541e+08  5.8927741360546403e+07  3.1164875374947232e+08  6.3766756067078568e+07  1.7017512850590447e+08  8.2224831116256535e+08  8.4756347157806027e+08  5.8577120967820816e+07  2.0559540533463442e+08  1.9600323024241903e+08  1.5261502754729264e+09  6.1394183009308927e+07  5.7565777288210779e+07  6.0340619673997320e+07  5.8403812381189808e+07  5.8443496668676659e+07  5.8584350991845392e+07  1.1985875970066011e+09  1.3841581205219426e+09  5.7685465296328492e+07  2.6290390576518682e+08  1.3165814431785177e+08  9.9289239211046517e+08  1.6163832381798251e+09  6.4655205659430318e+07  6.4079181336348303e+07  6.3809155901998170e+07  5.7562050865384497e+07  7.4327594494716033e+07  1.1153034396516275e+09  1.3988478883161008e+09  1.4142658592244759e+09  6.9781547548999405e+08  1.0578945645591336e+08  1.1206928603520793e+08  1.1851608042935488e+09  1.1999150592640827e+09  1.5351928486094594e+09  6.2949862142285705e+07  3.3850401784602833e+08  1.4104356279830685e+08  1.4488542790403467e+08  3.4861770705440634e+08  3.7328393063905102e+08  3.4551832260982639e+08  3.8294006696922290e+08  1.2337811322246440e+08  1.9930772283180377e+08  9.5708291433161944e+07  5.7951427361295275e+07  5.7647910106100373e+07  5.7579999022404321e+07  5.7659352809902810e+07  1.4655009255230567e+09  1.4222294127964940e+09  9.7397132084934250e+07  9.6871198136223048e+07  6.2988637733929887e+07  5.9632487508170612e+07  6.1523498788877092e+07  1.5933687726929528e+08  1.3356096705897368e+08  5.9148223795162427e+08  5.6946827609446681e+08  6.6031501138895094e+08  3.5710393909122729e+08  2.4407186649074379e+08  7.8364803599900913e+08  1.2043442796534352e+08  1.1122872599018824e+09  1.1019330503243153e+09  1.0767439022805545e+09  1.2535620249621079e+09  1.2841209359649084e+09  9.1102735270109999e+08  6.5356342582659714e+07  2.4099130144718647e+08  1.6617835086655483e+08  3.4736145077543443e+08  5.9970684078197196e+07  1.7232831506102023e+08  1.7064651006774157e+08  1.6128096730039233e+08  5.7408329513949618e+07  1.0775328346257196e+08  5.4103931090851450e+08  4.7797118496447766e+08  4.6581253904920906e+08  6.1635125388106227e+07  6.1603198901487723e+07  6.1269222641444698e+07  6.6302185203742012e+07  2.9947840074926955e+08  9.0863774981510878e+08  4.4369056609763408e+08  1.1655363187647508e+08  1.1829362391677257e+08  1.1252060605185233e+08  1.4750565012004241e+08  1.2329725956794686e+09  1.2015688046915467e+09  6.5453910493424669e+07  2.2681852474112311e+08  2.1693007327162167e+08  4.1437654239271456e+08  5.2663451156818777e+07  1.1496899229435961e+08  1.2617458184524578e+08  6.1005669491934925e+07  8.4435496969480193e+08  2.2032657369499874e+08  7.1330098509716272e+07  4.6922532333779663e+08  5.0695715401935476e+08  5.8389050962794088e+07  5.8225892293324716e+07  5.8424658679075077e+07  5.9063310395817004e+07  1.6223744874902754e+09  1.6236528625061195e+09  1.0537896530069757e+09  5.9118813558103688e+07  5.8827262555263169e+07  5.7985487791177139e+07  2.6601353372794098e+08  1.1712548422860215e+09  1.3389901481501060e+09  6.5511202770766541e+07  6.5000489031913824e+07  6.4760247861373328e+07  5.9258700087221041e+07  7.3301139081520885e+07  1.5750884394558666e+09  5.7705412586141527e+07  6.4152095226562373e+07  5.7681288601711512e+07  6.1370902359038782e+08  5.9235237674224114e+08  2.8078806359178013e+08  1.7794318283408770e+08  1.7791803873513868e+08  5.8474084198971458e+07  2.2086728724313658e+08  8.7110324268268213e+07  7.8762442724598289e+08  7.6758483816239750e+08  7.9511724489825451e+08  6.5324855301167560e+08  1.0122964000294688e+09  8.3525134860234320e+08  1.6229106513372164e+09  5.4047770448723041e+07  8.0146908519769728e+07  2.8985854785674655e+08  6.5027489172253162e+07  1.3618202275253394e+08  1.3450865568608788e+08  1.2220095814852765e+09  1.1900076632176006e+09  6.5113201979632723e+08  5.8236241205907911e+07  2.8268601864186960e+08  2.8430777695481801e+08  2.6690179244096875e+08  5.9215126902432635e+07  1.0678047003137326e+08  1.0465687818612106e+08  7.6273238640924251e+08  8.0159141138365889e+08  7.6721965949769723e+08  5.3976339470433287e+07  6.9786195153417036e+07  1.1181466915637094e+08  1.4944267600026765e+08  9.1646487140896648e+07  4.4267364502499509e+08  5.6537699356861269e+08  6.1500234838145249e+07  5.9166968872329973e+07  5.8923906884644605e+07  3.9087318069674724e+08  1.8068005713164395e+08  6.2659695697190270e+07  8.1261672483521506e+07  5.9199448666076981e+07  5.8416087585303597e+07  1.2345795869740619e+08  3.4799185458771515e+08  3.5179874147931868e+08  6.7424687493778735e+07  1.7605697325832686e+08  1.8718951018628082e+08  1.7630582479775569e+08  1.7795045815272233e+08  1.1808818720415305e+08  1.7601097014041698e+08  7.6527313131167620e+07  6.3203351517650254e+07  7.8206722469094738e+07  7.6258255352389067e+07  1.0538920060503261e+08  9.0656017639963508e+08  6.0992127229028247e+07  1.0338170262996150e+09  3.5834777604117945e+07  7.9439644160470486e+07  6.4850201383387573e+07  9.1990928126029503e+08  1.4639742653968213e+09  5.5100083257051635e+08  8.4043330579885066e+07  6.6245692055368400e+08  7.8730378812671199e+07  7.9441209903529599e+07  7.7480785482604802e+07  1.8482301601075023e+08  1.4506686408539727e+08  1.5531052156419915e+08  1.4875907869014481e+08  3.0403442157215637e+08  1.3893274302241046e+09  6.5751957143967319e+08  4.4452622119899344e+08  4.7233287643823117e+08  3.6099418609405637e+08  6.5946100945965163e+07  1.0540335110448763e+09  1.0723663172401451e+09  6.0692859284285687e+07  6.1414689908625014e+07  6.1349272821436338e+07  6.7258250860184535e+07  5.7998532002268732e+08  7.4125795817985117e+08  7.2916832418198705e+08  9.7875840673543262e+08  1.1216806602784774e+09  3.1581878533036876e+08  3.2487458721566021e+08  1.6197725102954531e+09  6.4451927678768747e+07  1.5848231599734302e+09  3.0548104296451306e+08  4.3259995725097436e+08  1.1366119088756261e+09  1.1056551401739185e+09  1.4505176691960102e+08  1.0983732828105750e+09  1.8684434658854225e+08  5.8902606258924253e+07  5.5194623735896856e+07  1.0493268605286443e+08  6.9472033003391817e+07  7.0946616173469439e+07  2.4476734546453136e+08  2.6360753207499525e+08  2.5278806013683891e+08  8.1349788976683095e+07  6.9558323897868919e+08  1.1903862487823790e+08  1.5205425130756888e+08  1.4667936298252901e+08  1.3188055699924297e+09  1.4909490886243055e+09  7.2741312406071723e+07  5.7940478878059730e+07  9.3851867311172321e+07  1.1465797609410013e+08  5.3974767076925881e+07  5.8537179826656893e+07  7.0060950136880314e+08  5.9568994706855200e+07  5.8822680163220927e+07  5.8972557400293179e+07  1.0811650009232053e+08  5.7477373591997623e+08  6.2983107343317337e+07  7.1695471561550915e+07  5.7853600685336091e+07  7.5069077824065655e+07  5.9719872739640787e+07  5.9405433161362715e+07  6.0027120016085789e+07  5.7438362287380204e+07  5.8439443063085449e+08  6.0480958793465936e+08  4.8577139032629013e+08  5.0714459036029148e+08  2.6969513845280039e+08  2.6406887854402325e+08  6.8017728928383425e+07  7.2050191207803026e+07  1.0453849291180214e+09  6.8758937312247074e+08  5.8206234168676972e+08  5.6496029240254462e+08  1.0135495625733044e+09  1.3644085147372401e+09  1.3892156894852731e+08  9.2404672141205803e+07  5.8603605876622781e+07  5.8741710337551929e+07  1.2141980305122674e+09  8.8278335539683831e+08  3.4664078249578124e+08  1.5793657499290047e+09  3.8813674352883768e+08  9.9456842595443594e+08  9.6448472867220783e+08  6.5862525656505689e+07  5.7920844303947240e+07  7.5735558702500379e+08  2.3338354079996613e+08  1.4337462475224800e+09  7.8644918425705504e+08  1.2452092740470085e+09  1.2139803593181880e+09  1.2625262401634908e+09  1.0381684847438756e+09  3.3520980581888855e+08  5.8083344248783424e+07  5.8539889872824766e+07  5.7835987252624735e+07  5.6729402123256944e+07  9.7239149493236971e+08  3.0515920229398990e+08  9.5284685690167502e+07  2.3257770853920367e+08  6.7164627299353838e+07  5.5377162618098006e+07  8.5138013845474526e+07  1.4920232639459074e+09  1.6282925515064904e+08  1.5903696455939296e+08  5.8176369717473179e+07  7.9074789390474170e+07  7.7861794375488222e+07  7.9697514635775790e+07  2.0047656242958900e+08  9.0226718410839394e+07  1.5027968375733721e+09  1.0867067542131205e+09  2.1136480152344635e+08  6.0956359570779234e+07  7.3478765443918005e+07  2.1332470587954152e+08  3.4664322849881113e+08  3.3903386080188406e+08  4.4514144452750081e+08  4.2843643726699901e+08  4.1358116708589876e+08  8.9141069899501920e+08  1.7934153905506623e+08  1.1198832330730125e+08  8.3333938541132659e+07  1.0509353227797515e+09  5.9367341342955090e+07  6.2235610094888560e+07  6.2502373093140297e+07  5.5322506160327345e+07  1.9025574402916554e+08  7.8874519652932560e+08  8.0303663376312673e+08  1.2629757553791554e+09  6.4007054900298543e+07  6.6444169160629117e+08  1.9266770211729965e+08  7.3804791906117034e+08  5.9258072880918741e+07  5.9133739261800639e+07  5.8883647177171230e+07  6.1310285203088164e+07  1.6897626789671153e+08  5.5484425861268327e+07  6.1854037025495000e+07  2.1651325690830153e+08  3.5903221480395043e+08  9.6352714916371286e+08  7.6307838614120364e+07  8.4516507958866343e+07  7.1977387518592989e+08  6.5275711846440673e+07  9.5637780377714872e+08  4.1214958656994069e+08  1.6041553726923364e+08  5.7748942475284331e+07  7.9523642539962053e+07  6.6715853212973870e+07  9.2374283416632071e+07  1.2078101445841274e+08  6.6540783310735202e+08  6.5772926928903925e+08  9.5676304863471472e+08  1.3477202835328307e+09  2.3159953243689448e+08  1.0334611329410201e+09  6.9884290524434000e+07  9.2688875637807384e+07  9.4434393282945573e+07  9.3792767423106268e+07  6.4231216135128871e+07  1.1318265069623770e+08  6.1147704316737980e+07  7.5452108426473618e+07  7.5251395892821595e+07  8.3501737332557574e+07  8.7553024314343035e+07  6.1370612775940038e+07  6.1145955115332209e+07  8.2381169735660362e+08  1.0048755756858113e+08  6.5276303997117184e+07  7.1706770913238466e+07  1.3740689251247668e+09  9.2117865124483752e+08  8.9188847908213782e+08  1.7063615524892464e+08  5.8359118889302246e+07  1.5766952947260830e+08  1.0667877027364221e+08  3.6419148159951329e+08  5.8040801748008907e+07  6.0618543431109965e+07  5.9078798568504237e+07  6.7657214097257957e+07  5.7797074438615121e+07  1.4658761206701967e+08  1.4786986620878115e+09  1.4419618116579211e+09  1.4782946538308704e+09  1.1035900129110386e+09  2.0626121613850430e+08  6.5327764485203600e+08  1.0291570996647437e+08  7.5753601939591393e+07  1.8251050275011989e+08  5.7036794699306108e+07  6.7137569338456824e+07  5.8217397336938173e+07  2.6937937724107432e+08  5.8257334850042261e+07  5.8218118013214193e+07  3.4881701560130936e+08  5.8707932940822639e+07  5.8921688726622306e+07  2.0693862218343058e+08  2.2639704453125587e+08  6.1292834929710977e+07  6.0310824516467988e+07  5.9796806028909609e+07  1.0439293400167882e+08  5.3401762355337918e+08  6.8736483560318485e+07  1.6243816934889340e+09  8.2226208994945204e+08  2.8358932168497849e+08  2.9137116398000765e+08  2.7711579029987305e+08  6.8135300528865767e+08  5.7798701542633109e+07  5.7706757581014961e+07  1.0955880950448368e+08  1.0808427829319157e+08  1.8855466799337792e+08  6.2522874924471095e+07  6.1254133966803409e+07  3.5750166139678860e+08  3.4247720130750799e+08  1.3387488118519950e+09  1.3047456996610670e+09  7.5348394746266499e+07  1.2871003453786178e+08  4.0402418234322673e+08  1.5788569039654502e+08  6.1531500234444015e+07  5.8357520386929289e+07  6.2995445060126372e+07  1.4631210982550154e+09  3.6732300254488009e+08  3.4599467038981402e+08  6.0742216704794928e+07  6.0943198709362946e+07  6.1170904488877058e+07  6.1100425445224889e+07  8.0134447621762395e+07  8.1793165920529887e+07  6.1128630515677974e+07  9.0694697840729558e+08  1.4320560091681117e+08  1.0963390786874911e+08  1.0302364555096021e+08  1.0499113677272385e+08  9.4001988324358553e+07  9.4878038305540591e+07  9.2634220670497805e+07  2.8751188152399158e+08  2.7729056210710329e+08  2.7481614396891135e+08  5.8892762422095932e+07  9.6117077802408361e+08  9.2867892413604832e+08  2.3789867515351155e+08  2.3042949016273218e+08  1.0976595701291692e+09  1.4717557555526134e+08  9.8118108917217538e+07  7.8607617443701535e+07  9.6111295692145810e+07  1.2992681669112979e+08  5.3683120774995811e+07  4.1925374276995963e+08  6.5382571041319025e+08  9.7662567223282114e+07  8.1393040751864231e+08  6.0198765787872002e+07  8.0941308793550238e+07  6.3414393011855058e+07  5.9700253085999683e+07  1.1466502767312808e+09  6.2348387969828345e+07  1.3409065409767818e+08  8.3383693215694994e+07  1.5891061152320588e+08  5.7878491127798691e+07  5.7797948863419190e+07  5.7782010498365588e+07  5.7824354212280430e+07  1.4450021379795632e+08  1.2159530160485330e+09  7.4999546014123642e+08  2.7599044062868565e+08  1.2568580909981434e+08  9.6256387279914677e+08  6.3432478791834839e+07  6.3271934273603514e+07  6.2889306606040195e+07  5.7697631901165806e+07  8.7845962826420218e+07  8.9013940306235164e+07  1.1150448621553580e+08  5.8444308386738263e+07  1.5634075948237517e+09  2.9786116621286452e+08  2.7889475279026693e+08  8.8437080476164207e+07  8.6695590651589051e+07  1.6826470569944179e+09  8.0995094166714266e+07  5.8912475665303081e+07  6.8209184841728926e+08  4.9983293027321406e+07  5.1539944825832999e+08  4.0893816270316201e+08  4.8221749469443935e+08  1.1089751487933607e+08  3.1070358490968859e+08  1.1853465609712095e+09  1.0695319321906540e+08  1.0339225090541595e+08  1.0815365796134333e+08  6.0449411076427355e+07  1.0271105285854240e+08  1.0301475637827805e+08  1.1863135207346821e+08  1.0523232326286827e+08  6.2384012755277514e+07  7.4352908854945675e+07  4.0961645467312574e+08  1.4518904531198471e+09  8.2687238184727371e+07  5.6014313900970258e+07  6.7865411255559102e+07  4.1387391112922156e+08  3.1862728450298387e+08  7.7600424979278013e+07  6.5660606700749584e+07  6.0621602221643083e+07  6.0495569924366243e+07  6.0946513665198907e+07  6.1370038241138235e+07  5.6161221396958220e+08  7.4188593525286749e+07  2.9747590890965164e+08  5.8482633989579335e+07  2.5894224969671834e+08  9.2044702034726095e+08  6.3726199582536943e+07  1.2766718557741149e+08  6.1105324012178592e+07  6.2121399761843637e+07  1.7455593450185916e+08  1.5043408896771672e+09  6.3198933137637123e+07  9.2798405242031291e+07  7.1707996907507986e+07  7.2288839786861882e+07  7.4112811040257543e+07  4.3407279561164415e+08  6.5060585543598846e+07  1.5665510634342604e+09  7.1661838376523769e+08  1.1912567893106805e+08  6.5834174579841807e+07  7.0246510697409168e+07  6.9255777812792704e+07  5.8142284351321071e+07  5.2894453627036136e+08  5.8237479242871277e+07  3.0225764012159544e+08  5.0618938409518903e+08  6.0016328358159721e+07  6.0465277632032037e+07  1.2644782554946330e+09  5.6986375874409759e+08  1.0748950056501272e+09  1.0853625884489141e+09  8.8322935310148144e+08  1.2088580887321205e+09  1.6736357007661012e+08  7.6459371834535688e+07  5.8394864954124756e+07  6.9480253567043555e+08  6.1585763121020302e+07  8.1267807895929098e+08  1.1256713662547209e+09  1.2264562075409593e+08  2.5412078575877571e+08  5.1877042460820690e+07  5.1887093980152652e+07  9.2006640651868892e+08  8.7068772488534153e+08  4.1430233815942955e+08  4.3783211002283609e+08  4.4072612274817342e+08  3.3479601034555626e+08  1.7191073908432326e+08  6.4571406876610249e+07  5.8097798183107346e+07  1.1946112458355346e+09  1.0009486309245533e+08  1.4083770332134724e+09  5.7585915210138783e+07  4.3238506505505359e+08  4.0471699194663054e+08  1.3082931370126012e+08  6.1657043196733758e+07  5.9723581952056825e+07  8.9966903087963760e+07  3.5806263145247608e+08  3.6097165211763531e+08  6.4111346684028637e+08  1.3021517901062791e+09  6.3221881548933163e+07  1.2241704022347319e+08  5.8191507051835261e+07  5.8127756720496707e+07  5.8075595536698021e+07  1.2050469565599709e+09  1.4723720319653487e+09  1.7261974270363301e+08  1.8334341970047042e+08  1.7929843977340069e+08  8.4164216623659980e+08  5.9084740121567979e+07  1.6004550797948611e+09  2.3168886087119505e+08  1.6345283703272054e+08  1.2949869994971704e+08  1.2796074235034215e+08  2.9176053665414476e+08  5.5977182837883629e+07  3.2797706376038742e+08  3.4823841216882497e+08  6.0355583766641963e+08  3.1579994284653705e+08  2.1742283930290332e+08  9.1553107903217220e+08  5.7833308156460755e+07  5.7253311099252075e+07  5.8533373676499486e+07  7.9888973481231704e+07  9.9310367451986969e+08  9.6737764581439054e+08  1.0119872058945253e+09  5.4032887425358546e+08  7.5803149867932439e+08  8.6556642988589501e+08  8.9827925498000526e+08  1.6602219009542596e+08  5.5385405555072188e+07  5.5577651516356952e+07  1.0439984202446112e+08  1.2139103752746089e+09  5.2352499833906382e+08  2.7281034113300693e+08  1.0616847291860071e+09  1.0385016365479724e+09  5.7744998303801775e+07  1.5949856961151007e+08  7.3358772805615306e+08  3.3644543307788843e+08  5.7334543287249811e+07  7.5495814520646498e+07  6.3109054587727502e+07  8.8249851218269050e+08  7.0686350304852974e+08  5.9291878641134071e+08  1.1357542061890287e+09  8.9118785494210577e+08  5.7942831237039700e+07  8.5737179698492229e+07  2.0285380549547532e+08  2.0188431282583997e+08  1.2841040535044971e+09  5.7118333217421085e+07  6.0596041532967374e+07  6.0828556918011151e+07  7.0038569591339064e+08  6.7819569607818142e+07  1.2167489209075889e+08  1.1900771593877265e+08  1.1436231200440843e+09  2.5235387842294449e+08  1.6786626633152789e+08  1.6970236558958039e+08  1.6287152699360827e+08  1.4005968290765913e+09  5.7707781240038812e+07  6.1527718120412610e+07  3.8973948308597267e+08  5.9760362334950693e+07  1.1971132299071333e+09  1.0298491523334658e+09  1.0587321355099177e+09  7.3190729346651927e+07  1.0795973529317048e+09  1.0471779238811696e+09  1.2203514799130951e+08  6.4398399158188410e+07  6.0653423275013320e+07  6.0779203937024295e+07  1.2913613523879164e+08  9.3534398986192739e+08  1.8524517164081785e+08  1.8608837940886030e+08  1.5202228262241703e+08  1.5129811859001341e+08  1.4382596812516537e+08  5.9060085707159139e+07  7.2200606720546335e+07  7.6407377521869648e+08  1.2661507059689952e+08  1.2033123423100834e+08  3.0278526719311357e+08  7.6446803119256660e+07  4.9476024374826953e+07  5.7824051679132208e+07  5.7762325223032519e+07  7.4871686931996748e+07  8.9451366431530070e+08  5.5745642819196902e+07  4.4868975057342094e+08  4.5050350029993385e+08  4.2945470348124236e+08  1.6190007393271954e+09  6.7129380531500489e+07  1.6684219317566490e+08  1.5646192015659628e+09  5.7830393690784112e+07  2.6178747640689850e+08  6.4401047083761506e+07  2.9523790981509131e+08  2.7600255282460457e+08  2.0310060756237739e+08  5.6424143340040669e+07  1.0550753520478809e+08  1.1573633134943771e+08  4.5435358712231207e+08  1.8713693285771337e+08  6.0844666900666855e+07  1.1992712800168696e+08  7.7066152512714326e+07  7.8963431144576561e+08  9.9138935289510667e+07  1.0031168411033924e+08  7.0824195257163331e+07  7.0417325850884840e+07  4.0111832604878509e+08  5.1532444827681832e+07  6.4516732140739784e+07  6.4181251989824593e+07  6.0093144679580259e+08  6.2670451142308615e+07  5.7728869325573102e+07  2.6865894801738006e+08  5.9277395641263746e+07  5.2162189552217864e+07  6.7415653284148917e+07  1.7712196242137322e+08  6.2775145532840893e+07  5.6647583067482360e+07  1.6313792318782241e+09  1.2069705902612760e+09  1.2084213554229684e+09  1.4022604812294424e+08  5.4009251874288821e+08  5.0969171133891714e+08  1.6232974119662604e+09  2.5075314289292136e+08  5.9996438210857898e+07  1.2322300686447268e+09  1.0374714384154423e+09  2.6476004474330395e+08  9.4670674426906562e+08  8.7261877256791428e+07  1.7974807297194737e+08  9.2721900352772430e+07  1.3278412195027125e+08  5.7558598171897218e+07  1.1699465644968529e+09  8.4042889596164867e+07  4.6541499096320353e+07  4.4864422685259059e+07  2.1684026861274589e+07  5.3798447400292441e+07  5.4573514052858166e+07  5.4434634678214371e+07  1.3275785375356905e+09  3.8146952873945802e+08  6.3736638572696276e+07  1.4136705333212501e+08  9.8151924126008344e+08  5.7428818846520148e+07  1.0473977031598584e+08  3.7250100664031422e+08  5.4839536199814253e+07  5.4755619176270947e+07  5.7263677377889536e+07  5.9812898957748219e+07  5.9491302613880642e+07  5.9486335059411496e+07  6.0830915179339878e+07  7.3237192497437522e+07  5.8774967631044291e+07  1.4453795476160793e+09  9.3981358525166476e+08  1.5031582652182679e+09  1.5277410704719501e+09  1.5343949314929576e+09  7.4015312612346518e+08  7.8085490808264688e+07  3.7211875112607235e+08  5.9490673077380300e+07  5.3578025748004490e+08  1.1805532277311730e+09  4.9187428039704484e+08  7.6154932367722526e+07  1.3960826715756914e+08  6.7136397312217191e+07  6.7787925199159890e+07  1.9440749275901285e+08  7.6576823791094467e+07  7.8916952167974353e+07  1.0923380145370218e+08  2.0236068548075845e+09  7.0378688229634523e+07  6.1873554976197667e+07  6.5098903972070366e+07  4.9810386771484427e+07  2.5247657971399662e+08  4.3995355878925920e+07  3.6354562404571719e+07  4.1915300148786269e+07  2.0000255281158099e+08  5.7539679081943102e+07  1.4158900961604849e+08  5.9347904730390340e+07  8.5497088569322562e+08  9.0848788389617249e+07  8.0718576647693172e+07  7.9305277456757322e+07  5.7522797462761319e+08  7.5389762595761150e+07  2.3112002962774023e+08  1.0589535894187503e+08  6.2028247685895070e+07  6.2198720940787733e+07  3.1077315049312496e+08  6.7729469452324808e+08  6.6258200108492935e+08  3.1676516772243887e+08  5.1499072726095676e+08  1.5687642429385028e+09  1.6247641958117330e+09  1.6177579123649464e+09  3.3761492245593286e+08  1.0152793890928306e+08  3.9803687584598690e+08  6.3077151981295146e+07  6.2355089791130900e+07  9.6365172634691715e+07  9.4793957776786005e+08  9.8181692014551806e+08  1.7096067997526655e+08  5.8999135882995293e+07  5.8088649072570451e+07  5.8193246643988691e+07  5.8106942744642861e+07  9.8667450610001057e+07  8.9655494857819274e+07  9.1897848222275287e+07  9.0195392551854491e+07  5.1759206374560165e+08  4.9905552656956249e+08  7.2920370410038278e+07  9.1534488785144186e+08  1.6782305764846132e+09  1.6495259667628710e+09  1.9276242405675274e+08  1.7773564909288719e+08  4.1321871481740302e+08  2.7243672580928063e+08  5.2983547303427838e+07  6.5092353599587828e+07  3.3717753006087929e+08  3.3235712860352057e+08  3.8326659097076070e+08  5.9414621465853006e+07  4.5233184858512592e+08  5.1008800119309522e+07  7.7394807391830838e+08  3.6888347509143990e+08  5.6696855060191005e+07  5.9818574840170622e+07  5.9507775262838647e+07  3.9971594767015231e+08  9.6454815873108709e+08  9.3695537552167940e+08  1.1810092188622773e+09  8.1909062386777997e+07  1.3238509937946911e+08  1.2999479962750989e+08  1.2516603393305156e+08  7.8746152149711180e+08  8.1146879641260493e+08  4.3033612928494966e+08  2.2494749372052145e+08  6.5184624493171647e+07  6.5114907586014837e+07  4.7388232669388318e+08  1.4251028414664247e+09  1.4455102281228380e+09  5.4352097364433035e+07  5.3765770314847022e+07  5.7667553483778633e+07  9.1139845145482659e+07  1.5568935247886436e+09  1.4729540615362761e+09  4.4801637023539948e+08  4.2631475590085334e+08  4.3497057642450917e+08  8.3408170577565169e+08  6.4127575177114613e+07  5.7834894738261931e+07  5.7892010704040714e+07  8.7363756402900243e+08  5.6311186011572182e+07  8.3439339569475710e+08  2.8081860918088597e+08  1.5613887963932331e+09  9.9850858599157119e+08  1.0057654110444034e+09  9.5443013377134490e+08  5.6973455304373276e+08  7.1190902411633641e+07  7.0190858098050594e+07  6.9590316417568445e+07  6.8409505339619482e+08  6.4298247334824681e+08  6.6762472935373020e+08  1.8302039725210568e+08  1.7887651948025575e+08  1.3213283701813865e+08  6.1016677509076878e+07  8.7365485582249808e+08  6.2224151778455250e+07  5.7278738124803007e+08  6.0806350584035583e+07  7.9799459198139250e+07  1.3716614321007617e+09  5.8398090845957384e+07  5.8197858486212529e+07  1.6197794503468447e+09  5.3275428300886112e+08  1.0480970422563620e+08  5.8256196276035629e+07  8.5605551652312231e+08  9.0022942061097682e+08  8.7776609915060580e+08  6.9379902805801511e+07  4.7802750642539203e+08  1.1118784439632037e+09  8.6088284073813319e+08  4.4468651019530022e+08  7.8904034094786689e+07  6.4013958224309273e+07  5.9439052024341293e+07  5.9333528384326734e+07  5.9677998106373139e+07  6.4576399914242923e+07  1.2550433351879844e+08  5.9134711347535692e+07  2.0207442180205354e+08  1.8707258586031774e+08  9.2116711878817320e+07  8.1897288956636280e+07  6.2452282174186692e+07  6.2160924853573859e+07  6.2479995909297161e+07  8.7138524697921738e+07  8.6194728916934624e+07  5.7831587513647564e+07  7.0889998670729369e+07  1.0986331350845820e+08  4.7921744624282318e+08  5.5245709713268980e+07  1.1816772262427454e+08  6.4629181251365915e+07  6.4144898481541775e+07  1.4054240895313141e+09  1.3756609567478857e+09  1.3662224418797274e+09  4.2947562451465458e+08  2.9778612544154143e+08  1.1388433070851883e+08  1.1008983656452946e+08  1.1237358356688794e+08  2.1920983740634486e+08  1.2648111111924968e+09  6.4357608765395224e+08  1.3413164109080751e+09  9.0132283308587462e+07  1.4288136304973996e+09  5.7150899833084479e+07  5.8117107014226101e+07  5.7803509025768533e+07  1.4022748007642109e+09  1.4337319203898957e+09  5.7734279571993403e+07  9.2565233780892670e+08  5.8346673977118045e+07  1.6269008598249557e+09  2.4914959361064911e+08  1.4525036259392633e+09  1.4200133352847414e+09  1.4446920524562407e+09  2.4894054573372188e+08  2.5785488264221239e+08  6.0389919331480026e+07  9.2943128774292991e+07  8.2564948238254130e+07  9.8365595717589664e+08  1.0094172456872486e+09  9.3731771764313713e+07  5.8021096026740611e+07  9.8883632824715823e+07  8.4039955062156618e+07  7.2851357687359774e+08  3.9593880439154446e+08  5.6731824910825872e+08  2.3405664559868842e+08  2.5375485503275380e+08  1.5359924218548968e+09  1.4940073959518608e+08  1.5532000718120632e+08  5.5144442183722925e+08  8.8434205167185724e+07  6.5643710295166627e+07  2.6283711653230658e+08  1.9602140360602897e+08  2.6800265683171883e+08  8.4314779064579159e+07  3.4798034859117299e+08  5.8060030617778972e+07  5.7857739440441743e+07  1.0217058681986913e+08  8.4910879493546978e+07  1.2288992109872843e+08  3.3624492417281556e+08  3.4644733236899197e+08  6.7288828163530990e+07  5.0362795517127168e+08  4.1895467725600392e+08  5.9681235368219167e+07  6.6069254823010653e+07  1.6232687565862522e+09  5.8278313795586787e+07  8.5400636458197296e+07  6.1690071724125996e+07  2.3861641031059995e+08  2.4403951983814293e+08  9.8038141897094101e+07  1.5176876381941562e+09  3.7457931890891266e+08  5.7950408845579326e+07  8.8272198085643625e+08  8.6259299905300915e+08  8.8538285118177533e+08  6.0964221731267905e+08  6.4191244942563176e+08  7.7415248362041867e+08  1.4847294415954928e+09  5.5636468494920468e+08  5.4214071411538684e+08  2.0016365612532094e+08  5.1720371984692425e+08  1.0065642339874132e+09  5.7796363554719195e+07  5.7843672425484724e+07  5.7731744683019698e+07  4.9492927147704166e+08  5.7785959887570903e+07  5.9281786521660194e+07  7.9367209607987985e+07  7.6904229472818404e+07  7.6566286217523336e+07  6.1553847681367032e+07  6.1564819299680136e+07  1.1132472993056478e+08  5.7589310561449468e+07  3.0925371426554894e+08  5.9245707193608403e+07  5.5104003501524530e+07  6.7325668377158165e+07  2.3215845459236023e+08  2.2558461699975222e+08  5.7848515948662214e+07  5.7899387251064137e+07  5.9985089670344129e+07  8.0365709996460184e+07  1.6296518213066274e+08  1.4831296451461047e+08  8.9545265249803439e+07  3.0036081364858818e+08  6.3763050562857039e+07  2.2188117991376728e+08  1.3251141505698416e+09  8.2157403419570103e+07  7.9760725789974734e+07  1.1624783017141278e+09  2.1961107472865552e+08  2.1137908250674230e+08  2.0467591295056769e+08  1.1942269296573415e+08  1.2323724494288164e+08  1.7328300411862168e+08  8.6389495194380212e+08  3.2363720899548310e+08  1.0461542023255655e+08  5.7850934011156149e+07  7.9106379424725688e+08  5.8433897623767436e+07  5.8299779296357803e+07  7.3618624146078214e+07  8.7331470249951839e+08  4.4293281040383780e+08  6.8155090033456191e+07  4.5856170790594310e+08  4.9421199524342394e+08  4.9229338473302120e+08  2.2882901626373237e+08  1.3679235581416503e+08  5.7738636993229970e+07  5.7770431871907152e+07  6.7215190610498822e+08  1.5192169703486526e+09  8.0673481406671643e+07  1.4203470811064501e+09  1.4637693349460909e+09  4.3876733723723628e+07  7.1934276735718355e+07  9.0933207874571645e+08  9.8161174763666704e+07  6.0220195890061058e+07  3.0568206883754522e+08  7.1784939615375936e+07  7.1816131631875664e+07  7.6789626644276690e+08  6.0533308418251872e+07  5.7116012617426634e+07  5.7384062141724505e+07  5.7917257997367077e+07  9.3088040128131092e+07  2.3252382081883335e+08  7.2112819162749723e+07  7.0597846381270587e+07  9.4571083328189746e+07  1.9073972383229247e+08  1.0109363776719113e+08  9.8221306420465365e+07  8.5929518021456003e+07  1.6150689506420776e+08  3.4714752711008024e+08  5.7746367593326487e+07  1.2480492665316584e+09  1.5171257544973869e+09  1.0662978277205548e+08  9.3633011123393309e+08  1.5305264177392790e+09  5.7836242429869942e+07  6.4109652176837265e+07  1.6383091982322371e+08  1.2874026892215298e+08  6.1525745358161017e+07  9.8597640348110527e+07  8.0736572957357287e+07  3.7553941626945215e+08  5.9430209961881712e+07  7.7014982827411860e+07  5.8194800341032207e+07  6.0734251722148024e+07  5.8571750680257249e+08  6.1336015373845661e+08  6.0691613777740192e+08  5.1299677741522476e+07  5.2427772332097761e+07  5.2113782641284920e+07  9.3686160746265292e+08  5.3710717331530526e+07  2.8688690011582983e+08  7.3894166537311673e+08  6.4466428434103765e+07  6.4364891910629302e+07  6.3985719298404984e+07  7.1381197189959854e+07  7.1931075971094742e+07  7.4013672641269147e+07  5.6333421361599013e+07  6.2966602906666303e+08  2.8151929971535808e+08  1.0269162463734902e+09  5.7822854731248215e+07  6.0524679028573088e+07  6.1147980757316604e+07  1.6924667654212708e+09  4.4536496849565782e+07  8.9811497866445565e+08  1.8225244528629249e+08  1.9403687074127635e+08  9.7514380012498930e+07  5.6140551100705385e+07  3.5404923689950073e+08  8.9660241102340364e+08  2.1681212188019255e+08  6.4856951916594982e+08  6.7775448551088464e+08  6.5124965201313484e+08  4.9798147393102396e+08  1.0658262377214403e+09  6.1942008611011887e+08  6.7724209132173806e+07  2.9891745005374002e+08  6.0265396906110895e+08  7.0935836626837134e+08  3.9288814100866383e+08  3.6727606563174748e+08  6.7273475400162607e+07  3.5202698303528398e+08  7.7834180862817004e+07  3.4568559110990506e+08  5.9178023479324549e+07  2.5708618851588833e+08  3.7298824918787730e+08  9.5494436443248719e+07  5.6759927625032663e+07  4.6046751438449878e+08  7.1871338169541061e+07  9.0181733748482153e+07  8.7014296261022329e+07  1.0365786832537495e+08  1.4134466046786526e+08  6.6558516101813510e+07  5.1389428051595801e+08  5.2756412616578877e+08  1.0580886359021273e+08  7.1532911578176081e+08  6.6680248637946874e+07  3.8708956208829790e+08  3.7737347905870193e+08  1.1492771767831941e+08  1.3868716255941495e+08  7.6362228739000738e+08  5.8183519309035145e+07  6.1333813712558651e+08  9.4130353042050767e+08  7.2811522803332686e+07  6.3288510068626329e+07  7.3193484224903330e+07  1.0843213608059272e+08  1.0606375439888352e+08  2.4886096878045768e+08  2.8762105115786558e+08  3.2962386244880521e+08  1.2243051327555165e+09  9.7692883116271126e+08  8.9932263422985360e+07  2.3043663065577492e+08  2.2064997155787829e+08  2.2610051713641202e+08  6.0496214764137380e+07  8.4581851417158887e+07  8.4529648164657533e+07  8.3533091829658747e+07  8.1249638578029439e+07  8.6817483158919349e+07  8.5996271467786983e+07  8.1925915068682790e+07  6.7669861766572165e+08  1.6906380950205249e+08  6.8497835174193919e+07  9.7670157901459679e+07  1.3537264523133600e+08  1.3592480764448628e+08  1.0557473741696985e+08  1.1005553065245432e+08  6.4676967728795402e+07  1.4352836943546730e+08  5.0199948905791932e+08  5.8118565023287371e+07  6.2363194461301230e+07  6.1272404904569969e+07  6.1418877658661172e+07  6.3297721479191139e+07  3.3046141825657797e+08  1.5090730889678675e+08  7.3237978196296081e+07  6.0243098465150781e+07  5.3874157678185964e+08  5.1297170212867808e+08  5.0395608128883898e+08  3.4295814264193815e+08  8.6120516726116586e+08  6.0695443278208062e+07  5.5628555839519523e+07  5.8101015771644510e+07  7.5333887324442029e+07  1.5459931418374917e+08  6.2498421961677380e+07  5.6909035924826570e+07  1.0776595611129141e+08  5.8689225039287709e+07  5.7870091519434035e+07  5.8219480975008033e+07  5.7654333711554438e+07  5.1184912241884035e+08  1.4639564263327211e+08  5.4951182079082079e+07  1.3868639793544281e+09  1.3733988326590767e+09  1.4150645457239850e+09  5.7619081967150144e+07  5.7767488667640127e+07  1.4605219563481891e+09  5.7623966664476901e+07  5.8484203780848853e+07  1.5421447209976571e+09  1.3913477887665394e+08  5.3351345351773769e+08  5.6518519072198153e+08  1.7151783644907932e+09  1.4801851089521551e+08  1.4505200017489305e+08  1.5430268128406098e+08  2.7950400793261743e+08  1.4783360935218462e+08  3.6723963131411254e+08  2.6740744341493440e+08  1.6730520472810909e+08  2.1951023101246390e+08  1.7745803585199532e+08  2.2549389145649987e+08  2.4115888886462009e+08  2.1627474618031213e+08  1.4707625025165164e+08  1.4431810942233574e+08  1.9016287397857058e+08  1.6522389500483838e+08  3.7129603084950203e+08  2.8081049474604446e+08  2.6257062713048953e+08  1.5973933960055855e+08  1.4981960018932584e+08  2.0928462573083809e+08  2.7937262761001623e+08  1.4263755302396870e+08  1.5091018764997357e+08  1.6148186244103339e+08  1.9659897723441634e+08  2.0358343143945771e+08  3.2065717589281815e+08  3.4074456963588196e+08  1.9543122978828463e+08  3.9681654438243824e+08  1.7139813240613651e+08  2.6023705772534290e+08  1.9383576819666794e+08  2.2504809162437177e+08  2.4222355586272284e+08  2.5178833194599721e+08  2.0953178247564057e+08  1.9617808006288391e+08  1.8345867882923552e+08  1.6458640037581202e+08  1.7648912153320786e+08  1.6848249714127263e+08  1.9154867419923061e+08  1.5598319112334624e+08  2.7232058619365185e+08  3.3223850794435120e+08  3.4323880520507586e+08  1.5222390107961977e+08  1.5737203899155983e+08  1.5579770283167535e+08  1.6070914042321825e+08  2.6083471439244348e+08  2.5147070593368864e+08  3.5437592140180176e+08  2.1682191990629411e+08  1.7102671321770874e+08  2.2732893070478949e+08  2.6879833788973689e+08  1.5201609279534668e+08  1.4864654284749576e+08  1.8382787330969486e+08  2.0302722390380269e+08  2.3433332392982441e+08  2.3230211990779495e+08  2.4998194210808218e+08  3.8603402865000725e+08  1.8819618033455971e+08  2.4332390518082893e+08  1.7844498186264908e+08  1.5826996290716553e+08  2.3333982915415004e+08  2.6942925468134332e+08  1.9982220740704408e+08  1.8866188943175256e+08  2.5905942484044373e+08  2.3976366259293833e+08  1.0571650258781621e+09  6.9813423686874342e+08  6.9495035209931493e+07  6.9895802333081692e+07  7.0494590994742006e+07  7.7056478831366450e+07  5.8392239593930118e+07  1.1455650039606555e+09  6.2432975897089906e+07  1.9262140808425599e+08  1.0516473327653922e+09  1.2245611457621284e+09  5.2460500514007434e+07  1.1685464072323912e+08  7.1536022277534962e+08  6.1585719931704484e+07  1.8163754456618595e+08  6.0468910750424549e+07  3.9152347817492253e+08  5.3266304686096616e+07  2.0835982016201800e+08  2.2891558398033980e+08  5.8774331719184473e+07  5.8526679167056188e+07  1.6457803740183374e+08  6.0073101110441767e+07  6.0655715466484480e+07  5.4621467146302068e+08  5.2940183766053915e+08  5.5530285144374168e+08  1.4421490229116651e+08  1.4898759290624237e+08  5.0923858205647099e+08  4.9092857016641140e+08  2.6275829730822101e+08  7.6304563791159654e+08  1.6401785525749259e+09  5.9569754314107585e+08  6.1902121166066670e+08  6.2944810619724894e+08  5.9946897011805266e+07  5.9228224227739342e+07  5.9555665073652677e+07  4.6922822253484815e+08  1.6327649214165974e+09  1.2365040831589623e+08  1.2755577745598361e+08  1.3060443281607990e+08  5.9097478062109852e+08  5.7323439526541662e+08  4.9171934847841293e+07  5.6498897021183565e+07  4.0308076212833416e+08  1.1811964711398520e+09  9.3810338744927502e+08  2.3654835834938321e+08  2.0089667525379586e+08  1.2883428317054360e+09  1.1021434886200261e+09  6.9601778710308540e+08  6.7748967725808609e+08  7.3384170756178641e+08  4.3275464736139679e+08  1.1002902151117365e+09  5.9088699989919871e+07  6.6223548683803070e+08  4.2950889670607841e+08  8.7836816356843054e+07  8.9986285264746398e+07  5.9287615497797586e+07  2.1041603828579208e+08  1.0254739292763953e+08  1.0672669845016570e+08  1.0547965858496355e+08  1.3524132647939284e+09  6.8378615212039530e+07  1.3023803560825517e+09  1.4470888081070783e+09  8.1431975502438235e+08  5.5551153398216963e+07  4.0431557728065443e+08  4.9063579735223347e+08  6.1710640604614742e+07  3.0624920349491847e+08  4.6590959576110125e+08  2.1027701512262979e+08  6.8440214160817191e+07  6.9088302205948740e+07  1.6221711670350556e+09  1.5853613292507946e+09  5.5196112521958731e+07  5.5246326289801627e+07  3.5643820350611126e+08  3.3655314708273959e+08  9.2629310178046358e+08  5.8688141539740615e+07  1.2106054313449435e+09  6.7424893229711190e+07  6.7423713890107676e+07  6.6705550041555606e+07  1.0840602246324594e+09  1.1955176133669122e+08  5.8802126568385825e+07  5.4705917661785567e+08  7.0955077422092542e+07  3.6783859707407349e+08  7.3882448321712404e+07  1.2096743678646834e+09  6.1540121205849960e+07  2.2306873948145187e+08  1.1054904819972255e+09  1.6012940536163514e+09  1.5279583160065618e+09  8.3662544991176590e+07  6.5439435246387935e+08  7.8490701135939538e+08  1.0155147750520681e+08  1.0302309514050138e+08  1.0489289201525044e+09  3.2601061200868595e+08  3.4687615248806119e+08  5.7987969018525708e+08  9.7584190558739936e+08  9.9257363374144363e+08  8.8430766899853900e+07  6.8325627766631201e+07  6.9754807772506848e+07  6.9148211645762339e+07  1.1324327146387081e+09  1.1679063689096010e+09  6.6203940351528421e+07  3.2307319755887640e+08  5.0253047365680611e+08  5.0383233593226051e+08  4.7965839626735890e+08  9.9012333879454747e+07  7.2314350327610120e+07  2.3748319314674491e+08  6.1820287413042732e+07  6.4311904248567355e+08  7.4104583929761112e+07  5.9056207161858523e+08  2.1669101088770643e+08  2.4192231556989339e+08  6.3257435331906870e+07  6.2095063849220619e+07  2.7524049320185781e+08  2.8954478373574471e+08  2.8718622804386145e+08  1.8663923602848026e+08  6.0538496285324745e+07  2.9013055015026450e+08  2.9471070535138977e+08  6.5682427102338590e+07  1.5321369482943025e+09  3.0021600357812387e+08  1.8296488089804754e+08  5.7963276566219084e+07  5.8136396059973001e+07  7.7358600410079882e+07  1.5762251966576500e+09  5.2275396016976064e+08  1.5336170554920143e+08  1.2898852924530414e+08  7.6818878918459967e+07  6.6258671798188046e+07  7.0684813108113959e+07  1.6218359636416817e+09  5.8430682259721115e+07  8.0259606488684982e+07  1.4251039387747210e+08  1.3768394722415498e+08  1.4633625470991957e+08  7.6965619480373234e+07  9.6164107690744489e+07  5.2759456081320196e+07  1.8074231265383896e+08  9.3944156439374253e+07  5.8048506890212633e+07  9.8001154119972014e+08  9.2759282523933268e+08  9.4904636061230648e+08  2.1614455131078210e+08  2.2050956730229831e+08  2.2975217272807088e+08  1.6128991933492312e+08  4.9715014023773700e+08  1.3944929761618905e+09  7.0219750624370307e+07  6.6319591677262202e+07  6.1622091809303097e+07  1.5524735906966507e+09  9.2857308008581626e+08  5.5630733739228880e+08  1.5527792714339089e+08  1.5904906128793728e+08  1.4972505727252093e+08  1.4038222599168062e+09  1.4367351355834861e+09  5.8487220751455091e+07  8.7198891264354870e+07  1.3075833416373839e+09  1.2428377225403540e+09  1.1887754680713142e+08  1.1147381273837024e+08  1.1304851633491899e+08  5.5542508323419012e+07  1.0693078161896124e+08  6.3826390166918719e+08  6.4156452416354883e+08  1.6198152318247120e+09  1.5772251199602628e+09  6.5407645394512393e+07  7.0927877651439756e+07  7.3952424748413014e+08  9.2623763921307671e+08  6.9717923509942129e+07  1.0342597261351016e+08  5.7733380191226646e+07  1.4794721095286950e+08  1.5600498762685579e+08  1.5612026480770934e+08  6.8398802589696991e+08  5.9305846857976802e+07  6.9624940456341669e+07  6.7487925798466235e+07  7.8093987020372778e+07  6.0608328074933672e+08  5.5531410031648672e+08  5.9181017464671075e+08  6.3320403255377853e+08  9.6184856501377553e+07  6.5018233742235529e+08  6.0813003864795029e+08  5.9877867602884613e+07  1.5141610283787839e+09  7.7721938606956407e+07  5.8839263238507293e+07  6.1658863419292279e+07  6.2340661412179254e+07  6.1902022065190390e+07  7.6967047767011046e+07  1.2272296540943371e+08  1.8189130767429021e+08  5.7863382446375541e+07  1.0553456850710474e+09  1.2227113251321302e+08  1.0446666210985523e+08  6.1589560006020695e+07  4.1139673318616134e+08  2.8663338501366079e+08  9.2832058568539882e+08  9.0094509286525631e+08  7.3038071685881495e+08  8.3676868064266056e+07  5.8834948961727060e+07  5.7571313433277160e+07  5.3995120825342762e+08  5.1071177858927304e+08  6.2152537956199259e+07  4.5060407205689496e+08  8.6382859653216437e+07  2.2214037432841837e+08  2.2561814430051208e+08  2.3056319656185028e+08  4.2399525385202378e+08  1.1350209637899871e+09  6.3566114805520344e+08  9.6400880085051441e+08  9.8813161296440434e+08  1.3023615890109227e+09  6.8619265929018781e+07  6.9588520232930616e+07  5.8120076108876228e+07  1.2012863663603143e+08  1.1715575002824991e+09  6.0467635634495959e+07  6.8899608450163996e+08  1.3300000953907793e+09  1.5546538225929480e+09  3.0564692848214781e+08  2.9453691817366481e+08  2.6254035403223488e+08  1.1226914864433746e+09  1.1031757550351050e+09  9.6782846044739082e+07  9.4511818933984682e+07  7.6853183116709515e+07  6.8424146030327737e+07  2.8032210655783105e+08  8.3441441843756735e+07  6.2752742009358399e+07  5.7431585949160300e+07  5.5476445587804660e+07  2.1884427903400427e+08  5.9152270162933432e+07  4.7342788600143886e+08  1.4060008392044532e+08  6.3635183835713677e+07  1.2162795642201393e+09  1.3458348824594138e+09  1.2911687416723218e+09  6.1894959569562003e+07  6.1573586687655918e+07  9.1787790008126169e+07  2.3483941877816713e+08  6.5203206418029577e+07  5.9562479561723590e+07  7.7483258682207179e+08  1.1684113160361332e+08  1.1833927390510096e+08  8.3731683614559841e+08  1.1549203256534286e+09  1.1046560280775732e+08  9.2900411813935950e+07  1.6209341237249610e+09  5.8550991972029112e+07  9.7263203353314951e+07  1.0405128598505227e+08  1.0297499066270196e+08  9.9810189685034946e+07  1.1638905923675679e+08  5.9587292349943958e+07  9.5465516026268110e+07  1.1368970323050978e+09  7.7964244993541574e+08  1.4525761782398338e+09  9.9095028908418864e+07  9.7452779508853793e+07  7.1230915693044555e+08  6.9202778038149372e+07  1.3465526989750898e+08  5.7882170216597557e+07  5.9904168468547240e+07  5.9422668250872873e+07  5.8915228905461043e+07  1.6679567311353093e+08  1.6448566418421379e+08  1.5236300096662277e+08  1.5979770697018838e+08  8.1703614661816299e+08  8.9341677877100623e+08  3.3546438731729400e+08  5.6185896947251666e+08  5.4417922580310988e+08  5.4053922672619128e+08  1.1575222122694027e+09  6.4285813352237247e+07  6.6963946041923530e+07  5.9878946171913803e+07  6.1433474636490598e+07  6.0458977355826542e+07  1.3212221611669366e+09  5.9130005811971121e+07  8.7314596638943315e+07  7.1387249715060309e+07  9.9072731200036967e+08  9.4641324937405598e+08  9.8963834271171916e+08  9.3527292144806385e+08  9.9240023396153912e+07  6.3494598465436958e+07  6.3619482523398864e+08  8.2624033433854446e+07  1.4001571843412719e+09  8.7838468738669842e+07  1.2714745159651663e+09  1.0666230780191373e+09  7.1086520919712138e+08  7.2789036363355741e+07  1.4945017284005082e+08  9.7326824241054758e+07  9.8838844659130499e+07  1.2575450176167452e+09  1.9995234298815900e+08  1.8470711552505362e+08  6.1740966456515647e+07  6.2263067846171789e+07  6.2481747122908831e+07  1.3396173023051102e+09  8.0605893519781113e+07  6.5027419195118554e+07  6.5458136892499842e+07  6.8862884253486350e+07  1.2292098838735545e+09  5.8279163535129130e+07  8.9000287751678109e+07  1.6663001883689845e+08  1.8086751335848880e+08  1.8588861083232760e+08  1.9086271259912631e+08  1.7153855680336934e+08  1.7847375657108280e+08  1.4272497212818646e+09  6.4114830075100683e+07  2.1876947554463652e+08  1.6178512930838147e+08  5.9682422930510402e+07  5.5881278307873130e+08  5.5967974878307074e+07  1.4485842800791519e+09  1.8853780471358031e+08  1.3289306236484993e+08  7.4167224719161764e+07  6.4692639229309551e+07  5.7590987488154873e+07  5.7588091524635702e+07  1.1077954155091850e+08  7.6512328835959315e+07  7.2320642893372163e+07  8.6926660478426158e+07  1.0791308402408643e+09  5.6825836126958661e+07  5.1905144655929607e+08  3.4552871752846318e+08  3.5784357206687969e+08  3.5445442751131189e+08  1.0734034368786539e+08  1.3680589398971634e+09  2.2713428237974787e+08  1.1657938938856193e+08  1.4189947676199453e+09  5.7384566756253719e+07  2.8457544903609514e+08  1.2830992247710021e+09  8.1355880849387121e+08  1.1614869354527555e+09  6.1457613431193396e+07  2.5634392610033715e+08  6.0741339100278921e+07  6.6867357262395211e+07  1.2342997217629792e+08  5.4892563048741408e+07  1.0891250509937637e+09  5.5190550077724266e+08  2.6192531060061699e+08  5.4905676006470367e+07  5.4236341876563229e+07  1.3235102901540308e+09  7.1545609823905706e+08  1.6052689732918110e+08  1.6749445860480419e+08  1.5057568828860178e+09  1.2943402970984404e+09  1.2766673742769396e+09  8.9525959012657598e+07  5.9898106563203812e+07  1.0185459450501697e+08  6.1018032795922875e+07  3.2436508367086643e+08  9.1092069811533403e+08  4.8991957575645524e+08  3.2784811496473271e+08  3.1885981797414291e+08  3.2891574450467861e+08  2.3444014310179481e+08  2.2143496208404028e+08  2.7027595014591807e+08  5.1861502916495353e+07  5.1535463036296314e+08  4.5043171146357435e+08  5.8154113018080108e+07  5.4783092017817545e+08  3.3495418330800372e+08  4.0303184694760054e+08  4.4396886313711876e+08  7.8557853111489624e+07  4.1996072688115001e+08  6.1935849467023075e+07  6.0751596900220200e+07  6.5300883111079656e+07  6.5275736300111733e+07  6.3849797807710089e+07  5.8207011437107086e+07  5.8282223821057454e+07  1.8041684662398162e+08  6.8320095866672024e+07  5.3011648864717565e+07  7.7046333711945847e+07  2.2057981709398025e+08  1.0971848505909991e+09  1.5541594345099092e+09  5.8925644454282686e+07  6.1324420386546038e+07  2.1763631776625240e+08  5.7594297157356076e+07  5.7649998826528020e+07  5.7604970810483187e+07  7.4009925548575199e+08  6.0735156349857070e+07  6.4068175191825792e+07  1.5344589229175272e+09  6.8146216987040251e+07  1.1083271343945360e+08  4.8518548422389668e+08  1.0581113479255509e+09  7.8025286586668909e+07  6.6573371084722213e+07  7.4282893619652420e+07  2.0418862173384991e+08  6.6922627586837485e+07  4.1749592774233425e+08  5.7940967514446832e+07  3.5569638837731040e+08  1.1553372263641036e+08  8.8499230286308080e+07  1.5734787400331826e+09  9.0808689199171886e+07  6.8559595995414242e+07  2.8470104751258647e+08  6.3384896057545550e+07  5.6727119885284238e+07  1.4694722739147158e+09  1.3737968707972140e+09  5.7942328061842799e+07  6.1216052199090481e+07  8.5529559359857571e+08  6.4011288798548289e+07  6.2605785547826096e+07  2.5000333492648652e+08  6.3234845400236428e+07  1.0026392885154109e+09  9.9182858757173300e+08  9.6167277361758387e+08  9.2122632697491074e+08  2.8945895728744346e+08  1.2667034730183644e+09  1.2914840314623804e+09  6.0279850596172497e+07  6.0638118939672023e+07  5.8854997261154518e+07  6.5178340931446366e+07  6.4352597211694509e+07  2.8370197585487360e+08  1.6344189837589473e+08  1.4366651199837859e+09  8.0179259719207808e+07  6.3474941864759773e+07  5.5015143230909765e+07  6.2192200132956386e+08  5.8337746332907192e+07  5.8748233847882666e+07  5.8524062950948752e+07  9.6160776995001078e+07  7.7051373329350054e+08  4.6578162887760264e+08  4.5441105960175955e+08  4.3842347688405633e+08  9.5436278467071652e+08  1.3287784073048386e+08  1.1049657377040179e+09  1.7070102594393751e+08  9.8590970620823175e+07  2.5255505983242187e+08  2.5280045967641890e+08  5.8667854985136378e+08  3.4072926623637748e+08  3.5154790022461069e+08  7.9935288351583421e+07  8.1097393816836762e+08  5.8558850827573128e+07  4.1167737857355791e+08  5.6603317677108312e+08  5.8960306714089918e+08  1.0429415432659936e+09  6.0171029962301619e+07  4.3173219272219740e+07  6.2205700811346650e+08  7.7674582374017820e+07  2.0011487052883121e+08  2.1723575506400377e+08  2.0711360858029866e+08  1.4559036988524759e+08  1.4878640288770720e+08  1.0833795313626266e+09  4.0977286295356256e+08  3.8154786947696936e+08  4.0261282428870445e+08  5.1163852783411048e+07  5.0696754002703741e+07  5.0677587640749626e+07  7.8838943944157541e+08  7.7002168280143166e+08  7.7568392514747334e+08  4.3644581298955810e+08  5.6218373445343934e+07  1.2362259169183150e+08  1.3531189414781269e+08  8.3907051336162794e+08  1.0665060912540311e+09  1.0448038791245252e+09  5.9366145639938630e+07  6.8616983712038249e+07  6.8882101538162917e+07  6.7518466257609949e+07  3.8539843954519939e+08  8.4334243527645051e+07  5.5236147878600582e+07  6.8131233104730040e+07  1.3774181238798611e+09  8.8306351539659750e+08  8.4416479755304766e+08  9.4143309743431941e+07  1.1411686228708291e+09  1.0053930413896098e+09  6.6829467808135547e+07  6.8939298086826503e+07  5.5266171094184451e+07  1.3638709750179873e+09  1.3889635791447747e+09  1.2608148352045329e+08  6.1253687706621003e+08  4.0205316343233895e+08  5.9355980693931744e+07  8.6521476748344451e+07  1.2227963428872526e+09  9.5398830463439441e+08  1.2684705723359425e+09  1.2981266391233428e+09  5.9270851837469481e+07  1.3991099044741402e+09  3.4443346528782552e+08  3.3614386969173604e+08  2.0797352062402967e+08  2.1555355820395079e+08  2.6258275243160009e+08  8.5905561322558776e+07  8.7438315275341153e+07  3.1825058357352102e+08  2.0940216161153290e+08  6.7495486395055488e+07  2.1834039829192120e+08  7.8843960807869285e+07  7.8524264165760174e+07  7.7467955705862045e+07  9.9470359134812102e+07  3.8050789482902050e+08  1.7737398802423966e+08  8.0655619826350376e+07  6.3323726373656578e+07  1.4493382174690598e+08  1.4191266709585443e+08  7.5917978110888720e+08  1.0013977253422173e+09  6.7102541356399715e+07  6.3095310627750561e+07  1.3323176667164625e+08  8.5359675191358313e+07  8.4928014716890320e+07  4.6459367657909286e+08  7.8385365257845211e+08  2.3798868096467924e+08  5.8159054167628430e+07  5.5853218407976389e+07  1.0617611205135344e+09  6.7269935820564413e+08  6.9129519018205810e+08  8.4905287944172478e+08  6.6623137234595172e+07  7.9045105184557155e+07  9.4104597918538675e+07  1.9690793692545801e+08  4.7452229410921562e+08  4.9075017609222317e+08  4.8614329429674476e+08  5.9669473559216075e+07  6.3239013965513967e+07  2.2168401945388031e+08  5.7782428131671898e+07  7.7431224514460936e+07  1.7562804751002949e+08  7.4639166143163353e+07  8.5835314475728154e+07  1.1315591711471561e+08  8.9050993931076276e+08  1.4076961031212631e+08  9.8800714222082305e+08  1.9161691106169939e+08  4.7114459101309186e+08  4.7200125097854936e+08  1.1456599253978114e+09  6.1455859264563411e+07  4.7070723491620690e+07  3.3914657629827666e+08  5.0839388752524948e+08  5.8299631743558362e+07  5.7911283645748600e+07  1.1650508678757247e+08  1.0106515575552777e+09  9.5816359842185378e+08  6.4089407401786232e+08  6.2643962950283802e+08  6.0854033106432343e+08  2.2486933683296311e+08  4.1078821083469826e+08  4.1617456480916059e+08  4.7984460187365627e+08  7.6920358275840461e+07  3.6949147251552403e+08  3.9387470455863261e+08  1.3514700066288395e+09  1.0742045878901921e+08  1.2102883787754254e+09  5.7858354920962997e+07  5.7699990417656302e+07  4.0082789035012883e+08  9.6127819591202974e+07  1.3960159383802447e+09  1.3485913825378847e+09  1.3895023590416360e+09  4.2176334195223594e+08  4.4693751048081106e+08  </DataArray> 
</PointData> 
</Piece>
</UnstructuredGrid>
</VTKFile>