<?xml version="1.0"?>
<VTKFile type="UnstructuredGrid"  version="0.1"  >
<UnstructuredGrid>
<Piece  NumberOfPoints="18" NumberOfCells="16">
<Points>
<DataArray  type="Float64"  NumberOfComponents="3"  format="ascii">-0.05 0 0  -0.05 -1 0  0.05 -1 0  0.05 0 0  -0.05 -0.5 0  0.05 -0.5 0  0.05 -0.75 0  -0.05 -0.75 0  -0.05 -0.25 0  0.05 -0.25 0  -0.05 -0.875 0  0.05 -0.875 0  0.05 -0.375 0  -0.05 -0.375 0  -0.05 -0.125 0  0.05 -0.125 0  -0.05 -0.625 0  0.05 -0.625 0  </DataArray>
</Points>
<Cells>
<DataArray  type="UInt32"  Name="connectivity"  format="ascii">6 7 16  8 9 12  1 2 10  8 9 14  6 7 11  7 10 11  2 10 11  4 5 13  5 12 13  8 12 13  0 3 15  0 14 15  9 14 15  4 5 17  4 16 17  6 16 17  </DataArray>
<DataArray  type="UInt32"  Name="offsets"  format="ascii">3 6 9 12 15 18 21 24 27 30 33 36 39 42 45 48 </DataArray>
<DataArray  type="UInt8"  Name="types"  format="ascii">5 5 5 5 5 5 5 5 5 5 5 5 5 5 5 5 </DataArray>
</Cells>
<PointData  Scalars=" mean stress"> 
<DataArray  type="Float64"  Name=" mean stress"  format="ascii">5.0274697063067281e+08  1.1125626163529832e+05  3.9385184807080506e+04  9.4424953893223107e+08  8.6903961647528075e+06  5.2130263194579966e+06  1.5549497192712231e+06  5.4765768359410902e+05  1.0770579553251895e+08  8.5097789667221338e+07  3.4802623592492874e+05  2.0392791356208097e+05  2.0137314862265293e+07  3.3996719152066000e+07  1.3620097151045942e+08  1.3319318245604925e+08  5.5435566513507650e+05  3.6511172424291517e+06  </DataArray> 
</PointData> 
</Piece>
</UnstructuredGrid>
</VTKFile>