<?xml version="1.0"?>
<VTKFile type="UnstructuredGrid"  version="0.1"  >
<UnstructuredGrid>
<Piece  NumberOfPoints="787" NumberOfCells="1467">
<Points>
<DataArray  type="Float64"  NumberOfComponents="3"  format="ascii">0.0253163763831596 -0.05095008515408326 0  0.02646635899959049 -0.05225988253257415 0  0.02502149670340228 -0.05243561046763882 0  0.0192363369162766 -0.06806970979678284 0  0.01785689970612189 -0.06858119646279974 0  0.01816465710605705 -0.06729533536873264 0  0.01263888697332505 -0.07850851049115726 0  0.01156618300102526 -0.08035095936378936 0  0.01063628931142468 -0.07857606263072298 0  0.03742133235740961 -0.09005672929239181 0  0.03821948520829777 -0.08878625345726171 0  0.03882498194897689 -0.09005259581168121 0  0.02831316747097568 -0.08353943177895332 0  0.02680418453963673 -0.08396552000116861 0  0.02856782985571023 -0.08503864443391608 0  0.02197300492838798 -0.07785849992225746 0  0.0236515119744492 -0.07882937295138227 0  0.02399582230499316 -0.07726175314528801 0  0.03830062369057925 -0.07890970096328502 0  0.04001413922274079 -0.07947217220789768 0  0.0394739904630113 -0.07822641714535092 0  0.03307580228966352 -0.05623244866465846 0  0.03304454983566926 -0.05808833194342944 0  0.03147362087845901 -0.05656070851086208 0  0.01008019185444602 -0.0897030704995445 0  0.01216681726782447 -0.08857720631714282 0  0.01204980799896014 -0.09085690702402351 0  0.01427753806508674 -0.08965722182118722 0  0.01499662781635355 -0.09120498855657148 0  0.01375614872125667 -0.09084038570529977 0  0.02454468748321089 -0.07169143887984709 0  0.02436733001795869 -0.07015802637527714 0  0.02295612571718715 -0.0715890179003351 0  0.01533533535351063 -0.06979991037261025 0  0.0177806445325376 -0.07005043122102393 0  0.01646203234597888 -0.06811342443084387 0  0.03965658412817928 -0.06102022076500465 0  0.03788556172893791 -0.06203052595151176 0  0.04026188792608635 -0.06274413791360257 0  0.04364884417698481 -0.07754216050898051 0  0.04382140937462677 -0.07954037552804112 0  0.0421967587521993 -0.07768066254010801 0  0.03348214285714286 -0.08348214285714287 0  0.03423230346285393 -0.08200465277485418 0  0.03243162425094744 -0.08246417709341107 0  0.03072628767995273 -0.06184751883997637 0  0.03115040578880909 -0.06003372802837696 0  0.03202687516019807 -0.06100224316397799 0  0.01914387172830702 -0.06345432668240811 0  0.01904183715184792 -0.06150750363943223 0  0.01763933584190689 -0.06216030655882796 0  0.01719551374627341 -0.0830513925183794 0  0.01933763519132608 -0.08192062756666578 0  0.01921813111793967 -0.08404606885628335 0  0.03470250342566425 -0.06222309747987002 0  0.03270661615787385 -0.06211766788261659 0  0.03364747500351112 -0.06325105457070009 0  0.0337884473891351 -0.05460718489330078 0  0.0321356245381919 -0.05463308953185839 0  0.01400809758125955 -0.08758125694359854 0  0.01289591636702387 -0.089754840573112 0  0.03188613320287887 -0.09091108404481391 0  0.0300036120570274 -0.09202382523642311 0  0.03071003455387907 -0.09027106838440507 0  0.03949346768185091 -0.08799370978142433 0  0.04083982813554821 -0.0893700658764271 0  0.02938595614515601 -0.08632050280733992 0  0.03040971863707885 -0.08765127485705719 0  0.02890982094386123 -0.08799498718573706 0  0.04345783710819453 -0.09110483561269606 0  0.04497005514864892 -0.09093463669157506 0  0.0430759581110159 -0.08978773661708545 0  0.0247793305670809 -0.05631957595084435 0  0.02619917778579364 -0.05802778737135143 0  0.02492128034734876 -0.05869428615775265 0  0.02164306295595804 -0.06702658770968295 0  0.02309723803175772 -0.06832518233624925 0  0.02097971601908238 -0.06879409185499595 0  0.02057363836381549 -0.07561467685960577 0  0.01923138543540909 -0.07596279202513538 0  0.0201836820135381 -0.07437805413953116 0  0.03169978531106885 -0.08534923982812244 0  0.0331891491596804 -0.0863907328258092 0  0.03075063691921128 -0.08632983044099815 0  0.01711132032047017 -0.07193570335093875 0  0.01598258986133356 -0.07106798872868814 0  0.03505406134441619 -0.08335106406575787 0  0.03311297132996835 -0.08491400694606925 0  0.02804257120035339 -0.07849071976552029 0  0.03034478515829682 -0.07792111926930155 0  0.02892546366582221 -0.07680880088540872 0  0.02416154146863935 -0.08070016162395202 0  0.0224843414054342 -0.08250864398128172 0  0.02411024678398856 -0.08233455566936589 0  0.025334823172674 -0.08341820123348352 0  0.02522643562136178 -0.08512845143297179 0  0.01649073826091686 -0.06319659086967212 0  0.01570123454296709 -0.06506178719416507 0  0.01770106090999505 -0.06452207583910662 0  0.01728938824664831 -0.06065342293474459 0  0.04464334080337827 -0.06477056026673604 0  0.04502387202811982 -0.06659229383285178 0  0.04636594091932174 -0.06552590861214863 0  0.01809300284513205 -0.05689299134079161 0  0.01981701831826052 -0.05842591866861049 0  0.01792103282159441 -0.05882232399720749 0  0.01454995940546648 -0.05199794358506395 0  0.01686434304608255 -0.05145915617355584 0  0.01581567795051093 -0.04979263651326838 0  0.03869863810845114 -0.05851213874557144 0  0.04018585363524062 -0.05724246148436949 0  0.03970578764389624 -0.05956444608131971 0  0.04500704918173798 -0.08941332064415353 0  0.0468279944940574 -0.09080811063091072 0  0.04534211210420257 -0.09241021952437389 0  0.04670060681091085 -0.09670060681091086 0  0.04504539898905737 -0.09601953464091741 0  0.04639081665769942 -0.09510162937447562 0  0.04205467609998415 -0.06146564627654705 0  0.04107518642763387 -0.06006088126008405 0  0.04241869617792832 -0.06016796568913897 0  0.03694482364888862 -0.07483282559208632 0  0.03610885884382378 -0.07281806235528819 0  0.03807023319162758 -0.07320682963349499 0  0.02958027680234551 -0.07172324007054222 0  0.02856154711422706 -0.07386136174728263 0  0.02755543059494003 -0.07239631376986599 0  0.03639778858618781 -0.07619102435699082 0  0.0384705842660954 -0.07508656202965074 0  0.04684624656174251 -0.07187500000000001 0  0.04842312328087126 -0.07343340336823168 0  0.04685549256184014 -0.07344263060849651 0  0.04337196116786825 -0.07463925880684733 0  0.04210124169070797 -0.07622511749289544 0  0.04354979210673399 -0.07608378292408841 0  0.03637679552963742 -0.07765509762578199 0  0.0385769480595515 -0.0766296156204922 0  0.02736491626781095 -0.07590524263897044 0  0.02687859119369121 -0.07741425412276508 0  0.009435764744425919 -0.08043238240966273 0  0.00926086646052551 -0.08713687094856779 0  0.01084917183279576 -0.08758400344942135 0  0.009765258461052893 -0.08838972595063958 0  0.025 -0.1 0  0.02574660752638188 -0.09831523885802962 0  0.02425762309203308 -0.09845112215652949 0  0.02717161535066178 -0.09714682300539645 0  0.02814040517327717 -0.09840897789012983 0  0.0287187101773846 -0.09677522339481145 0  0.01875 -0.09260679016400503 0  0.01746426634563599 -0.0946966824898527 0  0.02000489244543809 -0.09471513491297798 0  0.04446421559415197 -0.08718473081338503 0  0.04367940145364908 -0.0885562994627993 0  0.02088671269095009 -0.06240702469651116 0  0.0278582381998454 -0.05655080703154879 0  0.02860271266695176 -0.05463752982112181 0  0.02637310899341614 -0.0557118438524549 0  0.02378330144214598 -0.0516705092605356 0  0.02507311958935473 -0.06271161136998743 0  0.02657608507230502 -0.06228073040903606 0  0.02551730029560318 -0.06142426381158862 0  0.0305796626780135 -0.05519119088158705 0  0.0328125 -0.05312500000000001 0  0.0376081921684235 -0.05245551308128505 0  0.03762419922489806 -0.05459874974087802 0  0.03635973676985995 -0.05369008569158945 0  0.04767128262860884 -0.05537540323700023 0  0.04546530640752131 -0.05503961419206276 0  0.04578782911147741 -0.05675321623119051 0  0.03686548041120438 -0.06032818054708596 0  0.036644526860098 -0.05856190909012812 0  0.03769074722308389 -0.05932798700863462 0  0.02063243529930224 -0.08719964433792667 0  0.01908514024155837 -0.0863776329894482 0  0.0199696387685163 -0.08525850927813482 0  0.006250000000000001 -0.08914373740925415 0  0.007964066885959199 -0.090800007287408 0  0.008299592740779536 -0.0888576775342028 0  0.008695080668314235 -0.07807940410525299 0  0.0155154430127655 -0.07780260757679426 0  0.01598440846056885 -0.07579471522088828 0  0.01473201805325772 -0.07656091781105955 0  0.04321758283034931 -0.06704044172466167 0  0.04133630972986371 -0.06599851068428712 0  0.04130559735643655 -0.06764829107165204 0  0.04313110864619899 -0.06285939600837437 0  0.04345056050076136 -0.06150011966148285 0  0.02073553625659391 -0.06054214652517984 0  0.01913420206319778 -0.05989244632510003 0  0.03660603257347798 -0.08363301208285871 0  0.03867852709227757 -0.08328665052822476 0  0.03686505600937307 -0.08180844633712978 0  0.03556210456271347 -0.08208668761276301 0  0.05 -0.08437500000000001 0  0.05 -0.0859375 0  0.04860490583514159 -0.08575133884125646 0  0.04553386586880761 -0.08075612830980353 0  0.04441800636074661 -0.08248315021781349 0  0.0457909677211155 -0.08214624565084092 0  0.04210310889254143 -0.08866781429134733 0  0.037033205797572 -0.05682482417137066 0  0.03841317868273451 -0.05712832193281868 0  0.04143681828516032 -0.09324577512300852 0  0.04028474823910268 -0.09217836090091314 0  0.04215449354704975 -0.0918988737706147 0  0.0472227281394374 -0.06404123962307648 0  0.04542281870194612 -0.06345085768052849 0  0.04651019676850526 -0.06237066804404576 0  0.01512933394003292 -0.07220768844695416 0  0.02353466441496152 -0.07572444547906115 0  0.02206053129225047 -0.07549746227010537 0  0.02286879863971965 -0.07432437058595016 0  0.02389766944944421 -0.05336055352824819 0  0.02505789171550941 -0.05462571702396751 0  0.0200352813999171 -0.04944197410413204 0  0.01897132622274226 -0.04818917069836885 0  0.02039596393456947 -0.04786566231201216 0  0.02255522939491745 -0.05050381790686167 0  0.02095559199324484 -0.05077897888898596 0  0.02151442938367597 -0.04940906557037485 0  0.03419217537052396 -0.09402564429600242 0  0.03559757304728373 -0.09285131497116357 0  0.03429324813307534 -0.09271847386402299 0  0.03956847501260272 -0.09552117233795018 0  0.03805996984719173 -0.09658899459631076 0  0.04047475625143419 -0.09699905835395513 0  0.021875 -0.09630339508200252 0  0.02335217755244849 -0.09453533706230265 0  0.02164218989516194 -0.09394860151095942 0  0.02801599660666901 -0.09111197895245939 0  0.02801963102625338 -0.09364296901250888 0  0.02628176258387535 -0.09237996689571155 0  0.02253985872597661 -0.09237936377706879 0  0.02062850538455265 -0.09221938595856524 0  0.02242496556936416 -0.09046477137638677 0  0.01187454317038147 -0.09313287027544383 0  0.009910112500182363 -0.09198184781439322 0  0.01688858667846797 -0.09056366599870737 0  0.01764947219127456 -0.09173994572038108 0  0.01625296255263216 -0.09179990316518254 0  0.02697966311363632 -0.07071490726518369 0  0.02609227306527468 -0.0696292428199545 0  0.0278269162131673 -0.06895195205344769 0  0.02605302166616394 -0.07334573645615944 0  0.02424416368163389 -0.07395314126881693 0  0.02629553281523661 -0.0748373994305143 0  0.02304765214605689 -0.08425167778391449 0  0.02674041402623413 -0.08553220886045218 0  0.02774713882407576 -0.08698701816670062 0  0.0180017596950669 -0.07990004588807104 0  0.01961158282036853 -0.07814826220849896 0  0.01788910098074691 -0.07818094157394692 0  0.02061992817115868 -0.08305880541037541 0  0.02070031550459481 -0.08167682264990829 0  0.02970767836655067 -0.09552881632074735 0  0.02730891305492326 -0.09532550536422786 0  0.03207920091081376 -0.08782980447886177 0  0.03194967090723326 -0.08936837677953377 0  0.03168778796663628 -0.09223868535998714 0  0.03357330044966135 -0.08821922624794785 0  0.04686470104227086 -0.07501026143783775 0  0.04825304035632092 -0.07674812451049505 0  0.04669563736793854 -0.07656881046473733 0  0.0450928172781495 -0.07775830671609242 0  0.04101455865131804 -0.05412690199292355 0  0.04137242529330159 -0.05622945225612468 0  0.04300194989211428 -0.05554265833234732 0  0.025 -0.06875000000000001 0  0.02667407024001682 -0.06835345269888123 0  0.02543721539204963 -0.07608124881349417 0  0.03243759091146019 -0.06496581287053931 0  0.03455716392834415 -0.06440960832956279 0  0.03353474093578226 -0.06589739558154034 0  0.0323993317698328 -0.06678194662539473 0  0.03108390978108366 -0.06594845893192823 0  0.0125 -0.1 0  0.0109375 -0.09841128814130186 0  0.01246317096784876 -0.09783892639182749 0  0.04495896917553115 -0.07156372452692503 0  0.04605668764667573 -0.07078516954377073 0  0.02372950319315786 -0.05788378649075276 0  0.02250150625287546 -0.06335204673888746 0  0.02250509796962503 -0.06529043073346426 0  0.02084932671181944 -0.0642776468381467 0  0.04393038059928881 -0.0857332574576833 0  0.0428158667599428 -0.08754642106528769 0  0.03221917584393987 -0.07213630776030797 0  0.03113792071697103 -0.07040805974324374 0  0.03275835058135572 -0.069768389810276 0  0.02875062544373486 -0.07533420221239408 0  0.02729742967311976 -0.07365149246096568 0  0.01965556274601837 -0.05175082112889391 0  0.01877450229532074 -0.05042027151892382 0  0.01807873790021638 -0.08781185019060267 0  0.0161096756288325 -0.088593513415249 0  0.01659128493613079 -0.086935787868913 0  0.02210989970907484 -0.08621085361415046 0  0.02317961095949602 -0.08712881835118516 0  0.02191870350157453 -0.08762026643638271 0  0.01179919481827354 -0.08623489346281316 0  0.01349963178219429 -0.08593027521196091 0  0.01149399840999109 -0.08468367462389963 0  0.01522637390923149 -0.08587889648352846 0  0.01610567133630874 -0.08439183027780817 0  0.01470208406690262 -0.08456538963721666 0  0.01349267938609449 -0.07577377880835154 0  0.01170516222480349 -0.07472039534385352 0  0.01203391992632195 -0.07620585356677018 0  0.01309433409399386 -0.07710744596856833 0  0.01160410178989929 -0.07754957646168527 0  0.04073902625376655 -0.07773311114842162 0  0.04181753717862587 -0.07945588747012097 0  0.03494853149871441 -0.07598220592097449 0  0.01535380637842265 -0.08747509280206515 0  0.01448543107539198 -0.07407078558366757 0  0.01880866011394939 -0.07464213673518118 0  0.04808091073522938 -0.06576331931689557 0  0.04861206813000137 -0.06395989746230757 0  0.04678717767873879 -0.06718750000000001 0  0.04535460376886166 -0.07919470684593669 0  0.04673823607916674 -0.079826857186824 0  0.04804717473543341 -0.08445910057906754 0  0.04669872692324387 -0.084778557186234 0  0.0476981558346735 -0.08316803029933817 0  0.03765012642225032 -0.07127449431099875 0  0.03976053609378098 -0.07423312666419081 0  0.04156726546556366 -0.07442715079550234 0  0.04030153452271364 -0.07596865022997004 0  0.01395860158789553 -0.06402955474289401 0  0.01448547405983569 -0.06574069725137739 0  0.01337340521578251 -0.06909593087496524 0  0.01349893281808287 -0.07116271226355417 0  0.01284084887861751 -0.07298400536762802 0  0.01149171032184903 -0.07201869888808959 0  0.02055120955905793 -0.09815169754100125 0  0.02030037282362401 -0.09657382979855417 0  0.0256560691365745 -0.09454823090098792 0  0.02441072590370595 -0.0929054837984588 0  0.04717288172427113 -0.0578125 0  0.04846232952183962 -0.05680668843943944 0  0.04858644086213557 -0.05859375 0  0.01235630417055644 -0.06354714744631179 0  0.0140972685623759 -0.06251577742337738 0  0.03745485763761926 -0.06844462290941347 0  0.03896878548975456 -0.06799871834625124 0  0.03734748158521295 -0.06698965326129386 0  0.03655015477421705 -0.06349859748793012 0  0.03628106215458459 -0.06191242066797646 0  0.007976246520282971 -0.09318351454674861 0  0.01719655043988758 -0.05381209088541083 0  0.01919850894978513 -0.05370296074729841 0  0.01817339165028255 -0.05243337564121595 0  0.0177044701318127 -0.04923635389027163 0  0.01957205274891251 -0.04665925415381995 0  0.03274916427480829 -0.07601810316947165 0  0.03443564012900872 -0.07786624700091113 0  0.03262097952842365 -0.07858713204909264 0  0.03286588766232278 -0.08106730239336332 0  0.03105330150307663 -0.07972227990463757 0  0.04295599148530863 -0.06529341667744347 0  0.04025169088499745 -0.0689179365835467 0  0.0392376343509131 -0.07041275145907266 0  0.04162765205608168 -0.07039326929532935 0  0.02533618313706692 -0.06007453909491395 0  0.02701766583748812 -0.0607808737247923 0  0.02430216515723209 -0.06740195582118068 0  0.02310001131869954 -0.06660459701709798 0  0.02979794365197661 -0.09377144891582417 0  0.02897514763149931 -0.09278870464754896 0  0.03456343899118452 -0.09133977312687541 0  0.0330193319246762 -0.09240855817298908 0  0.03092928272861228 -0.0717409516666772 0  0.03433598323828143 -0.07050733890753118 0  0.034502599027716 -0.07221497567281093 0  0.03573615640485925 -0.07137011938786766 0  0.02974088823444093 -0.05691571609443512 0  0.02896495603620748 -0.05587996185574331 0  0.03119026483577081 -0.05817143789660971 0  0.03216091555036667 -0.05910065327901588 0  0.01708041860072189 -0.09302008585267084 0  0.04057402117478928 -0.0716280096305667 0  0.04079321027527798 -0.07312602426129099 0  0.03904784869560212 -0.07198245226397448 0  0.04787256437880699 -0.0697568753502885 0  0.0455282229587063 -0.06954748671798064 0  0.04406047400327841 -0.06858191706433066 0  0.04547064047372797 -0.06803667987104589 0  0.03658895737846099 -0.06574341599602251 0  0.03753100792087776 -0.06460438765438026 0  0.04233932498560593 -0.06893441927875556 0  0.04453850817680629 -0.09773611086664115 0  0.04347531149161154 -0.09632022083863682 0  0.04375 -0.1 0  0.04315901838865836 -0.09852489975759293 0  0.0296645300907328 -0.06530783576791964 0  0.03014510288300454 -0.06719090746275916 0  0.02827918548571119 -0.06773428714866543 0  0.02802231520188002 -0.06598384331538472 0  0.02385922456033941 -0.08589388241306306 0  0.02448412737790592 -0.08766283926071572 0  0.02632268052734591 -0.08803624812100705 0  0.02564964903404511 -0.08663710682039144 0  0.03742838561857629 -0.09280317640226764 0  0.03853826123790701 -0.09142709347427863 0  0.03647630359014919 -0.09143238887055696 0  0.034375 -0.1 0  0.0328125 -0.1 0  0.0329327393431024 -0.09849296744620988 0  0.03154646546994392 -0.09357356139794663 0  0.015625 -0.1 0  0.0171875 -0.1 0  0.01547274264922956 -0.09854397794575435 0  0.01871950842402656 -0.09680502977818994 0  0.04148782147467181 -0.09613305849344565 0  0.04367823081550155 -0.09279933892086459 0  0.04307405930761455 -0.09399709711630597 0  0.03269497038987057 -0.09699996023166203 0  0.03264524664241122 -0.09511094245967713 0  0.03128628044983588 -0.09609187721646688 0  0.03458684542327604 -0.09791093581449198 0  0.03454043599267424 -0.09595295895008756 0  0.0288473930302381 -0.06975562013235019 0  0.0283397006815403 -0.07106502082293563 0  0.0362103552727993 -0.06995216967840789 0  0.03595819105513484 -0.06743500493875221 0  0.03485503062124005 -0.06881802734275347 0  0.03416965415424481 -0.06718908816428884 0  0.0228268035387522 -0.07025594341422257 0  0.02008778750363996 -0.07308495478143924 0  0.03247163729134869 -0.077291968035973 0  0.03205910429062608 -0.08387876979707351 0  0.02333713946452375 -0.09602387838051908 0  0.02465175425503141 -0.09552986750124821 0  0.02448380865041682 -0.09697315767464136 0  0.02591834040017751 -0.09613651264726311 0  0.01341369481270771 -0.08398209451144213 0  0.01516358539601881 -0.08294372670880212 0  0.01090408508113698 -0.08321690027238231 0  0.009913388722874238 -0.0819599169338949 0  0.01192214909772467 -0.08194264601442183 0  0.017187626952706 -0.09628922367456179 0  0.01441797626428604 -0.07954436576737998 0  0.01634023559849552 -0.07934726015341267 0  0.01743531432448149 -0.08143393452012881 0  0.04413667084473984 -0.08091023419382859 0  0.05 -0.07187500000000001 0  0.05 -0.07343750000000002 0  0.04650608071264184 -0.07812500000000001 0  0.04851077385564646 -0.07821781225524754 0  0.05 -0.08125000000000002 0  0.04825304035632092 -0.07968750000000002 0  0.04789537474810155 -0.08184523728436024 0  0.0155715347117314 -0.09625819711534236 0  0.01687118283617986 -0.09811091032189435 0  0.009375 -0.09682257628260371 0  0.009943033197573756 -0.094515888507514 0  0.01079579989760286 -0.09594917086750764 0  0.05 -0.05625 0  0.021875 -0.1 0  0.0203125 -0.1 0  0.03906250000000001 -0.09800455576342267 0  0.04112155663477325 -0.09847090778665886 0  0.04729359985643771 -0.08626263164979399 0  0.045415435492664 -0.08530155539871791 0  0.04713827720273221 -0.0936545628539331 0  0.04859267503896548 -0.09299653148765692 0  0.04723752683076229 -0.09220360639007909 0  0.01575076539894387 -0.09454758560601403 0  0.0140118064601774 -0.09594630830018949 0  0.01372421108604545 -0.09438191840234079 0  0.01218563796599231 -0.09466625734625071 0  0.04486258744491921 -0.08391151056177516 0  0.03788412871595651 -0.08460068356336395 0  0.04436432681906392 -0.09436432681906393 0  0.02842511037654411 -0.05962096314605676 0  0.02928820413208159 -0.06103137109926614 0  0.0421875 -0.09726738951485452 0  0.01447237992915706 -0.05391443372326251 0  0.01580235143200802 -0.05300845566202771 0  0.01560046342236387 -0.05491844306998859 0  0.01827448861120927 -0.0551693132493233 0  0.02190003906503893 -0.05743439453251947 0  0.02011131338754623 -0.05635649609181516 0  0.02144004037962496 -0.0558523815223985 0  0.03725367478098609 -0.08684679329590744 0  0.03675018171955668 -0.08848243759361456 0  0.03924608506562968 -0.08530978616477196 0  0.03873723952744301 -0.08671005016132827 0  0.02665356197710891 -0.05399279460074238 0  0.02801635613930165 -0.05314150680701443 0  0.02296439983425035 -0.05960527101824267 0  0.02342170207661852 -0.06156375004236837 0  0.03925290019911523 -0.0559919664295034 0  0.04024748446222535 -0.05516688225348838 0  0.0396437922234081 -0.05261372697940805 0  0.04105826602165569 -0.05283533998746703 0  0.04365050686181107 -0.05962103976805405 0  0.04260386737906484 -0.05872421875448474 0  0.04127455092651954 -0.05835999367817182 0  0.04250893229238192 -0.05734918076717702 0  0.028125 -0.1 0  0.0296875 -0.1 0  0.0296875 -0.09803737827954483 0  0.01732194592699554 -0.06627651681808928 0  0.02045783962522107 -0.0675900012484083 0  0.02195348156519519 -0.06138198038091803 0  0.02137183393822077 -0.0590085221583143 0  0.04738013284461021 -0.0607763902832027 0  0.04576264938668641 -0.05940030221300573 0  0.04582695928401598 -0.06096336740357781 0  0.04824838298132056 -0.06261653776768819 0  0.04010991573299855 -0.09061756875992701 0  0.04238696200114518 -0.09514928859220396 0  0.04052182971336245 -0.09439922506797535 0  0.02435012462147645 -0.06588475561500517 0  0.02525718221910314 -0.0644224883416977 0  0.02395307914750756 -0.06369744912982594 0  0.02273768120710101 -0.08008342737753131 0  0.02275870652995723 -0.07679503783168412 0  0.007616524711816953 -0.08500313843252691 0  0.008847539815939054 -0.08415804916342749 0  0.008755690703289153 -0.08582571525815827 0  0.02791118593724227 -0.08916569610710105 0  0.02633057604140265 -0.08970693951336907 0  0.0205136122279402 -0.09030479355788322 0  0.01956686700026423 -0.08838706227765243 0  0.02119360057420755 -0.08877653688992992 0  0.01344500085629343 -0.08135860767901475 0  0.01299207281128868 -0.07994763844795164 0  0.01406480858169313 -0.07810520662859874 0  0.04873315593376846 -0.06015624999999999 0  0.04845381131058759 -0.09140625000000001 0  0.03877430556551383 -0.06380497802573268 0  0.03141556794674372 -0.06349796956950662 0  0.0334287803019305 -0.0684594667057779 0  0.03923212804694486 -0.06644261451986548 0  0.03564208961088893 -0.07419254478978593 0  0.03002222490798922 -0.08459454247838608 0  0.02940888324032909 -0.0823746023468222 0  0.04621734313295655 -0.08776214201113207 0  0.04849135601461235 -0.08722130628128009 0  0.04228103944033501 -0.08633007149251014 0  0.04103588953293331 -0.08741094323461297 0  0.04071215429020377 -0.08587383408920059 0  0.01683718122662454 -0.07391739294871101 0  0.0201961066827266 -0.07692076917231543 0  0.02145706001699292 -0.07413349296672617 0  0.01514639389519581 -0.06337512058463936 0  0.01309868800687886 -0.06586646235564859 0  0.02962943596218294 -0.06340401516288652 0  0.02847304643420735 -0.06437756525728731 0  0.02813840376686446 -0.06221970629838743 0  0.02265668847927564 -0.07289444853882621 0  0.03504935696459177 -0.08867226036471411 0  0.03572407467196949 -0.08724337604866823 0  0.02985897032777792 -0.08923737705678422 0  0.0294294739969754 -0.08077554116165468 0  0.0294409264687639 -0.0792052488136499 0  0.02541211245660132 -0.07801680524060067 0  0.02568662278239495 -0.07977783084146924 0  0.02668004865569387 -0.07879647511856333 0  0.04341178859188766 -0.08427626842755569 0  0.0409381800584552 -0.08321804043590277 0  0.03966425888618426 -0.08219839935352347 0  0.04172497548734894 -0.08211241580126424 0  0.0228072476115245 -0.09808787309309817 0  0.0353858097709929 -0.05665174961851906 0  0.03389359847080847 -0.05912983108016167 0  0.01920820947190402 -0.091131264789238 0  0.01864804858229055 -0.08969135130938187 0  0.0173327693122942 -0.08924900611095755 0  0.04234720518929534 -0.07278592856382902 0  0.04169457139716228 -0.06387802551592327 0  0.04001564851502092 -0.06494806546295115 0  0.01282145055273654 -0.08704292897369291 0  0.009978301654176555 -0.08513321670006388 0  0.01032852482152762 -0.08638888954386247 0  0.04499894173488171 -0.07594873062552117 0  0.01439721346977286 -0.05583102001882564 0  0.02678920754351109 -0.08117814292469792 0  0.02536319024778134 -0.0815558767553736 0  0.02716872115611415 -0.08256983251605732 0  0.02797489430216643 -0.0800951407392209 0  0.03410734113242967 -0.05712229038656746 0  0.03435149007396673 -0.05581356516228301 0  0.0355189199794279 -0.05500064388548929 0  0.03095360720879473 -0.08134694916299613 0  0.02942781441876999 -0.09065673612076443 0  0.01354726629139471 -0.05961923898792222 0  0.01508100831621847 -0.06135689589379626 0  0.01270302026515522 -0.06191011911327859 0  0.01966105568371081 -0.07980930110890679 0  0.02087353251721647 -0.07894193214074256 0  0.04405668594067944 -0.05696201317865261 0  0.04459093783640754 -0.05840415891792513 0  0.02759402972002797 -0.06340900612409495 0  0.04318756780435637 -0.0708420282370337 0  0.04526414745193471 -0.07345199743417498 0  0.03065198177290116 -0.07351249963421311 0  0.03238172151111507 -0.07419518219958977 0  0.03157230138205727 -0.0753068283577082 0  0.03343821757718572 -0.0749307191270363 0  0.01913325967068864 -0.06951923219896647 0  0.02149024602692701 -0.07016977016464357 0  0.02035059643400206 -0.07180682211235186 0  0.02136116550709479 -0.07284039360863423 0  0.02019517427329467 -0.07051123899821848 0  0.0308659660354914 -0.09477585287463343 0  0.03287129673084799 -0.09378803694925819 0  0.03031862075128205 -0.05266953722613586 0  0.03098557604161693 -0.05387483229993712 0  0.02805149774555685 -0.05153506231567133 0  0.02929039821632578 -0.05350507509749888 0  0.01217113856664886 -0.0835593255588078 0  0.0131678658878532 -0.08266723083362947 0  0.03652800755960622 -0.08532088284622794 0  0.03493211955874389 -0.08587598383283301 0  0.03534066958936554 -0.08077288883349856 0  0.03395898426311517 -0.07970718585064725 0  0.03315091878951795 -0.07309860138482303 0  0.03633226476455039 -0.09674364023168498 0  0.04062500000000001 -0.1 0  0.03906250000000001 -0.1 0  0.008497692516520911 -0.08270643594827216 0  0.01889464267855688 -0.07174607330256361 0  0.01822882244495401 -0.07317561356252467 0  0.0212171018061149 -0.08039258342290792 0  0.03930204089053368 -0.0542859178917327 0  0.01760679597515644 -0.08543724855596233 0  0.01244313478621703 -0.09620954969326342 0  0.01536691765402977 -0.09287098896883215 0  0.01585119923990406 -0.08102865178890535 0  0.03489498531895979 -0.05823382415106163 0  0.0302193738423544 -0.07555280640245397 0  0.05 -0.07812500000000001 0  0.05 -0.07656250000000001 0  0.01520891698279912 -0.05969829059136152 0  0.01966146317941159 -0.06575257497470399 0  0.05 -0.09062500000000001 0  0.05 -0.09218750000000001 0  0.03983269565509991 -0.08405404463172585 0  0.03131936381797591 -0.07668203462385646 0  0.03859993140651855 -0.08118688326132042 0  0.03739221201018043 -0.08054788774758258 0  0.046875 -0.1 0  0.04661292163665418 -0.09835954698075154 0  0.04531250000000001 -0.1 0  0.05 -0.06875000000000001 0  0.05 -0.0703125 0  0.01973533618750502 -0.055002062568316 0  0.0234375 -0.1 0  0.01895748524496576 -0.09840038922915406 0  0.007568250967829863 -0.07972718160884765 0  0.02620327403968029 -0.07192005164236906 0  0.02551185589648336 -0.07080546057480111 0  0.01750832445589532 -0.07513554285106323 0  0.01793647152075774 -0.07645880114393216 0  0.04390052570749336 -0.07270358525431452 0  0.01355441016226922 -0.09211750166649731 0  0.04842312328087126 -0.07133135235647224 0  0.04843233713110724 -0.07500103950459711 0  0.03521745692463237 -0.06619540130692698 0  0.02697244171743559 -0.06455983431862716 0  0.02779487632895533 -0.05814991770040182 0  0.0478534430747842 -0.08861656394375685 0  0.04649096474250307 -0.08923185806345743 0  0.04570059797652071 -0.09381127969636116 0  0.03421885564815121 -0.07390709677899014 0  0.04842398688702478 -0.09539376514909893 0  0.04854573789335198 -0.09684326913835573 0  0.05 -0.096875 0  0.05 -0.09531249999999999 0  0.02283195883726561 -0.05556565878898524 0  0.02252270839478682 -0.05405612285092389 0  0.01565133948007531 -0.08991376897577232 0  0.0463863416988417 -0.08342845367255949 0  0.04893200840774749 -0.08352719003577576 0  0.05 -0.08281250000000001 0  0.03164035608931087 -0.06843232885197728 0  0.04068741440010788 -0.08114525616141474 0  0.0427726833976834 -0.08125000000000002 0  0.05 -0.09375 0  0.02104348967564478 -0.05448768578423942 0  0.04176420716056679 -0.08470734628804 0  0.04289163259494302 -0.0828054988215063 0  0.01681418227641503 -0.0772896522997877 0  0.03750237676704516 -0.09494644472428324 0  0.01592861848971372 -0.06644696208461183 0  0.01468071573139768 -0.06853842401283076 0  0.0146952927267462 -0.06711727581620536 0  0.01331714780186112 -0.06723201092575762 0  0.03938396939179221 -0.09346492064721051 0  0.03300996418550588 -0.06014215241574811 0  0.03493431590337418 -0.06030576554095572 0  0.03389318735474586 -0.06115256873292087 0  0.006221822967568033 -0.08120096840325083 0  0.008077948192471374 -0.08120277742142985 0  0.01052907079969781 -0.07642967685518529 0  0.04724493089539553 -0.05929665313224221 0  0.04587433118138107 -0.05807525716567661 0  0.01618198998394108 -0.04835219780658245 0  0.0130937603945388 -0.07438901543404451 0  0.02054820010084714 -0.05309092403919604 0  0.00707564389875579 -0.08712042819884332 0  0.03009279832707366 -0.06877511020030626 0  0.03586457582985461 -0.08999972363457429 0  0.03657577998010641 -0.0794522873883559 0  0.01573948411344071 -0.05812163885551944 0  0.01422104128432557 -0.0574728398015178 0  0.0170548312770772 -0.05777278503495575 0  0.01657103350655779 -0.05927906558593418 0  0.01628826452041482 -0.04466129449473814 0  0.01681181088971954 -0.04700595347504409 0  0.01802508509917169 -0.04550425595558605 0  0.01819856148758126 -0.04688538582679262 0  0.0442176959167907 -0.06994126340647705 0  0.03577825599618199 -0.09473416596371731 0  0.02043227851597662 -0.09349614031751699 0  0.02497095433840309 -0.09067786736464709 0  0.02377902455312172 -0.091562360964996 0  0.02285652838955744 -0.08859591663874328 0  0.0243061130580264 -0.08923839991388484 0  0.02112479457827937 -0.06568717069536983 0  0.03344377044608085 -0.08975779854861986 0  0.03324542520983827 -0.09108539986379308 0  0.02663968425685113 -0.09104954368369947 0  0.02990164109359961 -0.05907542879269979 0  0.02660658049802087 -0.05940487796758724 0  0.04563100200720536 -0.08659226661341388 0  0.03089170025005584 -0.08297349663535204 0  0.02125959124306701 -0.08464957731246456 0  0.05 -0.08750000000000001 0  0.05 -0.08906250000000002 0  0.0359375 -0.1 0  0.03594570646200972 -0.09805421444443425 0  0.04836048200187842 -0.06803682448734552 0  0.05 -0.065625 0  0.05 -0.06718750000000001 0  0.03762726532015887 -0.06985439905083647 0  0.04471567469374729 -0.06209102384433118 0  0.03521582301933308 -0.07905042923647784 0  0.03730020894457873 -0.09823408971538854 0  0.03750000000000001 -0.1 0  0.04866400152933909 -0.08990156932924832 0  0.03434674109387816 -0.08710213257910124 0  0.03144151863431595 -0.09824423985325063 0  0.03125 -0.1 0  0.03338547267447482 -0.07146202796835112 0  0.02638631360909955 -0.06665729319815682 0  0.02161956820536196 -0.0715028446507561 0  0.05 -0.0546875 0  0.04185052397125599 -0.09040327906227953 0  0.01627110583161184 -0.05627153061145702 0  0.01691461845448565 -0.05510983901679552 0  0.04827186180649485 -0.09827186180649485 0  0.03522211623769801 -0.05262690406106997 0  0.05 -0.0625 0  0.05 -0.06406249999999999 0  0.05 -0.059375 0  0.05 -0.0578125 0  0.05 -0.0609375 0  0.04356688067402686 -0.05386698249152345 0  0.01875 -0.1 0  0.02192539567822046 -0.05254357819150626 0  0.0421875 -0.1 0  0.0140625 -0.09815104259024744 0  0.05 -0.07500000000000001 0  0.05 -0.1 0  0.05 -0.09843750000000001 0  0.0484375 -0.1 0  0.05 -0.07968750000000002 0  0.0109375 -0.1 0  0.0140625 -0.1 0  0.0265625 -0.1 0  0.04451023070087207 -0.06066269773936521 0  0.01632788744225472 -0.06186140627807155 0  0.00685814413130739 -0.08271200955063131 0  0.04678157935782826 -0.06874321586485946 0  0.02819816450921766 -0.08155934902603874 0  0.04673685577414285 -0.08125246976157782 0  0.01154189102213652 -0.07337401456509736 0  0.03826844779895317 -0.06064429269585924 0  0.02677174314827488 -0.05083202728684691 0  0.008444268623215768 -0.09461046788110308 0  0.04222830252022487 -0.05338402691110991 0  0.02146736502229293 -0.07665324043533162 0  </DataArray>
</Points>
<Cells>
<DataArray  type="UInt32"  Name="connectivity"  format="ascii">0 1 2  3 4 5  6 7 8  9 10 11  12 13 14  15 16 17  18 19 20  21 22 23  24 25 26  27 28 29  30 31 32  33 34 35  36 37 38  39 40 41  42 43 44  45 46 47  48 49 50  51 52 53  54 55 56  21 57 58  27 59 60  61 62 63  64 65 11  66 67 68  69 70 71  72 73 74  75 76 77  78 79 80  81 82 83  34 84 85  42 86 87  88 89 90  91 92 93  94 13 95  96 97 98  99 49 50  100 101 102  103 104 105  106 107 108  109 110 111  112 70 71  113 114 70  115 116 117  118 119 120  121 122 123  124 125 126  121 127 128  129 130 131  132 133 134  135 136 18  137 90 138  139 7 8  140 141 142  143 144 145  146 147 148  149 150 151  152 112 153  48 154 49  155 156 157  0 158 2  159 160 161  162 58 23  163 57 58  164 165 166  167 168 169  170 171 172  173 174 175  176 177 178  139 179 8  180 181 182  183 184 185  118 186 187  188 49 189  99 105 189  190 191 192  190 192 193  194 195 196  197 198 199  200 153 71  201 171 202  203 204 205  206 102 207  206 208 207  209 84 85  210 211 212  213 214 2  215 216 217  218 219 220  221 222 223  224 225 226  227 228 229  230 231 232  233 234 235  236 237 26  238 239 240  241 242 243  244 245 246  92 247 93  248 249 14  250 251 252  52 253 254  255 231 256  257 67 258  61 62 259  257 82 260  261 262 263  39 40 264  265 266 267  268 269 242  137 270 246  271 272 273  271 274 275  276 277 278  129 279 280  72 281 74  282 283 284  152 285 286  287 288 289  125 290 291  292 293 219  213 158 2  294 295 296  297 298 299  300 301 302  303 304 305  306 307 308  308 309 310  311 312 41  135 313 127  303 296 314  24 141 142  306 315 182  316 79 80  206 317 318  319 101 102  197 320 321  322 323 324  325 122 123  326 327 328  329 97 330  35 4 5  33 331 332  333 332 334  227 335 336  337 228 338  339 340 341  329 342 343  99 49 189  344 345 346  347 37 348  349 177 237  24 177 178  350 351 352  353 107 108  354 216 217  355 313 356  357 358 359  183 101 360  361 362 363  364 365 161  76 366 367  231 368 369  370 371 223  287 288 372  373 374 375  155 376 377  378 22 379  173 297 175  149 150 380  326 328 128  381 382 383  129 384 280  385 386 387  388 347 389  361 185 345  361 390 363  183 390 185  391 116 392  393 391 394  395 396 275  397 396 398  399 400 298  401 400 402  24 237 26  24 177 237  403 404 405  406 407 408  409 62 259  403 222 405  410 411 412  413 150 151  224 226 414  203 415 416  417 418 419  417 420 421  269 242 243  124 422 423  424 425 426  427 425 426  428 31 32  429 316 80  357 89 430  42 87 431  228 432 433  434 144 435  436 437 305  438 439 440  339 167 169  378 22 23  21 58 23  413 150 441  24 25 141  180 442 443  250 443 444  40 320 445  446 130 447  448 262 449  450 451 452  453 454 412  455 456 457  458 167 340  459 335 460  461 226 462  463 464 323  69 415 70  465 466 467  453 468 469  470 471 469  198 472 199  190 191 473  115 391 116  474 415 416  365 160 161  475 365 476  42 43 86  81 87 431  474 116 392  477 226 462  353 216 293  478 479 480  350 351 481  482 483 484  215 220 217  215 219 220  485 486 10  487 473 488  103 483 481  350 107 352  489 156 490  489 156 157  364 491 492  72 214 157  493 110 494  265 495 496  497 498 120  499 266 500  501 502 147  255 503 148  504 97 98  75 77 505  282 492 506  188 491 507  508 509 510  206 208 511  512 404 204  203 513 514  268 76 366  515 516 517  15 16 518  15 17 519  520 521 522  448 263 264  39 133 134  230 523 524  337 231 232  248 402 95  248 13 95  525 234 235  525 526 527  528 7 529  6 530 309  508 511 531  100 102 207  532 466 467  54 347 348  533 347 389  55 534 56  427 426 535  344 424 425  536 345 346  333 209 315  121 122 537  135 313 356  12 538 539  94 247 93  152 112 540  463 540 541  542 543 544  9 486 10  545 181 315  493 201 202  109 171 172  78 79 546  78 547 211  329 343 548  329 549 330  33 34 85  395 550 551  552 365 160  553 30 32  268 31 242  554 486 555  485 10 488  370 222 405  9 404 405  556 67 258  257 82 83  557 359 558  88 90 138  559 560 561  559 138 561  200 543 65  542 285 286  562 542 285  563 564 565  434 566 145  201 171 567  22 568 379  149 569 239  294 570 571  572 327 382  381 362 363  573 184 574  536 184 574  300 301 575  576 302 577  39 578 264  197 320 445  579 478 480  580 581 582  580 560 583  21 584 585  586 201 567  248 13 14  557 587 539  401 523 249  556 588 63  589 590 591  590 591 343  251 592 593  251 593 546  594 168 169  497 509 595  573 118 186  361 390 185  358 43 44  358 359 587  550 551 596  552 550 476  597 390 363  129 598 279  599 600 601  355 600 602  504 35 5  3 4 603  428 76 604  76 77 604  429 605 606  607 77 604  418 419 608  409 371 609  163 610 611  612 610 613  436 614 615  6 7 529  485 616 473  485 616 555  617 82 87  81 82 87  618 619 43  357 358 619  499 500 498  109 171 202  287 599 600  287 600 620  621 420 421  622 461 623  438 440 614  438 624 521  399 402 95  399 400 402  545 209 84  84 625 626  627 592 593  92 253 254  164 495 628  493 201 165  525 570 569  173 297 299  51 629 53  52 53 253  630 471 469  455 277 457  631 468 380  150 468 441  227 151 229  149 380 239  250 251 592  51 632 444  528 632 437  51 632 437  311 312 19  136 18 20  282 283 517  159 516 160  255 419 608  255 503 419  586 201 165  633 171 567  634 89 90  124 288 372  409 62 368  409 418 608  567 584 585  586 165 166  635 636 449  36 118 119  573 38 574  99 590 637  589 590 637  591 342 343  491 281 74  482 491 281  515 283 517  48 638 284  639 640 532  487 473 641  64 10 488  89 642 430  634 89 642  643 191 192  643 192 644  645 646 647  115 391 646  648 384 649  482 491 507  483 481 650  459 651 566  335 336 652  139 179 653  270 245 246  241 654 655  316 79 656  657 251 252  630 471 457  236 470 471  413 336 652  453 468 441  597 279 658  132 572 327  150 468 380  236 26 659  129 384 660  130 131 661  261 131 661  448 262 263  349 456 237  236 456 237  545 209 315  181 315 182  215 216 293  215 293 219  266 267 500  54 347 272  388 347 272  427 662 273  388 272 662  397 269 243  663 551 596  552 365 476  155 73 664  665 540 666  112 540 666  465 114 667  113 532 467  121 537 127  668 122 537  373 424 426  668 122 374  115 669 670  671 672 670  62 588 63  230 62 588  351 481 650  213 673 674  337 232 338  233 228 338  438 576 521  576 521 522  499 110 111  594 267 500  436 301 302  25 59 575  27 295 675  26 659 29  238 571 675  238 570 571  676 472 199  322 324 677  450 678 452  665 540 541  463 322 323  679 288 289  395 396 398  563 564 641  191 564 641  680 564 565  681 680 565  434 432 433  337 228 433  682 640 466  640 532 466  683 673 674  483 484 650  528 632 442  632 442 443  438 624 439  528 7 440  597 572 658  598 279 658  681 40 445  562 684 685  489 214 157  162 376 377  657 252 686  545 626 656  261 598 578  132 598 578  391 394 392  477 394 392  461 225 226  224 687 225  303 59 314  295 296 314  680 312 19  681 680 312  326 327 382  311 133 328  97 688 330  33 331 689  690 688 330  504 97 688  690 691 689  403 687 692  224 687 692  183 184 360  573 184 360  429 316 626  657 79 656  227 335 566  459 335 566  434 144 145  227 228 432  693 694 695  693 46 47  696 653 697  139 653 697  34 625 603  34 84 625  698 307 308  698 179 8  533 347 37  533 37 38  508 208 511  509 699 700  124 125 599  634 125 599  353 108 701  306 307 702  306 315 702  629 53 175  629 174 175  683 351 703  292 351 703  265 495 628  265 266 494  437 304 305  51 437 304  140 704 178  176 704 178  397 422 705  124 422 288  236 470 659  631 470 659  370 222 223  370 405 706  358 619 43  135 18 707  357 89 359  89 359 558  333 209 332  54 694 695  170 37 348  708 637 709  103 105 710  708 711 710  105 711 710  103 104 483  482 104 483  712 713 714  354 216 715  350 479 480  106 478 479  210 270 245  559 16 17  312 40 41  681 312 40  597 279 716  597 390 716  390 386 716  183 390 386  621 687 225  621 421 717  221 421 717  234 229 718  233 228 229  719 338 720  721 400 722  282 284 154  159 516 517  75 283 723  283 284 723  515 366 367  75 76 367  3 77 505  607 625 603  61 724 725  61 371 725  72 673 281  482 673 281  719 232 338  233 338 720  373 424 375  122 374 375  678 452 677  676 323 324  719 524 726  230 524 726  188 154 49  48 284 154  282 154 506  188 154 506  693 568 379  633 22 568  475 476 727  45 550 476  475 664 728  378 46 727  397 396 705  679 396 705  463 540 729  152 540 729  730 538 539  66 249 14  731 92 247  399 297 298  525 570 526  294 570 526  133 327 328  132 133 327  136 328 128  311 19 20  381 572 382  325 123 383  395 550 534  45 550 534  463 541 196  732 733 541  417 421 418  221 421 418  337 231 256  146 144 435  137 290 291  137 90 290  355 600 601  668 620 602  91 16 518  88 138 561  503 147 148  420 734 735  406 420 734  648 384 736  737 317 738  319 317 736  385 386 716  319 101 387  643 18 19  643 680 19  396 274 275  679 396 274  271 534 56  45 55 534  475 365 728  364 365 728  100 101 360  573 360 186  241 422 423  244 30 654  62 368 369  255 231 368  388 389 346  272 662 273  719 524 722  401 523 524  556 67 68  556 523 68  344 739 345  325 362 739  100 360 186  740 208 207  573 118 38  36 118 38  633 694 171  170 694 171  294 629 174  173 526 527  618 707 741  618 619 741  356 619 741  357 356 619  399 247 297  731 247 297  244 30 245  553 30 245  403 692 404  692 404 204  621 687 717  403 687 717  734 742 735  743 734 742  665 666 744  113 666 744  617 616 555  617 555 745  559 16 560  91 16 560  96 98 50  48 98 50  233 234 229  151 229 718  59 301 575  303 59 301  294 629 296  303 629 296  303 629 304  51 629 304  180 443 686  632 443 444  417 746 408  747 746 502  403 222 717  221 222 717  373 426 535  373 374 748  621 742 225  461 742 225  397 749 269  268 749 269  663 749 398  397 749 398  750 605 606  553 750 606  547 211 212  210 245 212  101 386 387  183 101 386  373 289 535  679 289 535  287 620 748  600 620 602  164 165 628  493 165 628  429 625 626  607 750 605  631 470 468  470 468 469  631 380 240  380 239 240  659 28 29  631 659 28  562 542 684  563 684 685  458 167 751  203 692 204  69 752 205  474 114 415  114 415 70  474 114 667  474 116 117  103 753 754  103 481 754  533 38 574  536 389 346  319 317 102  206 317 102  504 638 98  48 638 98  731 53 253  731 92 253  554 724 706  370 724 706  747 407 746  407 746 408  503 746 419  417 746 419  612 490 613  482 104 507  188 104 507  401 400 722  401 524 722  645 755 646  115 755 646  708 637 711  589 637 709  391 646 647  393 391 647  21 57 585  633 567 584  586 756 57  163 756 57  190 86 193  43 86 193  618 707 644  618 192 644  190 616 473  617 86 87  508 208 510  740 208 510  757 758 318  737 317 318  737 758 318  329 549 342  163 58 611  162 58 611  509 595 700  169 595 700  557 359 587  730 587 539  515 749 516  663 749 516  250 252 443  252 443 686  250 52 592  627 92 254  51 52 444  250 52 444  708 753 709  579 753 709  64 543 488  64 543 65  300 141 577  140 141 577  292 351 352  353 107 293  339 167 340  759 760 341  760 340 341  458 760 340  508 509 699  759 761 531  594 168 267  762 168 267  381 572 363  597 572 363  485 486 555  9 405 706  513 514 414  224 514 414  350 107 479  106 107 479  499 119 111  36 119 111  45 46 476  46 476 727  227 151 336  413 151 336  453 454 441  413 454 441  413 454 652  763 652 411  170 694 348  54 694 348  173 174 526  294 174 526  525 235 527  721 235 527  353 713 715  353 216 715  107 352 293  292 352 293  188 104 189  104 105 189  115 669 117  465 669 117  218 764 158  213 764 158  683 764 703  218 764 219  129 130 660  446 130 660  612 1 490  489 1 490  7 439 440  139 7 439  528 440 615  440 614 615  438 576 302  300 302 577  622 461 462  393 394 765  477 394 462  511 761 531  757 511 761  276 766 278  630 278 469  129 598 131  261 598 131  261 262 661  767 661 636  261 578 263  578 263 264  236 456 471  456 471 457  277 278 457  630 278 457  766 278 469  453 766 469  617 616 86  190 616 86  384 660 649  446 660 649  317 736 738  648 736 738  682 669 672  669 672 670  115 755 670  768 769 770  454 652 411  454 411 412  262 661 636  262 636 449  130 661 447  767 661 447  448 451 449  450 451 771  461 742 623  743 742 623  665 733 541  639 532 744  755 769 770  645 755 770  276 277 772  335 652 460  763 652 460  453 766 412  276 766 773  503 746 502  503 502 147  146 144 147  143 144 774  394 462 765  622 462 765  378 376 727  155 376 664  376 664 727  475 664 727  624 439 697  139 439 697  474 513 392  477 226 414  536 184 185  536 185 345  499 266 110  266 110 494  497 595 498  594 169 595  164 756 166  586 756 166  9 486 706  554 486 706  559 270 17  210 270 17  271 534 275  395 534 275  663 516 160  552 550 596  401 249 402  248 249 402  562 198 685  681 198 685  463 464 729  562 198 472  422 288 705  679 288 705  213 673 214  72 673 214  72 73 157  155 73 157  257 67 83  66 67 83  61 724 258  257 258 260  724 258 260  554 724 260  213 764 674  683 764 674  355 642 430  634 599 601  740 510 775  740 186 187  99 50 776  96 50 776  721 235 722  719 722 720  162 376 23  378 376 23  740 186 207  100 186 207  698 308 310  6 309 310  448 451 321  448 320 321  624 697 777  696 697 777  113 112 70  112 153 71  144 774 147  501 774 147  255 256 148  146 256 148  146 256 435  337 256 435  406 420 408  417 420 408  152 153 286  200 153 286  385 387 778  319 387 778  88 89 558  557 539 779  94 93 581  91 93 581  132 572 658  132 598 658  545 84 626  316 626 656  562 285 472  464 285 472  12 13 582  12 779 582  12 539 779  580 779 582  66 538 14  12 538 14  268 76 31  428 76 31  732 195 541  195 541 196  594 500 498  594 595 498  759 341 531  508 531 699  341 531 699  339 341 699  326 123 383  326 382 383  634 90 290  634 125 290  235 722 720  233 235 720  557 558 583  88 558 583  579 753 480  350 481 754  528 442 529  6 442 529  764 219 703  292 219 703  15 593 546  210 17 519  6 442 530  180 442 530  627 92 518  91 92 518  485 473 488  191 473 641  381 362 383  325 362 383  353 713 701  159 492 517  282 492 517  113 112 666  113 532 744  384 736 778  319 736 778  651 566 145  143 651 145  271 272 56  54 272 56  752 204 205  512 752 204  203 415 205  69 415 205  203 692 514  224 692 514  427 274 535  679 274 535  451 452 780  451 321 780  639 733 744  665 733 744  451 771 449  635 771 449  268 749 366  515 749 366  643 680 564  643 191 564  307 702 781  333 702 781  512 65 11  64 10 11  730 538 431  81 538 431  42 431 44  730 431 44  358 587 44  730 587 44  66 249 68  523 249 68  536 574 389  533 574 389  580 560 581  91 560 581  149 234 569  525 234 569  40 320 264  448 320 264  39 133 41  311 133 41  39 578 134  132 578 134  94 247 95  399 247 95  96 776 548  99 590 776  663 398 551  395 398 551  755 769 670  671 769 670  557 583 779  580 583 779  668 313 537  313 537 127  135 136 127  136 127 128  326 123 128  121 123 128  137 246 291  244 246 291  137 270 138  559 270 138  170 37 782  36 37 782  491 492 506  188 491 506  73 664 728  364 491 74  325 122 375  325 424 375  530 182 309  180 530 182  474 117 667  465 117 667  465 669 466  682 669 466  113 114 467  465 114 467  554 260 745  554 555 745  638 284 723  75 723 505  333 315 702  333 334 781  99 637 711  99 105 711  624 777 521  520 777 521  170 782 172  36 782 111  344 424 739  325 424 739  362 739 345  361 362 345  388 425 346  344 425 346  482 673 484  683 673 484  427 425 662  388 425 662  271 274 273  427 274 273  766 773 412  410 773 412  683 484 650  683 351 650  681 198 445  197 198 445  452 324 677  197 321 780  542 684 544  487 544 641  0 1 783  612 1 783  489 214 2  489 1 2  553 245 212  553 547 212  455 456 784  349 456 784  556 523 588  230 523 588  241 242 655  30 654 655  241 126 423  124 126 423  244 126 654  241 126 654  512 752 65  200 752 65  94 581 582  94 13 582  265 267 785  762 267 785  721 298 299  721 400 298  354 714 715  713 714 715  306 182 309  306 308 309  33 332 85  209 332 85  731 297 175  731 53 175  757 511 318  206 511 318  34 35 4  34 4 603  515 283 367  75 283 367  657 251 79  251 79 546  545 181 656  657 181 656  657 181 686  180 181 686  294 295 571  295 571 675  27 28 675  238 675 240  570 569 239  238 570 239  28 675 240  631 28 240  676 472 323  464 472 323  627 518 593  15 518 593  690 35 688  504 35 688  331 691 689  33 35 689  690 35 689  698 8 310  6 8 310  9 404 11  512 404 11  740 187 775  497 187 775  621 742 735  621 420 735  627 592 254  52 592 254  194 322 196  463 322 196  549 691 330  690 691 330  436 301 305  303 301 305  364 728 74  73 728 74  210 211 519  211 519 786  617 82 745  82 260 745  311 328 20  136 328 20  21 22 584  633 22 584  543 544 488  487 544 488  140 178 142  24 178 142  520 704 522  140 704 522  227 566 432  434 566 432  434 435 433  337 435 433  684 544 641  563 684 641  563 685 565  681 685 565  499 119 498  119 498 120  560 583 561  88 583 561  370 371 725  370 724 725  409 371 259  61 371 259  409 418 609  221 418 609  409 368 608  255 368 608  693 694 568  633 694 568  378 46 379  693 46 379  45 55 47  54 55 695  590 343 548  590 776 548  203 513 416  474 513 416  156 490 613  162 156 613  384 778 280  385 778 280  279 280 716  385 280 716  719 232 726  230 232 726  124 599 372  287 599 372  668 374 620  374 620 748  373 289 748  287 289 748  643 18 644  18 707 644  329 97 548  96 97 548  135 707 741  135 356 741  27 59 314  27 295 314  477 392 414  513 392 414  103 753 710  708 753 710  364 492 161  159 492 161  339 699 700  339 169 700  15 546 786  15 519 786  428 750 32  553 750 32  607 750 604  428 750 604  618 192 193  618 43 193  81 538 83  66 538 83  542 543 286  200 543 286  61 258 63  556 258 63  350 480 754  753 480 754  173 527 299  721 527 299  438 302 614  436 302 614  436 437 615  528 437 615  607 77 603  3 77 603  3 638 5  504 638 5  638 723 505  3 638 505  452 199 324  676 199 324  371 609 223  221 609 223  552 160 596  663 160 596  118 187 120  497 187 120  162 611 613  610 611 613  576 522 577  140 522 577  55 695 47  693 695 47  197 199 780  452 199 780  200 752 71  69 752 71  586 567 585  586 57 585  464 285 729  152 285 729  300 141 575  25 141 575  241 422 243  397 422 243  782 111 172  109 111 172  109 110 202  493 110 202  31 242 655  30 31 655  607 625 605  429 625 605  429 547 606  553 547 606  78 547 80  429 547 80  149 234 718  149 151 718  634 642 601  355 642 601  357 356 430  355 356 430  355 313 602  668 313 602  78 211 786  78 546 786  265 785 496  265 628 494  493 628 494  27 29 60  26 29 60  25 59 60  25 26 60  125 126 291  244 126 291  230 62 369  230 231 369  509 510 775  497 509 775  194 322 677  194 678 677  162 156 377  155 156 377  </DataArray>
<DataArray  type="UInt32"  Name="offsets"  format="ascii">3 6 9 12 15 18 21 24 27 30 33 36 39 42 45 48 51 54 57 60 63 66 69 72 75 78 81 84 87 90 93 96 99 102 105 108 111 114 117 120 123 126 129 132 135 138 141 144 147 150 153 156 159 162 165 168 171 174 177 180 183 186 189 192 195 198 201 204 207 210 213 216 219 222 225 228 231 234 237 240 243 246 249 252 255 258 261 264 267 270 273 276 279 282 285 288 291 294 297 300 303 306 309 312 315 318 321 324 327 330 333 336 339 342 345 348 351 354 357 360 363 366 369 372 375 378 381 384 387 390 393 396 399 402 405 408 411 414 417 420 423 426 429 432 435 438 441 444 447 450 453 456 459 462 465 468 471 474 477 480 483 486 489 492 495 498 501 504 507 510 513 516 519 522 525 528 531 534 537 540 543 546 549 552 555 558 561 564 567 570 573 576 579 582 585 588 591 594 597 600 603 606 609 612 615 618 621 624 627 630 633 636 639 642 645 648 651 654 657 660 663 666 669 672 675 678 681 684 687 690 693 696 699 702 705 708 711 714 717 720 723 726 729 732 735 738 741 744 747 750 753 756 759 762 765 768 771 774 777 780 783 786 789 792 795 798 801 804 807 810 813 816 819 822 825 828 831 834 837 840 843 846 849 852 855 858 861 864 867 870 873 876 879 882 885 888 891 894 897 900 903 906 909 912 915 918 921 924 927 930 933 936 939 942 945 948 951 954 957 960 963 966 969 972 975 978 981 984 987 990 993 996 999 1002 1005 1008 1011 1014 1017 1020 1023 1026 1029 1032 1035 1038 1041 1044 1047 1050 1053 1056 1059 1062 1065 1068 1071 1074 1077 1080 1083 1086 1089 1092 1095 1098 1101 1104 1107 1110 1113 1116 1119 1122 1125 1128 1131 1134 1137 1140 1143 1146 1149 1152 1155 1158 1161 1164 1167 1170 1173 1176 1179 1182 1185 1188 1191 1194 1197 1200 1203 1206 1209 1212 1215 1218 1221 1224 1227 1230 1233 1236 1239 1242 1245 1248 1251 1254 1257 1260 1263 1266 1269 1272 1275 1278 1281 1284 1287 1290 1293 1296 1299 1302 1305 1308 1311 1314 1317 1320 1323 1326 1329 1332 1335 1338 1341 1344 1347 1350 1353 1356 1359 1362 1365 1368 1371 1374 1377 1380 1383 1386 1389 1392 1395 1398 1401 1404 1407 1410 1413 1416 1419 1422 1425 1428 1431 1434 1437 1440 1443 1446 1449 1452 1455 1458 1461 1464 1467 1470 1473 1476 1479 1482 1485 1488 1491 1494 1497 1500 1503 1506 1509 1512 1515 1518 1521 1524 1527 1530 1533 1536 1539 1542 1545 1548 1551 1554 1557 1560 1563 1566 1569 1572 1575 1578 1581 1584 1587 1590 1593 1596 1599 1602 1605 1608 1611 1614 1617 1620 1623 1626 1629 1632 1635 1638 1641 1644 1647 1650 1653 1656 1659 1662 1665 1668 1671 1674 1677 1680 1683 1686 1689 1692 1695 1698 1701 1704 1707 1710 1713 1716 1719 1722 1725 1728 1731 1734 1737 1740 1743 1746 1749 1752 1755 1758 1761 1764 1767 1770 1773 1776 1779 1782 1785 1788 1791 1794 1797 1800 1803 1806 1809 1812 1815 1818 1821 1824 1827 1830 1833 1836 1839 1842 1845 1848 1851 1854 1857 1860 1863 1866 1869 1872 1875 1878 1881 1884 1887 1890 1893 1896 1899 1902 1905 1908 1911 1914 1917 1920 1923 1926 1929 1932 1935 1938 1941 1944 1947 1950 1953 1956 1959 1962 1965 1968 1971 1974 1977 1980 1983 1986 1989 1992 1995 1998 2001 2004 2007 2010 2013 2016 2019 2022 2025 2028 2031 2034 2037 2040 2043 2046 2049 2052 2055 2058 2061 2064 2067 2070 2073 2076 2079 2082 2085 2088 2091 2094 2097 2100 2103 2106 2109 2112 2115 2118 2121 2124 2127 2130 2133 2136 2139 2142 2145 2148 2151 2154 2157 2160 2163 2166 2169 2172 2175 2178 2181 2184 2187 2190 2193 2196 2199 2202 2205 2208 2211 2214 2217 2220 2223 2226 2229 2232 2235 2238 2241 2244 2247 2250 2253 2256 2259 2262 2265 2268 2271 2274 2277 2280 2283 2286 2289 2292 2295 2298 2301 2304 2307 2310 2313 2316 2319 2322 2325 2328 2331 2334 2337 2340 2343 2346 2349 2352 2355 2358 2361 2364 2367 2370 2373 2376 2379 2382 2385 2388 2391 2394 2397 2400 2403 2406 2409 2412 2415 2418 2421 2424 2427 2430 2433 2436 2439 2442 2445 2448 2451 2454 2457 2460 2463 2466 2469 2472 2475 2478 2481 2484 2487 2490 2493 2496 2499 2502 2505 2508 2511 2514 2517 2520 2523 2526 2529 2532 2535 2538 2541 2544 2547 2550 2553 2556 2559 2562 2565 2568 2571 2574 2577 2580 2583 2586 2589 2592 2595 2598 2601 2604 2607 2610 2613 2616 2619 2622 2625 2628 2631 2634 2637 2640 2643 2646 2649 2652 2655 2658 2661 2664 2667 2670 2673 2676 2679 2682 2685 2688 2691 2694 2697 2700 2703 2706 2709 2712 2715 2718 2721 2724 2727 2730 2733 2736 2739 2742 2745 2748 2751 2754 2757 2760 2763 2766 2769 2772 2775 2778 2781 2784 2787 2790 2793 2796 2799 2802 2805 2808 2811 2814 2817 2820 2823 2826 2829 2832 2835 2838 2841 2844 2847 2850 2853 2856 2859 2862 2865 2868 2871 2874 2877 2880 2883 2886 2889 2892 2895 2898 2901 2904 2907 2910 2913 2916 2919 2922 2925 2928 2931 2934 2937 2940 2943 2946 2949 2952 2955 2958 2961 2964 2967 2970 2973 2976 2979 2982 2985 2988 2991 2994 2997 3000 3003 3006 3009 3012 3015 3018 3021 3024 3027 3030 3033 3036 3039 3042 3045 3048 3051 3054 3057 3060 3063 3066 3069 3072 3075 3078 3081 3084 3087 3090 3093 3096 3099 3102 3105 3108 3111 3114 3117 3120 3123 3126 3129 3132 3135 3138 3141 3144 3147 3150 3153 3156 3159 3162 3165 3168 3171 3174 3177 3180 3183 3186 3189 3192 3195 3198 3201 3204 3207 3210 3213 3216 3219 3222 3225 3228 3231 3234 3237 3240 3243 3246 3249 3252 3255 3258 3261 3264 3267 3270 3273 3276 3279 3282 3285 3288 3291 3294 3297 3300 3303 3306 3309 3312 3315 3318 3321 3324 3327 3330 3333 3336 3339 3342 3345 3348 3351 3354 3357 3360 3363 3366 3369 3372 3375 3378 3381 3384 3387 3390 3393 3396 3399 3402 3405 3408 3411 3414 3417 3420 3423 3426 3429 3432 3435 3438 3441 3444 3447 3450 3453 3456 3459 3462 3465 3468 3471 3474 3477 3480 3483 3486 3489 3492 3495 3498 3501 3504 3507 3510 3513 3516 3519 3522 3525 3528 3531 3534 3537 3540 3543 3546 3549 3552 3555 3558 3561 3564 3567 3570 3573 3576 3579 3582 3585 3588 3591 3594 3597 3600 3603 3606 3609 3612 3615 3618 3621 3624 3627 3630 3633 3636 3639 3642 3645 3648 3651 3654 3657 3660 3663 3666 3669 3672 3675 3678 3681 3684 3687 3690 3693 3696 3699 3702 3705 3708 3711 3714 3717 3720 3723 3726 3729 3732 3735 3738 3741 3744 3747 3750 3753 3756 3759 3762 3765 3768 3771 3774 3777 3780 3783 3786 3789 3792 3795 3798 3801 3804 3807 3810 3813 3816 3819 3822 3825 3828 3831 3834 3837 3840 3843 3846 3849 3852 3855 3858 3861 3864 3867 3870 3873 3876 3879 3882 3885 3888 3891 3894 3897 3900 3903 3906 3909 3912 3915 3918 3921 3924 3927 3930 3933 3936 3939 3942 3945 3948 3951 3954 3957 3960 3963 3966 3969 3972 3975 3978 3981 3984 3987 3990 3993 3996 3999 4002 4005 4008 4011 4014 4017 4020 4023 4026 4029 4032 4035 4038 4041 4044 4047 4050 4053 4056 4059 4062 4065 4068 4071 4074 4077 4080 4083 4086 4089 4092 4095 4098 4101 4104 4107 4110 4113 4116 4119 4122 4125 4128 4131 4134 4137 4140 4143 4146 4149 4152 4155 4158 4161 4164 4167 4170 4173 4176 4179 4182 4185 4188 4191 4194 4197 4200 4203 4206 4209 4212 4215 4218 4221 4224 4227 4230 4233 4236 4239 4242 4245 4248 4251 4254 4257 4260 4263 4266 4269 4272 4275 4278 4281 4284 4287 4290 4293 4296 4299 4302 4305 4308 4311 4314 4317 4320 4323 4326 4329 4332 4335 4338 4341 4344 4347 4350 4353 4356 4359 4362 4365 4368 4371 4374 4377 4380 4383 4386 4389 4392 4395 4398 4401 </DataArray>
<DataArray  type="UInt8"  Name="types"  format="ascii">5 5 5 5 5 5 5 5 5 5 5 5 5 5 5 5 5 5 5 5 5 5 5 5 5 5 5 5 5 5 5 5 5 5 5 5 5 5 5 5 5 5 5 5 5 5 5 5 5 5 5 5 5 5 5 5 5 5 5 5 5 5 5 5 5 5 5 5 5 5 5 5 5 5 5 5 5 5 5 5 5 5 5 5 5 5 5 5 5 5 5 5 5 5 5 5 5 5 5 5 5 5 5 5 5 5 5 5 5 5 5 5 5 5 5 5 5 5 5 5 5 5 5 5 5 5 5 5 5 5 5 5 5 5 5 5 5 5 5 5 5 5 5 5 5 5 5 5 5 5 5 5 5 5 5 5 5 5 5 5 5 5 5 5 5 5 5 5 5 5 5 5 5 5 5 5 5 5 5 5 5 5 5 5 5 5 5 5 5 5 5 5 5 5 5 5 5 5 5 5 5 5 5 5 5 5 5 5 5 5 5 5 5 5 5 5 5 5 5 5 5 5 5 5 5 5 5 5 5 5 5 5 5 5 5 5 5 5 5 5 5 5 5 5 5 5 5 5 5 5 5 5 5 5 5 5 5 5 5 5 5 5 5 5 5 5 5 5 5 5 5 5 5 5 5 5 5 5 5 5 5 5 5 5 5 5 5 5 5 5 5 5 5 5 5 5 5 5 5 5 5 5 5 5 5 5 5 5 5 5 5 5 5 5 5 5 5 5 5 5 5 5 5 5 5 5 5 5 5 5 5 5 5 5 5 5 5 5 5 5 5 5 5 5 5 5 5 5 5 5 5 5 5 5 5 5 5 5 5 5 5 5 5 5 5 5 5 5 5 5 5 5 5 5 5 5 5 5 5 5 5 5 5 5 5 5 5 5 5 5 5 5 5 5 5 5 5 5 5 5 5 5 5 5 5 5 5 5 5 5 5 5 5 5 5 5 5 5 5 5 5 5 5 5 5 5 5 5 5 5 5 5 5 5 5 5 5 5 5 5 5 5 5 5 5 5 5 5 5 5 5 5 5 5 5 5 5 5 5 5 5 5 5 5 5 5 5 5 5 5 5 5 5 5 5 5 5 5 5 5 5 5 5 5 5 5 5 5 5 5 5 5 5 5 5 5 5 5 5 5 5 5 5 5 5 5 5 5 5 5 5 5 5 5 5 5 5 5 5 5 5 5 5 5 5 5 5 5 5 5 5 5 5 5 5 5 5 5 5 5 5 5 5 5 5 5 5 5 5 5 5 5 5 5 5 5 5 5 5 5 5 5 5 5 5 5 5 5 5 5 5 5 5 5 5 5 5 5 5 5 5 5 5 5 5 5 5 5 5 5 5 5 5 5 5 5 5 5 5 5 5 5 5 5 5 5 5 5 5 5 5 5 5 5 5 5 5 5 5 5 5 5 5 5 5 5 5 5 5 5 5 5 5 5 5 5 5 5 5 5 5 5 5 5 5 5 5 5 5 5 5 5 5 5 5 5 5 5 5 5 5 5 5 5 5 5 5 5 5 5 5 5 5 5 5 5 5 5 5 5 5 5 5 5 5 5 5 5 5 5 5 5 5 5 5 5 5 5 5 5 5 5 5 5 5 5 5 5 5 5 5 5 5 5 5 5 5 5 5 5 5 5 5 5 5 5 5 5 5 5 5 5 5 5 5 5 5 5 5 5 5 5 5 5 5 5 5 5 5 5 5 5 5 5 5 5 5 5 5 5 5 5 5 5 5 5 5 5 5 5 5 5 5 5 5 5 5 5 5 5 5 5 5 5 5 5 5 5 5 5 5 5 5 5 5 5 5 5 5 5 5 5 5 5 5 5 5 5 5 5 5 5 5 5 5 5 5 5 5 5 5 5 5 5 5 5 5 5 5 5 5 5 5 5 5 5 5 5 5 5 5 5 5 5 5 5 5 5 5 5 5 5 5 5 5 5 5 5 5 5 5 5 5 5 5 5 5 5 5 5 5 5 5 5 5 5 5 5 5 5 5 5 5 5 5 5 5 5 5 5 5 5 5 5 5 5 5 5 5 5 5 5 5 5 5 5 5 5 5 5 5 5 5 5 5 5 5 5 5 5 5 5 5 5 5 5 5 5 5 5 5 5 5 5 5 5 5 5 5 5 5 5 5 5 5 5 5 5 5 5 5 5 5 5 5 5 5 5 5 5 5 5 5 5 5 5 5 5 5 5 5 5 5 5 5 5 5 5 5 5 5 5 5 5 5 5 5 5 5 5 5 5 5 5 5 5 5 5 5 5 5 5 5 5 5 5 5 5 5 5 5 5 5 5 5 5 5 5 5 5 5 5 5 5 5 5 5 5 5 5 5 5 5 5 5 5 5 5 5 5 5 5 5 5 5 5 5 5 5 5 5 5 5 5 5 5 5 5 5 5 5 5 5 5 5 5 5 5 5 5 5 5 5 5 5 5 5 5 5 5 5 5 5 5 5 5 5 5 5 5 5 5 5 5 5 5 5 5 5 5 5 5 5 5 5 5 5 5 5 5 5 5 5 5 5 5 5 5 5 5 5 5 5 5 5 5 5 5 5 5 5 5 5 5 5 5 5 5 5 5 5 5 5 5 5 5 5 5 5 5 5 5 5 5 5 5 5 5 5 5 5 5 5 5 5 5 5 5 5 5 5 5 5 5 5 5 5 5 5 5 5 5 5 5 5 5 5 5 5 5 5 5 5 5 5 5 5 5 5 5 5 5 5 5 5 5 5 5 5 5 5 5 5 5 5 5 5 5 5 5 5 5 5 5 5 5 5 5 5 5 5 5 5 5 5 5 5 5 5 5 5 5 5 5 5 5 5 5 5 5 5 5 5 5 5 5 5 5 5 5 5 5 5 5 5 5 5 5 5 5 5 5 5 5 5 5 5 5 5 5 5 5 5 5 5 5 5 5 5 5 5 5 5 5 5 5 5 5 5 5 5 5 5 5 5 5 5 5 5 5 5 5 5 5 5 5 5 5 5 5 5 5 5 5 5 5 5 5 5 5 5 5 5 5 5 5 5 5 5 5 5 5 5 5 5 5 5 5 5 5 5 5 5 5 5 5 5 5 5 5 5 5 5 5 5 5 5 5 5 5 5 5 5 5 5 5 5 5 5 5 5 5 5 5 5 5 5 5 5 5 5 5 5 5 5 5 5 5 5 5 5 5 5 5 5 5 5 5 5 5 5 5 5 5 5 5 5 5 5 5 5 5 5 5 5 5 5 5 5 5 5 5 5 5 5 5 5 5 5 5 5 5 5 5 5 5 5 5 5 5 5 5 5 5 5 5 5 5 5 5 5 5 5 5 5 5 5 </DataArray>
</Cells>
<PointData  Scalars=" mean stress"> 
<DataArray  type="Float64"  Name=" mean stress"  format="ascii">6.6609195920298548e+09  6.6609194784472141e+09  6.6609196701971216e+09  6.6609195288206587e+09  6.6609194457556286e+09  6.6609196502204990e+09  6.6609195429993238e+09  6.6609195303956013e+09  6.6609195410378170e+09  6.6609195352577333e+09  6.6609195587181673e+09  6.6609195167994909e+09  6.6609195690735388e+09  6.6609195361047754e+09  6.6609195269465742e+09  6.6609195349926214e+09  6.6609195423111572e+09  6.6609195415803308e+09  6.6609195332968655e+09  6.6609195497381105e+09  6.6609195557181892e+09  6.6609195936087122e+09  6.6609195145377226e+09  6.6609195679810190e+09  6.6609195230941668e+09  6.6609195340337257e+09  6.6609195558536406e+09  6.6609195717367392e+09  6.6609195520241852e+09  6.6609195204620705e+09  6.6609194957546091e+09  6.6609195970652285e+09  6.6609194691452560e+09  6.6609195870105324e+09  6.6609195493762960e+09  6.6609195519058542e+09  6.6609195523148012e+09  6.6609195068460083e+09  6.6609195506559563e+09  6.6609195401452904e+09  6.6609195431771421e+09  6.6609195313868732e+09  6.6609195608410349e+09  6.6609195576529236e+09  6.6609195151345339e+09  6.6609194450829458e+09  6.6609194534614744e+09  6.6609195612322989e+09  6.6609195599635057e+09  6.6609196001245375e+09  6.6609194620986128e+09  6.6609195414530869e+09  6.6609195402290316e+09  6.6609195564549236e+09  6.6609195183764153e+09  6.6609196292327652e+09  6.6609195510209084e+09  6.6609195219866076e+09  6.6609196057581797e+09  6.6609195477690754e+09  6.6609195545539980e+09  6.6609195536367216e+09  6.6609195270882673e+09  6.6609195594194899e+09  6.6609195322507944e+09  6.6609195419742908e+09  6.6609195630043783e+09  6.6609195477039328e+09  6.6609195668036795e+09  6.6609195463751163e+09  6.6609195455466795e+09  6.6609195356243200e+09  6.6609196070713987e+09  6.6609196398206320e+09  6.6609196396600838e+09  6.6609195050742712e+09  6.6609195685769920e+09  6.6609195179048281e+09  6.6609195190899649e+09  6.6609195467206335e+09  6.6609194894747066e+09  6.6609195799337425e+09  6.6609195406264973e+09  6.6609195039249573e+09  6.6609195500822010e+09  6.6609195146239786e+09  6.6609195270605774e+09  6.6609195480697651e+09  6.6609195292580080e+09  6.6609195244129887e+09  6.6609195257203436e+09  6.6609195309449482e+09  6.6609195464278002e+09  6.6609195522078772e+09  6.6609195294025211e+09  6.6609195334016399e+09  6.6609196533259659e+09  6.6609194987580442e+09  6.6609195717349615e+09  6.6609194909246912e+09  6.6609195410497751e+09  6.6609195376999779e+09  6.6609195455639629e+09  6.6609195589320545e+09  6.6609194974593639e+09  6.6609195700587616e+09  6.6609195232918530e+09  6.6609195596966190e+09  6.6609195497379408e+09  6.6609195119408216e+09  6.6609195245078163e+09  6.6609195727082424e+09  6.6609195433439817e+09  6.6609195386981821e+09  6.6609195377671852e+09  6.6609195459112968e+09  6.6609195464171896e+09  6.6609195383166189e+09  6.6609195148840408e+09  6.6609195330288258e+09  6.6609195451139832e+09  6.6609195605096169e+09  6.6609195387649031e+09  6.6609195369022236e+09  6.6609195450045643e+09  6.6609195159654350e+09  6.6609195177547083e+09  6.6609195340422497e+09  6.6609195455683298e+09  6.6609195384961376e+09  6.6609195358881493e+09  6.6609195482309141e+09  6.6609195431448498e+09  6.6609195414465809e+09  6.6609195339755230e+09  6.6609195400972919e+09  6.6609195397782564e+09  6.6609195381907940e+09  6.6609195536806326e+09  6.6609195415018959e+09  6.6609195834661598e+09  6.6609195317139540e+09  6.6609195460562000e+09  6.6609195632492218e+09  6.6609195390282030e+09  6.6609195322990580e+09  6.6609195116540184e+09  6.6609195262398796e+09  6.6609195225261488e+09  6.6609195818829336e+09  6.6609195190920305e+09  6.6609195671884089e+09  6.6609195459312515e+09  6.6609195237243853e+09  6.6609195382632990e+09  6.6609195076499281e+09  6.6609195804095602e+09  6.6609195366636791e+09  6.6609194929851894e+09  6.6609196209857187e+09  6.6609195031049290e+09  6.6609194734809093e+09  6.6609194732878942e+09  6.6609195572395363e+09  6.6609195549497433e+09  6.6609194499042330e+09  6.6609196187949705e+09  6.6609195374690399e+09  6.6609195431219320e+09  6.6609195099625120e+09  6.6609195413044767e+09  6.6609195190042315e+09  6.6609195696154680e+09  6.6609195211792879e+09  6.6609195615714579e+09  6.6609195277843504e+09  6.6609195487335653e+09  6.6609195075293427e+09  6.6609195319769650e+09  6.6609195412390137e+09  6.6609195767496223e+09  6.6609195373372316e+09  6.6609195198737488e+09  6.6609195419904709e+09  6.6609195428385181e+09  6.6609195378133488e+09  6.6609195487367516e+09  6.6609195736097975e+09  6.6609195230639524e+09  6.6609195404001913e+09  6.6609195383511801e+09  6.6609195354053965e+09  6.6609195425372543e+09  6.6609195405477591e+09  6.6609195499214792e+09  6.6609195398985815e+09  6.6609195420149002e+09  6.6609195249167261e+09  6.6609195379524574e+09  6.6609195503331871e+09  6.6609195395370150e+09  6.6609195320848150e+09  6.6609195181898575e+09  6.6609195435568714e+09  6.6609195274600811e+09  6.6609195382332735e+09  6.6609195362022285e+09  6.6609195378329735e+09  6.6609195532150373e+09  6.6609195285849123e+09  6.6609195337221375e+09  6.6609195750591536e+09  6.6609195378215027e+09  6.6609197556460018e+09  6.6609193990125256e+09  6.6609195805305653e+09  6.6609195418637066e+09  6.6609195887695818e+09  6.6609195911964798e+09  6.6609196559866199e+09  6.6609195563827648e+09  6.6609195738519611e+09  6.6609195236213350e+09  6.6609195211793032e+09  6.6609195336172009e+09  6.6609195258335552e+09  6.6609195375894794e+09  6.6609195510156231e+09  6.6609195363865910e+09  6.6609195355130692e+09  6.6609195319819965e+09  6.6609195322552862e+09  6.6609195399536705e+09  6.6609195552172279e+09  6.6609195264597549e+09  6.6609195438339872e+09  6.6609195206935091e+09  6.6609195357630577e+09  6.6609195835845680e+09  6.6609195555189514e+09  6.6609195293743420e+09  6.6609195071031818e+09  6.6609194045919094e+09  6.6609195599267750e+09  6.6609195813796892e+09  6.6609195612997274e+09  6.6609195367158871e+09  6.6609195496017847e+09  6.6609195281745119e+09  6.6609195292642164e+09  6.6609195485600328e+09  6.6609195500520144e+09  6.6609195177726450e+09  6.6609195533250504e+09  6.6609195095219364e+09  6.6609195364032135e+09  6.6609195396235170e+09  6.6609195187783413e+09  6.6609195381086006e+09  6.6609195323641376e+09  6.6609195559681473e+09  6.6609195310975647e+09  6.6609195437153101e+09  6.6609195423387337e+09  6.6609195377305946e+09  6.6609194919490623e+09  6.6609195618129158e+09  6.6609195467370319e+09  6.6609195675041628e+09  6.6609194731561756e+09  6.6609195353893290e+09  6.6609195234237461e+09  6.6609195458199358e+09  6.6609195335276318e+09  6.6609195305589552e+09  6.6609195813973703e+09  6.6609195328554754e+09  6.6609194528556814e+09  6.6609195664460049e+09  6.6609195368578310e+09  6.6609195367464981e+09  6.6609192729061365e+09  6.6609195297915049e+09  6.6609195306818781e+09  6.6609196031224470e+09  6.6609195351292315e+09  6.6609195536788034e+09  6.6609195719736490e+09  6.6609194891070614e+09  6.6609195297849140e+09  6.6609195367248192e+09  6.6609195245677862e+09  6.6609194386660080e+09  6.6609195143504696e+09  6.6609195587096233e+09  6.6609195271712608e+09  6.6609195637664118e+09  6.6609195337716713e+09  6.6609195673642826e+09  6.6609195201022730e+09  6.6609195184320717e+09  6.6609195500663404e+09  6.6609195400841513e+09  6.6609195144326124e+09  6.6609195382217255e+09  6.6609195426144133e+09  6.6609195555550261e+09  6.6609195463910046e+09  6.6609195426105642e+09  6.6609195479870701e+09  6.6609195349208155e+09  6.6609195403514624e+09  6.6609195415288048e+09  6.6609195471285200e+09  6.6609195222518635e+09  6.6609195452061930e+09  6.6609195638494434e+09  6.6609195354479227e+09  6.6609195435807543e+09  6.6609195361765385e+09  6.6609195358665180e+09  6.6609195311183329e+09  6.6609195403616257e+09  6.6609195405739918e+09  6.6609195478890991e+09  6.6609195267286425e+09  6.6609195372212925e+09  6.6609195379461451e+09  6.6609195331024923e+09  6.6609195245952835e+09  6.6609195569509382e+09  6.6609195611354313e+09  6.6609195488721933e+09  6.6609195377215681e+09  6.6609195626650085e+09  6.6609195465314398e+09  6.6609195756158543e+09  6.6609195217423573e+09  6.6609195625202045e+09  6.6609195462222042e+09  6.6609195259427242e+09  6.6609195612216396e+09  6.6609195977641602e+09  6.6609195404309807e+09  6.6609195392172794e+09  6.6609195422874670e+09  6.6609195346823606e+09  6.6609195449610243e+09  6.6609195690211878e+09  6.6609195480512161e+09  6.6609195215562305e+09  6.6609196352416620e+09  6.6609194948562870e+09  6.6609194929477806e+09  6.6609194927597103e+09  6.6609195435065336e+09  6.6609195433807049e+09  6.6609195566973944e+09  6.6609195404836683e+09  6.6609195439107847e+09  6.6609195366131449e+09  6.6609195376927462e+09  6.6609195410061979e+09  6.6609195411296005e+09  6.6609195583861008e+09  6.6609195954420109e+09  6.6609195180252199e+09  6.6609194347227936e+09  6.6609195582615805e+09  6.6609195366630764e+09  6.6609195311272602e+09  6.6609195781506329e+09  6.6609195816988306e+09  6.6609195732463923e+09  6.6609195238448687e+09  6.6609195333840961e+09  6.6609195844869556e+09  6.6609194883551083e+09  6.6609194580594587e+09  6.6609195012660437e+09  6.6609195127018862e+09  6.6609195426881886e+09  6.6609195403333082e+09  6.6609195447420988e+09  6.6609195473160553e+09  6.6609195513409204e+09  6.6609195456373539e+09  6.6609195443166246e+09  6.6609195455471172e+09  6.6609195496648998e+09  6.6609195287947254e+09  6.6609195398980894e+09  6.6609195434180632e+09  6.6609195321446371e+09  6.6609195428938704e+09  6.6609195432395926e+09  6.6609195576475286e+09  6.6609195480268507e+09  6.6609194619612770e+09  6.6609195645939407e+09  6.6609195494715481e+09  6.6609195323165827e+09  6.6609195416613827e+09  6.6609195359683256e+09  6.6609195329401569e+09  6.6609195563497744e+09  6.6609195302902346e+09  6.6609194915626831e+09  6.6609195492507296e+09  6.6609195334848137e+09  6.6609195791282463e+09  6.6609195176311827e+09  6.6609195227326756e+09  6.6609195438122911e+09  6.6609195373444862e+09  6.6609195412862358e+09  6.6609195368436003e+09  6.6609195617429514e+09  6.6609195293322687e+09  6.6609195550315943e+09  6.6609195467199926e+09  6.6609195508352737e+09  6.6609195968822508e+09  6.6609195638815231e+09  6.6609195563783693e+09  6.6609195257828045e+09  6.6609195399073296e+09  6.6609195060261230e+09  6.6609195710320911e+09  6.6609195681465063e+09  6.6609195591244297e+09  6.6609195143438549e+09  6.6609195376705360e+09  6.6609195476780853e+09  6.6609195349842958e+09  6.6609195408293285e+09  6.6609195467093182e+09  6.6609195478451004e+09  6.6609195370683784e+09  6.6609195387292070e+09  6.6609195543093042e+09  6.6609195644776077e+09  6.6609195455332775e+09  6.6609195340514421e+09  6.6609195275996752e+09  6.6609195483118887e+09  6.6609195482705021e+09  6.6609195460608816e+09  6.6609195397647648e+09  6.6609195369167643e+09  6.6609195374436998e+09  6.6609195407754164e+09  6.6609195409637070e+09  6.6609195610624228e+09  6.6609195395790663e+09  6.6609194872627888e+09  6.6609195243318052e+09  6.6609195365844889e+09  6.6609195752849655e+09  6.6609195364063272e+09  6.6609195129860649e+09  6.6609195369202538e+09  6.6609195468009844e+09  6.6609195456030321e+09  6.6609195515048485e+09  6.6609195451042728e+09  6.6609195353891401e+09  6.6609195419797773e+09  6.6609195411960888e+09  6.6609195514070616e+09  6.6609195408683071e+09  6.6609194906871271e+09  6.6609195380638018e+09  6.6609195421434412e+09  6.6609195416865749e+09  6.6609194357423315e+09  6.6609196251671972e+09  6.6609195514178734e+09  6.6609195999739790e+09  6.6609195554819813e+09  6.6609194892887392e+09  6.6609195429692583e+09  6.6609196460335064e+09  6.6609193398951159e+09  6.6609194874469862e+09  6.6609195257256422e+09  6.6609195168666544e+09  6.6609195461801710e+09  6.6609195499890795e+09  6.6609194628808603e+09  6.6609195926327868e+09  6.6609195284686518e+09  6.6609194931414547e+09  6.6609196399674349e+09  6.6609195323470297e+09  6.6609195412297678e+09  6.6609195435080643e+09  6.6609195366736860e+09  6.6609195196279221e+09  6.6609195583854265e+09  6.6609195491969042e+09  6.6609195955600777e+09  6.6609195455675058e+09  6.6609195490434790e+09  6.6609195069125214e+09  6.6609195419797277e+09  6.6609195270530310e+09  6.6609197195402937e+09  6.6609195388663960e+09  6.6609195360309000e+09  6.6609195297450323e+09  6.6609195477640982e+09  6.6609195584663553e+09  6.6609195513450956e+09  6.6609195394962578e+09  6.6609195613444891e+09  6.6609195283763494e+09  6.6609195086793518e+09  6.6609195294046612e+09  6.6609195567296362e+09  6.6609195397026329e+09  6.6609195395853939e+09  6.6609195302440081e+09  6.6609195368051872e+09  6.6609195616442318e+09  6.6609195171833048e+09  6.6609195313081169e+09  6.6609195958448925e+09  6.6609195375504007e+09  6.6609195528596239e+09  6.6609195130329065e+09  6.6609195350796404e+09  6.6609195457666798e+09  6.6609195417915087e+09  6.6609195237565117e+09  6.6609195398676586e+09  6.6609195424880018e+09  6.6609195291701336e+09  6.6609195265255003e+09  6.6609195299464970e+09  6.6609195454007521e+09  6.6609195405196657e+09  6.6609195420842972e+09  6.6609195401244507e+09  6.6609195443359280e+09  6.6609195195561714e+09  6.6609195238590603e+09  6.6609195219761925e+09  6.6609194879123878e+09  6.6609195323236027e+09  6.6609194962455139e+09  6.6609197115959377e+09  6.6609195172381468e+09  6.6609195163450832e+09  6.6609195162715139e+09  6.6609195553195591e+09  6.6609195445443163e+09  6.6609195283377380e+09  6.6609195435329027e+09  6.6609195515492725e+09  6.6609195395817995e+09  6.6609195239808359e+09  6.6609195485201082e+09  6.6609195438027039e+09  6.6609195405040617e+09  6.6609195453394041e+09  6.6609195520762405e+09  6.6609195484502354e+09  6.6609196024343214e+09  6.6609195659639730e+09  6.6609195273423958e+09  6.6609194976909504e+09  6.6609195385050535e+09  6.6609195544127703e+09  6.6609195217982149e+09  6.6609195511933384e+09  6.6609195443850040e+09  6.6609195293056536e+09  6.6609195396484575e+09  6.6609195685860748e+09  6.6609195594098425e+09  6.6609195427530909e+09  6.6609195303426514e+09  6.6609195374669962e+09  6.6609196011855793e+09  6.6609193512758207e+09  6.6609195639182920e+09  6.6609195796543083e+09  6.6609195038316135e+09  6.6609195511594000e+09  6.6609195245913458e+09  6.6609195304353495e+09  6.6609195257231503e+09  6.6609195488559065e+09  6.6609195686309958e+09  6.6609195273040438e+09  6.6609195677623053e+09  6.6609195417562742e+09  6.6609195433815832e+09  6.6609195679004927e+09  6.6609195196670666e+09  6.6609195241242743e+09  6.6609195558682671e+09  6.6609195438170338e+09  6.6609195430680504e+09  6.6609195389639339e+09  6.6609195442720566e+09  6.6609195367331467e+09  6.6609195570456715e+09  6.6609195431975765e+09  6.6609196138704281e+09  6.6609193963948126e+09  6.6609194997468147e+09  6.6609195671817122e+09  6.6609195122625256e+09  6.6609195513206053e+09  6.6609195463607006e+09  6.6609195385354109e+09  6.6609195436747093e+09  6.6609195150741978e+09  6.6609195245965042e+09  6.6609195383849678e+09  6.6609195419938087e+09  6.6609195583828621e+09  6.6609195375163355e+09  6.6609195431556835e+09  6.6609195260697308e+09  6.6609195753747702e+09  6.6609195105453348e+09  6.6609195387490139e+09  6.6609196139303179e+09  6.6609195487161942e+09  6.6609195366041050e+09  6.6609195673432751e+09  6.6609195488618975e+09  6.6609195486567469e+09  6.6609195352231226e+09  6.6609196051091366e+09  6.6609195587115412e+09  6.6609195406820526e+09  6.6609195417840891e+09  6.6609195355793266e+09  6.6609195226243105e+09  6.6609195348249140e+09  6.6609195400933790e+09  6.6609195366431999e+09  6.6609195455695610e+09  6.6609195301827974e+09  6.6609195269559021e+09  6.6609195439523230e+09  6.6609194912096262e+09  6.6609195097245359e+09  6.6609194929837942e+09  6.6609195398423777e+09  6.6609195697501020e+09  6.6609195684384117e+09  6.6609195700137882e+09  6.6609195368922167e+09  6.6609195423427629e+09  6.6609195268790150e+09  6.6609195355686569e+09  6.6609195400858316e+09  6.6609195239735270e+09  6.6609195394084091e+09  6.6609195092839088e+09  6.6609195385792789e+09  6.6609195374995213e+09  6.6609195464373608e+09  6.6609195383720541e+09  6.6609195403765182e+09  6.6609195331930790e+09  6.6609195346679077e+09  6.6609195399674892e+09  6.6609196873151417e+09  6.6609193581751385e+09  6.6609195306509418e+09  6.6609195364957333e+09  6.6609195354970589e+09  6.6609195365929117e+09  6.6609196098162613e+09  6.6609195415952768e+09  6.6609195403860998e+09  6.6609195457824583e+09  6.6609196008940763e+09  6.6609195300282984e+09  6.6609195250585270e+09  6.6609195555263596e+09  6.6609195256721897e+09  6.6609195956048222e+09  6.6609195434270859e+09  6.6609194706140175e+09  6.6609194961738701e+09  6.6609195342242594e+09  6.6609195832589417e+09  6.6609195212751350e+09  6.6609195111436567e+09  6.6609195305603848e+09  6.6609195425898781e+09  6.6609195423757010e+09  6.6609195712549753e+09  6.6609195651068802e+09  6.6609195767947063e+09  6.6609195008235903e+09  6.6609197200354815e+09  6.6609195402778549e+09  6.6609195235074100e+09  6.6609195645435514e+09  6.6609195484997139e+09  6.6609193996921101e+09  6.6609195431820879e+09  6.6609196064863749e+09  6.6609194420818577e+09  6.6609195235160093e+09  6.6609195524524059e+09  6.6609195657103434e+09  6.6609195245740166e+09  6.6609195368201227e+09  6.6609195411431990e+09  6.6609195028619576e+09  6.6609195376678753e+09  6.6609195100528116e+09  6.6609195413890762e+09  6.6609195176375389e+09  6.6609195027461643e+09  6.6609195319093437e+09  6.6609195174786158e+09  6.6609195300663290e+09  6.6609197063971672e+09  6.6609194031164351e+09  6.6609195266377115e+09  6.6609195362576590e+09  6.6609195352524176e+09  6.6609195399775410e+09  6.6609195359003105e+09  6.6609195419390249e+09  6.6609195211502075e+09  6.6609195425806761e+09  6.6609195524227543e+09  6.6609195428562498e+09  6.6609195533040037e+09  6.6609195270319862e+09  6.6609195438466854e+09  6.6609195404036245e+09  6.6609195691569624e+09  6.6609195436260920e+09  6.6609195485748720e+09  6.6609195441668835e+09  6.6609195241193018e+09  6.6609195253743439e+09  6.6609195942783623e+09  6.6609195515815706e+09  6.6609195455159454e+09  6.6609195422272348e+09  6.6609195707093554e+09  6.6609195802348919e+09  6.6609195366297417e+09  6.6609195609583120e+09  6.6609195514868383e+09  6.6609195029740639e+09  6.6609195449709902e+09  6.6609194904301271e+09  6.6609195343695278e+09  6.6609195260783291e+09  6.6609195637685471e+09  6.6609192745117111e+09  6.6609195324448042e+09  6.6609195846884203e+09  6.6609195377615614e+09  6.6609195399338675e+09  6.6609195385094252e+09  6.6609195485410662e+09  6.6609195469017372e+09  6.6609196519317770e+09  6.6609195285815296e+09  6.6609195694482193e+09  6.6609195437453289e+09  6.6609195755652752e+09  6.6609195328577557e+09  6.6609195410144663e+09  6.6609195208978510e+09  6.6609195436352968e+09  6.6609195510260754e+09  6.6609195196756201e+09  6.6609196000858650e+09  6.6609195372749014e+09  6.6609195269562235e+09  6.6609195195766916e+09  </DataArray> 
</PointData> 
</Piece>
</UnstructuredGrid>
</VTKFile>