<?xml version="1.0"?>
<VTKFile type="UnstructuredGrid"  version="0.1"  >
<UnstructuredGrid>
<Piece  NumberOfPoints="1091" NumberOfCells="2050">
<Points>
<DataArray  type="Float64"  NumberOfComponents="3"  format="ascii">-0.5 -1 0  -0.4 -1 0  -0.3 -1 0  -0.2 -1 0  -0.09999999999999998 -1 0  0 -1 0  0.09999999999999998 -1 0  0.2 -1 0  0.3 -1 0  0.4 -1 0  0.5 -1 0  -0.5 -0.98 0  -0.4 -0.98 0  -0.3 -0.98 0  -0.2 -0.98 0  -0.09999999999999998 -0.98 0  0 -0.98 0  0.09999999999999998 -0.98 0  0.2 -0.98 0  0.3 -0.98 0  0.4 -0.98 0  0.5 -0.98 0  -0.5 -0.96 0  -0.4 -0.96 0  -0.3 -0.96 0  -0.2 -0.96 0  -0.09999999999999998 -0.96 0  0 -0.96 0  0.09999999999999998 -0.96 0  0.2 -0.96 0  0.3 -0.96 0  0.4 -0.96 0  0.5 -0.96 0  -0.5 -0.9399999999999999 0  -0.4 -0.9399999999999999 0  -0.3 -0.9399999999999999 0  -0.2 -0.9399999999999999 0  -0.09999999999999998 -0.9399999999999999 0  0 -0.9399999999999999 0  0.09999999999999998 -0.9399999999999999 0  0.2 -0.9399999999999999 0  0.3 -0.9399999999999999 0  0.4 -0.9399999999999999 0  0.5 -0.9399999999999999 0  -0.5 -0.92 0  -0.4 -0.92 0  -0.3 -0.92 0  -0.2 -0.92 0  -0.09999999999999998 -0.92 0  0 -0.92 0  0.09999999999999998 -0.92 0  0.2 -0.92 0  0.3 -0.92 0  0.4 -0.92 0  0.5 -0.92 0  -0.5 -0.9 0  -0.4 -0.9 0  -0.3 -0.9 0  -0.2 -0.9 0  -0.09999999999999998 -0.9 0  0 -0.9 0  0.09999999999999998 -0.9 0  0.2 -0.9 0  0.3 -0.9 0  0.4 -0.9 0  0.5 -0.9 0  -0.5 -0.88 0  -0.4 -0.88 0  -0.3 -0.88 0  -0.2 -0.88 0  -0.09999999999999998 -0.88 0  0 -0.88 0  0.09999999999999998 -0.88 0  0.2 -0.88 0  0.3 -0.88 0  0.4 -0.88 0  0.5 -0.88 0  -0.5 -0.86 0  -0.4 -0.86 0  -0.3 -0.86 0  -0.2 -0.86 0  -0.09999999999999998 -0.86 0  0 -0.86 0  0.09999999999999998 -0.86 0  0.2 -0.86 0  0.3 -0.86 0  0.4 -0.86 0  0.5 -0.86 0  -0.5 -0.84 0  -0.4 -0.84 0  -0.3 -0.84 0  -0.2 -0.84 0  -0.09999999999999998 -0.84 0  0 -0.84 0  0.09999999999999998 -0.84 0  0.2 -0.84 0  0.3 -0.84 0  0.4 -0.84 0  0.5 -0.84 0  -0.5 -0.8200000000000001 0  -0.4 -0.8200000000000001 0  -0.3 -0.8200000000000001 0  -0.2 -0.8200000000000001 0  -0.09999999999999998 -0.8200000000000001 0  0 -0.8200000000000001 0  0.09999999999999998 -0.8200000000000001 0  0.2 -0.8200000000000001 0  0.3 -0.8200000000000001 0  0.4 -0.8200000000000001 0  0.5 -0.8200000000000001 0  -0.5 -0.8 0  -0.4 -0.8 0  -0.3 -0.8 0  -0.2 -0.8 0  -0.09999999999999998 -0.8 0  0 -0.8 0  0.09999999999999998 -0.8 0  0.2 -0.8 0  0.3 -0.8 0  0.4 -0.8 0  0.5 -0.8 0  -0.5 -0.78 0  -0.4 -0.78 0  -0.3 -0.78 0  -0.2 -0.78 0  -0.09999999999999998 -0.78 0  0 -0.78 0  0.09999999999999998 -0.78 0  0.2 -0.78 0  0.3 -0.78 0  0.4 -0.78 0  0.5 -0.78 0  -0.5 -0.76 0  -0.4 -0.76 0  -0.3 -0.76 0  -0.2 -0.76 0  -0.09999999999999998 -0.76 0  0 -0.76 0  0.09999999999999998 -0.76 0  0.2 -0.76 0  0.3 -0.76 0  0.4 -0.76 0  0.5 -0.76 0  -0.5 -0.74 0  -0.4 -0.74 0  -0.3 -0.74 0  -0.2 -0.74 0  -0.09999999999999998 -0.74 0  0 -0.74 0  0.09999999999999998 -0.74 0  0.2 -0.74 0  0.3 -0.74 0  0.4 -0.74 0  0.5 -0.74 0  -0.5 -0.72 0  -0.4 -0.72 0  -0.3 -0.72 0  -0.2 -0.72 0  -0.09999999999999998 -0.72 0  0 -0.72 0  0.09999999999999998 -0.72 0  0.2 -0.72 0  0.3 -0.72 0  0.4 -0.72 0  0.5 -0.72 0  -0.5 -0.7 0  -0.4 -0.7 0  -0.3 -0.7 0  -0.2 -0.7 0  -0.09999999999999998 -0.7 0  0 -0.7 0  0.09999999999999998 -0.7 0  0.2 -0.7 0  0.3 -0.7 0  0.4 -0.7 0  0.5 -0.7 0  -0.5 -0.6799999999999999 0  -0.4 -0.6799999999999999 0  -0.3 -0.6799999999999999 0  -0.2 -0.6799999999999999 0  -0.09999999999999998 -0.6799999999999999 0  0 -0.6799999999999999 0  0.09999999999999998 -0.6799999999999999 0  0.2 -0.6799999999999999 0  0.3 -0.6799999999999999 0  0.4 -0.6799999999999999 0  0.5 -0.6799999999999999 0  -0.5 -0.6599999999999999 0  -0.4 -0.6599999999999999 0  -0.3 -0.6599999999999999 0  -0.2 -0.6599999999999999 0  -0.09999999999999998 -0.6599999999999999 0  0 -0.6599999999999999 0  0.09999999999999998 -0.6599999999999999 0  0.2 -0.6599999999999999 0  0.3 -0.6599999999999999 0  0.4 -0.6599999999999999 0  0.5 -0.6599999999999999 0  -0.5 -0.64 0  -0.4 -0.64 0  -0.3 -0.64 0  -0.2 -0.64 0  -0.09999999999999998 -0.64 0  0 -0.64 0  0.09999999999999998 -0.64 0  0.2 -0.64 0  0.3 -0.64 0  0.4 -0.64 0  0.5 -0.64 0  -0.5 -0.62 0  -0.4 -0.62 0  -0.3 -0.62 0  -0.2 -0.62 0  -0.09999999999999998 -0.62 0  0 -0.62 0  0.09999999999999998 -0.62 0  0.2 -0.62 0  0.3 -0.62 0  0.4 -0.62 0  0.5 -0.62 0  -0.5 -0.6 0  -0.4 -0.6 0  -0.3 -0.6 0  -0.2 -0.6 0  -0.09999999999999998 -0.6 0  0 -0.6 0  0.09999999999999998 -0.6 0  0.2 -0.6 0  0.3 -0.6 0  0.4 -0.6 0  0.5 -0.6 0  -0.5 -0.5800000000000001 0  -0.4 -0.5800000000000001 0  -0.3 -0.5800000000000001 0  -0.2 -0.5800000000000001 0  -0.09999999999999998 -0.5800000000000001 0  0 -0.5800000000000001 0  0.09999999999999998 -0.5800000000000001 0  0.2 -0.5800000000000001 0  0.3 -0.5800000000000001 0  0.4 -0.5800000000000001 0  0.5 -0.5800000000000001 0  -0.5 -0.5600000000000001 0  -0.4 -0.5600000000000001 0  -0.3 -0.5600000000000001 0  -0.2 -0.5600000000000001 0  -0.09999999999999998 -0.5600000000000001 0  0 -0.5600000000000001 0  0.09999999999999998 -0.5600000000000001 0  0.2 -0.5600000000000001 0  0.3 -0.5600000000000001 0  0.4 -0.5600000000000001 0  0.5 -0.5600000000000001 0  -0.5 -0.54 0  -0.4 -0.54 0  -0.3 -0.54 0  -0.2 -0.54 0  -0.09999999999999998 -0.54 0  0 -0.54 0  0.09999999999999998 -0.54 0  0.2 -0.54 0  0.3 -0.54 0  0.4 -0.54 0  0.5 -0.54 0  -0.5 -0.52 0  -0.4 -0.52 0  -0.3 -0.52 0  -0.2 -0.52 0  -0.09999999999999998 -0.52 0  0 -0.52 0  0.09999999999999998 -0.52 0  0.2 -0.52 0  0.3 -0.52 0  0.4 -0.52 0  0.5 -0.52 0  -0.5 -0.5 0  -0.4 -0.5 0  -0.3 -0.5 0  -0.2 -0.5 0  -0.09999999999999998 -0.5 0  0 -0.5 0  0.09999999999999998 -0.5 0  0.2 -0.5 0  0.3 -0.5 0  0.4 -0.5 0  0.5 -0.5 0  -0.5 -0.48 0  -0.4 -0.48 0  -0.3 -0.48 0  -0.2 -0.48 0  -0.09999999999999998 -0.48 0  0 -0.48 0  0.09999999999999998 -0.48 0  0.2 -0.48 0  0.3 -0.48 0  0.4 -0.48 0  0.5 -0.48 0  -0.5 -0.46 0  -0.4 -0.46 0  -0.3 -0.46 0  -0.2 -0.46 0  -0.09999999999999998 -0.46 0  0 -0.46 0  0.09999999999999998 -0.46 0  0.2 -0.46 0  0.3 -0.46 0  0.4 -0.46 0  0.5 -0.46 0  -0.5 -0.4399999999999999 0  -0.4 -0.4399999999999999 0  -0.3 -0.4399999999999999 0  -0.2 -0.4399999999999999 0  -0.09999999999999998 -0.4399999999999999 0  0 -0.4399999999999999 0  0.09999999999999998 -0.4399999999999999 0  0.2 -0.4399999999999999 0  0.3 -0.4399999999999999 0  0.4 -0.4399999999999999 0  0.5 -0.4399999999999999 0  -0.5 -0.42 0  -0.4 -0.42 0  -0.3 -0.42 0  -0.2 -0.42 0  -0.09999999999999998 -0.42 0  0 -0.42 0  0.09999999999999998 -0.42 0  0.2 -0.42 0  0.3 -0.42 0  0.4 -0.42 0  0.5 -0.42 0  -0.5 -0.4 0  -0.4 -0.4 0  -0.3 -0.4 0  -0.2 -0.4 0  -0.09999999999999998 -0.4 0  0 -0.4 0  0.09999999999999998 -0.4 0  0.2 -0.4 0  0.3 -0.4 0  0.4 -0.4 0  0.5 -0.4 0  -0.5 -0.38 0  -0.4 -0.38 0  -0.3 -0.38 0  -0.2 -0.38 0  -0.09999999999999998 -0.38 0  0 -0.38 0  0.09999999999999998 -0.38 0  0.2 -0.38 0  0.3 -0.38 0  0.4 -0.38 0  0.5 -0.38 0  -0.5 -0.36 0  -0.4 -0.36 0  -0.3 -0.36 0  -0.2 -0.36 0  -0.09999999999999998 -0.36 0  0 -0.36 0  0.09999999999999998 -0.36 0  0.2 -0.36 0  0.3 -0.36 0  0.4 -0.36 0  0.5 -0.36 0  -0.5 -0.34 0  -0.4 -0.34 0  -0.3 -0.34 0  -0.2 -0.34 0  -0.09999999999999998 -0.34 0  0 -0.34 0  0.09999999999999998 -0.34 0  0.2 -0.34 0  0.3 -0.34 0  0.4 -0.34 0  0.5 -0.34 0  -0.5 -0.32 0  -0.4 -0.32 0  -0.3 -0.32 0  -0.2 -0.32 0  -0.09999999999999998 -0.32 0  0 -0.32 0  0.09999999999999998 -0.32 0  0.2 -0.32 0  0.3 -0.32 0  0.4 -0.32 0  0.5 -0.32 0  -0.5 -0.3 0  -0.4 -0.3 0  -0.3 -0.3 0  -0.2 -0.3 0  -0.09999999999999998 -0.3 0  0 -0.3 0  0.09999999999999998 -0.3 0  0.2 -0.3 0  0.3 -0.3 0  0.4 -0.3 0  0.5 -0.3 0  -0.5 -0.28 0  -0.4 -0.28 0  -0.3 -0.28 0  -0.2 -0.28 0  -0.09999999999999998 -0.28 0  0 -0.28 0  0.09999999999999998 -0.28 0  0.2 -0.28 0  0.3 -0.28 0  0.4 -0.28 0  0.5 -0.28 0  -0.5 -0.26 0  -0.4 -0.26 0  -0.3 -0.26 0  -0.2 -0.26 0  -0.09999999999999998 -0.26 0  0 -0.26 0  0.09999999999999998 -0.26 0  0.2 -0.26 0  0.3 -0.26 0  0.4 -0.26 0  0.5 -0.26 0  -0.5 -0.24 0  -0.4 -0.24 0  -0.3 -0.24 0  -0.2 -0.24 0  -0.09999999999999998 -0.24 0  0 -0.24 0  0.09999999999999998 -0.24 0  0.2 -0.24 0  0.3 -0.24 0  0.4 -0.24 0  0.5 -0.24 0  -0.5 -0.22 0  -0.4 -0.22 0  -0.3 -0.22 0  -0.2 -0.22 0  -0.09999999999999998 -0.22 0  0 -0.22 0  0.09999999999999998 -0.22 0  0.2 -0.22 0  0.3 -0.22 0  0.4 -0.22 0  0.5 -0.22 0  -0.5 -0.2 0  -0.4 -0.2 0  -0.3 -0.2 0  -0.2 -0.2 0  -0.09999999999999998 -0.2 0  0 -0.2 0  0.09999999999999998 -0.2 0  0.2 -0.2 0  0.3 -0.2 0  0.4 -0.2 0  0.5 -0.2 0  -0.5 -0.18 0  -0.4 -0.18 0  -0.3 -0.18 0  -0.2 -0.18 0  -0.09999999999999998 -0.18 0  0 -0.18 0  0.09999999999999998 -0.18 0  0.2 -0.18 0  0.3 -0.18 0  0.4 -0.18 0  0.5 -0.18 0  -0.5 -0.16 0  -0.4 -0.16 0  -0.3 -0.16 0  -0.2 -0.16 0  -0.09999999999999998 -0.16 0  0 -0.16 0  0.09999999999999998 -0.16 0  0.2 -0.16 0  0.3 -0.16 0  0.4 -0.16 0  0.5 -0.16 0  -0.5 -0.14 0  -0.4 -0.14 0  -0.3 -0.14 0  -0.2 -0.14 0  -0.09999999999999998 -0.14 0  0 -0.14 0  0.09999999999999998 -0.14 0  0.2 -0.14 0  0.3 -0.14 0  0.4 -0.14 0  0.5 -0.14 0  -0.5 -0.12 0  -0.4 -0.12 0  -0.3 -0.12 0  -0.2 -0.12 0  -0.09999999999999998 -0.12 0  0 -0.12 0  0.09999999999999998 -0.12 0  0.2 -0.12 0  0.3 -0.12 0  0.4 -0.12 0  0.5 -0.12 0  -0.5 -0.09999999999999998 0  -0.4 -0.09999999999999998 0  -0.3 -0.09999999999999998 0  -0.2 -0.09999999999999998 0  -0.09999999999999998 -0.09999999999999998 0  0 -0.09999999999999998 0  0.09999999999999998 -0.09999999999999998 0  0.2 -0.09999999999999998 0  0.3 -0.09999999999999998 0  0.4 -0.09999999999999998 0  0.5 -0.09999999999999998 0  -0.5 -0.07999999999999996 0  -0.4 -0.07999999999999996 0  -0.3 -0.07999999999999996 0  -0.2 -0.07999999999999996 0  -0.09999999999999998 -0.07999999999999996 0  0 -0.07999999999999996 0  0.09999999999999998 -0.07999999999999996 0  0.2 -0.07999999999999996 0  0.3 -0.07999999999999996 0  0.4 -0.07999999999999996 0  0.5 -0.07999999999999996 0  -0.5 -0.06000000000000005 0  -0.4 -0.06000000000000005 0  -0.3 -0.06000000000000005 0  -0.2 -0.06000000000000005 0  -0.09999999999999998 -0.06000000000000005 0  0 -0.06000000000000005 0  0.09999999999999998 -0.06000000000000005 0  0.2 -0.06000000000000005 0  0.3 -0.06000000000000005 0  0.4 -0.06000000000000005 0  0.5 -0.06000000000000005 0  -0.5 -0.04000000000000004 0  -0.4 -0.04000000000000004 0  -0.3 -0.04000000000000004 0  -0.2 -0.04000000000000004 0  -0.09999999999999998 -0.04000000000000004 0  0 -0.04000000000000004 0  0.09999999999999998 -0.04000000000000004 0  0.2 -0.04000000000000004 0  0.3 -0.04000000000000004 0  0.4 -0.04000000000000004 0  0.5 -0.04000000000000004 0  -0.5 -0.02000000000000002 0  -0.4 -0.02000000000000002 0  -0.3 -0.02000000000000002 0  -0.2 -0.02000000000000002 0  -0.09999999999999998 -0.02000000000000002 0  0 -0.02000000000000002 0  0.09999999999999998 -0.02000000000000002 0  0.2 -0.02000000000000002 0  0.3 -0.02000000000000002 0  0.4 -0.02000000000000002 0  0.5 -0.02000000000000002 0  -0.5 0 0  -0.4 0 0  -0.3 0 0  -0.2 0 0  -0.09999999999999998 0 0  0 0 0  0.09999999999999998 0 0  0.2 0 0  0.3 0 0  0.4 0 0  0.5 0 0  -0.45 -0.99 0  -0.35 -0.99 0  -0.25 -0.99 0  -0.15 -0.99 0  -0.04999999999999999 -0.99 0  0.05000000000000004 -0.99 0  0.15 -0.99 0  0.25 -0.99 0  0.35 -0.99 0  0.45 -0.99 0  -0.45 -0.97 0  -0.35 -0.97 0  -0.25 -0.97 0  -0.15 -0.97 0  -0.04999999999999999 -0.97 0  0.05000000000000004 -0.97 0  0.15 -0.97 0  0.25 -0.97 0  0.35 -0.97 0  0.45 -0.97 0  -0.45 -0.95 0  -0.35 -0.95 0  -0.25 -0.95 0  -0.15 -0.95 0  -0.04999999999999999 -0.95 0  0.05000000000000004 -0.95 0  0.15 -0.95 0  0.25 -0.95 0  0.35 -0.95 0  0.45 -0.95 0  -0.45 -0.9299999999999999 0  -0.35 -0.9299999999999999 0  -0.25 -0.9299999999999999 0  -0.15 -0.9299999999999999 0  -0.04999999999999999 -0.9299999999999999 0  0.05000000000000004 -0.9299999999999999 0  0.15 -0.9299999999999999 0  0.25 -0.9299999999999999 0  0.35 -0.9299999999999999 0  0.45 -0.9299999999999999 0  -0.45 -0.91 0  -0.35 -0.91 0  -0.25 -0.91 0  -0.15 -0.91 0  -0.04999999999999999 -0.91 0  0.05000000000000004 -0.91 0  0.15 -0.91 0  0.25 -0.91 0  0.35 -0.91 0  0.45 -0.91 0  -0.45 -0.89 0  -0.35 -0.89 0  -0.25 -0.89 0  -0.15 -0.89 0  -0.04999999999999999 -0.89 0  0.05000000000000004 -0.89 0  0.15 -0.89 0  0.25 -0.89 0  0.35 -0.89 0  0.45 -0.89 0  -0.45 -0.87 0  -0.35 -0.87 0  -0.25 -0.87 0  -0.15 -0.87 0  -0.04999999999999999 -0.87 0  0.05000000000000004 -0.87 0  0.15 -0.87 0  0.25 -0.87 0  0.35 -0.87 0  0.45 -0.87 0  -0.45 -0.85 0  -0.35 -0.85 0  -0.25 -0.85 0  -0.15 -0.85 0  -0.04999999999999999 -0.85 0  0.05000000000000004 -0.85 0  0.15 -0.85 0  0.25 -0.85 0  0.35 -0.85 0  0.45 -0.85 0  -0.45 -0.83 0  -0.35 -0.83 0  -0.25 -0.83 0  -0.15 -0.83 0  -0.04999999999999999 -0.83 0  0.05000000000000004 -0.83 0  0.15 -0.83 0  0.25 -0.83 0  0.35 -0.83 0  0.45 -0.83 0  -0.45 -0.8100000000000001 0  -0.35 -0.8100000000000001 0  -0.25 -0.8100000000000001 0  -0.15 -0.8100000000000001 0  -0.04999999999999999 -0.8100000000000001 0  0.05000000000000004 -0.8100000000000001 0  0.15 -0.8100000000000001 0  0.25 -0.8100000000000001 0  0.35 -0.8100000000000001 0  0.45 -0.8100000000000001 0  -0.45 -0.79 0  -0.35 -0.79 0  -0.25 -0.79 0  -0.15 -0.79 0  -0.04999999999999999 -0.79 0  0.05000000000000004 -0.79 0  0.15 -0.79 0  0.25 -0.79 0  0.35 -0.79 0  0.45 -0.79 0  -0.45 -0.77 0  -0.35 -0.77 0  -0.25 -0.77 0  -0.15 -0.77 0  -0.04999999999999999 -0.77 0  0.05000000000000004 -0.77 0  0.15 -0.77 0  0.25 -0.77 0  0.35 -0.77 0  0.45 -0.77 0  -0.45 -0.75 0  -0.35 -0.75 0  -0.25 -0.75 0  -0.15 -0.75 0  -0.04999999999999999 -0.75 0  0.05000000000000004 -0.75 0  0.15 -0.75 0  0.25 -0.75 0  0.35 -0.75 0  0.45 -0.75 0  -0.45 -0.73 0  -0.35 -0.73 0  -0.25 -0.73 0  -0.15 -0.73 0  -0.04999999999999999 -0.73 0  0.05000000000000004 -0.73 0  0.15 -0.73 0  0.25 -0.73 0  0.35 -0.73 0  0.45 -0.73 0  -0.45 -0.71 0  -0.35 -0.71 0  -0.25 -0.71 0  -0.15 -0.71 0  -0.04999999999999999 -0.71 0  0.05000000000000004 -0.71 0  0.15 -0.71 0  0.25 -0.71 0  0.35 -0.71 0  0.45 -0.71 0  -0.45 -0.6899999999999999 0  -0.35 -0.6899999999999999 0  -0.25 -0.6899999999999999 0  -0.15 -0.6899999999999999 0  -0.04999999999999999 -0.6899999999999999 0  0.05000000000000004 -0.6899999999999999 0  0.15 -0.6899999999999999 0  0.25 -0.6899999999999999 0  0.35 -0.6899999999999999 0  0.45 -0.6899999999999999 0  -0.45 -0.6699999999999999 0  -0.35 -0.6699999999999999 0  -0.25 -0.6699999999999999 0  -0.15 -0.6699999999999999 0  -0.04999999999999999 -0.6699999999999999 0  0.05000000000000004 -0.6699999999999999 0  0.15 -0.6699999999999999 0  0.25 -0.6699999999999999 0  0.35 -0.6699999999999999 0  0.45 -0.6699999999999999 0  -0.45 -0.65 0  -0.35 -0.65 0  -0.25 -0.65 0  -0.15 -0.65 0  -0.04999999999999999 -0.65 0  0.05000000000000004 -0.65 0  0.15 -0.65 0  0.25 -0.65 0  0.35 -0.65 0  0.45 -0.65 0  -0.45 -0.63 0  -0.35 -0.63 0  -0.25 -0.63 0  -0.15 -0.63 0  -0.04999999999999999 -0.63 0  0.05000000000000004 -0.63 0  0.15 -0.63 0  0.25 -0.63 0  0.35 -0.63 0  0.45 -0.63 0  -0.45 -0.61 0  -0.35 -0.61 0  -0.25 -0.61 0  -0.15 -0.61 0  -0.04999999999999999 -0.61 0  0.05000000000000004 -0.61 0  0.15 -0.61 0  0.25 -0.61 0  0.35 -0.61 0  0.45 -0.61 0  -0.45 -0.5900000000000001 0  -0.35 -0.5900000000000001 0  -0.25 -0.5900000000000001 0  -0.15 -0.5900000000000001 0  -0.04999999999999999 -0.5900000000000001 0  0.05000000000000004 -0.5900000000000001 0  0.15 -0.5900000000000001 0  0.25 -0.5900000000000001 0  0.35 -0.5900000000000001 0  0.45 -0.5900000000000001 0  -0.45 -0.5700000000000001 0  -0.35 -0.5700000000000001 0  -0.25 -0.5700000000000001 0  -0.15 -0.5700000000000001 0  -0.04999999999999999 -0.5700000000000001 0  0.05000000000000004 -0.5700000000000001 0  0.15 -0.5700000000000001 0  0.25 -0.5700000000000001 0  0.35 -0.5700000000000001 0  0.45 -0.5700000000000001 0  -0.45 -0.55 0  -0.35 -0.55 0  -0.25 -0.55 0  -0.15 -0.55 0  -0.04999999999999999 -0.55 0  0.05000000000000004 -0.55 0  0.15 -0.55 0  0.25 -0.55 0  0.35 -0.55 0  0.45 -0.55 0  -0.45 -0.53 0  -0.35 -0.53 0  -0.25 -0.53 0  -0.15 -0.53 0  -0.04999999999999999 -0.53 0  0.05000000000000004 -0.53 0  0.15 -0.53 0  0.25 -0.53 0  0.35 -0.53 0  0.45 -0.53 0  -0.45 -0.51 0  -0.35 -0.51 0  -0.25 -0.51 0  -0.15 -0.51 0  -0.04999999999999999 -0.51 0  0.05000000000000004 -0.51 0  0.15 -0.51 0  0.25 -0.51 0  0.35 -0.51 0  0.45 -0.51 0  -0.45 -0.49 0  -0.35 -0.49 0  -0.25 -0.49 0  -0.15 -0.49 0  -0.04999999999999999 -0.49 0  0.05000000000000004 -0.49 0  0.15 -0.49 0  0.25 -0.49 0  0.35 -0.49 0  0.45 -0.49 0  -0.45 -0.47 0  -0.35 -0.47 0  -0.25 -0.47 0  -0.15 -0.47 0  -0.04999999999999999 -0.47 0  0.05000000000000004 -0.47 0  0.15 -0.47 0  0.25 -0.47 0  0.35 -0.47 0  0.45 -0.47 0  -0.45 -0.45 0  -0.35 -0.45 0  -0.25 -0.45 0  -0.15 -0.45 0  -0.04999999999999999 -0.45 0  0.05000000000000004 -0.45 0  0.15 -0.45 0  0.25 -0.45 0  0.35 -0.45 0  0.45 -0.45 0  -0.45 -0.43 0  -0.35 -0.43 0  -0.25 -0.43 0  -0.15 -0.43 0  -0.04999999999999999 -0.43 0  0.05000000000000004 -0.43 0  0.15 -0.43 0  0.25 -0.43 0  0.35 -0.43 0  0.45 -0.43 0  -0.45 -0.41 0  -0.35 -0.41 0  -0.25 -0.41 0  -0.15 -0.41 0  -0.04999999999999999 -0.41 0  0.05000000000000004 -0.41 0  0.15 -0.41 0  0.25 -0.41 0  0.35 -0.41 0  0.45 -0.41 0  -0.45 -0.39 0  -0.35 -0.39 0  -0.25 -0.39 0  -0.15 -0.39 0  -0.04999999999999999 -0.39 0  0.05000000000000004 -0.39 0  0.15 -0.39 0  0.25 -0.39 0  0.35 -0.39 0  0.45 -0.39 0  -0.45 -0.37 0  -0.35 -0.37 0  -0.25 -0.37 0  -0.15 -0.37 0  -0.04999999999999999 -0.37 0  0.05000000000000004 -0.37 0  0.15 -0.37 0  0.25 -0.37 0  0.35 -0.37 0  0.45 -0.37 0  -0.45 -0.35 0  -0.35 -0.35 0  -0.25 -0.35 0  -0.15 -0.35 0  -0.04999999999999999 -0.35 0  0.05000000000000004 -0.35 0  0.15 -0.35 0  0.25 -0.35 0  0.35 -0.35 0  0.45 -0.35 0  -0.45 -0.33 0  -0.35 -0.33 0  -0.25 -0.33 0  -0.15 -0.33 0  -0.04999999999999999 -0.33 0  0.05000000000000004 -0.33 0  0.15 -0.33 0  0.25 -0.33 0  0.35 -0.33 0  0.45 -0.33 0  -0.45 -0.3100000000000001 0  -0.35 -0.3100000000000001 0  -0.25 -0.3100000000000001 0  -0.15 -0.3100000000000001 0  -0.04999999999999999 -0.3100000000000001 0  0.05000000000000004 -0.3100000000000001 0  0.15 -0.3100000000000001 0  0.25 -0.3100000000000001 0  0.35 -0.3100000000000001 0  0.45 -0.3100000000000001 0  -0.45 -0.29 0  -0.35 -0.29 0  -0.25 -0.29 0  -0.15 -0.29 0  -0.04999999999999999 -0.29 0  0.05000000000000004 -0.29 0  0.15 -0.29 0  0.25 -0.29 0  0.35 -0.29 0  0.45 -0.29 0  -0.45 -0.27 0  -0.35 -0.27 0  -0.25 -0.27 0  -0.15 -0.27 0  -0.04999999999999999 -0.27 0  0.05000000000000004 -0.27 0  0.15 -0.27 0  0.25 -0.27 0  0.35 -0.27 0  0.45 -0.27 0  -0.45 -0.25 0  -0.35 -0.25 0  -0.25 -0.25 0  -0.15 -0.25 0  -0.04999999999999999 -0.25 0  0.05000000000000004 -0.25 0  0.15 -0.25 0  0.25 -0.25 0  0.35 -0.25 0  0.45 -0.25 0  -0.45 -0.23 0  -0.35 -0.23 0  -0.25 -0.23 0  -0.15 -0.23 0  -0.04999999999999999 -0.23 0  0.05000000000000004 -0.23 0  0.15 -0.23 0  0.25 -0.23 0  0.35 -0.23 0  0.45 -0.23 0  -0.45 -0.21 0  -0.35 -0.21 0  -0.25 -0.21 0  -0.15 -0.21 0  -0.04999999999999999 -0.21 0  0.05000000000000004 -0.21 0  0.15 -0.21 0  0.25 -0.21 0  0.35 -0.21 0  0.45 -0.21 0  -0.45 -0.1899999999999999 0  -0.35 -0.1899999999999999 0  -0.25 -0.1899999999999999 0  -0.15 -0.1899999999999999 0  -0.04999999999999999 -0.1899999999999999 0  0.05000000000000004 -0.1899999999999999 0  0.15 -0.1899999999999999 0  0.25 -0.1899999999999999 0  0.35 -0.1899999999999999 0  0.45 -0.1899999999999999 0  -0.45 -0.17 0  -0.35 -0.17 0  -0.25 -0.17 0  -0.15 -0.17 0  -0.04999999999999999 -0.17 0  0.05000000000000004 -0.17 0  0.15 -0.17 0  0.25 -0.17 0  0.35 -0.17 0  0.45 -0.17 0  -0.45 -0.15 0  -0.35 -0.15 0  -0.25 -0.15 0  -0.15 -0.15 0  -0.04999999999999999 -0.15 0  0.05000000000000004 -0.15 0  0.15 -0.15 0  0.25 -0.15 0  0.35 -0.15 0  0.45 -0.15 0  -0.45 -0.13 0  -0.35 -0.13 0  -0.25 -0.13 0  -0.15 -0.13 0  -0.04999999999999999 -0.13 0  0.05000000000000004 -0.13 0  0.15 -0.13 0  0.25 -0.13 0  0.35 -0.13 0  0.45 -0.13 0  -0.45 -0.11 0  -0.35 -0.11 0  -0.25 -0.11 0  -0.15 -0.11 0  -0.04999999999999999 -0.11 0  0.05000000000000004 -0.11 0  0.15 -0.11 0  0.25 -0.11 0  0.35 -0.11 0  0.45 -0.11 0  -0.45 -0.08999999999999997 0  -0.35 -0.08999999999999997 0  -0.25 -0.08999999999999997 0  -0.15 -0.08999999999999997 0  -0.04999999999999999 -0.08999999999999997 0  0.05000000000000004 -0.08999999999999997 0  0.15 -0.08999999999999997 0  0.25 -0.08999999999999997 0  0.35 -0.08999999999999997 0  0.45 -0.08999999999999997 0  -0.45 -0.06999999999999995 0  -0.35 -0.06999999999999995 0  -0.25 -0.06999999999999995 0  -0.15 -0.06999999999999995 0  -0.04999999999999999 -0.06999999999999995 0  0.05000000000000004 -0.06999999999999995 0  0.15 -0.06999999999999995 0  0.25 -0.06999999999999995 0  0.35 -0.06999999999999995 0  0.45 -0.06999999999999995 0  -0.45 -0.05000000000000004 0  -0.35 -0.05000000000000004 0  -0.25 -0.05000000000000004 0  -0.15 -0.05000000000000004 0  -0.04999999999999999 -0.05000000000000004 0  0.05000000000000004 -0.05000000000000004 0  0.15 -0.05000000000000004 0  0.25 -0.05000000000000004 0  0.35 -0.05000000000000004 0  0.45 -0.05000000000000004 0  -0.45 -0.03000000000000003 0  -0.35 -0.03000000000000003 0  -0.25 -0.03000000000000003 0  -0.15 -0.03000000000000003 0  -0.04999999999999999 -0.03000000000000003 0  0.05000000000000004 -0.03000000000000003 0  0.15 -0.03000000000000003 0  0.25 -0.03000000000000003 0  0.35 -0.03000000000000003 0  0.45 -0.03000000000000003 0  -0.45 -0.01000000000000001 0  -0.35 -0.01000000000000001 0  -0.25 -0.01000000000000001 0  -0.15 -0.01000000000000001 0  -0.04999999999999999 -0.01000000000000001 0  0.05000000000000004 -0.01000000000000001 0  0.15 -0.01000000000000001 0  0.25 -0.01000000000000001 0  0.35 -0.01000000000000001 0  0.45 -0.01000000000000001 0  -0.45 0 0  -0.475 -0.005000000000000004 0  -0.35 0 0  -0.425 -0.005000000000000004 0  -0.375 -0.005000000000000004 0  -0.25 0 0  -0.325 -0.005000000000000004 0  -0.275 -0.005000000000000004 0  -0.15 0 0  -0.225 -0.005000000000000004 0  -0.175 -0.005000000000000004 0  -0.04999999999999999 0 0  -0.125 -0.005000000000000004 0  -0.07499999999999998 -0.005000000000000004 0  0.04999999999999999 0 0  -0.02499999999999999 -0.005000000000000004 0  0.02500000000000002 -0.005000000000000004 0  0.15 0 0  0.07500000000000001 -0.005000000000000004 0  0.125 -0.005000000000000004 0  0.25 0 0  0.175 -0.005000000000000004 0  0.225 -0.005000000000000004 0  0.35 0 0  0.275 -0.005000000000000004 0  0.325 -0.005000000000000004 0  0.45 0 0  0.375 -0.005000000000000004 0  0.425 -0.005000000000000004 0  0.475 -0.005000000000000004 0  </DataArray>
</Points>
<Cells>
<DataArray  type="UInt32"  Name="connectivity"  format="ascii">0 1 561  0 11 561  1 12 561  11 12 561  1 2 562  1 12 562  2 13 562  12 13 562  2 3 563  2 13 563  3 14 563  13 14 563  3 4 564  3 14 564  4 15 564  14 15 564  4 5 565  4 15 565  5 16 565  15 16 565  5 6 566  5 16 566  6 17 566  16 17 566  6 7 567  6 17 567  7 18 567  17 18 567  7 8 568  7 18 568  8 19 568  18 19 568  8 9 569  8 19 569  9 20 569  19 20 569  9 10 570  9 20 570  10 21 570  20 21 570  11 12 571  11 22 571  12 23 571  22 23 571  12 13 572  12 23 572  13 24 572  23 24 572  13 14 573  13 24 573  14 25 573  24 25 573  14 15 574  14 25 574  15 26 574  25 26 574  15 16 575  15 26 575  16 27 575  26 27 575  16 17 576  16 27 576  17 28 576  27 28 576  17 18 577  17 28 577  18 29 577  28 29 577  18 19 578  18 29 578  19 30 578  29 30 578  19 20 579  19 30 579  20 31 579  30 31 579  20 21 580  20 31 580  21 32 580  31 32 580  22 23 581  22 33 581  23 34 581  33 34 581  23 24 582  23 34 582  24 35 582  34 35 582  24 25 583  24 35 583  25 36 583  35 36 583  25 26 584  25 36 584  26 37 584  36 37 584  26 27 585  26 37 585  27 38 585  37 38 585  27 28 586  27 38 586  28 39 586  38 39 586  28 29 587  28 39 587  29 40 587  39 40 587  29 30 588  29 40 588  30 41 588  40 41 588  30 31 589  30 41 589  31 42 589  41 42 589  31 32 590  31 42 590  32 43 590  42 43 590  33 34 591  33 44 591  34 45 591  44 45 591  34 35 592  34 45 592  35 46 592  45 46 592  35 36 593  35 46 593  36 47 593  46 47 593  36 37 594  36 47 594  37 48 594  47 48 594  37 38 595  37 48 595  38 49 595  48 49 595  38 39 596  38 49 596  39 50 596  49 50 596  39 40 597  39 50 597  40 51 597  50 51 597  40 41 598  40 51 598  41 52 598  51 52 598  41 42 599  41 52 599  42 53 599  52 53 599  42 43 600  42 53 600  43 54 600  53 54 600  44 45 601  44 55 601  45 56 601  55 56 601  45 46 602  45 56 602  46 57 602  56 57 602  46 47 603  46 57 603  47 58 603  57 58 603  47 48 604  47 58 604  48 59 604  58 59 604  48 49 605  48 59 605  49 60 605  59 60 605  49 50 606  49 60 606  50 61 606  60 61 606  50 51 607  50 61 607  51 62 607  61 62 607  51 52 608  51 62 608  52 63 608  62 63 608  52 53 609  52 63 609  53 64 609  63 64 609  53 54 610  53 64 610  54 65 610  64 65 610  55 56 611  55 66 611  56 67 611  66 67 611  56 57 612  56 67 612  57 68 612  67 68 612  57 58 613  57 68 613  58 69 613  68 69 613  58 59 614  58 69 614  59 70 614  69 70 614  59 60 615  59 70 615  60 71 615  70 71 615  60 61 616  60 71 616  61 72 616  71 72 616  61 62 617  61 72 617  62 73 617  72 73 617  62 63 618  62 73 618  63 74 618  73 74 618  63 64 619  63 74 619  64 75 619  74 75 619  64 65 620  64 75 620  65 76 620  75 76 620  66 67 621  66 77 621  67 78 621  77 78 621  67 68 622  67 78 622  68 79 622  78 79 622  68 69 623  68 79 623  69 80 623  79 80 623  69 70 624  69 80 624  70 81 624  80 81 624  70 71 625  70 81 625  71 82 625  81 82 625  71 72 626  71 82 626  72 83 626  82 83 626  72 73 627  72 83 627  73 84 627  83 84 627  73 74 628  73 84 628  74 85 628  84 85 628  74 75 629  74 85 629  75 86 629  85 86 629  75 76 630  75 86 630  76 87 630  86 87 630  77 78 631  77 88 631  78 89 631  88 89 631  78 79 632  78 89 632  79 90 632  89 90 632  79 80 633  79 90 633  80 91 633  90 91 633  80 81 634  80 91 634  81 92 634  91 92 634  81 82 635  81 92 635  82 93 635  92 93 635  82 83 636  82 93 636  83 94 636  93 94 636  83 84 637  83 94 637  84 95 637  94 95 637  84 85 638  84 95 638  85 96 638  95 96 638  85 86 639  85 96 639  86 97 639  96 97 639  86 87 640  86 97 640  87 98 640  97 98 640  88 89 641  88 99 641  89 100 641  99 100 641  89 90 642  89 100 642  90 101 642  100 101 642  90 91 643  90 101 643  91 102 643  101 102 643  91 92 644  91 102 644  92 103 644  102 103 644  92 93 645  92 103 645  93 104 645  103 104 645  93 94 646  93 104 646  94 105 646  104 105 646  94 95 647  94 105 647  95 106 647  105 106 647  95 96 648  95 106 648  96 107 648  106 107 648  96 97 649  96 107 649  97 108 649  107 108 649  97 98 650  97 108 650  98 109 650  108 109 650  99 100 651  99 110 651  100 111 651  110 111 651  100 101 652  100 111 652  101 112 652  111 112 652  101 102 653  101 112 653  102 113 653  112 113 653  102 103 654  102 113 654  103 114 654  113 114 654  103 104 655  103 114 655  104 115 655  114 115 655  104 105 656  104 115 656  105 116 656  115 116 656  105 106 657  105 116 657  106 117 657  116 117 657  106 107 658  106 117 658  107 118 658  117 118 658  107 108 659  107 118 659  108 119 659  118 119 659  108 109 660  108 119 660  109 120 660  119 120 660  110 111 661  110 121 661  111 122 661  121 122 661  111 112 662  111 122 662  112 123 662  122 123 662  112 113 663  112 123 663  113 124 663  123 124 663  113 114 664  113 124 664  114 125 664  124 125 664  114 115 665  114 125 665  115 126 665  125 126 665  115 116 666  115 126 666  116 127 666  126 127 666  116 117 667  116 127 667  117 128 667  127 128 667  117 118 668  117 128 668  118 129 668  128 129 668  118 119 669  118 129 669  119 130 669  129 130 669  119 120 670  119 130 670  120 131 670  130 131 670  121 122 671  121 132 671  122 133 671  132 133 671  122 123 672  122 133 672  123 134 672  133 134 672  123 124 673  123 134 673  124 135 673  134 135 673  124 125 674  124 135 674  125 136 674  135 136 674  125 126 675  125 136 675  126 137 675  136 137 675  126 127 676  126 137 676  127 138 676  137 138 676  127 128 677  127 138 677  128 139 677  138 139 677  128 129 678  128 139 678  129 140 678  139 140 678  129 130 679  129 140 679  130 141 679  140 141 679  130 131 680  130 141 680  131 142 680  141 142 680  132 133 681  132 143 681  133 144 681  143 144 681  133 134 682  133 144 682  134 145 682  144 145 682  134 135 683  134 145 683  135 146 683  145 146 683  135 136 684  135 146 684  136 147 684  146 147 684  136 137 685  136 147 685  137 148 685  147 148 685  137 138 686  137 148 686  138 149 686  148 149 686  138 139 687  138 149 687  139 150 687  149 150 687  139 140 688  139 150 688  140 151 688  150 151 688  140 141 689  140 151 689  141 152 689  151 152 689  141 142 690  141 152 690  142 153 690  152 153 690  143 144 691  143 154 691  144 155 691  154 155 691  144 145 692  144 155 692  145 156 692  155 156 692  145 146 693  145 156 693  146 157 693  156 157 693  146 147 694  146 157 694  147 158 694  157 158 694  147 148 695  147 158 695  148 159 695  158 159 695  148 149 696  148 159 696  149 160 696  159 160 696  149 150 697  149 160 697  150 161 697  160 161 697  150 151 698  150 161 698  151 162 698  161 162 698  151 152 699  151 162 699  152 163 699  162 163 699  152 153 700  152 163 700  153 164 700  163 164 700  154 155 701  154 165 701  155 166 701  165 166 701  155 156 702  155 166 702  156 167 702  166 167 702  156 157 703  156 167 703  157 168 703  167 168 703  157 158 704  157 168 704  158 169 704  168 169 704  158 159 705  158 169 705  159 170 705  169 170 705  159 160 706  159 170 706  160 171 706  170 171 706  160 161 707  160 171 707  161 172 707  171 172 707  161 162 708  161 172 708  162 173 708  172 173 708  162 163 709  162 173 709  163 174 709  173 174 709  163 164 710  163 174 710  164 175 710  174 175 710  165 166 711  165 176 711  166 177 711  176 177 711  166 167 712  166 177 712  167 178 712  177 178 712  167 168 713  167 178 713  168 179 713  178 179 713  168 169 714  168 179 714  169 180 714  179 180 714  169 170 715  169 180 715  170 181 715  180 181 715  170 171 716  170 181 716  171 182 716  181 182 716  171 172 717  171 182 717  172 183 717  182 183 717  172 173 718  172 183 718  173 184 718  183 184 718  173 174 719  173 184 719  174 185 719  184 185 719  174 175 720  174 185 720  175 186 720  185 186 720  176 177 721  176 187 721  177 188 721  187 188 721  177 178 722  177 188 722  178 189 722  188 189 722  178 179 723  178 189 723  179 190 723  189 190 723  179 180 724  179 190 724  180 191 724  190 191 724  180 181 725  180 191 725  181 192 725  191 192 725  181 182 726  181 192 726  182 193 726  192 193 726  182 183 727  182 193 727  183 194 727  193 194 727  183 184 728  183 194 728  184 195 728  194 195 728  184 185 729  184 195 729  185 196 729  195 196 729  185 186 730  185 196 730  186 197 730  196 197 730  187 188 731  187 198 731  188 199 731  198 199 731  188 189 732  188 199 732  189 200 732  199 200 732  189 190 733  189 200 733  190 201 733  200 201 733  190 191 734  190 201 734  191 202 734  201 202 734  191 192 735  191 202 735  192 203 735  202 203 735  192 193 736  192 203 736  193 204 736  203 204 736  193 194 737  193 204 737  194 205 737  204 205 737  194 195 738  194 205 738  195 206 738  205 206 738  195 196 739  195 206 739  196 207 739  206 207 739  196 197 740  196 207 740  197 208 740  207 208 740  198 199 741  198 209 741  199 210 741  209 210 741  199 200 742  199 210 742  200 211 742  210 211 742  200 201 743  200 211 743  201 212 743  211 212 743  201 202 744  201 212 744  202 213 744  212 213 744  202 203 745  202 213 745  203 214 745  213 214 745  203 204 746  203 214 746  204 215 746  214 215 746  204 205 747  204 215 747  205 216 747  215 216 747  205 206 748  205 216 748  206 217 748  216 217 748  206 207 749  206 217 749  207 218 749  217 218 749  207 208 750  207 218 750  208 219 750  218 219 750  209 210 751  209 220 751  210 221 751  220 221 751  210 211 752  210 221 752  211 222 752  221 222 752  211 212 753  211 222 753  212 223 753  222 223 753  212 213 754  212 223 754  213 224 754  223 224 754  213 214 755  213 224 755  214 225 755  224 225 755  214 215 756  214 225 756  215 226 756  225 226 756  215 216 757  215 226 757  216 227 757  226 227 757  216 217 758  216 227 758  217 228 758  227 228 758  217 218 759  217 228 759  218 229 759  228 229 759  218 219 760  218 229 760  219 230 760  229 230 760  220 221 761  220 231 761  221 232 761  231 232 761  221 222 762  221 232 762  222 233 762  232 233 762  222 223 763  222 233 763  223 234 763  233 234 763  223 224 764  223 234 764  224 235 764  234 235 764  224 225 765  224 235 765  225 236 765  235 236 765  225 226 766  225 236 766  226 237 766  236 237 766  226 227 767  226 237 767  227 238 767  237 238 767  227 228 768  227 238 768  228 239 768  238 239 768  228 229 769  228 239 769  229 240 769  239 240 769  229 230 770  229 240 770  230 241 770  240 241 770  231 232 771  231 242 771  232 243 771  242 243 771  232 233 772  232 243 772  233 244 772  243 244 772  233 234 773  233 244 773  234 245 773  244 245 773  234 235 774  234 245 774  235 246 774  245 246 774  235 236 775  235 246 775  236 247 775  246 247 775  236 237 776  236 247 776  237 248 776  247 248 776  237 238 777  237 248 777  238 249 777  248 249 777  238 239 778  238 249 778  239 250 778  249 250 778  239 240 779  239 250 779  240 251 779  250 251 779  240 241 780  240 251 780  241 252 780  251 252 780  242 243 781  242 253 781  243 254 781  253 254 781  243 244 782  243 254 782  244 255 782  254 255 782  244 245 783  244 255 783  245 256 783  255 256 783  245 246 784  245 256 784  246 257 784  256 257 784  246 247 785  246 257 785  247 258 785  257 258 785  247 248 786  247 258 786  248 259 786  258 259 786  248 249 787  248 259 787  249 260 787  259 260 787  249 250 788  249 260 788  250 261 788  260 261 788  250 251 789  250 261 789  251 262 789  261 262 789  251 252 790  251 262 790  252 263 790  262 263 790  253 254 791  253 264 791  254 265 791  264 265 791  254 255 792  254 265 792  255 266 792  265 266 792  255 256 793  255 266 793  256 267 793  266 267 793  256 257 794  256 267 794  257 268 794  267 268 794  257 258 795  257 268 795  258 269 795  268 269 795  258 259 796  258 269 796  259 270 796  269 270 796  259 260 797  259 270 797  260 271 797  270 271 797  260 261 798  260 271 798  261 272 798  271 272 798  261 262 799  261 272 799  262 273 799  272 273 799  262 263 800  262 273 800  263 274 800  273 274 800  264 265 801  264 275 801  265 276 801  275 276 801  265 266 802  265 276 802  266 277 802  276 277 802  266 267 803  266 277 803  267 278 803  277 278 803  267 268 804  267 278 804  268 279 804  278 279 804  268 269 805  268 279 805  269 280 805  279 280 805  269 270 806  269 280 806  270 281 806  280 281 806  270 271 807  270 281 807  271 282 807  281 282 807  271 272 808  271 282 808  272 283 808  282 283 808  272 273 809  272 283 809  273 284 809  283 284 809  273 274 810  273 284 810  274 285 810  284 285 810  275 276 811  275 286 811  276 287 811  286 287 811  276 277 812  276 287 812  277 288 812  287 288 812  277 278 813  277 288 813  278 289 813  288 289 813  278 279 814  278 289 814  279 290 814  289 290 814  279 280 815  279 290 815  280 291 815  290 291 815  280 281 816  280 291 816  281 292 816  291 292 816  281 282 817  281 292 817  282 293 817  292 293 817  282 283 818  282 293 818  283 294 818  293 294 818  283 284 819  283 294 819  284 295 819  294 295 819  284 285 820  284 295 820  285 296 820  295 296 820  286 287 821  286 297 821  287 298 821  297 298 821  287 288 822  287 298 822  288 299 822  298 299 822  288 289 823  288 299 823  289 300 823  299 300 823  289 290 824  289 300 824  290 301 824  300 301 824  290 291 825  290 301 825  291 302 825  301 302 825  291 292 826  291 302 826  292 303 826  302 303 826  292 293 827  292 303 827  293 304 827  303 304 827  293 294 828  293 304 828  294 305 828  304 305 828  294 295 829  294 305 829  295 306 829  305 306 829  295 296 830  295 306 830  296 307 830  306 307 830  297 298 831  297 308 831  298 309 831  308 309 831  298 299 832  298 309 832  299 310 832  309 310 832  299 300 833  299 310 833  300 311 833  310 311 833  300 301 834  300 311 834  301 312 834  311 312 834  301 302 835  301 312 835  302 313 835  312 313 835  302 303 836  302 313 836  303 314 836  313 314 836  303 304 837  303 314 837  304 315 837  314 315 837  304 305 838  304 315 838  305 316 838  315 316 838  305 306 839  305 316 839  306 317 839  316 317 839  306 307 840  306 317 840  307 318 840  317 318 840  308 309 841  308 319 841  309 320 841  319 320 841  309 310 842  309 320 842  310 321 842  320 321 842  310 311 843  310 321 843  311 322 843  321 322 843  311 312 844  311 322 844  312 323 844  322 323 844  312 313 845  312 323 845  313 324 845  323 324 845  313 314 846  313 324 846  314 325 846  324 325 846  314 315 847  314 325 847  315 326 847  325 326 847  315 316 848  315 326 848  316 327 848  326 327 848  316 317 849  316 327 849  317 328 849  327 328 849  317 318 850  317 328 850  318 329 850  328 329 850  319 320 851  319 330 851  320 331 851  330 331 851  320 321 852  320 331 852  321 332 852  331 332 852  321 322 853  321 332 853  322 333 853  332 333 853  322 323 854  322 333 854  323 334 854  333 334 854  323 324 855  323 334 855  324 335 855  334 335 855  324 325 856  324 335 856  325 336 856  335 336 856  325 326 857  325 336 857  326 337 857  336 337 857  326 327 858  326 337 858  327 338 858  337 338 858  327 328 859  327 338 859  328 339 859  338 339 859  328 329 860  328 339 860  329 340 860  339 340 860  330 331 861  330 341 861  331 342 861  341 342 861  331 332 862  331 342 862  332 343 862  342 343 862  332 333 863  332 343 863  333 344 863  343 344 863  333 334 864  333 344 864  334 345 864  344 345 864  334 335 865  334 345 865  335 346 865  345 346 865  335 336 866  335 346 866  336 347 866  346 347 866  336 337 867  336 347 867  337 348 867  347 348 867  337 338 868  337 348 868  338 349 868  348 349 868  338 339 869  338 349 869  339 350 869  349 350 869  339 340 870  339 350 870  340 351 870  350 351 870  341 342 871  341 352 871  342 353 871  352 353 871  342 343 872  342 353 872  343 354 872  353 354 872  343 344 873  343 354 873  344 355 873  354 355 873  344 345 874  344 355 874  345 356 874  355 356 874  345 346 875  345 356 875  346 357 875  356 357 875  346 347 876  346 357 876  347 358 876  357 358 876  347 348 877  347 358 877  348 359 877  358 359 877  348 349 878  348 359 878  349 360 878  359 360 878  349 350 879  349 360 879  350 361 879  360 361 879  350 351 880  350 361 880  351 362 880  361 362 880  352 353 881  352 363 881  353 364 881  363 364 881  353 354 882  353 364 882  354 365 882  364 365 882  354 355 883  354 365 883  355 366 883  365 366 883  355 356 884  355 366 884  356 367 884  366 367 884  356 357 885  356 367 885  357 368 885  367 368 885  357 358 886  357 368 886  358 369 886  368 369 886  358 359 887  358 369 887  359 370 887  369 370 887  359 360 888  359 370 888  360 371 888  370 371 888  360 361 889  360 371 889  361 372 889  371 372 889  361 362 890  361 372 890  362 373 890  372 373 890  363 364 891  363 374 891  364 375 891  374 375 891  364 365 892  364 375 892  365 376 892  375 376 892  365 366 893  365 376 893  366 377 893  376 377 893  366 367 894  366 377 894  367 378 894  377 378 894  367 368 895  367 378 895  368 379 895  378 379 895  368 369 896  368 379 896  369 380 896  379 380 896  369 370 897  369 380 897  370 381 897  380 381 897  370 371 898  370 381 898  371 382 898  381 382 898  371 372 899  371 382 899  372 383 899  382 383 899  372 373 900  372 383 900  373 384 900  383 384 900  374 375 901  374 385 901  375 386 901  385 386 901  375 376 902  375 386 902  376 387 902  386 387 902  376 377 903  376 387 903  377 388 903  387 388 903  377 378 904  377 388 904  378 389 904  388 389 904  378 379 905  378 389 905  379 390 905  389 390 905  379 380 906  379 390 906  380 391 906  390 391 906  380 381 907  380 391 907  381 392 907  391 392 907  381 382 908  381 392 908  382 393 908  392 393 908  382 383 909  382 393 909  383 394 909  393 394 909  383 384 910  383 394 910  384 395 910  394 395 910  385 386 911  385 396 911  386 397 911  396 397 911  386 387 912  386 397 912  387 398 912  397 398 912  387 388 913  387 398 913  388 399 913  398 399 913  388 389 914  388 399 914  389 400 914  399 400 914  389 390 915  389 400 915  390 401 915  400 401 915  390 391 916  390 401 916  391 402 916  401 402 916  391 392 917  391 402 917  392 403 917  402 403 917  392 393 918  392 403 918  393 404 918  403 404 918  393 394 919  393 404 919  394 405 919  404 405 919  394 395 920  394 405 920  395 406 920  405 406 920  396 397 921  396 407 921  397 408 921  407 408 921  397 398 922  397 408 922  398 409 922  408 409 922  398 399 923  398 409 923  399 410 923  409 410 923  399 400 924  399 410 924  400 411 924  410 411 924  400 401 925  400 411 925  401 412 925  411 412 925  401 402 926  401 412 926  402 413 926  412 413 926  402 403 927  402 413 927  403 414 927  413 414 927  403 404 928  403 414 928  404 415 928  414 415 928  404 405 929  404 415 929  405 416 929  415 416 929  405 406 930  405 416 930  406 417 930  416 417 930  407 408 931  407 418 931  408 419 931  418 419 931  408 409 932  408 419 932  409 420 932  419 420 932  409 410 933  409 420 933  410 421 933  420 421 933  410 411 934  410 421 934  411 422 934  421 422 934  411 412 935  411 422 935  412 423 935  422 423 935  412 413 936  412 423 936  413 424 936  423 424 936  413 414 937  413 424 937  414 425 937  424 425 937  414 415 938  414 425 938  415 426 938  425 426 938  415 416 939  415 426 939  416 427 939  426 427 939  416 417 940  416 427 940  417 428 940  427 428 940  418 419 941  418 429 941  419 430 941  429 430 941  419 420 942  419 430 942  420 431 942  430 431 942  420 421 943  420 431 943  421 432 943  431 432 943  421 422 944  421 432 944  422 433 944  432 433 944  422 423 945  422 433 945  423 434 945  433 434 945  423 424 946  423 434 946  424 435 946  434 435 946  424 425 947  424 435 947  425 436 947  435 436 947  425 426 948  425 436 948  426 437 948  436 437 948  426 427 949  426 437 949  427 438 949  437 438 949  427 428 950  427 438 950  428 439 950  438 439 950  429 430 951  429 440 951  430 441 951  440 441 951  430 431 952  430 441 952  431 442 952  441 442 952  431 432 953  431 442 953  432 443 953  442 443 953  432 433 954  432 443 954  433 444 954  443 444 954  433 434 955  433 444 955  434 445 955  444 445 955  434 435 956  434 445 956  435 446 956  445 446 956  435 436 957  435 446 957  436 447 957  446 447 957  436 437 958  436 447 958  437 448 958  447 448 958  437 438 959  437 448 959  438 449 959  448 449 959  438 439 960  438 449 960  439 450 960  449 450 960  440 441 961  440 451 961  441 452 961  451 452 961  441 442 962  441 452 962  442 453 962  452 453 962  442 443 963  442 453 963  443 454 963  453 454 963  443 444 964  443 454 964  444 455 964  454 455 964  444 445 965  444 455 965  445 456 965  455 456 965  445 446 966  445 456 966  446 457 966  456 457 966  446 447 967  446 457 967  447 458 967  457 458 967  447 448 968  447 458 968  448 459 968  458 459 968  448 449 969  448 459 969  449 460 969  459 460 969  449 450 970  449 460 970  450 461 970  460 461 970  451 452 971  451 462 971  452 463 971  462 463 971  452 453 972  452 463 972  453 464 972  463 464 972  453 454 973  453 464 973  454 465 973  464 465 973  454 455 974  454 465 974  455 466 974  465 466 974  455 456 975  455 466 975  456 467 975  466 467 975  456 457 976  456 467 976  457 468 976  467 468 976  457 458 977  457 468 977  458 469 977  468 469 977  458 459 978  458 469 978  459 470 978  469 470 978  459 460 979  459 470 979  460 471 979  470 471 979  460 461 980  460 471 980  461 472 980  471 472 980  462 463 981  462 473 981  463 474 981  473 474 981  463 464 982  463 474 982  464 475 982  474 475 982  464 465 983  464 475 983  465 476 983  475 476 983  465 466 984  465 476 984  466 477 984  476 477 984  466 467 985  466 477 985  467 478 985  477 478 985  467 468 986  467 478 986  468 479 986  478 479 986  468 469 987  468 479 987  469 480 987  479 480 987  469 470 988  469 480 988  470 481 988  480 481 988  470 471 989  470 481 989  471 482 989  481 482 989  471 472 990  471 482 990  472 483 990  482 483 990  473 474 991  473 484 991  474 485 991  484 485 991  474 475 992  474 485 992  475 486 992  485 486 992  475 476 993  475 486 993  476 487 993  486 487 993  476 477 994  476 487 994  477 488 994  487 488 994  477 478 995  477 488 995  478 489 995  488 489 995  478 479 996  478 489 996  479 490 996  489 490 996  479 480 997  479 490 997  480 491 997  490 491 997  480 481 998  480 491 998  481 492 998  491 492 998  481 482 999  481 492 999  482 493 999  492 493 999  482 483 1000  482 493 1000  483 494 1000  493 494 1000  484 485 1001  484 495 1001  485 496 1001  495 496 1001  485 486 1002  485 496 1002  486 497 1002  496 497 1002  486 487 1003  486 497 1003  487 498 1003  497 498 1003  487 488 1004  487 498 1004  488 499 1004  498 499 1004  488 489 1005  488 499 1005  489 500 1005  499 500 1005  489 490 1006  489 500 1006  490 501 1006  500 501 1006  490 491 1007  490 501 1007  491 502 1007  501 502 1007  491 492 1008  491 502 1008  492 503 1008  502 503 1008  492 493 1009  492 503 1009  493 504 1009  503 504 1009  493 494 1010  493 504 1010  494 505 1010  504 505 1010  495 496 1011  495 506 1011  496 507 1011  506 507 1011  496 497 1012  496 507 1012  497 508 1012  507 508 1012  497 498 1013  497 508 1013  498 509 1013  508 509 1013  498 499 1014  498 509 1014  499 510 1014  509 510 1014  499 500 1015  499 510 1015  500 511 1015  510 511 1015  500 501 1016  500 511 1016  501 512 1016  511 512 1016  501 502 1017  501 512 1017  502 513 1017  512 513 1017  502 503 1018  502 513 1018  503 514 1018  513 514 1018  503 504 1019  503 514 1019  504 515 1019  514 515 1019  504 505 1020  504 515 1020  505 516 1020  515 516 1020  506 507 1021  506 517 1021  507 518 1021  517 518 1021  507 508 1022  507 518 1022  508 519 1022  518 519 1022  508 509 1023  508 519 1023  509 520 1023  519 520 1023  509 510 1024  509 520 1024  510 521 1024  520 521 1024  510 511 1025  510 521 1025  511 522 1025  521 522 1025  511 512 1026  511 522 1026  512 523 1026  522 523 1026  512 513 1027  512 523 1027  513 524 1027  523 524 1027  513 514 1028  513 524 1028  514 525 1028  524 525 1028  514 515 1029  514 525 1029  515 526 1029  525 526 1029  515 516 1030  515 526 1030  516 527 1030  526 527 1030  517 518 1031  517 528 1031  518 529 1031  528 529 1031  518 519 1032  518 529 1032  519 530 1032  529 530 1032  519 520 1033  519 530 1033  520 531 1033  530 531 1033  520 521 1034  520 531 1034  521 532 1034  531 532 1034  521 522 1035  521 532 1035  522 533 1035  532 533 1035  522 523 1036  522 533 1036  523 534 1036  533 534 1036  523 524 1037  523 534 1037  524 535 1037  534 535 1037  524 525 1038  524 535 1038  525 536 1038  535 536 1038  525 526 1039  525 536 1039  526 537 1039  536 537 1039  526 527 1040  526 537 1040  527 538 1040  537 538 1040  528 529 1041  528 539 1041  529 540 1041  539 540 1041  529 530 1042  529 540 1042  530 541 1042  540 541 1042  530 531 1043  530 541 1043  531 542 1043  541 542 1043  531 532 1044  531 542 1044  532 543 1044  542 543 1044  532 533 1045  532 543 1045  533 544 1045  543 544 1045  533 534 1046  533 544 1046  534 545 1046  544 545 1046  534 535 1047  534 545 1047  535 546 1047  545 546 1047  535 536 1048  535 546 1048  536 547 1048  546 547 1048  536 537 1049  536 547 1049  537 548 1049  547 548 1049  537 538 1050  537 548 1050  538 549 1050  548 549 1050  539 540 1051  539 1051 1062  539 550 1062  540 1051 1064  540 551 1064  1051 1061 1064  551 1061 1064  1051 1061 1062  550 1061 1062  540 541 1052  540 1052 1065  540 551 1065  541 1052 1067  541 552 1067  1052 1063 1067  552 1063 1067  1052 1063 1065  551 1063 1065  541 542 1053  541 1053 1068  541 552 1068  542 1053 1070  542 553 1070  1053 1066 1070  553 1066 1070  1053 1066 1068  552 1066 1068  542 543 1054  542 1054 1071  542 553 1071  543 1054 1073  543 554 1073  1054 1069 1073  554 1069 1073  1054 1069 1071  553 1069 1071  543 544 1055  543 1055 1074  543 554 1074  544 1055 1076  544 555 1076  1055 1072 1076  555 1072 1076  1055 1072 1074  554 1072 1074  544 545 1056  544 1056 1077  544 555 1077  545 1056 1079  545 556 1079  1056 1075 1079  556 1075 1079  1056 1075 1077  555 1075 1077  545 546 1057  545 1057 1080  545 556 1080  546 1057 1082  546 557 1082  1057 1078 1082  557 1078 1082  1057 1078 1080  556 1078 1080  546 547 1058  546 1058 1083  546 557 1083  547 1058 1085  547 558 1085  1058 1081 1085  558 1081 1085  1058 1081 1083  557 1081 1083  547 548 1059  547 1059 1086  547 558 1086  548 1059 1088  548 559 1088  1059 1084 1088  559 1084 1088  1059 1084 1086  558 1084 1086  548 549 1060  548 1060 1089  548 559 1089  549 1060 1090  549 560 1090  1060 1087 1090  560 1087 1090  1060 1087 1089  559 1087 1089  </DataArray>
<DataArray  type="UInt32"  Name="offsets"  format="ascii">3 6 9 12 15 18 21 24 27 30 33 36 39 42 45 48 51 54 57 60 63 66 69 72 75 78 81 84 87 90 93 96 99 102 105 108 111 114 117 120 123 126 129 132 135 138 141 144 147 150 153 156 159 162 165 168 171 174 177 180 183 186 189 192 195 198 201 204 207 210 213 216 219 222 225 228 231 234 237 240 243 246 249 252 255 258 261 264 267 270 273 276 279 282 285 288 291 294 297 300 303 306 309 312 315 318 321 324 327 330 333 336 339 342 345 348 351 354 357 360 363 366 369 372 375 378 381 384 387 390 393 396 399 402 405 408 411 414 417 420 423 426 429 432 435 438 441 444 447 450 453 456 459 462 465 468 471 474 477 480 483 486 489 492 495 498 501 504 507 510 513 516 519 522 525 528 531 534 537 540 543 546 549 552 555 558 561 564 567 570 573 576 579 582 585 588 591 594 597 600 603 606 609 612 615 618 621 624 627 630 633 636 639 642 645 648 651 654 657 660 663 666 669 672 675 678 681 684 687 690 693 696 699 702 705 708 711 714 717 720 723 726 729 732 735 738 741 744 747 750 753 756 759 762 765 768 771 774 777 780 783 786 789 792 795 798 801 804 807 810 813 816 819 822 825 828 831 834 837 840 843 846 849 852 855 858 861 864 867 870 873 876 879 882 885 888 891 894 897 900 903 906 909 912 915 918 921 924 927 930 933 936 939 942 945 948 951 954 957 960 963 966 969 972 975 978 981 984 987 990 993 996 999 1002 1005 1008 1011 1014 1017 1020 1023 1026 1029 1032 1035 1038 1041 1044 1047 1050 1053 1056 1059 1062 1065 1068 1071 1074 1077 1080 1083 1086 1089 1092 1095 1098 1101 1104 1107 1110 1113 1116 1119 1122 1125 1128 1131 1134 1137 1140 1143 1146 1149 1152 1155 1158 1161 1164 1167 1170 1173 1176 1179 1182 1185 1188 1191 1194 1197 1200 1203 1206 1209 1212 1215 1218 1221 1224 1227 1230 1233 1236 1239 1242 1245 1248 1251 1254 1257 1260 1263 1266 1269 1272 1275 1278 1281 1284 1287 1290 1293 1296 1299 1302 1305 1308 1311 1314 1317 1320 1323 1326 1329 1332 1335 1338 1341 1344 1347 1350 1353 1356 1359 1362 1365 1368 1371 1374 1377 1380 1383 1386 1389 1392 1395 1398 1401 1404 1407 1410 1413 1416 1419 1422 1425 1428 1431 1434 1437 1440 1443 1446 1449 1452 1455 1458 1461 1464 1467 1470 1473 1476 1479 1482 1485 1488 1491 1494 1497 1500 1503 1506 1509 1512 1515 1518 1521 1524 1527 1530 1533 1536 1539 1542 1545 1548 1551 1554 1557 1560 1563 1566 1569 1572 1575 1578 1581 1584 1587 1590 1593 1596 1599 1602 1605 1608 1611 1614 1617 1620 1623 1626 1629 1632 1635 1638 1641 1644 1647 1650 1653 1656 1659 1662 1665 1668 1671 1674 1677 1680 1683 1686 1689 1692 1695 1698 1701 1704 1707 1710 1713 1716 1719 1722 1725 1728 1731 1734 1737 1740 1743 1746 1749 1752 1755 1758 1761 1764 1767 1770 1773 1776 1779 1782 1785 1788 1791 1794 1797 1800 1803 1806 1809 1812 1815 1818 1821 1824 1827 1830 1833 1836 1839 1842 1845 1848 1851 1854 1857 1860 1863 1866 1869 1872 1875 1878 1881 1884 1887 1890 1893 1896 1899 1902 1905 1908 1911 1914 1917 1920 1923 1926 1929 1932 1935 1938 1941 1944 1947 1950 1953 1956 1959 1962 1965 1968 1971 1974 1977 1980 1983 1986 1989 1992 1995 1998 2001 2004 2007 2010 2013 2016 2019 2022 2025 2028 2031 2034 2037 2040 2043 2046 2049 2052 2055 2058 2061 2064 2067 2070 2073 2076 2079 2082 2085 2088 2091 2094 2097 2100 2103 2106 2109 2112 2115 2118 2121 2124 2127 2130 2133 2136 2139 2142 2145 2148 2151 2154 2157 2160 2163 2166 2169 2172 2175 2178 2181 2184 2187 2190 2193 2196 2199 2202 2205 2208 2211 2214 2217 2220 2223 2226 2229 2232 2235 2238 2241 2244 2247 2250 2253 2256 2259 2262 2265 2268 2271 2274 2277 2280 2283 2286 2289 2292 2295 2298 2301 2304 2307 2310 2313 2316 2319 2322 2325 2328 2331 2334 2337 2340 2343 2346 2349 2352 2355 2358 2361 2364 2367 2370 2373 2376 2379 2382 2385 2388 2391 2394 2397 2400 2403 2406 2409 2412 2415 2418 2421 2424 2427 2430 2433 2436 2439 2442 2445 2448 2451 2454 2457 2460 2463 2466 2469 2472 2475 2478 2481 2484 2487 2490 2493 2496 2499 2502 2505 2508 2511 2514 2517 2520 2523 2526 2529 2532 2535 2538 2541 2544 2547 2550 2553 2556 2559 2562 2565 2568 2571 2574 2577 2580 2583 2586 2589 2592 2595 2598 2601 2604 2607 2610 2613 2616 2619 2622 2625 2628 2631 2634 2637 2640 2643 2646 2649 2652 2655 2658 2661 2664 2667 2670 2673 2676 2679 2682 2685 2688 2691 2694 2697 2700 2703 2706 2709 2712 2715 2718 2721 2724 2727 2730 2733 2736 2739 2742 2745 2748 2751 2754 2757 2760 2763 2766 2769 2772 2775 2778 2781 2784 2787 2790 2793 2796 2799 2802 2805 2808 2811 2814 2817 2820 2823 2826 2829 2832 2835 2838 2841 2844 2847 2850 2853 2856 2859 2862 2865 2868 2871 2874 2877 2880 2883 2886 2889 2892 2895 2898 2901 2904 2907 2910 2913 2916 2919 2922 2925 2928 2931 2934 2937 2940 2943 2946 2949 2952 2955 2958 2961 2964 2967 2970 2973 2976 2979 2982 2985 2988 2991 2994 2997 3000 3003 3006 3009 3012 3015 3018 3021 3024 3027 3030 3033 3036 3039 3042 3045 3048 3051 3054 3057 3060 3063 3066 3069 3072 3075 3078 3081 3084 3087 3090 3093 3096 3099 3102 3105 3108 3111 3114 3117 3120 3123 3126 3129 3132 3135 3138 3141 3144 3147 3150 3153 3156 3159 3162 3165 3168 3171 3174 3177 3180 3183 3186 3189 3192 3195 3198 3201 3204 3207 3210 3213 3216 3219 3222 3225 3228 3231 3234 3237 3240 3243 3246 3249 3252 3255 3258 3261 3264 3267 3270 3273 3276 3279 3282 3285 3288 3291 3294 3297 3300 3303 3306 3309 3312 3315 3318 3321 3324 3327 3330 3333 3336 3339 3342 3345 3348 3351 3354 3357 3360 3363 3366 3369 3372 3375 3378 3381 3384 3387 3390 3393 3396 3399 3402 3405 3408 3411 3414 3417 3420 3423 3426 3429 3432 3435 3438 3441 3444 3447 3450 3453 3456 3459 3462 3465 3468 3471 3474 3477 3480 3483 3486 3489 3492 3495 3498 3501 3504 3507 3510 3513 3516 3519 3522 3525 3528 3531 3534 3537 3540 3543 3546 3549 3552 3555 3558 3561 3564 3567 3570 3573 3576 3579 3582 3585 3588 3591 3594 3597 3600 3603 3606 3609 3612 3615 3618 3621 3624 3627 3630 3633 3636 3639 3642 3645 3648 3651 3654 3657 3660 3663 3666 3669 3672 3675 3678 3681 3684 3687 3690 3693 3696 3699 3702 3705 3708 3711 3714 3717 3720 3723 3726 3729 3732 3735 3738 3741 3744 3747 3750 3753 3756 3759 3762 3765 3768 3771 3774 3777 3780 3783 3786 3789 3792 3795 3798 3801 3804 3807 3810 3813 3816 3819 3822 3825 3828 3831 3834 3837 3840 3843 3846 3849 3852 3855 3858 3861 3864 3867 3870 3873 3876 3879 3882 3885 3888 3891 3894 3897 3900 3903 3906 3909 3912 3915 3918 3921 3924 3927 3930 3933 3936 3939 3942 3945 3948 3951 3954 3957 3960 3963 3966 3969 3972 3975 3978 3981 3984 3987 3990 3993 3996 3999 4002 4005 4008 4011 4014 4017 4020 4023 4026 4029 4032 4035 4038 4041 4044 4047 4050 4053 4056 4059 4062 4065 4068 4071 4074 4077 4080 4083 4086 4089 4092 4095 4098 4101 4104 4107 4110 4113 4116 4119 4122 4125 4128 4131 4134 4137 4140 4143 4146 4149 4152 4155 4158 4161 4164 4167 4170 4173 4176 4179 4182 4185 4188 4191 4194 4197 4200 4203 4206 4209 4212 4215 4218 4221 4224 4227 4230 4233 4236 4239 4242 4245 4248 4251 4254 4257 4260 4263 4266 4269 4272 4275 4278 4281 4284 4287 4290 4293 4296 4299 4302 4305 4308 4311 4314 4317 4320 4323 4326 4329 4332 4335 4338 4341 4344 4347 4350 4353 4356 4359 4362 4365 4368 4371 4374 4377 4380 4383 4386 4389 4392 4395 4398 4401 4404 4407 4410 4413 4416 4419 4422 4425 4428 4431 4434 4437 4440 4443 4446 4449 4452 4455 4458 4461 4464 4467 4470 4473 4476 4479 4482 4485 4488 4491 4494 4497 4500 4503 4506 4509 4512 4515 4518 4521 4524 4527 4530 4533 4536 4539 4542 4545 4548 4551 4554 4557 4560 4563 4566 4569 4572 4575 4578 4581 4584 4587 4590 4593 4596 4599 4602 4605 4608 4611 4614 4617 4620 4623 4626 4629 4632 4635 4638 4641 4644 4647 4650 4653 4656 4659 4662 4665 4668 4671 4674 4677 4680 4683 4686 4689 4692 4695 4698 4701 4704 4707 4710 4713 4716 4719 4722 4725 4728 4731 4734 4737 4740 4743 4746 4749 4752 4755 4758 4761 4764 4767 4770 4773 4776 4779 4782 4785 4788 4791 4794 4797 4800 4803 4806 4809 4812 4815 4818 4821 4824 4827 4830 4833 4836 4839 4842 4845 4848 4851 4854 4857 4860 4863 4866 4869 4872 4875 4878 4881 4884 4887 4890 4893 4896 4899 4902 4905 4908 4911 4914 4917 4920 4923 4926 4929 4932 4935 4938 4941 4944 4947 4950 4953 4956 4959 4962 4965 4968 4971 4974 4977 4980 4983 4986 4989 4992 4995 4998 5001 5004 5007 5010 5013 5016 5019 5022 5025 5028 5031 5034 5037 5040 5043 5046 5049 5052 5055 5058 5061 5064 5067 5070 5073 5076 5079 5082 5085 5088 5091 5094 5097 5100 5103 5106 5109 5112 5115 5118 5121 5124 5127 5130 5133 5136 5139 5142 5145 5148 5151 5154 5157 5160 5163 5166 5169 5172 5175 5178 5181 5184 5187 5190 5193 5196 5199 5202 5205 5208 5211 5214 5217 5220 5223 5226 5229 5232 5235 5238 5241 5244 5247 5250 5253 5256 5259 5262 5265 5268 5271 5274 5277 5280 5283 5286 5289 5292 5295 5298 5301 5304 5307 5310 5313 5316 5319 5322 5325 5328 5331 5334 5337 5340 5343 5346 5349 5352 5355 5358 5361 5364 5367 5370 5373 5376 5379 5382 5385 5388 5391 5394 5397 5400 5403 5406 5409 5412 5415 5418 5421 5424 5427 5430 5433 5436 5439 5442 5445 5448 5451 5454 5457 5460 5463 5466 5469 5472 5475 5478 5481 5484 5487 5490 5493 5496 5499 5502 5505 5508 5511 5514 5517 5520 5523 5526 5529 5532 5535 5538 5541 5544 5547 5550 5553 5556 5559 5562 5565 5568 5571 5574 5577 5580 5583 5586 5589 5592 5595 5598 5601 5604 5607 5610 5613 5616 5619 5622 5625 5628 5631 5634 5637 5640 5643 5646 5649 5652 5655 5658 5661 5664 5667 5670 5673 5676 5679 5682 5685 5688 5691 5694 5697 5700 5703 5706 5709 5712 5715 5718 5721 5724 5727 5730 5733 5736 5739 5742 5745 5748 5751 5754 5757 5760 5763 5766 5769 5772 5775 5778 5781 5784 5787 5790 5793 5796 5799 5802 5805 5808 5811 5814 5817 5820 5823 5826 5829 5832 5835 5838 5841 5844 5847 5850 5853 5856 5859 5862 5865 5868 5871 5874 5877 5880 5883 5886 5889 5892 5895 5898 5901 5904 5907 5910 5913 5916 5919 5922 5925 5928 5931 5934 5937 5940 5943 5946 5949 5952 5955 5958 5961 5964 5967 5970 5973 5976 5979 5982 5985 5988 5991 5994 5997 6000 6003 6006 6009 6012 6015 6018 6021 6024 6027 6030 6033 6036 6039 6042 6045 6048 6051 6054 6057 6060 6063 6066 6069 6072 6075 6078 6081 6084 6087 6090 6093 6096 6099 6102 6105 6108 6111 6114 6117 6120 6123 6126 6129 6132 6135 6138 6141 6144 6147 6150 </DataArray>
<DataArray  type="UInt8"  Name="types"  format="ascii">5 5 5 5 5 5 5 5 5 5 5 5 5 5 5 5 5 5 5 5 5 5 5 5 5 5 5 5 5 5 5 5 5 5 5 5 5 5 5 5 5 5 5 5 5 5 5 5 5 5 5 5 5 5 5 5 5 5 5 5 5 5 5 5 5 5 5 5 5 5 5 5 5 5 5 5 5 5 5 5 5 5 5 5 5 5 5 5 5 5 5 5 5 5 5 5 5 5 5 5 5 5 5 5 5 5 5 5 5 5 5 5 5 5 5 5 5 5 5 5 5 5 5 5 5 5 5 5 5 5 5 5 5 5 5 5 5 5 5 5 5 5 5 5 5 5 5 5 5 5 5 5 5 5 5 5 5 5 5 5 5 5 5 5 5 5 5 5 5 5 5 5 5 5 5 5 5 5 5 5 5 5 5 5 5 5 5 5 5 5 5 5 5 5 5 5 5 5 5 5 5 5 5 5 5 5 5 5 5 5 5 5 5 5 5 5 5 5 5 5 5 5 5 5 5 5 5 5 5 5 5 5 5 5 5 5 5 5 5 5 5 5 5 5 5 5 5 5 5 5 5 5 5 5 5 5 5 5 5 5 5 5 5 5 5 5 5 5 5 5 5 5 5 5 5 5 5 5 5 5 5 5 5 5 5 5 5 5 5 5 5 5 5 5 5 5 5 5 5 5 5 5 5 5 5 5 5 5 5 5 5 5 5 5 5 5 5 5 5 5 5 5 5 5 5 5 5 5 5 5 5 5 5 5 5 5 5 5 5 5 5 5 5 5 5 5 5 5 5 5 5 5 5 5 5 5 5 5 5 5 5 5 5 5 5 5 5 5 5 5 5 5 5 5 5 5 5 5 5 5 5 5 5 5 5 5 5 5 5 5 5 5 5 5 5 5 5 5 5 5 5 5 5 5 5 5 5 5 5 5 5 5 5 5 5 5 5 5 5 5 5 5 5 5 5 5 5 5 5 5 5 5 5 5 5 5 5 5 5 5 5 5 5 5 5 5 5 5 5 5 5 5 5 5 5 5 5 5 5 5 5 5 5 5 5 5 5 5 5 5 5 5 5 5 5 5 5 5 5 5 5 5 5 5 5 5 5 5 5 5 5 5 5 5 5 5 5 5 5 5 5 5 5 5 5 5 5 5 5 5 5 5 5 5 5 5 5 5 5 5 5 5 5 5 5 5 5 5 5 5 5 5 5 5 5 5 5 5 5 5 5 5 5 5 5 5 5 5 5 5 5 5 5 5 5 5 5 5 5 5 5 5 5 5 5 5 5 5 5 5 5 5 5 5 5 5 5 5 5 5 5 5 5 5 5 5 5 5 5 5 5 5 5 5 5 5 5 5 5 5 5 5 5 5 5 5 5 5 5 5 5 5 5 5 5 5 5 5 5 5 5 5 5 5 5 5 5 5 5 5 5 5 5 5 5 5 5 5 5 5 5 5 5 5 5 5 5 5 5 5 5 5 5 5 5 5 5 5 5 5 5 5 5 5 5 5 5 5 5 5 5 5 5 5 5 5 5 5 5 5 5 5 5 5 5 5 5 5 5 5 5 5 5 5 5 5 5 5 5 5 5 5 5 5 5 5 5 5 5 5 5 5 5 5 5 5 5 5 5 5 5 5 5 5 5 5 5 5 5 5 5 5 5 5 5 5 5 5 5 5 5 5 5 5 5 5 5 5 5 5 5 5 5 5 5 5 5 5 5 5 5 5 5 5 5 5 5 5 5 5 5 5 5 5 5 5 5 5 5 5 5 5 5 5 5 5 5 5 5 5 5 5 5 5 5 5 5 5 5 5 5 5 5 5 5 5 5 5 5 5 5 5 5 5 5 5 5 5 5 5 5 5 5 5 5 5 5 5 5 5 5 5 5 5 5 5 5 5 5 5 5 5 5 5 5 5 5 5 5 5 5 5 5 5 5 5 5 5 5 5 5 5 5 5 5 5 5 5 5 5 5 5 5 5 5 5 5 5 5 5 5 5 5 5 5 5 5 5 5 5 5 5 5 5 5 5 5 5 5 5 5 5 5 5 5 5 5 5 5 5 5 5 5 5 5 5 5 5 5 5 5 5 5 5 5 5 5 5 5 5 5 5 5 5 5 5 5 5 5 5 5 5 5 5 5 5 5 5 5 5 5 5 5 5 5 5 5 5 5 5 5 5 5 5 5 5 5 5 5 5 5 5 5 5 5 5 5 5 5 5 5 5 5 5 5 5 5 5 5 5 5 5 5 5 5 5 5 5 5 5 5 5 5 5 5 5 5 5 5 5 5 5 5 5 5 5 5 5 5 5 5 5 5 5 5 5 5 5 5 5 5 5 5 5 5 5 5 5 5 5 5 5 5 5 5 5 5 5 5 5 5 5 5 5 5 5 5 5 5 5 5 5 5 5 5 5 5 5 5 5 5 5 5 5 5 5 5 5 5 5 5 5 5 5 5 5 5 5 5 5 5 5 5 5 5 5 5 5 5 5 5 5 5 5 5 5 5 5 5 5 5 5 5 5 5 5 5 5 5 5 5 5 5 5 5 5 5 5 5 5 5 5 5 5 5 5 5 5 5 5 5 5 5 5 5 5 5 5 5 5 5 5 5 5 5 5 5 5 5 5 5 5 5 5 5 5 5 5 5 5 5 5 5 5 5 5 5 5 5 5 5 5 5 5 5 5 5 5 5 5 5 5 5 5 5 5 5 5 5 5 5 5 5 5 5 5 5 5 5 5 5 5 5 5 5 5 5 5 5 5 5 5 5 5 5 5 5 5 5 5 5 5 5 5 5 5 5 5 5 5 5 5 5 5 5 5 5 5 5 5 5 5 5 5 5 5 5 5 5 5 5 5 5 5 5 5 5 5 5 5 5 5 5 5 5 5 5 5 5 5 5 5 5 5 5 5 5 5 5 5 5 5 5 5 5 5 5 5 5 5 5 5 5 5 5 5 5 5 5 5 5 5 5 5 5 5 5 5 5 5 5 5 5 5 5 5 5 5 5 5 5 5 5 5 5 5 5 5 5 5 5 5 5 5 5 5 5 5 5 5 5 5 5 5 5 5 5 5 5 5 5 5 5 5 5 5 5 5 5 5 5 5 5 5 5 5 5 5 5 5 5 5 5 5 5 5 5 5 5 5 5 5 5 5 5 5 5 5 5 5 5 5 5 5 5 5 5 5 5 5 5 5 5 5 5 5 5 5 5 5 5 5 5 5 5 5 5 5 5 5 5 5 5 5 5 5 5 5 5 5 5 5 5 5 5 5 5 5 5 5 5 5 5 5 5 5 5 5 5 5 5 5 5 5 5 5 5 5 5 5 5 5 5 5 5 5 5 5 5 5 5 5 5 5 5 5 5 5 5 5 5 5 5 5 5 5 5 5 5 5 5 5 5 5 5 5 5 5 5 5 5 5 5 5 5 5 5 5 5 5 5 5 5 5 5 5 5 5 5 5 5 5 5 5 5 5 5 5 5 5 5 5 5 5 5 5 5 5 5 5 5 5 5 5 5 5 5 5 5 5 5 5 5 5 5 5 5 5 5 5 5 5 5 5 5 5 5 5 5 5 5 5 5 5 5 5 5 5 5 5 5 5 5 5 5 5 5 5 5 5 5 5 5 5 5 5 5 5 5 5 5 5 5 5 5 5 5 5 5 5 5 5 5 5 5 5 5 5 5 5 5 5 5 5 5 5 5 5 5 5 5 5 5 5 5 5 5 5 5 5 5 5 5 5 5 5 5 5 5 5 5 5 5 5 5 5 5 5 5 5 5 5 5 5 5 5 5 5 5 5 5 5 5 5 5 5 5 5 5 5 5 5 5 5 5 5 5 5 5 5 5 5 5 5 5 5 5 5 5 5 5 5 5 5 5 5 5 5 5 5 5 5 5 5 5 5 5 5 5 5 5 5 5 5 5 5 5 5 5 5 5 5 5 5 5 5 5 5 5 5 5 5 5 5 5 5 5 5 5 5 5 5 5 5 5 5 5 5 5 5 5 5 5 5 5 5 5 5 5 5 5 5 5 5 5 5 5 5 5 5 5 5 5 5 5 5 5 5 5 5 5 5 5 5 5 5 5 5 5 5 5 5 5 5 5 5 5 5 5 5 5 5 5 5 5 5 5 5 5 5 5 5 5 5 5 5 5 5 5 5 5 5 5 5 5 5 5 5 5 5 5 5 5 5 5 5 5 5 5 5 5 5 5 5 5 5 5 5 5 5 5 5 5 5 5 5 5 5 5 5 5 5 5 5 5 5 5 5 5 5 5 5 5 5 5 5 5 5 5 5 5 5 5 5 5 5 5 5 5 5 5 5 5 5 5 5 5 5 5 5 5 5 5 5 5 5 5 5 5 5 5 5 5 5 5 5 5 5 5 5 5 5 5 5 5 5 5 5 5 5 5 5 5 5 5 5 5 5 5 5 5 5 5 5 5 5 5 5 5 5 5 5 5 5 5 5 5 5 5 5 5 5 5 5 5 5 5 5 5 5 5 5 5 5 5 5 5 5 5 5 5 5 5 5 5 5 5 5 5 5 5 5 5 5 5 5 5 5 5 5 5 5 5 5 5 5 5 5 5 5 5 5 5 5 5 5 5 5 5 5 5 5 5 5 5 5 5 5 5 5 </DataArray>
</Cells>
<PointData  Scalars=" mean stress"> 
<DataArray  type="Float64"  Name=" mean stress"  format="ascii">8.3530229929367257e+06  8.3530229920555307e+06  8.3530229919540128e+06  8.3530229919436621e+06  8.3530229919452388e+06  8.3530229919450730e+06  8.3530229919453906e+06  8.3530229919438194e+06  8.3530229919539643e+06  8.3530229920555018e+06  8.3530229929368133e+06  8.3559451835969072e+06  8.3559451789569054e+06  8.3559451787298555e+06  8.3559451787369763e+06  8.3559451787360115e+06  8.3559451787363114e+06  8.3559451787362210e+06  8.3559451787372138e+06  8.3559451787298368e+06  8.3559451789569389e+06  8.3559451835971260e+06  8.3647089227786465e+06  8.3647089019423788e+06  8.3647089017573167e+06  8.3647089017551178e+06  8.3647089017558461e+06  8.3647089017558331e+06  8.3647089017560706e+06  8.3647089017554047e+06  8.3647089017573204e+06  8.3647089019424533e+06  8.3647089227789594e+06  8.3793056987281265e+06  8.3793056515175402e+06  8.3793056513293209e+06  8.3793056513298899e+06  8.3793056513299458e+06  8.3793056513301237e+06  8.3793056513301721e+06  8.3793056513302131e+06  8.3793056513293171e+06  8.3793056515176734e+06  8.3793056987284720e+06  8.3997213367241025e+06  8.3997212528099511e+06  8.3997212526283413e+06  8.3997212526283450e+06  8.3997212526286058e+06  8.3997212526287083e+06  8.3997212526288852e+06  8.3997212526286505e+06  8.3997212526283935e+06  8.3997212528101373e+06  8.3997213367245290e+06  8.4259360083691142e+06  8.4259358777836096e+06  8.4259358776084911e+06  8.4259358776086159e+06  8.4259358776088487e+06  8.4259358776090089e+06  8.4259358776091672e+06  8.4259358776089586e+06  8.4259358776085973e+06  8.4259358777838014e+06  8.4259360083696209e+06  8.4579242487798966e+06  8.4579240619123969e+06  8.4579240617454685e+06  8.4579240617455803e+06  8.4579240617457796e+06  8.4579240617459621e+06  8.4579240617460944e+06  8.4579240617459100e+06  8.4579240617455486e+06  8.4579240619126316e+06  8.4579242487803549e+06  8.4956549780303370e+06  8.4956547257150412e+06  8.4956547255573142e+06  8.4956547255574800e+06  8.4956547255577073e+06  8.4956547255579531e+06  8.4956547255580667e+06  8.4956547255579084e+06  8.4956547255575489e+06  8.4956547257152740e+06  8.4956549780309796e+06  8.5390915275057591e+06  8.5390912010844983e+06  8.5390912009372283e+06  8.5390912009373140e+06  8.5390912009375878e+06  8.5390912009378169e+06  8.5390912009378895e+06  8.5390912009376772e+06  8.5390912009373233e+06  8.5390912010847498e+06  8.5390915275062975e+06  8.5881916710545141e+06  8.5881912624383904e+06  8.5881912623025570e+06  8.5881912623025980e+06  8.5881912623029482e+06  8.5881912623031437e+06  8.5881912623031680e+06  8.5881912623029649e+06  8.5881912623027302e+06  8.5881912624387629e+06  8.5881916710551046e+06  8.6429076609793697e+06  8.6429071627014223e+06  8.6429071625776980e+06  8.6429071625776943e+06  8.6429071625780221e+06  8.6429071625782829e+06  8.6429071625785083e+06  8.6429071625780258e+06  8.6429071625777949e+06  8.6429071627017129e+06  8.6429076609799620e+06  8.7031862688737139e+06  8.7031856741343886e+06  8.7031856740233619e+06  8.7031856740235444e+06  8.7031856740237623e+06  8.7031856740240920e+06  8.7031856740241814e+06  8.7031856740238927e+06  8.7031856740234699e+06  8.7031856741345804e+06  8.7031862688745037e+06  8.7689688313223608e+06  8.7689681340272743e+06  8.7689681339296866e+06  8.7689681339297015e+06  8.7689681339300331e+06  8.7689681339302696e+06  8.7689681339304373e+06  8.7689681339300498e+06  8.7689681339298170e+06  8.7689681340275425e+06  8.7689688313229699e+06  8.8401913004794177e+06  8.8401904952708520e+06  8.8401904951869734e+06  8.8401904951871391e+06  8.8401904951872900e+06  8.8401904951876123e+06  8.8401904951877296e+06  8.8401904951873887e+06  8.8401904951870646e+06  8.8401904952712953e+06  8.8401913004801329e+06  8.9167842995432336e+06  8.9167833818209171e+06  8.9167833817508128e+06  8.9167833817509990e+06  8.9167833817511611e+06  8.9167833817514945e+06  8.9167833817516565e+06  8.9167833817512468e+06  8.9167833817509767e+06  8.9167833818211909e+06  8.9167842995439079e+06  8.9986731831346136e+06  8.9986721490704697e+06  8.9986721490145437e+06  8.9986721490146592e+06  8.9986721490147952e+06  8.9986721490152329e+06  8.9986721490152441e+06  8.9986721490149368e+06  8.9986721490146294e+06  8.9986721490708850e+06  8.9986731831350736e+06  9.0857781025971472e+06  9.0857769491434544e+06  9.0857769491012488e+06  9.0857769491014387e+06  9.0857769491016474e+06  9.0857769491020646e+06  9.0857769491020422e+06  9.0857769491016679e+06  9.0857769491013959e+06  9.0857769491436686e+06  9.0857781025978029e+06  9.1780140762270056e+06  9.1780128011147100e+06  9.1780128010862675e+06  9.1780128010864314e+06  9.1780128010866418e+06  9.1780128010868374e+06  9.1780128010871187e+06  9.1780128010868039e+06  9.1780128010863476e+06  9.1780128011148423e+06  9.1780140762275513e+06  9.2752910644379724e+06  9.2752896661700588e+06  9.2752896661550719e+06  9.2752896661553718e+06  9.2752896661555562e+06  9.2752896661558244e+06  9.2752896661557946e+06  9.2752896661555078e+06  9.2752896661551315e+06  9.2752896661704648e+06  9.2752910644384641e+06  9.3775140498658866e+06  9.3775125277046654e+06  9.3775125277029704e+06  9.3775125277028605e+06  9.3775125277031250e+06  9.3775125277032107e+06  9.3775125277035348e+06  9.3775125277032200e+06  9.3775125277029257e+06  9.3775125277048312e+06  9.3775140498665106e+06  9.4845831224117205e+06  9.4845814763589893e+06  9.4845814763694163e+06  9.4845814763696548e+06  9.4845814763698578e+06  9.4845814763701484e+06  9.4845814763703831e+06  9.4845814763700627e+06  9.4845814763695691e+06  9.4845814763591271e+06  9.4845831224123724e+06  9.5963935692144595e+06  9.5963917999876905e+06  9.5963918000103552e+06  9.5963918000101857e+06  9.5963918000106439e+06  9.5963918000107221e+06  9.5963918000108209e+06  9.5963918000105750e+06  9.5963918000104371e+06  9.5963917999878805e+06  9.5963935692148041e+06  9.7128359695449732e+06  9.7128340785486866e+06  9.7128340785826501e+06  9.7128340785823502e+06  9.7128340785829332e+06  9.7128340785828810e+06  9.7128340785831828e+06  9.7128340785830505e+06  9.7128340785827078e+06  9.7128340785489529e+06  9.7128359695452861e+06  9.8337962945994325e+06  9.8337942838924788e+06  9.8337942839367967e+06  9.8337942839370649e+06  9.8337942839370016e+06  9.8337942839373592e+06  9.8337942839374710e+06  9.8337942839373462e+06  9.8337942839370314e+06  9.8337942838923447e+06  9.8337962945997287e+06  9.9591560121672954e+06  9.9591538844266292e+06  9.9591538844812606e+06  9.9591538844811637e+06  9.9591538844813444e+06  9.9591538844816927e+06  9.9591538844816759e+06  9.9591538844814915e+06  9.9591538844813108e+06  9.9591538844269346e+06  9.9591560121676940e+06  1.0088792196141988e+07  1.0088789954624252e+07  1.0088789954688145e+07  1.0088789954688111e+07  1.0088789954688130e+07  1.0088789954688398e+07  1.0088789954688564e+07  1.0088789954688510e+07  1.0088789954688022e+07  1.0088789954624783e+07  1.0088792196142400e+07  1.0222577640828900e+07  1.0222575289329994e+07  1.0222575289402071e+07  1.0222575289402157e+07  1.0222575289402096e+07  1.0222575289402505e+07  1.0222575289402366e+07  1.0222575289402289e+07  1.0222575289402153e+07  1.0222575289330060e+07  1.0222577640829364e+07  1.0360380980004845e+07  1.0360378522816930e+07  1.0360378522896638e+07  1.0360378522896660e+07  1.0360378522896722e+07  1.0360378522896741e+07  1.0360378522896981e+07  1.0360378522896793e+07  1.0360378522896666e+07  1.0360378522817196e+07  1.0360380980005082e+07  1.0502066810664108e+07  1.0502064252533775e+07  1.0502064252620067e+07  1.0502064252620101e+07  1.0502064252620285e+07  1.0502064252620738e+07  1.0502064252620453e+07  1.0502064252620373e+07  1.0502064252619641e+07  1.0502064252534026e+07  1.0502066810664590e+07  1.0647495821388030e+07  1.0647493167469991e+07  1.0647493167561974e+07  1.0647493167562043e+07  1.0647493167562274e+07  1.0647493167562146e+07  1.0647493167562108e+07  1.0647493167562250e+07  1.0647493167562045e+07  1.0647493167470021e+07  1.0647495821388565e+07  1.0796524925246775e+07  1.0796522181061825e+07  1.0796522181158964e+07  1.0796522181158651e+07  1.0796522181159222e+07  1.0796522181158628e+07  1.0796522181159561e+07  1.0796522181158911e+07  1.0796522181158999e+07  1.0796522181061830e+07  1.0796524925247410e+07  1.0949007397157367e+07  1.0949004568548100e+07  1.0949004568649599e+07  1.0949004568649204e+07  1.0949004568649426e+07  1.0949004568649556e+07  1.0949004568650067e+07  1.0949004568649800e+07  1.0949004568649327e+07  1.0949004568547815e+07  1.0949007397157356e+07  1.1104793015585348e+07  1.1104790108672950e+07  1.1104790108777922e+07  1.1104790108777842e+07  1.1104790108777879e+07  1.1104790108778244e+07  1.1104790108778277e+07  1.1104790108778549e+07  1.1104790108777558e+07  1.1104790108673085e+07  1.1104793015585847e+07  1.1263728208482753e+07  1.1263725229624469e+07  1.1263725229731973e+07  1.1263725229732117e+07  1.1263725229732007e+07  1.1263725229731955e+07  1.1263725229732726e+07  1.1263725229732465e+07  1.1263725229732027e+07  1.1263725229624556e+07  1.1263728208483037e+07  1.1425656203336436e+07  1.1425653159084415e+07  1.1425653159194453e+07  1.1425653159194939e+07  1.1425653159194462e+07  1.1425653159194451e+07  1.1425653159194864e+07  1.1425653159194635e+07  1.1425653159194497e+07  1.1425653159084508e+07  1.1425656203337008e+07  1.1590417181196352e+07  1.1590414078258421e+07  1.1590414078369893e+07  1.1590414078369195e+07  1.1590414078369666e+07  1.1590414078369290e+07  1.1590414078369576e+07  1.1590414078370132e+07  1.1590414078369739e+07  1.1590414078258310e+07  1.1590417181196345e+07  1.1757848434531307e+07  1.1757845279732166e+07  1.1757845279844355e+07  1.1757845279843831e+07  1.1757845279844401e+07  1.1757845279843783e+07  1.1757845279844435e+07  1.1757845279844822e+07  1.1757845279844102e+07  1.1757845279732261e+07  1.1757848434531424e+07  1.1927784528763365e+07  1.1927781329008615e+07  1.1927781329120789e+07  1.1927781329120759e+07  1.1927781329120655e+07  1.1927781329120824e+07  1.1927781329121033e+07  1.1927781329121152e+07  1.1927781329121023e+07  1.1927781329008551e+07  1.1927784528763821e+07  1.2100057467306390e+07  1.2100054229545757e+07  1.2100054229657589e+07  1.2100054229657605e+07  1.2100054229657412e+07  1.2100054229657462e+07  1.2100054229657611e+07  1.2100054229658421e+07  1.2100054229658194e+07  1.2100054229546005e+07  1.2100057467306888e+07  1.2274496859929152e+07  1.2274493591125976e+07  1.2274493591236908e+07  1.2274493591236379e+07  1.2274493591236534e+07  1.2274493591236204e+07  1.2274493591236947e+07  1.2274493591237409e+07  1.2274493591236806e+07  1.2274493591125995e+07  1.2274496859929394e+07  1.2450930094264176e+07  1.2450926801361637e+07  1.2450926801471116e+07  1.2450926801470853e+07  1.2450926801471332e+07  1.2450926801471228e+07  1.2450926801471651e+07  1.2450926801471824e+07  1.2450926801471585e+07  1.2450926801362135e+07  1.2450930094264628e+07  1.2629182510249516e+07  1.2629179200144744e+07  1.2629179200252766e+07  1.2629179200252270e+07  1.2629179200252257e+07  1.2629179200252363e+07  1.2629179200252481e+07  1.2629179200252809e+07  1.2629179200252781e+07  1.2629179200145522e+07  1.2629182510250237e+07  1.2809077577306543e+07  1.2809074256821843e+07  1.2809074256925840e+07  1.2809074256926170e+07  1.2809074256925944e+07  1.2809074256926142e+07  1.2809074256926423e+07  1.2809074256926706e+07  1.2809074256926516e+07  1.2809074256821482e+07  1.2809077577307161e+07  1.2990437074033009e+07  1.2990433749881878e+07  1.2990433749988094e+07  1.2990433749985229e+07  1.2990433749986887e+07  1.2990433749985781e+07  1.2990433749986434e+07  1.2990433749985810e+07  1.2990433749988845e+07  1.2990433749881905e+07  1.2990437074033633e+07  1.3173081270155357e+07  1.3173077948968815e+07  1.3173077949043000e+07  1.3173077949059008e+07  1.3173077949050194e+07  1.3173077949054904e+07  1.3173077949050335e+07  1.3173077949058983e+07  1.3173077949044045e+07  1.3173077948969187e+07  1.3173081270156045e+07  1.3356829110708123e+07  1.3356825798719086e+07  1.3356825798963420e+07  1.3356825798880059e+07  1.3356825798917672e+07  1.3356825798900854e+07  1.3356825798917528e+07  1.3356825798879720e+07  1.3356825798964487e+07  1.3356825798719723e+07  1.3356829110709086e+07  1.3541498400983566e+07  1.3541495105803775e+07  1.3541495105021739e+07  1.3541495105462691e+07  1.3541495105296150e+07  1.3541495105350778e+07  1.3541495105295341e+07  1.3541495105462575e+07  1.3541495105022186e+07  1.3541495105804274e+07  1.3541498400984613e+07  1.3726905999188036e+07  1.3726902719045926e+07  1.3726902724164845e+07  1.3726902722039377e+07  1.3726902722648550e+07  1.3726902722508464e+07  1.3726902722647671e+07  1.3726902722038878e+07  1.3726902724165747e+07  1.3726902719046939e+07  1.3726905999189200e+07  1.3912867981196858e+07  1.3912864761819704e+07  1.3912864734375147e+07  1.3912864743089005e+07  1.3912864741707750e+07  1.3912864741941096e+07  1.3912864741706531e+07  1.3912864743088577e+07  1.3912864734376047e+07  1.3912864761820681e+07  1.3912867981198264e+07  1.4102621598566564e+07  1.4102618595010258e+07  1.4102618739617597e+07  1.4102618725767840e+07  1.4102618727373540e+07  1.4102618727143826e+07  1.4102618727372542e+07  1.4102618725766892e+07  1.4102618739618341e+07  1.4102618595011024e+07  1.4102621598567260e+07  1.4249102794316128e+07  1.4249081156269908e+07  1.4249081127756389e+07  1.4249081123943739e+07  1.4249081124155644e+07  1.4249081124134308e+07  1.4249081124156920e+07  1.4249081123942921e+07  1.4249081127756165e+07  1.4249081156271098e+07  1.4249102794315021e+07  8.3534880692630047e+06  8.3534880697621340e+06  8.3534880698438222e+06  8.3534880698446566e+06  8.3534880698446985e+06  8.3534880698447777e+06  8.3534880698448485e+06  8.3534880698439162e+06  8.3534880697621126e+06  8.3534880692630811e+06  8.3593319895543493e+06  8.3593319917572811e+06  8.3593319918590039e+06  8.3593319918580456e+06  8.3593319918582896e+06  8.3593319918583902e+06  8.3593319918583101e+06  8.3593319918591063e+06  8.3593319917572578e+06  8.3593319895545226e+06  8.3710141557531636e+06  8.3710141614634413e+06  8.3710141615572935e+06  8.3710141615577554e+06  8.3710141615578160e+06  8.3710141615578970e+06  8.3710141615579939e+06  8.3710141615574118e+06  8.3710141614634506e+06  8.3710141557534263e+06  8.3885232239978313e+06  8.3885232349704029e+06  8.3885232350628795e+06  8.3885232350628329e+06  8.3885232350630518e+06  8.3885232350631831e+06  8.3885232350632232e+06  8.3885232350630108e+06  8.3885232349704001e+06  8.3885232239981974e+06  8.4118421904909723e+06  8.4118422084047794e+06  8.4118422084940393e+06  8.4118422084941994e+06  8.4118422084943783e+06  8.4118422084945403e+06  8.4118422084945645e+06  8.4118422084942665e+06  8.4118422084048409e+06  8.4118421904912461e+06  8.4409484057340194e+06  8.4409484322221875e+06  8.4409484323078562e+06  8.4409484323079810e+06  8.4409484323082212e+06  8.4409484323084317e+06  8.4409484323084243e+06  8.4409484323080815e+06  8.4409484322223216e+06  8.4409484057344999e+06  8.4758135937158763e+06  8.4758136303415038e+06  8.4758136304228846e+06  8.4758136304230336e+06  8.4758136304232236e+06  8.4758136304233633e+06  8.4758136304234061e+06  8.4758136304231212e+06  8.4758136303416695e+06  8.4758135937163569e+06  8.5164038758227043e+06  8.5164039240706172e+06  8.5164039241468795e+06  8.5164039241470266e+06  8.5164039241472445e+06  8.5164039241474103e+06  8.5164039241474252e+06  8.5164039241471030e+06  8.5164039240706787e+06  8.5164038758231830e+06  8.5626797995788958e+06  8.5626798608438596e+06  8.5626798609149251e+06  8.5626798609151077e+06  8.5626798609154653e+06  8.5626798609155715e+06  8.5626798609154653e+06  8.5626798609152958e+06  8.5626798608442564e+06  8.5626797995794266e+06  8.6145963722095694e+06  8.6145964477877263e+06  8.6145964478527252e+06  8.6145964478527252e+06  8.6145964478529934e+06  8.6145964478533156e+06  8.6145964478532281e+06  8.6145964478526898e+06  8.6145964477875102e+06  8.6145963722101171e+06  8.6721030990415085e+06  8.6721031901208069e+06  8.6721031901797466e+06  8.6721031901799496e+06  8.6721031901802067e+06  8.6721031901804358e+06  8.6721031901802905e+06  8.6721031901800185e+06  8.6721031901212111e+06  8.6721030990420710e+06  8.7351440267618429e+06  8.7351441344170738e+06  8.7351441344693564e+06  8.7351441344695073e+06  8.7351441344697848e+06  8.7351441344699506e+06  8.7351441344699450e+06  8.7351441344696600e+06  8.7351441344171297e+06  8.7351440267624147e+06  8.8036577915450763e+06  8.8036579167301897e+06  8.8036579167759642e+06  8.8036579167760219e+06  8.8036579167762809e+06  8.8036579167767726e+06  8.8036579167765491e+06  8.8036579167759176e+06  8.8036579167303052e+06  8.8036577915457096e+06  8.8775776720677707e+06  8.8775778156126589e+06  8.8775778156511262e+06  8.8775778156513982e+06  8.8775778156517949e+06  8.8775778156519327e+06  8.8775778156518340e+06  8.8775778156515174e+06  8.8775778156127241e+06  8.8775776720680911e+06  8.9568316474229321e+06  8.9568318100303039e+06  8.9568318100621738e+06  8.9568318100622147e+06  8.9568318100624997e+06  8.9568318100629896e+06  8.9568318100628331e+06  8.9568318100622818e+06  8.9568318100304194e+06  8.9568316474234927e+06  9.0413424599504415e+06  9.0413426421933901e+06  9.0413426422183309e+06  9.0413426422184166e+06  9.0413426422185730e+06  9.0413426422188003e+06  9.0413426422187649e+06  9.0413426422183253e+06  9.0413426421934981e+06  9.0413424599509947e+06  9.1310276829903573e+06  9.1310278853126634e+06  9.1310278853304777e+06  9.1310278853305336e+06  9.1310278853308801e+06  9.1310278853310104e+06  9.1310278853307068e+06  9.1310278853306230e+06  9.1310278853128478e+06  9.1310276829910502e+06  9.2257997935721986e+06  9.2258000162875131e+06  9.2258000162986312e+06  9.2258000162988734e+06  9.2258000162989311e+06  9.2258000162992105e+06  9.2258000162994508e+06  9.2258000162989534e+06  9.2258000162877887e+06  9.2257997935724612e+06  9.3255662500407025e+06  9.3255664933366850e+06  9.3255664933410548e+06  9.3255664933408294e+06  9.3255664933410324e+06  9.3255664933415502e+06  9.3255664933416080e+06  9.3255664933411032e+06  9.3255664933365509e+06  9.3255662500412911e+06  9.4302295746251233e+06  9.4302298385631908e+06  9.4302298385610860e+06  9.4302298385614604e+06  9.4302298385617211e+06  9.4302298385617416e+06  9.4302298385616168e+06  9.4302298385611922e+06  9.4302298385632057e+06  9.4302295746254772e+06  9.5396874409407265e+06  9.5396877254616637e+06  9.5396877254535146e+06  9.5396877254537363e+06  9.5396877254539430e+06  9.5396877254540008e+06  9.5396877254539989e+06  9.5396877254537847e+06  9.5396877254617233e+06  9.5396874409411512e+06  9.6538327664196696e+06  9.6538330713479482e+06  9.6538330713337045e+06  9.6538330713337958e+06  9.6538330713341236e+06  9.6538330713343937e+06  9.6538330713344142e+06  9.6538330713341106e+06  9.6538330713482089e+06  9.6538327664199043e+06  9.7725538096542042e+06  9.7725541347013749e+06  9.7725541346820481e+06  9.7725541346821859e+06  9.7725541346822660e+06  9.7725541346823499e+06  9.7725541346824709e+06  9.7725541346822288e+06  9.7725541347014941e+06  9.7725538096546754e+06  9.8957342726272084e+06  9.8957346173994653e+06  9.8957346173746362e+06  9.8957346173749063e+06  9.8957346173752472e+06  9.8957346173757035e+06  9.8957346173755545e+06  9.8957346173751894e+06  9.8957346173997950e+06  9.8957342726274692e+06  1.0023253407804476e+07  1.0023253771809114e+07  1.0023253771779805e+07  1.0023253771779329e+07  1.0023253771779492e+07  1.0023253771779794e+07  1.0023253771779770e+07  1.0023253771779198e+07  1.0023253771808635e+07  1.0023253407804964e+07  1.0154986130049808e+07  1.0154986512698693e+07  1.0154986512665013e+07  1.0154986512665356e+07  1.0154986512665316e+07  1.0154986512665136e+07  1.0154986512665130e+07  1.0154986512665229e+07  1.0154986512699055e+07  1.0154986130050028e+07  1.0290803133315276e+07  1.0290803533935865e+07  1.0290803533898266e+07  1.0290803533898111e+07  1.0290803533898471e+07  1.0290803533898890e+07  1.0290803533898925e+07  1.0290803533898674e+07  1.0290803533936117e+07  1.0290803133315688e+07  1.0430571012054488e+07  1.0430571429894533e+07  1.0430571429853331e+07  1.0430571429853151e+07  1.0430571429853266e+07  1.0430571429853514e+07  1.0430571429853434e+07  1.0430571429853175e+07  1.0430571429894852e+07  1.0430571012055421e+07  1.0574152387291498e+07  1.0574152821526174e+07  1.0574152821481675e+07  1.0574152821481895e+07  1.0574152821481932e+07  1.0574152821481269e+07  1.0574152821481673e+07  1.0574152821481861e+07  1.0574152821525969e+07  1.0574152387291787e+07  1.0721406037268734e+07  1.0721406487008968e+07  1.0721406486961605e+07  1.0721406486961713e+07  1.0721406486962005e+07  1.0721406486962689e+07  1.0721406486962456e+07  1.0721406486961603e+07  1.0721406487008672e+07  1.0721406037268525e+07  1.0872187032599056e+07  1.0872187496898884e+07  1.0872187496849010e+07  1.0872187496849125e+07  1.0872187496849369e+07  1.0872187496849906e+07  1.0872187496850250e+07  1.0872187496849295e+07  1.0872187496898787e+07  1.0872187032599526e+07  1.1026346875807540e+07  1.1026347353670847e+07  1.1026347353619490e+07  1.1026347353618896e+07  1.1026347353618586e+07  1.1026347353618521e+07  1.1026347353618754e+07  1.1026347353618886e+07  1.1026347353670264e+07  1.1026346875807969e+07  1.1183733645175310e+07  1.1183734135561930e+07  1.1183734135508511e+07  1.1183734135508783e+07  1.1183734135508901e+07  1.1183734135508675e+07  1.1183734135508996e+07  1.1183734135508504e+07  1.1183734135561781e+07  1.1183733645175692e+07  1.1344192142756866e+07  1.1344192644591669e+07  1.1344192644537756e+07  1.1344192644538205e+07  1.1344192644537980e+07  1.1344192644538336e+07  1.1344192644538566e+07  1.1344192644538000e+07  1.1344192644591946e+07  1.1344192142757270e+07  1.1507564046442518e+07  1.1507564558622057e+07  1.1507564558566894e+07  1.1507564558566015e+07  1.1507564558565991e+07  1.1507564558566539e+07  1.1507564558566930e+07  1.1507564558566825e+07  1.1507564558621831e+07  1.1507564046442645e+07  1.1673688065927286e+07  1.1673688587323131e+07  1.1673688587267252e+07  1.1673688587267673e+07  1.1673688587267913e+07  1.1673688587267591e+07  1.1673688587268343e+07  1.1673688587267825e+07  1.1673688587322813e+07  1.1673688065927887e+07  1.1842400102438621e+07  1.1842400631906986e+07  1.1842400631851044e+07  1.1842400631850634e+07  1.1842400631850222e+07  1.1842400631850539e+07  1.1842400631851461e+07  1.1842400631851351e+07  1.1842400631907286e+07  1.1842400102439281e+07  1.2013533412048088e+07  1.2013533948434789e+07  1.2013533948378475e+07  1.2013533948378408e+07  1.2013533948378522e+07  1.2013533948378429e+07  1.2013533948378544e+07  1.2013533948379014e+07  1.2013533948434671e+07  1.2013533412047578e+07  1.2186918772411322e+07  1.2186919314556945e+07  1.2186919314501604e+07  1.2186919314501952e+07  1.2186919314501597e+07  1.2186919314500907e+07  1.2186919314501764e+07  1.2186919314502256e+07  1.2186919314557301e+07  1.2186918772411531e+07  1.2362384652739067e+07  1.2362385199485920e+07  1.2362385199430741e+07  1.2362385199430905e+07  1.2362385199430473e+07  1.2362385199430516e+07  1.2362385199431080e+07  1.2362385199431075e+07  1.2362385199486233e+07  1.2362384652739916e+07  1.2539757386806834e+07  1.2539757937000604e+07  1.2539757936946230e+07  1.2539757936945228e+07  1.2539757936945457e+07  1.2539757936945738e+07  1.2539757936945947e+07  1.2539757936946057e+07  1.2539757936999800e+07  1.2539757386806846e+07  1.2718861348803300e+07  1.2718861901300684e+07  1.2718861901247535e+07  1.2718861901248036e+07  1.2718861901247863e+07  1.2718861901248425e+07  1.2718861901249211e+07  1.2718861901248839e+07  1.2718861901301412e+07  1.2718861348804032e+07  1.2899519131807731e+07  1.2899519685481645e+07  1.2899519685429096e+07  1.2899519685429497e+07  1.2899519685429424e+07  1.2899519685429405e+07  1.2899519685429422e+07  1.2899519685430093e+07  1.2899519685482511e+07  1.2899519131808309e+07  1.3081551728660705e+07  1.3081552282396784e+07  1.3081552282348748e+07  1.3081552282348163e+07  1.3081552282348860e+07  1.3081552282348173e+07  1.3081552282347972e+07  1.3081552282349911e+07  1.3081552282398380e+07  1.3081551728662489e+07  1.3264778714998025e+07  1.3264779267735498e+07  1.3264779267673148e+07  1.3264779267681384e+07  1.3264779267676350e+07  1.3264779267677495e+07  1.3264779267681587e+07  1.3264779267673263e+07  1.3264779267735893e+07  1.3264778714997198e+07  1.3449018434383929e+07  1.3449018984880194e+07  1.3449018984925797e+07  1.3449018984869875e+07  1.3449018984890835e+07  1.3449018984889423e+07  1.3449018984868065e+07  1.3449018984925466e+07  1.3449018984880665e+07  1.3449018434385139e+07  1.3634088183760960e+07  1.3634088732338240e+07  1.3634088731676197e+07  1.3634088731987299e+07  1.3634088731896756e+07  1.3634088731897065e+07  1.3634088731987149e+07  1.3634088731676789e+07  1.3634088732339246e+07  1.3634088183761872e+07  1.3819804411609130e+07  1.3819804946634445e+07  1.3819804950563282e+07  1.3819804949108068e+07  1.3819804949277118e+07  1.3819804949275972e+07  1.3819804949106488e+07  1.3819804950562373e+07  1.3819804946633918e+07  1.3819804411609517e+07  1.4004271815260096e+07  1.4004272414298652e+07  1.4004272385409489e+07  1.4004272386632401e+07  1.4004272386573698e+07  1.4004272386572663e+07  1.4004272386630176e+07  1.4004272385410089e+07  1.4004272414301289e+07  1.4004271815261506e+07  1.4186625779600730e+07  1.4186625699302508e+07  1.4186625672832500e+07  1.4186625675080476e+07  1.4186625674818294e+07  1.4186625674818255e+07  1.4186625675079744e+07  1.4186625672832565e+07  1.4186625699303284e+07  1.4186625779602256e+07  1.4284999132621536e+07  1.4234437536720591e+07  1.4284999753995597e+07  1.4234443951418810e+07  1.4234444114501841e+07  1.4284999753345881e+07  1.4234444038683081e+07  1.4234444028743720e+07  1.4284999753671857e+07  1.4234444037541792e+07  1.4234444038461089e+07  1.4284999753648797e+07  1.4234444037556246e+07  1.4234444037454026e+07  1.4284999753647033e+07  1.4234444037578454e+07  1.4234444037577726e+07  1.4284999753670257e+07  1.4234444037454238e+07  1.4234444037555780e+07  1.4284999753344249e+07  1.4234444038459869e+07  1.4234444037541660e+07  1.4284999753995838e+07  1.4234444028743273e+07  1.4234444038684301e+07  1.4284999132620851e+07  1.4234444114504166e+07  1.4234443951420389e+07  1.4234437536719812e+07  </DataArray> 
</PointData> 
</Piece>
</UnstructuredGrid>
</VTKFile>