<?xml version="1.0"?>
<VTKFile type="UnstructuredGrid"  version="0.1"  >
<UnstructuredGrid>
<Piece  NumberOfPoints="1855" NumberOfCells="3532">
<Points>
<DataArray  type="Float64"  NumberOfComponents="3"  format="ascii">0 0 0  30 0 0  30 -10 0  0 -10 0  0.1391574078963744 0 0  0.2856388821882616 0 0  0.4398299073010886 0 0  0.6021362569539473 0 0  0.7729850389704483 0 0  0.9528258543586996 0 0  1.142131984380316 0 0  1.34140159760994 0 0  1.551159074717981 0 0  1.771956417032531 0 0  2.004374674080994 0 0  2.249025475789527 0 0  2.506552636773105 0 0  2.777633857742732 0 0  3.062982518028728 0 0  3.363349525995907 0 0  3.679525322337712 0 0  4.01234195575742 0 0  4.362675247811097 0 0  4.731447135329707 0 0  5.119628065610077 0 0  5.528239565804708 0 0  5.958356943167011 0 0  6.411112081475485 0 0  6.887696441559404 0 0  7.389364184530748 0 0  7.917435485335147 0 0  8.473300005202017 0 0  9.058420557070402 0 0  9.674336929103793 0 0  10.32266995225095 0 0  11.00512576896296 0 0  11.72350030646412 0 0  12.47968402994705 0 0  13.27566689579597 0 0  14.1135435963616 0 0  14.9955190732806 0 0  15.92391430904694 0 0  16.90117245730496 0 0  17.92986524844506 0 0  19.01269976086341 0 0  20.15252556282024 0 0  21.35234220269763 0 0  22.61530708683689 0 0  23.94474379751883 0 0  25.34415086349739 0 0  26.81721093579712 0 0  28.3678004819169 0 0  30 -1.111111111111111 0  30 -2.222222222222222 0  30 -3.333333333333333 0  30 -4.444444444444445 0  30 -5.555555555555555 0  30 -6.666666666666666 0  30 -7.777777777777777 0  30 -8.888888888888889 0  28.36780047917311 -10 0  26.8172109305839 -10 0  25.34415085606858 -10 0  23.94474378810899 -10 0  22.61530707566275 -10 0  21.3523421899591 -10 0  20.15252554870171 -10 0  19.01269974553473 -10 0  17.92986523206254 -10 0  16.90117244001232 -10 0  15.92391429097614 -10 0  14.99551905455266 -10 0  14.11354357708742 -10 0  13.27566687607703 -10 0  12.47968400987599 -10 0  11.72350028612546 -10 0  11.00512574843363 -10 0  10.32266993160086 -10 0  9.674336908396342 -10 0  9.058420536362949 -10 0  8.473299984546333 -10 0  7.917435464777824 -10 0  7.389364164113587 -10 0  6.887696420787165 -10 0  6.411112061446698 -10 0  5.95835692337857 -10 0  5.528239546282652 -10 0  5.119628046377237 -10 0  4.731447115907979 -10 0  4.362675229213632 -10 0  4.012341937260036 -10 0  3.679525304434552 -10 0  3.363349508456405 -10 0  3.062982500861274 -10 0  2.777633840953978 -10 0  2.506552620368097 -10 0  2.249025459771861 -10 0  2.004374658452946 -10 0  1.771956401795187 -10 0  1.551159059871345 -10 0  1.341401583153029 -10 0  1.142131970307521 -10 0  0.9528258406748833 -10 0  0.7729850256685147 -10 0  0.6021362439621285 -10 0  0.4398298947504031 -10 0  0.2856388700059078 -10 0  0.1391573960769001 -10 0  0 -9.855072463768115 0  0 -9.710144927536232 0  0 -9.565217391304348 0  0 -9.420289855072463 0  0 -9.27536231884058 0  0 -9.130434782608695 0  0 -8.985507246376812 0  0 -8.840579710144928 0  0 -8.695652173913043 0  0 -8.55072463768116 0  0 -8.405797101449275 0  0 -8.260869565217391 0  0 -8.115942028985508 0  0 -7.971014492753623 0  0 -7.826086956521739 0  0 -7.681159420289855 0  0 -7.536231884057971 0  0 -7.391304347826087 0  0 -7.246376811594203 0  0 -7.101449275362318 0  0 -6.956521739130435 0  0 -6.811594202898551 0  0 -6.666666666666667 0  0 -6.521739130434783 0  0 -6.376811594202898 0  0 -6.231884057971015 0  0 -6.086956521739131 0  0 -5.942028985507246 0  0 -5.797101449275362 0  0 -5.652173913043478 0  0 -5.507246376811594 0  0 -5.36231884057971 0  0 -5.217391304347826 0  0 -5.072463768115941 0  0 -4.927536231884058 0  0 -4.782608695652174 0  0 -4.637681159420289 0  0 -4.492753623188406 0  0 -4.347826086956522 0  0 -4.202898550724638 0  0 -4.057971014492754 0  0 -3.913043478260869 0  0 -3.768115942028985 0  0 -3.623188405797101 0  0 -3.478260869565217 0  0 -3.333333333333334 0  0 -3.188405797101449 0  0 -3.043478260869565 0  0 -2.898550724637681 0  0 -2.753623188405797 0  0 -2.608695652173912 0  0 -2.463768115942029 0  0 -2.318840579710145 0  0 -2.173913043478261 0  0 -2.028985507246377 0  0 -1.884057971014492 0  0 -1.739130434782609 0  0 -1.594202898550725 0  0 -1.44927536231884 0  0 -1.304347826086957 0  0 -1.159420289855072 0  0 -1.014492753623188 0  0 -0.8695652173913047 0  0 -0.72463768115942 0  0 -0.579710144927537 0  0 -0.4347826086956523 0  0 -0.2898550724637676 0  0 -0.1449275362318829 0  5.15859856094262 -4.976557621770688 0  2.816777084926057 -7.160262673925935 0  2.81677708460006 -2.839737326002783 0  2.227649803257325 -5.003121586636773 0  1.518662968975629 -8.46230852045241 0  1.518662969184829 -1.537691480152612 0  9.960740911025725 -5.055901393541221 0  1.491099662214591 -3.691833922963321 0  1.503675657181264 -6.345020369042368 0  5.319208041801049 -7.493850249937013 0  5.291109955459268 -2.489368743223226 0  1.096914507335763 -2.53623188405797 0  1.096914507253562 -7.463768115942029 0  1.089580194952752 -4.71277167923441 0  15.07565076110197 -5.047572991082069 0  7.501630508673601 -5.937500100385354 0  0.8894869418764504 -5.623930488933245 0  2.955144522453978 -1.440834296472408 0  2.955144521140721 -8.559165705576945 0  8.106603955004623 -2.748811534843258 0  3.662152539483591 -4.228178367024407 0  3.662181528265114 -5.771746159989156 0  0.8436558190317136 -0.8541050638451999 0  0.8436558075840921 -9.145894948342754 0  0.7854168197005933 -1.811594202898552 0  0.7894693398152999 -3.286543351392342 0  0.7854168196772591 -8.188405797101449 0  0.7854168196772591 -6.739130434782609 0  20.00078956016804 -4.999999999785771 0  0.7379120031523989 -3.977302749614766 0  6.584332478112232 -3.934875417052907 0  7.295091310194352 -7.969791332537982 0  9.811174303464586 -7.412814499648229 0  4.013376806449688 -2.206189431585293 0  4.013376806983409 -7.793810569017377 0  12.11177433894592 -2.818343737884045 0  2.591152707837148 -3.990098461753838 0  2.58990939378082 -6.025895074707176 0  25.43156400064585 -5.044446479916348 0  2.03262751726143 -2.282125834846944 0  2.032627517335952 -7.717874165160392 0  12.51865094522923 -6.491408052923457 0  0.598175343983641 -6.156971652625402 0  2.126700074935224 -0.8767654465386991 0  2.126700059112423 -9.123234559633019 0  6.617961838548696 -1.617756429129908 0  0.5903949564549755 -4.980060355019413 0  1.676697585305984 -5.547101897225158 0  4.773518305133987 -3.729331162566817 0  4.77931803486508 -6.231222307502165 0  4.878549698409591 -8.72048903376362 0  4.852580875634024 -1.222215410052823 0  0.5487847095754042 -2.675169258708207 0  0.545113423825768 -7.32369553390529 0  1.78738026998851 -4.400451872599477 0  1.68244194111824 -3.010100184333533 0  1.683984276238402 -7.018293626028473 0  9.998503440677371 -2.00585287985007 0  3.693061162502273 -3.243678395563028 0  3.694987482168253 -6.757603268814477 0  6.081763036485869 -5.83414381546261 0  0.5196640460586313 -1.350633211792632 0  0.5196640458460706 -8.649366789040087 0  3.84593363904758 -0.9906418103762418 0  3.845933620847308 -9.009358200471317 0  17.41551885287501 -3.057748733689079 0  17.30725517812527 -7.002961443761516 0  8.117698464370697 -4.451550942597151 0  0.4918476668493152 -0.4789811193757592 0  0.4918476560347713 -9.521018882514893 0  1.463770869328428 -0.6252343353791154 0  1.463770854281917 -9.374765668872765 0  0.5034132782032188 -4.464280853772128 0  3.138906271796685 -4.99999841599503 0  14.61209972381335 -2.388610981020637 0  6.208601124947327 -8.776231214192325 0  14.74910972998159 -7.542186851303819 0  2.243794246335625 -1.632184311040998 0  2.243794245689214 -8.367815689183566 0  0.4590235278399923 -5.431413993025926 0  0.4971508861448406 -2.209632053221267 0  0.4971508861368665 -7.790367946777407 0  0.4644363683211541 -3.560571347760519 0  6.478811279411406 -7.007392971062433 0  1.238895267772762 -4.173677632458826 0  1.293241773632479 -2.02256720952064 0  1.293241773542714 -7.977432790434841 0  0.4324740478030531 -0.942028985507247 0  0.4324740423701829 -9.057971014492754 0  2.117396640811705 -3.472968170680347 0  2.107095929630507 -6.531506384346077 0  8.087741545730886 -1.392783601483453 0  1.028911946384717 -1.352376108341404 0  1.028911946221715 -8.647623891551962 0  4.05691976296832 -4.991522392209158 0  11.51826881314265 -8.065248940008736 0  1.618560396201739 -4.958056164503666 0  2.701984523487646 -2.141781914603403 0  2.70198452396172 -7.858218085853512 0  2.843615645746219 -9.289121726447632 0  2.843615661334342 -0.7108782798429658 0  8.678774612240533 -8.488146490452822 0  6.487906449371135 -2.667543558824978 0  8.369190916679937 -7.129867754908394 0  11.80978191929258 -4.655775487536958 0  0.3792065166453504 -3.113833531412848 0  0.4134714637263563 -6.58827691137208 0  9.551050695080825 -3.49648183875815 0  1.083867845277057 -6.036251777836495 0  0.3756430921870901 -1.80381664325008 0  0.3756430921689482 -8.196183356748573 0  3.113073783220456 -3.503408140759125 0  3.113391383189963 -6.496678880796299 0  22.62850736315072 -3.277987336300344 0  22.59385352108348 -6.800312122582239 0  0.3777114402537816 -4.137047872695438 0  0.9196816123347897 -0.4281025456111269 0  0.9196815944880363 -9.571897460530383 0  0.4052043328723194 -5.827814332459883 0  8.865857694874787 -5.767686953139113 0  1.200388325130726 -5.182186034620629 0  5.65297436943758 -4.325500846767599 0  1.200079167961391 -3.009849046583253 0  1.20883344838 -7.021823297793294 0  1.057642414577487 -3.660996704809145 0  10.88812987788297 -6.333458225047037 0  4.493502926606794 -2.839780197438185 0  4.485862892033458 -7.147606077919463 0  0.3631651408878085 -7.003529808558233 0  1.946748828463205 -6.049056369468467 0  6.918750162798794 -4.993796052442676 0  3.351203216022585 -1.980935554775394 0  3.351203216441711 -8.019064445907297 0  2.281892243515294 -2.856654416292082 0  2.281892243715877 -7.143345583598931 0  5.811143619672087 -0.9953286820321026 0  2.695713766833098 -4.565354125099452 0  2.698172168139827 -5.435483248292925 0  19.86166219288896 -2.493475492328429 0  19.83739102036415 -7.594404063416508 0  5.662510751367357 -3.348027146528644 0  13.48048413630137 -4.058329501323019 0  27.02259785314272 -2.729408730334939 0  27.09225894662547 -7.278342034338463 0  1.398242440169694 -8.921641504052964 0  1.398242439892089 -1.078358497493205 0  1.516571037638219 -2.391597770785946 0  1.51657103760969 -7.608402229195162 0  11.24731576309777 -1.427723981096649 0  0.8862600828829894 -2.197515130218719 0  0.8862600828589695 -7.802484869798085 0  5.649567819918916 -6.672863091231004 0  4.357280695100023 -5.657241195654107 0  3.490284742602274 -2.599615379670092 0  3.490284743050324 -7.400384620497622 0  13.15370168468514 -1.59772917314083 0  4.350834777191507 -4.369776007133686 0  13.25590703576943 -8.279878702803007 0  1.759981481413 -1.927720539522933 0  1.759981481387022 -8.072279460525724 0  1.122093953592019 -6.446129177400969 0  1.909081241906076 -3.93099310245946 0  7.184008219776929 -8.992242598477443 0  1.871580048470044 -0.4408301364033047 0  1.871580032573092 -9.559169864598148 0  2.175874527940312 -5.541185569274957 0  9.937201358785281 -8.751957311068763 0  0.3640928670553141 -4.760124300845709 0  0.8667793503275991 -4.342577943812737 0  6.060658544074641 -7.899921496744209 0  17.09744672436133 -4.988982436511721 0  4.701436035435901 -1.936173953798396 0  4.692290732110264 -8.062337538950016 0  0.2901111682183952 -6.299741229419833 0  1.291476078158961 -5.72064944402686 0  0.2991931413870592 -5.143105751974078 0  4.463870469417531 -9.265449236479627 0  4.518579883249174 -0.6391944335730564 0  10.97095772976467 -3.654826254081916 0  5.531166849743244 -1.722327389227824 0  2.360642981150134 -0.4328124407947085 0  2.360642963550074 -9.567187562313627 0  1.816381056151982 -1.20407666506109 0  1.816381052381843 -8.795923334562314 0  7.318415825455205 -2.335408519681901 0  4.183275987419812 -8.520034699319481 0  4.19411665898585 -1.472108077084728 0  9.210296301460261 -1.150987826163416 0  0.2940739920381752 -3.85756617764305 0  0.8493135073160047 -2.90980208155097 0  0.8403389993056649 -7.068391734144622 0  7.28612218868165 -3.274590043000111 0  3.402130545185717 -0.5939727168846831 0  3.402130527025896 -9.406027287452693 0  0.3214696640245727 -2.466855425772444 0  0.2976527750008184 -7.537682762976184 0  5.812914339670423 -5.054776213944955 0  5.272645674171729 -5.71090377203835 0  0.2938034851551716 -2.866137815550822 0  0.2703522112684666 -0.3132197172119238 0  0.2703522066202453 -9.686780286658724 0  2.595804674620265 -6.672863801119993 0  2.595383689619473 -3.326348099044815 0  3.076437298574367 -4.115470420181518 0  3.06160294113598 -5.892067315144549 0  5.526504199168258 -9.207724517846671 0  27.82741546658789 -5.000000000005665 0  16.194173465301 -1.760849697024402 0  2.248916187455233 -4.329193234838489 0  7.442371108131256 -6.913107232482919 0  2.41985371242939 -8.718788940810459 0  2.419853714779599 -1.281211065515056 0  4.069575976303394 -6.159496654598628 0  5.397978140188155 -8.179078366022209 0  4.068037293747748 -3.838795386379166 0  1.116001204436778 -1.705249497436705 0  1.116001204328207 -8.29475050265798 0  0.7255184107056181 -5.265268267382469 0  1.410333157850889 -6.680930665752042 0  16.31765150215881 -8.313184478156511 0  0.7125667832632558 -5.856898321620027 0  1.275456232944833 -3.375243496462829 0  0.7415272029932467 -4.710854504435065 0  7.138530313045082 -0.8526641225963951 0  3.454829180451677 -1.422674841727256 0  3.454829176669111 -8.577325161203513 0  14.02905160694435 -6.221889022577222 0  24.91628413289888 -2.402501018362297 0  24.73371987799362 -7.582492797172316 0  0.6433331240517894 -8.90732309469238 0  0.6433331262654924 -1.092676909342522 0  0.9055038998999088 -5.004581323805422 0  0.2688063848898636 -1.538253260551916 0  0.253071819001832 -1.238133648955555 0  0.2530718187324261 -8.761866350754552 0  0.2688063848699844 -8.461746739438562 0  15.76634293315768 -3.573179403208663 0  1.377024462238804 -4.495991836445224 0  0.2833241484394229 -0.6921360571381641 0  0.2833241439698337 -9.307863940710874 0  8.725353965692349 -2.037275333048936 0  0.2704882814805671 -7.25335762711777 0  5.192783365008637 -0.612279836240468 0  0.2657868447473639 -4.422214965625238 0  9.783846412503985 -6.383515162285658 0  1.708609037431597 -3.40692611686896 0  1.215547847828521 -9.656586079013085 0  1.215547864905734 -0.3434139256910163 0  0.6316562064448519 -6.448913666916498 0  15.8812342665147 -6.353300717573348 0  1.581314126082709 -5.928583594495548 0  0.7432896462018839 -3.681224386384893 0  9.132499608865565 -4.462839630267094 0  13.06971181019283 -5.304571413899184 0  1.903156246864668 -5.219670369550086 0  0.6949228022216012 -0.2877660563525506 0  0.6949227882407421 -9.712233946563146 0  6.773328010000569 -6.270838628144309 0  8.627346236584318 -3.675655618611051 0  0.2606342033900155 -3.355601146678121 0  0.6618137958318826 -2.429504585265784 0  0.6618137958267809 -7.570495414727167 0  0.245179519040553 -2.087510184635406 0  0.2451795190362009 -7.912489815366079 0  1.594979784034258 -4.063759416987732 0  5.006320631886679 -4.335931308194636 0  1.406098401909173 -2.743901803049722 0  1.398332629985729 -7.260088299954385 0  1.074035715630229 -0.6688678131623229 0  1.074035700478031 -9.331132198380448 0  10.9932145962186 -2.554410267815368 0  3.627475149098629 -5.26657652322984 0  3.62450642117467 -4.731724096678332 0  0.2573552607480512 -6.047337903320896 0  1.948459242862144 -4.752154814278256 0  0.7790792642312852 -1.526798110581725 0  0.7790792641984119 -8.473201889631079 0  0.2311619988532936 -5.605279968177387 0  8.051201320857563 -9.1318815679304 0  1.740369841641785 -9.175925454445633 0  1.740369854938253 -0.8240745452866891 0  7.261725357530611 -4.199300003366181 0  2.377851976638064 -2.489531806932316 0  2.377851976856427 -7.510468193078651 0  3.170142806634265 -1.012554874745409 0  3.170142796791204 -8.987445128491714 0  2.673473541191093 -5.011898120257545 0  10.12493885145202 -0.9324460942185953 0  1.857883278796503 -2.663003103757352 0  1.857883278884003 -7.336996896251989 0  18.35675878030207 -1.639190879254619 0  18.34622689887485 -8.358260963888272 0  5.940627218917729 -2.258952729985252 0  8.110171651209342 -5.278583529084449 0  0.8740315083085157 -6.280581391653173 0  1.749672904267312 -6.558211852332613 0  21.98953700010874 -4.9905838125933 0  2.299338246935759 -2.023942413739142 0  2.299338246847398 -7.976057586340171 0  1.022422137139273 -3.937406775189555 0  3.236374378493874 -3.022576258034301 0  3.236374378941408 -6.977423741961803 0  3.568725139961799 -6.297680801884699 0  2.645500284006218 -1.737656959924821 0  2.645500283058908 -8.262343041066087 0  3.967497713726356 -2.718544431484656 0  3.967450442677297 -7.281560687583738 0  18.52352088413111 -5.82007659492144 0  5.087785043167282 -3.137166488776502 0  1.878500997050455 -1.587742290218928 0  1.878500996536371 -8.412257709783137 0  13.36578411043257 -2.821804522780697 0  3.564487291783667 -3.70535411301147 0  0.6079879184597861 -0.7540589474709281 0  0.6079879076426487 -9.245941056504147 0  3.031286426556573 -2.409218065379333 0  3.031286426989219 -7.59078193499423 0  6.273210808653259 -4.546203645781086 0  5.098612364508917 -6.863897884459814 0  8.12866042505537 -7.813273326210421 0  1.05327314738237 -8.952673777986988 0  1.053273154901539 -1.047326230083707 0  1.563423696284424 -0.3214243682516527 0  1.563423679430619 -9.678575634275727 0  3.941214131537803 -0.4989967332014675 0  3.941214113728039 -9.501003271691339 0  10.80301173225718 -7.377511607203233 0  0.2416515728286974 -6.770175945526034 0  14.5801324417827 -8.72831199617681 0  0.5949749645494418 -4.242276874864273 0  11.00404679351767 -9.038026799906621 0  18.67127685574319 -4.077960670036065 0  10.9725509484225 -5.31058219416748 0  1.504002147702026 -5.261665276926755 0  14.3885358178307 -1.258960275735274 0  0.5875960908414442 -2.944522166409817 0  6.573841646511154 -9.324541150706366 0  1.998970163942285 -3.140005179419454 0  2.005393426470782 -6.866554721156861 0  6.481828896863901 -0.6706990791206877 0  3.786177336806245 -8.217248250709508 0  3.786177336738312 -1.782751753385224 0  4.275210977494725 -3.289037307547599 0  4.273394399430668 -6.710638988036552 0  6.679001361122673 -8.285046374469026 0  3.138000993374346 -5.427953586087147 0  3.132330583301272 -4.576956331155954 0  5.893186207115338 -7.23699160919673 0  1.022412312888013 -1.955801889251254 0  1.022412312828139 -8.044198110749498 0  0.5873912100009715 -1.966986015934565 0  0.5873912099834175 -8.033013984063368 0  1.314623298571561 -4.912572214793715 0  8.214029075469615 -6.271102810553694 0  0.5891802896871088 -5.637725675716362 0  12.25722901860549 -8.947040840899875 0  0.2101661420576058 -0.942028985507247 0  0.2101661392649046 -9.057971014492754 0  0.5523487368001661 -1.622659836274835 0  0.5523487366899964 -8.377340163752054 0  0.5413319803037311 -3.336319923200157 0  0.2248855875138336 -5.355367662673249 0  0.8097016066470708 -2.659452950896628 0  0.8094791645407113 -7.343912164515888 0  0.6393273386355443 -6.95165801587011 0  21.40191259695188 -8.045503644953639 0  21.40191260788757 -1.954496357851979 0  1.072772071705572 -6.745761366710632 0  8.920708957049483 -7.657804914320182 0  8.936775160888784 -2.898640853512668 0  0.2154143620053244 -3.605694098506526 0  5.037653176554089 -9.436006198980262 0  7.889678287731879 -3.706556036574745 0  13.51722487215103 -7.208482125746043 0  7.334341785991183 -1.508480584122343 0  6.259432703084169 -3.346145382470451 0  0.5379674228521392 -3.834489942641463 0  1.172483285479004 -2.18649879657984 0  1.172483285430586 -7.813501203414006 0  4.543803476565527 -4.777693585385998 0  0.2067653194063332 -4.936791259032209 0  9.143540805830668 -9.157560508923137 0  1.145902387693532 -4.436204829493768 0  2.160566393178218 -8.696702197416347 0  2.160566395652239 -1.303297804119324 0  2.247778811745121 -6.201686812873411 0  6.75300165490779 -7.605678124171568 0  12.43320394453901 -7.543563317430918 0  1.030737605269712 -3.37652633101952 0  7.844333087559736 -0.6899466253950557 0  2.253737734511583 -3.792817997816449 0  14.75458815856312 -3.763357157472994 0  2.502069446330703 -0.813156144841872 0  2.502069432539033 -9.186843865744549 0  20.97563932004147 -6.311233563151613 0  20.98409652478869 -3.634082788900993 0  1.308884891736211 -3.90446635462288 0  6.789331049586096 -5.646789492474811 0  8.986914315011798 -6.610600456902211 0  28.50258488494976 -1.585935355238317 0  28.50258488443128 -8.414064644809214 0  4.86150564046493 -5.506324194833436 0  1.808658902674408 -3.645648895106479 0  12.44689939970133 -3.908340387136771 0  3.112055767076116 -0.4506186850175959 0  3.112055749558806 -9.549381316071759 0  1.153149964458267 -5.455925764969286 0  0.2233816467193499 -3.110760321664705 0  10.12424457218043 -4.125830802948143 0  10.15808461027497 -2.876420933624721 0  0.5195812783896905 -5.218674136402363 0  0.1988464629724493 -6.503266982652555 0  1.302771433183807 -8.634432678353999 0  1.302771433475254 -1.365567324023758 0  7.703058275369559 -8.531374336546723 0  11.84574101069637 -5.879924789296126 0  7.985535586485801 -2.103162746679822 0  11.65469776420311 -6.94889120486252 0  2.271857099371978 -5.894301854031312 0  2.791522136974148 -3.645698608119399 0  2.791823199970286 -6.354248950130288 0  1.493381854616704 -1.811418231654695 0  1.493381854537931 -8.188581768310502 0  2.98862765159604 -8.057310903646057 0  2.988627651650736 -1.942689097109014 0  6.213906064743417 -6.347549195392184 0  5.357440629381959 -3.759723000034172 0  2.41564232494698 -4.675135471177562 0  4.452434276723865 -2.392897507602903 0  4.452434277677291 -7.607102493252145 0  23.28002544217786 -1.588406414662127 0  23.46255272649331 -8.316802955353866 0  12.36218582344484 -0.9840225698087295 0  0.2064921640817872 -2.634907597137905 0  7.635936460364465 -4.984410334938543 0  0.7255178924963577 -0.5451910998909524 0  0.7255178779895743 -9.454808905966186 0  0.204902137919202 -7.022380428066805 0  0.2113551719732456 -1.810588527475692 0  0.2113551719621078 -8.189411472523396 0  1.485643998559931 -3.095730972741895 0  0.9786406168711395 -5.763098893786436 0  4.286900947414249 -1.104127563189024 0  4.322121315071945 -8.910266126100588 0  8.600718624822164 -0.6995142805600896 0  0.2217072916323044 -2.347997616807457 0  0.215155959973238 -7.663743802702314 0  2.820465916078147 -1.070426146911862 0  2.820465916090827 -8.929573852360967 0  2.704800947610277 -9.650099209977455 0  2.70480096610506 -0.3499007902796052 0  0.4751307058163068 -1.156186668944022 0  0.4751307052024405 -8.843813332196214 0  1.819100706726589 -6.232639557975395 0  5.4767149611547 -6.26948621875428 0  5.775154643605379 -2.811157875397478 0  1.563101971196538 -2.139254538638744 0  1.563101971174033 -7.860745461342565 0  3.943918093008133 -4.4239646292531 0  3.913937457095773 -5.532580699170911 0  0.5184020332298829 -0.2175253738763132 0  0.518402020429928 -9.782474629732466 0  0.1957509043368759 -0.4665881978254127 0  0.1957509044396808 -9.533411803975067 0  0.2007871488909494 -4.613221898208071 0  1.665466742408267 -4.641640146368843 0  6.570725695047967 -2.15874290108523 0  4.50024995209332 -5.249081543105643 0  0.2111171019588163 -3.985429402580376 0  1.074754367168078 -2.785066123162849 0  1.08888840950631 -7.192719989423858 0  6.137578056088621 -1.53500452415795 0  0.1935589241342299 -5.855492618735624 0  0.4979757909422542 -6.78652898558087 0  1.912073597006707 -5.678539803229185 0  1.405627374790809 -6.024868188999627 0  0.9797407424154336 -3.098004490452872 0  0.1981588374793581 -4.230519896560351 0  10.5698538095573 -8.156080313566584 0  5.952743082015642 -3.802942886825174 0  2.412501348458228 -5.304138276362442 0  5.669331234043856 -0.5411275838454124 0  2.179530995420095 -0.2595505031567926 0  2.179530978759118 -9.74044949807652 0  6.035707315089773 -9.47216900486902 0  5.446295706436064 -8.799380674586402 0  2.330803861636651 -6.832457751121254 0  2.330803861498936 -3.167542248609872 0  8.761644853575621 -5.110267198006659 0  23.22300426466913 -4.298193001724155 0  0.551916927897846 -4.713842436010457 0  5.46916459989211 -1.243624741727265 0  5.350513380438041 -4.607378950648275 0  1.050152095221531 -0.2359025790690108 0  1.05015207950018 -9.764097422725573 0  10.28715743821279 -5.746183907700809 0  3.647219057877981 -2.266574323624778 0  3.647219058424874 -7.733425676780098 0  6.382628754982672 -5.218858875184322 0  12.36097579135527 -2.139145749052603 0  2.073659987359411 -1.907722748904618 0  2.073659987412899 -8.092277250975943 0  0.8956678516053973 -6.537419591766465 0  2.575923533258841 -5.679999137704708 0  9.489820239767194 -8.406848000037069 0  1.359419523837822 -9.209006696878854 0  1.359419537485286 -0.7909933093216042 0  15.36465091817085 -0.9650740933179254 0  3.200000520619103 -8.432476879594823 0  3.200000521903609 -1.567523121990626 0  28.48448163880086 -3.805262745078484 0  28.48448163867129 -6.194737254970494 0  0.4377710513953552 -6.02550854969905 0  13.98038845353711 -4.847568970605792 0  17.33161661115349 -1.055986717297325 0  2.020452540458214 -4.189486421844973 0  0.4767566601199302 -6.404316311503623 0  23.92140392758606 -6.379714757772684 0  11.00995558917365 -0.826998673226238 0  10.83457467040132 -4.510182638084849 0  5.096546156604703 -1.748442336003851 0  2.730227952309404 -4.240980322361601 0  0.7756458591019992 -4.525434673188424 0  26.35576633523985 -4.090973836832023 0  26.3559491177489 -6.178012922613185 0  2.921438039888663 -3.153600113848666 0  2.921438040256566 -6.846399886061596 0  0.7047381477386416 -3.406848085712759 0  18.93996705190792 -6.880478888358745 0  3.23086266807719 -6.169566509712013 0  0.9334653392733685 -5.292311774772251 0  2.454471376717676 -6.481987822437215 0  4.962680865987199 -2.518591370441893 0  4.964617344836711 -7.454070637942141 0  0.1642923295163445 -1.376811594202896 0  0.1642923295148631 -8.623188405797102 0  3.226963332784775 -3.830206746769447 0  2.126546659929723 -2.595274930010939 0  2.126546660107973 -7.404725069981893 0  3.883247535992808 -8.618700464702775 0  3.897737142857496 -1.39221191908534 0  0.84396550467455 -8.694549463357186 0  0.8439655059643023 -1.305450538631578 0  1.60958087966516 -1.25803971363402 0  1.609580878084801 -8.741960286250713 0  0.8165888135043389 -5.978297419754352 0  1.44243214305186 -6.92747920329843 0  0.1902582855473334 -9.805475061013244 0  0.1902582904385071 -0.1945249416541301 0  0.9148095674521119 -2.414868721716761 0  0.9148095674223917 -7.585131278303871 0  0.5262081452389236 -7.119004184635211 0  2.45306644999355 -3.514797630180189 0  0.2016498463497296 -7.411345254027531 0  7.612101543663679 -7.506808097108717 0  26.21350371723114 -1.51478037005688 0  26.21350371615678 -8.485219628904812 0  19.54292727830541 -1.217778191316349 0  19.50190043824871 -8.773047105208313 0  10.60338447407255 -1.75212043509184 0  3.389369685450601 -3.368536850137244 0  3.391103646884494 -6.632730292438849 0  17.36456394628154 -8.981781731358279 0  15.45141249475513 -9.12117573720926 0  9.65543871735273 -5.533593047702904 0  6.012463409035732 -8.300322875894768 0  0.9283354321533164 -0.6491112829448928 0  0.9283354179091745 -9.350888727245621 0  18.6451790846879 -2.902977951052897 0  1.339050773209458 -2.416068628096773 0  1.339050773171964 -7.583931371875297 0  2.462916952308666 -2.936501428666528 0  2.46291695254896 -7.063498571180922 0  0.6739430818881651 -2.118904087728803 0  0.6739430818760308 -7.881095912274488 0  2.712647511188431 -2.519893408330804 0  2.712647511574943 -7.480106591767308 0  0.4400528667923638 -4.313383953966683 0  4.338098128581104 -8.045817453555218 0  4.338098129847031 -1.954182554461307 0  4.402508538169339 -3.811274679447166 0  4.397113763674808 -6.180338037353792 0  1.468361631383216 -4.272678271615669 0  0.4391129563711047 -0.7528254231936309 0  0.439112947147219 -9.247174575123259 0  0.6443772192063424 -5.462888136932752 0  1.278146083463247 -3.611337892259067 0  7.133066100898521 -5.481111669423073 0  1.167919845788047 -6.245469002150386 0  6.975403032661802 -2.822190881402827 0  0.6166292366694197 -3.092176824728154 0  0.8815936129783513 -4.12367175655181 0  9.491466273666292 -2.355837743600929 0  16.03300624086933 -4.668835351941696 0  4.776565692363734 -8.41908406688497 0  4.805075234732453 -1.553965046804977 0  2.149784954639088 -0.6155787958422518 0  2.1497849374912 -9.384421207551584 0  0.4954341871871009 -2.391101420752962 0  0.5238513709485169 -7.62378869596644 0  0.4212237973231225 -4.929670734253073 0  1.366809625288187 -5.436940995382336 0  5.435206309100167 -5.250238491994565 0  15.88866630292004 -7.389253848225042 0  7.593908189310879 -9.449948722347861 0  1.769309992336026 -2.275147884475775 0  1.769309992376849 -7.724852115514619 0  0.9270947079290064 -6.883194405639783 0  2.036877342710936 -4.511931509848598 0  5.643128202803693 -7.802144790503447 0  6.778023950875365 -4.434713156323117 0  0.5126006235613616 -4.011115659889257 0  0.3911873079006085 -2.009175972337697 0  0.3911873078894086 -7.990824027665985 0  4.813447260904432 -0.4432523377033251 0  13.66126878502562 -9.142805923054665 0  4.27166675971344 -9.568872462999353 0  4.270885923589471 -0.3807367594690856 0  4.807844700926228 -3.325670140502154 0  0.1484489524760217 -2.977586175785325 0  0.6245050815866158 -9.059890222552959 0  0.6245050863246089 -0.9401097799079015 0  14.9170131882587 -6.450007192125444 0  0.9533598584726857 -4.537155219454273 0  4.800308264240584 -6.657527729315563 0  5.466736244893987 -7.067433008250331 0  0.8963222142741039 -1.063688408751334 0  0.8963222081003135 -8.936311605048367 0  0.8559836121205393 -3.838960457682931 0  0.3801828312890159 -4.582393481105981 0  7.022949106459281 -3.725752890471184 0  10.33871204893963 -6.901264712469291 0  0.5744255705596277 -6.651458423412963 0  2.24824934239339 -4.115071308771243 0  0.9023704138544471 -1.645476619621179 0  0.902370413798474 -8.354523380381046 0  5.729888473535237 -5.5224877208362 0  0.1809571807824693 -4.787036905259972 0  19.81658782828791 -5.854151823766646 0  15.67164402133761 -2.659537519875945 0  0.1618237051434974 -6.177847175232758 0  8.676343854931098 -9.493711995708036 0  1.655518563907128 -6.747094803643685 0  3.542622897295379 -0.9018122771506336 0  3.542622880556982 -9.098187729998191 0  0.1439399048177048 -1.087063948028709 0  0.1439399039077696 -8.912936051733848 0  6.689846020094215 -8.807491348376614 0  3.13345252201132 -2.73740079535882 0  3.133452522372856 -7.262599204687614 0  0.1443624925330713 -0.8057105322863771 0  0.144362489818068 -9.194289466597265 0  16.80877213893983 -3.926691542433806 0  2.928039420996628 -4.780706196543376 0  2.915435658159796 -5.202073919429136 0  1.688913335017071 -9.402693824868489 0  1.68891334884372 -0.5973061740590966 0  1.611265341583028 -1.04243750526792 0  1.611265332905068 -8.957562496368483 0  0.3827376645830451 -2.635236309542678 0  2.492677667921683 -8.480863693537888 0  2.492677668395199 -1.519136310975879 0  1.329291386163245 -6.440195253497096 0  0.8486675401499255 -2.00008028755126 0  0.8486675401216957 -7.999919712455616 0  0.136966307623446 -1.673775884043799 0  0.1369663076118357 -8.326224115953188 0  3.930782370228087 -4.097652136759304 0  3.959386155772073 -5.862102922978804 0  1.916634766842169 -2.911997245833416 0  1.917206687784994 -7.085416124035786 0  0.8743527047957365 -9.85193968479275 0  0.8743527180505861 -0.1480603168525061 0  7.587610810656746 -2.807535494385246 0  11.66321710157573 -3.986724754185846 0  6.924643202208356 -6.82138510940921 0  2.811872379891 -3.917286921592692 0  2.808887599862441 -6.099504613832614 0  5.109929529982701 -7.85050305839802 0  4.123541184205227 -9.211161085603853 0  4.159682116535375 -0.8019652261125687 0  8.672399010310645 -1.481190495523649 0  1.779108623470648 -0.2428270231647556 0  1.779108606911741 -9.757172977399426 0  5.820474138129043 -6.14257024944781 0  4.93081912913863 -5.891156312566678 0  5.121122175467953 -2.138615928511029 0  3.561636959163717 -2.93621706755041 0  3.561636959688768 -7.063782932554377 0  1.101911544753083 -4.920381425341861 0  1.293368249859107 -8.44674574867868 0  1.293368249857195 -1.553254251925372 0  13.53895654686927 -0.8376261072533628 0  1.62634383769096 -2.75012613629908 0  1.626343837674368 -7.249873863809965 0  9.241960686004393 -7.114293799545213 0  9.640197197752933 -0.692217506333952 0  0.1436221800088813 -5.144927536231884 0  0.1335249920419628 -1.948764238174587 0  0.1335249920378434 -8.051235761826142 0  0.3256016290565817 -1.072528366348263 0  0.3256016274336826 -8.927471632555811 0  7.163982556920395 -8.472807049509033 0  3.521437424166784 -0.2879306797301089 0  3.521437406445459 -9.71206932236823 0  16.98797044006342 -6.090946878691965 0  6.845679603271375 -3.270877737759085 0  6.437186364710426 -1.148694084157215 0  0.1645092927977991 -3.47523257531212 0  1.518297249818378 -5.736243557057159 0  1.862860122372837 -4.982241971792361 0  1.129808502857987 -3.209418377246563 0  1.254682861700976 -5.92328237573359 0  7.029490086604585 -9.5078989808963 0  11.66028855450116 -9.270455700199459 0  10.35933027250123 -9.289526717867743 0  5.02833244902342 -8.210376682260481 0  9.262916836580697 -1.834860165513008 0  0.401134165388962 -5.656721797247036 0  3.35501651879383 -4.308547827352236 0  3.321365405762545 -5.662419520417436 0  1.910299276916895 -2.058479160497203 0  1.910299276980886 -7.941520839488444 0  19.83331537905264 -3.745281433616531 0  5.13471212337312 -9.044188526094199 0  1.095700595122199 -5.625603740650876 0  1.676539845597386 -3.835429050171236 0  0.7043762568616039 -7.208249926967093 0  0.7615660170760599 -4.902002416504927 0  1.307187437848183 -4.699440153260893 0  0.1368595462371083 -3.247248872283929 0  1.120168046216119 -0.4855793648171707 0  1.120168025384023 -9.514420644450652 0  0.4339558003138784 -2.940475805370566 0  0.4549758890179891 -6.19146358204496 0  13.93156745408095 -7.782739112964861 0  0.3653464369371591 -7.3788343263734 0  7.722431378775866 -6.418482682443751 0  0.1597047980038191 -2.477313967550741 0  0.7466174734044824 -5.07382772402887 0  0.7845803967077476 -3.097060249407942 0  4.850140052757974 -0.81935124591089 0  3.095943653062401 -0.712177190984101 0  3.095943637766197 -9.287822812288422 0  0.7073344463107354 -2.791092102980496 0  0.1317657576093705 -7.15509943054956 0  0.8812320921527412 -3.542743509779658 0  5.531022492733065 -2.136483526077877 0  6.063790898939482 -6.825854600363208 0  6.126901887118207 -0.3802842389156966 0  1.059292135284801 -9.13788644823604 0  1.059292147207621 -0.862113561768739 0  13.78032773180953 -2.116081620053753 0  1.920482158301752 -5.445187347345488 0  0.1332843820049572 -3.849636098475565 0  4.65824472068644 -9.607458889570847 0  11.41236496005551 -3.144978252920827 0  1.367954341476166 -2.234082339792664 0  1.367954341432833 -7.765917660188528 0  0.1558804163615495 -6.645845858161742 0  0.1276227639990228 -5.73111228481104 0  2.841634219761627 -5.666577565447088 0  0.9159988464860955 -4.820208186489688 0  0.5746193376387794 -1.792515715404871 0  0.5746193375869471 -8.207484284588389 0  5.379820718226856 -9.611381922357884 0  0.4120948616222648 -1.661652804013755 0  0.4120948615799271 -8.338347195981644 0  3.347827419145879 -2.268466514725244 0  3.347827419561165 -7.731533485753386 0  0.4063136409544867 -3.732423656554945 0  7.052427859824357 -1.922197859629935 0  1.550826061297759 -9.197783497606906 0  1.550826075014029 -0.8022165049831926 0  13.1980886661189 -6.083438706817954 0  9.387330913959337 -4.991220229695117 0  0.3536135023566658 -0.4433016332391544 0  0.3536134981114039 -9.556698373555008 0  6.325049218248145 -7.437999464176397 0  0.1293589852407671 -6.894554230297171 0  3.216090535010332 -8.69092488920209 0  3.21609053667172 -1.309075114410605 0  1.661028938821829 -1.707010532243139 0  1.661028938597221 -8.292989467989328 0  0.3461386410714251 -1.376811594202885 0  0.3461386410645737 -8.623188405797098 0  1.475806299973335 -3.49597004406357 0  1.36292643662134 -2.953301759712271 0  2.159044615293958 -5.238631947591095 0  16.60927828723098 -2.587279518391474 0  12.55445879579255 -4.628840086112645 0  12.2560107913485 -5.300847217738879 0  0.3455279102636766 -0.1484362511096675 0  0.3455279001957905 -9.851563751835208 0  1.059355095544696 -4.253943752670539 0  7.154135204499539 -7.324000054197251 0  0.154800956773574 -6.354042780201601 0  3.839378605320356 -6.461197190762327 0  0.3811003508808692 -5.285148768143282 0  0.1503367465093142 -7.547230939296449 0  3.834166715963732 -3.533552421880985 0  0.1174543901470688 -0.3462297455729031 0  0.1174543889264381 -9.653770255618312 0  4.678945578153954 -8.970315519996204 0  17.24808873000271 -7.921190863274853 0  1.420102364753021 -0.2000625670245624 0  1.420102348964065 -9.799937434139245 0  24.80505105168499 -3.8262040001383 0  28.96071746129595 -5 0  2.273111477309875 -8.90834252078834 0  2.27311148397362 -1.091657486149141 0  1.897205827501534 -0.977358621859123 0  1.897205815739145 -9.022641380705357 0  2.366347202770175 -0.216749663305853 0  2.366347184603811 -9.783250337996723 0  1.952153626340147 -3.33170692123846 0  1.698511921229402 -8.563226853744853 0  1.698511922238485 -1.43677314660104 0  4.206591061246208 -2.988135345772832 0  1.785057921099268 -4.170324754571904 0  4.205329400326548 -7.010718915339901 0  9.999084248956105 -8.127199133077672 0  8.656099684494338 -4.173431781338051 0  5.829698994493354 -4.655162047273739 0  10.17030995450752 -3.523301005218852 0  3.47486086575911 -4.999989164915806 0  2.472446840334364 -4.193006460746769 0  1.237371936636229 -6.814544274951599 0  1.694097055463919 -5.146061718057811 0  0.1481654282302589 -2.788933660509093 0  2.262672035900465 -2.276606603675236 0  2.262672036040668 -7.723393396271836 0  16.34310555219545 -0.7563821015279304 0  2.61283810654821 -9.380545801073627 0  2.612838124209787 -0.6194542048160026 0  5.449622265163505 -2.916833144130255 0  0.5809717628328208 -3.700230293251817 0  1.305637097250113 -1.809401738896239 0  1.30563709711876 -8.190598261114818 0  2.048375064349571 -6.287695722804675 0  7.237528480920239 -6.382826362392231 0  7.754138624181026 -3.275248082299131 0  5.822659895527801 -8.884243503934197 0  0.5517062341452323 -5.879236584360025 0  16.393804281273 -9.26480525521167 0  0.3659504372365472 -2.292685104982873 0  0.3699222024849522 -7.690728326092898 0  4.637595368798562 -4.108723546720741 0  0.7421283292046752 -5.688959037145062 0  17.71360295597005 -4.327641960233615 0  2.044780591577709 -3.708852303735328 0  6.919538162210213 -0.460224077820067 0  2.415668302434883 -1.810567635565796 0  2.415668301556272 -8.189432364606306 0  1.55221744283612 -6.525208971430522 0  6.213192216056452 -1.956193091764378 0  4.256226428927881 -4.681139640121058 0  1.723580426805055 -5.77941672817456 0  1.510348072679779 -4.805073884403096 0  24.49644939945119 -8.954899711875422 0  24.48349405805634 -1.158746203218412 0  15.75713641493927 -5.482578279979687 0  11.60389695675083 -2.225918643245057 0  15.25935242270002 -8.038923750215623 0  1.36657388108846 -5.106092461718437 0  0.3441030576397921 -3.995036052662257 0  0.5379093115573728 -9.646742320669496 0  0.5379093313030978 -0.3532576819176336 0  11.69095629605671 -0.7989621376438407 0  1.933785941122647 -9.318751896000904 0  1.933785956053706 -0.6812481060445696 0  0.6633937798640872 -8.744222543244193 0  0.6633937803641849 -1.255777459285413 0  7.971384390203957 -5.832688392110366 0  25.09240366713468 -6.289218941571926 0  17.32451817534644 -2.074230440310162 0  9.757693907667043 -9.385962417249406 0  25.93744259316374 -2.938094464106261 0  14.25682983730009 -6.971243810739177 0  2.539022380275279 -2.689625423925373 0  2.539022380567305 -7.310374576047575 0  1.172540699820345 -3.811805211309423 0  0.7136103320716884 -6.288915599526769 0  5.462370994970765 -0.880989236926407 0  5.354527559539072 -0.2960311533814091 0  9.102359366150694 -3.864865355921902 0  0.1409926957520042 -5.459303556654032 0  1.805149091143264 -3.168260581403911 0  1.057949262129293 -1.532303969941904 0  1.057949262130863 -8.467696030002912 0  1.584413483966642 -6.163734729724317 0  12.85754219224871 -9.388329325637299 0  4.898389243565154 -4.701190308330184 0  13.99469211433997 -3.411727218371914 0  7.438807142405409 -0.5745893073448833 0  20.68269835197658 -9.042653430756067 0  20.73250982928579 -0.9716260493282505 0  3.471831200495085 -1.736397923976849 0  3.471831200351492 -8.263602078124201 0  1.411717992765251 -0.427511042117926 0  1.41171797795654 -9.572488962550842 0  6.87928550978811 -1.233318789178861 0  3.765303270873188 -4.995492806278623 0  23.66910048995976 -2.745109338174416 0  1.204934324738042 -6.619505932007148 0  0.4210411109016903 -2.772967670981985 0  0.3051266470224316 -0.8491234558798046 0  0.3051266422312988 -9.150876542936608 0  22.95348250201587 -5.62065683698405 0  7.645845022207833 -1.08562218856458 0  8.195162563929928 -8.375676961159423 0  2.904896237270036 -7.862041631661691 0  2.904896236956352 -2.137958368983789 0  6.023071791691446 -4.18121375262747 0  0.1585179500085854 -4.420150512056447 0  12.65379754621428 -3.182253326661374 0  0.136761528081859 -5.994323868849724 0  12.31914126474807 -8.21304507781073 0  0.1162289117800448 -1.235343788562567 0  0.116228911576453 -8.764656211283164 0  15.09763546280201 -1.815833575622818 0  1.203005871964912 -8.789823691656832 0  1.203005874634185 -1.210176309954865 0  1.94642815722403 -1.376893696564024 0  1.946428155316299 -8.623106304139082 0  4.484957265587004 -6.522561178097367 0  2.472423578375249 -4.434522977805452 0  9.529792303784458 -2.934970084078486 0  7.978365926134559 -6.890621634072271 0  9.738528447113648 -1.360807804476941 0  15.23096043022739 -4.292814377755719 0  0.3708803011489152 -7.145529834592041 0  2.84021616157246 -3.357037063401084 0  2.8404958218917 -6.642916449046036 0  5.091341372295121 -3.532098633183965 0  0.1427263801969385 -0.6163168694973447 0  0.1427263794534106 -9.383683130377626 0  0.4456142303637236 -5.083863875273466 0  0.3968890107912699 -3.271008654485682 0  0.5380011171692356 -4.848130193719461 0  2.923943346126734 -1.717601337326954 0  2.923943345280426 -8.282398664423642 0  14.55258284826952 -5.702424271690273 0  9.299275271694182 -6.062413583328331 0  4.486760583873579 -3.467010812892708 0  2.721940550032123 -8.702509022004332 0  2.721940551692276 -1.297490982171294 0  0.6546062718628995 -6.00512946813687 0  0.1212334877966441 -1.51666750382791 0  0.1212334877940933 -8.483332496171043 0  0.711787807646953 -1.664199682295196 0  0.7117878075137298 -8.335800317648429 0  9.744685309965176 -4.535968082136316 0  9.101979203737505 -0.5663386000572679 0  0.3093232203069132 -3.488824120240225 0  4.535953557870739 -1.324283845996932 0  3.6780714183645 -0.6817062818797917 0  3.678071397911896 -9.318293725555659 0  8.582354605742918 -2.552810193587774 0  2.923190055138804 -4.424627758048657 0  5.139385071007029 -7.186027794060495 0  2.195790655804135 -4.754279800457391 0  6.152810333827066 -2.942438830566086 0  0.8406909037691008 -5.42810289517292 0  12.72399211930135 -2.610524396180796 0  29.11744855766218 -2.725167052773163 0  29.11744855747384 -7.27483294719302 0  1.005506240096421 -7.049496830817406 0  10.71903626147046 -3.076950444297804 0  1.917545746923144 -6.682084552952473 0  2.464481831089362 -4.900389016889489 0  0.2848010245889565 -1.917163998589272 0  0.2848010245808599 -8.082836001415249 0  6.989975683894652 -5.946702875411449 0  3.791538438150692 -2.512520306436051 0  3.791437401133097 -7.487503007587637 0  4.225205115983194 -5.359426114420998 0  5.048762655311215 -3.965810486803463 0  3.321278517047293 -5.225833465466691 0  3.321262585669148 -4.774167865641072 0  0.2951473128259998 -3.004656971913842 0  0.6639636552589963 -0.1238150409456589 0  0.6639636420755615 -9.876184961048267 0  0.5752258003674431 -2.525787829293508 0  0.5752258003584245 -7.474212170701719 0  3.437253580464526 -4.020668111536816 0  7.523524973881403 -1.976249251885251 0  0.4410695566787783 -1.503391419289525 0  0.4410695566354477 -8.496608580767235 0  1.034698796074025 -2.122029973684887 0  1.034698796045369 -7.877970026323048 0  1.265095259522809 -9.413648766621241 0  1.265095274894625 -0.5863512438320626 0  5.096763384535194 -6.480547689213605 0  3.430419832429102 -5.976184483540124 0  1.397010854782128 -4.073395189972754 0  0.1135973023322077 -3.69440751992719 0  4.286563585220803 -2.659697272947317 0  2.437760533755425 -5.529107070910989 0  4.296249183156959 -7.329263826276834 0  16.51330244915464 -6.890991469152865 0  1.361287468232256 -7.097533037418637 0  0.6205143706180092 -1.510405619878988 0  0.6205143705797198 -8.489594380614495 0  0.0948886483382605 -2.097109957025767 0  0.09488864833530997 -7.902890042974676 0  3.693800193205076 -8.777211682559674 0  3.695870146725854 -1.224347236709845 0  0.689480415402981 -3.827962605893169 0  1.196154018297989 -2.685934305778608 0  1.200974542098098 -7.317917554876455 0  4.626758629473308 -5.842377998335146 0  3.74947996527856 -3.904033422765358 0  8.578656539509645 -3.125756384846863 0  3.754944539675305 -6.088068035625623 0  5.167402390179824 -1.033170320531107 0  4.862641527684737 -2.886832567414297 0  11.33107211174199 -7.477141911279439 0  0.1205531402688003 -4.123463490199417 0  2.343510028950671 -0.7093063169112055 0  2.343510012627872 -9.290693689362779 0  20.75727331486158 -2.75299918857874 0  20.82948375973382 -7.322515239710413 0  12.86416083097517 -0.5730434291812578 0  6.528832279371034 -6.620186158581168 0  0.7775211923805472 -9.290341824059375 0  0.7775212057782959 -0.709658186132506 0  8.14243776288474 -9.615108457197259 0  8.217055065550024 -0.4237751682040924 0  1.286560858140419 -4.342066526021718 0  6.504969953288878 -5.961150999648916 0  1.574946137861012 -4.452209897384963 0  0.4070994471848906 -0.5929569959780672 0  0.4070994409516437 -9.407043003838865 0  25.97344306967049 -7.230444243381882 0  27.42159987729808 -1.20765175063377 0  27.44919082555482 -8.748738440439084 0  0.1164068150262558 -5.292827534219088 0  1.704367231657169 -2.527449837188936 0  1.704367231661669 -7.472550162831336 0  1.019544964992907 -2.933051178426664 0  23.57024616239601 -7.304267099533151 0  1.202802455874082 -9.854909233653785 0  1.202802471040005 -0.1450907678397382 0  2.96499137744231 -0.2563686389433855 0  2.964991359812224 -9.743631361399014 0  0.6543918317984581 -4.3840172099712 0  10.47933529887006 -2.385522114458836 0  0.2787442128182871 -5.754361685971651 0  1.035572466315525 -5.12610201543851 0  1.470202657214207 -3.886779738321548 0  8.321307137392246 -4.855919901422172 0  22.22868527754338 -1.05053185424184 0  22.21009282015225 -8.94562545351382 0  0.6173773445835806 -2.286145431960187 0  0.6230607813357292 -7.716832591383072 0  0.78885742666567 -0.4249186434635224 0  0.7888574131176167 -9.575081361914753 0  0.3421450165514255 -6.448750310529897 0  4.523072048688604 -8.639333241922451 0  14.62576237432062 -4.383717635771837 0  0.9728730777758781 -8.808822959415004 0  0.9728730802285206 -1.191177045623387 0  8.563533150391903 -8.016105445415745 0  7.735585452582801 -8.078767563386043 0  0.4247738142050856 -3.411094485272231 0  0.9682334382608069 -2.621174473750183 0  0.9709094559548923 -7.376683110345622 0  10.33464455462825 -7.633859892110901 0  2.517594715246696 -3.739792005611313 0  7.631808641046533 -8.973852475575544 0  6.898574242948907 -2.37602880900879 0  0.6345619836899381 -6.81692264264973 0  0.7585577291924661 -2.3037757610273 0  0.7588992309949738 -7.702745333658171 0  1.122250216560644 -3.510865884122613 0  8.479992986274059 -7.535515625387794 0  3.929374795390437 -4.764768712908054 0  6.538911398582773 -4.855490896631227 0  3.574694111231969 -5.534580202562691 0  3.266614893743681 -9.759523709740595 0  3.26661491153247 -0.2404762906292666 0  0.5591370957585902 -3.463474613692558 0  18.46177892051212 -0.7492005341570938 0  18.45662095942613 -9.247997576904416 0  19.06150650819887 -4.93482758703355 0  0.3319831443268626 -5.478677837168851 0  10.62871165960001 -0.524638895779808 0  2.524965132792255 -2.254635853244739 0  2.524965133116973 -7.745364146956407 0  6.341328659634785 -8.179432187799728 0  4.622470748163359 -4.485514293395736 0  3.583205162710719 -4.454483498809366 0  4.544271796018792 -0.2629229325019828 0  1.225078893981394 -2.847315495905463 0  2.51487075295057 -6.259521850167659 0  2.043065637034006 -5.066859075340686 0  0.7716159694847846 -6.576989946792422 0  20.90023683498598 -5.442042845284118 0  6.220881124995429 -9.155723611519267 0  0.7509078694042088 -4.231110053157193 0  13.76596467701254 -5.631978477118085 0  0.7708382962844222 -6.139735920813362 0  5.760838385498662 -1.427349748126253 0  1.763562996970153 -5.996536459146337 0  3.00313515109198 -6.240367233382443 0  0.2629823846531529 -6.908677184532922 0  17.66578899707056 -5.588673206158538 0  4.081973766403285 -1.823147541290807 0  4.080425097744667 -8.175730002723688 0  0.104899933545898 -5 0  1.821377880044007 -6.875229060153105 0  10.33333953108052 -6.300056814963062 0  0.9513064975364038 -1.819447111459183 0  0.9513064975029266 -8.180552888555951 0  11.5788927044118 -5.30453059338826 0  18.11027352491951 -7.426456813006527 0  2.546221966912963 -8.009456491304096 0  2.546221966936397 -1.990543509146854 0  7.240220991700073 -4.706272595828429 0  1.706375661391489 -5.34166262604554 0  5.333327564504319 -4.173154751805184 0  1.01662099936668 -6.302872654347422 0  5.747737138336904 -9.652650640818241 0  3.003384878663695 -3.78416953757712 0  1.844897022305092 -4.585912091753471 0  3.62390577059441 -8.005590363879767 0  3.62390576975303 -1.994409636795579 0  9.030846243928327 -3.388292164795552 0  7.75970164286388 -4.115380694737201 0  4.794685213637026 -9.26468367422423 0  0.1151547738662728 -7.314312790493558 0  0.3839830568882405 -6.718817957943653 0  1.52514546615139 -2.597653515180721 0  1.525145466031359 -7.402346484812192 0  8.201869744611789 -3.412396711786569 0  2.626742573283801 -5.220168868031557 0  0.8709205419258588 -3.38271215963311 0  6.158756906052389 -4.963570550196993 0  3.818616858663177 -0.2452629072128056 0  3.818616840389899 -9.754737094474734 0  8.558952368698563 -8.869267479286972 0  14.5545313348211 -0.5708031160473057 0  27.44966372921904 -3.866584245017061 0  27.46130437514559 -6.179538675579563 0  0.2760511698228374 -1.706511619604607 0  0.2760511697857755 -8.293488380387341 0  0.317272513716766 -6.173657557991168 0  1.24307747560616 -0.9611838485527784 0  1.24307746593564 -9.038816158028752 0  8.286434877389782 -1.791196392366157 0  8.231293558732494 -3.932221329903086 0  2.721206306165604 -5.873041565631805 0  7.600723137726504 -5.431847439419888 0  3.901755463862942 -5.240959667675082 0  1.187763941760858 -4.014202658466361 0  8.265862790377685 -0.9802584517789379 0  1.410279538110366 -5.866725432062557 0  10.55332725390708 -4.944684769235271 0  0.8062706748474362 -6.424413984000717 0  6.062068183753546 -2.604451989966694 0  0.3821034628369215 -4.443506095995888 0  2.960731279379646 -0.8986723505742518 0  2.960731267374218 -9.101327653698062 0  9.713454229794472 -6.897616478890766 0  14.89880434746774 -3.064215720310917 0  0.5946463932554291 -0.6092712152815256 0  0.5946463816237042 -9.390728786824969 0  13.2269374287497 -4.639788831864283 0  2.324918376641179 -2.662463149694431 0  2.324918376930139 -7.337536850285057 0  0.3006534242793943 -5.92271951474206 0  3.33776230073952 -6.397213138780413 0  2.769835446513795 -1.940486440323337 0  2.769835446495204 -8.059513560330778 0  1.284357965061151 -5.292897358714906 0  21.90381409118122 -3.974241023823756 0  0.7844815439291732 -0.9871195089082976 0  0.7844815378139565 -9.012880499884286 0  3.335388038171967 -3.6046659242482 0  8.423067740800761 -5.659292475903101 0  11.0785724077395 -6.903432661706527 0  2.036732158839632 -8.861658382874076 0  2.036732165906441 -1.138341620048568 0  1.88112508605178 -1.797787602549803 0  1.881125086159058 -8.20221239745007 0  0.279394184756617 -3.219690505305056 0  11.63630079613036 -8.653035413925672 0  6.361967847874597 -9.630828724479894 0  0.7576226387359011 -6.920294323004996 0  5.658696629665114 -2.49195328152688 0  2.152145111082211 -3.252329890282585 0  2.152630674592558 -6.735877778985609 0  1.463788573205761 -1.983794958574195 0  1.463788573125646 -8.016205041381651 0  0.1076488552943999 -6.758976312920789 0  4.936031556976495 -9.745818269321239 0  0.5631047558562177 -5.352537954983522 0  6.768402762819569 -7.22963027621221 0  2.085104065871587 -8.484926494722355 0  2.085104066743995 -1.515073505965798 0  2.702943734617371 -3.102346912756632 0  2.702943734920611 -6.897653087037462 0  9.631464577837153 -3.998960161842629 0  0.5605164956905782 -6.299155117202696 0  0.4266154117457361 -7.246875758697382 0  6.508531981951927 -7.894654594680993 0  1.626016284100853 -0.1560616489232034 0  1.626016268533773 -9.843938351922169 0  5.850676214848637 -1.872989319812904 0  2.664021268615354 -4.802198617112256 0  9.060532496387513 -8.670665278418557 0  3.026546011152501 -2.945042361060736 0  3.026546011502582 -7.054957638924906 0  6.590967984282079 -3.526809384596044 0  4.752710121696156 -5.060445500065605 0  4.554016775514432 -0.9865801171088737 0  11.17343345014354 -5.837984610568486 0  2.532397092488605 -8.957234625182092 0  2.532397101372243 -1.042765382177618 0  14.55605254520901 -9.43718765361384 0  21.84144986679085 -6.008304750606838 0  1.898160688386849 -6.452542239438698 0  4.799681249228124 -7.082776531014323 0  5.669110522894211 -5.865557891913031 0  6.915185675196788 -7.984180356770743 0  0.9046203660183032 -1.460759026845983 0  0.9046203658790439 -8.539240973391996 0  22.45253825333837 -2.237739094438384 0  22.4397741573639 -7.801051634841912 0  3.138160103456528 -3.241154609570475 0  3.13824679473367 -6.758894018771137 0  1.749711810360321 -4.81655013933146 0  1.684540147227464 -6.379559619990652 0  0.8693355179197813 -5.152418221085505 0  1.638404660241839 -3.590900248999532 0  10.47801626312269 -8.687271745616339 0  0.1026430555795166 -5.590992770335523 0  1.460918466919622 -3.308116508011262 0  3.014755589018788 -1.195590346131735 0  3.014755586243124 -8.804409651994732 0  12.92758035560514 -6.938937215841738 0  1.697923373623199 -9.580349305068387 0  1.697923389144716 -0.4196506960536759 0  0.9308761881653407 -3.241710826525392 0  1.046447249355705 -2.311294362349439 0  1.046447249316873 -7.688705637651869 0  6.101090871586411 -5.39240598645138 0  3.86105967590731 -7.00528130202029 0  3.860865591296108 -2.995452004728473 0  0.9241800782685825 -6.681670186461265 0  0.5333287244797358 -0.853124579782512 0  0.5333287157608222 -9.146875421618571 0  13.06410415448227 -7.661107592099549 0  2.093119487826428 -5.820097118216335 0  0.1360456734139586 -2.230670936841733 0  0.1230959613675431 -7.768482937175019 0  0.6131478416619434 -4.56946347985567 0  8.507140095243937 -6.718779596300291 0  3.394067102587243 -1.127168591695632 0  3.39389107614028 -8.872963975736672 0  0.3820951891140503 -2.147255336061029 0  0.3827571499817815 -7.849980235785545 0  11.43477679489227 -6.401582193679058 0  5.653325432172309 -7.470734184819449 0  18.99776414955893 -7.780761194294482 0  0.4483263593521869 -2.522272338740477 0  1.170987238727497 -8.578245445770579 0  1.170987238365587 -1.421754554342466 0  0.6389502380939653 -9.550102367408906 0  0.638950252131913 -0.449897636046992 0  17.92246267936963 -6.468265637483122 0  2.923540886089096 -2.626562398767935 0  2.923540886465769 -7.373437601343772 0  5.638922271749431 -8.487821008561582 0  0.1064711018125628 -2.373442615392069 0  0.2800318602787861 -6.609059565249796 0  8.100466390035368 -7.371765862294361 0  7.725491245376037 -2.416408259747592 0  12.47604824704566 -5.927665308544876 0  1.53088029712632 -7.103149454102292 0  12.02457728273492 -3.520240477946349 0  1.988217672078253 -9.802852760039745 0  1.988217688187415 -0.1971472407210948 0  2.297788224555758 -8.560842731355136 0  2.297788226026219 -1.439157269194508 0  9.146843228577941 -5.417970319852209 0  0.5294188012237822 -1.034046289835717 0  0.5294187973170139 -8.965953712340145 0  4.006097128879901 -3.261609033988222 0  0.396429791754688 -8.741805991177559 0  0.3964297914787824 -1.258194008967793 0  2.115719412874792 -2.109775352332629 0  2.115719412923561 -7.890224647647358 0  12.19736997300273 -9.508445658554805 0  0.5061787476306279 -6.921731524585088 0  0.5005437047069758 -4.178652498022378 0  11.01964434493354 -7.875576266617847 0  8.716047365515847 -6.181645979354457 0  0.09209699842327623 -6.453984544725129 0  5.096133261275121 -5.300893916140528 0  0.09273944164311843 -2.678830231514453 0  1.533658813600862 -5.43730262613303 0  4.00643792787919 -6.738007781912411 0  3.152953976139198 -2.073894742862133 0  3.152953976196965 -7.926105258746148 0  0.09305604058742745 -4.565217391304348 0  2.152453235272286 -6.030177017092591 0  5.185908011649074 -8.551488336881922 0  11.02775318120815 -2.042129500122339 0  1.942933751913042 -2.461182004769075 0  1.942933751988532 -7.538817995235552 0  2.253802679033862 -4.542099295990504 0  10.83773521181729 -9.516091703088724 0  0.09259057904569445 -0.942028985507247 0  0.09259057748330513 -9.057971014492754 0  6.126981920498062 -0.7912115884893502 0  1.565149844061869 -9.521774679127242 0  1.56514985927331 -0.4782253231722935 0  19.03542762061624 -2.12628898158745 0  0.4180524032653778 -0.3280201281136836 0  0.4180523924615649 -9.671979875031106 0  0.1015449168138503 -4.885357941369318 0  1.619384936909267 -3.198719237938812 0  2.550948615233787 -0.198488009847301 0  2.550948597477687 -9.801511990755539 0  1.193656215722088 -4.588627079285092 0  1.090315680949447 -6.902964035182542 0  9.409934670635151 -7.808360420707501 0  0.09870419142706588 -3.575356693821631 0  2.882417855927466 -9.488962341131925 0  2.882417873242265 -0.5110376610053438 0  4.375921488587865 -5.004255928106813 0  13.92635730606915 -8.469458948791072 0  0.8817450477570645 -3.983228784634633 0  1.139731981171256 -1.879769147979323 0  1.139731981097132 -8.120230852024514 0  6.304852739533352 -3.721615760929335 0  4.092835013400173 -2.458790693214342 0  18.03090727072637 -3.583229105685639 0  1.113298047151797 -5.837089340377617 0  1.723639281808129 -2.075527413060211 0  1.723639281811018 -7.924472586939611 0  4.093253464199467 -7.540325979248067 0  5.6584069406127 -3.956034017547329 0  0.6816217094810355 -2.603182149436461 0  0.6790938523770649 -7.389862133830722 0  0.0909037680979754 -4.27536231884058 0  0.2682403238091737 -7.115979425776882 0  29.22360677667993 -9.217882250845761 0  29.22360677756274 -0.7821177491610296 0  8.75098465937727 -7.127810357894014 0  9.262067202637621 -9.607446984376116 0  5.915069520882826 -7.569558309088046 0  4.252778881865712 -5.910955826490595 0  1.214869477706456 -5.035228222681695 0  0.9578982277585038 -6.133836853826661 0  2.075385657426413 -2.778483638924063 0  2.075385657526699 -7.221516361020127 0  3.348545394868012 -2.829781994550074 0  3.34854539532323 -7.170218005525284 0  14.13034160557263 -2.760488012507583 0  7.487457563201667 -3.689717810651651 0  20.48559446900902 -1.83947747952266 0  20.48559445201045 -8.160522522766714 0  2.181896007452918 -3.031484252002683 0  2.181189037063508 -6.971665538420118 0  4.728353826624971 -2.287346599876637 0  4.725286914997843 -7.706035483536789 0  0.5022061209582969 -3.057107080326651 0  4.034938723422142 -1.169699777935131 0  4.034938704261871 -8.830300239139943 0  0.09006370856902102 -3.985507246376812 0  4.234393353316545 -4.078306270746913 0  0.3149469671501528 -5.011679418303719 0  0.8959042192415225 -4.670657769616442 0  12.87021765927947 -8.794219974041114 0  2.921288022917359 -5.483808002387099 0  12.23660597341126 -7.025027730721025 0  1.352800538368108 -6.238694054095621 0  5.950643933392938 -3.487520415428726 0  0.2965657096992587 -4.299054185531494 0  3.706135642361229 -8.459620010086923 0  3.707543767875709 -1.541440478266045 0  0.0886854307612559 -9.492753623188399 0  0.08868543033101872 -0.5072463768116036 0  2.342903927499719 -6.644415827937576 0  4.532910239948638 -5.517276044502384 0  10.20548728003712 -1.509132097470797 0  6.551508503899063 -0.330679077500263 0  5.362159154028058 -3.323534247462033 0  11.97023346426634 -1.524506752533399 0  2.371024907052449 -6.047631382637808 0  0.2240558922818856 -5.234777684538479 0  1.444405984823682 -8.32797771072309 0  1.444405985362817 -1.67202228942153 0  5.347243233621017 -6.695419360675444 0  0.6560251815706533 -4.098472958554853 0  1.642145148873253 -4.271884842631948 0  0.375989448971799 -6.851576901121133 0  6.672943013304733 -9.687685447890903 0  0.7991229744775623 -2.505326440348853 0  0.7991675111861376 -7.494804905896906 0  0.5100783776005304 -2.07066062937379 0  0.5100783775823743 -7.929339370624966 0  0.2512802720126039 -3.726034623218546 0  5.515861522664299 -4.930131264976354 0  0.09849074648232481 -4.678620790813267 0  11.22935193032437 -4.847269837203932 0  1.741414698159248 -4.000126581047583 0  6.398417280972012 -4.225091365497624 0  0.9055498476748802 -3.698659220348322 0  1.311759819473588 -3.152159874878926 0  2.633752310305221 -3.516467503524384 0  2.132943220014731 -3.93762172282431 0  13.74593475155962 -1.475413876380235 0  9.909318112084495 -2.488592991668559 0  0.5718540861373249 -2.81021613496337 0  0.1081959285685219 -3.371808462350943 0  5.165273210459461 -1.420593470217828 0  2.633969255880714 -6.482970852814732 0  0.4409385410212465 -7.499141040639369 0  1.926319759767113 -3.513220481525915 0  0.4855836840590797 -5.557509114261045 0  2.339833045440315 -3.355728893026555 0  0.7079719620632901 -9.156654633142143 0  0.7079719697878701 -0.8433453738228707 0  2.330228096546872 -5.704331308257798 0  8.619343706305902 -4.618541773776212 0  2.421567558846112 -5.091944124144185 0  3.240920020464626 -2.538419115877454 0  3.240920020806483 -7.461580884234839 0  0.8966190160315826 -2.773408103614742 0  0.8958210734466405 -7.221412701401704 0  1.531360522867827 -5.090888145530967 0  0.7189959831779884 -7.062468704943128 0  14.48930387092288 -8.112324131890437 0  18.15369713363394 -4.978267679712292 0  1.028448410179832 -6.574024993615909 0  0.4812367610004173 -1.898391157982625 0  0.4812367609879438 -8.101608842019511 0  10.07817091803194 -0.4298604992664705 0  0.5184280057696409 -0.09260585813840549 0  0.5184279931633249 -9.907394144895827 0  0.5121794296721536 -5.75505889458898 0  1.000143630473335 -5.46182082028646 0  0.08972770318024814 -7.451684915532994 0  4.522091962972045 -3.132744395261296 0  4.508255578474399 -6.855304903287195 0  1.346610829184275 -3.772830301414139 0  0.7113020252453364 -1.931180667791056 0  0.7113020252201796 -8.06881933221344 0  1.251663299640477 -7.178016435893326 0  0.4990919344117408 -6.517492148069998 0  0.4190117474091917 -3.886126297878195 0  6.389918489885119 -8.508235843896944 0  0.6147985491645347 -5.127593767022928 0  1.002750609448222 -3.793268829117038 0  5.764026935412883 -6.95139509981576 0  13.08785792151264 -2.177834200328853 0  6.90846375311726 -4.087245991093824 0  11.91643786799958 -7.631728923190034 0  1.204663130270218 -4.810233002490534 0  0.895558952322407 -0.3141589665033413 0  0.895558936212133 -9.685841037241502 0  0.7534626145276455 -5.551504812324155 0  15.27826442786354 -5.886055274002902 0  6.781799596467478 -0.8648692592685636 0  29.33529154758398 -6.111111111111111 0  29.33529154777779 -3.888888888888889 0  1.421140692389773 -1.233651414468582 0  1.421140690719024 -8.766348587551125 0  1.036942326735854 -0.3827148913030438 0  1.036942307572577 -9.617285114406341 0  6.421073105148006 -5.574616308853831 0  0.2536285657764275 -4.126556001820411 0  16.61110518266587 -7.536367288227956 0  0.6550653435927067 -3.235579251358871 0  4.178796873021504 -3.533546607022641 0  0.2765028733851942 -9.437740050491488 0  0.2765028765029598 -0.562259950735629 0  5.130767931492398 -2.789758462797235 0  28.17272023795126 -2.57386015798423 0  28.17272023764833 -7.426139841682547 0  0.101738029086496 -3.113495885540995 0  2.747841273486772 -8.457456025321779 0  2.747841274534879 -1.542543977374271 0  4.178476323032573 -6.462039971793512 0  20.18015274501757 -6.759296673176974 0  13.21841395910015 -3.544106790070025 0  0.2701956220874848 -2.221223835865699 0  0.2672221585687424 -7.777085023424371 0  0.08372669356457152 -5.869565217391304 0  4.280231552288406 -7.777305359980414 0  4.280171773094054 -2.22256845472157 0  2.230173360390788 -1.817281699125875 0  2.230173359842832 -8.182718301044336 0  5.862296019668285 -9.235347028832077 0  0.7191368125946607 -8.605248542848084 0  0.7191368122922377 -1.394751459040013 0  18.03976305521611 -2.34432709620407 0  11.04372900212444 -8.404498545117914 0  8.736937639490463 -0.3326737846217744 0  2.787662250278846 -7.691934166046845 0  2.787662249679094 -2.308065834242197 0  29.36872804403494 -1.685310698101168 0  29.36872804371701 -8.314689301902932 0  14.35470883035856 -1.861968886762721 0  0.7216223055646971 -2.953566819334695 0  2.285915977148861 -6.401135736761102 0  3.308907783175163 -0.8305321361721054 0  3.308907767633226 -9.169467867187782 0  24.1868143124264 -5.244934815301602 0  9.046506601391398 -2.4502901469955 0  0.09538530227205122 -9.902757090941584 0  0.0953853044289481 -0.09724290755959686 0  6.858252123640467 -9.124943965403112 0  6.697293428666145 -5.295110549168323 0  6.971004248538087 -1.570438415515262 0  3.83985247990206 -2.015705494566879 0  3.839631242119047 -7.984134155772945 0  2.061947583048058 -0.4368230223228133 0  2.061947566283802 -9.563176980204112 0  0.6554706009120643 -4.812388058133678 0  3.077590043540061 -5.629794057574201 0  13.5633874178225 -6.610617459069382 0  6.254903952629364 -2.329176854325306 0  8.034050258286065 -8.74905388266591 0  3.357089332619321 -4.534711711329787 0  3.396562835302957 -5.423472659552761 0  16.46708706947299 -5.481304364285251 0  0.8524719617500534 -5.810805661911761 0  12.18363259400573 -0.4592494297570555 0  1.132513629848955 -2.033333403403189 0  1.132513629788786 -7.966666596589182 0  14.12801946574438 -4.031389689476541 0  1.187173184913314 -2.402247776414856 0  1.187173184883749 -7.597752223559107 0  2.287734862930261 -3.597492833508364 0  2.342262474348662 -0.9042560734122747 0  2.342262461018628 -9.095743934347334 0  5.319964418637241 -1.936467294955146 0  7.65987092281898 -4.543036821248155 0  1.459961333147227 -8.613148477374301 0  1.459961332398462 -1.386851524177659 0  1.554834433763503 -2.898600249938576 0  7.968996927231146 -4.822700305858094 0  1.866498035750599 -5.862690091497923 0  2.879648645850962 -4.989424993186896 0  12.98543874392902 -4.155881119301348 0  20.75021053537123 -4.483877341419118 0  2.696490322580225 -0.853406428558003 0  2.696490306117777 -9.146593582007812 0  5.881693545728952 -6.444247145653268 0  9.869750923779112 -5.952063397899123 0  3.73436468898783 -2.752469837973937 0  3.734373844491358 -7.247702510048732 0  1.006349173009628 -4.392470436357829 0  0.09169235241217777 -1.811357923041183 0  0.09169235240732654 -8.188642076958359 0  10.27982457907393 -4.564400443844415 0  0.0894455430915837 -7.026853731128435 0  0.9888032392603172 -0.5252520880462708 0  0.9888032222301959 -9.474747920104925 0  1.101179615118728 -5.301873961467007 0  2.369354093389653 -3.961401326253987 0  1.441217497905477 -0.9332531605847354 0  1.441217480102884 -9.066746844207216 0  0.2904479705903924 -2.739636610744496 0  0.3293535727200965 -3.622709569256153 0  0.6239773889359412 -5.763636534687089 0  1.765551986681364 -2.838440643494954 0  1.765551986665013 -7.161559356575648 0  1.494312711807741 -4.625901288951207 0  6.082791393854809 -1.183920364421617 0  1.04050522103819 -4.0847331437387 0  3.141738788796321 -4.373204118193025 0  10.61054678929889 -4.081220164013368 0  0.07713389511654611 -9.782608695652172 0  0.07713389465459741 -0.2173913043478279 0  5.743298254485861 -0.2144944144470751 0  11.96808625868813 -6.505801670593653 0  4.631029501474728 -2.597524252620206 0  4.620688643655065 -7.387809174990283 0  21.66766586618909 -7.001538015613852 0  21.68802369253469 -2.9719242983157 0  0.6203545317571724 -3.937776865505931 0  6.476632641366228 -3.087539319579209 0  0.2115377171686852 -9.915807263127967 0  0.2115377264714873 -0.08419273875550459 0  0.8077395321411025 -8.838781019570249 0  0.8077395313099451 -1.161218985720262 0  2.476691556029429 -5.870866720495101 0  0.9571888996499816 -6.427573632130775 0  3.940005898593832 -8.394445000544682 0  3.945684778038306 -1.606910574345317 0  15.22905852818552 -7.089351258256256 0  0.2138855082996649 -5.047300793108378 0  11.24613931887904 -9.564914840638959 0  8.420018408217446 -2.173825698459686 0  0.3053111042704248 -4.876415339497512 0  5.111252236773067 -6.116663260015015 0  7.091505186083595 -7.677104665255856 0  7.761398993076213 -0.3376622201888058 0  5.740619207737009 -8.124909319450193 0  0.5152213681601321 -3.184337544252061 0  5.853020178582385 -3.107747223801105 0  3.899147080534222 -9.246607162947072 0  3.904523584764782 -0.748389907246116 0  23.28002544217786 -0.6551171120318378 0  23.29715468274172 -9.318483143446874 0  5.050104836751766 -0.2696239779425431 0  9.405090183001764 -6.613687896190436 0  5.635042851408425 -3.62587216768035 0  1.468293234281873 -4.974536574189976 0  2.166867831497395 -2.424090438334504 0  2.166867831564746 -7.575909561673082 0  12.09342160553246 -4.238250864386403 0  10.63663226957219 -1.162176696147321 0  0.9407463195522574 -0.9365150557417534 0  0.9407463090365908 -9.063484956634728 0  7.290428040500951 -5.107288473315386 0  12.85033450917787 -1.126074439567779 0  4.500098808345165 -2.158633814092163 0  4.49766832113098 -7.839719665854917 0  3.181426651747625 -8.163493038407028 0  3.181426652056327 -1.836506963006829 0  4.085608724778584 -9.771600602648242 0  4.081146823471794 -0.2249992799766716 0  0.655634185500972 -3.559182039430368 0  2.508785822582411 -6.855783442161839 0  2.508604030047421 -3.144183062228183 0  7.747228536561499 -1.590339793827485 0  26.81361050409785 -5.059926026660641 0  0.1010400201588535 -2.57489794522465 0  0.9694969283554791 -5.934302320481999 0  8.787039223963337 -1.059478970593107 0  6.190209400928593 -7.127059661199691 0  9.500530138095815 -8.875857088289234 0  0.2785420051097915 -4.518904674683061 0  1.191862942868468 -0.7943443271731256 0  1.191862928916622 -9.205655684890353 0  3.604194301576449 -6.515690149187162 0  3.419282909997369 -3.113852362714831 0  3.419601530480442 -6.886368507660727 0  11.2803111833844 -0.4119063080663032 0  0.09660929302559929 -6.556283132449709 0  9.005494945037213 -8.189039718444089 0  0.9445652140136893 -0.7777958035124382 0  0.9445652016728516 -9.222204207300029 0  1.604240522187533 -1.91917883961089 0  1.604240522134193 -8.080821160345364 0  0.8547861347814596 -0.5470389743482125 0  0.8547861196858584 -9.45296103330354 0  11.1866801691844 -4.23814735750779 0  6.014513038229081 -8.591370889295963 0  16.4612274293205 -3.276901109209234 0  1.252979693184999 -6.093713079763144 0  1.047478919369485 -0.09116553525383164 0  1.047478905491161 -9.908834466044809 0  4.141717661163353 -5.664461351743083 0  4.442775563879209 -1.677310169906192 0  4.432287947818031 -8.310389500559303 0  12.58333377643574 -1.578659822491944 0  0.4132375479118622 -6.304805735562185 0  3.672294075583597 -0.461573863781771 0  3.672294057100238 -9.53842614030853 0  5.271717146896547 -9.319691487528736 0  1.439663481623709 -5.569692174213849 0  0.3213200949303339 -0.96001075164616 0  0.3213200908175775 -9.039989246202751 0  3.611712089814336 -3.48641087142956 0  2.052428592953111 -4.906663873262784 0  2.065392956918663 -8.290367973859901 0  2.065392957322009 -1.709632026301004 0  1.269359948930264 -5.561762423848641 0  1.333017062703259 -2.586539148396646 0  1.333017062613056 -7.413460851589683 0  0.09837645015266006 -7.641974394999762 0  </DataArray>
</Points>
<Cells>
<DataArray  type="UInt32"  Name="connectivity"  format="ascii">379 852 1300  380 853 1281  227 771 1595  634 843 1549  248 805 1433  696 771 1595  309 747 1541  310 748 1542  282 808 1308  96 97 1458  14 15 1459  399 550 1077  380 705 1281  379 712 1300  666 805 1433  663 747 1541  662 748 1542  649 808 1308  419 1090 1557  399 550 1085  332 634 1549  278 765 1763  96 659 1458  15 658 1459  765 882 1763  653 1090 1557  770 892 1484  640 1090 1482  226 770 1484  413 558 1502  413 558 1205  28 29 1027  285 939 942  286 940 943  421 578 1598  204 814 1274  238 628 1047  237 627 1048  417 729 912  564 922 1251  62 732 1035  49 731 1036  651 1066 1555  449 688 1323  704 814 1664  211 932 1038  334 897 1360  335 898 1361  42 43 690  471 818 1145  421 578 1411  185 709 854  371 729 912  305 629 1015  505 753 1222  457 1305 1538  806 882 1390  357 625 1501  356 626 1500  322 632 781  323 633 782  367 806 882  558 970 1205  1069 1341 1537  818 1145 1287  388 757 1663  570 814 1274  327 630 1729  309 747 1345  310 748 1346  289 665 1079  347 696 771  321 1098 1324  320 1097 1325  343 666 805  212 852 1245  336 764 838  29 1027 1070  214 699 983  567 1069 1341  699 983 1053  300 922 1251  219 987 1046  220 988 1045  182 671 740  322 632 933  323 633 934  368 580 1257  369 581 1256  261 553 933  262 554 934  457 806 1538  184 1066 1555  315 704 1664  373 861 1777  438 1180 1431  439 1181 1432  236 601 860  261 553 1709  262 554 1710  534 939 942  535 940 943  370 621 914  337 578 902  249 830 1154  249 829 1155  709 854 1544  260 970 1205  521 830 1154  522 829 1155  373 630 1777  364 644 930  343 666 1115  373 577 861  46 1072 1228  65 1071 1229  341 650 929  757 1101 1663  577 643 1391  248 753 1222  134 816 1092  341 650 1430  431 636 1157  432 637 1158  397 564 887  301 807 1357  40 41 683  356 626 1010  357 625 1009  230 691 784  760 1209 1343  759 1208 1342  900 979 1306  226 900 979  213 853 1271  207 878 1240  341 929 964  368 580 918  369 581 919  507 744 899  133 134 816  630 860 1729  321 1098 1646  320 1097 1647  595 852 1245  426 651 1066  283 1000 1103  196 634 843  446 932 1038  653 1090 1523  197 635 844  386 559 1460  387 560 1461  247 681 1167  246 682 1168  386 559 985  387 560 986  747 1055 1345  748 1056 1346  205 767 1573  362 618 1131  370 609 835  185 785 854  406 627 1048  405 628 1047  681 1167 1817  682 1168 1816  373 577 1476  301 807 1288  209 672 1150  210 673 1151  196 634 1268  404 732 1035  403 731 1036  448 634 1268  338 878 1246  231 845 1063  236 601 1206  458 751 1264  459 752 1265  197 635 1255  195 592 1775  676 897 1360  677 898 1361  343 640 805  447 635 1255  314 744 899  767 1276 1573  308 945 1302  307 944 1303  438 1431 1666  439 1432 1667  186 708 862  869 1214 1309  870 1215 1310  456 987 1046  455 988 1045  110 978 1560  173 977 1561  389 785 854  321 833 1646  320 834 1647  606 1036 1079  301 671 1393  176 668 1068  390 756 1654  640 1090 1815  221 642 1031  43 690 1259  441 668 1068  238 628 1466  237 627 1467  329 672 944  330 673 945  333 1093 1429  353 790 917  221 647 1031  577 643 1563  344 698 1222  596 853 1271  688 910 1323  590 878 1240  403 1036 1079  361 619 1547  362 618 1546  39 868 1318  585 1000 1103  182 671 1334  397 564 1251  155 156 795  79 817 1528  278 642 1247  388 973 1190  432 1233 1640  431 1232 1639  472 665 1352  542 1072 1228  541 1071 1229  985 1394 1716  986 1395 1715  343 640 813  79 80 817  394 818 1030  577 1391 1476  412 567 1341  725 1242 1577  726 1243 1578  478 705 1170  365 652 916  469 664 1356  508 671 1393  618 856 1392  673 945 1302  672 944 1303  432 847 1640  431 848 1639  364 644 1041  590 878 1246  81 82 780  636 1157 1618  637 1158 1619  351 974 1113  513 845 1063  719 833 1646  720 834 1647  587 972 1234  358 833 987  359 834 988  312 829 1135  304 613 1524  390 976 1188  187 725 1421  188 726 1422  312 697 1102  212 697 852  87 941 1372  412 567 1106  448 634 1253  214 699 1809  214 700 1809  223 650 929  195 592 1454  289 665 1352  370 609 914  490 760 1343  489 759 1342  557 1317 1387  707 1271 1685  396 721 1707  394 722 818  450 784 1137  352 619 855  343 776 1115  504 739 1039  456 833 987  455 834 988  478 973 1190  328 1152 1563  325 839 1165  326 840 1166  756 1120 1654  223 650 1033  192 617 901  341 1430 1603  155 795 1660  344 1222 1276  332 634 1032  708 862 1543  373 630 1400  488 712 1161  211 675 1038  648 1092 1347  176 668 1582  557 817 1317  471 818 1030  404 607 1217  433 601 1206  89 792 931  81 780 1203  353 856 1392  362 1131 1837  478 1170 1190  384 691 784  94 625 1501  17 626 1500  393 586 1373  371 622 975  421 991 1598  70 71 739  133 816 972  488 976 1188  464 869 1214  465 870 1215  204 899 1261  449 1092 1347  689 1118 1277  393 586 1632  561 1271 1685  337 691 995  349 972 1234  404 607 1035  344 698 799  371 1022 1597  332 1032 1267  219 986 1359  220 985 1358  416 893 1689  447 635 1330  230 641 1207  333 1093 1552  507 899 1261  85 660 1364  314 899 1197  192 617 1707  703 922 1805  179 964 1605  531 1093 1363  500 793 856  501 792 855  322 745 1852  323 746 1853  68 69 738  569 1394 1716  568 1395 1715  524 839 1165  525 840 1166  337 578 1026  488 1161 1188  370 621 1021  371 622 1022  356 989 1500  357 990 1501  311 657 1492  166 167 710  116 117 711  305 1015 1483  217 950 1417  191 913 1049  771 1131 1837  225 757 1187  752 1265 1679  751 1264 1680  38 39 868  385 730 1104  665 983 1079  41 683 1008  639 1112 1655  638 1111 1656  354 850 932  355 667 1595  508 671 1334  319 1212 1659  318 1211 1658  226 900 1484  278 642 1702  341 656 964  383 690 1051  510 683 1096  224 756 1023  418 790 917  397 762 962  392 866 1014  391 867 1013  483 704 814  376 639 978  375 638 977  775 1022 1597  49 50 731  61 62 732  247 831 948  246 832 949  32 33 1129  355 1279 1385  139 1062 1213  322 745 933  323 746 934  586 974 1113  505 753 1472  427 922 1805  194 684 956  193 685 957  295 664 1356  224 794 1110  416 857 893  44 45 733  66 67 734  254 836 1029  253 837 1028  472 665 1084  794 1192 1623  201 916 1420  232 722 818  375 638 952  376 639 953  187 725 1242  188 726 1243  384 691 809  287 595 1108  288 596 1109  347 696 862  441 668 1297  430 929 964  322 1309 1852  323 1310 1853  639 978 1560  638 977 1561  221 647 883  647 1279 1385  697 1002 1102  728 1245 1714  522 829 1135  324 694 1044  2 60 1525  1 51 1526  190 689 1118  33 872 1129  453 894 1262  297 668 999  337 691 1590  168 169 821  114 115 822  200 939 1126  202 940 1127  94 625 1221  17 626 1220  385 851 971  187 1421 1712  188 1422 1713  195 1134 1775  721 1707 1811  312 603 1102  305 629 1280  318 731 1211  319 732 1212  566 1245 1714  132 133 972  231 616 1721  164 165 841  118 119 842  72 73 791  381 1299 1673  316 1011 1782  176 778 1582  571 899 1197  278 765 1247  894 1262 1599  768 893 1689  287 595 1300  288 596 1281  361 715 1547  362 716 1546  85 660 1299  643 1152 1563  77 78 1052  356 658 1697  357 659 1698  281 583 1362  379 697 852  332 1023 1549  381 661 900  386 985 1394  387 986 1395  82 780 889  382 687 984  382 686 984  484 794 1110  281 583 1156  363 857 893  312 603 1386  352 619 979  582 777 1351  550 947 1162  372 1314 1423  529 1104 1434  210 1151 1519  445 1167 1817  444 1168 1816  358 719 833  359 720 834  209 1150 1514  529 913 1104  170 171 826  112 113 827  324 694 1794  355 696 1595  376 969 1497  375 968 1496  381 941 1299  183 762 962  510 868 1318  492 1087 1481  491 1088 1480  469 664 1227  576 1212 1659  575 1211 1658  360 765 849  221 642 947  353 793 1269  652 916 1420  469 610 1329  361 619 1235  433 601 1200  71 739 1396  327 630 1572  418 657 1060  756 1023 1549  353 790 1269  950 1417 1701  284 764 1532  280 1584 1830  324 735 1794  328 1152 1836  582 1351 1740  109 110 978  173 174 977  466 690 1259  418 657 1059  77 891 1052  93 1221 1256  18 1220 1257  553 933 1712  554 934 1713  623 1122 1415  624 1121 1416  520 823 878  298 652 887  316 1011 1566  412 769 828  661 900 1484  267 1085 1332  230 641 1301  851 971 1374  529 913 1049  373 778 812  423 907 1168  422 908 1167  225 861 1187  219 987 1359  220 988 1358  656 964 1605  219 772 1046  220 773 1045  398 698 1551  261 933 1369  262 934 1370  511 766 1684  396 721 1123  637 969 1497  636 968 1496  557 817 1528  391 867 1064  392 866 1065  88 89 931  300 762 1057  547 941 1372  409 710 960  410 711 961  591 1455 1757  408 710 960  411 711 961  644 1041 1651  353 793 856  352 792 855  455 831 948  456 832 949  367 765 849  365 652 1216  538 1242 1577  539 1243 1578  299 722 1003  156 795 1005  251 823 1275  512 823 1275  380 853 1328  341 656 1174  784 1137 1488  405 628 1464  406 627 1463  563 1093 1429  299 646 1143  555 1032 1267  200 939 1626  202 940 1627  383 683 1096  467 738 980  504 739 1396  764 838 1555  164 841 1734  119 842 1735  301 671 1288  480 836 1029  479 837 1028  536 703 1653  86 87 941  639 1112 1560  638 1111 1561  526 749 1626  527 750 1627  846 1534 1542  845 1533 1541  426 651 1333  280 850 1830  233 735 1223  346 769 828  225 800 1169  380 937 1328  313 656 1174  297 668 1297  745 933 1712  746 934 1713  193 1122 1415  194 1121 1416  466 690 1051  428 664 951  102 103 847  8 9 848  621 1431 1666  622 1432 1667  342 997 1412  764 1298 1532  251 1631 1831  212 697 1002  431 636 1043  432 637 1042  383 690 1008  621 914 1451  504 1039 1612  400 685 957  401 684 956  741 1631 1831  492 945 1481  491 944 1480  565 1085 1332  230 691 995  561 1271 1568  412 815 1832  203 808 1248  502 807 1357  484 794 1192  325 749 839  326 750 840  231 616 1499  210 754 1285  209 755 1284  574 1434 1527  423 669 1219  422 670 1218  82 83 889  589 1098 1646  588 1097 1647  229 912 1597  189 799 1502  469 610 1722  224 1023 1153  338 823 878  194 684 1117  193 685 1116  207 730 1240  247 681 948  246 682 949  548 1305 1538  449 688 1347  304 1107 1524  383 683 1008  358 719 993  359 720 992  67 734 1260  44 733 1259  592 1326 1808  295 1119 1462  304 613 1282  510 683 1318  657 925 1492  675 1635 1839  114 822 1491  169 821 1490  229 727 903  436 1249 1577  437 1250 1578  42 690 1008  393 761 1139  313 679 937  299 646 1628  348 854 1544  375 724 968  376 723 969  285 614 1321  286 615 1322  467 734 1260  466 733 1259  415 1112 1655  414 1111 1656  372 778 812  285 614 1147  286 615 1148  250 1341 1537  338 780 889  178 751 1055  177 752 1056  218 688 910  403 731 1053  483 814 1261  218 688 1123  581 1221 1256  580 1220 1257  645 1216 1270  423 1075 1168  422 1076 1167  226 770 1235  263 876 1463  264 877 1464  438 788 1147  439 789 1148  368 879 1257  369 880 1256  494 800 1169  68 738 1260  207 730 1778  533 822 877  532 821 876  454 780 1203  394 722 1003  766 916 1684  360 947 1162  317 689 1711  241 828 1515  203 808 1273  162 163 874  120 121 875  318 731 1053  302 1192 1623  497 1098 1324  496 1097 1325  674 1314 1423  449 816 1092  627 876 1463  628 877 1464  573 763 1693  72 791 1396  691 809 1590  339 1459 1697  340 1458 1698  356 772 1697  357 773 1698  342 680 997  227 1131 1392  698 799 1551  414 759 1082  415 760 1083  15 658 989  96 659 990  324 1044 1567  102 847 1835  9 848 1834  380 705 1170  170 826 1490  113 827 1491  623 1122 1395  624 1121 1394  356 658 989  357 659 990  371 729 975  311 657 1059  381 661 1018  233 768 893  319 700 1210  298 652 1216  632 933 1369  633 934 1370  304 727 1471  451 810 1126  452 811 1127  313 679 1174  379 712 1161  428 664 1604  583 795 1660  514 846 1542  513 845 1541  558 799 1502  815 965 1832  644 930 1548  339 858 1459  340 859 1458  226 979 1235  298 1216 1270  366 783 1365  200 810 1126  202 811 1127  239 856 1546  240 855 1547  429 689 1344  178 747 1055  177 748 1056  271 1093 1363  295 664 1462  550 1077 1694  419 1090 1815  306 763 1693  294 688 1347  201 703 1653  26 27 925  399 1070 1085  306 786 1254  329 672 1150  330 673 1151  290 693 1084  373 778 1476  473 676 1468  474 677 1469  40 683 1318  267 857 1332  229 1160 1597  367 765 882  602 1110 1566  227 917 1392  393 706 1139  294 688 1019  138 139 1062  693 1050 1688  311 667 1279  675 1140 1635  828 1025 1515  6 968 1618  105 969 1619  654 997 1412  386 1121 1394  387 1122 1395  370 774 1021  994 1425 1465  181 993 1720  180 992 1719  866 1014 1570  867 1013 1571  393 706 1410  409 876 1467  410 877 1466  1089 1513 1586  99 100 982  11 12 981  385 730 971  187 1712 1852  188 1713 1853  395 738 980  547 931 1306  136 137 936  398 666 1433  348 770 892  719 993 1720  720 992 1719  630 860 1400  429 689 1277  311 667 1059  725 1249 1577  726 1250 1578  374 795 1156  156 157 1005  395 738 1020  552 787 1630  200 839 1289  202 840 1290  573 763 1149  749 839 1626  750 840 1627  178 701 1377  177 702 1378  530 761 1641  317 689 1344  459 714 1792  458 713 1791  740 1119 1462  629 1398 1409  409 821 876  410 822 877  5 6 968  105 106 969  214 700 1050  195 1017 1311  263 759 1082  264 760 1083  763 1329 1797  379 697 1135  438 874 1147  439 875 1148  408 841 1321  411 842 1322  996 1424 1479  239 1183 1546  240 1182 1547  219 772 1195  220 773 1196  233 735 1564  867 1064 1444  866 1065 1443  176 1391 1476  383 815 1096  179 964 1272  291 1041 1651  383 965 1051  404 693 1050  233 893 1105  306 786 1295  531 890 1363  204 814 1261  495 730 1240  211 675 1140  459 714 1346  458 713 1345  635 1152 1836  325 725 1249  326 726 1250  611 1202 1342  612 1201 1343  182 740 951  290 693 1217  69 738 1020  252 1054 1772  464 713 1533  465 714 1534  407 865 938  570 814 1664  467 734 1441  329 944 1606  330 945 1607  417 729 1307  355 667 1279  663 747 1807  662 748 1806  268 718 1238  269 717 1237  610 1329 1797  378 1108 1377  377 1109 1378  136 936 1668  716 1183 1546  715 1182 1547  337 995 1585  214 1050 1688  313 656 1312  458 751 1055  459 752 1056  536 703 1258  616 963 1721  348 754 1838  347 755 1837  402 1118 1277  84 85 1364  179 1137 1146  564 922 1313  422 670 1649  423 669 1648  398 698 1433  355 696 1717  617 1707 1811  203 783 1426  519 1101 1624  318 699 1053  518 994 1465  404 693 1217  347 862 1543  655 1089 1513  552 1012 1184  256 749 1579  257 750 1580  618 856 1546  619 855 1547  594 1430 1603  574 871 1527  520 878 1401  627 876 1467  628 877 1466  222 904 915  686 1319 1658  687 1320 1659  582 777 1851  288 705 1281  304 727 1107  540 727 1471  471 1398 1409  766 916 1653  741 1266 1631  224 1110 1153  291 753 1557  798 1054 1772  467 738 1260  210 754 1669  209 755 1670  665 983 1688  398 904 938  787 1041 1630  730 1104 1453  366 1365 1611  348 854 892  163 874 1734  120 875 1735  344 767 970  602 1566 1789  180 959 992  181 958 993  395 739 1039  537 1062 1213  223 885 1844  287 736 1406  288 737 1407  217 1455 1757  565 1070 1085  414 826 1082  415 827 1083  287 712 1300  348 770 1838  347 771 1837  403 983 1053  519 996 1479  544 871 1504  397 1414 1588  385 851 1016  284 764 1833  401 1182 1558  400 1183 1559  489 1202 1342  490 1201 1343  670 847 1835  669 848 1834  206 806 1390  603 1137 1146  223 1478 1844  363 872 1105  455 834 948  456 833 949  581 919 1506  580 918 1507  524 839 1289  525 840 1290  540 727 1611  51 575 1211  60 576 1212  345 741 1780  312 697 1135  423 981 1075  422 982 1076  375 724 977  376 723 978  850 932 1457  745 1712 1852  746 1713 1853  631 1011 1782  299 722 1177  228 835 1442  526 749 1579  527 750 1580  225 757 1101  398 666 1699  318 699 1319  319 700 1320  668 999 1582  99 982 1384  12 981 1383  215 781 897  216 782 898  504 791 1396  424 692 1380  235 864 1424  389 1450 1484  167 710 1094  116 711 1095  189 865 938  234 863 1425  614 841 1734  615 842 1735  352 792 931  284 1516 1811  518 1120 1623  140 141 873  374 909 1156  553 1165 1709  554 1166 1710  408 942 1321  411 943 1322  585 1144 1223  641 1034 1408  275 919 1506  276 918 1507  224 756 1120  209 672 1695  210 673 1696  592 1162 1808  354 1000 1144  646 1143 1609  464 713 1486  465 714 1487  277 1317 1387  483 704 1447  579 1091 1665  237 1178 1675  238 1179 1674  343 776 1776  166 710 1124  117 711 1125  496 926 1325  497 927 1324  267 1326 1808  183 902 1411  190 769 1037  354 1000 1753  207 878 1401  701 1108 1377  702 1109 1378  377 707 1562  284 888 1516  260 758 1171  579 1665 1725  191 763 1149  404 732 1210  352 931 1306  210 1285 1696  209 1284 1695  427 1012 1184  291 1557 1651  407 904 938  561 1015 1483  402 798 1054  473 676 1671  474 677 1672  272 1034 1408  645 1185 1242  646 1186 1243  238 1047 1674  237 1048 1675  291 787 1041  70 739 1020  255 761 1599  472 1352 1726  466 733 1495  800 1101 1624  187 1185 1242  188 1186 1243  456 832 1046  455 831 1045  562 954 1374  186 1011 1366  245 953 1497  244 952 1496  385 913 1016  388 844 1190  222 1115 1699  225 800 1101  13 858 1459  98 859 1458  315 734 1441  291 787 1472  186 862 923  201 916 1653  386 836 1460  387 837 1461  601 924 1200  283 1000 1379  730 971 1778  534 1163 1178  535 1164 1179  288 705 1348  788 1147 1615  789 1148 1616  388 757 1530  19 20 879  91 92 880  285 1147 1615  286 1148 1616  510 1096 1683  224 794 1120  566 1245 1741  584 1000 1379  340 1045 1698  339 1046 1697  636 968 1618  637 969 1619  534 939 1126  535 940 1127  493 786 1254  383 815 965  378 728 1600  256 774 1021  257 775 1022  366 1143 1609  390 756 1549  715 1182 1558  716 1183 1559  676 897 1468  677 898 1469  661 1450 1484  222 904 1699  671 740 1730  389 854 892  543 783 1426  214 983 1688  195 1189 1311  259 954 1374  287 712 1355  407 865 1225  319 732 1210  395 779 1039  334 958 1826  335 959 1827  178 701 1388  177 702 1389  372 812 1423  394 838 1080  391 810 1289  392 811 1290  909 1081 1593  232 846 1287  259 924 1200  272 886 1004  533 822 1491  532 821 1490  382 687 1320  382 686 1319  397 762 1251  395 739 1020  390 843 1188  345 785 1780  602 1110 1153  400 685 1073  401 684 1074  339 832 1046  340 831 1045  252 1039 1772  328 1187 1530  178 747 1377  177 748 1378  256 749 1230  257 750 1231  318 1319 1658  319 1320 1659  453 894 1224  864 1424 1732  287 736 1355  530 1024 1641  255 974 1373  288 737 1348  863 1425 1731  857 1332 1812  761 1139 1641  190 769 1106  269 717 1403  268 718 1402  187 1185 1852  188 1186 1853  424 692 1629  208 807 1244  208 871 1504  511 909 1593  73 791 1067  255 1262 1599  239 819 1132  240 820 1133  530 761 1599  342 891 1052  640 805 1815  407 904 915  201 703 1313  757 1187 1530  486 959 992  485 958 993  397 887 1588  300 762 1251  196 1161 1188  688 1019 1123  46 47 1228  64 65 1229  333 911 1429  532 826 1490  533 827 1491  229 727 1381  414 759 1208  415 760 1209  717 1403 1674  718 1402 1675  794 1120 1623  593 1554 1637  735 1223 1485  358 993 1099  359 992 1100  591 967 1455  45 733 1072  66 734 1071  168 821 1094  115 822 1095  51 575 1526  60 576 1525  378 1600 1807  377 1562 1806  349 816 972  245 1042 1497  244 1043 1496  197 1170 1190  586 974 1373  242 1292 1447  244 1208 1342  245 1209 1343  409 710 1094  410 711 1095  215 781 1486  216 782 1487  393 761 1373  652 887 1420  446 1144 1223  549 911 1429  331 1635 1839  498 981 1075  499 982 1076  545 1103 1689  408 710 1124  411 711 1125  274 1265 1679  273 1264 1680  463 872 1105  204 899 1726  342 680 1814  260 758 1205  279 1434 1527  171 826 1111  112 827 1112  153 154 906  660 1299 1673  346 828 1025  578 902 1411  564 887 1420  926 1325 1817  927 1324 1816  687 984 1644  686 984 1645  641 1207 1749  348 754 1800  347 755 1799  631 1011 1366  413 758 1205  529 1356 1474  573 1149 1206  412 769 1106  773 1045 1698  772 1046 1697  306 763 1797  417 921 1307  195 849 1017  433 1149 1206  526 939 1626  527 940 1627  433 851 1016  402 798 1118  384 809 1002  374 795 1005  946 1581 1745  165 841 1124  118 842 1125  645 1216 1608  149 150 930  647 1031 1385  549 911 1054  531 1093 1552  27 925 1565  250 815 1096  314 733 1495  336 838 1080  364 946 1581  440 758 1171  473 1006 1264  474 1007 1265  13 14 1459  97 98 1458  379 895 1161  190 689 1236  251 1018 1275  464 845 1533  465 846 1534  380 896 1170  363 872 1129  241 744 1515  297 999 1089  534 1126 1178  535 1127 1179  23 790 1787  335 959 1361  334 958 1360  241 744 1676  451 810 1402  452 811 1403  185 801 1440  399 1027 1070  176 778 1476  649 808 1248  529 1049 1356  314 744 1495  223 885 1033  126 127 921  626 1010 1507  625 1009 1506  478 705 1348  484 1011 1657  452 1403 1674  451 1402 1675  430 886 1004  551 1556 1782  280 966 967  189 799 1551  282 1234 1629  367 849 1017  593 1193 1637  779 1039 1772  1018 1275 1673  512 823 1692  479 1028 1294  480 1029 1293  727 903 1611  704 1292 1447  237 1163 1178  238 1164 1179  324 1038 1567  228 1159 1442  279 1104 1434  462 830 1312  514 846 1287  768 1103 1689  186 708 1657  185 709 1136  488 712 1355  413 905 1502  336 764 1298  325 725 1421  326 726 1422  537 974 1262  242 980 1652  462 1386 1724  509 1004 1296  605 1519 1669  313 830 1312  234 736 1819  235 737 1820  389 785 1780  354 850 1830  630 1169 1572  588 866 1719  589 867 1720  315 704 1441  629 1066 1280  345 954 1382  420 807 1288  362 716 1771  361 715 1770  614 874 1734  615 875 1735  648 936 1668  604 1514 1670  577 861 1187  562 954 1382  608 1044 1567  467 980 1292  412 815 1341  338 780 1246  255 761 1373  473 1264 1294  474 1265 1293  551 1138 1782  542 1404 1761  541 1405 1760  195 849 1454  48 49 1036  62 63 1035  669 1219 1834  670 1218 1835  493 786 1586  230 784 1301  393 915 1632  370 774 1442  205 767 1510  261 1013 1369  262 1014 1370  762 1057 1625  41 42 1008  236 812 1400  494 801 1136  662 1562 1806  128 129 955  605 1175 1519  651 888 1333  611 1202 1828  612 1201 1829  405 796 1464  406 797 1463  55 56 984  333 791 1552  425 779 1772  494 800 1399  394 838 1030  663 1600 1807  191 913 1016  604 1173 1514  502 807 1244  365 1216 1608  484 1192 1657  539 903 1609  413 758 1207  314 733 1539  315 734 1540  609 1005 1744  366 783 1143  236 860 1400  77 891 1489  434 998 1061  234 736 1847  787 1472 1573  453 936 1224  523 801 1440  35 1263 1821  227 771 1131  242 1176 1652  15 16 989  95 96 990  547 931 1372  222 776 1113  653 1557 1651  205 804 1184  495 730 1453  442 869 1721  213 1271 1568  658 1459 1697  659 1458 1698  232 722 1456  1086 1317 1703  660 1275 1364  427 804 1184  391 1289 1511  392 1290 1512  322 781 1214  323 782 1215  684 1117 1801  685 1116 1802  377 707 1596  322 1214 1309  323 1215 1310  721 1123 1278  550 947 1694  443 870 1456  50 731 1211  61 732 1212  509 1296 1478  451 1126 1178  452 1127 1179  560 986 1359  559 985 1358  444 742 1824  445 743 1825  648 1092 1668  344 767 1276  184 838 1030  345 741 1266  709 1399 1759  532 826 1082  533 827 1083  426 885 1033  457 786 1295  507 744 1515  598 959 1570  597 958 1571  432 847 1158  431 848 1157  501 792 1803  500 793 1804  337 902 1585  228 835 1081  192 1024 1707  346 1025 1613  203 783 1365  235 737 1818  450 784 1301  185 801 1136  206 786 1586  781 1214 1486  782 1215 1487  206 806 1636  584 1000 1753  180 959 1570  181 958 1571  444 742 1738  445 743 1739  545 1103 1304  273 1088 1349  274 1087 1350  438 788 1437  439 789 1438  282 1234 1452  700 1050 1210  454 817 1203  222 776 1115  675 1038 1567  291 753 1472  552 787 1762  180 866 1719  181 867 1720  350 885 1333  34 35 1263  208 807 1340  178 751 1448  177 752 1449  539 903 1522  103 847 1158  8 848 1157  191 763 1329  143 813 1498  689 1236 1711  493 999 1089  558 970 1733  479 1294 1349  480 1293 1350  23 790 1269  277 1086 1317  260 970 1751  692 1234 1629  360 765 1247  263 759 1427  264 760 1428  425 779 1176  368 819 1132  369 820 1133  583 795 1156  597 1013 1369  598 1014 1370  184 838 1555  491 751 1680  492 752 1679  267 1085 1808  641 1301 1408  829 1386 1724  89 792 1803  22 793 1804  252 911 1054  256 774 1230  257 775 1231  409 821 1094  410 822 1095  654 1244 1473  190 1118 1642  242 881 1447  503 935 1452  391 810 1064  392 811 1065  283 1103 1304  259 851 1374  425 798 1772  386 836 1121  387 837 1122  436 774 1159  437 775 1160  143 813 1583  718 1238 1767  717 1237 1766  245 953 1209  244 952 1208  546 884 1130  466 1051 1676  425 881 1176  255 974 1262  403 983 1079  597 958 1826  598 959 1827  436 1159 1521  437 1160 1522  418 790 1787  309 1533 1541  310 1534 1542  515 883 1492  346 769 1706  18 19 1257  92 93 1256  414 826 1111  415 827 1112  320 834 1743  321 833 1742  632 781 1517  633 782 1518  528 905 1034  248 753 1337  185 785 1440  542 1197 1761  541 1198 1760  429 966 967  261 1013 1511  262 1014 1512  494 801 1572  599 1117 1801  600 1116 1802  258 1012 1805  346 1283 1613  298 963 1588  800 1399 1624  428 998 1061  248 1222 1433  374 909 1081  140 873 1213  259 851 1200  183 762 1625  350 888 1333  184 1066 1409  80 817 1203  609 835 1744  506 890 1774  250 815 1341  450 1301 1408  356 772 1195  357 773 1196  258 946 1012  555 1068 1391  324 735 1485  463 872 1617  556 813 1776  440 758 1574  511 766 1545  378 728 1589  125 1307 1622  648 1224 1347  408 841 1124  411 842 1125  260 1331 1751  190 1037 1642  388 844 1530  372 999 1582  865 1225 1531  534 942 1163  535 943 1164  312 829 1386  424 1273 1335  425 881 1706  276 1010 1507  275 1009 1506  289 1079 1404  297 1089 1520  258 1258 1805  141 873 1286  547 900 1306  472 1274 1726  389 892 1484  470 1278 1532  724 968 1765  723 969 1764  491 751 1448  492 752 1449  20 879 1315  91 880 1316  537 1062 1262  571 1352 1726  313 830 1553  76 77 1489  505 1222 1276  196 843 1188  428 951 1128  834 948 1743  833 949 1742  390 843 1549  479 1116 1349  480 1117 1350  247 831 1493  246 832 1494  206 786 1636  197 844 1190  454 780 1246  587 1234 1452  333 791 1509  394 1003 1080  167 168 1094  115 116 1095  453 1062 1262  325 749 1249  326 750 1250  412 828 1832  512 1275 1364  475 1057 1331  736 1406 1819  737 1407 1820  441 1023 1267  721 1278 1532  616 1414 1588  420 807 1340  251 823 1631  195 1134 1189  499 982 1384  498 981 1383  416 857 1326  600 1088 1349  599 1087 1350  454 817 1317  489 759 1427  490 760 1428  385 913 1104  436 1521 1577  437 1522 1578  229 903 1522  384 1002 1102  430 964 1272  263 1427 1463  264 1428 1464  45 46 1072  65 66 1071  354 932 1144  249 829 1724  249 830 1724  503 1308 1452  165 166 1124  117 118 1125  427 804 1587  343 813 1776  424 808 1629  446 932 1144  69 70 1020  552 946 1012  441 1023 1153  408 942 1163  411 943 1164  303 1399 1759  221 883 1077  171 172 1111  111 112 1112  433 851 1200  261 1511 1709  262 1512 1710  344 799 1733  405 796 1354  406 797 1353  405 1047 1766  406 1048 1767  431 1232 1446  432 1233 1445  282 808 1629  219 1195 1715  220 1196 1716  585 1000 1144  442 963 1721  436 774 1230  437 775 1231  200 810 1289  202 811 1290  162 874 1180  121 875 1181  152 884 1594  94 95 1501  16 17 1500  606 1079 1404  350 901 1516  629 1015 1398  203 1273 1426  701 1388 1406  702 1389 1407  284 888 1833  231 845 1747  232 846 1748  218 910 1380  502 1244 1473  694 1263 1821  565 1204 1332  485 993 1099  486 992 1100  366 903 1609  431 1043 1446  432 1042 1445  655 1089 1520  240 855 1783  239 856 1784  303 996 1175  150 930 1172  50 51 1211  60 61 1212  701 1108 1406  702 1109 1407  678 1273 1335  302 994 1173  408 960 1163  411 961 1164  363 893 1105  22 793 1269  152 884 1505  23 24 1787  678 1273 1426  206 1513 1586  363 1129 1812  619 979 1235  350 888 1516  254 836 1460  253 837 1461  435 884 1594  533 877 1846  532 876 1845  616 963 1588  24 25 1060  698 1222 1433  38 868 1199  742 1202 1828  743 1201 1829  421 991 1063  435 884 1130  685 1073 1802  684 1074 1801  287 1108 1406  288 1109 1407  393 915 1410  603 1146 1386  234 863 1819  235 864 1820  205 804 1510  620 1204 1332  441 1068 1267  368 819 1686  369 820 1687  176 1068 1391  13 858 1383  98 859 1384  457 806 1636  629 1066 1409  357 1009 1196  356 1010 1195  227 917 1191  178 824 1448  177 825 1449  294 1224 1347  242 881 1176  243 1305 1327  509 777 1351  614 874 1147  615 875 1148  327 801 1572  360 849 1454  374 1005 1744  433 1016 1149  267 857 1326  405 1354 1766  406 1353 1767  717 1047 1766  718 1048 1767  797 1427 1463  796 1428 1464  496 803 1237  497 802 1238  462 830 1724  239 819 1183  240 820 1182  428 1061 1379  589 867 1444  588 866 1443  600 1116 1349  599 1117 1350  513 991 1063  520 823 1631  447 1001 1078  560 1376 1461  559 1375 1460  372 778 1582  457 786 1636  178 824 1388  177 825 1389  192 901 1621  191 1016 1149  281 909 1156  73 74 1067  130 935 1371  442 869 1309  443 870 1310  294 894 1224  213 853 1328  233 1105 1564  661 1018 1450  703 922 1313  307 1073 1802  308 1074 1801  435 1114 1241  695 1584 1830  182 951 1128  521 830 1553  338 889 1692  154 906 1660  572 1057 1331  241 965 1051  232 818 1287  395 779 1652  624 1339 1728  623 1338 1727  145 146 1090  569 1009 1196  568 1010 1195  476 1406 1819  477 1407 1820  499 859 1418  498 858 1419  665 1084 1688  435 1130 1241  714 1346 1534  713 1345 1533  134 135 1092  504 791 1509  476 1388 1406  477 1389 1407  513 991 1367  640 813 1583  295 1119 1474  241 828 1832  149 930 1548  545 1134 1189  422 908 1649  423 907 1648  373 812 1400  424 1058 1380  558 799 1733  311 1279 1750  208 871 1340  602 1297 1520  426 1033 1280  491 824 1448  492 825 1449  448 1001 1078  256 1021 1437  257 1022 1438  345 785 1529  435 906 1594  350 885 1844  159 914 1810  590 1086 1240  428 1128 1379  417 912 1381  243 998 1604  574 1119 1474  127 921 1737  228 920 1521  651 888 1833  421 962 1414  556 813 1498  189 938 1551  546 1581 1745  445 908 1167  444 907 1168  449 816 1323  425 1037 1706  543 1003 1080  809 1002 1741  953 1209 1655  952 1208 1656  159 914 1451  447 1001 1154  498 858 1383  499 859 1384  506 1489 1774  342 891 1412  549 1417 1701  19 879 1257  92 880 1256  200 839 1626  202 840 1627  624 1339 1416  623 1338 1415  263 1082 1845  264 1083 1846  329 863 1731  330 864 1732  543 783 1503  649 1248 1471  331 868 1798  551 1390 1763  515 883 1643  438 874 1180  439 875 1181  596 853 1281  89 90 1803  21 22 1804  571 899 1726  265 991 1367  75 890 1470  509 777 1478  310 1346 1534  309 1345 1533  620 1129 1812  424 808 1273  591 967 1291  448 1001 1155  447 1154 1705  349 816 1323  501 855 1783  500 856 1784  342 1052 1814  883 1492 1750  480 836 1661  479 837 1662  125 126 1307  729 1307 1622  248 805 1337  609 1005 1477  260 1171 1331  881 1283 1447  538 920 1608  595 852 1300  461 1339 1416  460 1338 1415  27 28 1565  370 835 1442  233 768 1592  463 1263 1617  543 1003 1503  475 804 1510  280 967 1291  496 803 1796  497 802 1795  464 845 1747  465 846 1748  349 1323 1840  384 784 1488  614 841 1321  615 842 1322  350 901 1851  517 1073 1303  516 1074 1302  647 883 1750  425 798 1642  128 955 1737  7 8 1157  103 104 1158  183 902 1226  680 997 1504  93 94 1221  17 18 1220  12 13 1383  98 99 1384  100 101 1218  10 11 1219  421 962 1411  130 935 1822  129 130 1371  481 994 1173  512 889 1692  582 901 1621  560 1099 1376  559 1100 1375  709 1136 1399  572 1171 1331  482 996 1175  490 1428 1601  489 1427 1602  523 801 1634  367 806 1538  365 920 1608  544 871 1527  514 1145 1287  430 929 1296  810 1064 1402  811 1065 1403  196 895 1161  537 974 1569  548 1305 1327  803 1354 1766  802 1353 1767  270 1032 1253  285 942 1321  286 943 1322  384 1102 1488  495 1086 1240  796 1428 1601  797 1427 1602  340 831 1418  339 832 1419  152 153 1594  418 917 1191  657 925 1756  265 1026 1714  448 1155 1704  225 861 1777  440 902 1226  443 1177 1456  476 824 1388  477 825 1389  197 896 1170  80 81 1203  368 879 1841  369 880 1842  583 906 1660  706 1621 1740  515 925 1565  505 1472 1573  769 1037 1706  506 890 1363  835 1081 1744  29 30 1779  491 824 1606  492 825 1607  540 1248 1471  574 871 1788  227 1191 1595  632 1517 1826  633 1518 1827  211 1091 1457  484 1011 1566  37 38 1199  582 901 1851  299 1003 1503  55 984 1645  56 984 1644  243 998 1327  249 1001 1154  327 924 1729  249 1001 1155  401 956 1436  400 957 1435  239 1132 1784  240 1133 1783  280 850 1793  86 941 1299  419 1337 1557  413 1207 1749  870 1456 1748  577 1187 1563  53 54 1141  57 58 1142  338 823 1692  234 976 1847  603 1102 1488  613 955 1737  276 918 1338  275 919 1339  613 921 1737  882 1390 1763  208 997 1504  583 906 1362  468 1336 1366  642 947 1247  303 1175 1759  444 907 1738  445 908 1739  475 804 1633  307 1073 1303  308 1074 1302  351 974 1569  346 881 1283  910 1323 1840  413 905 1749  237 960 1467  238 961 1466  442 963 1270  538 920 1521  468 1031 1702  340 859 1418  339 858 1419  85 86 1299  212 1002 1741  327 801 1634  150 151 1172  142 143 1498  502 1193 1357  151 152 1505  572 1171 1226  331 868 1591  302 1173 1758  100 982 1218  11 981 1219  635 844 1836  353 917 1392  272 886 1408  329 863 1535  330 864 1536  161 162 1180  121 122 1181  236 812 1423  486 959 1361  485 958 1360  512 889 1576  334 897 1517  335 898 1518  232 1456 1748  106 969 1764  5 968 1765  654 997 1244  270 1152 1508  631 1336 1366  450 886 1408  266 1562 1685  265 1026 1598  462 1312 1605  430 886 1272  445 926 1825  444 927 1824  579 1091 1457  237 960 1163  238 961 1164  781 897 1517  782 898 1518  427 922 1587  74 75 1470  597 1013 1571  598 1014 1570  303 1399 1624  910 1380 1840  648 936 1224  333 911 1509  26 925 1756  850 1457 1793  626 1220 1507  625 1221 1506  435 906 1362  495 1086 1239  124 975 1854  143 144 1583  426 885 1333  380 896 1700  296 1351 1740  587 972 1475  423 981 1219  422 982 1218  30 31 1204  613 955 1282  235 973 1818  491 944 1606  492 945 1607  83 84 1576  223 929 1296  396 1019 1123  25 1060 1756  231 1063 1499  706 1225 1740  506 891 1412  265 1600 1714  374 1081 1744  1021 1437 1666  1022 1438 1667  601 860 1729  404 1050 1210  211 932 1457  521 896 1700  243 1227 1604  429 950 1455  678 1614 1769  158 159 1810  191 1049 1329  302 1192 1758  418 1060 1787  130 131 1822  379 895 1752  634 1032 1253  446 1223 1485  617 1516 1811  123 124 1854  544 1504 1823  657 1060 1756  215 897 1468  216 898 1469  147 148 1194  211 1091 1140  673 1302 1696  672 1303 1695  572 1057 1625  476 824 1535  477 825 1536  294 894 1620  29 1070 1779  430 1004 1296  363 857 1812  222 915 1632  139 140 1213  7 1157 1618  104 1158 1619  298 963 1270  753 1337 1557  460 918 1338  461 919 1339  28 1027 1565  189 905 1502  372 999 1314  189 865 1638  546 884 1505  43 44 1259  67 68 1260  83 889 1576  241 965 1832  197 896 1255  126 921 1307  575 1141 1681  576 1142 1682  440 995 1574  695 1334 1584  269 1097 1443  268 1098 1444  159 160 1451  199 1201 1825  198 1202 1824  464 869 1747  465 870 1748  862 923 1717  196 895 1268  189 905 1638  346 881 1706  601 924 1729  222 1113 1632  290 1217 1405  679 937 1328  880 1316 1842  879 1315 1841  508 1334 1584  585 1103 1592  417 921 1524  429 950 1277  137 936 1413  75 890 1774  440 1171 1226  743 1201 1825  742 1202 1824  379 1135 1752  33 872 1617  447 1255 1705  3 108 1690  0 175 1691  390 976 1654  460 1435 1686  461 1436 1687  511 920 1684  593 1193 1357  22 23 1269  643 1152 1508  208 997 1244  453 936 1413  791 1067 1552  642 1031 1702  277 1086 1239  246 1075 1168  247 1076 1167  418 1059 1191  562 971 1374  602 1153 1297  212 1245 1741  145 1090 1482  579 1457 1793  462 1146 1605  281 1114 1362  359 1100 1358  358 1099 1359  586 1113 1632  708 1192 1758  332 1023 1267  417 1107 1381  336 1614 1769  146 1090 1523  275 1339 1728  276 1338 1727  905 1034 1749  670 847 1640  669 848 1639  344 970 1733  696 862 1717  297 1297 1520  296 1225 1740  429 967 1455  215 1006 1468  216 1007 1469  20 21 1315  90 91 1316  270 1032 1508  568 1010 1727  569 1009 1728  510 868 1591  186 923 1366  580 1220 1507  581 1221 1506  218 1123 1278  3 107 1690  0 4 1691  87 88 1372  407 915 1410  505 1276 1573  398 904 1699  360 947 1247  135 1092 1668  421 1414 1499  137 138 1413  471 1030 1409  607 1035 1786  606 1036 1785  607 1217 1405  217 950 1455  518 994 1623  519 996 1624  448 1268 1704  331 928 1591  530 894 1620  547 900 1843  263 876 1845  264 877 1846  180 866 1570  181 867 1571  337 1026 1590  39 40 1318  193 957 1415  194 956 1416  228 920 1593  528 865 1531  458 1006 1791  459 1007 1792  308 945 1481  307 944 1480  360 1162 1454  460 957 1415  461 956 1416  88 931 1372  296 1225 1531  521 896 1705  524 1289 1511  525 1290 1512  367 1017 1538  507 1025 1613  331 928 1635  667 1191 1595  364 946 1630  141 142 1286  388 973 1663  503 935 1371  493 999 1314  528 865 1638  883 1077 1643  575 1526 1681  576 1525 1682  361 1235 1838  198 1353 1795  199 1354 1796  352 979 1306  511 920 1593  609 914 1810  667 1059 1191  397 962 1414  695 1736 1753  10 1219 1834  101 1218 1835  355 923 1717  281 909 1545  487 928 1635  398 938 1551  351 873 1773  788 1579 1615  789 1580 1616  355 923 1385  563 1554 1637  767 1510 1751  528 905 1638  371 912 1597  129 955 1371  503 955 1282  496 926 1796  497 927 1795  252 1039 1612  468 923 1366  664 951 1462  802 1353 1795  803 1354 1796  819 1435 1686  820 1436 1687  229 912 1381  63 1035 1786  48 1036 1785  475 1510 1751  327 924 1634  507 1261 1613  487 1091 1140  434 1189 1304  161 1180 1431  122 1181 1432  588 1097 1443  589 1098 1444  740 951 1462  71 72 1396  153 906 1594  470 1298 1532  617 901 1516  481 994 1425  713 1486 1791  714 1487 1792  458 1006 1264  459 1007 1265  296 1040 1351  295 1356 1474  111 1112 1560  172 1111 1561  547 941 1843  531 890 1470  487 928 1537  401 1182 1436  400 1183 1435  402 950 1277  620 1332 1812  482 996 1424  674 1254 1693  481 1150 1514  506 891 1489  824 1535 1606  825 1536 1607  269 1097 1237  268 1098 1238  242 980 1292  440 902 1585  450 886 1848  506 1412 1677  302 994 1623  303 996 1624  570 1274 1397  138 1062 1413  234 1425 1465  469 1227 1722  550 1085 1808  482 1151 1519  36 37 1708  230 995 1574  468 923 1385  473 1028 1294  474 1029 1293  132 972 1475  78 79 1528  218 1058 1278  706 1139 1621  523 954 1529  470 1058 1278  637 1042 1497  636 1043 1496  221 947 1694  727 1107 1381  496 1097 1237  497 1098 1238  378 1108 1589  359 988 1358  358 987 1359  365 920 1684  540 1365 1611  270 1078 1253  620 1204 1678  285 939 1615  286 940 1616  681 948 1743  682 949 1742  157 1005 1477  603 1137 1488  410 961 1466  409 960 1467  557 1052 1814  733 1072 1539  734 1071 1540  562 971 1778  1018 1450 1831  276 1010 1727  275 1009 1728  553 1421 1712  554 1422 1713  587 935 1452  377 1109 1596  559 1100 1358  560 1099 1359  567 1106 1236  460 957 1435  461 956 1436  280 966 1793  555 1032 1508  183 962 1411  582 1621 1740  368 918 1686  369 919 1687  523 924 1634  578 1026 1598  434 998 1327  351 873 1569  35 36 1821  147 1194 1523  555 1068 1267  148 1194 1548  545 1189 1304  566 1026 1714  266 1015 1685  375 952 1496  376 953 1497  548 1017 1538  426 1066 1280  324 1038 1485  313 937 1553  365 916 1684  235 1424 1479  566 1026 1590  381 900 1843  395 980 1652  802 1238 1767  803 1237 1766  674 1650 1693  329 1150 1731  330 1151 1732  258 946 1745  644 1194 1548  253 1376 1461  254 1375 1460  503 955 1371  511 909 1545  495 1239 1252  470 1058 1335  54 1141 1645  57 1142 1644  460 918 1686  461 919 1687  740 1119 1730  530 894 1599  434 1061 1304  526 1579 1615  527 1580 1616  605 1175 1759  587 935 1822  448 1078 1253  836 1121 1661  837 1122 1662  770 1235 1838  345 954 1529  604 1173 1758  31 32 1678  429 966 1344  595 1108 1589  592 1162 1454  270 1078 1330  468 1031 1385  190 1106 1236  253 1671 1850  254 1672 1849  737 1348 1818  298 887 1588  316 1566 1789  458 1055 1345  459 1056 1346  645 1242 1608  646 1243 1609  328 1187 1563  549 1054 1701  516 1074 1558  517 1073 1559  575 1141 1658  576 1142 1659  515 1027 1643  472 1274 1397  447 1078 1330  174 977 1755  109 978 1754  638 952 1656  639 953 1655  478 973 1818  552 946 1630  548 1017 1311  596 1109 1596  362 1284 1837  361 1285 1838  508 1291 1393  488 976 1847  647 1279 1750  473 1028 1671  474 1029 1672  531 1067 1470  283 1061 1304  707 1562 1685  768 1103 1592  329 1535 1606  330 1536 1607  561 1015 1685  234 976 1465  274 1265 1293  273 1264 1294  736 1355 1847  442 1185 1270  53 1141 1681  58 1142 1682  243 1305 1718  124 975 1622  911 1509 1612  213 1328 1768  235 973 1479  515 925 1492  306 1254 1693  364 930 1581  680 1387 1814  160 161 1431  122 123 1432  724 977 1755  723 978 1754  33 34 1617  74 1067 1470  95 990 1501  16 989 1500  654 1412 1677  391 1013 1511  392 1014 1512  259 924 1813  666 1115 1699  75 76 1774  381 941 1843  579 966 1793  693 1084 1688  241 1051 1676  655 1556 1789  366 903 1611  6 7 1618  104 105 1619  755 1284 1837  754 1285 1838  368 1132 1841  369 1133 1842  523 954 1813  453 1062 1413  270 1152 1330  380 937 1700  509 1004 1610  440 995 1585  279 1104 1453  63 64 1786  47 48 1785  635 1152 1330  728 1600 1714  299 1143 1503  526 939 1615  527 940 1616  25 26 1756  509 1040 1351  428 998 1604  101 102 1835  9 10 1834  514 1145 1368  749 1230 1249  750 1231 1250  296 1040 1531  266 1015 1398  289 1404 1761  290 1405 1760  424 1058 1335  243 1718 1722  250 928 1537  218 1058 1380  523 924 1813  680 1504 1823  613 921 1524  325 1165 1421  326 1166 1422  186 1011 1657  210 1519 1669  536 1114 1241  215 1486 1791  216 1487 1792  157 158 1477  466 1495 1676  402 1054 1701  632 1369 1826  633 1370 1827  209 1514 1670  292 1648 1738  293 1649 1739  144 145 1482  169 170 1490  113 114 1491  584 1128 1379  131 132 1475  300 922 1587  31 1204 1678  293 1233 1640  292 1232 1639  469 1049 1329  653 1194 1523  252 911 1612  106 107 1764  4 5 1765  258 1130 1241  621 1021 1666  622 1022 1667  641 1034 1749  84 1364 1576  272 1004 1610  744 1495 1676  1033 1280 1723  491 1088 1680  492 1087 1679  767 970 1751  266 1145 1368  476 1535 1819  477 1536 1820  446 1038 1485  469 1049 1356  441 1153 1297  220 985 1716  219 986 1715  223 1296 1478  351 1113 1550  473 1006 1468  474 1007 1469  536 1653 1781  930 1172 1581  679 1328 1768  445 926 1817  444 927 1816  704 1292 1441  146 147 1523  250 1096 1683  503 1282 1575  278 1138 1336  36 1044 1708  873 1213 1569  467 1292 1441  528 1040 1531  530 1024 1746  591 1291 1393  546 1130 1745  148 149 1548  515 1027 1565  110 111 1560  172 173 1561  976 1465 1654  645 1185 1270  435 1114 1362  495 1252 1453  420 1119 1730  544 1239 1252  644 1194 1651  572 1226 1625  503 1308 1575  809 1590 1741  566 1590 1741  729 975 1622  317 1665 1725  631 1138 1336  470 1335 1769  278 1336 1702  611 1232 1446  612 1233 1445  443 1177 1628  681 1325 1817  682 1324 1816  722 1177 1456  399 1027 1643  245 1042 1445  244 1043 1446  485 1099 1376  486 1100 1375  290 1084 1397  294 1019 1620  416 1326 1775  472 1084 1397  215 1006 1791  216 1007 1792  2 59 1525  1 52 1526  299 1177 1628  513 1367 1541  514 1368 1542  443 1186 1628  250 928 1683  557 1052 1528  282 1308 1452  776 1113 1550  184 1030 1409  334 1517 1826  335 1518 1827  266 1368 1562  78 1052 1528  787 1573 1762  522 1704 1752  579 966 1725  192 1139 1641  124 125 1622  500 1315 1804  501 1316 1803  463 1263 1794  268 1064 1402  269 1065 1403  434 1189 1311  259 954 1813  519 1101 1663  622 975 1854  695 1334 1736  907 1648 1738  908 1649 1739  618 1131 1392  265 991 1598  179 1137 1848  471 1145 1398  686 1141 1645  687 1142 1644  518 1120 1654  540 1248 1365  265 1367 1600  682 1324 1742  681 1325 1743  402 950 1701  863 1535 1819  864 1536 1820  253 1028 1671  254 1029 1672  154 155 1660  553 1165 1421  554 1166 1422  475 1057 1633  283 1061 1379  135 136 1668  396 1024 1746  493 1254 1314  777 1478 1844  56 57 1644  54 55 1645  643 1391 1508  584 1736 1753  108 109 1754  174 175 1755  273 1294 1349  274 1293 1350  269 1065 1443  268 1064 1444  36 1044 1821  349 1234 1840  478 1348 1818  869 1721 1747  364 1041 1630  674 1254 1314  555 1391 1508  183 1226 1625  543 1080 1614  783 1143 1503  401 1074 1558  400 1073 1559  245 1343 1445  244 1342 1446  766 1653 1781  163 164 1734  119 120 1735  127 128 1737  258 1241 1258  421 1063 1499  624 1394 1728  623 1395 1727  52 53 1681  58 59 1682  321 1324 1742  320 1325 1743  608 1199 1708  487 1069 1665  381 1018 1673  300 1057 1633  895 1704 1752  336 1080 1614  973 1479 1663  542 1228 1404  541 1229 1405  231 1721 1747  487 1069 1537  436 1230 1249  437 1231 1250  516 1285 1696  517 1284 1695  532 1082 1845  533 1083 1846  653 1194 1651  520 1266 1382  504 1509 1612  420 1288 1730  536 1241 1258  37 1199 1708  694 1044 1821  498 1075 1494  499 1076 1493  528 1040 1790  470 1298 1769  203 1248 1365  873 1286 1773  494 1136 1399  686 1141 1658  687 1142 1659  205 1573 1762  528 1034 1790  301 1357 1439  488 1355 1847  928 1591 1683  531 1067 1552  247 1076 1493  246 1075 1494  417 1107 1524  676 1671 1850  677 1672 1849  663 1367 1541  662 1368 1542  655 1513 1556  656 1312 1605  407 1225 1410  271 1093 1637  544 1239 1823  694 1263 1794  233 1223 1592  396 1024 1707  774 1159 1442  600 1088 1480  599 1087 1481  507 1025 1515  230 1207 1574  425 1037 1642  311 1492 1750  679 1174 1603  193 1116 1662  194 1117 1661  764 1555 1833  463 1105 1564  692 1234 1840  548 1311 1327  660 1275 1673  574 1119 1788  462 1146 1386  585 1223 1592  463 1564 1794  541 1071 1540  542 1072 1539  563 1417 1429  266 1145 1398  396 1019 1746  482 1424 1732  414 1208 1656  415 1209 1655  671 1288 1730  182 1128 1736  192 1024 1641  481 1425 1731  427 1012 1805  819 1183 1435  820 1182 1436  674 1423 1650  382 1319 1809  382 1320 1809  317 1069 1665  612 1343 1445  611 1342 1446  692 1380 1840  179 1272 1848  775 1160 1597  611 1232 1828  612 1233 1829  301 1393 1439  24 1060 1787  590 1086 1703  551 1513 1556  225 1169 1777  584 1128 1736  316 1556 1789  194 1121 1661  193 1122 1662  785 1440 1529  487 1091 1665  274 1087 1679  273 1088 1680  484 1110 1566  520 1382 1401  717 1047 1674  718 1048 1675  573 1650 1693  509 1040 1610  649 1471 1575  590 1246 1703  345 1266 1382  556 1550 1776  481 1173 1514  593 1357 1439  32 1129 1678  454 1317 1703  606 1228 1404  607 1229 1405  706 1225 1410  482 1175 1519  651 1555 1833  151 1172 1505  198 1795 1824  199 1796 1825  502 1193 1473  442 1309 1852  443 1310 1853  317 1069 1711  620 1129 1678  271 1193 1473  480 1117 1661  479 1116 1662  228 1159 1521  229 1160 1522  198 1202 1602  199 1201 1601  868 1199 1798  160 1431 1451  272 1034 1790  304 1471 1575  563 1093 1637  546 1172 1505  871 1340 1788  52 1526 1681  59 1525 1682  483 1261 1613  699 1319 1809  700 1320 1809  500 1315 1841  501 1316 1842  650 1033 1723  434 1311 1327  314 1197 1539  315 1198 1540  198 1353 1602  199 1354 1601  221 1077 1694  179 1146 1605  454 1246 1703  253 1376 1850  254 1375 1849  292 1232 1828  293 1233 1829  281 1545 1781  251 1018 1831  228 1081 1593  510 1591 1683  34 1263 1617  608 1044 1708  538 1521 1577  539 1522 1578  493 1089 1586  679 1603 1768  616 1414 1499  536 1114 1781  549 1417 1429  420 1119 1788  475 1331 1751  728 1245 1589  201 1313 1420  279 1252 1453  389 1450 1780  494 1169 1572  258 1130 1745  631 1138 1782  541 1198 1540  542 1197 1539  721 1532 1811  341 1174 1603  500 1132 1784  501 1133 1783  591 1393 1439  568 1195 1715  569 1196 1716  707 1271 1596  192 1139 1621  236 1206 1650  591 1439 1757  419 1337 1815  927 1795 1824  926 1796 1825  487 1140 1635  678 1426 1614  529 1434 1474  315 1198 1664  399 1077 1643  798 1118 1642  776 1550 1776  630 1169 1777  450 1137 1848  490 1201 1601  489 1202 1602  544 1252 1527  305 1430 1483  788 1437 1579  789 1438 1580  735 1564 1794  464 1214 1486  465 1215 1487  758 1207 1574  537 1213 1569  655 1520 1789  646 1186 1628  142 1286 1498  621 1431 1451  279 1252 1527  567 1069 1711  281 1114 1781  416 1134 1689  498 1419 1494  499 1418 1493  886 1272 1848  316 1556 1782  506 1363 1677  256 1437 1579  257 1438 1580  47 1228 1785  64 1229 1786  766 1545 1781  556 1286 1498  565 1070 1779  564 1313 1420  805 1337 1815  545 1134 1689  779 1176 1652  538 1242 1608  539 1243 1609  546 1172 1581  797 1353 1602  796 1354 1601  416 1134 1775  650 1430 1723  361 1285 1770  362 1284 1771  457 1295 1718  483 1283 1447  521 1154 1705  522 1155 1704  284 1532 1811  570 1198 1664  741 1450 1780  524 1511 1709  525 1512 1710  595 1245 1589  606 1228 1785  607 1229 1786  277 1387 1823  351 1550 1773  512 1364 1576  524 1165 1709  525 1166 1710  596 1271 1596  552 1184 1762  605 1544 1759  604 1543 1758  271 1193 1637  565 1204 1779  573 1206 1650  336 1298 1769  594 1430 1483  574 1434 1474  280 1291 1584  550 1162 1808  562 1382 1401  30 1204 1779  551 1138 1763  610 1295 1718  708 1192 1657  649 1308 1575  508 1291 1584  561 1483 1568  937 1553 1700  594 1483 1568  305 1430 1723  522 1135 1752  896 1255 1705  551 1390 1513  278 1138 1763  594 1603 1768  664 1227 1604  895 1268 1704  587 1475 1822  608 1199 1798  452 1179 1674  451 1178 1675  243 1227 1722  481 1150 1731  482 1151 1732  832 1419 1494  831 1418 1493  304 1282 1575  205 1184 1762  500 1132 1841  501 1133 1842  680 1387 1823  438 1437 1666  439 1438 1667  570 1198 1760  571 1197 1761  709 1544 1759  708 1543 1758  204 1274 1726  206 1390 1513  567 1236 1711  306 1295 1797  144 1482 1583  271 1473 1677  662 1368 1562  563 1417 1554  217 1417 1554  516 1285 1770  517 1284 1771  523 1440 1529  457 1305 1718  520 1266 1631  271 1363 1677  483 1283 1613  663 1367 1600  182 1334 1736  571 1352 1761  277 1239 1823  442 1185 1852  443 1186 1853  486 1361 1849  485 1360 1850  570 1397 1760  608 1567 1839  516 1302 1696  517 1303 1695  486 1375 1849  485 1376 1850  107 1690 1764  4 1691 1765  640 1482 1583  290 1397 1760  378 1377 1807  377 1378 1806  543 1426 1614  300 1587 1633  610 1295 1797  108 1690 1754  175 1691 1755  468 1336 1702  236 1423 1650  610 1718 1722  592 1326 1775  966 1344 1725  654 1473 1677  723 1690 1754  724 1691 1755  292 1639 1648  293 1640 1649  568 1395 1727  569 1394 1728  1040 1610 1790  305 1280 1723  1019 1620 1746  804 1587 1633  609 1477 1810  600 1480 1802  599 1481 1801  669 1639 1648  670 1640 1649  420 1340 1788  289 1352 1761  21 1315 1804  90 1316 1803  703 1258 1805  556 1286 1773  747 1377 1807  748 1378 1806  350 1844 1851  593 1554 1757  207 1401 1778  724 1691 1765  723 1690 1764  517 1559 1771  516 1558 1770  678 1335 1769  317 1344 1725  608 1798 1839  716 1559 1771  715 1558 1770  777 1844 1851  518 1465 1654  597 1369 1826  598 1370 1827  593 1439 1757  605 1544 1800  604 1543 1799  519 1479 1663  213 1568 1768  557 1387 1814  622 1432 1854  556 1550 1773  292 1738 1828  293 1739 1829  307 1480 1802  308 1481 1801  742 1738 1828  743 1739 1829  677 1361 1849  676 1360 1850  719 1646 1720  720 1647 1719  562 1401 1778  123 1432 1854  217 1554 1757  158 1477 1810  602 1520 1789  844 1530 1836  521 1553 1700  695 1753 1830  131 1475 1822  76 1489 1774  354 1753 1830  594 1568 1768  588 1647 1719  589 1646 1720  530 1620 1746  348 1544 1800  347 1543 1799  741 1450 1831  605 1669 1800  604 1670 1799  328 1530 1836  675 1567 1839  755 1670 1799  754 1669 1800  272 1610 1790  331 1798 1839  </DataArray>
<DataArray  type="UInt32"  Name="offsets"  format="ascii">3 6 9 12 15 18 21 24 27 30 33 36 39 42 45 48 51 54 57 60 63 66 69 72 75 78 81 84 87 90 93 96 99 102 105 108 111 114 117 120 123 126 129 132 135 138 141 144 147 150 153 156 159 162 165 168 171 174 177 180 183 186 189 192 195 198 201 204 207 210 213 216 219 222 225 228 231 234 237 240 243 246 249 252 255 258 261 264 267 270 273 276 279 282 285 288 291 294 297 300 303 306 309 312 315 318 321 324 327 330 333 336 339 342 345 348 351 354 357 360 363 366 369 372 375 378 381 384 387 390 393 396 399 402 405 408 411 414 417 420 423 426 429 432 435 438 441 444 447 450 453 456 459 462 465 468 471 474 477 480 483 486 489 492 495 498 501 504 507 510 513 516 519 522 525 528 531 534 537 540 543 546 549 552 555 558 561 564 567 570 573 576 579 582 585 588 591 594 597 600 603 606 609 612 615 618 621 624 627 630 633 636 639 642 645 648 651 654 657 660 663 666 669 672 675 678 681 684 687 690 693 696 699 702 705 708 711 714 717 720 723 726 729 732 735 738 741 744 747 750 753 756 759 762 765 768 771 774 777 780 783 786 789 792 795 798 801 804 807 810 813 816 819 822 825 828 831 834 837 840 843 846 849 852 855 858 861 864 867 870 873 876 879 882 885 888 891 894 897 900 903 906 909 912 915 918 921 924 927 930 933 936 939 942 945 948 951 954 957 960 963 966 969 972 975 978 981 984 987 990 993 996 999 1002 1005 1008 1011 1014 1017 1020 1023 1026 1029 1032 1035 1038 1041 1044 1047 1050 1053 1056 1059 1062 1065 1068 1071 1074 1077 1080 1083 1086 1089 1092 1095 1098 1101 1104 1107 1110 1113 1116 1119 1122 1125 1128 1131 1134 1137 1140 1143 1146 1149 1152 1155 1158 1161 1164 1167 1170 1173 1176 1179 1182 1185 1188 1191 1194 1197 1200 1203 1206 1209 1212 1215 1218 1221 1224 1227 1230 1233 1236 1239 1242 1245 1248 1251 1254 1257 1260 1263 1266 1269 1272 1275 1278 1281 1284 1287 1290 1293 1296 1299 1302 1305 1308 1311 1314 1317 1320 1323 1326 1329 1332 1335 1338 1341 1344 1347 1350 1353 1356 1359 1362 1365 1368 1371 1374 1377 1380 1383 1386 1389 1392 1395 1398 1401 1404 1407 1410 1413 1416 1419 1422 1425 1428 1431 1434 1437 1440 1443 1446 1449 1452 1455 1458 1461 1464 1467 1470 1473 1476 1479 1482 1485 1488 1491 1494 1497 1500 1503 1506 1509 1512 1515 1518 1521 1524 1527 1530 1533 1536 1539 1542 1545 1548 1551 1554 1557 1560 1563 1566 1569 1572 1575 1578 1581 1584 1587 1590 1593 1596 1599 1602 1605 1608 1611 1614 1617 1620 1623 1626 1629 1632 1635 1638 1641 1644 1647 1650 1653 1656 1659 1662 1665 1668 1671 1674 1677 1680 1683 1686 1689 1692 1695 1698 1701 1704 1707 1710 1713 1716 1719 1722 1725 1728 1731 1734 1737 1740 1743 1746 1749 1752 1755 1758 1761 1764 1767 1770 1773 1776 1779 1782 1785 1788 1791 1794 1797 1800 1803 1806 1809 1812 1815 1818 1821 1824 1827 1830 1833 1836 1839 1842 1845 1848 1851 1854 1857 1860 1863 1866 1869 1872 1875 1878 1881 1884 1887 1890 1893 1896 1899 1902 1905 1908 1911 1914 1917 1920 1923 1926 1929 1932 1935 1938 1941 1944 1947 1950 1953 1956 1959 1962 1965 1968 1971 1974 1977 1980 1983 1986 1989 1992 1995 1998 2001 2004 2007 2010 2013 2016 2019 2022 2025 2028 2031 2034 2037 2040 2043 2046 2049 2052 2055 2058 2061 2064 2067 2070 2073 2076 2079 2082 2085 2088 2091 2094 2097 2100 2103 2106 2109 2112 2115 2118 2121 2124 2127 2130 2133 2136 2139 2142 2145 2148 2151 2154 2157 2160 2163 2166 2169 2172 2175 2178 2181 2184 2187 2190 2193 2196 2199 2202 2205 2208 2211 2214 2217 2220 2223 2226 2229 2232 2235 2238 2241 2244 2247 2250 2253 2256 2259 2262 2265 2268 2271 2274 2277 2280 2283 2286 2289 2292 2295 2298 2301 2304 2307 2310 2313 2316 2319 2322 2325 2328 2331 2334 2337 2340 2343 2346 2349 2352 2355 2358 2361 2364 2367 2370 2373 2376 2379 2382 2385 2388 2391 2394 2397 2400 2403 2406 2409 2412 2415 2418 2421 2424 2427 2430 2433 2436 2439 2442 2445 2448 2451 2454 2457 2460 2463 2466 2469 2472 2475 2478 2481 2484 2487 2490 2493 2496 2499 2502 2505 2508 2511 2514 2517 2520 2523 2526 2529 2532 2535 2538 2541 2544 2547 2550 2553 2556 2559 2562 2565 2568 2571 2574 2577 2580 2583 2586 2589 2592 2595 2598 2601 2604 2607 2610 2613 2616 2619 2622 2625 2628 2631 2634 2637 2640 2643 2646 2649 2652 2655 2658 2661 2664 2667 2670 2673 2676 2679 2682 2685 2688 2691 2694 2697 2700 2703 2706 2709 2712 2715 2718 2721 2724 2727 2730 2733 2736 2739 2742 2745 2748 2751 2754 2757 2760 2763 2766 2769 2772 2775 2778 2781 2784 2787 2790 2793 2796 2799 2802 2805 2808 2811 2814 2817 2820 2823 2826 2829 2832 2835 2838 2841 2844 2847 2850 2853 2856 2859 2862 2865 2868 2871 2874 2877 2880 2883 2886 2889 2892 2895 2898 2901 2904 2907 2910 2913 2916 2919 2922 2925 2928 2931 2934 2937 2940 2943 2946 2949 2952 2955 2958 2961 2964 2967 2970 2973 2976 2979 2982 2985 2988 2991 2994 2997 3000 3003 3006 3009 3012 3015 3018 3021 3024 3027 3030 3033 3036 3039 3042 3045 3048 3051 3054 3057 3060 3063 3066 3069 3072 3075 3078 3081 3084 3087 3090 3093 3096 3099 3102 3105 3108 3111 3114 3117 3120 3123 3126 3129 3132 3135 3138 3141 3144 3147 3150 3153 3156 3159 3162 3165 3168 3171 3174 3177 3180 3183 3186 3189 3192 3195 3198 3201 3204 3207 3210 3213 3216 3219 3222 3225 3228 3231 3234 3237 3240 3243 3246 3249 3252 3255 3258 3261 3264 3267 3270 3273 3276 3279 3282 3285 3288 3291 3294 3297 3300 3303 3306 3309 3312 3315 3318 3321 3324 3327 3330 3333 3336 3339 3342 3345 3348 3351 3354 3357 3360 3363 3366 3369 3372 3375 3378 3381 3384 3387 3390 3393 3396 3399 3402 3405 3408 3411 3414 3417 3420 3423 3426 3429 3432 3435 3438 3441 3444 3447 3450 3453 3456 3459 3462 3465 3468 3471 3474 3477 3480 3483 3486 3489 3492 3495 3498 3501 3504 3507 3510 3513 3516 3519 3522 3525 3528 3531 3534 3537 3540 3543 3546 3549 3552 3555 3558 3561 3564 3567 3570 3573 3576 3579 3582 3585 3588 3591 3594 3597 3600 3603 3606 3609 3612 3615 3618 3621 3624 3627 3630 3633 3636 3639 3642 3645 3648 3651 3654 3657 3660 3663 3666 3669 3672 3675 3678 3681 3684 3687 3690 3693 3696 3699 3702 3705 3708 3711 3714 3717 3720 3723 3726 3729 3732 3735 3738 3741 3744 3747 3750 3753 3756 3759 3762 3765 3768 3771 3774 3777 3780 3783 3786 3789 3792 3795 3798 3801 3804 3807 3810 3813 3816 3819 3822 3825 3828 3831 3834 3837 3840 3843 3846 3849 3852 3855 3858 3861 3864 3867 3870 3873 3876 3879 3882 3885 3888 3891 3894 3897 3900 3903 3906 3909 3912 3915 3918 3921 3924 3927 3930 3933 3936 3939 3942 3945 3948 3951 3954 3957 3960 3963 3966 3969 3972 3975 3978 3981 3984 3987 3990 3993 3996 3999 4002 4005 4008 4011 4014 4017 4020 4023 4026 4029 4032 4035 4038 4041 4044 4047 4050 4053 4056 4059 4062 4065 4068 4071 4074 4077 4080 4083 4086 4089 4092 4095 4098 4101 4104 4107 4110 4113 4116 4119 4122 4125 4128 4131 4134 4137 4140 4143 4146 4149 4152 4155 4158 4161 4164 4167 4170 4173 4176 4179 4182 4185 4188 4191 4194 4197 4200 4203 4206 4209 4212 4215 4218 4221 4224 4227 4230 4233 4236 4239 4242 4245 4248 4251 4254 4257 4260 4263 4266 4269 4272 4275 4278 4281 4284 4287 4290 4293 4296 4299 4302 4305 4308 4311 4314 4317 4320 4323 4326 4329 4332 4335 4338 4341 4344 4347 4350 4353 4356 4359 4362 4365 4368 4371 4374 4377 4380 4383 4386 4389 4392 4395 4398 4401 4404 4407 4410 4413 4416 4419 4422 4425 4428 4431 4434 4437 4440 4443 4446 4449 4452 4455 4458 4461 4464 4467 4470 4473 4476 4479 4482 4485 4488 4491 4494 4497 4500 4503 4506 4509 4512 4515 4518 4521 4524 4527 4530 4533 4536 4539 4542 4545 4548 4551 4554 4557 4560 4563 4566 4569 4572 4575 4578 4581 4584 4587 4590 4593 4596 4599 4602 4605 4608 4611 4614 4617 4620 4623 4626 4629 4632 4635 4638 4641 4644 4647 4650 4653 4656 4659 4662 4665 4668 4671 4674 4677 4680 4683 4686 4689 4692 4695 4698 4701 4704 4707 4710 4713 4716 4719 4722 4725 4728 4731 4734 4737 4740 4743 4746 4749 4752 4755 4758 4761 4764 4767 4770 4773 4776 4779 4782 4785 4788 4791 4794 4797 4800 4803 4806 4809 4812 4815 4818 4821 4824 4827 4830 4833 4836 4839 4842 4845 4848 4851 4854 4857 4860 4863 4866 4869 4872 4875 4878 4881 4884 4887 4890 4893 4896 4899 4902 4905 4908 4911 4914 4917 4920 4923 4926 4929 4932 4935 4938 4941 4944 4947 4950 4953 4956 4959 4962 4965 4968 4971 4974 4977 4980 4983 4986 4989 4992 4995 4998 5001 5004 5007 5010 5013 5016 5019 5022 5025 5028 5031 5034 5037 5040 5043 5046 5049 5052 5055 5058 5061 5064 5067 5070 5073 5076 5079 5082 5085 5088 5091 5094 5097 5100 5103 5106 5109 5112 5115 5118 5121 5124 5127 5130 5133 5136 5139 5142 5145 5148 5151 5154 5157 5160 5163 5166 5169 5172 5175 5178 5181 5184 5187 5190 5193 5196 5199 5202 5205 5208 5211 5214 5217 5220 5223 5226 5229 5232 5235 5238 5241 5244 5247 5250 5253 5256 5259 5262 5265 5268 5271 5274 5277 5280 5283 5286 5289 5292 5295 5298 5301 5304 5307 5310 5313 5316 5319 5322 5325 5328 5331 5334 5337 5340 5343 5346 5349 5352 5355 5358 5361 5364 5367 5370 5373 5376 5379 5382 5385 5388 5391 5394 5397 5400 5403 5406 5409 5412 5415 5418 5421 5424 5427 5430 5433 5436 5439 5442 5445 5448 5451 5454 5457 5460 5463 5466 5469 5472 5475 5478 5481 5484 5487 5490 5493 5496 5499 5502 5505 5508 5511 5514 5517 5520 5523 5526 5529 5532 5535 5538 5541 5544 5547 5550 5553 5556 5559 5562 5565 5568 5571 5574 5577 5580 5583 5586 5589 5592 5595 5598 5601 5604 5607 5610 5613 5616 5619 5622 5625 5628 5631 5634 5637 5640 5643 5646 5649 5652 5655 5658 5661 5664 5667 5670 5673 5676 5679 5682 5685 5688 5691 5694 5697 5700 5703 5706 5709 5712 5715 5718 5721 5724 5727 5730 5733 5736 5739 5742 5745 5748 5751 5754 5757 5760 5763 5766 5769 5772 5775 5778 5781 5784 5787 5790 5793 5796 5799 5802 5805 5808 5811 5814 5817 5820 5823 5826 5829 5832 5835 5838 5841 5844 5847 5850 5853 5856 5859 5862 5865 5868 5871 5874 5877 5880 5883 5886 5889 5892 5895 5898 5901 5904 5907 5910 5913 5916 5919 5922 5925 5928 5931 5934 5937 5940 5943 5946 5949 5952 5955 5958 5961 5964 5967 5970 5973 5976 5979 5982 5985 5988 5991 5994 5997 6000 6003 6006 6009 6012 6015 6018 6021 6024 6027 6030 6033 6036 6039 6042 6045 6048 6051 6054 6057 6060 6063 6066 6069 6072 6075 6078 6081 6084 6087 6090 6093 6096 6099 6102 6105 6108 6111 6114 6117 6120 6123 6126 6129 6132 6135 6138 6141 6144 6147 6150 6153 6156 6159 6162 6165 6168 6171 6174 6177 6180 6183 6186 6189 6192 6195 6198 6201 6204 6207 6210 6213 6216 6219 6222 6225 6228 6231 6234 6237 6240 6243 6246 6249 6252 6255 6258 6261 6264 6267 6270 6273 6276 6279 6282 6285 6288 6291 6294 6297 6300 6303 6306 6309 6312 6315 6318 6321 6324 6327 6330 6333 6336 6339 6342 6345 6348 6351 6354 6357 6360 6363 6366 6369 6372 6375 6378 6381 6384 6387 6390 6393 6396 6399 6402 6405 6408 6411 6414 6417 6420 6423 6426 6429 6432 6435 6438 6441 6444 6447 6450 6453 6456 6459 6462 6465 6468 6471 6474 6477 6480 6483 6486 6489 6492 6495 6498 6501 6504 6507 6510 6513 6516 6519 6522 6525 6528 6531 6534 6537 6540 6543 6546 6549 6552 6555 6558 6561 6564 6567 6570 6573 6576 6579 6582 6585 6588 6591 6594 6597 6600 6603 6606 6609 6612 6615 6618 6621 6624 6627 6630 6633 6636 6639 6642 6645 6648 6651 6654 6657 6660 6663 6666 6669 6672 6675 6678 6681 6684 6687 6690 6693 6696 6699 6702 6705 6708 6711 6714 6717 6720 6723 6726 6729 6732 6735 6738 6741 6744 6747 6750 6753 6756 6759 6762 6765 6768 6771 6774 6777 6780 6783 6786 6789 6792 6795 6798 6801 6804 6807 6810 6813 6816 6819 6822 6825 6828 6831 6834 6837 6840 6843 6846 6849 6852 6855 6858 6861 6864 6867 6870 6873 6876 6879 6882 6885 6888 6891 6894 6897 6900 6903 6906 6909 6912 6915 6918 6921 6924 6927 6930 6933 6936 6939 6942 6945 6948 6951 6954 6957 6960 6963 6966 6969 6972 6975 6978 6981 6984 6987 6990 6993 6996 6999 7002 7005 7008 7011 7014 7017 7020 7023 7026 7029 7032 7035 7038 7041 7044 7047 7050 7053 7056 7059 7062 7065 7068 7071 7074 7077 7080 7083 7086 7089 7092 7095 7098 7101 7104 7107 7110 7113 7116 7119 7122 7125 7128 7131 7134 7137 7140 7143 7146 7149 7152 7155 7158 7161 7164 7167 7170 7173 7176 7179 7182 7185 7188 7191 7194 7197 7200 7203 7206 7209 7212 7215 7218 7221 7224 7227 7230 7233 7236 7239 7242 7245 7248 7251 7254 7257 7260 7263 7266 7269 7272 7275 7278 7281 7284 7287 7290 7293 7296 7299 7302 7305 7308 7311 7314 7317 7320 7323 7326 7329 7332 7335 7338 7341 7344 7347 7350 7353 7356 7359 7362 7365 7368 7371 7374 7377 7380 7383 7386 7389 7392 7395 7398 7401 7404 7407 7410 7413 7416 7419 7422 7425 7428 7431 7434 7437 7440 7443 7446 7449 7452 7455 7458 7461 7464 7467 7470 7473 7476 7479 7482 7485 7488 7491 7494 7497 7500 7503 7506 7509 7512 7515 7518 7521 7524 7527 7530 7533 7536 7539 7542 7545 7548 7551 7554 7557 7560 7563 7566 7569 7572 7575 7578 7581 7584 7587 7590 7593 7596 7599 7602 7605 7608 7611 7614 7617 7620 7623 7626 7629 7632 7635 7638 7641 7644 7647 7650 7653 7656 7659 7662 7665 7668 7671 7674 7677 7680 7683 7686 7689 7692 7695 7698 7701 7704 7707 7710 7713 7716 7719 7722 7725 7728 7731 7734 7737 7740 7743 7746 7749 7752 7755 7758 7761 7764 7767 7770 7773 7776 7779 7782 7785 7788 7791 7794 7797 7800 7803 7806 7809 7812 7815 7818 7821 7824 7827 7830 7833 7836 7839 7842 7845 7848 7851 7854 7857 7860 7863 7866 7869 7872 7875 7878 7881 7884 7887 7890 7893 7896 7899 7902 7905 7908 7911 7914 7917 7920 7923 7926 7929 7932 7935 7938 7941 7944 7947 7950 7953 7956 7959 7962 7965 7968 7971 7974 7977 7980 7983 7986 7989 7992 7995 7998 8001 8004 8007 8010 8013 8016 8019 8022 8025 8028 8031 8034 8037 8040 8043 8046 8049 8052 8055 8058 8061 8064 8067 8070 8073 8076 8079 8082 8085 8088 8091 8094 8097 8100 8103 8106 8109 8112 8115 8118 8121 8124 8127 8130 8133 8136 8139 8142 8145 8148 8151 8154 8157 8160 8163 8166 8169 8172 8175 8178 8181 8184 8187 8190 8193 8196 8199 8202 8205 8208 8211 8214 8217 8220 8223 8226 8229 8232 8235 8238 8241 8244 8247 8250 8253 8256 8259 8262 8265 8268 8271 8274 8277 8280 8283 8286 8289 8292 8295 8298 8301 8304 8307 8310 8313 8316 8319 8322 8325 8328 8331 8334 8337 8340 8343 8346 8349 8352 8355 8358 8361 8364 8367 8370 8373 8376 8379 8382 8385 8388 8391 8394 8397 8400 8403 8406 8409 8412 8415 8418 8421 8424 8427 8430 8433 8436 8439 8442 8445 8448 8451 8454 8457 8460 8463 8466 8469 8472 8475 8478 8481 8484 8487 8490 8493 8496 8499 8502 8505 8508 8511 8514 8517 8520 8523 8526 8529 8532 8535 8538 8541 8544 8547 8550 8553 8556 8559 8562 8565 8568 8571 8574 8577 8580 8583 8586 8589 8592 8595 8598 8601 8604 8607 8610 8613 8616 8619 8622 8625 8628 8631 8634 8637 8640 8643 8646 8649 8652 8655 8658 8661 8664 8667 8670 8673 8676 8679 8682 8685 8688 8691 8694 8697 8700 8703 8706 8709 8712 8715 8718 8721 8724 8727 8730 8733 8736 8739 8742 8745 8748 8751 8754 8757 8760 8763 8766 8769 8772 8775 8778 8781 8784 8787 8790 8793 8796 8799 8802 8805 8808 8811 8814 8817 8820 8823 8826 8829 8832 8835 8838 8841 8844 8847 8850 8853 8856 8859 8862 8865 8868 8871 8874 8877 8880 8883 8886 8889 8892 8895 8898 8901 8904 8907 8910 8913 8916 8919 8922 8925 8928 8931 8934 8937 8940 8943 8946 8949 8952 8955 8958 8961 8964 8967 8970 8973 8976 8979 8982 8985 8988 8991 8994 8997 9000 9003 9006 9009 9012 9015 9018 9021 9024 9027 9030 9033 9036 9039 9042 9045 9048 9051 9054 9057 9060 9063 9066 9069 9072 9075 9078 9081 9084 9087 9090 9093 9096 9099 9102 9105 9108 9111 9114 9117 9120 9123 9126 9129 9132 9135 9138 9141 9144 9147 9150 9153 9156 9159 9162 9165 9168 9171 9174 9177 9180 9183 9186 9189 9192 9195 9198 9201 9204 9207 9210 9213 9216 9219 9222 9225 9228 9231 9234 9237 9240 9243 9246 9249 9252 9255 9258 9261 9264 9267 9270 9273 9276 9279 9282 9285 9288 9291 9294 9297 9300 9303 9306 9309 9312 9315 9318 9321 9324 9327 9330 9333 9336 9339 9342 9345 9348 9351 9354 9357 9360 9363 9366 9369 9372 9375 9378 9381 9384 9387 9390 9393 9396 9399 9402 9405 9408 9411 9414 9417 9420 9423 9426 9429 9432 9435 9438 9441 9444 9447 9450 9453 9456 9459 9462 9465 9468 9471 9474 9477 9480 9483 9486 9489 9492 9495 9498 9501 9504 9507 9510 9513 9516 9519 9522 9525 9528 9531 9534 9537 9540 9543 9546 9549 9552 9555 9558 9561 9564 9567 9570 9573 9576 9579 9582 9585 9588 9591 9594 9597 9600 9603 9606 9609 9612 9615 9618 9621 9624 9627 9630 9633 9636 9639 9642 9645 9648 9651 9654 9657 9660 9663 9666 9669 9672 9675 9678 9681 9684 9687 9690 9693 9696 9699 9702 9705 9708 9711 9714 9717 9720 9723 9726 9729 9732 9735 9738 9741 9744 9747 9750 9753 9756 9759 9762 9765 9768 9771 9774 9777 9780 9783 9786 9789 9792 9795 9798 9801 9804 9807 9810 9813 9816 9819 9822 9825 9828 9831 9834 9837 9840 9843 9846 9849 9852 9855 9858 9861 9864 9867 9870 9873 9876 9879 9882 9885 9888 9891 9894 9897 9900 9903 9906 9909 9912 9915 9918 9921 9924 9927 9930 9933 9936 9939 9942 9945 9948 9951 9954 9957 9960 9963 9966 9969 9972 9975 9978 9981 9984 9987 9990 9993 9996 9999 10002 10005 10008 10011 10014 10017 10020 10023 10026 10029 10032 10035 10038 10041 10044 10047 10050 10053 10056 10059 10062 10065 10068 10071 10074 10077 10080 10083 10086 10089 10092 10095 10098 10101 10104 10107 10110 10113 10116 10119 10122 10125 10128 10131 10134 10137 10140 10143 10146 10149 10152 10155 10158 10161 10164 10167 10170 10173 10176 10179 10182 10185 10188 10191 10194 10197 10200 10203 10206 10209 10212 10215 10218 10221 10224 10227 10230 10233 10236 10239 10242 10245 10248 10251 10254 10257 10260 10263 10266 10269 10272 10275 10278 10281 10284 10287 10290 10293 10296 10299 10302 10305 10308 10311 10314 10317 10320 10323 10326 10329 10332 10335 10338 10341 10344 10347 10350 10353 10356 10359 10362 10365 10368 10371 10374 10377 10380 10383 10386 10389 10392 10395 10398 10401 10404 10407 10410 10413 10416 10419 10422 10425 10428 10431 10434 10437 10440 10443 10446 10449 10452 10455 10458 10461 10464 10467 10470 10473 10476 10479 10482 10485 10488 10491 10494 10497 10500 10503 10506 10509 10512 10515 10518 10521 10524 10527 10530 10533 10536 10539 10542 10545 10548 10551 10554 10557 10560 10563 10566 10569 10572 10575 10578 10581 10584 10587 10590 10593 10596 </DataArray>
<DataArray  type="UInt8"  Name="types"  format="ascii">5 5 5 5 5 5 5 5 5 5 5 5 5 5 5 5 5 5 5 5 5 5 5 5 5 5 5 5 5 5 5 5 5 5 5 5 5 5 5 5 5 5 5 5 5 5 5 5 5 5 5 5 5 5 5 5 5 5 5 5 5 5 5 5 5 5 5 5 5 5 5 5 5 5 5 5 5 5 5 5 5 5 5 5 5 5 5 5 5 5 5 5 5 5 5 5 5 5 5 5 5 5 5 5 5 5 5 5 5 5 5 5 5 5 5 5 5 5 5 5 5 5 5 5 5 5 5 5 5 5 5 5 5 5 5 5 5 5 5 5 5 5 5 5 5 5 5 5 5 5 5 5 5 5 5 5 5 5 5 5 5 5 5 5 5 5 5 5 5 5 5 5 5 5 5 5 5 5 5 5 5 5 5 5 5 5 5 5 5 5 5 5 5 5 5 5 5 5 5 5 5 5 5 5 5 5 5 5 5 5 5 5 5 5 5 5 5 5 5 5 5 5 5 5 5 5 5 5 5 5 5 5 5 5 5 5 5 5 5 5 5 5 5 5 5 5 5 5 5 5 5 5 5 5 5 5 5 5 5 5 5 5 5 5 5 5 5 5 5 5 5 5 5 5 5 5 5 5 5 5 5 5 5 5 5 5 5 5 5 5 5 5 5 5 5 5 5 5 5 5 5 5 5 5 5 5 5 5 5 5 5 5 5 5 5 5 5 5 5 5 5 5 5 5 5 5 5 5 5 5 5 5 5 5 5 5 5 5 5 5 5 5 5 5 5 5 5 5 5 5 5 5 5 5 5 5 5 5 5 5 5 5 5 5 5 5 5 5 5 5 5 5 5 5 5 5 5 5 5 5 5 5 5 5 5 5 5 5 5 5 5 5 5 5 5 5 5 5 5 5 5 5 5 5 5 5 5 5 5 5 5 5 5 5 5 5 5 5 5 5 5 5 5 5 5 5 5 5 5 5 5 5 5 5 5 5 5 5 5 5 5 5 5 5 5 5 5 5 5 5 5 5 5 5 5 5 5 5 5 5 5 5 5 5 5 5 5 5 5 5 5 5 5 5 5 5 5 5 5 5 5 5 5 5 5 5 5 5 5 5 5 5 5 5 5 5 5 5 5 5 5 5 5 5 5 5 5 5 5 5 5 5 5 5 5 5 5 5 5 5 5 5 5 5 5 5 5 5 5 5 5 5 5 5 5 5 5 5 5 5 5 5 5 5 5 5 5 5 5 5 5 5 5 5 5 5 5 5 5 5 5 5 5 5 5 5 5 5 5 5 5 5 5 5 5 5 5 5 5 5 5 5 5 5 5 5 5 5 5 5 5 5 5 5 5 5 5 5 5 5 5 5 5 5 5 5 5 5 5 5 5 5 5 5 5 5 5 5 5 5 5 5 5 5 5 5 5 5 5 5 5 5 5 5 5 5 5 5 5 5 5 5 5 5 5 5 5 5 5 5 5 5 5 5 5 5 5 5 5 5 5 5 5 5 5 5 5 5 5 5 5 5 5 5 5 5 5 5 5 5 5 5 5 5 5 5 5 5 5 5 5 5 5 5 5 5 5 5 5 5 5 5 5 5 5 5 5 5 5 5 5 5 5 5 5 5 5 5 5 5 5 5 5 5 5 5 5 5 5 5 5 5 5 5 5 5 5 5 5 5 5 5 5 5 5 5 5 5 5 5 5 5 5 5 5 5 5 5 5 5 5 5 5 5 5 5 5 5 5 5 5 5 5 5 5 5 5 5 5 5 5 5 5 5 5 5 5 5 5 5 5 5 5 5 5 5 5 5 5 5 5 5 5 5 5 5 5 5 5 5 5 5 5 5 5 5 5 5 5 5 5 5 5 5 5 5 5 5 5 5 5 5 5 5 5 5 5 5 5 5 5 5 5 5 5 5 5 5 5 5 5 5 5 5 5 5 5 5 5 5 5 5 5 5 5 5 5 5 5 5 5 5 5 5 5 5 5 5 5 5 5 5 5 5 5 5 5 5 5 5 5 5 5 5 5 5 5 5 5 5 5 5 5 5 5 5 5 5 5 5 5 5 5 5 5 5 5 5 5 5 5 5 5 5 5 5 5 5 5 5 5 5 5 5 5 5 5 5 5 5 5 5 5 5 5 5 5 5 5 5 5 5 5 5 5 5 5 5 5 5 5 5 5 5 5 5 5 5 5 5 5 5 5 5 5 5 5 5 5 5 5 5 5 5 5 5 5 5 5 5 5 5 5 5 5 5 5 5 5 5 5 5 5 5 5 5 5 5 5 5 5 5 5 5 5 5 5 5 5 5 5 5 5 5 5 5 5 5 5 5 5 5 5 5 5 5 5 5 5 5 5 5 5 5 5 5 5 5 5 5 5 5 5 5 5 5 5 5 5 5 5 5 5 5 5 5 5 5 5 5 5 5 5 5 5 5 5 5 5 5 5 5 5 5 5 5 5 5 5 5 5 5 5 5 5 5 5 5 5 5 5 5 5 5 5 5 5 5 5 5 5 5 5 5 5 5 5 5 5 5 5 5 5 5 5 5 5 5 5 5 5 5 5 5 5 5 5 5 5 5 5 5 5 5 5 5 5 5 5 5 5 5 5 5 5 5 5 5 5 5 5 5 5 5 5 5 5 5 5 5 5 5 5 5 5 5 5 5 5 5 5 5 5 5 5 5 5 5 5 5 5 5 5 5 5 5 5 5 5 5 5 5 5 5 5 5 5 5 5 5 5 5 5 5 5 5 5 5 5 5 5 5 5 5 5 5 5 5 5 5 5 5 5 5 5 5 5 5 5 5 5 5 5 5 5 5 5 5 5 5 5 5 5 5 5 5 5 5 5 5 5 5 5 5 5 5 5 5 5 5 5 5 5 5 5 5 5 5 5 5 5 5 5 5 5 5 5 5 5 5 5 5 5 5 5 5 5 5 5 5 5 5 5 5 5 5 5 5 5 5 5 5 5 5 5 5 5 5 5 5 5 5 5 5 5 5 5 5 5 5 5 5 5 5 5 5 5 5 5 5 5 5 5 5 5 5 5 5 5 5 5 5 5 5 5 5 5 5 5 5 5 5 5 5 5 5 5 5 5 5 5 5 5 5 5 5 5 5 5 5 5 5 5 5 5 5 5 5 5 5 5 5 5 5 5 5 5 5 5 5 5 5 5 5 5 5 5 5 5 5 5 5 5 5 5 5 5 5 5 5 5 5 5 5 5 5 5 5 5 5 5 5 5 5 5 5 5 5 5 5 5 5 5 5 5 5 5 5 5 5 5 5 5 5 5 5 5 5 5 5 5 5 5 5 5 5 5 5 5 5 5 5 5 5 5 5 5 5 5 5 5 5 5 5 5 5 5 5 5 5 5 5 5 5 5 5 5 5 5 5 5 5 5 5 5 5 5 5 5 5 5 5 5 5 5 5 5 5 5 5 5 5 5 5 5 5 5 5 5 5 5 5 5 5 5 5 5 5 5 5 5 5 5 5 5 5 5 5 5 5 5 5 5 5 5 5 5 5 5 5 5 5 5 5 5 5 5 5 5 5 5 5 5 5 5 5 5 5 5 5 5 5 5 5 5 5 5 5 5 5 5 5 5 5 5 5 5 5 5 5 5 5 5 5 5 5 5 5 5 5 5 5 5 5 5 5 5 5 5 5 5 5 5 5 5 5 5 5 5 5 5 5 5 5 5 5 5 5 5 5 5 5 5 5 5 5 5 5 5 5 5 5 5 5 5 5 5 5 5 5 5 5 5 5 5 5 5 5 5 5 5 5 5 5 5 5 5 5 5 5 5 5 5 5 5 5 5 5 5 5 5 5 5 5 5 5 5 5 5 5 5 5 5 5 5 5 5 5 5 5 5 5 5 5 5 5 5 5 5 5 5 5 5 5 5 5 5 5 5 5 5 5 5 5 5 5 5 5 5 5 5 5 5 5 5 5 5 5 5 5 5 5 5 5 5 5 5 5 5 5 5 5 5 5 5 5 5 5 5 5 5 5 5 5 5 5 5 5 5 5 5 5 5 5 5 5 5 5 5 5 5 5 5 5 5 5 5 5 5 5 5 5 5 5 5 5 5 5 5 5 5 5 5 5 5 5 5 5 5 5 5 5 5 5 5 5 5 5 5 5 5 5 5 5 5 5 5 5 5 5 5 5 5 5 5 5 5 5 5 5 5 5 5 5 5 5 5 5 5 5 5 5 5 5 5 5 5 5 5 5 5 5 5 5 5 5 5 5 5 5 5 5 5 5 5 5 5 5 5 5 5 5 5 5 5 5 5 5 5 5 5 5 5 5 5 5 5 5 5 5 5 5 5 5 5 5 5 5 5 5 5 5 5 5 5 5 5 5 5 5 5 5 5 5 5 5 5 5 5 5 5 5 5 5 5 5 5 5 5 5 5 5 5 5 5 5 5 5 5 5 5 5 5 5 5 5 5 5 5 5 5 5 5 5 5 5 5 5 5 5 5 5 5 5 5 5 5 5 5 5 5 5 5 5 5 5 5 5 5 5 5 5 5 5 5 5 5 5 5 5 5 5 5 5 5 5 5 5 5 5 5 5 5 5 5 5 5 5 5 5 5 5 5 5 5 5 5 5 5 5 5 5 5 5 5 5 5 5 5 5 5 5 5 5 5 5 5 5 5 5 5 5 5 5 5 5 5 5 5 5 5 5 5 5 5 5 5 5 5 5 5 5 5 5 5 5 5 5 5 5 5 5 5 5 5 5 5 5 5 5 5 5 5 5 5 5 5 5 5 5 5 5 5 5 5 5 5 5 5 5 5 5 5 5 5 5 5 5 5 5 5 5 5 5 5 5 5 5 5 5 5 5 5 5 5 5 5 5 5 5 5 5 5 5 5 5 5 5 5 5 5 5 5 5 5 5 5 5 5 5 5 5 5 5 5 5 5 5 5 5 5 5 5 5 5 5 5 5 5 5 5 5 5 5 5 5 5 5 5 5 5 5 5 5 5 5 5 5 5 5 5 5 5 5 5 5 5 5 5 5 5 5 5 5 5 5 5 5 5 5 5 5 5 5 5 5 5 5 5 5 5 5 5 5 5 5 5 5 5 5 5 5 5 5 5 5 5 5 5 5 5 5 5 5 5 5 5 5 5 5 5 5 5 5 5 5 5 5 5 5 5 5 5 5 5 5 5 5 5 5 5 5 5 5 5 5 5 5 5 5 5 5 5 5 5 5 5 5 5 5 5 5 5 5 5 5 5 5 5 5 5 5 5 5 5 5 5 5 5 5 5 5 5 5 5 5 5 5 5 5 5 5 5 5 5 5 5 5 5 5 5 5 5 5 5 5 5 5 5 5 5 5 5 5 5 5 5 5 5 5 5 5 5 5 5 5 5 5 5 5 5 5 5 5 5 5 5 5 5 5 5 5 5 5 5 5 5 5 5 5 5 5 5 5 5 5 5 5 5 5 5 5 5 5 5 5 5 5 5 5 5 5 5 5 5 5 5 5 5 5 5 5 5 5 5 5 5 5 5 5 5 5 5 5 5 5 5 5 5 5 5 5 5 5 5 5 5 5 5 5 5 5 5 5 5 5 5 5 5 5 5 5 5 5 5 5 5 5 5 5 5 5 5 5 5 5 5 5 5 5 5 5 5 5 5 5 5 5 5 5 5 5 5 5 5 5 5 5 5 5 5 5 5 5 5 5 5 5 5 5 5 5 5 5 5 5 5 5 5 5 5 5 5 5 5 5 5 5 5 5 5 5 5 5 5 5 5 5 5 5 5 5 5 5 5 5 5 5 5 5 5 5 5 5 5 5 5 5 5 5 5 5 5 5 5 5 5 5 5 5 5 5 5 5 5 5 5 5 5 5 5 5 5 5 5 5 5 5 5 5 5 5 5 5 5 5 5 5 5 5 5 5 5 5 5 5 5 5 5 5 5 5 5 5 5 5 5 5 5 5 5 5 5 5 5 5 5 5 5 5 5 5 5 5 5 5 5 5 5 5 5 5 5 5 5 5 5 5 5 5 5 5 5 5 5 5 5 5 5 5 5 5 5 5 5 5 5 5 5 5 5 5 5 5 5 5 5 5 5 5 5 5 5 5 5 5 5 5 5 5 5 5 5 5 5 5 5 5 5 5 5 5 5 5 5 5 5 5 5 5 5 5 5 5 5 5 5 5 5 5 5 5 5 5 5 5 5 5 5 5 5 5 5 5 5 5 5 5 5 5 5 5 5 5 5 5 5 5 5 5 5 5 5 5 5 5 5 5 5 5 5 5 5 5 5 5 5 5 5 5 5 5 5 5 5 5 5 5 5 5 5 5 5 5 5 5 5 5 5 5 5 5 5 5 5 5 5 5 5 5 5 5 5 5 5 5 5 5 5 5 5 5 5 5 5 5 5 5 5 5 5 5 5 5 5 5 5 5 5 5 5 5 5 5 5 5 5 5 5 5 5 5 5 5 5 5 5 5 5 5 5 5 5 5 5 5 5 5 5 5 5 5 5 5 5 5 5 5 5 5 5 5 5 5 5 5 5 5 5 5 5 5 5 5 5 5 5 5 5 5 5 5 5 5 5 5 5 5 5 5 5 5 5 5 5 5 5 5 5 5 5 5 5 5 5 5 5 5 5 5 5 5 5 5 5 5 5 5 5 5 5 5 5 5 5 5 5 5 5 5 5 5 5 5 5 5 5 5 5 5 5 5 5 5 5 5 5 5 5 5 5 5 5 5 5 5 5 5 5 5 5 5 5 5 5 5 5 5 5 5 5 5 5 5 5 5 5 5 5 5 5 5 5 5 5 5 5 5 5 5 5 5 5 5 5 5 5 5 5 5 5 5 5 5 5 5 5 5 5 5 5 5 5 5 5 5 5 5 5 5 5 5 5 5 5 5 5 5 5 5 5 5 5 5 5 5 5 5 5 5 5 5 5 5 5 5 5 5 5 5 5 5 5 5 5 5 5 5 5 5 5 5 5 5 5 5 5 5 5 5 5 5 5 5 5 5 5 5 5 5 5 5 5 5 5 5 5 5 5 5 5 5 5 5 5 5 5 5 5 5 5 5 5 5 5 5 5 5 5 5 5 5 5 5 5 5 5 5 5 5 5 5 5 5 5 5 5 5 5 5 5 5 5 5 5 5 5 5 5 5 5 5 5 5 5 5 5 5 5 5 5 5 5 5 5 5 5 5 5 5 5 5 5 5 5 5 5 5 5 5 5 5 5 5 5 5 5 5 5 5 5 5 5 5 5 5 5 5 5 5 5 5 5 5 5 5 5 5 5 5 5 5 5 5 5 5 5 5 5 5 5 5 5 5 5 5 5 5 5 5 5 5 5 5 5 5 5 5 5 5 5 5 5 5 5 5 5 5 5 5 5 5 5 5 5 5 5 5 5 5 5 5 5 5 5 5 5 5 5 5 5 5 5 5 5 5 5 5 5 5 5 5 5 5 5 5 5 5 5 5 5 5 5 5 5 5 5 5 5 5 5 5 5 5 5 5 5 5 5 5 5 5 5 5 5 5 5 5 5 5 5 5 5 5 5 5 5 5 5 5 5 5 5 5 5 5 5 5 5 5 5 5 5 5 5 5 5 5 5 5 5 5 5 5 5 5 5 5 5 5 5 5 5 5 5 5 5 5 5 5 5 5 5 5 5 5 5 5 5 5 5 5 5 5 5 5 5 5 5 5 5 5 5 5 5 5 5 5 5 5 5 5 5 5 5 5 5 5 5 5 5 5 5 5 5 5 5 5 5 5 5 5 5 5 5 5 5 5 5 5 5 5 5 5 5 5 5 5 5 5 5 5 5 5 5 5 5 5 5 5 5 5 5 5 5 5 5 5 5 5 5 5 5 5 5 5 5 5 5 5 5 5 5 5 5 5 5 5 5 5 5 5 5 5 5 5 5 5 5 5 5 5 5 5 5 5 5 5 5 5 5 5 5 5 5 5 5 5 5 5 5 5 5 5 5 5 5 5 5 5 5 5 </DataArray>
</Cells>
<PointData  Scalars=" mean stress"> 
<DataArray  type="Float64"  Name=" mean stress"  format="ascii">9.4936199672975535e-02  2.8258103811949559e+02  5.0643685041115777e+03  3.2984603383370518e+02  1.2676388252380127e-01  1.5221055900481167e-01  2.1087357307561133e-01  3.3543074162256381e-01  4.8292528495054432e-01  6.7829035978547070e-01  9.8372133557672392e-01  1.1964681803248738e+00  1.6194156056083924e+00  2.1333244979372243e+00  2.6443415755862527e+00  3.1607032859860005e+00  4.1663750911525330e+00  4.6870494172320196e+00  6.0091758414549838e+00  7.0363528897152721e+00  8.2675173788444720e+00  1.0246897526138172e+01  1.1419909447101293e+01  1.3367636228717194e+01  1.6083480118844726e+01  1.9136755557367650e+01  2.1903120276433992e+01  2.4919692204646584e+01  2.8968165287183204e+01  3.3111199695249709e+01  4.1190586304963894e+01  4.9026399397055940e+01  5.6874753667361659e+01  6.3361228315180917e+01  8.1178827385229880e+01  9.8135657699289368e+01  1.1230378653695976e+02  1.4069672376564358e+02  1.5100231067412724e+02  1.7750611139615916e+02  2.0163684321118654e+02  2.1489827120739022e+02  2.3014879863995395e+02  2.4513695668172508e+02  2.4832250683041840e+02  2.4758737095529560e+02  2.5611493882558563e+02  2.6608026122435007e+02  2.6903298078865737e+02  2.5587536272712413e+02  2.6159220874773888e+02  2.6541937949367968e+02  2.5719524075806856e+02  2.7241992637414222e+02  2.9038096404666175e+02  3.3951094140987578e+02  3.8169012734917004e+02  5.0527221863482913e+02  7.1822182891375530e+02  1.2348396979471217e+03  1.4699499043422168e+03  8.9327562497288579e+02  6.0959919969927626e+02  4.2731794241184059e+02  3.3715687875108557e+02  2.7769275562423161e+02  2.2813191857616931e+02  2.0380029489197966e+02  1.7467431257693252e+02  1.6059604754235556e+02  1.4487951729367040e+02  1.3927741826557391e+02  1.3621048694165310e+02  1.3679500765422455e+02  1.3999194092615690e+02  1.5454591383798834e+02  1.7482966154539858e+02  2.3537553903494950e+02  3.9268653172158554e+02  7.0620244484712339e+02  5.0304813888693258e+02  2.1693943545875140e+02  1.4778997148809950e+02  1.1153919344580180e+02  8.8457472164904729e+01  7.3481598369463995e+01  6.1904028045600370e+01  5.6029584754519632e+01  5.1440975217945947e+01  4.8276268183508861e+01  4.4683488516924982e+01  4.4478439300698696e+01  4.3916106609381757e+01  4.4457853375032144e+01  4.6738002035335917e+01  4.7451375093568231e+01  5.1377206124464308e+01  5.3694351368691201e+01  5.7321022437477438e+01  6.5586997275003398e+01  7.2264463421894675e+01  8.2160070119462759e+01  9.7078915373624440e+01  1.1173914905640734e+02  1.4095086988304661e+02  1.9186982532748286e+02  2.3724391139150316e+02  3.4456280515272078e+02  1.8517976878919461e+02  1.1860715582909000e+02  9.4271215828823429e+01  7.6060825459782052e+01  6.5281188097265144e+01  5.7289669963172557e+01  5.1245568947557167e+01  4.7438434450293187e+01  4.3499129623219979e+01  4.1003216509086819e+01  3.8210919915565874e+01  3.6222255755814174e+01  3.4357649347609680e+01  3.2902822065968785e+01  3.1271077511001867e+01  3.0077264848325395e+01  2.8888736368634927e+01  2.7689549467323701e+01  2.6595778394124405e+01  2.5619625315579516e+01  2.4711209191320851e+01  2.3821833242579270e+01  2.2920823708561326e+01  2.2086131456277823e+01  2.1256925297191934e+01  2.0534073061248559e+01  1.9669210209646305e+01  1.8916892439215914e+01  1.8140101128949357e+01  1.7447911482937659e+01  1.6674267439699111e+01  1.5967653825642140e+01  1.5226155104445642e+01  1.4533752751533584e+01  1.3805699052016971e+01  1.3155379827660676e+01  1.2482303754074547e+01  1.1814210596406504e+01  1.1170567874311974e+01  1.0541697314996959e+01  9.8907987957009826e+00  9.2888064640473527e+00  8.7011464463034187e+00  8.0810800892688093e+00  7.5035108489715974e+00  6.9945510433695981e+00  6.4269524006016665e+00  5.9450727519583095e+00  5.4360277151440952e+00  4.9322228223444045e+00  4.5175627331261161e+00  4.0743783489743830e+00  3.6748107256906661e+00  3.2257626460117286e+00  2.8902316247924102e+00  2.5265438923934118e+00  2.2146870972764141e+00  1.8895326185179195e+00  1.6116539078349650e+00  1.3412292466496456e+00  1.1242824843476258e+00  8.9703432895595125e-01  6.9692812963337236e-01  5.3654181205643603e-01  4.2186832094010684e-01  2.5032530101370548e-01  2.0437846833275869e-01  2.2562421453162829e-01  3.1046590608730021e+01  4.9977917123849231e+01  1.0855425250393207e+01  2.1958212171497951e+01  4.5917570372766029e+01  3.2077334072056409e+00  6.1191019847240803e+01  1.0705331056306889e+01  2.6054587376646534e+01  6.0797248836576181e+01  1.8648902411332475e+01  5.2424276037667914e+00  3.1339509706810439e+01  1.4473830402235549e+01  1.6011370162518770e+02  4.4471323129519945e+01  1.8607593014550130e+01  6.7573141180102994e+00  6.3612547359573995e+01  3.6609681533972243e+01  2.2185462445479867e+01  3.9505606760141141e+01  1.1371058805495589e+00  5.8011004047067452e+01  2.7927234192746178e+00  7.3465208960773305e+00  3.7090898092203140e+01  2.4787008416836176e+01  2.3463236083461092e+02  1.0133360243718965e+01  2.9774516875588855e+01  6.9026220810290781e+01  8.3458384454981470e+01  1.2471017791147302e+01  7.1558857622419765e+01  9.0517642284711670e+01  1.6610300809578916e+01  3.4031916128820555e+01  3.2133018023739481e+02  6.4034100763757422e+00  4.2734282146166741e+01  1.1990457790227281e+02  2.0796278565986203e+01  3.3858171449176826e+00  5.8988190495888283e+01  2.4526393337795131e+01  1.4577971199494968e+01  2.2082003341929067e+01  2.1669256495192350e+01  4.5584626300512831e+01  7.1895147321346812e+01  1.4001350804714882e+01  4.9899947536027884e+00  2.7860533862753876e+01  1.5532661123645250e+01  8.2427010587088958e+00  3.2386547638171457e+01  5.6766426532529891e+01  1.5665928289473014e+01  5.5904298625959733e+01  3.9358749853689169e+01  1.6406550130283677e+00  4.3316593887145224e+01  8.9396434310249475e+00  6.4647828647791002e+01  1.8966799789287177e+02  2.0137171621045056e+02  4.0495700076682652e+01  4.6446567997455812e-01  8.3063849168470398e+01  1.7012581048712168e+00  6.4464998122604001e+01  1.1948092627712095e+01  2.7877093624200846e+01  1.4259171645482829e+02  8.1539047216195087e+01  1.6718497736851683e+02  5.1725239095418010e+00  5.3010316784520214e+01  1.6609679431243396e+01  3.5656435250867107e+00  3.1641581251630154e+01  8.0838574215733114e+00  5.2010817867988351e+01  1.2302022071601966e+01  4.0250732324308460e+00  3.7641315429468754e+01  9.0287930023718355e-01  5.4627523914976727e+01  1.1629481994978548e+01  3.3104258220636375e+01  3.6309381352391924e+01  2.1450473300382358e+00  4.5561097119274947e+01  3.0164594905325419e+01  1.2905111130495320e+02  1.7983916453080564e+01  7.7343957348184613e+00  5.4757099076644757e+01  5.7557027877822023e+01  5.1668429536124627e+00  9.9428580987641595e+01  2.5089512499151400e+01  6.2221689981075826e+01  8.9449277552073241e+01  6.3239958435855863e+00  2.2783586472185153e+01  5.1109128781211922e+01  2.1771096283553415e+01  2.4528947363991591e+00  3.5812979381989585e+01  1.5356939176085783e+01  4.5611546470030419e+01  2.4698156429844119e+02  3.1061199080632144e+02  1.0503458501159384e+01  7.7825285270480693e-01  7.9391977610102174e+01  1.8640333764022753e+01  5.2741023686546896e+01  1.7353203252942592e+01  2.7598505069119849e+01  7.1462880957749730e+00  2.8659207734848572e+01  9.3936913096951606e+00  8.4535523900164861e+01  1.6422862520887193e+01  6.1287779016214309e+01  2.5342914730413721e+01  2.7603850401299908e+01  3.5744476057052715e+01  9.3722514368122560e+00  6.8349911914116944e+01  9.3428391113342091e+00  4.0069979118239758e+01  1.9220164320593582e+01  2.1264044303942956e+01  2.8905223227593510e+01  2.1952069607675193e+02  2.4266712306724421e+02  2.2652927767293789e+01  1.2238135359277526e+02  2.6994226510589561e+02  5.0766976573707245e+02  5.3179803430928608e+01  2.1969836736904216e+00  5.5761633507118491e+00  3.5896426770431482e+01  7.9364443809012371e+01  3.9144889738099082e+00  3.3235232559331813e+01  4.8963869412142841e+01  3.8618633305422456e+01  1.1894838384995039e+01  6.4083175490623404e+01  1.1718424354601925e+02  2.4863449813641676e+01  1.5127376463351584e+02  4.6586286461151021e+00  4.3131044926677646e+01  2.4361159875971374e+01  1.3334416037699185e+01  1.0035783824037567e+02  2.2999232109257419e+00  6.2027453898516349e+01  2.5564581560570595e+01  1.3638755516192498e+02  1.3179424403354011e+01  1.2071687187955394e+01  6.4399375726045619e+01  1.9306145832175110e+02  1.4596544525778201e+01  7.1783795109694964e+01  2.0993859142794705e+01  2.0896501363199103e+01  1.4993028927519804e+01  6.3522280778697514e+01  1.1627014614450914e+01  7.0716360219071845e+01  1.8040695574984468e+01  3.4131324081411387e+00  5.6738383201387848e+01  3.2016520140816849e+00  5.3572011445484677e+01  2.9993831298886953e+01  7.2887790932194250e+01  1.1320506286633339e+01  4.8964224247546284e+01  9.1838185351852921e+00  6.1562220187505625e+00  2.7094108405172189e+01  3.1131177908580916e+01  6.8530954157940860e+00  5.5207135940548064e+01  4.1782149074751773e+00  2.9026152528315542e+01  3.2856042932561138e+01  3.7945628675496778e+01  5.4043336636041790e+00  2.9589396249495165e-01  1.1083313859077118e+02  4.0781647444358043e+01  1.2480175611273564e+01  1.9451318895539078e+01  3.7785865187383727e+01  7.4189753456762745e+01  3.4434413282507728e+02  1.7108370557926276e+02  1.7232610577790119e+01  5.3237791153075456e+01  5.8045797925572700e+01  4.8022848390717545e+00  4.6251429152578815e+01  7.0531106122964374e+01  2.0391257077970124e+01  2.9434018058471407e+00  4.0293756366640849e+01  1.6314429604856304e+01  2.7657041209615873e+01  1.7823970551147471e+02  1.9416290955335729e+01  8.6768699634089028e+00  1.3572458776529654e+01  2.8132721352642811e+01  8.3749347151675231e+00  6.8309154852606866e+01  1.4838122394638850e+02  2.4886788235534794e+02  4.2399009418234334e+02  5.0003876950017116e+01  1.2829792449446811e+00  1.5409500584814470e+01  1.8189958676514746e+00  1.2750299876317919e+00  4.5394500849028795e+01  3.9421763519498086e+01  1.6539059162081105e+02  1.4318191310252264e+01  5.5541496210978059e-01  6.6448976435226527e+01  4.1820940678308212e+01  2.6875427626592007e+01  1.4969163802978128e+01  1.1668352370477251e+01  6.9749641160510123e+01  1.0014728995055462e+01  7.5800345389691770e+01  1.1072363262620972e+00  2.2526355485246491e+01  1.8175617856676396e+02  2.3803275552934128e+01  8.9830761017121699e+00  4.9281675372544342e+01  1.2007158599463999e+02  2.1174842726986867e+01  5.1140108126470585e-01  9.8739347567817362e+01  4.4510039115558264e+01  4.2314557165782290e+01  7.1287905071652542e+00  4.3318531947359160e+00  3.0253478749506154e+01  3.0470346540638880e+00  3.2385850590915751e+01  1.2915557534198356e+01  2.6020696844269299e+01  6.5583428744242314e+00  3.1860992177854111e+01  1.2059785880265819e+00  6.5486003296561094e+01  7.0678720562461095e+01  3.2691458485220139e+01  2.6591926648454400e+01  1.9630034173154861e+01  1.8539411506444846e+01  2.1988005749074344e+00  4.1013865683756883e+01  1.7291192031430004e+01  1.3877311700177680e+02  5.9422412076413053e+01  2.4305938269170517e+00  3.3878244759189897e+01  8.1219797647855483e+00  4.6024558841850251e+01  6.6379376446999760e+00  6.2016901815160054e+01  2.5220353732477037e+01  6.1862878370093576e+01  7.4235416351159786e+00  3.6732567685682881e+01  1.9700169885647941e+02  2.0924078106208799e+02  2.1140320646556315e+01  4.4177731040305936e+01  2.2319530349662724e+01  2.9601049233325305e+01  2.6317003158512864e+02  6.3685275192396853e+00  4.9440724570199201e+01  1.0535765677676348e+01  1.3016478032547246e+01  5.5195772178520919e+01  4.6957860840347443e+01  6.4573968003971220e+00  5.7491070679270941e+01  1.4115624839452938e+01  6.5166927053504054e+01  2.1683170299709843e+02  1.9979710672329769e+01  4.1237243263878005e+00  4.8552436051504749e+01  1.1686604086744207e+02  1.8135231657014554e+01  8.3116576052330771e-01  6.2801214035665836e+01  9.7913600777036418e+00  5.8828923494795291e+01  3.1050068204142981e+01  5.3355540463766381e+01  7.1748146203267908e+01  5.2703992449211590e+01  1.6390503449872480e+00  1.5913754276608190e+00  6.7343631006088813e+01  8.7593666470476457e+00  5.4834180963401074e+01  9.8712781805047797e+01  2.3670249948934000e+01  1.5843090504852114e+02  1.1112240634378304e+01  1.5765499530652519e+02  2.1053827137829856e+02  7.7692037797697068e+01  1.9188329454870228e+01  1.4015723485638537e+02  5.9546308086481279e+00  1.0014968878430247e+02  9.7645294798069280e+00  3.4436165132122341e+01  2.2488332748146640e+01  7.2221592943143037e+01  1.0461656318827258e+01  1.7669066579729090e+01  5.5007158775728570e+01  7.4120674745392336e+01  3.2615353084729726e+01  2.3560669704249573e+01  5.5037065915095006e+01  3.4588080619534143e+00  3.6513054612615861e+01  2.9573533775646803e+00  3.4464205471967070e+01  1.6315224114706538e+01  5.1614378944418505e+01  1.7910522893166352e+01  1.5174653104639378e+02  8.2134653405865721e-01  5.4054690824975197e+01  2.1664334849054798e+00  3.8605655566367709e+01  7.2557737727005645e+00  1.5980437525828998e+01  5.1759248571563488e+00  2.8888677306633383e+01  2.5634550452002660e+01  2.9140721371355096e+02  2.2517166706008666e+02  2.6018902048942110e+01  7.6092994500753619e+01  4.3904974119667095e+01  8.0561369779761058e+00  6.6054563428616902e+01  3.6239474554324836e+01  1.4615409551061228e+02  3.0128011859922864e+01  2.5584626408407626e+01  9.3077517226063442e+00  4.3371203423445497e+00  3.4968121526922587e+01  2.8749260307510895e+01  1.3875485339653521e+01  1.6956392843121927e+02  1.3253986521443059e+01  5.5300492809009341e+01  4.2249524635742510e+00  3.2121759648307616e+01  6.0387154820655411e+01  1.3283387625286238e+02  8.1585902987813732e+00  3.4299288626043271e+01  1.3849867683325739e+01  1.4844374517149998e+02  4.2471440863888050e+00  5.9574028187174740e+01  2.6180387979350826e+02  2.3068472619153110e+02  1.1104308984009151e+01  3.9564352750445991e+01  6.1921864689749547e+01  2.5534138432313529e+02  9.5856834005059068e+02  3.6176814582695890e+01  1.1510540876811293e+01  9.9968662357749537e+01  5.6417810866867857e+00  5.2992314546638944e+01  1.8732645678251576e+01  6.1950115430947896e+00  5.9899343419661690e+01  5.8205538279445882e+01  1.5619436499156997e+01  2.2090614414006478e+01  4.6875864227404399e+01  2.5282378863035118e+00  9.0380002502521180e+01  9.8763291866910393e+01  3.5137162853888263e+01  1.0814550002188774e+02  2.9419895453118013e+01  1.5079536436600108e+01  4.0810803160862072e+01  3.8516590545673188e+00  4.2034399929350961e+01  6.1380887019036351e+01  7.9666973081964922e+00  4.4343095512365238e+01  2.3554638007514843e+01  2.0688461607215672e+01  1.4723087066006501e+01  6.8497527765003326e+01  2.2979918989686453e+02  3.8798806211608121e+02  1.0191047733324108e+02  4.6014865067375839e+00  3.9593187281389120e+01  6.9791203109961608e-01  7.4559066667432830e+01  2.5180395347505311e+01  2.3821485415382124e+00  3.5359213343217384e+01  8.0256160777186043e+00  1.9799382916172135e+01  1.1114650858869414e+01  6.8391115703576531e+01  4.1795733975145609e+01  3.7725379225386102e+00  3.0026286391661973e+01  5.5555581725690439e+00  6.1295059522050565e+01  5.1625001127526730e+01  4.3179548753126209e+00  1.2733498486473713e+00  4.7552108792699350e+01  2.7771402761585524e+01  4.3810393280290974e+01  2.1822801953646135e+01  4.9388250579196837e+00  3.8623302145377167e+01  2.4703875905367045e+01  3.7029982723979288e+01  3.2194702777341788e-01  1.1841320209630715e+02  3.3239844052993156e-01  8.8156664941111629e+01  1.2402631598764769e+01  1.6229070033052697e+01  2.4878176497414668e+01  3.3408115990122731e+01  9.6409370672052912e+00  5.9811283752106297e+00  2.9242186080872369e+01  2.1443802666045777e+01  1.8480971123203208e+01  2.4194645071619234e+01  2.4446435377147726e+01  2.3368745258355155e+01  6.9191704060124017e+00  1.0721913293878528e+01  1.1629712999928726e+02  2.5842191227369977e+01  2.5823881376609751e+01  1.7479975386078891e+01  2.8972956669334549e+00  5.3978872373259172e+01  7.9558794339654611e+01  7.5810993249166899e+01  3.8771512048223457e+01  1.0746380122274646e+01  4.8580012882425898e+01  2.6871340969543820e+02  1.3247944342472831e+01  1.7106392050880764e+01  2.8655044919050304e+01  7.9663270121583718e-01  8.4765745817849506e+01  7.0827886568857522e+01  1.1475581108300222e+01  6.9714950267331631e+01  3.5199877399034783e+01  9.5339642726253075e+01  5.4288219138670160e+00  4.7199641910121436e+01  2.3886166572006150e+01  3.0442423907066750e+01  1.0935348357442369e+02  5.9983335475858631e+01  1.7204318232546805e+00  1.6554789362520603e+02  6.5922376378821426e+01  7.8490850115879853e+00  3.0983989508357132e+02  4.3524147320197386e+02  1.9710330634245629e+01  1.3779932811473236e+02  1.9352275292787124e+02  1.5340366324427164e+01  2.1861358332602109e+01  3.3740061045894936e+02  7.7745456303325668e+01  7.0981770655170081e+01  1.6148801149922289e+01  1.8984894687268412e+01  1.2768979617998154e+01  3.0450376159297213e+02  3.9144009482490691e+02  1.2438890026442703e+01  4.7938684938947169e+01  7.7822846806322206e+00  2.2949746260982687e+02  4.3384902282004255e+01  1.7031066744242718e+01  3.7369438770278592e+01  1.7427976429476566e+01  6.3128630106059553e+01  1.5481346448272486e+00  4.2189773484821231e+01  1.7846349870414084e+01  7.7584514588459612e+00  4.1072444213323266e+01  7.0187100486744512e+01  1.0027662974772179e+01  4.5471879611957625e+01  1.8256647979677190e+00  2.8436766792233450e+00  5.1011446935102711e+01  2.0419244828093635e+01  2.9698903715368388e+01  1.4928951125351912e+02  1.8524128587331326e-01  4.5963104290930303e+00  3.1434967414036535e+01  2.6415531845877965e+01  1.3066380230511536e+01  2.7954165441416514e+01  6.2239118025908439e+01  2.5290735060803161e+02  6.1357228901110307e+02  2.1697551313825286e+02  2.2799362883620975e+02  6.6763633295941730e+01  1.5491050298702671e+01  5.1600107478016646e+01  1.7875527959805120e+02  1.5417528491989887e+02  6.0085915976270826e+01  7.2290660921336411e+01  9.8532480743204154e-01  6.6267041893205572e+01  2.0816043657462896e+02  5.2664548779425537e+00  3.3975928562310621e+01  1.0323704328499831e+01  4.3142771318315248e+01  3.5009720762224497e+00  3.3134407267942265e+01  9.2833469913457272e+00  5.1650100044056877e+01  1.1231371719587004e+01  7.3399716543955662e+01  1.3023733011653727e+01  2.1030383922591952e+01  4.5800799117752518e+01  1.3451129048616975e+01  7.1336570996412363e-01  6.3288672324728147e+01  1.7115749477513468e+01  9.7012155825119777e+00  3.9777266779850791e+01  2.3353140039509235e+01  2.8388449790472770e+01  6.3983504178039468e+00  1.1090245782743342e+01  5.0495723493643368e+01  1.7722650457036372e+02  7.4560730807706051e+01  1.4139969072686084e+01  3.1811613304881372e+00  5.9580463558912889e+01  4.0377669056393204e+00  3.0228001719772433e+01  1.4079304487882206e+01  1.9608186775516568e+01  3.3880299465958863e+01  1.8213313986338432e+02  1.5134101678887475e+02  5.7803491764852772e+00  3.9498227153732699e+01  2.6222345054910633e+01  1.7290035731761975e+01  6.4834155004549814e+01  3.2411024595228746e+01  9.9722166230850107e+00  2.9984995127393894e+00  3.3351741491470186e+01  1.2936293328885691e+01  1.4511191010606268e+02  5.3776318283645637e+01  1.0181588524493982e+01  1.9713847076977856e+01  5.7393605689483023e+00  5.4434307491248170e+01  1.0968734256322734e+00  1.6657011980146206e+02  1.3242507698368222e+01  5.1381961078591800e+01  5.4278804790549636e+01  1.5098732017967593e+00  5.1461037789876528e+01  9.7805662234794681e+00  1.2498269331109555e+01  3.0934963363379094e+01  8.4137341467218235e+01  2.3558591160487339e+01  1.5888915136126910e+01  2.5826169078336316e+00  3.9831815685153124e+01  3.5987793455715916e+01  1.3238993721954914e+01  2.3790548449608693e+02  1.6421537756353302e+02  2.0181854023964423e+01  1.9970792522530982e+02  3.0018543338517802e+01  7.8627468621260874e+00  6.1597854310045598e+01  1.0475592895625636e+00  4.9382250970086645e+01  8.7569030677207380e+01  1.1157519649765275e+01  5.6152767257952128e+01  6.7044465067656511e-01  6.0791937797264552e+01  1.8629534423383814e+02  2.4322050041559859e+01  2.8760836991827052e+01  6.2214747632772664e+01  2.1648667782840008e+00  2.5474806767809817e+00  5.4919566202474719e+01  4.6881372630834015e+00  5.7410686806127245e+01  5.6001614500147854e+00  2.5510318242358917e+01  3.3459653947305994e+00  3.5128811112533100e+01  2.1189447176003635e+00  3.7243585310867488e+01  2.1901885611447792e+01  4.1532258641265017e+01  8.4949705646028573e+00  3.5374853588128865e+01  9.9690379447440122e+01  5.9380071190158168e-01  3.2449995959795089e+01  8.2737404094922425e+01  5.0265459480999539e+01  1.6839273323816073e+01  3.7308603785309479e+01  6.7617430258950009e+01  6.1851759984808069e+01  1.0404926258746082e+01  4.2925771849461803e+01  1.9820890226564056e+00  6.1556157203469887e+01  4.1690815785692095e+01  4.0904334497308277e+01  1.6823226243472938e+01  1.3744271351976213e+01  5.9886404673995131e+01  1.5545362262901479e+01  4.3711842458290633e+01  2.9441667999593757e+00  1.3229454764184760e+02  6.9841487234519590e+00  3.4002874579855948e+01  7.1865527074241783e+01  5.6912328379810830e+01  1.4894311615185496e+01  2.7363234398464704e+00  3.3679934189230700e+01  1.1025817038064729e+00  4.9707450032935057e+01  8.1911258335580882e+01  7.3001707627549344e+00  4.8267709214582347e+01  1.9753964565060824e+02  2.8798132753203834e+01  2.3772281885206382e+01  7.5755594656327352e+00  2.2270675159735088e+01  1.9422283255682530e+01  7.7597405581185397e+00  2.1871347795948889e+01  1.1725676299782670e+02  1.5661312664054373e+02  1.7794231569757383e+02  7.1673332435692501e+01  4.8853454048199318e+01  1.7661679226955261e+01  2.1860236745146885e+01  3.6876750704246632e+01  5.4497086236219712e+00  4.3420194700460783e+01  2.2287449235860424e+02  7.2308618092713061e+01  1.9412731693419452e+01  1.1974721007977401e+01  2.7648078789195512e+01  1.4514621884025802e+01  1.5160347890266364e+01  6.6994701057188877e+00  1.0914352201071684e+00  7.2125011445538263e+01  5.7554780725906118e+00  2.0579651810314253e+01  1.5628890791547653e+02  2.7914518877555015e+01  4.9719870517257434e+01  4.1666573569047509e+00  1.5432478221484693e+01  6.7585537473419546e+00  1.3653448126007085e+01  6.1130428270471571e+00  5.7813309524645923e+01  5.4803500772174365e+00  2.6083059795379988e+01  8.5559400352054258e+00  1.9034476145817759e+01  4.9296989583981855e+01  2.0711905332665928e+01  5.7428564641102746e+01  1.3943283938839757e+00  1.2609423457797327e+02  2.3059890368245149e+01  9.0287875729233171e+00  5.5112886766896366e+01  7.8189671421204821e+01  4.7926798621394830e+00  3.6097864431161327e+01  2.2852375526105686e+01  1.7832294644602342e+01  3.3107401776048931e+01  1.4582687879601975e+01  2.5808550718696983e+00  3.6488734162296964e+01  6.3850119435966249e+01  2.1706110439926016e+00  3.7736713306764187e+01  1.0344014893541669e+01  6.5151603771670466e+01  8.7133655347186298e+00  2.7943308759629062e+01  5.9988905975018312e+01  2.1300200873787647e+00  1.2959208384014678e+02  5.4137529670459919e+01  3.7678853127500445e-01  8.8161092687257437e+01  5.7911316125312837e+01  2.4363722657560110e+01  6.5124589613905201e+01  7.3045231344855184e+00  3.9292586820672875e+00  4.4839842579937020e+01  1.5834737056139732e+00  4.2329177926562160e+01  9.7066818154904695e+00  7.1732226394358252e+00  2.3150239852580050e+01  1.8154006881867073e+02  1.0402690724993430e+02  1.0215528896387420e+02  2.4743385058390582e-01  1.5353811820372997e+02  1.2133954309476810e+01  5.7360824455337941e+01  2.1169978198786808e+01  5.1193379960064448e+01  1.5787382278024745e+01  2.8954318759654271e+01  1.7828071831148463e+01  2.4494465407692467e-01  1.0693954218062255e+02  6.9847762561998735e+01  1.9461016091297185e+02  1.3598304835604726e+00  7.0370067174161221e+01  2.8526560999168976e+02  3.5515105189653030e+02  5.8065747062216936e+01  4.0714868701299816e+00  3.0270887772688364e+00  5.7294508957236040e+01  3.3999864881886301e+00  5.1850685999022865e+01  1.0434057620916622e+01  4.9003427952217621e+01  3.4793138189078534e+00  1.6083017879097437e+01  1.4032633305557358e+01  6.0388873266152665e+01  1.0502221668528318e+02  4.3879185933938068e+01  3.0039037469964580e+01  5.9123152457049862e+01  2.9007509027410336e+01  1.7427288961350129e+01  2.7465348108673464e+01  1.9595472039849607e+01  5.1233901709240044e+00  7.0230926873215722e+00  4.6185031332503222e+01  1.9326071061973366e+02  5.7351177363397539e+01  4.4044630296904295e+00  2.0673679030088920e+01  8.7445667815060197e+00  3.5048857003640221e+00  4.0302897764752188e+01  3.0430710469430920e+01  4.7171517632559215e+01  3.4520352065957866e+01  7.9458032693664478e+01  1.9122043690576525e+01  1.6062313160152763e+02  3.6894116549676363e+00  3.0421999586447701e+01  2.3733706901372347e+01  1.8627755682580343e+01  2.0066459588555662e+02  1.2671286630758951e+01  2.7096356848531073e+01  5.9640558221496089e+00  5.3207520529177629e+01  2.7719510269527500e+01  2.2504517168637008e+01  2.7574043410329423e+01  2.3788985466746773e+01  1.6603241263560093e+01  4.7364056971825602e+02  2.4591562825720860e+02  1.7523314843294409e+02  8.2421161786545312e+01  1.6839366727679581e+02  1.7649329832094807e+01  9.7294483663817530e+00  9.6184645996979640e+01  4.1641926746588320e-01  9.2190709949351145e+01  6.0393668922438550e+01  2.7180641412331639e+00  4.5952989942880698e+01  1.5699869575785352e+00  4.6561541060268880e+01  3.6467165262835226e+02  1.9148179812695096e+02  2.0804747680510334e+02  2.7746590515249153e+02  1.5852671609222659e+02  9.3011916360133853e+00  4.6673149097915498e+01  1.0389969328528538e+01  2.1791351718025158e+01  1.7130225934448806e+01  1.6030352996946316e+01  4.7171175930284981e+01  1.6451700165566479e+01  9.2188583760015064e+00  2.5584243214296789e+00  4.2327752612822415e+01  2.5467895684208063e+01  1.4264599456641187e+02  2.8686978195165093e+01  1.2992399766391577e+02  3.0966142996621180e+01  2.5892486459705168e+02  2.3070250816610539e+02  9.1880522208850728e+00  6.9414981195922508e+01  1.4955715482885716e+00  6.8701543085074491e+01  2.6646851657609886e+01  3.0154827701401732e+01  2.5601201249368353e+02  2.5919605581745117e+01  5.1944670372211155e+00  7.7706374562113645e-01  5.8223617291168409e+01  2.9349152378350607e+02  3.3240804162540840e+01  8.8134357803937561e+01  5.9555326240445446e+01  8.5319464491888262e+00  2.8217925639623090e+01  1.1548551085830542e+01  1.0081987151721221e+02  1.9259483481227466e+01  1.4129493219361527e+02  1.2553432932340078e+00  4.5257121546224504e+01  1.5600886995926126e+02  4.9214300218787244e+01  2.1187179038407224e+00  3.8227206909311593e+00  5.2143107439864089e+01  5.0620896570294455e+01  1.8972629827799345e+01  5.0707082683584247e+01  5.6449429867354624e+01  5.6133445478328255e+01  1.6006009757981454e+02  2.6231400809342507e+01  1.3703757200625635e+01  4.4748404720916639e+01  2.1637942144891493e+01  5.0080723893541723e-01  7.1845591896490220e+01  1.4941188583112677e+01  6.8784044614663173e+00  1.3885662653504991e+01  7.2925610067516100e+00  6.2205584500792398e+01  1.5466205020660718e+02  6.0003123987845065e+01  1.9387429578460988e+01  6.0678945050096075e+01  5.6771012036547468e+00  2.0036095034703433e+01  1.7606012655583252e+00  3.9520543911976333e+01  2.3921709010002972e+00  3.8670746491112546e+01  5.6047004378737697e+01  5.0990821483708572e+01  7.6659447507702820e+00  1.2772113284601579e+01  8.2369174257131217e+00  5.8289376033672795e+01  4.1009907966749410e+01  2.1174343349740489e+01  5.7397023589739376e+01  1.9824795492231502e+01  2.4079039864367498e+01  1.7466531794178586e+01  1.0408164172256178e+02  2.8246533542578157e+02  5.7199765948867184e+02  2.7747090595828443e+01  6.6578592762370604e+01  3.2169927087899552e+01  2.2377426848159590e+01  2.6907583488182443e+00  3.4223247803050654e+01  4.2305840753622753e+01  1.2729677740869052e+01  6.6961601110878604e+01  3.4578948052170006e+01  2.3813885919938063e+01  3.0961867438420928e+01  2.6224198592782002e+01  5.9007506484518446e+00  4.0669654964621710e-01  1.2109734950358012e+02  4.4935865401530242e+00  2.9144631078087084e+01  1.9917999395379841e+01  3.1317612573530059e+01  1.8676355691560247e+00  4.0373156081961099e+01  3.8611131999516077e+00  3.4797471521727672e+01  6.6633254060189174e+01  1.3942166583446238e+00  4.7945248081948549e+01  4.1447896005242598e+01  1.2186450073519936e+01  8.4409357796566589e+00  1.5169747697180274e+01  2.8164539312101482e+01  6.5379156929590494e+01  1.9029495197785081e+02  3.0373431789196296e+01  1.9894354764480422e+00  4.0849801446609021e+01  3.0756049504342666e+00  3.2091159466183477e+01  6.7761873602272814e+01  8.9241524225525808e+00  9.3938951236127437e+00  5.9249496089227183e+00  3.0789843943715741e+01  4.0220034908711945e+01  1.9878374097161334e+01  4.0699964811683344e+01  4.4941061888208353e+01  1.5459677523910127e+01  1.8059998882075615e+01  1.1197928107467935e+02  1.0201063809147564e+01  3.8097927151738888e+00  5.8237452895031751e+01  2.3384185159811068e+02  2.7012863317224856e+02  1.2366254688354867e+02  4.7312372440267644e+01  6.4987980880185560e+01  9.0843526165145583e-01  2.0712000943966751e+02  3.9633507911489204e+01  1.3151492880239626e+01  4.1078767905550784e+01  1.4834048444392037e+01  5.5754808134902112e-01  7.3895241701260645e+01  4.5494238183979928e+02  2.5666652035340627e+02  8.7894619160778950e+02  1.5639864752164558e+01  6.4008531398683548e+00  3.6520859574471437e+01  6.3960308195565725e+00  3.5540341775312862e+02  7.8844774308172958e+01  1.0116856990351411e+00  5.2599168280203212e+00  4.8092444475226742e+01  1.1912359475205195e+01  6.3588505451415102e+01  1.8088980005464741e+01  1.6520967141361147e+01  1.1561848275402083e+01  4.3373790873336020e+01  2.3306904502743052e+02  3.2181162752510591e+02  3.8509436491188969e+00  3.1405252487931389e+01  6.3422806117961394e-01  8.2906496117359723e+01  2.1896579349373269e+01  7.2094504289471800e+01  1.4738304180646188e+02  4.8425010911041184e+01  1.7909750192014275e+00  8.2893479644096388e+01  7.5221030851681903e+01  7.5056095631278037e+00  5.2996923939052847e+00  3.0029111607803422e+01  9.7834449489381996e+01  1.4717263640298565e+01  1.0402009694723472e+02  2.7208242905910939e+01  2.4700251845910334e+01  4.0197908408377998e+00  3.1655748905534779e+01  8.9799040217481085e+00  7.0099938433972412e+01  2.7714551611794857e+01  3.3675304354180007e+01  3.6117685071245383e+01  4.7729275562974721e+01  6.2009344233827521e+00  7.7643784150267283e+00  2.1978696952046323e+02  1.9312469092292699e+02  2.2142802872900029e+02  1.6712077138402954e+01  7.5079431076658281e+01  7.6770153018432232e+00  5.0742025444067110e+01  7.0382697499434428e+01  2.6300623585011401e+01  2.4024225646676367e+01  1.1732379600335753e+01  6.5580284060971108e+00  3.5507002843513121e+01  2.1187356309767758e+01  2.3650333247966451e+01  2.5108141314684434e+02  8.4547438729385220e+01  1.1338530002200587e+01  1.3865198913199015e+02  2.1105799755508905e+01  1.9341408214036026e+01  2.5648815467740501e+01  4.0817147062482505e+01  2.4552112758474745e+01  2.0692860423255718e+02  1.1720380230532813e+01  7.3842846145331407e+01  1.4247206894228873e+01  3.2902100301664738e+01  7.4531719579951286e+01  3.0381514007687862e+00  3.7636527890755048e+01  8.8993567306159591e+01  2.1153623321603496e+02  5.3995447560310758e+01  6.9474947915848535e+00  3.5950725518058043e+01  2.0825516617112267e+01  2.5939231582943002e+01  2.3055037547518065e+01  7.1006624736706613e+01  1.6692953625661243e+01  1.6888046871418272e+01  7.0001060200797568e+01  1.0326117487690711e+01  4.5945185669637894e+01  3.6831263733447095e+01  6.4683484200475860e+01  2.7142784996166569e+01  2.3563503009851118e+01  6.3862155693113003e+00  3.3824216522181715e+01  3.8250371836736768e+01  2.6217072362452345e+01  7.9302788021992647e+00  3.2825574055592675e+01  8.3387399134884781e+00  4.7612129001807851e+01  1.2122492465204948e+02  1.6229911768692520e+02  3.1249275482843234e+02  4.2122826041220998e+02  2.1955741171432526e+00  3.6895717085948583e+01  2.0338845304628698e+01  1.8270893027099151e+00  5.5505475315540231e+01  3.8133101090641873e+01  3.9559974660027244e+01  3.4043783663616246e+01  4.1815374486429789e+01  3.3006656495121234e+01  1.1315613005188887e+01  3.9278276184358553e+01  2.2282147854397600e+01  6.9103919090715081e+01  2.2922264708145327e+01  2.2673911144757078e+01  1.1784644542120141e+01  5.7885606662708753e+00  6.0582700048275697e+01  7.3441820365110729e+01  1.4814538817631563e+02  6.6000359570372180e-01  7.0801940461548725e+01  1.1789387418895603e+02  8.5773527445404838e+00  4.3091991944296559e+01  1.8929540891800531e+01  4.8449292268997809e+01  7.4912289762344191e+00  5.8172081168770227e+01  1.8321749792839711e+01  2.5078296774535602e+02  1.2746955472561294e+00  5.3563075869342399e+01  1.6611405869808895e+01  4.8874677059682028e+01  9.6616993265857275e+01  5.6143390389040015e+01  3.5829056161329502e+00  4.6854864559183715e+00  4.6157452997258837e+01  6.6912995017575918e+00  1.4457233571651227e+02  8.7680376861617617e+01  2.5829321535947326e+01  2.0326011381916892e+01  1.0770945295417871e+01  3.5311980297289907e+01  4.2674867013431212e+00  3.9295918264937598e+01  2.3512105091516158e+01  5.4694817652237887e+01  1.6438172765657178e+01  5.4615407111545466e+01  5.2195386116602464e+01  4.4355901027787619e+00  1.1764273620647476e+01  4.4880947103611980e+01  5.3472177060432244e+01  2.1471688649782298e+01  2.7107578025651357e+01  6.5117520703844278e+01  1.7159065401802236e+00  6.3490641169009905e+01  2.0171803884640276e+01  2.3312644466144420e+01  1.1621746474436790e+02  1.2400313739116337e+01  5.2465302702316251e+01  2.7542922100570404e+01  3.1560606057747819e+01  1.2123066112021556e+01  8.5300824594908249e+01  5.9617402800271890e+01  4.7949415422487895e+00  1.4072184695940695e+02  2.7712104751118528e+02  3.0155029414302685e+01  5.8062852339926252e+01  4.0111773217906723e+01  6.7237163482069946e+01  2.1467741902530415e+00  4.2778705265814651e+01  2.4320377752099105e+02  3.2463519481516209e+02  1.3873259903049620e+01  5.0125710650780803e+01  1.7755646362010154e+01  2.7612333485432863e+01  1.6037081307301776e+01  1.0631805599552528e+01  1.3656740021287604e+02  1.7077563964162948e+01  8.9170537038957054e+00  6.4513718417557131e+00  6.2811517827607908e+01  1.3381080784364025e+02  6.3605539262762463e+01  1.9905348709573556e+00  7.4179743698703682e+00  4.4497821623880425e+00  3.3002963648259616e+01  3.5873384858225840e+01  6.0586320130080651e+01  1.5012773978283022e+01  2.4936387232459424e+01  8.9578151614991419e-01  5.7937161534482236e+01  1.4462081566606992e+02  2.7245683138734417e+01  3.4774221158753766e+00  3.0853994169599218e+01  1.2602865261804897e+01  5.8103992397773176e+01  7.6085331895623387e+00  6.4525598678537449e+01  3.3337378535945117e+00  3.1952344841347415e+01  9.6815840461870195e+01  5.9407814666784333e+01  2.2492311282803587e+02  4.4708145089563489e+00  4.5095871076744430e+01  2.4186561418274946e+00  8.3821943357168593e+01  5.8176064316073428e-01  2.0982774202348963e+02  1.0340252391096952e+01  5.4158624947452452e+01  7.3731324307824494e+01  3.7951219445465898e+00  2.2775188665335460e+01  6.3630682145661048e+01  3.3209923507183106e+01  1.1283699660949284e+02  3.1603903777271341e+01  8.9127725859840936e+01  5.6751498726573672e+01  2.5198001852869263e+00  5.4790741316410696e+01  4.7777016014353872e+00  5.4229964226942229e+01  1.1147725909482276e+00  5.1753429411479821e+01  1.6767555338853242e+01  4.5393339021985355e+01  1.3409143721162933e+00  6.0721128095098260e+00  4.5908112776723122e+01  1.4849983811668992e+02  2.5104447629046931e+01  1.0677175898344597e+01  1.1432415897227435e+02  5.5423252939434946e+01  2.1705505446584493e+01  3.4048137996448261e+01  4.7684119660682933e+00  2.0406175597459235e+01  5.5940008464475170e+01  9.0531318193330979e+00  6.3216430535043258e+01  1.2130784811541208e+01  2.9240666671704410e+01  7.3895148639447441e+01  7.2630212529327878e+01  6.8328554035418776e+00  3.9875539139952394e+01  1.8796506670819888e+01  1.8536870217681266e+02  8.4754063229801369e-01  5.4330985530831853e+01  2.1246765734985015e+01  6.5352462597949113e+01  1.7732654024356256e+00  2.0848520764566717e+02  3.0850575189458052e-01  1.0490076647940192e+02  1.3653756485719532e+01  8.8382008904564255e+00  4.0239133842193224e+00  4.9600820178143664e+01  1.4186673521694761e+01  2.7242066664184573e+01  8.7050310349986304e+01  7.9616306858385855e+00  5.4858873936190051e+01  5.0734029116553438e+00  3.1060501379087391e+01  1.5460902252162353e+02  1.0525504303382993e+01  3.4347954757861623e+00  3.8182238287018066e+01  2.7386316758578726e+01  1.3526194724168597e+01  1.9823261970106077e+02  2.0622229594090548e+01  5.0708593238665642e+00  4.1259923972626076e+01  6.9070488233756024e+01  2.5722916575192343e+01  4.8873112322610943e+00  2.8862606420372948e+01  1.0817941164935437e+01  2.5936423931799059e+01  1.9748572623613697e+03  2.6053105197512076e+02  6.5961752895404459e+01  2.6753347129405080e+02  5.9787863775715088e+01  4.2260519314174594e+01  1.6622036416361087e+01  2.1714987064615332e+01  8.3843134234506209e+00  3.9123521258714682e+01  1.2621832741663406e+01  5.9093469984507230e+01  1.3230333237548450e+02  3.3641762901758050e+01  2.1748732912343269e+02  2.6083615212279176e+02  9.6232659642916296e+00  3.7940932247754155e+01  1.5482077300731465e+01  6.7883775847067554e+01  6.2057635778317541e+00  1.0250556546232902e+01  6.7769191873548479e+01  9.6036170884023289e+00  2.2566466277726704e+01  1.4375874101251565e+01  1.3626682005687606e+01  1.5151929951552299e+02  3.1537797779935421e+01  1.2068903880247821e+02  2.4353432224031295e+01  2.4976434285767652e+01  1.0999814511160473e+01  7.0312637634540138e+01  9.5824265631018921e+00  8.3337046684416634e+01  3.3518049109135417e-01  3.7033514557914238e+01  3.6710910171068541e+01  6.3021102477287954e+01  2.4933639189148749e+01  2.1870274532170587e+01  9.2526120093053080e+01  3.1941677779705721e+01  1.5392315091258787e+01  4.2876947838601261e+01  3.5414932128520595e+00  4.8866742153806698e+01  1.0561580227696062e+01  1.4258856157315735e+01  2.4347004953383337e+01  9.5472808835426164e+01  4.7176605222653105e+00  3.0151911648602617e+01  3.1341387892258883e+00  3.3077663993991933e+01  8.5751703017676775e+00  3.1250109918733767e+01  1.2667354608645903e+01  7.8957220540405444e+01  1.2979446366920655e+01  2.9381449155197547e+01  9.1927706233755622e+00  7.8472521403673179e+00  1.3720928486818751e+01  1.4306400283921715e+01  1.2988585439704559e+02  5.5855940309357905e+01  5.3989720013944060e+00  7.1460129105869736e+00  1.5839887433468270e+01  3.8872068594660000e+01  2.9078831358848976e+01  1.1165272820445947e+01  1.7350311082981509e+01  1.1881899200988283e+01  5.8791769508617755e+01  9.8198246502671116e-01  2.8283530156838108e+01  4.5064368331669591e+01  2.4072230862907357e+01  1.1076734520469973e+01  6.1163298922178711e+01  5.7651615548189366e+00  2.8485107565521947e+01  1.8289464063899128e+01  2.6581375961176139e+01  1.5945682211922815e+02  2.0817490096099678e+02  2.4783907376104850e+01  2.7624422698493034e+00  3.4821640048092569e+01  6.8189829821706510e+01  3.0018906515458932e-01  1.4652154640830773e+02  1.8460155902885123e+01  1.8127139669099080e+01  2.8142043482403778e+01  1.7942698922248340e+01  5.6355778443514481e+01  1.0631121958530667e+01  2.9896886249215417e+00  3.5054740650216779e+01  3.0169801619247956e+01  2.2622898429355409e+01  9.3441662655922482e+00  7.6238683452458872e+01  1.5337492014464393e+01  9.8701038956546245e+00  5.1587890485366124e+01  1.1063856765478840e+02  3.1447345244127952e+01  1.2494935315788982e+02  1.5402188154497910e+01  7.2138938640606676e-01  8.7144410602713521e+01  1.7908909588279119e+01  1.7189185083913830e+02  2.5894302544252355e+01  4.3620451581579158e+02  3.1007705258617835e+02  2.5354233250080846e+00  5.0551709255633519e+01  9.0905498581842858e-01  7.8829203768692238e+01  3.7886318370423417e+01  1.0256370399010009e+01  1.8732534732427871e+02  7.0418247145032149e+00  1.8843944297976567e+01  7.7440331653676068e+01  4.6643903316418617e-01  1.8591324173984106e+01  2.6963579902396947e+02  5.5244216233530085e+02  6.2230097419960417e+00  6.0099185123722428e+01  6.3232266230650360e+00  5.1109272537472179e+01  2.5159002102478362e+02  1.1312276592916358e+02  3.4396512864840445e+00  3.1050947021160397e+01  1.8527932214535578e+01  7.0329565069609274e+01  1.3635878713346985e+01  5.5099970519450068e+00  5.0316110317366977e+01  8.1763925343125919e+01  4.3148565201420638e+01  1.8669032284452618e+00  2.0331902646555906e+02  1.3284220580249018e+02  4.7570874263676039e+01  5.4818699375802680e+01  8.5808903628800515e+00  2.5578070197905893e+02  8.5443118287755249e+02  1.4098712132914392e+02  6.0590981317638288e+00  3.3772180773088316e+01  6.9642057720789827e+00  6.0460004065586482e+01  3.0387034386605285e+02  4.5537496182892937e+01  2.2281356151218665e+02  1.3727525557186676e-01  9.7818926350332490e+01  3.6777964069922426e+01  2.7007673297277538e+01  1.1152167061175435e+01  7.1849352417988513e+01  2.7623617168849588e+00  5.9117515006778568e+01  1.3937220164433944e+01  3.4004772244148263e+01  1.4386521720333130e+02  2.3221067069418766e+01  1.0486772038747692e+02  2.4036556692804492e+01  3.3670575143142351e+01  1.8662155418701880e+02  1.9507511066163485e+01  1.0951769546173179e+02  3.8433609142097556e+00  3.6340220368672810e+01  1.3536122193573416e+02  4.9729365911784136e+00  3.3262932373332397e+01  1.2975224339861501e+01  3.9704331886872617e+00  5.8995236275575976e+01  1.7477954077338950e+01  3.7489831978140579e+01  4.7406636197273180e+01  2.8723806595969643e+00  7.4921903482955212e+00  4.1031430745313394e+01  2.5514499405144491e+01  2.5657634084689558e+01  1.1088033140502786e+02  2.4157772190322336e+02  4.9432289688307902e+00  5.9105566262104901e+01  4.5175152232919444e+01  6.5939257438364365e+01  1.3483043031734931e+01  6.4027611022049655e+01  1.2570420203955418e+01  2.3757021977059165e+00  3.5315826710079101e+01  6.3650494391167328e+01  2.5183238700129237e+01  9.6386574970706995e-01  7.2784443778804771e+01  1.7574994025696792e+01  1.5265236895933333e+01  2.0336338352375183e+00  5.6406755360392964e+01  5.0251967813254916e+00  8.2348891444293315e+00  1.8605042623538036e+01  7.6692441168781365e+00  3.4406076850544508e+01  1.5507343063670181e+01  2.0637395676173462e+01  1.1236565576712563e+01  2.1781352702957925e+01  6.6100259433434005e+01  1.4491754874700143e+02  3.3273223166640137e-01  1.8827801323728508e+01  1.0811336696749986e+02  1.6137903629848307e+01  6.3929420777419061e+01  2.9032387174905028e+02  2.4130170360880831e+02  9.9004413236676676e+00  2.6168886775081823e+01  2.1213501527267397e+02  1.5737336334774321e-01  4.8637780316613828e+01  1.5354922325356182e+00  3.1324804208275271e+01  2.3470872980474759e+01  7.2344511005028394e+01  1.0637909778371773e+01  1.7138244946886377e+02  1.4485442502988352e+01  1.6831993664782243e+02  3.8865057585049037e+01  1.3754326829497943e+01  4.2154924494869846e+01  6.3684151527514501e+01  3.6308300583322101e+01  6.9236162725248974e+01  6.7179925189839320e+00  2.3049134081413804e+01  5.9791654061691460e+01  9.3219227409715213e+00  2.4986794836302195e+02  3.7752032019565166e+02  1.4437084979920215e+01  6.5930148871740712e+01  2.4249293444102385e+01  1.7297932873912210e+01  7.2558228201235018e+00  4.3069673528998052e+01  9.2591668550852148e+01  7.0812139121569274e+01  1.3409795508385651e+00  5.5596230921376410e+01  3.8227133223673142e+01  1.0984878082921409e+02  1.4270448529565193e+01  7.1157624856411090e+01  6.5624305234492653e+01  8.4335784799233764e+00  4.8453261766092069e+01  9.5904294341059160e+00  8.2762960305040583e+00  4.1148405158181710e+01  1.1401217906125417e+01  3.3410674146619563e+01  3.3758245965861062e+02  4.4318270119520742e+00  2.0667613631613460e+01  4.4686449638769581e+01  5.3090378054835398e+01  1.3446809995064720e+02  1.1924165444805597e+01  1.4928983051643068e+00  6.0696904895585469e+01  5.0760323715543770e+01  1.4067881755440908e+01  5.5174351109050477e+01  8.9324549757269608e+01  2.2302144150873289e+01  9.3001793356345317e+01  1.1794827394952903e+00  6.1628701065009963e+01  4.3477319358530799e+00  4.1600552234688401e+01  8.7016920681033016e-01  7.2930547464633378e+01  7.6986380680847233e+01  7.6765485829747590e+01  1.7515104824433732e+02  2.2916609548221068e+01  8.0738467518109447e-01  8.7413741769144295e+01  3.8440103239462694e+01  1.2883816428597298e+01  7.2796769712463771e+01  1.0654398883352634e+02  2.1253970923858063e+01  7.5571555214300243e+00  5.3032939087845421e+01  6.9562035935783172e+01  2.0585577258973881e+01  9.0010305854562378e-01  5.4086656094744200e+01  1.6789508056898420e+01  2.0072068074727039e+01  4.9424134761749478e+01  4.8379602218413220e+00  1.9798397290754949e+01  5.7661125353661342e+00  3.2700234251405170e+01  2.9678588881645940e+01  </DataArray> 
</PointData> 
</Piece>
</UnstructuredGrid>
</VTKFile>