<?xml version="1.0"?>
<VTKFile type="UnstructuredGrid"  version="0.1"  >
<UnstructuredGrid>
<Piece  NumberOfPoints="3167" NumberOfCells="6038">
<Points>
<DataArray  type="Float64"  NumberOfComponents="3"  format="ascii">2.2 2.9 0  0 2.9 0  2.8 2.9 0  5 2.9 0  5 0 0  0 0 0  2.16271186440678 2.9 0  2.125423728813559 2.9 0  2.088135593220339 2.9 0  2.050847457627119 2.9 0  2.013559322033898 2.9 0  1.976271186440678 2.9 0  1.938983050847457 2.9 0  1.901694915254237 2.9 0  1.864406779661016 2.9 0  1.827118644067796 2.9 0  1.789830508474575 2.9 0  1.752542372881355 2.9 0  1.715254237288134 2.9 0  1.677966101694914 2.9 0  1.640677966101693 2.9 0  1.603389830508473 2.9 0  1.566101694915253 2.9 0  1.528813559322032 2.9 0  1.491525423728812 2.9 0  1.454237288135591 2.9 0  1.416949152542371 2.9 0  1.37966101694915 2.9 0  1.34237288135593 2.9 0  1.305084745762709 2.9 0  1.267796610169489 2.9 0  1.230508474576268 2.9 0  1.193220338983048 2.9 0  1.155932203389827 2.9 0  1.118644067796607 2.9 0  1.081355932203387 2.9 0  1.044067796610166 2.9 0  1.006779661016946 2.9 0  0.9694915254237257 2.9 0  0.9322033898305055 2.9 0  0.8949152542372856 2.9 0  0.8576271186440652 2.9 0  0.820338983050845 2.9 0  0.783050847457625 2.9 0  0.7457627118644048 2.9 0  0.7084745762711844 2.9 0  0.6711864406779642 2.9 0  0.633898305084744 2.9 0  0.5966101694915238 2.9 0  0.5593220338983036 2.9 0  0.5220338983050834 2.9 0  0.4847457627118632 2.9 0  0.447457627118643 2.9 0  0.4101694915254228 2.9 0  0.3728813559322024 2.9 0  0.3355932203389822 2.9 0  0.2983050847457622 2.9 0  0.2610169491525418 2.9 0  0.2237288135593216 2.9 0  0.1864406779661016 2.9 0  0.1491525423728812 2.9 0  0.1118644067796613 2.9 0  0.07457627118644039 2.9 0  0.03728813559321997 2.9 0  2.792405063291139 2.9 0  2.784810126582279 2.9 0  2.777215189873418 2.9 0  2.769620253164557 2.9 0  2.762025316455697 2.9 0  2.754430379746836 2.9 0  2.746835443037975 2.9 0  2.739240506329114 2.9 0  2.731645569620254 2.9 0  2.724050632911393 2.9 0  2.716455696202532 2.9 0  2.708860759493671 2.9 0  2.701265822784811 2.9 0  2.69367088607595 2.9 0  2.686075949367089 2.9 0  2.678481012658228 2.9 0  2.670886075949368 2.9 0  2.663291139240507 2.9 0  2.655696202531646 2.9 0  2.648101265822786 2.9 0  2.640506329113925 2.9 0  2.632911392405064 2.9 0  2.625316455696203 2.9 0  2.617721518987342 2.9 0  2.610126582278482 2.9 0  2.602531645569621 2.9 0  2.59493670886076 2.9 0  2.587341772151899 2.9 0  2.579746835443038 2.9 0  2.572151898734178 2.9 0  2.564556962025317 2.9 0  2.556962025316456 2.9 0  2.549367088607595 2.9 0  2.541772151898734 2.9 0  2.534177215189874 2.9 0  2.526582278481013 2.9 0  2.518987341772152 2.9 0  2.511392405063292 2.9 0  2.503797468354431 2.9 0  2.49620253164557 2.9 0  2.488607594936709 2.9 0  2.481012658227848 2.9 0  2.473417721518988 2.9 0  2.465822784810127 2.9 0  2.458227848101266 2.9 0  2.450632911392406 2.9 0  2.443037974683545 2.9 0  2.435443037974684 2.9 0  2.427848101265823 2.9 0  2.420253164556962 2.9 0  2.412658227848102 2.9 0  2.405063291139241 2.9 0  2.39746835443038 2.9 0  2.389873417721519 2.9 0  2.382278481012658 2.9 0  2.374683544303798 2.9 0  2.367088607594937 2.9 0  2.359493670886076 2.9 0  2.351898734177215 2.9 0  2.344303797468355 2.9 0  2.336708860759494 2.9 0  2.329113924050633 2.9 0  2.321518987341773 2.9 0  2.313924050632912 2.9 0  2.306329113924051 2.9 0  2.29873417721519 2.9 0  2.291139240506329 2.9 0  2.283544303797469 2.9 0  2.275949367088608 2.9 0  2.268354430379747 2.9 0  2.260759493670887 2.9 0  2.253164556962026 2.9 0  2.245569620253165 2.9 0  2.237974683544304 2.9 0  2.230379746835443 2.9 0  2.222784810126583 2.9 0  2.215189873417722 2.9 0  2.207594936708861 2.9 0  4.96271186440678 2.9 0  4.925423728813559 2.9 0  4.888135593220339 2.9 0  4.850847457627118 2.9 0  4.813559322033898 2.9 0  4.776271186440677 2.9 0  4.738983050847457 2.9 0  4.701694915254237 2.9 0  4.664406779661016 2.9 0  4.627118644067796 2.9 0  4.589830508474575 2.9 0  4.552542372881355 2.9 0  4.515254237288135 2.9 0  4.477966101694914 2.9 0  4.440677966101694 2.9 0  4.403389830508473 2.9 0  4.366101694915252 2.9 0  4.328813559322032 2.9 0  4.291525423728811 2.9 0  4.254237288135591 2.9 0  4.21694915254237 2.9 0  4.17966101694915 2.9 0  4.14237288135593 2.9 0  4.105084745762709 2.9 0  4.067796610169489 2.9 0  4.030508474576268 2.9 0  3.993220338983048 2.9 0  3.955932203389827 2.9 0  3.918644067796607 2.9 0  3.881355932203387 2.9 0  3.844067796610166 2.9 0  3.806779661016946 2.9 0  3.769491525423725 2.9 0  3.732203389830505 2.9 0  3.694915254237285 2.9 0  3.657627118644065 2.9 0  3.620338983050845 2.9 0  3.583050847457625 2.9 0  3.545762711864405 2.9 0  3.508474576271184 2.9 0  3.471186440677964 2.9 0  3.433898305084744 2.9 0  3.396610169491524 2.9 0  3.359322033898303 2.9 0  3.322033898305083 2.9 0  3.284745762711863 2.9 0  3.247457627118643 2.9 0  3.210169491525423 2.9 0  3.172881355932202 2.9 0  3.135593220338982 2.9 0  3.098305084745762 2.9 0  3.061016949152542 2.9 0  3.023728813559321 2.9 0  2.986440677966101 2.9 0  2.949152542372881 2.9 0  2.911864406779661 2.9 0  2.87457627118644 2.9 0  2.83728813559322 2.9 0  5 0.1063822624840908 0  5 0.210636879963479 0  5 0.3128064053000104 0  5 0.4129325399736057 0  5 0.5110561519920087 0  5 0.6072172917522097 0  5 0.7014552086337308 0  5 0.7938083672768746 0  5 0.8843144624325437 0  5 0.9730104357533907 0  5 1.059932489779506 0  5 1.145116102681561 0  5 1.228596043237163 0  5 1.310406384819408 0  5 1.39058051967151 0  5 1.46915117219283 0  5 1.546150411689349 0  5 1.621609666350684 0  5 1.695559735780513 0  5 1.76803080351128 0  5 1.839052449831632 0  5 1.908653663284034 0  5 1.976862852540214 0  5 2.043707858250082 0  5 2.109215963970139 0  5 2.173413907547539 0  5 2.236327892447888 0  5 2.29798359737153 0  5 2.358406188061876 0  5 2.417620326899216 0  5 2.475650183036803 0  5 2.532519442044509 0  5 2.588251315695885 0  5 2.642868552136335 0  5 2.696393444001645 0  5 2.748847837883952 0  5 2.800253143882191 0  5 2.85063034388582 0  0.2631578947368421 0 0  0.5263157894736842 0 0  0.7894736842105263 0 0  1.052631578947368 0 0  1.31578947368421 0 0  1.578947368421053 0 0  1.842105263157895 0 0  2.105263157894737 0 0  2.368421052631579 0 0  2.631578947368421 0 0  2.894736842105263 0 0  3.157894736842105 0 0  3.421052631578947 0 0  3.684210526315789 0 0  3.947368421052632 0 0  4.210526315789473 0 0  4.473684210526315 0 0  4.736842105263158 0 0  0 2.850203682350569 0  0 2.799411438503675 0  0 2.747603349778291 0  0 2.694759099502208 0  0 2.640857964382145 0  0 2.58587880633613 0  0 2.52980006535898 0  0 2.472599749459174 0  0 2.414255427218689 0  0 2.35474421880616 0  0 2.294042786119219 0  0 2.232127324764723 0  0 2.1689735539481 0  0 2.104556707683346 0  0 2.038851524813415 0  0 1.971832238155654 0  0 1.903472565412125 0  0 1.83374569926617 0  0 1.762624296208474 0  0 1.690080464918761 0  0 1.616085756774205 0  0 1.540611154706337 0  0 1.463627060685571 0  0 1.385103284916206 0  0 1.305009033716617 0  0 1.223312897337225 0  0 1.139982838163732 0  0 1.054986177579937 0  0 0.9682895835804808 0  0 0.8798590579197967 0  0 0.789659921841535 0  0 0.6976568029903634 0  0 0.6038136217958807 0  0 0.508093576867624 0  0 0.4104591310957497 0  0 0.31087199635222 0  0 0.2092931188294389 0  0 0.1056826638508546 0  1.434832105734982 2.866945754976478 0  1.737156300412976 2.8700394402447 0  2.032203389830508 2.867707527316512 0  2.332911392405064 2.893422591869991 0  2.469810913221006 2.891944186617815 0  2.606221408801046 2.892519154968786 0  2.255455320556353 2.892068684938936 0  2.538247299178607 2.894964578175289 0  2.674683544303798 2.893422591869991 0  2.40126582278481 2.893422591869991 0  3.566125247274844 2.86502933617869 0  3.266101694915253 2.867707527316512 0  2.967796610169491 2.867707527316512 0  1.174288529771947 2.870795313883199 0  3.825423728813556 2.867707527316512 0  2.727766680241741 2.892655387639323 0  0.06601655192030442 1.502119107695954 0  4.933983535518289 1.50765079194109 0  0.9532124728076634 2.868722489784116 0  4.048935912505472 2.870640982963028 0  0.05930163367361851 1.866907161167415 0  4.943402512617702 1.871280731227115 0  4.271733869970415 2.865208656206698 0  0.724942092071192 2.863922936166216 0  0.05494499779911566 2.196469063120751 0  4.947228695435926 2.208030108416282 0  0.5406152149451962 2.866493807374646 0  4.459322033898304 2.868847558171501 0  2.18135593220339 2.875780645487384 0  2.81702715648046 2.876587550622478 0  4.928427208334964 1.186856072959362 0  0.07189226971603357 1.174626666111664 0  4.610299014391064 2.867003104061287 0  0.3897270066746503 2.869433095314649 0  1.5811324999839 2.868247328613121 0  1.887637879307645 2.869235851843492 0  3.413449426409203 2.867372048026557 0  3.116721298784139 2.865731235545648 0  2.644303797468355 2.893422591869991 0  2.370983221771223 2.892719513366117 0  2.302531645569621 2.89333678739629 0  2.758987341772152 2.894242393896969 0  0.04979653335696588 2.443411216910279 0  4.950470983481301 2.446866954190454 0  2.482937483056625 0.2513241088166693 0  1.70712950486069 0.1999998660928157 0  3.285846579639133 0.2292006256069719 0  4.907807122450741 0.8340823629079156 0  4.757627118644067 2.867707527316512 0  0.07734891246767406 0.8347594898806658 0  0.2390604736599493 2.861365431805748 0  0.8363213714273008 2.863896768913622 0  4.16086561018973 2.868916854014843 0  1.28254933196979 2.86761095296154 0  1.065094818264994 2.861284686078544 0  3.938181277358471 2.868651344087338 0  3.711492629398847 2.863574306894209 0  4.913693619806458 0.5579891341027028 0  0.08208328472281323 0.5559535993317524 0  2.696596932509445 2.892010483912606 0  0.04706410140274642 2.613055974506517 0  4.955577063959472 2.616518038416838 0  2.234177215189874 2.893422591869991 0  2.279795840517476 2.894038618939426 0  0.911735788765236 0.2117925286661764 0  4.055948041976698 0.2039101059740411 0  4.872119713756579 2.86763292637659 0  2.78011387899257 2.891535929611774 0  0.1327442468251299 2.857324907074377 0  4.948588972257925 2.327887314086883 0  0.05077611665435455 2.326147982308926 0  4.948445491957669 2.078801354824974 0  0.05201842128040823 2.076723782914919 0  4.938995785827646 1.72834743171049 0  0.05879969806544771 1.726692949165474 0  0.04879261462430762 2.727135101028679 0  4.952429708243205 2.726830353613835 0  4.931261490708128 1.350493452245459 0  0.06623061573175848 1.344998009351003 0  4.533898305084742 2.867707527316512 0  4.389353028555728 2.868387315903446 0  0.6152542372881351 2.867707527316512 0  4.925476060152471 1.016471462766448 0  0.08703507822204593 1.009796262993811 0  1.36101694915254 2.867707527316512 0  0.4661016949152521 2.867707527316512 0  0.3175485001024132 2.874533177559484 0  1.512307863546535 2.869072668032402 0  3.489830508474574 2.869462988823805 0  3.639079926686632 2.873330093591221 0  4.68817615319286 2.868097804631303 0  3.341723501139676 2.867192112191491 0  1.657837877065068 2.868066011810402 0  1.803693133542347 2.869565759591771 0  3.188646544021247 2.867952585786685 0  2.106679513795622 2.869491238595474 0  1.954862079455234 2.870435610183768 0  2.89322033898305 2.867707527316512 0  3.04394866703651 2.867276970820312 0  2.659493670886076 2.893422591869991 0  2.629280840438417 2.893427280832507 0  2.386075949367089 2.893422591869991 0  2.35479081556179 2.892057296302187 0  2.317721518987342 2.893412366930736 0  4.91415534153545 0.3628694726368078 0  0.09374343579972511 0.3545243053189044 0  2.712658227848102 2.893422591869991 0  2.74309993792723 2.891773716456685 0  2.209923502081098 2.890654122874648 0  4.964205928193017 2.829939346061642 0  0.05005374779877991 2.820665612529416 0  2.796823530874545 2.887336023002033 0  0.3803052145603032 0.2150775889605174 0  4.591324694617138 0.2102048025307821 0  0.6727762386983307 0.2193095829458995 0  0.8045773296052268 0.4122013578560306 0  1.008556718870573 0.4151267109567636 0  0.8884382513510833 0.5899572960782842 0  1.08360832700563 0.6057263529350808 0  0.9741203760542909 0.7608731353701764 0  1.157826849151096 0.7788000638853914 0  1.055490970951542 0.9242445541268832 0  1.228712891846352 0.9411460399687663 0  1.131916033060529 1.077880945183454 0  1.294905009209802 1.094154375478099 0  1.205338848376529 1.223342230213015 0  1.35713215361737 1.238127672965599 0  1.277180264926346 1.355547812386103 0  1.415726671568627 1.37253154468194 0  1.342896875810218 1.484133830926946 0  1.469693343895409 1.499388958064137 0  1.398096933303091 1.607286308644172 0  1.52142251950599 1.619058418368481 0  1.449960660068345 1.716584886340551 0  1.570517196578111 1.727790786938482 0  1.331848549634765 1.710334840163652 0  1.639666380862206 1.632464609097399 0  1.688272316266057 1.741310254469492 0  1.757333525443071 1.647942855103567 0  1.804288543161113 1.755220008577586 0  1.873834221872054 1.661553278929072 0  1.919104652742444 1.767573793673983 0  1.988647695838009 1.677215574625139 0  2.033511547550129 1.780313750819737 0  2.102231278646563 1.69199969550853 0  2.144888787805126 1.791487113030146 0  2.214617697714528 1.702790496261048 0  2.24793323079906 1.7997554285442 0  2.324576930680163 1.716068681339265 0  2.354941077317214 1.828257450927666 0  2.434904640937365 1.732174715790515 0  2.479457084417658 1.833249332958713 0  2.548645294456348 1.742378723740324 0  2.590607092658106 1.845702409865002 0  2.660677963592498 1.755142165628976 0  2.702084486995283 1.858522747011544 0  2.771763579454475 1.76878558360022 0  2.81671560566959 1.871324435241638 0  2.88246102792204 1.78237449717214 0  2.926865489614203 1.881575273065512 0  2.997743470910655 1.793460837673795 0  3.032459667814683 1.89278336325125 0  3.1056846292781 1.809170777884491 0  3.136048632437937 1.904225479189207 0  3.196546043558703 1.823847500277998 0  3.235600543792045 1.912683045725013 0  3.294401640317271 1.836773212418191 0  3.333514563339349 1.922689213368009 0  3.390039356852689 1.849523065447573 0  3.427877444867373 1.935499381713414 0  3.482994552361911 1.862419837443764 0  3.517710069915783 1.946148838630023 0  3.573330595634344 1.874779205441429 0  3.605923064303985 1.955554394228844 0  3.661040012143218 1.886535106773076 0  3.694139986409885 1.965622467406778 0  3.747773776989638 1.898219789145272 0  3.780561536716446 1.97618549908823 0  3.831566830936228 1.909577744257249 0  3.863563292689288 1.986057410829507 0  3.913822324827914 1.920688522734456 0  3.944974102562903 1.995571363059945 0  2.415978863660029 1.919093347435433 0  3.995692522563395 1.931060322272256 0  4.025520203468172 2.005476266622696 0  3.977726577788335 2.067503277224664 0  4.053695347583831 2.077263308920437 0  3.963968875497905 1.85574134231114 0  3.629674814596098 1.808778287013369 0  3.727675254902342 2.03912666441689 0  1.380041011572336 1.811794164207048 0  1.270943201485063 1.805966020465332 0  2.750365562603919 1.958024076501468 0  3.472029637672184 2.016984294962355 0  4.009433263834858 2.136834992378367 0  4.081944151113499 2.144954049227509 0  4.126787227501821 2.087578175413948 0  4.154564596982476 2.154141074926565 0  1.737129782528524 1.840884955095638 0  2.075640102501908 1.878266450062863 0  1.314979763740686 1.901683871016173 0  1.214169668030967 1.895491261559719 0  3.175166883417359 1.9870251413352 0  1.258272276130288 1.985394110826936 0  1.158846442613294 1.977099124108172 0  1.115308900498179 1.892100892187897 0  1.062771756973177 1.971469711685333 0  1.019943447925911 1.889104685982622 0  0.9725518000712376 1.968801548185707 0  1.01294853612501 2.049926758353722 0  0.9236824359507307 2.044833326927157 0  4.038415582911572 2.202538994371345 0  4.198202277195826 2.097792081498994 0  4.225936578412433 2.163503720647338 0  0.9287138296280553 1.887375243820336 0  0.9621284732915076 2.121036846946067 0  0.8807067163382158 2.117491155057952 0  4.268500249702289 2.107864704080976 0  4.297379149850284 2.174042338007367 0  4.253802779591773 2.227264587617641 0  4.319656979297278 2.236116161697156 0  4.279810569393637 2.287779860250758 0  4.34043709865084 2.297509523894802 0  0.9184464896513338 2.188598138203481 0  0.839161322016392 2.184551336868473 0  0.8014512430803877 2.115755565977701 0  0.7616059460573124 2.181889840526499 0  1.943699682950142 1.571926180288582 0  0.7963759083595379 2.247548896302024 0  0.7234036949444576 2.246250727287625 0  3.266586301853872 1.745557171255388 0  2.966704201624363 1.685848140106579 0  2.607757035191774 1.635995844735728 0  0.7238634148692646 2.114261850740998 0  4.304532201452123 2.346693729735167 0  4.365703710252954 2.354858451924508 0  4.341123471975286 2.119457628712381 0  4.313929649846185 2.053911797114226 0  0.7552439776406468 2.307944035301612 0  0.6869061716144955 2.307138012647356 0  2.292150747336235 1.611563428964077 0  4.39955857742301 2.305149457040128 0  4.426194118406445 2.363206529062367 0  4.328648890490625 2.403016955152025 0  0.7188389581987875 2.36653880989576 0  0.7965093662688476 2.37037729704776 0  0.6504367271012279 2.367306519131517 0  0.6193247710649796 2.306926555572391 0  0.583119890596798 2.3665309319307 0  4.382820295687024 2.062791548071122 0  4.357434073484265 1.997425728923743 0  0.5531212223112403 2.306463211697274 0  0.9964589915585393 2.194020897136979 0  4.269164163266446 2.395338215400803 0  0.6802124589834948 2.425012385062278 0  4.29248255860105 2.44959580919479 0  4.235022552671052 2.442815272305776 0  1.447670582356385 1.109662879866976 0  4.461066781261787 2.301706529170148 0  4.486608249415919 2.369850486619412 0  0.5187766083935088 2.362500973837205 0  4.42713569123268 2.006365949214942 0  4.399678434835679 1.938773410221069 0  4.257493644100523 2.494918164766639 0  4.20210009879112 2.488588578874979 0  4.314490148777122 2.503035666154085 0  1.0555714566631 1.207327105489654 0  0.4881678538939509 2.305527482211798 0  4.524631458299135 2.322255566843058 0  4.547044544455219 2.380168510478393 0  0.4580818597486722 2.359239512935853 0  0.4859029099789027 2.415681841239337 0  4.223504012835948 2.538555663371846 0  4.17019916296245 2.532599109816587 0  4.472071376036893 1.948968341716777 0  4.44473384713351 1.880271975408829 0  0.420001644393615 2.408295250102191 0  0.4533845609059357 2.46627884244212 0  0.3962089783418006 2.466421790500486 0  0.4232775515221681 2.516805455137848 0  4.584865970518922 2.333612808447555 0  4.606643829182294 2.389631843430721 0  4.569668619231284 2.435587603366978 0  4.627285732940299 2.444040280301024 0  4.591775634149507 2.488632758481225 0  0.4239860152075487 2.304764805452254 0  0.4567636851083039 2.248608452575206 0  4.646955930722245 2.497001380099789 0  4.612937435219919 2.539780685851694 0  0.3664855327926619 2.516048676583772 0  0.3927771729578242 2.56445591088734 0  0.4482479777835402 2.566790237700005 0  4.517957219083532 1.890803857567218 0  4.490932317287751 1.820667260265203 0  4.415644711762106 1.810348330250761 0  4.463283481267994 1.74778638309048 0  4.383830998650509 1.73729941110214 0  4.434524072011627 1.67145680694097 0  4.350529314866168 1.660235740896129 0  4.404250794178896 1.59127494589419 0  4.315121811180705 1.579099928449948 0  4.371259636999415 1.5078432274706 0  4.275904485121665 1.493148909926682 0  4.335256529504764 1.417469975355192 0  4.236741151590262 1.401132678683956 0  4.298041647510442 1.31882439332761 0  4.191729234244992 1.301905416338989 0  4.260810409471331 1.211923775667681 0  4.143675850365794 1.194905163561931 0  4.07590037509253 1.286181649649913 0  4.020082015443604 1.17900500029228 0  4.544651368742561 1.959240575611617 0  4.190489921266735 2.580765866033511 0  4.138525797477221 2.574976476150616 0  4.117560026065002 2.527175371554789 0  4.086369311102515 2.569513964069961 0  4.06516719955918 2.52148241055622 0  4.034002167321596 2.564138343374581 0  4.012410744626179 2.515646946076274 0  3.980684118343365 2.558748223061549 0  3.959061855012367 2.509738908407382 0  3.926987703138782 2.553290960924944 0  3.904986652502077 2.505419179030936 0  3.873297045458129 2.547964222341742 0  3.850565365553873 2.499809325789179 0  3.818409436578711 2.542508327915246 0  3.795821324681333 2.491894624532773 0  3.762536401763343 2.536678053469471 0  3.740679335997775 2.485903596695931 0  3.706575355960134 2.531078562893311 0  3.684003275689819 2.482851816400154 0  3.649499573060163 2.525763989422205 0  3.626053802500846 2.476164150475868 0  3.59170776663295 2.519935935890819 0  3.568298473527092 2.466621457361324 0  3.533713887850337 2.513535528206895 0  3.509657516774587 2.459315805133286 0  3.476395142689636 2.506433951574017 0  3.450297991775442 2.452874434899716 0  3.414834734884964 2.501270230048415 0  3.389620901935584 2.446260814249769 0  3.352287990304175 2.49572259489092 0  3.327856261225683 2.439747901610513 0  3.290583042928697 2.488750256501893 0  3.265727154855056 2.431402535873919 0  3.227930379168709 2.481834644614815 0  3.203017693579254 2.424339475765619 0  3.165210094886282 2.475402256823219 0  3.139660611604898 2.416909194185545 0  3.102474506148805 2.467926009652765 0  3.076493705790438 2.410209647171194 0  3.040634808917217 2.461160224854006 0  3.014035837751218 2.403210849625387 0  2.978028873908271 2.453519726096872 0  2.951534770218117 2.396611822977155 0  2.91619287122688 2.44678106324666 0  2.941302489933775 2.500344327268342 0  2.883386322734092 2.49333896592238 0  2.859345375849526 2.442316615793695 0  2.827805490590003 2.486694539557365 0  2.804272717403993 2.437543312184936 0  2.772879747905395 2.480953520766622 0  2.749644537023787 2.433339286100629 0  2.719870981555387 2.477854770575368 0  2.744206698767028 2.52995458951344 0  2.691197131296066 2.520009094139162 0  2.669082965146019 2.475413813467049 0  2.642627331539423 2.51641519832899 0  2.619929986003338 2.472872319273268 0  2.592639870353757 2.521137926167706 0  2.570973243575023 2.471580756822875 0  2.544468642251531 2.511605350224842 0  2.522390996093942 2.468382454305077 0  2.496393634070173 2.508543101260475 0  2.473737637370981 2.465523741360558 0  2.446415437715271 2.514195947057337 0  2.424124291228615 2.463674175296245 0  2.397177187316737 2.504626392652511 0  2.373679853279245 2.459487153950222 0  2.346166253557307 2.502204661791515 0  2.518170156668253 2.551900925786056 0  2.321751907291473 2.456010368143481 0  2.291877160505407 2.499627177776605 0  2.267794215941486 2.452407505059018 0  2.663487647758775 2.558047580141428 0  2.369892556373337 2.547184403795036 0  2.236360782310073 2.497956275570368 0  2.212001267415879 2.448847170224772 0  2.183770135996552 2.495102940120144 0  2.155034817580789 2.448326223902257 0  2.127445341517224 2.503858306822754 0  2.09649089629118 2.446625840876575 0  2.063469366086598 2.494335731176081 0  2.035849352191082 2.438706256422222 0  2.001919433005584 2.49004076319194 0  1.972887554832663 2.433975582896871 0  2.597530684911801 2.428170442233416 0  1.939408474910215 2.486858982739084 0  1.910616848175992 2.430960338182553 0  1.876773143049551 2.484106273355245 0  1.847708836406033 2.427451353726923 0  1.811816576103737 2.481646864018843 0  1.783883610223851 2.424446474037907 0  1.748873516803569 2.478451980216829 0  2.45287359932167 2.419760315502016 0  1.71938716205168 2.420735260890849 0  1.683054877393846 2.475677318261976 0  1.654625888528715 2.417569584736017 0  1.618522742621239 2.4717449706334 0  2.211404435623711 2.541708759046122 0  1.589331370331922 2.413687819732606 0  1.55325605255779 2.46834484009901 0  2.245079708781551 2.402746194069679 0  2.905190048731792 2.543924398320224 0  1.523727577142497 2.412612055504707 0  1.488268904173193 2.465754019366198 0  1.45813724059833 2.411652489646958 0  1.422520184111799 2.462418613473429 0  1.883303987404301 2.371419962249876 0  1.554030270752143 2.361401154145257 0  2.07211041932726 2.380507652972833 0  3.129718481087536 2.524263673591932 0  1.452518811816775 2.518441916044561 0  1.389240414986714 2.515619521565533 0  1.360001919110737 2.460904464237844 0  1.327039509670647 2.513598684187984 0  1.645744771282657 2.528683840655662 0  2.030089170296006 2.554361081737564 0  3.313960371193934 2.544648926234992 0  1.842188184362285 2.536820258002467 0  3.775144762853294 2.442393835198557 0  3.501364979159213 2.558947062590814 0  3.785656032104081 2.586728708955425 0  3.946897510629468 1.276822399243726 0  3.888973192799663 1.166328491906158 0  3.811743309191638 1.269285777584444 0  3.752636727244344 1.150378115290823 0  4.666098143726618 2.547835072027858 0  1.297944568710344 2.459643411972755 0  1.266436685679547 2.512684644956518 0  3.615632286374962 2.41466519489388 0  2.781426602507719 2.385755068616977 0  4.633362470865903 2.58903122712535 0  4.581667818332392 2.582390005151844 0  4.684736336601151 2.596530609210178 0  1.295223049506874 2.563943268240026 0  1.235968305729125 2.563357548438571 0  1.2068793524467 2.512487265171725 0  1.178035465839748 2.56269963089161 0  1.148404022948214 2.512388620754997 0  1.119835263764523 2.562321624821209 0  4.002484641827227 2.604293992816039 0  0.3387407229111905 2.564055059337325 0  4.470561759122863 1.511030544459588 0  0.3940251914009938 2.246501238448038 0  0.4250855335360311 2.190878338249463 0  3.305998426518172 2.384844411804805 0  4.221680972884602 1.097216583218092 0  2.988135811694426 2.344705187863384 0  1.089995274647228 2.512653707565418 0  1.061436093392373 2.562866962405962 0  0.345064222421982 2.468245550801945 0  0.3639788515913303 2.610308468041372 0  0.3121516922480634 2.60994771301385 0  4.539411553324298 1.76222295649678 0  4.158403121824358 2.621814480785463 0  4.20897760991012 2.627830865678286 0  3.672016563207658 1.257449016417695 0  3.61237011934226 1.1283913450439 0  4.642885787935389 2.341864303219285 0  4.622577541441798 2.286796206962888 0  4.37646880926384 1.231908907846564 0  0.97606038480088 1.806970583411404 0  0.881410489355378 1.803194576603868 0  1.093837119107815 2.619369929069618 0  1.034660752102035 2.612280241788306 0  4.601351113272694 2.629202214690504 0  4.551808826151663 2.622666275504026 0  1.20631704005565 2.613443573787828 0  3.968545791727335 2.194675918088105 0  1.003926267221298 2.564579873896204 0  0.9800450920133768 2.612782645374911 0  3.707705968165506 0.9921588269949376 0  1.3548466497224 1.993650154047079 0  3.523823550411005 1.244702742247488 0  3.464203192228497 1.108734745060388 0  0.3619060846791426 2.188427301031003 0  0.3927610044826246 2.132356385484724 0  0.8804781224329266 0.9156928964621304 0  3.373102149182574 1.230092896330282 0  3.311729705572648 1.092988537215414 0  4.717971416614064 2.556359629463919 0  4.736006319619466 2.604730665795698 0  1.300893012330815 2.070683916496849 0  1.007173660902446 2.657348949626271 0  0.9547842962164725 2.658258191242041 0  0.9275628324002594 2.614527664673411 0  0.9031122336976303 2.659780372878263 0  0.8760981422874119 2.616666745581402 0  0.852154438357031 2.661152806100506 0  0.8249874219592588 2.61851410502654 0  0.8012105921298687 2.662886375941517 0  1.117780706738261 2.461275819169995 0  3.673165388339265 2.576021649406018 0  3.897074847408544 2.603383186524829 0  0.3373786781274966 2.654439847237691 0  0.2865204795957248 2.653897234774241 0  0.387414966025061 2.655580245140892 0  0.3284259241446081 2.247205879526718 0  0.7741084951554897 2.620745887450984 0  0.7498950084424103 2.665046808316428 0  0.7234352221029752 2.622696181461252 0  0.6993082629095306 2.666931666397944 0  0.6729546086109035 2.624651502170241 0  0.6505570748796412 2.669269069511564 0  0.2608348385254118 2.60988505820755 0  4.681103366121445 2.294830545505803 0  4.660447305375165 2.238822399496172 0  0.9321627783901802 1.720604610267709 0  0.8345658929979745 1.718193214601177 0  0.7842354106920171 1.795769907037264 0  0.7372649240059932 1.71708512176198 0  0.6897917319521061 1.788470507435953 0  0.6434949191783514 1.71544104564145 0  0.6903046393677803 1.635801187736887 0  0.5946529322219776 1.634689649765241 0  0.5508346891176505 1.716976909161737 0  0.6432726255204553 1.551128171935746 0  0.5450523776821576 1.551571414064466 0  0.5950361088887415 1.463864498005701 0  0.4958992311991781 1.463697741313584 0  0.5444632641249891 1.374759794209277 0  0.4504121285516716 1.548537497570927 0  4.57029360456581 2.668517597089052 0  4.52195678896098 2.661491407464919 0  4.618501940278708 2.675030093080284 0  4.178468297174785 2.666984481618515 0  4.226864132827738 2.673117709392063 0  1.417552215956924 2.569381151915247 0  4.044080864860941 2.471997692224921 0  3.214984422786956 1.218262587429316 0  3.154882822525289 1.078525222470547 0  3.055118035079788 1.203657121673139 0  2.995874827711153 1.055852461477133 0  4.682975497348382 2.453949441567461 0  1.058281021105248 2.460861551621282 0  4.503124905908887 2.61695353040161 0  4.47447684231128 2.655765343065613 0  4.207023022124844 1.579825516766987 0  0.8858076405011577 1.630730967585741 0  4.046901799911753 1.866038966761712 0  3.877158685903774 1.393867487581031 0  0.314539639088625 2.130631184795522 0  0.3555081062131111 2.07249151607489 0  0.427897635759336 2.073441444368729 0  0.3929888699731161 2.01161970976551 0  4.590357117720738 1.90209773413897 0  4.616700867371326 1.969663506739723 0  0.899939719282586 2.570106736775308 0  1.330590292912604 2.404394930498998 0  4.503751695760861 2.267970338528036 0  3.447928086506413 1.775184069502876 0  3.799393583246488 1.833315377767689 0  0.3203188735949025 2.011506269870956 0  0.3572684934581156 1.949004431044666 0  2.971021784328582 1.979719847886172 0  2.898632142005619 1.183497789510755 0  2.834698696891349 1.03339120740223 0  2.732937349178846 1.167902204550058 0  2.670221478506972 1.014014584956091 0  4.769331987112216 2.564928263480727 0  4.21097347855782 2.389988108679304 0  3.938760767403329 2.463561543070094 0  0.4497023841897163 1.374784987383934 0  0.4960493409246647 1.278024060109877 0  3.170484036147343 2.35369108989055 0  4.661743664145774 1.913568401778163 0  4.687347088536984 1.979747041394645 0  1.753131150785836 2.366382913291791 0  3.48269269165316 2.402709748863054 0  0.7158656272324986 0.5723807052767236 0  0.2355095840088475 2.653834095892311 0  2.566181308975877 1.150637063672435 0  2.502166841939441 0.9939054364511833 0  2.399549461688369 1.129889502271654 0  2.332690589280753 0.9742910202576103 0  1.393666300214468 2.079121780357815 0  1.573281251453225 1.383555691970535 0  3.957397428066822 1.037380502465106 0  2.934591905363545 0.8971323646299721 0  0.4659185292575385 2.012444943856185 0  3.40617576306204 0.9626955705730768 0  4.49426368736197 2.699472129012587 0  4.446256537784362 2.693726914293679 0  4.32419694366922 1.942216952256275 0  2.351739634082263 2.419799417000655 0  0.3619965020623379 2.697462755796952 0  0.4089417883088458 2.698503626983304 0  0.772186734580588 2.706939673768076 0  2.229036840751363 1.111097341750439 0  2.161296089083293 0.9530804758468781 0  4.427313134110852 2.650475160326158 0  4.399970762132749 2.688945445368615 0  0.8835591592956724 2.703571859590788 0  2.958632013137595 2.55100078057096 0  2.925407814530284 2.590876450464915 0  2.974241300702826 2.59938342522045 0  2.945628820634868 2.63827273458682 0  2.994512858848589 2.645185734006836 0  2.898657231011216 2.632085067077695 0  2.916332156487328 2.674632766393666 0  2.874049971850899 2.6706131904153 0  2.887803040427669 2.709476326693902 0  2.84650962962813 2.702405113138315 0  2.931526746802839 2.715834851241823 0  2.833615290831175 2.662299520008835 0  2.809155226762939 2.698333785315532 0  2.822048098399935 2.729461972778591 0  2.787876565161538 2.726127290198462 0  2.774917399485559 2.698279791290358 0  2.755987216476339 2.724706233073377 0  2.769878416773342 2.755805745023428 0  2.739075214533401 2.748761972698464 0  2.726065261616828 2.722831899115736 0  2.710827928113676 2.745761058977481 0  2.697706743764142 2.720126536667379 0  2.683232530842567 2.743428546819726 0  2.669642618006202 2.71777727379256 0  2.656656146612036 2.74172866892001 0  2.669602291646654 2.764786753473547 0  2.644036762161422 2.763227093442129 0  2.631916757294638 2.741327730230663 0  2.617918943637609 2.765796337494994 0  2.607295183802704 2.741872549306434 0  2.594120017466282 2.76244664490847 0  2.56804860537093 2.89251410639663 0  2.583472260621304 2.741169652555045 0  2.570975358825012 2.761671206859965 0  2.560060436688666 2.740727890132395 0  2.547553199334345 2.760576687439949 0  2.536489317576742 2.7414540819992 0  2.524041495908373 2.760207768560814 0  2.499708061709651 2.892981665008821 0  2.512950864766164 2.740808090256092 0  2.500749570472135 2.75976416203936 0  2.489401589389857 2.739199173052596 0  2.477441199664322 2.759103752389026 0  2.465759426645637 2.738436277864063 0  2.453739052247477 2.758588223027292 0  2.431645569620254 2.8933158738634 0  2.441921446481774 2.738834564045272 0  2.429504821289015 2.758482966644796 0  2.417843378772786 2.738573773074772 0  2.406005048413078 2.758412400252818 0  2.393636451188501 2.736872376392266 0  2.380826143835724 2.757793993795224 0  2.36873567903992 2.735846642843948 0  2.355710718033401 2.75748485809505 0  2.343280513172032 2.735235867623143 0  2.329719833056522 2.75715105301895 0  2.489607561488672 2.776204684996246 0  2.317082767658283 2.733937120308409 0  2.302954831783747 2.757111735326286 0  2.418543449717926 2.778198758362954 0  2.557877632579795 2.78365702348334 0  2.289643060212951 2.732829558419979 0  2.631626202692384 2.783388772258075 0  2.340130540717207 2.778937789439322 0  2.722577703622428 2.770524759036446 0  2.274627909924889 2.757310306853608 0  2.260527592010758 2.731482157741567 0  2.57557696986383 2.716163971632746 0  2.451476447255059 2.715238813548691 0  2.244757766667843 2.757465888524266 0  2.22959889390826 2.730020063248417 0  2.290805372460538 2.780665211647622 0  2.212683289359366 2.757723279359938 0  2.196696141638485 2.728520758591918 0  2.304804346004553 2.708634123091371 0  2.381226110407089 2.713276966028108 0  2.228995760416853 2.783214154444141 0  2.178958348871017 2.757904140896704 0  2.161772551303377 2.726956782290414 0  2.515082240723057 2.894642973589109 0  2.484810126582278 2.893704982350874 0  2.446835443037975 2.893422591869991 0  2.583544303797469 2.893422591869991 0  2.553164556962026 2.893623286402796 0  2.715656559061916 2.696010372541706 0  2.143640581672022 2.758196673157183 0  2.124661624755571 2.725177281767087 0  2.618375548828569 2.720737671003054 0  2.505319972256025 2.721765819119598 0  2.245693299009461 2.704587167527744 0  2.179946087933979 2.695159092047275 0  0.675970271693753 2.710297294769959 0  0.6279519526377144 2.712253281027832 0  0.6982867290707764 1.464426182658527 0  0.6039165040462446 1.280361618566354 0  0.5482477383554831 1.180721502579041 0  0.2608414264737928 2.696833578503746 0  0.9815026095678676 2.701126642351357 0  1.030005882776978 2.701465251868083 0  0.6023175931161777 2.672051715238982 0  0.58039581774442 2.714686174460122 0  4.014666962159988 1.786896327852966 0  4.721312731470032 2.248227466661324 0  4.734378152533203 2.307898953722507 0  4.198374945781475 2.710961000884935 0  4.151997565257848 2.705484179249676 0  4.243900112499762 2.716004913218303 0  1.340059564364685 0.8138652386701958 0  4.571782027806329 2.025613582487668 0  1.47793347034738 2.572560911488374 0  1.444967380160565 2.620179727046716 0  1.500684520574731 2.623882440790924 0  1.470802965601112 2.6688734339568 0  1.526141062013752 2.681494151836153 0  1.417820320654214 2.666812300913732 0  2.05841718491895 1.093596342695391 0  1.988690470245191 0.9346715478748659 0  4.588568159483915 2.711904722427593 0  4.634308744851529 2.718842888114897 0  4.787517471529455 2.613562128792571 0  2.094217452622149 0.7856940226025226 0  0.4361838908088145 1.179618078253276 0  0.4893471736420745 1.078963055630529 0  2.106234042445119 2.761663340064927 0  2.085373759501596 2.723630622320073 0  2.106605052152313 2.688276215723593 0  2.063917435028317 2.686195768983613 0  2.040305876668684 2.725832354293331 0  2.018341509635052 2.684950849749904 0  1.994044789253032 2.724896436544221 0  1.972015474316082 2.683667544183799 0  1.946929553320345 2.724502836835317 0  0.5140033631321161 2.469687835469412 0  0.2115375464764595 2.696740797311351 0  0.7978353656854504 2.576230387240811 0  1.085196764845284 2.403031515767249 0  1.025225896288358 2.409355021021024 0  4.749891466888668 2.659631411375113 0  0.4886041597987258 2.193134606139165 0  4.449698374937158 2.418584899520012 0  1.924185499591173 2.682535655831734 0  1.898687599520089 2.724178968581092 0  3.586875600023364 1.383481028069892 0  4.254315490071034 2.636298214017331 0  0.2094772791885475 2.60953660965886 0  1.875937352461511 2.681647930964098 0  1.850731539265976 2.723690482485389 0  1.827197087337966 2.680706933766259 0  1.801315059751193 2.723276392107773 0  1.778237133832093 2.680068569130227 0  1.752470091890066 2.722052112897811 0  1.72879829859104 2.679053710164661 0  1.703113034224541 2.721263037340423 0  1.442040670015598 2.711621693031328 0  1.3926215028379 2.709727723283804 0  4.305488820080477 1.737203029669105 0  0.2843668200496845 1.949929994275697 0  0.3204709414916138 1.885423914602451 0  4.80379837190271 2.662046725662187 0  4.776780187644424 2.703853111756843 0  1.676568628313923 2.677931758642071 0  1.654273314687754 2.721049524988317 0  1.448551368054484 2.004123792985856 0  1.485589396366666 2.088730861510419 0  4.418385719908374 2.73069239505136 0  3.99643699984975 2.258420430544691 0  3.927881545450952 2.251808363199948 0  1.007073657645471 2.743290390577594 0  1.050463267383941 2.746045549682429 0  4.699237470741277 2.192749924367963 0  0.9904944898325998 1.634386746189845 0  2.604871863444445 0.8534560318664041 0  1.343850317704369 2.151494016005423 0  1.261883596234736 2.145861984838294 0  2.897795401647856 2.749757332176044 0  2.944217209133955 2.75535525895525 0  0.5540438683672035 2.672371295918296 0  0.5745142380679966 2.626146441984275 0  4.217042974054245 2.752390645364398 0  4.26062187814159 2.75650686903502 0  4.731803176169989 1.924470724251838 0  4.7065908965416 1.858360640004169 0  4.756675299735704 1.989906902126616 0  0.2348080215855681 2.564795469888571 0  0.1834933920432462 2.563951195629418 0  0.2090337528883519 2.518015347204935 0  4.761202689210606 2.20024629762454 0  0.5334305846208729 2.717856199282406 0  3.895281912418389 2.188555571236095 0  3.859686208663212 2.246276788170001 0  4.171956743209231 2.030584999724155 0  4.821346862965579 2.707501356924666 0  4.820888681530619 2.573392608818864 0  4.802489578103722 2.524076630966642 0  4.064388123430208 2.265587646267149 0  1.907779236365181 0.7658576754561679 0  0.248733070970256 2.012053432468806 0  3.28246351716176 1.342987493266807 0  0.3852251626225485 2.738734976174679 0  2.926141140681597 2.339872755042198 0  2.962167304837322 2.28284318891953 0  2.896598111672307 2.276904116054314 0  2.722998197335021 2.38128634089771 0  2.754550479167776 2.331511752709889 0  2.691770107587327 2.325759775888105 0  2.727727349462214 2.272059398335862 0  2.660237261284045 2.265752654127808 0  2.707124377348613 2.196406823212115 0  2.629927342986485 2.200893987892465 0  2.589273261634026 2.261927577974735 0  2.556762645836888 2.196730969600472 0  2.597134657523714 2.133362058925734 0  2.516186933801352 2.257964663257776 0  2.483383278679706 2.192699185064888 0  0.6534103299659413 2.751455520058971 0  4.793683163834002 2.746067586593506 0  4.837195201270333 2.75179651313968 0  2.442630741102598 2.254338129044922 0  2.412355347687044 2.19049306034263 0  2.368992332383352 2.251246532770629 0  2.338732026401336 2.174369101609241 0  0.7635889639134161 2.047295294097014 0  0.6846328599949556 2.046427276909408 0  0.2358130229145905 2.738374796756941 0  0.1887187824312657 2.738713905302473 0  1.265311007240301 2.403111670108502 0  2.934604407854024 2.216810465749576 0  3.007827881504987 2.23532989341858 0  2.162640140718291 2.788112582470599 0  0.3952222108541203 1.884123496459603 0  0.3572998316502898 1.817431679529653 0  0.2800795032277739 1.818962866410863 0  0.3162839006198057 1.750363017964063 0  0.371236708808321 1.084114154787887 0  0.425876631546581 0.9769398227540944 0  0.1650595564725288 2.698737702688031 0  0.6965793593792609 2.578856558785338 0  2.796700471444475 1.314509552048038 0  4.380133520935797 2.645893979209001 0  4.408327909852634 2.606254840121615 0  0.9415074436129554 1.537663705477777 0  1.751590321870633 2.636315518099828 0  1.949100523787536 2.640671584085607 0  4.627185015780121 2.18266916194655 0  2.460408570541209 1.281688150693956 0  1.414824546613312 2.752221571778309 0  1.366286444182589 2.751002235850063 0  1.344529050270769 2.708741774990955 0  1.319813421973965 2.749381392349878 0  1.46107612968793 2.757004738819361 0  4.605936374251327 2.754197201463105 0  4.650386874869871 2.760862911444623 0  0.5588428212212144 2.75581060541957 0  0.5153940194785935 2.7575599057301 0  2.021287641499317 0.607831034181526 0  1.297236155745306 2.707717903821037 0  1.271714776637338 2.749418765113999 0  1.540981977525129 2.015981074468474 0  1.573593731271588 2.098916894119378 0  1.888715346975364 1.076141402734786 0  4.37361679633191 2.726330902970377 0  2.294213870570796 2.245950201014173 0  2.259821093791077 2.181069657982446 0  2.219577908915098 2.244220499981409 0  2.182527801944671 2.176639591508122 0  2.22373077509429 2.109750718153268 0  2.14352643746391 2.107452401341307 0  2.101060029866253 2.174889356284065 0  2.060473323842885 2.106226268124449 0  2.016633501330905 2.173751466861704 0  1.976209039164591 2.10104799109322 0  1.931139741046926 2.171501984446938 0  1.891019995379469 2.096800176953335 0  1.84553078119937 2.169110643407864 0  1.805247795348797 2.093932506151759 0  1.762722601509641 2.16783313093025 0  1.2996282983072 2.345500809982156 0  1.23113634335985 2.344164210651289 0  3.888182752915455 2.307112302602175 0  3.821542004949781 2.301666693163328 0  3.792462764710183 2.240979113336041 0  3.754290357441499 2.296953027910972 0  3.724555915369127 2.235461018594224 0  4.415934276483203 2.128176336323548 0  0.6669726206759612 1.179924617144276 0  2.129726655563704 1.24399438861147 0  1.554068556980557 2.629236697147521 0  1.921146930595398 2.765666387864691 0  2.087462513623907 2.648186010596842 0  4.024047166793828 2.319286510120486 0  0.3196306453792257 1.191566962262339 0  1.774690074868134 2.764403992712247 0  1.217251637581306 0.4448758230876675 0  3.0194670942272 2.60584174894749 0  3.042179392717932 2.653083261337222 0  0.2124374230553117 1.951350051756787 0  2.01407789041259 2.767142973301869 0  1.941057071023522 2.025495046286705 0  0.5491774475472222 0.970463202086892 0  0.4853616332592567 0.8617001600480764 0  4.099868685482765 1.79792438988132 0  4.06744476585682 1.714408680445506 0  3.976978721366261 1.703958824978528 0  4.033691069956957 1.626454487414801 0  4.85704662119417 2.530242294108087 0  4.836172016294472 2.482685754855009 0  1.678666691131099 2.762339659162233 0  1.631331227136222 2.762114608465547 0  4.391776777453866 2.766625037812996 0  4.431292859334824 2.771108405774687 0  3.686313193138943 2.292127766187944 0  3.655867243381296 2.230367569745733 0  0.948646213136104 2.269309031858925 0  2.217989138137864 0.6312753199741458 0  4.776842003738307 1.869172049648197 0  4.751646583108091 1.802389003378679 0  3.618101284981452 2.288329910052824 0  3.585630098653341 2.224918300342734 0  2.450386519814858 2.12507054443057 0  0.2385101820631612 1.751434451214171 0  0.2750650130961749 1.682214115013878 0  0.3568240316224838 0.8685262748227904 0  0.4166141298814123 0.7504873704148188 0  0.6993188568180553 2.749886484252061 0  1.522496140763963 2.169668334696643 0  0.6473146313320999 2.115120829583757 0  1.029734811884377 2.265268675351777 0  1.073331916816809 2.2007135599634 0  3.936171189867835 1.615078290132964 0  0.2883553553211753 2.744798883236334 0  1.632113799856944 2.026486647367044 0  0.6775107078171025 2.789219254168586 0  0.5074755899663901 2.67840544124268 0  0.9598790323482636 2.743766581283701 0  0.7215350946588941 2.788257827298199 0  0.158145441396762 2.521027931372522 0  0.1850175532502356 2.471689251346388 0  4.740556949141558 2.148131759821582 0  4.801380599576657 2.154439854498519 0  4.807984654291152 2.787164401855124 0  4.768298254418179 2.785071695704258 0  2.918131201577495 2.786812400106936 0  2.879511019018143 2.783759585886437 0  4.561733468483457 2.74860744175214 0  4.536048038868005 2.481479366907926 0  3.62572005148284 2.164581623140701 0  4.860920071853601 2.66755811167722 0  2.860993226882899 2.20877913572523 0  1.054062654766516 1.543512622696633 0  4.359626861885514 2.601424057608234 0  4.388474423523605 2.560631733428144 0  0.2118387970396078 2.778474812309593 0  0.1666080983184757 2.778843538435205 0  0.9840975621626171 2.783496659281894 0  0.9394390085868012 2.783492582591491 0  4.233831454420595 2.791988730651962 0  4.193511263643116 2.786377562727915 0  4.091818207614152 2.326236267848274 0  1.250059995194009 2.706832898072531 0  1.22573841088709 2.746901058604222 0  1.203009273572998 2.705531765004106 0  1.178872301362136 2.745491926497516 0  1.15601312592779 2.704364678357266 0  3.013318329903386 2.694825715405717 0  3.063071078301016 2.698132279721285 0  3.091695077225073 2.661333014891892 0  3.108153560682135 2.70683828904234 0  3.139342779866317 2.669681175486611 0  3.155651762321928 2.715083929762359 0  3.187090754129563 2.678104281194508 0  3.202869929628596 2.723965054033474 0  3.234858940532713 2.686845597030112 0  3.250451961719587 2.73239167468559 0  3.282191116082232 2.695289771500616 0  3.298267209057982 2.74012637013538 0  3.329321315867995 2.703762500962804 0  3.345247766467658 2.748105141387448 0  3.375892306246643 2.712228630471446 0  3.083268465574204 2.742099636432738 0  3.391243745305484 2.756233975619316 0  3.42208311585444 2.720761702149775 0  3.406363705464805 2.675491958369032 0  3.453762376332437 2.684379601312292 0  3.468919543106581 2.729642844115434 0  3.500699354899948 2.693976715709573 0  3.515953686708717 2.738821240753626 0  3.546983008230347 2.703675567744572 0  3.561671561168203 2.747689214602 0  3.592476796985508 2.713239662546451 0  3.606944084470265 2.756512849110976 0  3.636891689437487 2.724805505253355 0  3.57957041707408 2.668758556660827 0  3.652045411236107 2.765706529091852 0  3.681201250560055 2.734179345978079 0  3.218493323800831 2.640303972689931 0  3.170521948906968 2.759915232754025 0  3.696095050612192 2.774292619002039 0  3.725345238533695 2.741082467538438 0  3.739205236327414 2.7824287100418 0  3.76835877432884 2.749721621260041 0  3.705506150361146 2.697680984903284 0  3.531546219471794 2.781668153231764 0  1.244615804013712 2.789724796169657 0  1.973402237413516 2.242913925209862 0  3.782328880630183 2.790843777842515 0  3.811743078674326 2.758606489532111 0  3.797536534581972 2.716363022459117 0  3.841122414999316 2.725831166162803 0  3.854891916897505 2.767874705584828 0  3.884360496355487 2.735560257620878 0  3.89695065837734 2.777355654528741 0  3.927070886670581 2.745474725944504 0  3.914248729794052 2.702618180545381 0  3.957905457483681 2.713073029982225 0  3.970263535561967 2.755709977534911 0  4.001224082985788 2.72375847012783 0  4.013375035553269 2.765975970379285 0  4.042200998481274 2.734856469612488 0  4.055669275615154 2.776244943846944 0  3.827415203150739 2.680213960515794 0  2.18251033729165 2.03951263198171 0  4.834858905102575 2.21103364776702 0  0.7249552003487378 1.977261567169398 0  0.6476517457646764 1.974424968183527 0  3.314284030540419 2.662139856693441 0  4.678824055698013 2.726203135691972 0  3.552343934489921 2.159122676099565 0  3.511510821542964 2.221194288059768 0  4.578441271603703 2.788728457388782 0  4.536061744484459 2.783278161527019 0  3.267217884405798 2.776163333852507 0  0.1617972835271138 2.610191360712528 0  0.6316874720011914 2.790615251935513 0  4.131596976487907 1.876442483025535 0  3.983067030021473 2.797093997929886 0  0.9956609156839569 2.462226866039027 0  0.962359923871692 2.411601408924684 0  2.905280398974782 2.144977522461064 0  2.829097249084251 2.14257058486187 0  4.34828451530143 2.762302534263886 0  0.2868892586318319 0.7546722459274768 0  0.3457042077864831 0.638863891296153 0  4.210346806351106 2.280668679843118 0  1.097582896363789 1.640722684346777 0  0.1981686600875472 1.684237420751297 0  0.2354372921197485 1.612744034353596 0  0.2046310988084539 1.821226700571295 0  2.959261111975301 2.793384069774884 0  0.9339753959655579 2.464217165582092 0  0.6445557386552045 2.581247804120311 0  4.330501700830354 2.72326687410463 0  0.179028245513615 2.013103163687206 0  0.2053242109366216 2.080115201513472 0  4.032215060942458 2.691644050937861 0  0.6345144974055468 0.837431504377511 0  1.321952093603023 2.672455762877041 0  4.278900776096285 2.794444495736109 0  2.277337973326369 2.038177177136052 0  4.820772001152511 1.814094186204326 0  4.793583745887451 1.746617594141041 0  4.725336182918083 1.733754986854674 0  4.767616928890071 1.676636684004368 0  4.696139280569488 1.663135701843832 0  4.743551996578654 1.603504587562181 0  4.669314810439404 1.588568058454512 0  4.71686301770125 1.527053484033343 0  4.628620089471228 1.512001075134019 0  4.688135430766541 1.446262528677011 0  4.600051743100734 1.429233465283967 0  4.65908808734277 1.35996048143296 0  4.775291485173478 1.459555513308147 0  4.565407472655551 1.346223076467457 0  4.625499245086599 1.272306647000212 0  4.720987054838972 1.287557991441616 0  4.688681961724782 1.196148538723251 0  4.588486775256004 1.179340986544304 0  4.657659267843815 1.097373427110279 0  4.550543261941429 1.081153156997693 0  4.624349975116512 0.9919711898956445 0  4.508004283072554 0.9748474681336126 0  4.586096210668594 0.879205670800882 0  4.459876611697235 0.8593982821645739 0  4.543250491523048 0.756224139140363 0  4.400282280277687 0.7341518748773328 0  4.494560331587541 0.6256076484434054 0  4.343789512305502 0.5933456050061285 0  4.244729306077344 0.7165330126148173 0  4.670220668552773 0.7855761580789833 0  4.824588525465634 1.625983369535405 0  4.758507668493277 1.11990445669914 0  1.10598325010484 2.270302996633887 0  3.997318641516176 1.534348714069994 0  1.606462647602331 2.721454863153039 0  1.584623246013837 2.762784485796263 0  0.5854445588253521 2.248039173974144 0  3.437606749465254 2.637723190508412 0  1.388317977142151 2.791281297464613 0  0.6693087207198409 2.532397826848566 0  0.6144864744332599 2.535406033430207 0  1.604925161280338 2.175845259287343 0  0.1887008102944501 2.816134335210336 0  0.4939062931596143 2.073412061900342 0  4.437850329432665 2.56605393347314 0  1.504573653994161 1.929153336214329 0  2.545807231690758 2.319610566096662 0  0.4387768709772017 2.738975175871703 0  0.4080702464669166 2.778302028456918 0  0.3630461050475993 2.777491913069762 0  3.477203791325401 2.154181974351789 0  3.435181189113441 2.217196402164094 0  3.400674227063067 2.149812422600613 0  3.357520716840941 2.213358280604146 0  3.322818757217816 2.144329828323477 0  3.278996626574554 2.209193270530542 0  3.394241979799036 2.279838148090372 0  3.243871197158129 2.138465146632056 0  3.201118699721519 2.204967433500377 0  3.164133190815162 2.134743976213233 0  2.986359992498321 2.762048297159268 0  3.001036750684409 2.799493690537846 0  0.2586397107382448 1.092488371745855 0  4.418584198618571 2.519394435971517 0  1.710712336897916 1.537713233085261 0  4.783521584460132 2.473920391493951 0  4.815790700608702 2.431329962411351 0  4.180867415506958 0.5604649651543626 0  4.071916906460862 0.6972116054906576 0  4.004933693489789 0.5323315893295022 0  3.891252368378568 0.6755843648553583 0  3.819594213344772 0.4988169852441153 0  3.698704350398915 0.6509436071982044 0  4.85148575740922 2.793423438394188 0  2.141901772962172 0.4427350274722128 0  3.780848172060596 2.673610511202758 0  3.850189900390424 2.358089274034421 0  2.129398765905094 2.653125535040616 0  2.11128786488868 2.605169156350135 0  3.360321611929975 2.790919929106047 0  0.9018663958035302 2.408218754850148 0  0.8700695674647729 2.462517932198346 0  0.7231631881917078 2.530601180268943 0  3.382508375492124 2.62270180394597 0  3.766794261785028 2.177903060919844 0  1.368215673600438 2.348994679047705 0  0.1436389719076678 1.614677441829769 0  0.1935238406123103 1.543661568477343 0  0.2758322597969398 1.540383847550015 0  0.2318619950356524 1.467574641498644 0  0.3926279572219378 1.742035741959122 0  3.944384860795063 2.671831297491795 0  1.852531039105288 2.637844861390326 0  3.611496516946303 0.4718840853404738 0  3.499547301914455 0.6265935794848244 0  3.86830231533527 2.807717618537315 0  3.122382711257266 2.622933438799926 0  0.2370755904165733 2.470960210744781 0  0.2105708833232334 2.421401894878591 0  0.159314973403724 2.423095393764513 0  0.1854788154443288 2.372376253983471 0  0.2418348202957148 2.371271873075394 0  0.2124459203350315 2.319538263440259 0  0.7242523315693814 1.288475747772929 0  0.7890458670587515 1.182848897824145 0  1.825306328056439 0.5889707593758375 0  1.7254090906972 0.7459349844895269 0  1.63314496728194 0.5594423484288276 0  3.406278249609763 2.79737286515457 0  4.763793208571541 2.422120663313237 0  1.266977979510989 2.283430521445255 0  1.801619265265113 2.241249555895136 0  3.622235549239849 2.797131894841224 0  0.538663997319607 2.795325547730303 0  0.4915736638860473 2.795185027659806 0  0.82805650507212 1.279692397040973 0  4.881214908473133 2.761032559804677 0  0.1482887468387184 2.323839879773816 0  0.1813598706635107 2.267442190756755 0  0.1444658615084538 1.954609276287904 0  4.086914051466858 2.740174440058806 0  4.098026827592198 2.786347054524537 0  0.8038684814374413 1.974809677536369 0  1.133278527862376 2.745094003783757 0  1.154659583703633 2.784234074551295 0  1.1108930296549 2.784238582407621 0  4.366473860504398 2.800002795720109 0  1.110644794240886 2.704406024360042 0  2.400393473000094 2.310576628677294 0  1.72103823913768 2.245977683447072 0  1.006736023067118 1.432128256537099 0  4.614845085663624 1.65177663884287 0  3.29391224020695 2.071500350496031 0  4.140178277763986 0.8410912163772262 0  3.717046039722832 2.349540682745719 0  3.592460990108111 2.096376889300783 0  3.884845384610331 1.693797624909833 0  3.836315970077349 1.60369165899819 0  3.774645065326005 1.690565195604847 0  3.731247748299584 1.591647155692147 0  1.131004846789506 2.818596774328522 0  4.208987335771541 2.822582677327148 0  2.164420843046414 2.620645480442886 0  1.608427421463204 2.800280540925295 0  1.562983020271562 2.800237573462841 0  1.540405892985488 2.764781332222879 0  1.518939350986679 2.802012176520964 0  4.798993329128023 2.378923732595871 0  4.852038311091846 2.394275031551015 0  4.845906774159954 2.338760596460586 0  4.18234853980013 1.811047015838401 0  3.913943124670869 2.36410124563545 0  4.309527582366341 0.4166547984366482 0  4.872206315854515 2.582103955720051 0  4.909095161827529 2.54087453522028 0  0.4354868949876045 2.655591447446039 0  4.692737570507852 2.768460787627995 0  4.666086110540878 2.800134184516863 0  4.704420076196831 2.808285481398339 0  4.870025765825516 2.151422442992002 0  4.841054575179774 2.10011067126025 0  4.822021169962767 2.82675706417543 0  4.435279236649922 1.049882434295573 0  4.052960838073096 2.375447080587486 0  4.113344443048123 2.382038865489927 0  0.7282058197472761 1.078603843237114 0  0.3187797685594025 1.466239990421758 0  0.2721741270417222 1.389730394363166 0  4.335401174650172 2.643784922696348 0  4.313552490553211 2.599728336707372 0  3.422793249320255 2.593298254392933 0  2.873479769427107 2.070219795404129 0  0.6572190592172864 2.827574161065156 0  3.755391006683226 2.821640376352353 0  0.1220095404002812 2.265811527589264 0  0.1530980606741248 2.214051761754519 0  0.2134810561284546 2.213386717844692 0  2.231132657985281 1.957867445435859 0  4.711293517427286 2.041818138118885 0  2.894434682785794 2.814490191949666 0  2.858375744975225 2.808988245707565 0  2.845468300573047 2.782452088672785 0  2.826254884966407 2.805191084419628 0  2.785510347956837 2.880690000261624 0  2.835496858261093 2.836386055808182 0  2.807180840830082 2.827424727068238 0  2.79885723735485 2.802986528139385 0  2.782968451500112 2.822890873477837 0  2.774979202754331 2.801856195102193 0  2.761424984827782 2.82056263155305 0  2.768395490743093 2.842042047428953 0  2.748668771863684 2.83714852294422 0  2.741024577979876 2.819108683954461 0  2.730126119450241 2.834971739030837 0  2.721951796339526 2.818434496374175 0  2.711868452542651 2.833249441915833 0  2.702773764113354 2.818303212609276 0  2.694073627755066 2.832264518714832 0  2.70252405399698 2.847060599030873 0  2.685845984599085 2.847932980193056 0  2.678072277406985 2.831587666689944 0  2.670225926377701 2.844826667521043 0  2.66285509793781 2.831084840175436 0  2.655049151424536 2.843747046548572 0  2.647818691900094 2.830508537037697 0  2.639456027918532 2.845277479708058 0  2.632794901721782 2.830646572601598 0  2.624930249692975 2.84267634235955 0  2.618013739697326 2.829995897067 0  2.609837891499968 2.844363178074905 0  2.603228363478202 2.829397265287442 0  2.595442713796193 2.841520353375392 0  2.617743065351808 2.855512833004751 0  2.588563431641895 2.828505963914637 0  2.58115247657923 2.841057079945427 0  2.587444595644973 2.853026434471728 0  2.57391178324077 2.852627423305691 0  2.567382222295285 2.84108619701448 0  2.560559422707812 2.852544325972004 0  2.5540178877829 2.841157138415549 0  2.547604355329439 2.85258342580177 0  2.540793233775092 2.841230902874584 0  2.53440931273763 2.852646198095829 0  2.527560949861907 2.841312346622006 0  2.521762431196453 2.852255853407014 0  2.513979535825234 2.840586918083792 0  2.508677326563451 2.85427374603661 0  2.500820877391758 2.841307599171383 0  2.494234359322797 2.853401070403562 0  2.487760078416012 2.841842891929142 0  2.481068653089889 2.853079179887271 0  2.474572143116509 2.841695035851192 0  2.467855985728616 2.853056205532842 0  2.461346227123535 2.841709769430957 0  2.453652430653802 2.854722024947534 0  2.447937335772151 2.842032742392113 0  2.440423367079823 2.852673780052656 0  2.434647940468512 2.84178079280504 0  2.427820194318084 2.852809210632155 0  2.421052651450124 2.841139862661107 0  2.414614060876272 2.853189508775338 0  2.407492594279102 2.841268351252689 0  2.401169395416956 2.853359467652969 0  2.394478782029735 2.841920129310095 0  2.388608014788135 2.853072533226203 0  2.381133141089049 2.842103934361985 0  2.375652594435088 2.855130643232211 0  2.367617999588718 2.842173382905879 0  2.360574930052582 2.854084223000273 0  2.353567001304288 2.841974918544406 0  2.454476919274432 2.829765620332957 0  2.346361830143809 2.85403903008938 0  2.339375263069269 2.841891705497611 0  2.521396475672575 2.827382734817276 0  2.331632541124634 2.856569520928331 0  2.324794562080369 2.841946854738219 0  2.387927585004256 2.829676915815728 0  2.316894703182135 2.855213104226029 0  2.309792957387786 2.84215540450243 0  2.301921867004758 2.854945135020555 0  2.294292852335177 2.842289804340289 0  2.28611020367349 2.855192068242148 0  2.27813742351908 2.841270517917715 0  2.648656239113568 2.856608360254445 0  2.428070117766493 2.827608830275356 0  2.269518534678592 2.855324301607914 0  2.261263087414078 2.840608255006494 0  2.317927045069273 2.829041126782569 0  2.360149823582506 2.829740659728253 0  2.675287138672781 2.858695480854053 0  2.481393582872861 2.829548094636396 0  2.547462473278135 2.83124217601284 0  2.252245757569765 2.855497558432447 0  2.243650693090376 2.84007036436419 0  2.527911277245344 2.863874924600011 0  2.234750127515964 2.855507521157979 0  2.225508719707866 2.839943876450412 0  2.421625859019997 2.8650076393737 0  2.415844825207691 2.892390742426685 0  2.462340192082713 2.864784190695227 0  2.737371561113841 2.850981170253197 0  2.596481786940936 2.81518485030024 0  2.486796450955681 2.864149600886193 0  2.553936728878876 2.863316173970778 0  2.580247256852584 2.863651558458245 0  2.669463639593042 2.817662990607111 0  2.395004869421031 2.865020059228363 0  2.592495863302958 2.864136965922171 0  2.367065176559029 2.865501989980825 0  2.340495350229534 2.866310081486257 0  2.580452498833933 2.814693199503843 0  2.270256870638143 2.825196152748829 0  2.309193346804432 2.86755696677556 0  2.64144598994822 2.8150221229268 0  2.586226354388993 2.873789769600734 0  2.575546709643646 2.874210035376306 0  2.597118273933105 2.874463939105754 0  2.589581692300476 2.799460483005531 0  2.278451310147969 2.870694398986736 0  2.216212875682655 2.856228324215293 0  2.206647068004073 2.840349822432995 0  2.244497214181409 2.869193478750904 0  2.606394765066935 2.801274160630501 0  2.233098597486247 2.822185998562531 0  2.731657954438721 2.802711793486336 0  4.2108785403805 1.885794713020674 0  3.240890081813076 2.269115385839106 0  3.163541110053413 2.274308563552639 0  2.603273859320964 2.865845369525939 0  2.607000633103428 2.875871474272041 0  1.151866578598838 2.209688064632518 0  1.117435241193987 2.136587558339943 0  2.771776601107511 2.883843277957184 0  2.774756199114747 2.869833168865981 0  2.760949301563258 2.873906533075946 0  2.789246483773396 2.862505699478366 0  1.202556570716759 2.404430590401057 0  4.470876303871619 2.525792344427984 0  3.909916767572361 2.81579082479591 0  0.269766666275264 2.321259999726731 0  0.3014404212234427 2.370710064766397 0  2.59139708567407 2.883689087529655 0  0.226091220356571 1.169877998747537 0  0.531164180938275 0.3906450872086522 0  0.2268299812371604 0.8706592514382562 0  0.1893906595682675 1.388908541630721 0  0.5387247177232184 2.014946772284574 0  0.5184525578143098 1.941413200129875 0  4.89578032306069 2.804662571034713 0  2.807557105299911 2.335059020917147 0  0.936887155322695 2.349480912948727 0  0.190772897549182 2.150791954137637 0  1.556280503432947 2.243081451560018 0  1.467653641014504 2.235158823690524 0  4.840875854263303 1.883273661066045 0  0.1414642019794936 2.066299287330927 0  1.167201973976891 1.550698838086373 0  2.138729131458142 2.568253272582741 0  2.788057141315165 2.779353356740494 0  3.66329217587052 1.668351119396384 0  3.622951978698387 1.57748921715674 0  3.56004668949721 1.653502217503371 0  3.513262214742621 1.565338098951773 0  1.088656728199302 2.822644975830858 0  2.664849323442271 2.380129503635247 0  2.857995889887888 2.734959004181362 0  4.064144233497997 2.8139469032447 0  4.102229817714163 2.831258357067315 0  1.133398289818839 2.662377724625995 0  2.253764624340584 2.308744352210698 0  2.178205145468075 2.305476357116953 0  0.4862408749341456 0.6394348334901886 0  2.064558880827025 2.601790061824325 0  3.88281002437489 2.842909240072418 0  4.90382084505393 0.1399928123305734 0  0.6423715924184399 2.483122070566163 0  0.1041655156193593 0.1456698648290993 0  4.138270384454395 2.272872343040217 0  0.8365168473564617 1.544770149790584 0  0.2202298064279873 1.31016128077683 0  4.129666985533477 2.762247027634642 0  0.1177667055019493 2.160181239743243 0  0.3114998161793023 1.30331486246744 0  4.721422946663821 2.734232757631612 0  4.70731051798615 2.69123248347052 0  3.680095199478721 1.487289141098004 0  2.719481121121045 2.850991037314747 0  2.708570589769741 2.861675438688254 0  2.729376557134637 2.864098722357083 0  2.714461061066499 2.874670402979489 0  2.742685686382022 2.865026113342722 0  2.733984566831948 2.876803085159564 0  2.695106719705307 2.860396368607701 0  2.700717094943725 2.872120329465884 0  2.689146261692391 2.871617810648194 0  3.89961256632029 2.65884937164907 0  1.164723054030282 2.340174666735147 0  3.747907642975318 0.2962846617416779 0  0.145111820433085 2.816829206103301 0  0.1220290109661653 2.779386907769018 0  3.57733467868217 0.833326091848642 0  0.2341909894566268 2.817098082830448 0  2.261129912577314 2.87117288658696 0  2.269664131367086 2.882496607299564 0  0.3851923558739472 2.811573326451226 0  0.4266774247300069 2.811080332624388 0  0.3413221352113154 2.813823435849063 0  3.378202465335117 2.833202619893183 0  2.662060933920398 2.858494715595766 0  2.653532287347136 2.867812618316833 0  2.642779506520716 2.867720831442678 0  2.647857628510356 2.878328576161533 0  2.637116551746085 2.877255439652362 0  2.657626944876991 2.877602959411285 0  2.631725107231192 2.868836065014414 0  2.626148592591888 2.878925578969286 0  2.620698661960994 2.86901103625588 0  1.048680832729187 2.338441426840115 0  0.2009578203095761 0.6271476195779518 0  0.2764527428282668 0.5191300006982108 0  2.581732365939468 2.884552099520793 0  3.871754481716922 2.410615882576973 0  0.7868198281986554 0.7502244129645605 0  2.353083754696354 2.86551988942424 0  2.347268942143439 2.877161192548464 0  2.335500146281695 2.876796823347158 0  2.359760160332662 2.877084193590727 0  2.371784304809019 2.876072680823882 0  2.378524838665236 2.867751301197593 0  2.383374525280276 2.878338813215066 0  2.69495177179078 2.766881217980229 0  2.681513199489703 2.785736689808314 0  2.703955612140494 2.786403948257021 0  2.657615711846865 2.78591404324473 0  2.669503348021659 2.868784490073268 0  2.294676238593516 2.868084810438894 0  2.30234796791357 2.878110542736571 0  2.314478749593405 2.878925222162533 0  2.290925719385447 2.881916171966157 0  2.321509824116233 2.867381957650703 0  2.601725014565166 2.883881904664889 0  0.1005364346259352 2.818551267009623 0  0.0758534322849278 2.776540011064452 0  0.1000638438453598 2.736638232648255 0  0.0861992882331597 2.690692032882339 0  2.474768066810403 2.863933243890772 0  2.480802192229755 2.873842566907216 0  2.491880425515372 2.874378349532052 0  2.469608023761652 2.874121518573929 0  2.458487994546768 2.875312071122919 0  2.451151358406528 2.867195219286147 0  2.447670640008431 2.877301104278428 0  2.440729519151165 2.869905267868659 0  2.437876803148686 2.878523750441747 0  2.47573120091109 2.883455330742291 0  2.499351552994007 2.864574155386043 0  2.503363339854995 2.876708839358874 0  2.510708634220347 2.867122327855219 0  2.515257278712779 2.87736665127821 0  2.453875528839506 2.885919034972964 0  2.508378261205752 2.884538185648984 0  2.408401725861454 2.864443329893948 0  2.414269438691426 2.874681671123094 0  2.403540790233128 2.87489178628074 0  2.40959637663732 2.884160220176725 0  2.541465722596961 2.863293023850574 0  2.547734843870423 2.873214046348829 0  2.558390658309643 2.873718726647526 0  2.536914227754743 2.873662960644532 0  2.543134139871789 2.882963435676182 0  2.532490595425632 2.881951830739201 0  2.553051794658054 2.881536700562532 0  2.562451646231573 2.884010817587185 0  4.170682551086466 2.811210827246913 0  4.257242461990526 1.811995449383301 0  0.3330123442613471 2.320515578306187 0  4.09880498243577 1.549693761704912 0  4.063946701656529 1.460155055262264 0  0.5836249117725618 2.792530878920675 0  0.2588239025491088 2.165956121912799 0  2.464735302773769 2.883675370759223 0  2.693463982920705 2.881870424827223 0  2.683782988284067 2.880545294754443 0  2.705331270643963 2.884497812851214 0  0.5727917582814261 2.485193537312438 0  0.5584283439058508 2.541544906041198 0  0.6125248919574089 2.424436757878275 0  2.348399838552954 0.4524588764575861 0  2.433882765876763 0.6714099296956769 0  2.56920209596045 0.4926939365958363 0  2.716761772628972 0.3086699129040937 0  2.794002711910809 0.5350304081273245 0  2.939674516713959 0.3751856835711518 0  3.005081136488831 0.5745411776189895 0  0.8639100059714673 2.354704496446953 0  2.420656001544624 2.883677623195733 0  3.025463858309879 2.768397398279747 0  3.039033298104054 2.805872760510558 0  4.548443650077108 2.828284297402345 0  4.506939441377066 2.814920486190983 0  4.494454567749443 2.778488204027993 0  4.469456346968332 2.811799799367656 0  2.872568716132792 2.843864590809247 0  2.844746978792431 2.864290961619005 0  0.9591968136050089 2.825644674749249 0  0.9167381005665853 2.820591195273686 0  0.8966112856684032 2.785006334239059 0  1.004411754270985 2.820193027596667 0  0.8767818479372411 2.819737854108282 0  0.8531632268977773 2.786034131069662 0  3.799180987522324 2.835285259811299 0  2.338822895719997 2.885557033197196 0  0.3200366526482901 2.77841039324043 0  0.2972168638470953 2.818445719636623 0  2.687513340576265 2.888639510689621 0  0.3617136187935843 2.381470578759656 0  0.6868444386684043 1.904950691936591 0  0.6036412363515078 1.906584694016458 0  3.9801526935827 2.375955012958408 0  0.7434591178707688 2.750521272908704 0  0.7650090009751691 2.788276309185412 0  2.571742450823892 2.799858953149569 0  2.565249336078623 2.814819185683612 0  2.580977435616995 2.782252845725727 0  1.713612960821292 2.082940390114423 0  1.770312613433508 2.023817332994245 0  0.9808145802631962 1.065162664696329 0  4.507137461160029 1.422727903519731 0  4.474904730372199 1.341075443997749 0  2.473621282536961 2.316656724914605 0  2.504485323710836 2.378697518783653 0  2.297528169005179 1.26037457782699 0  2.204545434052571 1.379655118546498 0  2.042647512370936 1.364343005379641 0  2.119365452253407 1.480373899821652 0  2.36939090460737 1.405627728612322 0  2.527188814947247 1.432646538181598 0  2.416366225706999 1.537009639978488 0  2.627871708769395 1.302781964044659 0  2.701496736693651 1.449913998532196 0  2.861878791748945 1.449264293498902 0  2.790515983511491 1.565883937255505 0  2.26088952525235 2.783616655086203 0  2.441106185407295 2.777940511501273 0  2.429372485645418 2.79596778331353 0  2.409300685962069 2.796617341003094 0  2.450685921634385 2.796312271042271 0  2.466353009657102 2.779883706497337 0  2.470308999386109 2.799673618854039 0  2.490563227568785 2.802106929092158 0  2.396741839228691 2.778602351954899 0  2.388915007057765 2.797592697155712 0  2.37713744936263 2.782071171634548 0  2.369988444985851 2.798015636671926 0  2.438526419899943 2.813088910567104 0  2.419930577271825 2.812323529629468 0  2.399853545472678 2.815366079006346 0  2.51166979428082 2.779950109387491 0  2.534464372115845 2.779929613198785 0  2.524035817723442 2.797310753875024 0  2.542724235557101 2.797723487706079 0  2.53088214714841 2.813255068978012 0  2.95799227765903 2.079558236535389 0  0.1507333301648943 1.106488302391487 0  0.1930185129719399 0.9996535763807555 0  2.567090369017118 2.865179504374305 0  2.786880202899733 2.064830040652074 0  4.784116799276963 2.054136422073163 0  4.825298770705961 1.998083234690667 0  2.621772583259855 2.559025076720072 0  2.640973003429714 2.594781501870451 0  2.680657294706097 2.596421246459956 0  2.657749562012092 2.629572869417177 0  2.620647833198412 2.627629297883537 0  2.695564376996774 2.632131931008161 0  2.719206643811643 2.601317203781749 0  2.736640310196373 2.641777685865496 0  2.75810712513686 2.606782029207421 0  2.636107788066844 2.660261531864593 0  2.601008601706212 2.657432947459654 0  2.584994029587533 2.626786671710201 0  2.566684332330589 2.656863827851742 0  2.550219184607863 2.626629552627525 0  2.532030057380014 2.655669540639909 0  2.515819427350195 2.625629627011632 0  2.497555527153135 2.654879940893047 0  2.481287450602118 2.62474456256771 0  2.463609329774108 2.654151270515059 0  2.446596120071191 2.624147677798487 0  2.428624483395555 2.653613532689954 0  2.411188053973757 2.622749087465023 0  2.391601696526716 2.658704643760502 0  2.374926435204275 2.62243348254129 0  2.35622020839562 2.65301828345418 0  2.338103146520494 2.620474298020029 0  2.429859323556292 2.59145693539037 0  2.570707625059602 2.594333015113111 0  2.31707342043802 2.651777971644973 0  2.299647751227821 2.618679450213053 0  2.278082339891612 2.649578617759244 0  2.259825531570828 2.616674886789463 0  2.282273843749651 2.582039871087966 0  2.776255759714994 2.640002667148398 0  2.798270582996059 2.60871111999577 0  2.240977489325028 2.648240195973046 0  2.547282275638003 2.682364689007952 0  2.78090794284214 2.571613096920057 0  2.824327067610085 2.575838720042702 0  2.480826877688175 2.679086377554277 0  2.415553947260702 2.684773035195328 0  2.217324620966683 2.616576959183153 0  2.833302262645196 2.617803151274265 0  2.333798253059725 2.685760920897619 0  2.448090608561357 2.684503685062851 0  2.514010339009631 2.679687363422464 0  2.672186428370825 2.66135082921436 0  2.651135151425594 2.690867730697505 0  2.317750511120505 2.549917437777798 0  2.497745166386985 2.590312855562003 0  2.952929925909197 1.329853134067173 0  3.006341047602897 1.465942075075805 0  3.12541694480882 1.355262703929855 0  3.142311759254378 1.498129587505994 0  3.053848842188263 1.588839773372789 0  3.164019912515689 1.618619366977902 0  3.266508874021162 1.551504338822364 0  2.316960728100518 2.779030182510688 0  2.33044249459821 2.797675009106062 0  2.308035147570608 2.801208616935984 0  2.282520815380279 2.806317555394388 0  2.752589509823908 2.853676830594984 0  1.110892897678556 2.859190659218853 0  2.326634743831717 2.310115961744348 0  2.201908153528084 2.661104008078801 0  3.43116610900198 1.353215722696015 0  1.128262336503831 1.35086296779365 0  3.777290720329574 0.826955353536188 0  2.789251827354861 2.844026626270468 0  2.583078272219631 2.685825282228957 0  2.616920923855235 2.682634847851663 0  0.7435315783257024 2.826561374693318 0  0.7822017727879629 2.829883695028381 0  3.08053756756043 1.981396306481742 0  1.174957852847477 2.817378995768006 0  1.85053078476542 1.852823016181971 0  1.963279862374596 1.865275739637454 0  3.807522061585229 2.632913200826944 0  2.494802861747295 2.885112244547658 0  1.888473338943278 2.240755318863288 0  2.485472822261344 2.882141823208099 0  3.067735175884626 2.515777144854823 0  3.002234784564695 2.514678928544472 0  1.432108444898368 2.159060205553999 0  1.384667837060466 2.224774869471678 0  4.381100355437131 0.2135786853968908 0  1.224799080983086 1.716479251274537 0  4.323441881965215 2.796952717721609 0  4.338809918777471 2.83290441789725 0  2.750226109569479 2.773637728527969 0  1.19922454278397 2.785232081208102 0  1.21650330388977 2.82766163565792 0  1.261097477426177 2.83010037532845 0  1.29084554858237 2.797927988046382 0  1.338305616039968 2.793372183660948 0  1.32460687625464 2.828632181491123 0  2.933537491643462 2.820914072670858 0  1.967105083274505 1.226645783063998 0  1.806942281000857 1.221762662615399 0  1.708974395279756 1.064930362483292 0  1.885025960806792 1.353723128944825 0  1.725606931879873 1.348121003413046 0  1.649974635838434 1.232212872475108 0  2.629141886937294 2.852883183436642 0  3.963229563412013 0.856538295650621 0  3.44548293654997 1.665204410975572 0  3.39637693938259 1.557772553722241 0  1.726905564634882 2.762774129021578 0  1.701047392135956 2.8003617395378 0  1.747689505581197 2.801900765690297 0  1.79544207703521 2.803232367077803 0  1.821966887486957 2.766200481996047 0  1.845695187309182 2.801350610471639 0  1.872917588601427 2.76441830802265 0  1.898492167510812 2.804430907077681 0  1.945669048259146 2.804016174727491 0  1.968141651615456 2.765885609248577 0  1.991887489060346 2.803132297995449 0  2.032885511525286 2.804575323355326 0  2.060799651659987 2.77243001373656 0  2.093702987348879 2.7991439426958 0  1.654868643110613 2.799277847095238 0  0.8254826363371079 1.885134720573343 0  2.868909144053001 1.967062221853835 0  2.692844528768588 2.042839477803513 0  3.313798328491811 2.783171429763827 0  3.280924595353386 2.824744554786546 0  3.234397565085164 2.808568289658824 0  0.8697699411534072 2.251053167129498 0  4.925422540423142 2.767671817679813 0  0.8091133581252268 2.795843835328538 0  2.521201234047006 1.931216440783369 0  2.460116583370766 2.000620007922071 0  2.553171268351087 2.03309897075488 0  2.633185008494556 1.961825524166405 0  0.8391446102427911 2.824751929415748 0  0.8301240038984281 2.756849767948292 0  2.196549582239108 2.790037197527196 0  2.176226117854317 2.817032112296758 0  2.146567834220229 2.816458328027098 0  2.156392582120275 2.841705994564052 0  2.139903793306896 2.869443630572674 0  1.623628909795717 1.835092917063199 0  1.046972758326504 2.825015509030812 0  1.020196458120766 2.862870467887265 0  1.027272879584204 2.78405056188044 0  0.8938497978263884 2.847560828030179 0  3.954506442981162 2.313395421197137 0  1.197390355243561 2.073783352467108 0  1.356113372449977 2.565486800748097 0  1.388309310896523 2.616851395440445 0  3.576920296559186 2.789627179037512 0  3.543908902608838 2.827957713319372 0  3.498337228034973 2.811979373968155 0  3.591725390163381 2.829781510669398 0  1.434382418012386 2.794102155430248 0  1.412446778341495 2.829994254722238 0  3.191794194270164 2.530517351421295 0  3.253423339007751 2.536799018310398 0  3.279391515456388 2.587324086693631 0  3.332762165909659 2.594170871980565 0  3.098040258571615 2.569278106317122 0  0.9331970588138319 2.702261910286983 0  2.477966591813172 2.553764003646065 0  4.253115673684711 2.82776871816539 0  3.125857478721731 2.751032838064553 0  3.141014564409625 2.794447871140503 0  3.187068277296694 2.801392013743261 0  3.155608077686806 2.835597160987249 0  3.100457611393825 2.784771123033956 0  3.218754594507134 2.76706593312128 0  2.780532261019214 2.216587350283888 0  3.332275773748604 1.646558297322117 0  2.809290340557061 2.854419021485056 0  3.318183779556776 2.273172816859635 0  0.7001861964198008 2.826396723035031 0  0.3124728755142105 2.697562629661227 0  0.5478532370566938 2.420671979611228 0  0.9717449519462984 2.515899669133077 0  1.769513120836632 2.84129704386968 0  2.05669966626207 2.243429317630526 0  2.022309724667013 2.311539672589826 0  1.936641310024061 2.318672660237699 0  4.023555187932205 2.805246368936332 0  3.996375058433919 2.834758096607291 0  3.951312139973708 2.831048887715614 0  0.7501311865292914 2.425783551042378 0  1.487820934887238 2.720020481245752 0  4.781804700504989 2.822619286360591 0  2.101983238882978 2.308415418690863 0  0.2547889278929665 2.778771033522976 0  3.381487803858836 2.557489756320184 0  1.514202227433574 2.521620526157105 0  1.578437346674956 2.534287609791485 0  1.617280121798796 2.58444698139824 0  1.672742840621217 2.583756781825086 0  1.649594422768428 2.633403604217212 0  1.708068438738379 2.532156214906856 0  1.773278919762621 2.543238221154878 0  1.818572192999657 2.589588447770435 0  2.227790341111138 2.871959826545134 0  2.211563469130841 2.874192116102693 0  2.65438370947724 2.885975778047712 0  1.578820848163053 2.679088972456072 0  0.08853165727053103 2.859586492369918 0  2.92979933364549 2.871069611107382 0  3.728837221551465 2.581028902124515 0  3.694285225575798 2.622705819126714 0  3.64089349615999 2.617187571383517 0  3.664006658772477 2.662428448632007 0  3.748871451126256 2.631517940612857 0  3.32905442694365 2.827170026642116 0  3.813410114822874 2.048740075520219 0  3.897415369424651 2.058284092448723 0  3.84634344056382 2.124745922510879 0  1.904202952586498 2.537442357469226 0  1.966804350075293 2.541850251088604 0  1.983029797630431 2.597127009853724 0  2.619110669211233 2.330792194715685 0  3.666897052787968 2.805692313572778 0  3.713023816091179 2.81904025801485 0  2.366961727221462 2.885298197117748 0  0.5019736397174563 1.633144811358306 0  0.4054757130142943 1.638726117128226 0  3.952116565157041 2.599166387209647 0  2.748306599685982 2.87940793375289 0  4.622187510669188 2.794487014526494 0  4.636916859276722 2.832045997356618 0  2.14740960422033 2.359308967492611 0  2.610792873559204 2.884908906697989 0  4.539704401621481 2.705311162474879 0  3.376410820925594 2.010427034607955 0  4.409606214698861 2.807282641785416 0  4.280582248552899 2.5547704554347 0  3.826221712365606 2.799093398169044 0  3.842259431405446 2.591503882482319 0  0.1415352997735919 1.464629656676489 0  1.055303184303659 2.660937183068962 0  2.562386110215058 2.552170701606228 0  3.472552918349049 2.282468898031154 0  3.429872011473033 2.346480567671492 0  2.597819812320141 2.891838865415111 0  3.557849956201724 2.565000639241143 0  3.521539211501002 2.607677400667163 0  3.614288571603991 2.57162224419974 0  4.389165318761105 2.409987369917897 0  4.350643789652262 2.456987029624587 0  1.922392815714454 2.842241849620877 0  0.477976958188334 2.516971508431419 0  0.5080338222475518 2.564713323219212 0  0.4680192500938012 2.612057222443844 0  2.200058041066109 2.862326524295526 0  0.5615048504102798 2.830048394647864 0  0.2821581393013535 2.069268007814828 0  3.437238647176054 2.76414981433118 0  3.453484758678171 2.802597517188457 0  4.954021100272803 2.669930205809387 0  4.908541464249634 2.693605956462767 0  4.912311424324098 2.643087015517442 0  0.686467242969319 2.181531349503963 0  4.594579124449292 2.829709399675341 0  0.6056406029094701 2.753180211463463 0  3.783744618730456 2.35342322720635 0  2.962081397078515 2.682059316399384 0  4.510340105913269 2.425943673817684 0  0.1660790529977474 1.755481471981224 0  0.1264208497004629 1.828216810320924 0  0.8084799711316819 2.436115715027885 0  0.8122661194628915 2.49123481643139 0  2.412470144441283 2.826605148280418 0  2.375898713309569 2.885361395961552 0  2.515234016861315 2.813057991480058 0  2.504919399750693 2.825746267453944 0  4.748427139673975 2.366575012082131 0  4.466891282183346 2.742815414767102 0  4.054441046938781 2.610093599010644 0  4.106812946432019 2.615939342610623 0  4.071525451831342 2.661959367699509 0  4.125984383974139 2.661996230077825 0  2.529393080225469 2.707031277018028 0  4.651116232257653 2.636390861143001 0  3.484246680529381 2.771476490598102 0  3.939763503029571 2.787079011408261 0  4.952711295195172 2.50598104133005 0  4.897381249700627 2.48002928923987 0  0.451376283059266 2.78034963235261 0  1.227493569787149 2.664433627799998 0  2.364949652520153 2.00149485420351 0  4.561317255698972 2.534497647905469 0  0.6094028806913123 2.825826084499812 0  2.416381562609694 2.546963944221714 0  4.642876510204015 2.034369754956427 0  4.600642498032361 2.085698242961477 0  4.52816926866981 2.080083603369109 0  4.565264303465268 2.143513251871664 0  4.488907259659907 2.134809689640409 0  4.665099897864502 2.088622682679095 0  4.513055179206384 2.198470119037375 0  4.448985943616214 2.187672371277745 0  4.37263375888057 2.191623962996169 0  4.45680421627978 2.071591322567756 0  0.1120421419806146 2.014269110989319 0  0.07846971309094375 1.961459469067048 0  1.260533738194864 2.613976622469707 0  4.500102324794675 2.015310562494645 0  1.14652576073736 0.2277758206928473 0  1.364180844057567 0.2902344700737516 0  3.518125206214179 0.2464710830805574 0  2.723901203556914 2.120791781627843 0  3.649772259510565 2.349765580668684 0  3.582259300658738 2.349560473950818 0  3.685353008617403 2.398452648703075 0  3.547749812924472 2.285182673368654 0  2.298375604528662 2.817455213126135 0  4.183324515202711 2.218838753493519 0  4.167243742287977 2.340269894613231 0  2.353620587594655 2.883454492031969 0  2.872058191102687 2.590890424661998 0  2.893323268590092 2.394011845793866 0  1.851909543860253 2.309356196951876 0  0.4883673170447236 2.721574323825956 0  4.167716563905596 2.745382929158324 0  2.851440767881495 2.536014235379975 0  3.126193945930157 2.201222716453111 0  3.083395423413005 2.133102840488712 0  3.079597525053966 2.265286805920323 0  4.312374776052694 0.8673211839218005 0  1.963570325801526 0.2427433316112564 0  0.8605156698513186 2.525582359921485 0  2.695461068933302 2.430029483284983 0  2.235082271816599 0.2315435573929543 0  3.674395186071665 2.101971847006585 0  0.04928408876968682 2.501382890501161 0  0.08721924767692224 2.474611363253277 0  0.04811870234318461 2.558421491637387 0  0.09010369764739412 2.58677076010938 0  0.1012677310849752 2.526110081279964 0  0.05188700988641237 2.383920928177825 0  3.58174043711715 2.614627298121108 0  4.950191178655528 2.388157300695022 0  2.069753292848177 2.869000344965566 0  2.089749869597193 2.834524084406652 0  2.140008965223191 2.242178423535323 0  0.174803458159551 1.890486989937472 0  0.6877649482640764 2.864129872085831 0  1.5428145071329 2.839750797437974 0  0.06070063914066681 2.263163986443108 0  0.519492222830473 2.627258520147898 0  4.947410871160469 2.268062017480077 0  4.896355788864344 2.300549476722962 0  4.894689226244843 2.241876800701943 0  4.839890631393438 2.280316338788717 0  2.458080793333482 2.812482063884501 0  2.922028999594021 1.571539728507181 0  1.815047173268876 0.9138240228560797 0  1.676971452431869 1.928097788076566 0  0.5192666903513286 2.831626506463185 0  4.935644399820004 1.947254941612242 0  0.6127079551842038 2.179347413822396 0  0.575289088198685 2.12046877438669 0  1.637448228609625 2.241974946750945 0  4.077275929054418 1.941706337990346 0  2.370123698682433 2.682932576399184 0  0.05616668628589006 2.136142834972432 0  4.937663536609461 2.145951653714965 0  2.600196334223039 2.853842678502089 0  0.1316883897018424 0.9197060020137628 0  4.799934310677046 1.935547004440394 0  4.866437919061318 1.947459863586514 0  4.887866675490723 2.001923194822426 0  4.103798287115485 2.699645735537302 0  1.030174087332734 2.513181438443495 0  3.217135107796114 2.587327564424603 0  3.157922356105871 2.579009415784756 0  0.5965757142092132 1.788799636296028 0  0.5101870561466741 1.796972773973826 0  4.26991327057869 2.679765286617937 0  1.236106045848574 2.459087965195962 0  2.000804270541338 1.953443427282287 0  1.560393170622203 2.723613138663482 0  2.460963832221061 2.891639036704984 0  2.113120834990924 1.970825371543156 0  4.86890945043602 1.757646244443641 0  4.939029280976044 1.798936770598872 0  4.882094716591431 1.683188659292296 0  3.768004818241597 2.860263555111086 0  4.939704265952675 1.584550652403755 0  4.8751180423906 1.560154720316399 0  4.858340305230819 1.482178234086341 0  0.0662333497206844 1.578348455740271 0  2.088788520687715 2.551531759410128 0  1.270103844017494 1.598487158480219 0  1.501416463813137 1.818087934925421 0  2.601351041387056 2.781410407134604 0  0.09742029594676493 2.356292596657639 0  1.168693640811391 1.80889117750205 0  4.411413197118577 2.463221528377963 0  0.3140811767274752 2.517879151635767 0  0.0632508288650433 1.653083110846483 0  1.151968060020036 2.614112400934407 0  4.158069093641272 1.952595399792901 0  4.242516665189309 1.964423283535352 0  4.108907726540062 2.209888725362239 0  2.431128811090995 2.871739272879563 0  4.705812641673948 0.9030401344906192 0  4.792663506502596 0.8178737005765149 0  4.754653076587219 0.6950329534505058 0  4.832695370224155 0.937847767669421 0  4.632334631393844 0.657492263068847 0  4.723812487863777 0.5674495835224802 0  4.740944752142552 1.010768217375151 0  4.857849692258622 0.7264427603668836 0  0.1645921615230894 0.7538538300806256 0  1.422678553159533 2.293770401929927 0  1.500806930311405 2.309636222539694 0  2.125849477269623 2.841133886329716 0  4.661300495778784 2.398182234898438 0  4.779504855042433 2.263103647758856 0  0.08750914765509599 2.637564777781635 0  4.241580754759607 2.587211624754166 0  1.364605796278094 2.825914359041161 0  4.30475242779575 2.759040267578563 0  4.902114285760544 2.41855609403896 0  0.415987518906527 2.610797255276582 0  4.36643193505102 2.513605709142314 0  0.06540680388175923 1.424364498870911 0  4.944132616120546 2.867957042426956 0  0.9914076722766749 2.318764781475097 0  4.564582303988827 1.832193339089035 0  4.611222759733676 1.778162712882317 0  4.179528816522966 2.438023921279835 0  2.61456445084268 2.892313386169497 0  2.619325728038114 2.885434174416571 0  4.154427640456779 1.728439002659581 0  2.128098142830344 2.789792484704659 0  4.224732658263485 2.861659600495042 0  0.723356375385851 2.708270533402195 0  3.148545684357754 0.4159808550767901 0  3.23538048108597 0.6392190895929422 0  2.707488884915236 2.560207395581159 0  1.503606867291868 1.246883754722309 0  4.699540760983783 2.506475862796958 0  1.874331635917327 2.588771905539011 0  4.837127604922811 2.620122049324117 0  4.489178155759311 1.600894197469164 0  4.550210744157259 1.541604626560479 0  1.532210358206708 2.579089241055463 0  0.3397448115047315 2.7379434784184 0  0.9142746139356512 2.7442692670867 0  1.634414950988843 2.833862594874336 0  4.797277872672432 2.860282077989811 0  1.426961591462534 0.5050850526608167 0  0.6997361673540774 2.479598074761804 0  0.3054042628207894 0.9820635753216065 0  4.355636623955996 2.685594065200966 0  2.526394579241185 2.874619327684882 0  2.523241034553984 2.88408399710179 0  2.528440253132358 2.890494986088283 0  4.243863318059361 2.338656689464845 0  1.392867732859401 0.9686580235366227 0  1.55447941009338 0.9910300881288263 0  4.532750244960085 2.577879302390087 0  4.515518191980693 2.742995418926953 0  1.929763282865809 2.591103681079675 0  0.7582003003397557 2.483169676358061 0  4.085928751646775 2.869252402112384 0  3.557587164613382 2.023403833389516 0  3.111775999035066 2.824326384612082 0  3.080080063260753 2.848312787718854 0  0.8284880947076612 2.712929280929122 0  1.211864406779658 2.867707527316513 0  4.782132836545047 1.214197173224927 0  4.80642434365677 1.300641732577745 0  4.751351688425943 1.373569087808717 0  4.12270626547652 2.868083346618536 0  0.7995653077354694 2.866933809501911 0  4.42262149426584 2.868012362289596 0  0.5028373245193605 2.867087576118241 0  4.300507947585948 2.830728148575383 0  0.5779661016949145 2.867707527316512 0  4.310169491525421 2.867707527316512 0  4.868835590647152 2.718452900434905 0  3.348212673437675 2.334513121135506 0  0.2461315407987317 1.886230086259094 0  2.573899812197604 2.828321503141071 0  1.09897496623701 2.053709201295909 0  4.14887978609591 2.483932447151117 0  2.400288452096455 2.884183309757151 0  2.39370201995257 2.876978730606487 0  3.361612648373121 0.8113598832507558 0  3.197095534808884 0.8274144969582407 0  4.496610169491526 2.868799751345295 0  3.937650594778646 2.128180340372733 0  0.4285138231463406 2.870319322540054 0  4.636001256055765 1.846666511764858 0  0.763175718373726 2.864550302564971 0  4.933570146335723 1.269436346300946 0  3.485971349455272 2.647309646494109 0  0.06983402562890406 1.264160965526921 0  1.323788435485929 2.623774573193006 0  1.39830508474576 2.867707527316513 0  3.672481139638495 2.867409150631611 0  3.601694915254236 2.867707527316516 0  4.699411495654136 2.644669236391944 0  2.801740121650544 2.75423166345027 0  4.571598829226356 2.865450721409247 0  0.3496311378330024 2.869860925600397 0  1.249152542372878 2.867707527316512 0  0.1867572862294873 2.654430182750819 0  1.472881355932201 2.867707527316516 0  1.453891809729403 2.832301623019744 0  2.643239794515036 2.798738127113847 0  0.06001497180475601 1.799522324038266 0  4.417652183691612 2.243589686404023 0  0.2683437619735001 2.420342018521247 0  3.74321291331612 1.37642371078442 0  2.218255456491491 2.806276212051287 0  4.723718442618431 2.867510963485932 0  3.527096087127505 2.867876108953769 0  0.6043510668070295 2.049132309035067 0  4.562765270540876 2.279818421461846 0  4.927099934004115 1.431414540500443 0  4.847091253350056 1.386940986326718 0  3.450377296993651 2.867547600389224 0  0.2848729587146965 2.861377626292524 0  0.1990226270571815 2.867534959260019 0  0.1670788720635059 2.871164475910624 0  0.5208759636462685 2.2497032171518 0  4.833729863691196 1.054433114141634 0  2.38096690309387 2.814308888874142 0  4.248323090100333 2.041543594738157 0  2.391251065713261 2.885832345371921 0  4.472972808572027 2.469991176013389 0  4.102217424076457 2.01586741474408 0  4.750832999553078 2.515481360537915 0  0.7868467887326052 1.633666461715594 0  0.8710456879168467 2.747732723843933 0  4.337193018057228 2.555532659745808 0  1.69690580924069 2.86816917671189 0  3.304097313228151 2.864469036822777 0  3.228333746037439 2.868600699920935 0  1.845248591270582 2.867433206721355 0  2.567899182564439 2.377754119370662 0  3.516444453361287 2.344624169774627 0  3.00178971177824 2.866423745972153 0  1.994454414372482 2.868896711861649 0  1.507410785113115 0.7169405962449689 0  0.7872195957911048 2.751588148626494 0  1.627002534495384 2.678564998160952 0  1.192212776905369 2.277738610751586 0  0.2399733299253537 2.268385783317278 0  4.527210882826417 1.67960117451489 0  2.357972991942376 2.587634349171422 0  2.684373239434377 2.691902511268518 0  2.667088607594938 2.893422591869994 0  2.670886075949362 2.8863430840601 0  2.651570730596473 2.893438093704403 0  0.5925555284455286 2.583228447399545 0  2.63693798765196 2.893012768765261 0  2.632874983093958 2.8857877618025 0  2.641714174080933 2.884883716503865 0  3.076680658844556 1.706352653479549 0  1.726914485274155 2.587960598458029 0  4.922556390836782 1.101443595217331 0  1.272063960292187 0.6354592283239499 0  4.908054959679379 2.868839212609316 0  2.316289018008122 1.938070010543157 0  2.345540966575628 2.087482702756897 0  4.741880773909228 2.828986030795564 0  2.25151013074255 2.881602729962845 0  2.815064471737651 2.78019710208621 0  0.6523757324338015 2.244872205467979 0  1.477282776626548 2.799674102909445 0  3.974480904153104 2.86731821472472 0  0.4575363438847848 2.133727431560372 0  0.1010904041855425 2.418430006791874 0  0.6229091302959089 2.626099163404153 0  3.988668562644727 2.68153557851137 0  4.456087072163466 2.611475593146035 0  2.798114118873564 2.527837013395 0  2.707141652268393 2.666466316109845 0  2.733093908536361 2.675327992916043 0  2.477215189873418 2.893422591869993 0  2.544640609898914 2.892383614297597 0  3.87105522937421 2.689687185132436 0  1.070317655424809 1.809824243654961 0  3.642030274401562 2.030342682624899 0  2.507862717227674 2.892532410753465 0  2.49240506329114 2.893422591869993 0  2.439240506329114 2.893303909429386 0  2.424015960576863 2.892602125142509 0  2.428102785796534 2.88667759333862 0  2.576229318003211 2.892575798818381 0  2.571841444779221 2.884008524098147 0  2.560654887048535 2.893310077005725 0  4.597709010296724 2.235013999408916 0  3.753124604196689 2.708100702345627 0  0.2862154581694161 2.566006063063432 0  2.443490326556399 2.885881989843949 0  2.843620059153428 1.673439066321917 0  4.367021100535153 1.876741048608417 0  3.532258252975026 2.659346641423311 0  2.00430485183193 2.376719565827891 0  0.4331302754771595 1.946840508231322 0  2.408860759493671 2.893422591869993 0  2.39367088607595 2.893422591869993 0  3.882366738574842 1.845202263100726 0  3.126055059325121 2.061246740007859 0  4.662807198685962 2.683578047941693 0  3.714434282889342 1.822282697668563 0  3.541038620771809 1.795398037401189 0  3.360128682556461 2.668115784611444 0  4.847869436770226 1.151061032171084 0  4.58061847032844 0.5234432862458925 0  4.696624647334012 0.4127277039529476 0  4.483589102618023 0.3727124757310745 0  4.789316355981073 0.2568197195119906 0  2.824322836909153 2.26784501520595 0  3.267242555949669 2.653354941179597 0  0.7480799558343421 2.576663588921825 0  4.926543308430761 0.9287881387048418 0  4.955792941620881 2.562164231362033 0  2.378819265269201 2.893099321555018 0  2.363250569273068 2.893291899556114 0  0.8463714690849429 2.573761852691672 0  3.356045311778515 1.759899173022924 0  0.3165893495187349 1.616422148281841 0  2.607810619726572 1.524870257876967 0  2.347905549756011 2.894139761625656 0  2.692498574715444 2.803008427110768 0  4.266352525328942 1.658610150812957 0  3.173727838825994 2.629559974730056 0  4.33818570606075 1.803964324838377 0  0.1330100843526187 2.658744010264448 0  3.831684801025671 2.451077481889869 0  1.175801803279582 2.460356951244005 0  0.9509447090008678 2.568217882961723 0  3.990941857170266 2.467153733341246 0  0.1224640296178539 1.699736846941223 0  3.383156961692965 0.4382248863637599 0  2.340506329113925 2.893422591869993 0  2.325316455696202 2.893250802312902 0  2.329963519407912 2.885536771102854 0  0.9850306184049518 2.851548510537373 0  4.90018750695286 2.359689448401234 0  1.179699893197077 2.660710628418267 0  4.096779332737992 2.478281918216832 0  4.076083456475079 2.428030555815377 0  0.0446012527753008 2.663177626964985 0  0.8420978722545422 2.047906380612599 0  1.274592685841582 2.666570743554335 0  4.125885943432181 1.639293661018093 0  4.170949084794371 1.479183636674553 0  1.998899908399392 2.64427496498411 0  1.702117527429837 2.633946277340211 0  0.1443838737026981 2.739626759982336 0  2.475652347802515 2.815175415727762 0  1.799232122017879 2.636857866008319 0  3.69769573109578 2.172321699963714 0  1.369794797908659 2.667137419021395 0  4.797380829970185 1.544142636572497 0  4.133518786838508 2.801347394248402 0  2.97439805515764 2.832039016024504 0  3.545830787058304 2.406249474996165 0  1.22737416894253 2.214455531606724 0  1.394670990643382 2.407093315657846 0  2.052489526274905 2.838361883919426 0  1.817080053503663 2.368726819460311 0  2.752269676722305 2.798158591350036 0  3.23964968651436 2.374277742468212 0  4.4668591424594 1.16908603424222 0  1.624235205341488 2.361854151603184 0  2.043602673751726 2.646335615011811 0  4.834266570150456 2.866498675477502 0  1.043546354203811 2.125999137006004 0  1.410983725344058 1.916636254219834 0  1.690004929191324 2.36335093282131 0  0.6516240135942919 2.868237742298113 0  1.900974888954774 2.637095936481741 0  3.111535388490796 2.367956029503638 0  2.490660691119717 2.8180099982092 0  2.491944701048797 1.638623172119883 0  0.273195439212937 2.225038819824648 0  4.4415979324369 2.834842618741102 0  4.28731419645019 2.719987746235213 0  3.62443355516597 2.68570241316577 0  1.850648631233309 2.021770194136045 0  2.723918112875644 2.883126961534003 0  1.592434164295771 1.51970454816374 0  3.059558771461938 2.341798643742798 0  2.429115584678741 2.704220563383998 0  0.8790314227700358 1.454293761975064 0  2.262311589505764 2.807524636865677 0  1.305494871817826 2.220395558964433 0  3.210169491525425 2.833928185675456 0  2.644405258517539 2.718897302834831 0  1.839246696175917 1.554752146920206 0  4.348097365508809 1.127333244512195 0  4.32191728088748 1.009640935927213 0  0.3592133573957579 1.539553303328953 0  1.320826609651957 2.864241650197565 0  1.341277202242742 2.286144473473525 0  3.847647761831025 0.9568891813060867 0  0.7830882041605738 1.384012394895408 0  0.606618782037319 1.078400473284698 0  3.377861519254764 2.873553356022246 0  0.4323513601979654 1.805798117710888 0  2.270451264897355 0.8128366808315408 0  2.869856848481646 0.716627266386444 0  4.530890872693856 1.259565149069552 0  3.899858901696157 1.515957118243718 0  1.898676069185402 1.940694652338993 0  1.496352943992378 2.835086482539507 0  2.999320105468608 2.15219520065928 0  0.08415675722841609 0.6554529335929393 0  0.8885890912505685 1.971060728612237 0  2.351446361828073 2.801098323849355 0  2.340031553875811 2.81540410854674 0  2.658238443387819 2.804991485836132 0  2.625022298228125 2.803189794737793 0  2.523229409823808 2.130152582545509 0  4.681331078254416 1.789966221000653 0  4.011864406779655 2.869450959938078 0  0.1339496097118267 1.320108321143856 0  1.677966101694916 2.834300480382254 0  2.546348218297894 2.426149220923248 0  2.184103958308199 2.403644787372191 0  2.643465390785416 2.428537787968423 0  4.020962015551802 2.648317341138419 0  4.916145564814457 0.4619943459828075 0  2.835971726689224 2.39091371855217 0  0.08619907151406103 0.4589404427903501 0  0.1958591497003717 0.4162084054619464 0  0.1985424583165045 0.2752317272000591 0  2.428812665087751 0.8611798198204831 0  3.794648236461951 1.494812712066252 0  3.067935903068814 2.611494609021275 0  0.480839257521076 2.835771429392056 0  3.470090546467956 2.599261861233487 0  4.099403819313494 1.074564008185516 0  2.50025189681565 2.426757328369859 0  2.604766116343993 2.595067033415439 0  4.923815437117824 0.6584059483214871 0  2.535841278381326 2.590162779617759 0  2.761341031837122 0.8640631772835641 0  2.975128017649382 2.723581904662066 0  0.6581738569767848 1.375983372684699 0  3.767023272140193 2.106137489792053 0  3.858509682078797 2.638982975433961 0  2.662560893365813 2.885735163544511 0  2.596419811674324 2.723124738825894 0  4.651771067033154 2.866639781995998 0  0.5368364933380245 0.7578739332477992 0  2.177684916220331 1.880288599456108 0  2.401777958197135 2.418266620350708 0  2.432750976643632 2.366638500058869 0  2.727329593684166 1.664786264597255 0  1.941377202739 0.4586071338088347 0  0.04800393002615877 2.864792404081761 0  2.611109819941278 2.816545881362867 0  2.534074319513446 2.829950250055751 0  2.548289259701317 2.816895110073944 0  2.239850958566221 2.883714797251918 0  2.29813422854837 2.409359750433924 0  2.479258426453269 2.718793474031913 0  2.263483632056142 2.542176341258628 0  3.832113717628126 2.195692091234572 0  2.467587002253889 2.828395999977294 0  2.441455336720424 2.83046588108671 0  0.2615095763291846 2.518340498913027 0  4.353009399510184 2.866840785199836 0  2.200580188896288 2.88059068175205 0  4.485640368106807 2.572595384621393 0  4.019149392757631 2.423127605922205 0  3.213338934477962 2.063596408260231 0  2.462939694426129 2.59120934596188 0  2.560598907756656 2.829767392784425 0  2.393370153943288 2.586403700430809 0  3.041812077012422 2.563587125002914 0  3.553557944296094 1.005061315904189 0  1.566893320366106 0.3674538664890221 0  3.518910218645456 2.093744993801113 0  1.682509227561732 2.170972288770403 0  3.932742750309631 1.780145786025952 0  4.732186715389272 2.465668074281465 0  1.024820475778561 1.728150652761789 0  2.777157695666523 2.854567161129372 0  0.06593283149434903 1.097327131125044 0  4.943504897103999 1.658584701065598 0  2.407304677571285 2.714655349731854 0  0.4054170055843969 1.46458084411964 0  2.373773394948586 2.828820690354606 0  0.8269486473652718 2.30709259203925 0  0.9192897818731245 1.213362912245263 0  2.145165315406476 2.695583835120989 0  0.7393464769723781 1.549934751508232 0  2.175031997032297 1.596491438881086 0  2.214908562749066 2.702211568882762 0  2.6605063778964 0.6767264555930048 0  2.35471513529564 2.710938057347205 0  2.330736203038047 2.714901217853549 0  1.721475413649652 2.320256544632431 0  3.8417519695661 2.835322138154179 0  2.237622638656868 2.580608389125166 0  1.78294103116685 1.943310146126138 0  2.31914964891217 2.591749081254053 0  0.470894231588074 1.87580994196502 0  2.310126582278481 2.893406540151481 0  2.29490112200728 2.892500984689369 0  2.286716347838205 2.891967281092015 0  1.617134814823692 2.86688476921089 0  1.870517414483722 2.833208110613858 0  2.332488636784141 2.82881361257468 0  0.4687298877123283 1.714517858404992 0  2.622043457676203 2.893066104585048 0  2.704942602655998 2.893986177726762 0  4.120830648389554 0.4006419341736069 0  3.940223438121406 0.3518171950833564 0  2.794609104431357 2.668490393787831 0  1.07021207715933 2.785829415769415 0  3.010488038044939 2.734376340249074 0  0.4237416932615412 0.5201436173639673 0  0.3349052406073181 0.3937154489423171 0  3.276895035945054 1.988597094877009 0  2.346600337774176 2.830026645804477 0  3.153890099352675 2.873856196463916 0  2.271955440572352 1.490310580486274 0  0.4572283737074576 2.693286855910555 0  3.471186440677963 2.836556262909056 0  2.27546757080286 2.705797462227585 0  2.247917159049414 2.889685689870061 0  0.914531668918567 2.517756957762005 0  1.94155091045379 2.386349621878978 0  4.200326830952203 0.9701709792516304 0  3.439073872024303 2.087199078140961 0  3.971371215225808 1.45480692926489 0  4.946658000332785 2.015886826996739 0  4.86165780349287 2.830840139915615 0  3.044397205029677 2.063515165789612 0  2.326203058835946 2.814571234078463 0  4.126306615455848 1.383044117962853 0  1.142200599871926 2.874475481012348 0  0.06521956624383618 0.7462765956772257 0  2.590792139708376 2.893622990609128 0  3.344651722289079 1.451137634140335 0  2.013365252917368 2.83687408500635 0  3.366463824932575 2.090113437925992 0  2.71485119352809 2.88491695033312 0  4.129450898801826 2.433622669313337 0  2.454430379746836 2.894074661059798 0  3.021566186402708 2.294310237573518 0  0.5499808603709351 2.188305823115668 0  2.435055306077442 2.886138251131737 0  4.921458508514091 0.2566250579485723 0  3.639617477180875 2.839521639508592 0  2.655964372553397 2.819853995316635 0  0.08486722656852352 0.259831528049782 0  0.5493894228337566 1.861908547995259 0  2.295069596463048 2.679615905693175 0  0.1109217678216163 1.899952632823807 0  0.05727874203745742 2.020617723530119 0  4.654027290121135 1.721440960671207 0  0.7741498231331747 2.531209800114013 0  2.220557030815582 2.884001176891143 0  2.252700444656326 2.823112706375518 0  4.423222109378284 1.427844310511194 0  4.068246547516499 0.955359305422134 0  2.735411828837824 2.892985001620569 0  2.71995009060125 2.892353648562739 0  1.721713038317061 2.83601144107277 0  4.380133300962481 2.834870010328175 0  3.972941232845651 2.640008183207117 0  2.433558049127409 2.862139354188875 0  2.666164976454287 2.878040419298209 0  0.1356480482124303 2.568151540834206 0  3.970737359751497 2.428902146451432 0  3.574288001399206 1.496427580045752 0  1.501905068688107 2.762594643039148 0  4.884265855519464 1.835544649311777 0  2.679603166476635 2.870285350479852 0  0.122189602786912 1.540687246083965 0  3.423950335208331 2.406823363670753 0  4.89774850228061 2.10870212165266 0  0.7540218803861487 1.919019567277883 0  2.357084109244024 2.369894534412086 0  3.422712660637462 2.831894302575928 0  2.27305209869891 2.89221762151102 0  2.548165426817863 2.721867882030492 0  4.713997540237335 2.40874131182001 0  0.2928952877105049 2.468514791223067 0  3.068820376243736 0.2003161088527672 0  4.312652041011473 2.68384295677672 0  2.685226837047924 2.817642963080949 0  1.586864364395651 2.832107426805586 0  0.2624024171378667 2.836326612567399 0  0.3599060934761993 1.37823415019035 0  3.018633274594822 2.834939896092294 0  1.546234024980124 2.875414158816699 0  2.752280836437645 2.891631804975234 0  2.507511855302714 2.799560686269619 0  0.3278482838898151 2.4187343136594 0  3.451267739906741 2.55061561274749 0  4.226730437664891 1.739485776995279 0  2.712984401615918 2.803123639475977 0  2.741224716334663 2.573645884836531 0  3.47140896834896 1.46821134419656 0  1.090930797173889 2.745455382855148 0  4.863048916315647 1.238821116832373 0  3.036330930060112 0.7587848008517243 0  0.03445620598934784 2.773507394140983 0  2.189444323464545 2.577430947763946 0  2.682618584272682 2.894218883070763 0  2.029253989191887 2.034270289033148 0  2.391988649141912 1.647087927638446 0  4.035445234886457 2.839991809502811 0  3.715511047842716 2.441519165732876 0  1.588910115873221 2.305035850616263 0  3.092599842663182 0.9382774464594177 0  0.3412083866941895 1.685952228069426 0  3.27674745252688 2.326098054324747 0  2.279831656418052 2.884924486439529 0  0.1619280911476886 1.226848486665359 0  4.678740039026234 2.834789274020814 0  2.766070730525589 2.893026290700693 0  4.830633430559104 0.6157417207649535 0  4.696525919698697 2.350997408180211 0  2.364844917333115 2.814920360441648 0  2.911876985286863 2.844491432484058 0  4.193516566183982 2.874748120738896 0  1.436480793638203 2.35571029089679 0  1.586902542645886 1.945678634364514 0  0.1027079767186114 2.105141253511745 0  2.79957957192846 2.872307658969912 0  2.21688928973101 2.353707632868414 0  1.970438516629839 2.837599454899264 0  0.752979543406828 0.8789606490288774 0  2.264674161390646 2.89195316190597 0  2.515404846149 2.886877036812126 0  4.58934351433383 1.718640888681613 0  2.288157750404955 2.354504862618806 0  3.899612562524046 2.871259096821818 0  3.839954807087518 1.767653663752237 0  3.369008136619481 2.394121134225191 0  3.860133684701944 2.870066076497995 0  2.049216382576551 1.578833028467255 0  2.519769425240765 2.869000006699964 0  3.741152755313882 2.670145606710126 0  0.6778807187255347 0.9711192216721174 0  1.006973000528208 1.311588904407839 0  0.3995427240707534 1.275674872334549 0  4.914775658742373 2.592861306979235 0  4.513153352304123 2.537417603889503 0  1.123054887759854 1.72792349231549 0  2.773090299528803 2.893607240287091 0  2.788125448224398 2.892343876659345 0  1.189439103934673 2.153988622974936 0  2.226210981929179 2.892533544254836 0  1.116395342381845 1.460474262497108 0  4.966009140557925 2.775779317252133 0  2.32571123900274 2.877409260893328 0  2.493110925910208 2.831290970280013 0  2.622020886037906 2.063374546445061 0  1.142473204107664 2.39931119421589 0  0.8756055255894402 2.872724389118345 0  2.218933239674032 2.893437768804126 0  2.400536617899798 2.830839585023527 0  0.1257433293212729 2.704887747693082 0  2.764580978234627 2.861713164371783 0  2.760384782212596 2.885540300017451 0  1.770547087229577 2.876180448741231 0  2.521289665801928 2.892683165598551 0  2.557033398576851 2.801508209296893 0  1.817605691048835 2.834352079441866 0  1.921114148115806 2.876382662329627 0  4.558013147710964 1.608677941473957 0  1.643612483887774 2.110509963344307 0  4.144141822754299 2.837827958097693 0  2.745108543670375 2.698024237975568 0  0.5190321008784924 2.132239206211925 0  2.383290642167687 2.886955375246652 0  2.321185922220086 2.885896554375039 0  2.359647966789757 2.782675713114018 0  2.423197898952066 2.875410088212565 0  2.261152755344415 2.676763498612822 0  3.81348531034744 2.398669120735794 0  4.162089557930884 2.391428307926932 0  1.071184754226486 2.705727315515618 0  1.754819945375547 0.4107555164033401 0  2.679053467197678 2.887286008921965 0  2.567040023486497 2.876188286889587 0  2.807979301915333 2.640233332698361 0  2.615787611850137 2.87744789327871 0  0.5506048310994802 2.588578327758426 0  2.286942656503683 2.828403101346072 0  4.789527063242668 2.324968609307421 0  3.748941307169877 2.39575147776201 0  4.860895799781249 2.442143213039911 0  4.393292449759382 1.332169416022746 0  2.739240506329117 2.884814679144317 0  0.1017039887032274 2.219935515730177 0  4.849067134089147 2.045512951798372 0  3.061936778888097 2.774314006246415 0  4.818172812078139 0.5036312575781282 0  1.599867781728736 2.632688775942953 0  1.798289733075153 1.448377952571331 0  0.8932684909485675 2.307389758141773 0  4.728158406750822 2.779165681350616 0  1.583993358987785 1.1157465405549 0  2.16416783316401 2.665123590146113 0  4.297280084457862 1.99990427131355 0  1.957468729456916 1.472071960315653 0  2.229717305522398 2.885126387362604 0  0.4462122592157534 2.84071999801438 0  0.4770976308891668 2.758728813088035 0  3.075820291125797 2.814601217631113 0  1.22276518835154 1.456664196019823 0  3.683208366495566 2.835598985937397 0  4.893002089500868 1.622492420522691 0  2.871359752868847 2.345274135683401 0  2.721925285494978 2.789269357515252 0  3.248730489508382 0.9683896774572534 0  2.662158832703703 2.126278112651122 0  1.782543192341703 2.313304016503495 0  2.387255391448044 2.870043546440458 0  0.4775404663171456 2.653319897438204 0  0.8489370655973811 1.073087812080432 0  2.834354484484485 2.757164536729307 0  1.663852021967165 2.3064083516452 0  2.242476120868429 2.893702696434616 0  2.289620748578947 2.119294480420884 0  2.6740927343468 2.802492766614667 0  4.479784430886309 2.841481699446183 0  2.625807223336127 2.818977719697555 0  2.359541333607504 2.887132925642852 0  3.885684686817219 2.459427088748841 0  1.644103074471122 0.886679794140204 0  2.617247411923813 2.387800911393799 0  2.875799935233385 0.1933620116603916 0  2.313968377400673 2.887697173470754 0  0.5822271742912295 1.973393535560059 0  2.611899747678741 2.867997257600107 0  2.481703846332501 2.887962951591462 0  4.281442388401512 1.885424060539047 0  4.293375211034304 2.641167109497278 0  1.527510760302732 0.1890999772395603 0  4.778294143521386 2.108580516518518 0  2.616196833600843 2.78740329008654 0  3.89212638855231 0.1789178940371949 0  2.105776984556251 2.051657392404754 0  2.501777838120645 2.811696374500996 0  1.667312153476952 1.442666026002588 0  4.922753167303835 2.835315589895107 0  4.194196794636298 1.666564324177668 0  0.372338247311534 2.426961566330693 0  0.09622560379455258 2.307394247944478 0  1.109411421163451 2.350252360038457 0  2.170158673612035 2.537270845267141 0  2.482768607648514 2.069640417944997 0  3.059974452722888 2.195897431040581 0  3.762098751282744 1.773096945721407 0  3.176675954147465 1.727542384383635 0  2.183156164052943 2.846094615328785 0  4.908525818290441 2.73422823276836 0  0.3953783626924285 2.344909503785844 0  3.611097182673849 2.645049443817419 0  3.795175497291115 2.872211201370862 0  2.62600910202285 2.88726055942607 0  0.2478759158981547 1.240353918183901 0  4.367704307250118 2.252313218550967 0  2.767498883874563 2.782397581383877 0  2.556087717734385 2.888046476423126 0  0.8182276894435556 2.539603843279874 0  4.018573145356403 1.369706271167444 0  2.299407113759993 2.886541934104473 0  0.1048469657836679 1.764248687073093 0  4.567786826260004 2.197910677968475 0  3.92468208784356 2.414712836965208 0  2.064499189709996 2.809718403098778 0  3.738780061980488 2.848188362917203 0  0.05794895460908878 0.9240743207501385 0  2.26048673132679 2.883858814138855 0  4.755771497377609 2.745923853028236 0  0.6425335315256735 1.850609209475667 0  3.246192244999361 2.84153993526762 0  0.4064022872079822 2.84017908708476 0  2.630027456813815 2.701714686854739 0  4.467543260030697 2.236380057062204 0  3.932027367817526 2.634721061461904 0  4.895961038178156 1.903112349793152 0  2.674832337063948 2.878547441264639 0  0.4588965681548318 2.812295687399438 0  2.306329113924048 2.88684518373398 0  0.1710120041395706 0.5088698503569508 0  2.253393883239688 1.883529788120422 0  0.3749655675413854 2.292779401103808 0  3.217594153996283 2.321153230053503 0  4.626955284905351 2.129587038513558 0  4.825034723148572 1.695746527847326 0  4.900196300766503 2.192075676601156 0  2.11580327057752 2.815180041812348 0  1.494636562488516 2.370202442546681 0  2.311248227846879 2.816845750115523 0  2.216405896946445 2.825906260640933 0  1.48778411338034 0.8754347481441636 0  2.686981993761531 1.56829006059953 0  0.5256047408869682 2.512902347882998 0  0.1186583558648984 1.385709873900246 0  2.762468291416977 2.670646276287497 0  4.892364960285253 2.840587481342959 0  4.877434716865969 2.622068765273807 0  2.753828368836681 2.86596432737119 0  0.7289586451390537 1.852941179173716 0  0.1384423659800822 2.476525088821997 0  3.691978690525773 1.748665551278539 0  3.598434602267261 1.73283382922198 0  2.416135674292927 2.069700534924399 0  4.066292495693529 2.705751077804175 0  4.159019230201433 2.781313148203239 0  3.223139880114043 1.432805281382232 0  3.706582184334374 2.660213588322447 0  4.443627327464483 0.5015575711914109 0  1.093780764297036 2.669842598072567 0  2.608590179614904 2.857512263341558 0  0.3629444775963417 2.838574489581134 0  2.55859351292844 2.703026042256622 0  4.726642319817191 2.096433381886926 0  4.407490437671977 0.9522180608885547 0  2.243329558795112 2.802152548967145 0  2.331148364990054 2.868617670918438 0  2.736618689246068 2.786749253411406 0  0.8609216879579744 2.845108364540168 0  4.215586588791839 0.2469571047962376 0  2.199540047598063 2.820949370046326 0  0.6408858333051943 0.6904305598107052 0  0.5768009729055672 0.542175936029992 0  2.589987765119459 2.56606098077141 0  3.511724359472962 1.723387737321666 0  0.1387266440874679 2.379298427132801 0  1.574446648468112 2.591676330231505 0  2.68499785422924 2.861785598156571 0  4.125399638981516 2.726514010124625 0  0.1512040961532941 2.115176803665431 0  2.867545667832513 2.875334563071781 0  2.162893764079889 2.864691814517343 0  2.429975845013666 2.879126389873321 0  2.626871120535067 2.861289928052476 0  0.0213230164048448 2.878749021608082 0  0.322825204224328 2.841767021560041 0  0.2365427708082528 0.1589947952474191 0  3.051503118824388 2.834200726554626 0  4.974210081744069 2.869705346474883 0  4.896613953246394 2.059334306290431 0  4.549013596412969 2.23583671128093 0  2.997407311151137 2.565700268110342 0  1.77201685083546 2.598172340468167 0  0.6333750476977564 2.847336378794898 0  2.232928051991211 2.678581287815035 0  1.556785798635101 1.877419281431812 0  4.442274617612785 2.802452836810144 0  2.827686507743395 2.858494509769402 0  3.079753008735592 2.877778135794938 0  4.876279230073264 1.309266726856648 0  2.444841835632923 2.561967898586954 0  0.9279207505134373 2.849245342165514 0  4.680946156375001 2.139698991535946 0  4.933810385481994 2.802505349547151 0  2.444053317359534 2.861477200128981 0  2.447895100046487 2.820978751732856 0  2.549830428048622 2.887866678185415 0  2.249367088607595 2.895393099615728 0  1.523333225839357 2.730500749401483 0  2.468400098408392 2.700082451172411 0  4.940949138871356 0.7451864520094231 0  1.7097982324129 1.999259781828204 0  1.190505885564414 2.845230960206284 0  4.711645858243939 2.839338842019345 0  3.507598941108498 2.844063129319876 0  3.248387518948405 2.615073884921878 0  4.514173095499979 2.844835799874965 0  0.2491804827015329 2.112652297802907 0  0.3073781979348844 2.191451861418138 0  0.2878150005780844 2.275934755974006 0  3.919019122368785 2.845372632664993 0  4.81433877062133 0.3979117682031006 0  3.665033153262474 2.701583838216049 0  2.48198937777358 2.790826376924173 0  4.274416799341248 2.60358294016796 0  0.8494487581166958 2.404767641040302 0  2.347290840079804 2.88735240360682 0  2.367912497631583 2.768480876706614 0  4.500006503077783 2.501205122748584 0  4.067336790050173 2.845018090978048 0  2.488607594936706 2.888365144912614 0  2.586866473779846 2.888821692382392 0  2.536539743648752 2.88954689352032 0  2.921386338857284 2.023753894722685 0  3.117895297692368 2.316468165955896 0  0.5276403559176481 0.2062580647787673 0  2.498900014637436 2.78864025731916 0  4.740718704658067 2.705325398767262 0  4.410457017369801 2.841651427480433 0  0.7776962539819894 0.9834928844961343 0  4.450981636891346 1.258722371058602 0  2.637666707511313 2.858987204756551 0  3.245780619866261 1.659793303429442 0  2.502239274401556 2.886903374710923 0  0.2684720993718952 2.808048391098406 0  2.647635340393439 2.88758972537268 0  2.718481629671357 2.865076441076707 0  0.8118728179885941 2.838710762941248 0  0.287737739146797 2.785621891234761 0  3.045271440902438 2.731345552939766 0  2.385670703921106 2.862128827954779 0  2.601107544782734 2.70258295749554 0  2.724404562626058 2.873174713703817 0  0.2105103971039681 2.838260386030907 0  1.152638056520965 2.845054662627976 0  2.518097125896809 2.861247528509399 0  2.94770134853059 2.848902601050686 0  4.462500643533915 2.781569543582318 0  0.9038624895785303 1.345846437850275 0  3.831370190924254 1.063708710532896 0  1.342764057834307 2.84662392951159 0  0.9929122960977212 2.36552871024193 0  2.392220008206853 2.691479727688673 0  2.496174886788593 2.698562539294138 0  2.405063291139241 2.8884151616438 0  4.60636571981162 1.575131742487885 0  0.0481285409041412 1.917479999669141 0  0.7872539360660449 1.479487448165563 0  2.863300983425699 2.635512630470052 0  4.18458189181858 2.844691457246921 0  1.292287520002056 2.838347944022057 0  2.770753802183552 2.156108382552185 0  3.301284321557612 2.622549844119817 0  2.430289252275911 2.723151720722183 0  2.532797357926121 2.895001291556778 0  0.1692455363900716 2.84030533455344 0  0.9877006638961654 2.878969473198789 0  3.341638690498967 2.634854242993543 0  2.302780968781913 2.830483216289727 0  2.778633967161238 2.28566114280942 0  2.128617132650021 2.409468166698479 0  1.183936339738606 1.634420482139235 0  2.689578377333135 2.8953176462772 0  0.9131249480578654 2.875153680748033 0  0.1501148612324421 0.8447446433533277 0  4.550021530484893 1.476949015501466 0  2.526463732328452 2.726585430084683 0  2.024036086180916 2.608777746682307 0  2.661650183859642 2.869924550354624 0  2.522457565846102 1.549512210418626 0  2.393051715827645 2.133894682288351 0  0.5518675177811128 2.070480620346359 0  0.1199240781685509 2.614151741984754 0  0.6629076277617492 0.4400208130297152 0  2.732064339023255 2.886077023019555 0  3.660364009868781 2.444164062875549 0  0.09539940510601941 2.057741655536821 0  3.743994484975032 2.8744052449845 0  2.863810024657846 2.761685389206623 0  2.352614598878736 2.818238019674094 0  </DataArray>
</Points>
<Cells>
<DataArray  type="UInt32"  Name="connectivity"  format="ascii">698 1866 2660  1725 1729 1819  834 1095 1957  1388 1753 2960  633 2096 2806  776 1736 1972  1872 1875 2532  454 525 2466  369 1778 1779  2017 2019 2716  2130 2803 2873  486 1902 2028  298 1790 1816  972 1948 2763  325 1899 2826  1140 2122 2368  362 1734 1777  889 2668 2789  1353 2404 2555  2229 2618 2743  255 1710 2521  322 2156 2966  298 1790 2487  1439 2065 2096  1526 2096 2806  979 1795 2503  540 542 1822  1109 2038 2625  2518 2519 2520  540 548 1822  1554 1722 1723  2256 2322 2899  2017 2018 2019  1612 1892 2434  969 1878 1965  1202 1510 2189  295 2084 2774  1610 1775 3033  348 1699 1967  2014 2084 2774  2208 2404 2555  1224 1388 1753  1434 1708 2295  407 2519 2520  1202 1203 2189  1005 2451 2469  1654 1738 1739  305 2031 2444  552 2418 2991  1439 1526 2096  1030 1820 2082  2601 2909 2915  1210 1686 2332  385 1743 2116  2356 2451 2469  924 960 1769  1879 1882 1883  1350 1687 3046  1619 1744 1745  353 1817 1819  712 2087 2224  2236 2563 2652  1582 1791 1793  1210 1686 2910  1849 2429 3052  734 2214 2216  1937 1953 2670  404 1777 2109  2041 2374 2452  1388 1732 2960  1033 2867 2960  316 2069 2383  684 1693 2295  1350 1687 3084  512 530 2204  1191 2641 2683  1074 1230 2252  2446 2716 2877  980 1756 2497  35 348 1967  1442 2294 2303  535 552 2418  721 1708 2295  1723 1725 1729  1450 2343 2394  1872 1874 1875  713 2319 2821  1355 2192 2471  1882 1883 1884  1505 2256 2899  1648 1771 1772  1340 1713 2220  1634 1800 1831  1353 2404 2564  369 1778 2814  881 2006 2007  2157 2194 2384  34 35 1967  2041 2374 2441  161 316 2340  892 2374 2452  1849 2429 2799  1440 2119 2671  873 2145 2448  1644 1759 1762  362 1777 2109  449 486 2039  684 1693 2961  2055 2404 2564  1865 1866 2660  1610 1613 1775  1878 1965 2597  1340 1713 2219  1792 1793 1794  2505 2537 2947  388 2073 2599  862 1135 1874  1671 2078 2837  486 2029 2039  374 2675 2775  1630 1801 1804  341 2310 2312  376 2312 2433  2031 2116 2444  1388 1732 2454  247 1826 2942  2058 2160 2186  1933 1948 2763  1419 2301 2437  929 1808 2499  776 1736 2684  2668 2789 2844  923 1766 1767  1368 2293 2565  1706 2094 2247  674 2143 2648  1551 1554 1722  726 1982 2115  714 2086 2094  348 1699 2048  1318 1533 2286  548 1711 1822  1667 2053 2390  1659 2421 3032  1355 1533 2471  2061 2325 2405  1135 1874 1875  1146 1154 1998  1688 2319 2821  251 1733 2212  721 1708 3154  2066 2641 2683  378 2325 2405  1884 1885 2561  1146 1998 1999  317 1976 2080  1885 2561 2585  1244 2162 2163  247 338 1826  1633 1797 1798  958 1894 1896  1984 2087 2224  658 1942 2484  979 1795 2754  1993 2675 2775  454 456 2466  1759 1760 1762  1498 1946 1969  1638 1781 1782  897 2374 2441  988 1969 2702  1022 1025 2024  1419 1673 2437  1255 1520 2220  1141 2199 2980  674 1954 2068  1582 1584 1791  915 1694 2409  1836 2179 2367  1952 1975 2990  734 2214 2215  1969 2702 3061  1440 2119 2652  2172 2173 2369  768 1704 2304  1680 1900 2358  1621 1654 1738  255 407 2521  1683 1853 2944  960 1769 2416  512 514 2204  2059 2407 2759  375 2194 2384  2020 2152 2839  676 1953 2670  1760 1762 2221  1565 2270 3027  1533 2286 2658  1141 2199 3001  885 2394 2925  1527 1902 2028  1678 1899 2826  1095 1957 3023  1434 1693 2295  658 1942 2809  1227 1848 2352  384 2656 2827  2045 2046 2320  881 2006 2955  304 2057 2059  1791 1792 1793  1565 1568 3027  525 1959 2466  373 1834 2410  714 2086 2507  1446 2128 2718  1627 2665 2666  855 2010 2530  1732 2867 2960  352 1754 2619  2132 2656 2827  1634 1800 2509  1640 1651 1901  1403 2225 2918  1559 1619 1744  1706 2094 2133  1449 2212 2544  886 2179 2367  328 2715 2798  1238 2473 2911  1820 1822 2082  2121 2122 2368  1021 1022 2024  2003 2005 2006  1715 2826 2972  402 2106 2768  2032 2072 2075  534 1873 2731  1683 1853 2762  1615 1648 1771  2354 2715 2798  2091 2172 2369  1659 2769 3032  1685 2522 2923  899 903 2222  929 1808 2498  928 931 1859  2032 2072 2599  1620 1890 1891  1109 2038 2866  383 2407 2759  1431 1982 2115  2144 2145 2448  338 1823 1825  1040 1721 2420  297 1847 2547  2058 2160 2733  350 2125 2983  1289 2243 2506  1954 2068 2680  1058 2101 2559  885 1736 2684  1756 2497 2498  2292 2293 2565  335 2803 2873  1671 1973 2078  647 650 1987  390 2152 2839  920 923 1766  1604 1644 1759  882 2009 2771  1898 2618 2743  1568 1752 2945  1219 1680 2358  1794 2360 2361  542 1822 2082  1932 2143 2648  2010 2077 2530  1440 2563 2652  2280 2611 2718  404 1777 1778  1996 1997 2412  484 2297 2580  1713 2219 2307  2238 2480 3017  371 2426 2427  1785 1795 1816  406 2638 2727  1442 2303 2543  1774 2713 2714  869 1663 3000  1452 2066 2278  2087 2507 2737  107 108 2285  1649 2623 2760  1505 2254 2549  834 836 1957  1317 2489 2653  2621 2831 3166  341 2312 2525  406 1679 2727  915 1694 2974  329 2152 2716  413 782 1758  1976 1977 2400  1854 2780 2981  2148 2243 2506  1448 2104 2347  650 898 1987  2262 2273 2274  869 1663 3101  2229 2618 2963  1403 2225 2732  1689 1988 1989  350 2125 2921  1446 2611 2718  353 1817 1850  1787 1795 2503  2017 2716 2877  1086 2119 2397  1596 1633 1797  199 323 1839  1834 2165 2410  2085 2094 2247  1238 2093 2473  383 2406 2759  842 1812 2556  882 2009 2607  322 2966 3048  1586 1638 1781  2100 2101 2559  1578 1630 1801  1634 1831 2495  1099 2522 2923  1555 1728 3044  865 2220 2363  1654 1771 1774  1996 2375 2412  1069 1824 2703  401 2130 2803  2086 2087 2507  1515 2269 3003  1667 2053 2860  2005 2909 2915  2394 2395 2925  1450 2343 2544  2044 2045 2320  340 2212 2544  1144 1394 1999  1635 1784 1785  1435 1743 2116  1446 2128 2823  342 2093 2355  1230 2252 2929  1581 1583 2177  1011 2284 3075  1455 2480 3017  1035 1720 2408  2072 2073 2599  695 723 2103  304 2057 2423  404 2109 2663  377 1899 1900  1388 1666 2454  1069 1824 2639  2151 2301 2329  1715 2628 2826  376 2312 2525  1140 2122 2558  2106 2156 2676  299 1776 2134  1716 2226 3045  1065 1066 2050  1401 2297 2580  933 958 1894  1870 2701 2731  250 251 2212  1485 2706 2927  1227 2081 2352  1606 2257 2672  1244 2162 2386  391 1838 2832  942 1879 1883  723 2103 2104  303 2392 2510  1351 2182 2633  407 2519 2521  1540 1541 2078  1914 1952 1975  2406 2759 2921  845 2740 2977  1330 1814 2166  1255 1713 2220  316 2069 2340  1088 2306 2435  353 1819 2720  400 1819 2720  1507 1854 2981  1088 2305 2306  1554 1555 1728  1487 2456 2843  715 2066 2278  161 162 2340  338 1823 2235  961 1962 1963  1074 1075 2252  1402 1865 1866  521 2601 2915  1300 1996 1997  1354 2069 2383  333 2126 2175  1654 1774 2825  328 2250 2802  1572 1640 1901  859 1898 2743  1515 2269 2787  1943 2227 2484  1340 2220 2363  146 147 2355  548 1711 2357  1319 2255 3003  1810 2537 2947  1897 2665 2666  947 949 1886  323 405 2837  2613 2649 2703  949 1886 1888  892 1855 2341  765 2575 2602  1692 2296 2920  885 1736 2394  2002 2003 2005  1430 2232 2235  1011 2108 2284  328 2250 2798  1065 1251 2050  1887 1892 2434  1039 1185 2018  1194 2021 2022  1612 1892 2870  1977 2380 2400  2597 2769 3032  768 1704 3026  2038 2625 2962  1609 1897 2176  1194 2022 2023  443 2471 2998  1270 1328 2075  317 2080 2249  1142 1867 1871  1224 1753 2332  1761 1847 2547  1467 1485 2927  963 969 1878  1925 1945 1949  862 876 1874  552 854 2991  342 2093 2473  679 2195 2682  1805 2488 3099  323 1839 3064  1919 1941 1950  906 1072 1701  2698 2853 3125  1185 2018 2019  330 1743 2790  2262 2274 2741  417 560 1862  1003 2226 3045  1488 2136 2728  308 1846 2707  962 1766 1768  1292 2277 2536  1642 1799 2393  1870 2849 2915  251 1733 2952  957 1879 1880  534 1873 2818  1649 2416 2623  1867 1868 1871  1419 2301 2329  2230 2594 3101  1707 3038 3039  530 1181 2204  931 958 1859  107 298 2285  521 2849 2915  317 1976 2400  1642 1797 1799  926 2298 2951  679 1953 2457  1627 2666 2681  423 2296 2920  1811 1851 2968  923 924 1769  1487 2456 2879  1368 2293 2427  305 2031 2988  1689 1989 2318  2118 2119 2397  2277 2278 2536  385 1743 2610  1941 1950 2184  1648 1772 1773  331 2073 2372  977 2492 2842  338 1825 1826  936 1983 2493  401 2130 2903  1774 2713 2978  318 1717 2268  1651 1756 2498  330 1743 2610  903 2222 3135  299 1776 2146  2449 2567 2801  1677 2146 2748  1877 2258 2504  1330 1814 2194  1181 2200 2203  548 2091 2357  1301 1984 2087  326 2132 2165  1635 1781 1784  1581 1609 2177  1792 1794 1796  953 961 1962  2266 2305 2438  969 1964 1965  352 1754 2997  1498 1969 2913  986 2184 3130  1195 2283 2616  380 2429 3052  1568 1752 3050  1554 1723 1728  1647 1965 2898  61 62 2109  1784 1785 1816  2257 2561 2672  447 449 2039  1678 2826 2972  1181 2200 2205  846 1815 3084  845 2420 2640  1651 1901 2894  323 2078 2837  1449 1450 2544  2293 2426 2427  1795 1816 2285  772 2191 2208  341 2310 2316  1525 2138 2442  970 974 2042  2361 2842 2875  1620 1890 2673  2428 2733 2790  1805 2488 3073  674 1954 2648  721 2122 3154  1110 1402 1865  358 408 409  2097 2098 2351  491 2219 2307  972 1948 2705  381 2250 2617  1914 1951 1952  798 1731 2653  1471 2698 3125  2113 2149 2243  298 1816 2285  559 2138 2442  1300 1995 1996  242 2210 2211  697 2102 2103  437 493 1981  878 1142 1867  928 1859 2298  1003 2183 2275  1233 2241 3017  2230 2594 2755  451 486 2028  1953 2457 2710  1510 2188 2189  1514 2473 2911  1354 1992 2326  1035 1720 3104  2098 2351 3043  1703 2370 2379  1568 2945 3027  1538 1540 1541  171 2845 2848  403 2331 3055  1630 1804 2360  734 2215 2568  1595 1597 2174  2238 2241 3017  761 1040 2420  698 1866 2645  707 899 2222  958 1896 2876  965 1974 3118  1609 1897 2665  1680 1900 2271  969 1962 1964  2392 2436 2510  726 1982 2140  782 1758 2840  2667 2735 2933  2029 2213 2926  2180 2182 2633  89 90 2146  1328 2032 2075  1811 2968 2999  1144 1146 1999  727 845 2977  1344 2171 2248  2019 2152 2716  1590 1635 1786  238 239 406  1961 2011 2077  1725 1819 2752  1044 2016 2018  254 255 407  1021 2024 2025  1619 1745 1746  367 2287 2288  1853 2762 2987  1546 1966 2872  1319 2255 2256  2000 2325 3127  1088 2305 2438  1435 2030 2116  1511 2155 2328  1183 1869 2002  1222 1689 1988  1102 1700 2123  1027 1194 2021  1072 1701 3165  1677 1776 2146  483 2236 2652  1480 1979 1995  1707 2657 3038  441 443 2998  778 1040 1970  1507 1854 2052  1723 1728 1729  1912 2486 3012  306 2449 2567  1003 2275 3045  845 2615 2640  1008 1012 2055  916 962 1994  2091 2357 2369  1644 1762 1763  2215 2448 2568  2419 2794 2805  2159 2160 2186  1025 1194 2024  1541 1542 1543  250 340 2212  1942 1943 2484  1549 1551 1722  362 1734 3142  2114 2590 2969  1069 2649 2703  897 2067 2353  958 1857 1859  1543 1545 1546  486 1902 2029  385 2116 2444  476 2036 2037  1687 1815 3084  945 957 1879  1625 1770 2784  2591 2616 2709  2659 2660 2789  1674 2090 2187  1117 1484 1968  938 954 1893  240 358 408  1502 2250 2617  312 1840 2548  1817 1818 1850  2171 2248 2764  867 2800 2854  1745 1746 1747  1555 1625 3044  498 2053 2390  377 1900 2271  923 1767 1769  1869 2002 2005  2029 2039 2866  1718 2800 2854  1765 2393 2436  1908 1914 1951  720 2098 2099  697 700 2102  1230 2225 2732  457 496 1978  1245 1336 2076  1680 2317 3151  2343 2394 2395  774 2083 2276  1424 1489 2009  1729 1730 1817  1552 2534 2808  36 37 2049  1754 2317 2619  1188 1718 2854  525 1959 2258  410 1190 2210  2029 2866 2926  965 1974 3029  1545 1546 1547  1478 2027 2620  881 2007 2345  1945 1949 2595  744 768 2304  1346 1437 2736  1636 1722 1724  2361 2362 2875  772 2304 2550  722 2063 2064  331 2073 2730  369 1779 1780  1504 1505 2549  1803 1807 1808  242 2211 2949  1154 1300 1998  669 2068 3067  325 1899 2692  297 1847 2545  1333 2083 2276  1030 1820 3010  1044 1046 2016  2621 2622 3166  645 647 1987  1528 2080 2249  1518 2575 2602  1463 2356 2451  1189 2012 2014  842 1812 2557  1858 2666 2681  1505 2254 2256  787 1071 2053  633 635 2096  1102 1104 2123  1917 1941 1974  669 2195 3067  1868 1870 2731  1781 1782 1784  1625 1744 1770  1645 1759 1760  1760 1761 1847  358 410 2210  2145 2786 2847  1797 1798 1799  1876 1955 1956  2035 2040 3114  1169 1301 1984  344 1737 2799  1771 1772 1774  1999 2000 2325  1948 2267 2704  2027 2788 3016  344 1737 3120  967 974 1878  1638 1782 1783  1319 1515 3003  832 2054 2055  1621 1628 1738  1165 2085 2247  1731 2489 2653  1798 1799 1800  859 1978 2743  411 413 1758  1528 2249 2582  695 697 2103  1330 1528 2194  61 362 2109  1628 1657 1738  1780 2323 2538  147 342 2355  721 2121 2122  199 1839 3047  1688 1689 2319  1498 1946 2815  2079 2387 2824  1782 1784 1790  1268 1270 2075  798 1731 2992  962 1768 2924  995 1231 2067  723 2104 2347  1998 1999 2000  1981 2283 2616  2279 2762 2987  1765 2436 2884  1547 1549 1636  1767 1769 2935  830 1003 2183  1977 2035 3114  493 1981 2283  1595 1620 2174  1876 1877 2258  310 2141 2330  653 2227 2484  1352 1758 2840  958 1857 2876  926 960 2951  804 892 2341  400 1819 2752  663 1905 3040  1730 1817 1818  1889 2621 2831  1063 1187 2052  1783 1983 1985  1394 1999 2325  2637 2638 2727  1814 2157 2194  1766 1767 1768  1535 1838 2832  1205 1499 2026  1468 2056 2059  2012 2013 2014  832 1008 2055  2113 2114 2969  2056 2057 2059  508 2027 2620  1374 1387 2315  1488 2136 2751  846 1815 3085  1979 1995 1996  2016 2017 2018  312 1840 3068  411 874 1758  1613 1648 1775  1374 1376 2315  1728 1729 1730  960 2416 2624  750 2387 2824  1549 1636 1722  1040 1970 2810  1796 2492 2842  663 2143 3040  1679 2726 2727  759 830 2183  301 2488 3099  926 928 2298  1653 1658 2298  734 2216 3162  1039 1044 2018  2131 2132 2165  915 916 1994  409 411 874  956 969 1962  1442 2294 2785  1794 2360 2850  1617 1654 1771  1058 2101 2453  373 1834 3083  1541 1543 1973  726 2111 2115  1724 1726 1727  1259 1480 1995  1615 1617 1771  539 1830 2697  1639 1803 1901  702 720 2098  897 2353 2441  1135 1875 1876  1636 1726 1966  1485 2706 2932  1620 1891 2174  1880 1882 1890  1293 2070 2071  349 2090 2478  2133 2631 2838  518 522 2033  1748 1751 2464  1485 2265 2687  1769 2623 2935  1281 2159 2186  2063 2064 2277  1628 1631 1657  445 476 2036  2347 2368 2583  239 406 3102  415 417 1862  1802 1803 1807  1561 2008 3108  918 920 1766  1112 1330 2166  637 722 2063  1051 1147 2092  1077 1354 2326  487 2136 2739  715 2062 2278  1650 1652 1677  1931 2195 2682  259 369 2553  2003 2004 2007  1555 1557 1625  1430 1823 2235  1650 1651 1756  1274 1435 2030  1803 1901 2894  245 2232 2235  89 299 2146  1557 1559 1744  1882 1890 2257  1147 2092 2782  1061 1222 1988  428 2047 2297  1240 1535 1536  1053 1810 2537  1048 1189 2012  1412 2079 2387  1551 1553 1554  320 2157 2261  1013 1183 2002  1640 1643 1650  1135 1876 1955  2287 2288 2783  1947 2222 3135  1703 2370 3096  912 915 2409  1301 2085 2086  1802 1804 1805  716 1007 2097  1927 2267 3129  912 914 915  1706 2133 2838  318 1717 2904  910 911 912  2164 2263 2476  717 832 2054  2045 2046 3048  1394 2060 2061  994 1227 2081  1242 2169 2437  253 1990 3036  1590 1786 3071  1287 1468 2056  1571 1572 1640  2145 2387 2847  314 2171 2764  892 1855 2452  1639 1801 1802  1187 1854 2052  496 2679 2728  1879 1880 1882  755 2794 2805  469 483 2491  1895 1896 1897  1402 2123 2447  1604 1607 1759  1546 1547 1966  308 1846 2970  1441 2318 2606  873 2145 2786  1643 1664 2270  2102 2103 2467  688 721 2121  1437 2233 2736  2013 2014 2774  2113 2243 2969  1666 2454 2569  1249 1737 2095  483 2236 2491  1893 1894 1895  1325 2144 2217  1428 1736 1972  1352 1758 3038  1538 1541 1542  916 918 962  1485 2265 2932  1386 2289 3002  1927 1945 3129  1543 1544 1545  1296 1529 2125  905 906 907  1831 2495 2496  1950 2184 3130  356 2667 2933  2144 2217 2448  651 653 2227  1607 1645 1759  1845 2035 2040  1881 1887 1892  814 2027 3016  254 407 1990  36 348 2049  1602 1644 1764  326 2165 2410  1448 2104 2562  2191 2208 2555  253 359 3036  1332 2090 2187  404 1778 2814  1409 1412 2079  1312 1332 2187  1871 1873 2731  585 2155 2328  1126 2042 2043  1559 1561 1619  1961 2077 3109  1607 1610 1645  1868 1871 2731  539 1830 3092  1785 1787 1795  789 995 2067  327 2989 3028  914 915 916  570 1851 2958  1553 1554 1555  1536 1537 1538  1232 1976 2080  1338 1680 2317  1561 1619 3108  842 2556 2957  391 1838 3047  1239 1535 2001  1528 2194 3060  888 2306 2947  1132 1219 2358  1351 2182 3021  1780 2538 2871  433 492 1980  836 1955 1957  1746 1747 1748  1266 1293 2070  1557 1625 1744  1230 2732 2929  570 1851 2968  1654 1739 2825  889 2659 2789  797 2113 2149  1843 2048 2049  2232 2662 2892  1584 1638 1791  1368 2378 2427  1617 1621 1654  920 922 923  419 560 1971  1882 1884 2257  1602 1604 1644  238 1712 3053  645 1986 1987  918 962 1766  1745 1747 1749  1613 1615 1648  2136 2739 2751  1536 1538 1540  1912 1938 3012  966 1949 2595  924 926 960  957 1880 1881  339 2232 2892  678 1905 1906  497 787 2053  238 406 3053  2198 2200 2205  1596 1598 1797  415 782 1862  475 479 2118  907 910 911  886 2135 2367  1027 1029 2021  2321 2793 2830  1520 2220 2890  1142 1871 1872  888 2505 2947  1546 2691 2872  1908 1909 1914  1563 1565 1568  2343 2395 2813  1066 2050 2724  963 967 1878  921 1952 2600  1316 1702 2088  1598 1600 1642  819 820 2127  1881 1891 1892  1792 1796 3110  1875 1876 1877  1379 1381 2231  1836 2179 3124  1513 2131 2132  1365 1367 2378  1880 1881 1891  369 1780 2553  2312 2315 2433  990 1112 2166  1015 1241 2135  522 2033 2697  714 2094 2133  1072 1239 1240  1567 1570 1571  1574 1576 1639  1540 2078 3064  316 2383 2385  1588 1590 1635  1576 1578 1801  625 797 2149  1586 1588 1781  1784 1790 1816  1578 1580 1630  1645 1760 1761  1652 1665 1776  2198 2205 2209  1584 1586 1638  1670 2130 2873  1594 1596 1633  1040 1721 2781  2155 2252 2929  294 2061 2415  1871 1872 1873  1861 2591 2709  1448 2347 2583  1572 1574 1901  1699 2048 2724  1392 2263 2476  921 1952 2458  1652 1677 1776  1561 1563 2008  931 933 958  1906 1907 1908  2057 2423 3081  1825 1826 1827  1571 1643 2270  87 88 2336  1011 2092 3075  933 935 1894  1143 1394 2060  651 707 2227  1365 1368 2378  1010 1051 2092  1302 1846 2139  974 2042 2421  1709 2845 2848  2237 2238 2241  1386 2289 2922  409 410 411  945 947 957  951 953 961  938 940 954  935 938 1893  621 726 2111  901 904 2168  942 945 1879  1397 2265 2687  2260 2709 3078  1394 2061 2325  2128 2531 2604  909 1947 2895  1643 1650 1652  659 661 678  1053 2535 2807  1021 2025 2339  1239 1240 1535  1167 1301 2085  1798 1800 1831  1782 1783 1985  1762 1763 2126  1129 1344 2388  1964 1965 2218  1720 2408 2513  904 908 2168  361 1539 1668  503 2390 2579  1653 1859 2298  1426 1972 2009  1227 1848 3115  1677 2748 3098  953 956 1962  2362 3099 3141  1908 1910 1951  1821 2154 3010  991 2608 2651  1962 1963 1964  1350 1691 3046  907 909 910  1609 2176 2177  1704 2304 2550  641 715 2062  800 994 2081  1149 1513 2131  573 585 2153  974 2421 3032  661 663 1905  413 415 782  940 942 1883  655 657 658  2309 2310 2312  1571 1640 1643  1846 2139 2707  1598 1642 1797  1915 1917 1974  922 923 924  2054 2055 2404  1804 1805 1806  1299 2058 2186  2430 3120 3142  1219 1338 1680  619 726 2140  1783 1792 1983  613 745 2129  1183 1867 1868  525 2258 2504  239 240 408  1355 2192 2472  1801 1802 1804  240 241 358  1782 1790 1985  1774 2714 2825  915 1994 2974  1251 1843 2050  960 2624 2951  1053 1810 2807  2060 2061 2415  2036 2037 2038  975 1126 2042  252 253 359  643 645 1986  982 2458 2485  2451 2940 3008  435 437 1981  1919 1921 1950  1747 1749 2107  62 2109 2663  1917 1919 1941  1770 2778 2994  1868 1869 1870  247 248 2942  709 716 2097  1802 1805 1807  1424 1426 2009  1354 1992 2383  655 658 2484  759 2181 2183  2185 2408 2513  333 2126 2528  1412 2144 2145  1640 1650 1651  1894 1895 1896  1650 1677 1756  1639 1802 1803  786 1035 2408  549 559 2151  332 2463 2465  725 2147 2148  1763 2126 2175  1244 2163 3014  1376 2309 2315  980 1756 3098  1188 1418 1678  1729 1817 1819  1525 2138 3091  1738 1739 2985  1636 1724 1726  1925 1927 1945  650 651 707  1921 1923 1944  524 2077 2530  1317 1982 2653  576 1242 2169  1588 1635 1781  1033 1753 2960  2147 2148 2243  1958 1959 1960  1576 1639 1801  1517 2578 2742  534 2701 2731  1880 1890 1891  455 457 1978  538 548 2091  904 905 906  1570 1571 1572  1792 1983 3110  2430 2431 3142  846 847 2158  665 667 674  1702 2088 2819  935 1893 1894  888 2306 2914  244 339 2232  693 723 2120  479 2118 2397  1547 1548 1549  826 2128 2604  1909 1914 1915  1956 1958 1959  1121 1249 2095  1726 1727 2130  903 904 905  7 389 2046  1107 1110 1402  1574 1639 1901  1906 1908 1909  1965 2218 2898  1667 2390 2579  1993 2383 2385  234 370 2161  1185 2019 2020  427 484 2297  1344 2248 2388  1751 1752 2896  411 412 413  661 678 1905  778 783 1970  388 2073 2730  1437 2172 2173  977 2842 2875  585 2153 2154  560 1862 2698  1100 1700 2234  1721 2420 2640  909 1947 3135  1914 1915 1975  566 2138 2324  1001 2322 2899  2127 2128 2718  649 650 651  1276 2070 2074  783 1095 1970  1177 1432 2167  1104 1107 2123  347 1997 2412  1547 1636 1966  496 1978 2512  2317 2619 2747  1921 1944 1950  1929 1933 1948  314 2171 2417  1646 1858 2389  657 658 659  1647 1965 2597  1228 1860 2880  940 954 1883  770 829 2185  740 772 2208  1499 2026 2354  197 198 391  559 2151 2329  1806 2361 2362  1665 1776 2134  967 970 974  62 63 2663  427 429 484  878 893 1867  239 408 3102  1459 2608 2651  1565 1567 2270  970 975 2042  906 907 1701  827 1015 2135  607 759 2181  1181 2203 2204  1110 1115 1865  1261 2168 2650  563 576 2169  876 1142 1874  1242 2437 3095  1762 2126 2938  647 649 650  1013 1157 2002  443 445 476  445 447 2036  582 737 2193  2196 2197 2201  45 46 2249  965 2655 3118  484 485 494  1390 2108 2453  1290 1468 2124  1923 1925 1949  954 1893 3103  956 963 969  413 414 415  1488 2679 2728  2038 2039 2866  722 2064 2065  1063 1064 2052  720 2099 2100  893 1013 1183  1657 2105 2667  421 422 423  536 1037 2150  423 424 425  433 435 1980  2042 2043 3037  497 498 2053  571 573 2153  1240 1536 1537  419 420 421  425 426 427  1019 1131 1188  836 860 1955  7 8 389  912 913 914  1468 2059 2759  663 665 2143  417 418 419  348 2048 2049  1563 1568 2008  415 416 417  1283 1299 2186  471 483 2117  2085 2086 2094  1989 2318 2606  1222 1397 1688  1070 1988 1989  437 439 493  678 1906 1907  2099 2100 2101  455 859 1978  370 2161 2162  1115 1484 1865  402 2106 2676  476 2037 2192  787 880 1070  1407 1412 2144  1516 1903 2905  417 419 560  1194 2023 2024  494 495 497  449 451 486  1302 1303 2139  1549 1550 1551  847 857 2158  360 2578 2742  304 2059 2407  386 2354 2629  776 1972 2607  517 518 2033  497 777 787  1386 2292 2922  629 725 2147  876 878 1142  396 2533 3093  237 403 3055  1543 1546 1973  1117 1159 1968  1915 1974 1975  2120 2121 2368  431 433 492  467 2371 2491  542 554 2082  1115 1117 1484  1845 2035 2041  1228 1860 3078  2042 2421 3037  1381 1384 2231  860 1135 1955  1120 1321 2424  322 2156 2676  605 1006 2209  261 354 2239  671 673 679  358 409 410  453 455 859  893 1183 1867  408 1679 3160  477 478 2266  1189 2014 2015  1433 1498 2913  1542 1543 1544  1206 1482 2137  527 1223 2164  715 1986 2066  1902 2029 2213  1529 2125 2983  2178 2793 2830  1159 1705 1968  678 1907 2344  973 2267 2704  1204 1205 2026  1923 1944 1949  419 421 1971  557 566 2138  1907 1911 2344  1002 1003 2226  1890 2257 3072  739 2208 2404  1625 2784 3044  772 2191 2550  428 431 2047  901 903 904  2014 2015 2084  860 862 1135  1927 1929 2267  679 2457 2682  1469 2157 2261  832 1007 1008  1602 1764 3117  1428 1450 1736  1203 2189 2901  1534 2196 2201  377 1899 2692  1008 1009 1010  406 1679 3102  846 2158 3084  1510 2188 2526  537 549 2151  2123 2447 2941  2584 2594 3101  1278 1281 2159  1010 1011 2092  1010 1012 1051  1188 1718 2972  1744 1745 3155  871 1534 2196  429 484 485  1143 1147 2060  736 770 2185  1907 1908 1910  2019 2020 2152  578 582 2193  1418 1678 1899  1051 1052 1143  783 834 1095  716 717 832  1143 1144 1394  707 898 899  1070 1071 2598  819 822 2127  503 504 509  1061 1156 1222  739 740 2208  1535 1536 1838  1107 1402 2123  1462 2451 2940  947 957 1886  509 510 517  788 996 2142  426 427 428  1157 2002 2003  1211 1824 2612  641 643 715  1293 2071 2072  435 1980 1981  231 2188 2526  826 2127 2128  1183 1868 1869  1169 1171 1984  424 425 426  485 494 495  1763 1765 2175  916 917 918  2043 2044 2045  1426 1428 1972  1762 2221 2938  560 2698 2853  761 778 1040  1272 1274 2030  1768 2534 2808  611 745 2180  2048 2050 2724  422 423 424  585 2154 2155  1480 1481 1496  1285 1287 2056  1065 1231 1251  2150 2151 2301  1832 2906 3116  1159 1161 1705  1301 2086 2087  1785 1786 1787  1390 2108 2284  1204 2012 2013  461 2136 2728  788 789 995  1251 1252 1840  1131 1188 1418  517 546 1210  995 996 1065  667 674 2068  874 3038 3039  473 475 2118  420 421 422  495 497 498  1086 2119 2671  2089 2090 2478  936 1983 3110  1739 2791 2841  1651 2498 2894  457 459 496  1171 1173 1467  559 2329 2442  1963 1964 2744  1294 1296 2125  1772 1773 2996  2071 2072 2073  425 427 429  294 2061 2405  1551 1552 1553  1165 1167 2085  822 826 2127  1674 2090 3087  1435 1464 1743  45 317 2249  639 641 2062  1328 2030 2031  1937 1953 2710  1167 1169 1301  1491 2371 2491  1309 1312 2187  538 540 548  532 533 538  418 419 420  396 2221 3093  1763 1764 1765  522 523 532  1299 2056 2057  538 539 2091  658 659 2344  1156 1222 1397  688 691 2121  330 2428 2790  669 671 2195  637 639 2063  787 1070 1071  1956 1957 1958  451 453 2028  1496 1699 1967  491 507 2219  1397 1688 2265  1093 1462 2259  389 2246 2320  2070 2071 2074  393 2107 2461  899 901 903  702 705 2098  1237 1238 2093  370 2034 2863  447 2036 2039  705 709 2097  740 742 772  1205 1391 1499  709 711 716  643 715 1986  719 733 739  1404 1741 2190  1154 1257 1300  880 1070 1988  767 814 2027  989 990 1112  1229 1232 2080  1740 2989 3028  1384 1489 2231  2535 2807 2957  905 907 909  1484 1865 2660  1 256 3051  1171 1467 1984  1229 1330 1528  797 2111 2112  1409 1411 2079  1259 1479 1480  1257 1259 1995  340 2342 2544  1237 1429 1517  88 299 2336  1121 1227 2095  680 682 703  1371 2376 2377  1884 1885 3090  1333 1346 2083  1112 1221 1229  769 775 788  777 787 880  502 503 504  1723 1725 3113  880 1061 1988  492 2260 2709  256 404 2663  504 509 510  1125 2230 2755  744 754 768  463 465 487  1658 2624 2664  1649 2416 2624  517 1210 2033  1314 1316 2088  1150 1151 1469  1150 1814 2166  700 702 720  1062 1207 2179  1050 1059 1204  691 2120 2121  1321 2424 2944  416 417 418  1582 1793 3122  2100 2467 2559  410 411 412  793 897 2374  707 2222 2227  717 719 2054  510 517 518  1006 2198 2209  1048 1050 2012  2047 2297 3062  354 2239 2240  1274 1277 1435  700 720 2102  2117 2118 2119  1555 1556 1557  635 722 2096  890 891 1096  1249 1250 1398  500 502 503  667 669 2068  1283 1285 1299  1829 2342 2343  1411 1662 2079  1492 1494 2846  799 801 890  691 693 2120  1270 1272 1328  1432 1507 1757  1223 2164 2263  693 695 723  518 520 522  1121 1122 1249  1541 1973 2078  791 793 897  565 570 571  747 1863 2770  727 729 845  1231 2067 2353  802 1811 2999  918 919 920  795 892 2374  1096 1403 1404  1007 1008 1009  2141 2330 3011  820 2279 2280  1253 1354 2069  1046 1048 1189  2112 2113 2114  716 832 1007  665 674 2143  839 1333 2276  2030 2031 2116  873 2448 2568  2003 2006 2007  919 921 2458  494 497 777  1187 1255 1519  1222 1688 1689  1009 1010 1011  1326 2131 2165  1113 1114 1237  1829 2343 2813  1287 1290 1468  906 908 1072  355 2161 2163  264 336 2242  1046 1189 2016  1378 1385 2309  1215 1325 2217  1876 1956 2258  1469 1814 2157  705 2097 2098  34 1967 2746  1290 1294 2124  1411 1414 1662  1895 1897 2176  795 804 892  229 337 2244  1063 1092 1187  299 2134 2336  639 2062 2063  1051 1143 1147  822 824 826  414 415 416  1787 1788 1789  488 489 505  256 2663 3051  806 808 989  1277 1435 1464  625 627 2149  1072 1073 1239  1285 1299 2056  1148 1149 2131  479 480 488  1319 2256 2322  1384 1424 1489  571 1030 2153  431 492 2047  756 757 799  1912 2485 2486  1266 1268 1293  584 746 756  1008 1010 1012  473 2117 2118  1451 1674 1709  1173 1467 1485  1404 1405 1740  2463 2464 2465  469 471 483  1232 1856 1976  573 583 584  2242 2299 2480  1012 1051 1052  1272 1328 2030  1296 1302 1529  1376 1378 2309  1783 1791 1792  994 1031 1121  1722 1723 3113  1249 1398 1737  571 572 573  789 791 2067  1052 1143 1144  387 2084 2877  1037 2150 2301  1748 1750 1751  393 2107 2654  712 2087 2737  747 1863 3152  423 425 2296  1057 1089 1113  995 1065 1231  1391 1499 1500  1843 2049 2548  621 623 2111  1480 1496 1979  1841 1844 2051  1332 2088 2089  1294 2124 2125  2111 2112 2115  817 820 2279  2180 2181 2182  635 637 722  830 831 1002  520 522 523  1002 1004 1076  711 716 717  1092 1713 2307  471 473 2117  1076 1077 1253  1264 1266 2070  733 739 740  261 262 2239  899 900 901  1123 1672 2282  1206 1207 2137  759 760 830  1827 1828 1829  1015 1016 1148  1951 2458 2485  951 961 2886  1231 1251 1252  998 1085 1150  1257 1300 1995  1983 2493 3097  671 679 2195  1204 2013 2026  768 769 2142  1306 1308 1451  966 1949 3076  557 559 2138  627 2147 2149  515 516 528  775 788 789  1481 1496 1699  477 844 2266  754 768 769  1964 2744 3006  1252 1840 1841  1437 2173 2233  528 529 537  523 532 533  533 538 540  1007 2097 2351  1479 1480 1481  537 2150 2151  1268 1293 2075  0 141 402  412 413 414  1490 2214 2216  1516 1903 2950  493 2286 2658  465 467 2371  1040 2781 2810  1302 1529 1846  1787 1789 2503  684 686 2295  1331 2266 2305  355 2163 2855  1790 2487 2946  513 514 515  262 2237 2239  1344 2170 2171  197 391 2110  673 679 1953  1050 1204 2012  1251 1840 1843  1059 1204 1205  996 1065 1066  241 358 2210  827 829 1015  246 247 338  719 739 2054  994 1121 1227  1312 1314 1332  1035 1056 1057  983 1021 2339  623 797 2111  582 731 736  3 237 3055  788 995 996  1148 1241 1326  651 652 653  256 257 404  1407 1409 1412  1326 1327 1834  1206 1337 1482  901 902 2168  1467 1984 2224  1177 1179 2167  233 355 2161  266 364 2251  453 454 455  389 2046 2320  686 688 721  227 363 2253  613 615 2129  443 476 2471  1557 1558 1559  233 234 2161  1062 1158 1206  1308 1451 1674  578 581 582  629 631 725  606 607 759  1253 1254 1497  990 998 2166  566 567 606  1863 1864 2770  1176 1177 1432  505 773 1063  1237 1517 2093  924 925 926  557 558 566  1112 1229 1330  770 771 827  1482 1992 1993  1316 1477 1702  814 815 816  453 859 2028  1176 1432 1507  568 605 2209  236 237 403  627 629 2147  1648 1773 1775  549 550 557  902 1261 2168  455 456 457  1161 1705 1706  1179 1490 2167  1300 1997 1998  244 245 2232  1262 1264 1276  1255 1519 1520  910 912 913  1136 1524 2359  1395 1438 2357  1325 1407 2144  1314 1332 2088  1652 1664 1665  1092 1187 1255  808 989 990  1012 2055 2564  6 7 2046  1239 1345 2001  1367 1371 2378  2105 2667 2916  320 2157 2384  546 1210 1224  736 737 770  457 458 459  1281 1283 2186  2309 2312 2315  1149 1512 1513  576 577 578  532 538 539  799 800 2081  1029 1039 1185  451 452 453  584 585 2328  623 625 797  769 788 2142  742 744 2304  543 1181 2205  1739 2791 2825  1986 2066 2683  723 2120 2347  851 871 2196  475 478 479  1404 1740 1741  1151 1469 1470  537 547 549  801 890 891  480 488 489  459 460 461  2098 2099 3043  736 738 2185  816 817 2279  505 1092 2307  505 1063 1092  539 2091 2172  929 2497 2498  975 983 1126  1477 1702 1703  346 2881 3136  615 798 2129  1690 2272 2273  756 799 801  478 479 480  1113 1237 1238  774 2083 2541  920 921 922  1631 1657 2105  333 2175 2527  645 646 647  2411 3028 3052  619 621 726  1856 1976 1977  607 609 2181  573 584 585  1085 1150 1151  461 462 463  647 648 649  1633 1798 2887  1430 2232 2662  554 564 565  760 1041 2324  564 565 570  891 1096 1403  1403 1404 2190  801 1511 2328  1245 2076 2522  1747 1748 2465  1129 1217 1344  509 517 546  243 244 339  249 250 340  578 1242 2193  791 897 2067  225 319 2269  1221 1229 1232  902 1192 1261  268 318 2268  1229 1528 2080  1751 2337 2896  8 389 2245  2237 2239 2241  2181 2182 2183  989 1112 1221  1831 2496 3049  1993 2385 2675  1891 1892 2174  615 617 798  926 927 928  393 2459 2654  1559 1560 1561  1303 1306 2139  498 499 500  463 464 465  1385 2309 2310  461 463 2136  1414 1662 1663  611 613 745  1349 1350 1691  756 801 2328  1150 1469 1814  2154 2155 2252  2160 2733 2790  514 515 516  800 875 994  258 259 369  760 830 831  831 1002 1004  1004 1076 1077  1179 1208 1490  1077 1253 1354  529 537 2150  887 896 1062  439 441 2658  650 707 898  609 611 2180  828 841 886  516 528 529  1331 1506 1661  549 557 559  609 2180 2181  1190 2210 2211  1261 2650 2725  1037 2301 2437  1019 1188 2854  465 466 467  606 759 760  1336 2076 3138  570 571 572  234 235 370  1062 1206 1207  507 512 513  371 2427 3066  1253 1497 2069  529 536 2150  271 2207 2765  512 513 514  1326 1834 2165  606 760 2324  329 2152 2878  817 819 820  1217 1342 2170  2244 2327 2549  435 436 437  1016 1148 1149  1806 2360 2361  1064 1087 1176  553 563 2169  437 438 439  1029 1185 2021  1148 1326 2131  998 1150 2166  886 887 2179  1114 1237 1429  989 1221 2341  2004 2007 2912  1866 2447 2630  1210 1224 2332  1484 1968 2789  1221 1855 2341  1264 1276 2070  536 553 1037  1635 1785 1786  1512 1513 1514  1212 1690 2272  659 660 661  1657 1738 2474  829 1015 1016  1328 2031 2032  887 1062 2179  1929 1948 2267  653 654 655  478 2266 2438  553 1037 2169  1572 1573 1574  827 828 2135  433 434 435  828 886 2135  1405 1740 1742  228 229 2244  565 571 1030  1096 1404 1405  264 265 2242  1561 1562 1563  146 2355 2578  326 2132 2656  577 838 2321  572 573 583  467 468 469  357 2791 2825  770 827 829  746 756 757  583 584 746  1094 1349 1350  500 501 502  347 2605 3137  767 813 814  469 470 471  797 2112 2113  786 1017 1035  489 491 2307  1089 1113 1114  643 644 645  799 890 2081  563 575 576  2064 2277 3082  831 1004 2281  1125 2230 2963  928 930 931  508 767 2027  471 472 473  1299 2057 2058  1015 1148 1241  6 322 3048  581 582 731  2147 2149 2243  1806 2362 3099  398 2521 2758  898 899 900  1122 1249 1250  518 519 520  844 1331 2266  226 227 2253  577 578 581  1094 1193 1349  1915 1916 1917  1031 1121 1122  266 267 2251  655 656 657  1500 1502 2250  1508 1990 2520  473 474 475  459 496 2728  1250 1398 1734  1327 1834 1835  2263 2264 2756  1214 2214 2215  1563 1564 1565  1241 1326 1327  1076 1253 1254  2283 2286 2817  830 1002 1003  1006 2196 2197  1955 1956 1957  1337 1482 1992  1158 1206 1337  661 662 663  582 736 737  575 576 577  1504 2327 2549  961 1963 2621  1084 1319 2322  851 1006 2196  844 1198 1331  1780 2323 2553  1402 1866 2447  2596 2608 3125  363 2253 2254  2103 2467 3059  1056 1057 1089  492 2047 2260  1395 1711 2357  1818 1850 2893  1254 1497 1809  771 827 828  1490 2216 2900  1025 1027 1194  804 806 2341  731 736 738  1574 1575 1576  224 225 2269  567 606 607  757 799 800  617 619 2140  558 566 567  737 770 771  489 490 491  268 269 2268  1217 1344 2170  890 2081 2352  985 2990 3118  1565 1566 1567  1545 1547 1548  896 1062 1158  439 440 441  1080 1534 1903  230 337 2188  488 505 773  1147 2060 2477  931 932 933  1469 1470 2261  550 557 558  265 364 2242  2071 2073 2372  262 263 2237  841 886 887  1464 2159 2160  576 578 1242  1187 1519 1854  1567 1569 1570  605 851 1006  523 2164 2476  1162 1165 2247  1576 1577 1578  857 1054 1094  228 363 2244  260 261 354  1770 2784 2994  361 1539 2859  2033 2697 2910  2138 2324 3091  1580 1581 1582  2117 2119 2652  1192 1261 1262  431 432 433  1582 1583 1584  1610 1645 3033  1241 2135 2367  1283 1284 1285  1306 1451 2139  1281 1282 1283  232 233 355  1578 1579 1580  528 537 547  1338 1754 2317  547 549 550  617 798 2140  1332 2089 2090  875 994 1031  337 2188 2189  782 1862 2930  1077 2326 2589  1017 1035 1056  1349 1475 2206  1285 1286 1287  1994 2573 3034  1584 1585 1586  2047 2260 2835  815 816 817  1219 1220 1338  1287 1288 1290  663 664 665  1567 1571 2270  2062 2063 2277  513 515 1340  1881 1886 1887  1276 2906 3116  1586 1587 1588  575 577 2321  475 477 478  1290 1291 1294  773 1063 1064  1588 1589 1590  1294 1295 1296  871 1080 1534  1590 1591 1592  1592 1593 1594  2199 2200 2202  1274 1275 1277  2020 2021 2022  865 2220 2890  2099 2101 2908  1808 2499 2975  246 338 2235  900 901 902  1096 1405 2352  1272 1273 1274  1296 1297 1302  1917 1918 1919  263 336 2237  527 1120 1223  376 2433 2468  1977 2380 3114  1064 1176 2052  543 555 2205  337 2244 2327  1208 1490 2214  1363 1368 2565  463 487 2136  491 506 507  1767 1768 2534  2197 2198 2199  347 1997 3137  331 2372 2373  1208 1214 2214  1338 1339 1754  485 1991 2300  427 428 2297  428 430 431  407 1990 2520  342 2422 2473  933 934 935  540 541 542  1475 2206 2207  1958 1960 1961  2153 2154 3010  1306 1307 1308  857 1094 2158  2015 2016 2017  1904 2273 2274  1087 1176 1177  1513 2132 2827  1314 1315 1316  880 1060 1061  267 318 2251  1960 1961 3109  1312 1313 1314  1661 2305 2306  851 870 871  449 450 451  935 937 938  226 319 2253  2182 2183 2275  498 500 2390  1061 1155 1156  1242 2193 2856  1405 1848 2352  938 939 940  1316 1476 1477  940 941 942  1270 1271 1272  555 2205 2209  962 1994 3034  871 1078 1080  1211 1823 1824  1861 2709 3078  1600 1601 1602  408 409 3160  641 642 643  605 850 851  1594 1595 1596  1812 1813 2557  1333 1334 1346  911 912 2409  1212 1356 1690  1346 1436 1437  769 774 775  789 790 791  1963 2621 2622  1744 1770 3155  253 254 1990  263 264 336  1107 1108 1110  2310 2311 2316  1011 1184 2108  515 1340 2363  229 230 337  845 2615 2740  1598 1599 1600  1941 1974 3029  1682 2424 2944  1470 2190 2918  1529 1846 2290  1482 1993 2775  1887 1888 1889  542 545 554  1071 2053 2860  1342 1442 2543  1905 1906 2646  1500 1501 1502  530 543 1181  673 676 1953  1013 1014 1157  1602 1603 1604  990 997 998  1193 1349 1475  1190 2211 2356  507 511 512  269 366 2268  319 2253 2255  219 367 2288  529 535 536  1596 1597 1598  740 741 742  742 743 744  224 365 2269  1278 1280 1281  1445 1681 2141  441 442 443  717 718 719  744 753 754  1494 2846 2964  791 792 793  907 911 1701  745 2180 2633  1663 2228 2230  554 561 564  686 721 2295  1655 2105 2106  942 944 945  1919 1920 1921  568 586 605  447 448 449  1489 2009 2771  1542 1694 2475  1904 2272 2273  1992 1993 2383  1100 1102 1700  793 794 795  1205 1390 1391  1349 1691 2206  1841 1842 1844  265 266 364  665 666 667  2459 2460 2654  1303 1305 1306  555 568 2209  227 228 363  806 807 808  589 758 2456  1054 1094 1193  795 803 804  1517 2093 2355  1144 1145 1146  398 2521 3088  1309 1311 1312  1140 2368 2583  1268 1269 1270  520 527 2164  804 805 806  719 732 733  2316 2647 2829  454 455 456  2311 2316 2829  452 453 454  456 457 458  998 1074 1085  528 547 2363  458 459 460  501 502 508  1844 1845 2040  1506 1661 1810  460 461 462  495 498 499  462 463 464  1080 1904 2272  445 446 447  2026 2354 2629  2045 2966 3048  1646 1857 1858  536 552 553  443 444 445  748 780 802  464 465 466  380 2411 3052  1075 2462 2481  1056 1244 2348  336 2237 2238  914 916 917  1893 1895 2804  1257 1258 1259  1259 1260 1479  488 773 2397  1146 1153 1154  813 814 815  230 231 2188  1154 1256 1257  945 946 947  709 710 711  271 2207 3133  1548 1549 1550  267 268 318  2062 2277 2278  499 500 501  658 2344 2809  225 226 319  1644 1763 1764  1658 2624 2951  276 277 2294  1486 1971 2862  1266 1267 1268  687 689 2507  1387 2315 2433  553 562 563  1017 1056 2348  1956 1959 2258  466 467 468  1331 1661 2305  1126 2043 2044  269 270 366  223 224 365  1604 1605 1607  1104 1106 1107  904 906 908  1084 1236 1319  563 574 575  1050 1058 1059  1396 1820 1821  196 306 2110  99 2362 2875  1110 1111 1115  839 1034 1333  820 2280 2718  470 471 472  221 315 2262  1799 1800 2392  1371 1372 2376  1055 1129 2388  245 246 2235  1264 1265 1266  893 894 1013  1232 1855 1856  2020 2022 2839  1149 1323 1512  639 640 641  1080 1903 1904  468 469 470  810 1000 1001  2200 2202 2203  272 273 314  1869 1870 2915  220 221 315  1071 2569 2598  472 473 474  1921 1922 1923  547 865 2363  1142 1872 1874  474 475 477  489 505 2307  1123 1175 1672  742 772 2304  1983 1985 3097  1171 1172 1173  1224 1225 1388  1451 1709 2707  2197 2199 3001  510 518 519  1342 1343 1442  1371 2377 2378  1910 1912 2485  870 871 1078  1538 1542 2475  354 2240 2323  1372 1387 2376  1499 2354 2798  6 2046 3048  1094 1350 2158  1048 1049 1050  1948 2704 2705  1185 2020 2021  649 651 652  676 680 2670  1612 2434 2696  2286 2817 2953  1006 2197 2198  519 520 527  490 491 506  1198 1331 1506  850 851 870  705 708 709  1702 1703 3096  1078 1080 2272  1235 3030 3069  2198 2199 2200  408 1679 3102  295 2084 2874  2433 2468 2517  1120 1223 2424  869 2584 3101  702 704 705  2177 2585 2865  1046 1047 1048  1923 1924 1925  1093 1461 1462  40 2868 3150  722 2065 2096  700 701 702  659 678 2344  364 2242 2299  919 982 2458  274 368 2417  738 785 786  737 2193 2366  697 699 700  520 523 2164  596 842 2557  241 242 2210  878 879 893  480 489 490  1452 2278 2536  695 696 697  1702 2819 3096  487 2371 2686  1826 1827 1828  566 606 2324  1169 1170 1171  1638 1783 1791  1821 2154 2897  1742 1848 1849  1835 1836 1837  1262 1263 1264  554 565 2082  1115 1116 1117  773 1086 2397  1536 1540 1838  221 222 2262  829 2185 2513  584 756 2328  586 605 850  429 485 1991  831 1041 2281  1396 1821 2462  876 877 878  887 895 896  1044 1045 1046  693 694 695  729 761 2420  9 296 2245  1167 1168 1169  1308 1309 2187  1002 1076 2226  218 219 367  274 275 368  1910 1911 1912  320 2261 2382  828 840 841  493 2283 2286  1497 2069 2340  875 1031 2413  506 507 511  2161 2162 2163  802 1811 3086  511 512 530  1925 1926 1927  1277 1278 2159  1464 1743 2790  947 948 949  1843 2048 2050  1075 2252 2897  1994 2573 2974  862 863 876  1412 2145 2387  467 469 2491  2280 2611 2711  1722 1724 3113  1747 2107 3112  786 864 1017  1700 2234 2632  1293 2072 2075  591 593 2349  1176 1507 2052  1117 1118 1159  1750 3050 3108  1132 1197 1219  1236 1319 1515  561 564 579  1277 1464 2159  1298 2114 3089  1019 1020 1131  1308 1674 2187  720 2100 2102  607 608 609  533 540 541  516 529 535  1403 2190 2918  1452 2066 2641  1092 1255 1713  1550 1551 1552  1165 1166 1167  1217 1218 1342  1417 1832 1833  1078 1212 2272  545 554 561  898 1987 3058  1039 1043 1044  667 668 669  593 747 2349  1023 1433 2699  1072 1240 3165  336 2242 2480  1189 2015 2016  637 638 639  1824 1825 2703  1553 1555 1556  738 786 2408  450 451 452  800 809 875  1607 1608 1610  507 513 2219  367 2287 2289  908 1072 1073  99 2362 3141  1545 1548 2573  1443 1445 2141  577 581 838  541 542 545  1090 1202 1509  1031 1133 2413  2148 2402 2643  1751 2464 2971  949 950 951  1540 1838 1839  917 918 919  2071 2074 2372  1068 1341 2690  860 861 862  1159 1160 1161  1453 1454 2419  1530 2251 2904  535 536 552  552 553 562  465 487 2371  1372 1374 1387  1042 1082 1329  259 260 2553  1282 1283 1284  1000 1001 2322  1838 1839 3047  1747 2465 3112  562 563 574  1136 1247 1524  574 575 763  609 610 611  691 692 693  806 989 2341  1284 1285 1286  1286 1287 1288  1689 2318 2319  1291 1294 1295  362 2431 3142  1288 1290 1291  611 612 613  1295 1296 1297  1972 2009 2607  1411 1413 1414  613 614 615  615 616 617  1073 1239 1345  1129 1130 1217  1313 1314 1315  1315 1316 1476  1307 1308 1309  1496 1967 3121  951 952 953  617 618 619  1809 2881 3136  635 636 637  619 620 621  484 494 2580  1580 1582 3122  1670 2130 3015  1297 1302 1303  1476 1477 1716  836 837 860  539 2172 3092  1223 2263 2264  633 634 635  1445 1523 1681  1280 1281 1282  913 2882 3012  623 624 625  2000 2605 3137  215 216 311  575 763 2321  625 626 627  1959 1960 2466  216 217 2291  760 831 1041  1417 2567 2801  2203 2204 2418  277 278 310  1311 1312 1313  1305 1306 1307  621 622 623  627 628 629  2092 2782 3075  275 368 2303  687 714 2507  1198 1506 2338  1029 1038 1039  1177 1178 1179  1610 1611 1613  1367 1370 1371  514 2204 2973  1199 2338 2556  631 632 633  350 2406 2921  586 850 2333  1828 1829 2342  834 835 836  1275 1277 1278  1840 1843 2548  890 1096 2352  329 2446 2716  1273 1274 1275  275 276 2303  504 2554 2620  1347 2462 2481  1359 1361 1386  688 689 691  276 2294 2303  1773 2943 2996  1927 1928 1929  902 1191 1192  629 630 631  1967 2746 3121  739 2054 2404  389 2245 2246  1356 1357 2287  1200 1492 2688  1125 2618 2963  808 990 997  1064 1086 1087  1000 1084 2322  1864 2770 2902  1004 1077 2589  354 2323 2553  1511 2155 2929  1726 1966 3015  1968 2789 2844  1409 1410 1411  775 789 790  1407 1408 1409  1676 1811 1851  754 769 774  1212 1213 1356  219 220 2288  1746 1748 1750  492 1980 2709  1325 1406 1407  2163 2855 3014  1179 1180 1208  1271 1272 1273  2036 2038 2039  277 310 2294  1090 1509 2348  801 891 1511  1887 1889 2434  731 738 785  532 539 2697  2239 2240 2241  572 583 755  1085 1151 2225  1363 1365 1368  583 746 2302  922 924 925  1621 1622 1628  422 424 881  1078 1079 1212  783 784 834  1786 1787 1788  1208 1209 1214  648 1097 2223  1378 1380 1385  1162 1164 1165  258 369 2814  1933 1935 2763  337 2189 2327  1858 2389 2681  857 858 1054  196 197 2110  686 687 688  793 795 2374  1945 2595 2694  1681 1715 2628  1009 1011 1184  515 528 2363  1252 1841 1842  1432 1757 2889  426 428 430  1613 1614 1615  1391 1500 1501  1027 1028 1029  1016 1149 1323  798 2140 2653  733 740 741  1085 1230 2225  669 670 671  1909 1915 1916  503 509 2579  725 2148 2643  1334 1346 1436  1457 1675 1676  747 2349 2350  1385 2311 2313  1478 2027 2788  997 998 1074  711 717 718  1643 1652 1664  657 659 660  777 880 1060  706 2838 2844  1429 1472 1684  581 838 2346  1345 1416 1417  1788 1789 2308  1628 1629 1631  1386 2292 2565  1902 2213 3138  2311 2313 2314  790 791 792  824 825 867  1269 1270 1271  1055 1128 1129  502 508 2620  1951 1952 2458  1912 1913 1938  8 9 2245  1486 1971 2853  684 685 686  1059 1205 1390  780 781 846  2280 2711 2762  1052 1144 1145  568 569 586  785 786 864  2010 2011 2077  1856 1977 2035  555 556 568  805 806 807  1683 2711 2762  974 1878 3032  216 311 2291  543 544 555  257 404 2814  792 793 794  746 2302 2502  1056 1089 1244  1001 2178 2830  1042 1329 2413  794 795 803  220 315 2288  919 920 921  479 488 2397  1695 1696 1697  1074 1085 1230  1215 1324 1325  864 1017 1090  748 749 780  1615 1616 1617  743 744 753  803 804 805  1697 1698 2010  646 647 648  1438 2357 2369  1454 1457 2419  1084 1235 1236  1034 1333 1334  593 595 747  2005 2006 2909  434 435 436  349 2090 3087  583 755 2302  1804 1806 2360  1214 1215 2217  436 437 438  1617 1618 1621  1473 1474 1530  1327 1835 1836  1531 1687 1717  2254 2255 2256  198 199 3047  741 742 743  438 439 440  1158 1337 1348  1385 2310 2311  589 591 2456  1337 1992 2326  1494 1495 1695  1118 2472 2934  1221 1232 1855  653 655 2484  1157 2003 2004  1760 1847 3093  1076 1254 2226  771 828 840  2253 2254 2255  841 887 895  1600 1602 3117  1498 1693 2815  1866 2630 2645  1418 1899 1900  1155 1156 1228  1842 1845 2441  644 645 646  1896 1897 2666  682 683 684  1842 1844 1845  587 589 758  2434 2696 2831  1929 1930 1933  1000 1067 1084  1267 1268 1269  652 653 654  1530 2251 2959  868 993 1019  925 926 927  822 823 824  757 800 809  1405 1742 1848  2216 2820 2900  1323 1512 1719  565 1030 2082  1414 1663 2228  2105 2106 2768  778 779 783  1175 1672 1732  235 370 2863  1694 2409 2475  418 420 551  1823 1824 1825  1570 1572 1573  530 531 543  718 719 732  1202 1509 1510  1709 2707 2848  432 433 434  1556 1557 1558  810 811 1000  671 672 673  1471 2608 3125  763 764 810  567 607 608  1824 2612 2639  1114 1429 1472  315 2783 2993  1633 2308 2777  738 2185 2408  1060 1061 1155  1666 2569 2860  1037 2169 2437  273 274 2417  1141 2500 2980  731 785 2346  579 580 748  550 558 2335  1794 1796 2842  847 849 857  1492 1493 1494  2015 2084 2877  1265 1266 1267  500 503 2390  2060 2415 2477  448 449 450  1500 2250 2798  547 550 865  1456 1458 1473  406 2638 3053  1258 1259 1260  1260 1479 1483  2318 2319 2834  1336 1902 3138  1757 2539 2889  1668 1669 1670  1145 1146 1153  957 1881 1886  1256 1257 1258  214 215 2426  379 2382 2642  996 2142 2891  870 1078 1079  1153 1154 1256  758 2333 2334  809 875 1042  1236 1515 1516  2333 2334 2399  365 2741 3056  1068 1246 1341  895 896 1136  1193 1475 2248  2201 3030 3069  1017 1090 2348  1795 2285 2754  513 1340 2219  817 818 819  843 1714 2440  654 655 656  278 279 2330  546 1224 1225  581 731 2346  1750 1751 1752  311 2291 2292  1734 1735 1777  660 661 662  1422 1503 1504  819 821 822  1939 1943 1947  1247 1524 1525  1192 1262 1263  363 2254 2549  1263 1264 1265  1558 1559 1560  242 243 2949  896 1136 2359  1025 1026 1027  2264 2756 2883  1213 1356 1357  38 39 312  166 167 313  927 928 930  35 36 348  169 170 349  1590 1592 3071  1343 1442 1443  32 33 307  852 2541 2736  768 2142 3026  172 173 308  848 884 1399  1321 1852 1853  761 762 778  587 758 2333  236 403 2863  1105 2213 3138  708 709 710  163 164 346  41 42 345  1049 1050 1058  1031 1122 1133  527 1119 1120  753 839 2276  808 997 2481  430 431 432  642 643 644  1218 1342 1343  440 441 442  1477 1716 2566  1933 1934 1935  680 681 682  155 156 321  446 447 448  156 157 2381  157 158 374  49 50 320  48 49 2384  591 2349 2456  1457 1676 2419  47 48 375  1428 1449 1450  160 161 316  44 45 317  1844 2051 3035  1461 1462 1463  164 165 2379  1450 1736 2394  1414 1415 2228  662 663 664  387 2446 2877  1548 1660 2573  1079 1212 1213  1120 1320 1321  1131 1132 2358  1118 2472 3157  1214 2215 2217  1671 1973 2691  231 232 2526  1537 1538 2475  1234 1454 1455  1090 1091 1202  1675 1676 1811  2279 2280 2762  586 587 2333  1047 1048 1049  273 314 2417  165 166 2370  673 675 676  421 1971 2920  844 999 1198  1594 1633 2777  154 155 2396  50 51 2382  773 1064 1086  729 730 761  43 44 2400  1693 2815 2961  1910 1951 2485  1560 1561 1562  1087 1177 1178  29 30 347  1023 1186 1433  442 443 444  1626 2561 2585  159 160 2385  175 176 350  1840 1841 3068  357 2714 2825  1250 1734 1735  444 445 446  508 766 767  782 2930 3106  983 1126 2339  1045 1046 1047  1474 1530 1531  153 154 373  599 601 765  51 52 379  1337 1348 2326  608 609 610  745 2129 2776  574 763 764  1631 1655 2105  1916 1917 1918  1416 1417 1832  704 705 708  749 780 781  712 2224 2572  676 677 680  176 177 2406  46 2249 2582  701 702 704  42 43 2380  1225 1388 1666  1172 1173 1860  108 2285 2754  1672 2282 2540  699 700 701  1478 2554 2620  1772 1774 2978  729 845 2420  1982 2140 2653  696 697 699  1082 1083 1233  664 665 666  152 153 2410  1067 1084 1235  30 31 2412  767 812 813  1201 1389 1812  640 641 642  278 310 2330  52 53 2398  27 28 378  930 931 932  694 695 696  177 178 383  2022 2023 2750  982 2485 2486  1494 1695 3018  1935 1936 1940  610 611 612  1961 2011 2749  552 562 854  1106 1107 1108  1360 1362 1487  2051 2868 3150  1562 1563 1564  900 902 1191  727 728 729  2261 2382 2642  561 579 580  1309 1310 1311  556 568 569  612 613 614  1075 2462 2897  478 480 2438  1573 1574 1575  1415 2228 2229  569 586 587  1170 1171 1172  487 2686 2739  26 27 2405  631 633 2806  811 1000 1067  151 152 326  820 2127 2718  1043 1044 1045  178 179 2407  1503 1504 1505  544 555 556  614 615 616  1458 1473 1474  891 1403 2732  53 54 327  1091 1203 1421  1130 1217 1218  31 32 2375  370 2034 2967  1794 2361 2842  616 617 618  1303 1304 1305  732 1123 2282  953 955 956  590 592 1053  764 810 811  1564 1565 1566  25 26 294  511 530 531  179 180 304  1370 1371 1372  2644 2738 2771  864 1090 1091  580 748 749  213 214 371  1342 2170 2543  618 619 620  1243 1491 2236  1108 1110 1111  319 2269 3003  1161 1706 2247  1200 1226 1492  1566 1567 1569  279 280 372  1083 1234 1453  490 506 1088  168 169 2478  1421 1422 1465  1907 1910 1911  1575 1576 1577  603 604 727  894 1013 1014  54 55 2411  531 543 544  215 311 2426  854 2202 2991  1577 1578 1579  2047 2835 3062  692 693 694  909 910 2723  1748 2464 2465  24 25 2414  854 2202 3057  620 621 622  1465 1503 2178  1940 1946 1969  180 181 2423  1413 1414 1415  841 895 2483  1579 1580 1581  1168 1169 1170  1091 1202 1203  1007 1009 2351  1808 2498 2894  1581 1582 1583  875 1042 2413  1280 1282 2402  483 2117 2652  638 639 640  622 623 624  550 865 2335  1298 2114 3024  1433 1434 1498  1474 1531 1532  624 625 626  1454 1455 1456  1661 2306 2947  1178 1179 1180  361 1668 2858  1038 1039 1043  149 150 384  1083 1233 1234  477 481 844  1128 1129 1130  932 933 934  485 495 2300  1918 1919 1920  753 754 2276  1583 1584 1585  850 2333 2399  55 56 380  1454 1456 1457  414 416 1005  420 422 2345  1210 2033 2910  626 627 628  1426 1427 1428  1278 1279 1280  1845 2041 2441  2246 2320 3004  811 1067 1141  2377 2378 2427  23 24 381  1400 1419 1673  181 182 382  850 870 2399  1009 1184 2351  1166 1167 1168  1462 1463 2451  541 545 1392  1585 1586 1587  1042 1081 1082  1089 1244 2386  1710 2521 2758  1531 1532 1687  1532 1687 1815  1587 1588 1589  1035 1057 3104  656 1100 2234  1197 1219 1220  1589 1590 1591  666 667 668  1591 1592 1593  504 510 2554  1137 1248 1400  751 2644 2738  1523 1681 1715  148 149 2422  849 857 858  1180 1208 1209  737 771 2366  636 637 638  1111 1115 1116  634 635 636  1261 1262 3116  848 1399 2479  56 57 2429  628 629 630  182 183 2428  1089 1114 2386  387 2084 2874  1422 1465 1503  858 1054 1055  896 1158 2359  632 633 634  1329 2413 2538  1241 1327 2367  1203 1421 1422  1519 1854 2678  519 527 1119  594 596 842  1209 1214 1215  1457 1458 1675  590 1053 2537  1535 2001 2832  1475 2207 2764  1199 1201 2556  630 631 632  1346 2083 2736  558 2335 2391  1842 2353 2441  1855 1856 2452  1820 1821 3010  934 935 937  1116 1117 1118  781 846 847  1406 1407 1408  1324 1325 1406  1456 1457 1458  1831 2887 3049  147 148 342  1459 1460 1471  937 938 939  1357 1358 1359  732 733 2282  1223 2264 2424  300 2474 2735  336 2238 2480  939 940 941  523 533 2476  21 22 328  1234 1453 1454  183 184 330  315 2288 2783  2083 2541 2736  951 2886 3094  58 59 2430  1028 1029 1038  57 58 344  843 1138 1714  1390 1391 2284  689 691 692  422 881 2345  1379 2231 3031  2486 2882 3012  1118 1159 1160  1213 1357 1358  1410 1411 1413  558 567 2391  1517 2355 2578  1164 1165 1166  1396 1711 1820  1408 1409 1410  807 1134 1347  1593 1594 1595  1058 1059 2453  562 574 2425  997 1075 2481  1054 1193 2388  1016 1323 2513  682 684 2961  1424 1425 1426  1347 1395 1396  1022 1024 1025  2120 2347 2368  866 2939 2981  879 893 894  580 749 1036  410 412 1190  1472 1684 2034  1231 1252 2353  648 649 2223  1875 1877 3009  2103 2104 3059  1136 1137 1247  870 1079 2399  922 925 2600  600 602 603  420 551 2345  46 47 2582  1248 1419 2329  877 878 879  37 2049 3143  425 429 2296  1436 1686 1830  941 942 944  1313 1315 1351  1160 1161 1162  2004 2365 2940  368 2303 2543  1429 1684 2742  164 346 2379  809 1042 1081  1161 1162 2247  19 20 386  2100 2102 2467  185 186 385  908 2168 2650  166 313 2370  863 876 877  1886 1887 1888  2291 2292 2922  687 688 689  852 2233 2529  156 321 2381  1920 1921 1922  157 374 2381  1366 1369 1863  49 320 2384  1470 2190 2995  884 1399 1682  48 375 2384  1827 2613 2703  1114 1472 2386  1081 1082 1083  544 556 888  1700 2123 2941  807 808 2481  1524 2359 2796  1307 1309 1310  1198 1199 2338  424 881 2593  774 775 2541  1827 1829 2613  248 249 2795  165 2370 2379  155 321 2396  1662 1663 3000  18 19 2443  186 187 2444  596 598 2557  1057 1113 2986  353 1850 3149  840 841 2483  50 320 2382  861 862 863  214 371 2426  44 317 2400  1054 1055 2388  545 561 2432  1595 1596 1597  1242 2856 3095  1190 2356 2469  1626 2561 2672  2068 2680 3067  160 316 2385  753 796 839  569 587 588  1599 1600 1601  685 686 687  746 757 2502  771 840 2366  1297 1303 1304  222 2262 2741  1026 1027 1028  42 345 2380  232 355 2526  815 817 818  944 945 946  17 18 295  187 188 305  1020 1131 1132  188 189 2445  1291 1295 1298  15 16 387  189 190 388  1158 1348 2359  785 864 2439  1597 1598 1599  1327 1836 2367  14 15 2446  829 1016 2513  2108 2453 2908  13 14 329  191 192 331  223 365 2741  648 752 1097  59 60 2431  1494 2964 3018  90 2146 2748  260 354 2553  11 12 390  193 194 392  839 1033 1034  1220 1338 1339  1320 1321 1852  10 11 2450  194 195 2449  1284 1286 1289  9 10 296  195 196 306  1356 2287 2783  506 511 2435  169 349 2478  992 1182 1459  363 2244 2549  154 373 2396  895 1136 1137  212 213 2401  51 379 2382  1243 2236 2563  1922 1923 1924  683 684 685  587 588 589  280 281 2403  1437 2172 3092  1569 1646 2389  837 860 861  1119 1120 1320  495 499 2300  1207 2179 3124  1323 1719 1720  1359 1360 1361  668 669 670  32 307 2375  218 367 2693  1601 1602 1603  751 2602 2603  43 2380 2400  311 2292 2293  501 508 766  835 836 837  1924 1925 1926  1248 1400 1419  1310 1311 1447  176 350 2406  1193 2248 2388  785 2346 2439  810 1001 2830  895 1137 2483  416 418 2364  997 1074 1075  567 608 2391  30 347 2412  574 764 2425  2215 2217 2448  1133 2413 2538  480 490 2438  1275 1278 1279  2182 2275 3021  153 373 2410  963 964 967  1524 1525 2948  2051 2868 3035  1310 1447 1731  1726 2130 3015  1439 2065 3144  1134 1395 1438  1345 1417 2567  784 834 835  52 379 2398  1014 1093 2259  1544 1545 2573  562 854 2425  217 2291 2693  1738 2474 2985  1347 1396 2462  732 853 1123  1358 1359 1360  1304 1305 1317  177 383 2406  2112 2115 3024  1519 1520 2552  1137 1247 1248  2592 2752 2773  1304 1317 1431  1073 1345 1416  1735 1777 1778  2099 2908 3043  670 671 672  781 847 848  1091 1421 2439  805 807 1134  551 2364 2365  967 968 970  884 1682 1683  1491 2236 2491  1361 1362 1363  1004 2281 2589  1940 1969 3061  79 80 302  80 81 2459  81 82 393  82 83 2461  83 84 332  84 85 2463  85 86 394  88 89 299  1052 1145 2564  1626 2585 2865  681 682 683  710 711 2570  345 2040 3114  610 612 833  97 98 301  1387 2376 2517  2035 2041 2452  970 971 975  1384 1423 1424  656 657 2234  794 803 1032  1532 2455 2587  106 107 298  777 1060 2580  1735 1778 1779  152 326 2410  1271 1273 1322  614 616 866  27 378 2405  144 145 360  790 792 852  807 1347 2481  1603 1604 1605  178 383 2407  859 1898 3100  53 327 2398  1943 1947 2222  988 1969 2913  956 959 963  1123 1174 1175  1119 1320 1478  31 2375 2412  1247 1525 2442  754 774 2276  946 947 948  1980 2616 2709  1926 1927 1928  1173 1860 2687  60 61 362  1834 1835 3083  1246 1341 1692  1014 1157 2259  1825 1827 2703  825 867 868  1986 1987 2683  1380 1385 2313  864 1091 2439  564 570 2968  1883 1884 3090  561 580 2432  474 477 481  1128 1130 1446  993 1019 1020  96 97 2488  279 372 2330  105 106 2487  1252 1842 2353  1122 1133 2560  858 1055 1127  992 1459 2651  1458 1474 2455  26 294 2405  1334 1436 1686  1363 1364 1365  1856 2035 2452  779 783 784  179 304 2407  476 2192 2471  418 551 2364  1960 2466 2965  1323 1720 2513  1980 1981 2616  1070 1989 2598  1474 1532 2455  560 1971 2853  1178 1180 1440  466 468 482  1055 1127 1128  1267 1269 1292  1279 1280 1393  470 472 856  999 1198 1199  1672 1732 2867  367 2289 2693  848 849 884  2392 2393 2436  1497 2340 3136  1279 1393 1439  1458 1675 2455  1495 1695 1696  672 673 675  620 622 724  1975 2990 3118  1911 1912 1913  1696 1697 1698  1698 2010 2011  211 212 324  1215 1243 1324  54 327 2411  823 824 825  1339 1754 1755  1360 1361 1362  426 430 2593  1711 1820 1822  847 848 849  104 105 978  1443 1444 1445  281 282 325  1201 1812 2556  1647 2597 2769  95 96 981  1105 2213 2926  743 753 796  545 1392 2432  1395 1396 1711  1209 1215 1243  626 628 734  853 1174 1441  594 842 2535  100 101 977  1134 1347 1395  1163 1318 1355  1098 1124 1125  1493 1494 1495  311 2293 2426  2533 2545 3093  251 252 2952  25 294 2414  91 92 980  109 110 979  1233 2241 2779  733 741 2282  180 304 2423  1830 2697 2910  462 464 855  975 976 983  677 680 681  1391 1501 2284  506 1088 2435  1317 1431 1982  1024 1025 1026  748 802 2999  1059 1390 2453  103 104 2493  490 1088 2438  883 2613 2649  1828 2342 2795  1122 1250 2560  458 460 524  101 102 2492  511 531 2435  94 95 2499  1012 1052 2564  1263 1265 1452  1260 1483 1704  675 676 677  110 111 2494  2148 2402 2506  92 93 2497  824 867 2695  1280 1393 2402  270 271 2765  589 590 591  948 949 950  1343 1443 1444  55 380 2411  1903 1904 2905  1569 1570 2389  630 632 873  2043 2045 2966  1151 1470 2918  1097 1099 2923  1256 1258 2191  1311 1313 2482  591 592 593  452 454 525  1335 1527 1898  1145 1153 1353  102 103 936  510 519 2554  747 2350 3152  24 381 2414  636 638 750  811 1141 2500  181 382 2423  111 112 943  481 844 999  1175 1732 2454  1362 1363 1364  381 2250 2802  757 809 2502  93 94 929  533 541 2476  1047 1049 1139  1676 2419 2805  1243 1324 1491  2025 2246 3004  1191 1192 2641  818 819 821  718 732 853  950 951 952  1365 1366 1367  1211 1430 1823  588 589 590  112 113 2495  1250 1735 2560  429 1991 2296  1305 1307 2489  821 822 823  439 493 2658  1226 1492 1493  1381 1383 1384  592 1053 2535  1066 2724 2811  1244 2348 3014  143 144 2470  680 703 2670  1389 1812 1813  1477 1703 2566  952 953 955  1633 2308 2887  1248 2329 2442  593 594 595  113 114 1634  546 1225 2579  824 826 2695  416 1005 2364  1043 1045 1448  28 29 2605  1479 1483 2811  424 426 2593  1018 1152 1211  149 384 2422  340 2342 2795  1097 1098 1099  364 2251 2959  1131 1418 2358  1928 1929 1930  1139 2467 2559  1592 1594 2777  1373 1375 2575  1605 1607 1608  390 2152 2878  1410 1413 1488  2231 2603 2738  1086 1087 2671  56 380 2429  2031 2032 2988  762 778 779  509 546 2579  905 909 3135  114 115 2509  983 984 1021  813 815 2440  494 777 2580  1186 1433 1434  182 382 2428  1991 2857 3148  749 781 2479  796 839 1033  1372 1373 1374  184 185 2610  1311 1447 2482  2340 2833 3136  1225 1666 1667  310 2141 2785  1468 2124 2759  1033 1034 1753  1098 1125 2755  2057 2058 3081  764 811 2500  1247 1248 2442  766 767 812  1393 1439 1526  986 2184 3153  167 313 2627  1228 2260 2835  499 501 2490  526 2586 3156  640 642 869  1681 2141 3011  1913 1938 1939  115 116 303  1137 1400 2483  1367 1369 1370  526 2532 3156  1295 1297 2501  1960 2965 3109  1060 1155 1401  696 699 872  343 2317 2747  1542 1544 1694  1624 2696 2831  29 347 2605  392 2449 2801  599 765 2902  580 1036 2432  148 342 2422  1099 1124 1245  1681 2628 3011  590 591 592  1463 2356 2685  1348 2326 2589  1028 1038 1140  1364 1365 1366  1345 2001 2567  1375 1377 1518  116 117 2510  595 596 597  1445 1522 1523  1305 1317 2489  1373 2575 2614  1909 1916 2646  704 708 713  646 648 752  692 694 712  318 2251 2904  874 1758 3038  183 330 2428  57 344 2429  2336 2337 2719  210 211 2468  271 272 3133  656 735 1100  33 34 2746  1892 2174 2870  730 761 762  812 813 843  117 118 395  780 802 3085  1552 1553 2797  1282 1284 2506  556 569 2505  541 1392 2476  28 378 2605  551 2345 2912  1387 2433 2517  1261 2725 3116  1162 1163 1164  1415 2229 2512  1374 1375 1376  1100 1101 1102  1813 2557 2745  58 344 2430  412 414 2469  2342 2343 2544  396 2221 2938  2007 2345 2912  1930 1933 1934  1245 1335 1336  749 1036 2479  1369 1863 1864  87 2336 2719  341 2316 3077  1355 2472 2934  913 914 2882  2302 2502 2674  118 119 2527  592 593 594  1172 1860 1861  1608 1610 1611  1102 1103 1104  853 1123 1174  1104 1105 1106  1276 2074 2906  446 448 526  999 1199 1200  728 729 730  1174 1175 1466  1014 1018 1093  519 1119 2554  618 620 2539  763 2321 2830  430 432 1420  1434 1498 1693  764 2425 2500  1145 1353 2564  1168 1170 1195  1957 1958 3023  1218 1343 2531  119 120 333  142 143 2331  803 805 2524  158 374 2675  168 2478 2627  1269 1271 2523  1313 1351 2482  1273 1275 2516  145 146 2578  472 474 2511  1227 2095 3115  1943 2222 2227  1103 1105 2076  594 595 596  604 727 728  1532 1815 2587  1083 1453 2674  1431 2115 2851  120 121 2528  792 794 2529  1546 1973 2691  1506 1810 2807  685 687 714  450 452 2504  47 375 2582  1679 2726 3039  1934 1935 1936  809 1081 2502  167 168 2627  162 2340 2833  86 87 2719  468 470 2514  1359 1386 3002  1735 1779 2560  122 123 2533  1001 2178 2899  735 1101 1685  1427 1428 1449  855 2010 3041  649 652 2223  2013 2026 2629  159 2385 2675  1282 2402 2506  1444 1445 1522  1835 1837 2936  724 2889 2900  1484 2660 2789  556 888 2505  925 985 2600  209 210 376  294 2414 2415  1370 1372 1373  121 122 396  1724 1727 3119  751 2603 2738  1611 1613 1614  1060 1401 2580  602 603 604  502 504 2620  1307 1310 2489  1375 1518 2575  283 284 377  1754 1755 2997  296 2245 2571  569 588 2505  1160 1162 1163  1807 1808 2975  781 848 2479  1583 2177 2865  752 1097 1098  1199 1200 1201  1482 2137 2775  1846 2290 2970  849 858 2508  1523 1715 1718  434 436 521  1361 1363 2565  1376 1377 1378  1182 1459 1460  395 2436 2510  1884 2257 2561  1936 1940 1946  386 2354 2715  1265 1267 2536  123 124 2545  775 790 2541  151 326 2656  464 466 2515  59 2430 2431  1512 1719 2911  2025 2246 2982  852 2233 2736  1459 1471 2608  1213 1358 2626  1752 2896 2945  1941 2184 3029  403 2863 3070  1805 1807 3073  19 386 2443  884 1683 2508  186 385 2444  2376 2377 2812  1099 1245 2522  213 371 2401  1082 1329 2779  1366 1367 1369  1336 1527 1902  391 2110 2832  1751 2337 2971  412 1190 2469  1093 1152 1461  741 743 2540  280 372 2403  595 747 2770  2008 3050 3108  1360 1487 2766  1400 1673 2677  441 2658 2998  282 283 2692  124 125 297  1489 2231 2738  1569 1637 1646  921 922 2600  1295 1298 2501  867 868 2854  1297 1304 2501  1442 1443 2785  1023 1024 1186  812 843 1068  1157 2004 2259  430 1420 2593  2319 2834 3005  2004 2365 2912  1614 1615 1616  894 1014 1018  287 288 2619  2134 2336 2337  612 614 2542  1310 1731 2489  1703 2379 2881  345 2040 3035  1318 1355 1533  2274 2741 3056  460 462 2530  2314 2518 2519  414 1005 2469  150 384 2656  1026 1028 2558  150 151 2656  1105 2076 3138  1906 1909 2646  184 330 2610  1361 1386 2565  1421 1465 2689  842 2535 2957  18 295 2443  187 305 2444  1737 2095 3111  1991 2300 2857  1132 1196 1197  849 884 2508  984 1022 1023  90 91 2748  1079 2399 2626  1646 1653 1857  174 2290 2970  1111 1116 1216  1163 1164 1318  1258 1260 2550  608 610 2551  1186 1434 1708  1134 1438 2524  1254 1809 3022  1286 1288 2590  2519 2521 3088  825 868 992  522 532 2697  1138 1714 2596  1284 1289 2506  344 2430 3120  1491 2371 2686  1799 2392 2393  954 1883 3090  321 2381 2588  188 305 2445  1153 1256 2555  1539 1668 1669  588 590 2537  1304 1431 2501  1068 1138 1246  189 388 2445  968 970 971  597 598 599  15 387 2446  833 2551 2552  1418 1900 2358  1200 1201 1226  14 329 2446  1225 1667 2579  868 992 993  1805 1806 3099  1527 2028 3100  1939 1942 1943  971 975 976  2334 2399 2626  858 1127 2508  821 823 991  1341 2857 3148  813 843 2440  162 163 2833  1425 1426 1427  11 390 2450  194 392 2449  1049 1058 2559  185 385 2610  10 296 2450  195 306 2449  677 681 706  657 660 2234  440 442 534  1618 1621 1622  1175 1466 2454  1945 2694 3129  1616 1617 1618  2349 2456 2879  690 2447 2630  1502 2477 2617  1182 1460 1521  1495 1696 1721  535 2418 2973  863 877 1069  1201 1226 1389  1124 1245 1335  1749 2107 2654  1483 2811 2891  1637 1653 1658  1098 1099 1124  1531 1717 2904  499 2300 2490  1119 1478 2554  170 171 2845  1128 1446 2611  1364 2350 3152  1358 2626 2766  208 209 2525  1470 2261 2642  1195 2283 2817  654 656 735  524 2077 3109  620 724 2539  964 967 968  1079 1213 2626  1106 1108 1109  171 172 2848  711 718 2570  815 818 2440  158 159 2675  1286 1289 2590  588 2505 2537  1476 2275 3021  976 983 984  1415 2512 2679  662 664 690  917 919 982  1275 1279 2516  758 2456 2843  843 1068 1138  805 1134 2524  1045 1047 2562  614 866 2542  803 1032 2524  600 603 2745  1022 1023 1024  1552 2534 2797  612 833 2542  596 597 598  1095 1970 2749  301 3099 3141  1152 1211 1430  802 2587 3085  1020 1132 1196  1192 1263 2641  1335 1336 1527  1273 1322 2516  779 784 885  1631 1632 1655  610 833 2551  701 704 2576  1548 1550 1660  794 1032 2529  792 852 2529  1271 1322 2523  2228 2230 2963  984 1021 1022  1916 1918 1932  1423 1424 1425  2299 2480 3042  1998 2000 3137  1773 2864 2885  1279 1439 2516  309 2592 2773  668 670 698  1127 1128 2611  1451 2139 2707  608 2391 2551  837 861 883  1890 2673 3072  1436 1437 3092  1138 1246 1486  1373 1374 1375  1760 2221 3093  60 362 2431  959 963 964  1269 1292 2523  1180 1209 2563  1466 2454 2569  40 41 2868  501 766 2490  1343 1444 2531  955 956 959  1622 1628 1629  930 932 965  207 208 341  672 675 889  826 2604 2695  1422 1504 2901  694 696 2572  1473 2299 3042  285 286 343  1659 2421 3007  790 852 2541  327 2411 3028  1877 2504 2661  459 461 2728  1920 1922 1954  516 535 2973  798 2129 2992  1913 1939 1942  1515 1516 2787  992 993 1182  2024 2025 2982  1860 1861 3078  1018 1093 1152  1504 2327 2901  592 594 2535  628 630 2568  1267 1292 2536  925 927 985  604 728 882  217 218 2693  735 1100 1101  80 302 2459  81 393 2459  82 393 2461  83 332 2461  84 332 2463  85 394 2463  699 701 2581  638 640 2574  1465 2689 2793  853 1441 2570  1101 1102 1103  1869 2005 2915  642 644 2584  1126 2044 2339  1570 1573 2389  1642 2393 2928  1597 2174 2870  1147 2477 2782  971 976 988  1103 1104 1105  599 600 601  1946 2708 2815  2245 2246 2571  908 1073 2650  1265 1452 2536  730 762 776  1209 1243 2563  2346 2439 2689  840 2483 2677  1421 2439 2689  1375 1376 1377  743 796 2540  1335 1898 2618  1606 2257 3072  1038 1043 2583  2523 3082 3139  2124 2759 2921  1924 1926 1931  1757 2939 2981  2262 2273 2993  21 328 2715  1180 1440 2563  448 450 2661  937 939 986  703 2708 2815  1525 2948 3091  97 301 2488  1196 1197 1352  941 944 966  598 599 600  1727 2130 2903  1556 1558 1641  106 298 2487  1683 2508 2711  1575 1577 1627  1456 1473 3042  1566 1569 1637  1392 2263 2756  1057 2986 3104  1916 1932 2646  2306 2435 2914  1579 1581 1609  205 206 2647  444 446 2586  628 734 2568  833 2552 2678  2207 2764 3133  1260 1704 2550  1739 2841 2985  1560 1562 1649  1073 1416 2650  838 2346 2689  741 2282 2540  1585 1587 1626  286 287 2747  1383 1384 1423  1589 1591 1606  1258 2191 2550  1170 1172 2591  452 525 2504  1641 2797 2935  20 386 2715  2313 2314 2518  20 21 2715  630 873 2568  1018 1211 2612  402 2768 2869  145 360 2578  911 1701 2931  212 324 2401  1629 1631 1632  1173 1485 2687  964 968 987  1928 1930 2457  1256 2191 2555  1153 1353 2555  368 2543 2979  601 602 751  281 325 2403  1178 1440 2671  173 174 2970  105 978 2487  1087 1178 2671  125 126 2546  1127 2508 2711  96 981 2488  1449 1733 2212  1049 1139 2559  600 601 602  1773 1775 2864  1234 1455 3017  644 646 2594  1352 2657 3038  1593 1595 1620  472 856 2511  1677 1756 3098  1047 1139 2562  474 481 2511  638 750 2574  1453 2674 2794  2197 2201 3001  1934 1936 1937  1466 2569 2598  1081 2502 2674  1028 1140 2558  1399 2883 3158  2037 2038 2962  1944 1950 3130  198 391 3047  601 765 2602  468 482 2514  1690 2783 2993  1324 1491 2686  308 2707 2848  1429 1517 2742  572 755 2958  689 2507 2737  1045 1448 2562  432 434 2601  470 856 2514  1413 1415 2679  714 2133 3147  2177 2585 2954  1351 2482 2633  1716 2226 3022  388 2445 2599  1378 1379 1380  372 2403 2628  370 2162 2967  640 869 2574  1427 1449 1733  1599 1601 1612  1875 2532 3009  1467 2224 2927  400 2752 2773  1809 2566 3022  144 360 2470  1318 2286 2953  1220 1339 1707  948 950 973  104 978 2493  1263 1452 2641  1790 1985 2946  466 482 2515  1236 1516 2950  1393 2402 2643  1383 1423 1508  2264 2883 3158  1393 1526 2643  95 981 2499  1357 2287 3002  101 977 2492  1730 1818 2784  1793 1794 2850  1931 2195 3067  1508 1990 3036  384 2422 3080  464 855 2515  324 2468 2517  1024 1026 2577  190 388 2730  1174 1441 2606  110 979 2494  191 331 2730  92 980 2497  1043 1448 2583  1637 1646 1653  1081 1083 2674  718 853 2570  1460 1471 2698  1653 1857 1859  99 100 2875  642 869 2584  689 692 2737  1124 1125 2618  190 191 2730  2110 2832 3123  460 524 2530  392 2373 3065  103 936 2493  2287 2289 3002  23 381 2802  102 936 2492  386 2443 2629  2334 2626 2766  1932 2143 3040  949 1888 3094  1662 2079 2824  973 2267 3129  2518 2520 3025  1380 1381 1382  883 2813 2822  462 855 2530  704 713 2576  111 943 2494  1453 2419 2794  1032 2524 2767  94 929 2499  1432 2167 2889  1516 2787 3056  1380 1382 2313  2089 2478 2627  694 712 2572  696 872 2572  93 929 2497  1703 2566 2881  879 894 2612  840 2366 2677  2395 2813 2822  1133 2538 2871  1971 2862 2920  1462 2259 2940  1481 1699 2724  646 752 2594  1038 1140 2583  2170 2543 2979  699 872 2581  1377 1378 1379  706 2668 2844  1476 2275 3045  1324 1406 2686  112 943 2495  22 328 2802  1603 1605 1624  343 2317 3151  222 223 2741  1413 1488 2679  1186 1708 2577  955 959 972  1024 1186 2577  113 1634 2495  1809 2566 2881  1348 2589 2796  1499 1500 2798  381 2414 2617  765 2902 3107  252 359 2952  1705 1968 2844  765 2575 3107  1568 2008 3050  1769 2416 2623  1195 2591 2616  438 440 2701  2115 2851 3024  891 1511 2732  1503 2178 2899  2023 2024 2982  2173 2369 2767  114 1634 2509  1719 2911 2986  1464 2160 2790  1108 1111 2625  1444 2531 2604  1172 1861 2591  1765 2175 2884  838 2689 2793  1974 1975 3118  1438 2524 2767  2415 2477 2617  1071 2569 2860  1444 1522 2604  282 325 2692  448 526 2661  1664 2270 3027  2211 2356 2685  1370 1373 2614  1939 1947 2895  1369 1370 2614  38 312 3143  1400 2483 2677  1944 1949 3076  1441 2318 2834  1534 1903 3030  249 340 2795  115 303 2509  1170 1195 2591  1026 2558 2577  664 666 2630  2455 2587 3086  2128 2531 2823  39 312 3150  2101 2453 2908  1466 2598 2606  713 2319 3005  624 2820 3162  1611 1614 1623  211 324 2468  652 654 2635  432 1420 2601  446 526 2586  1847 2545 3093  1761 2547 2864  1989 2598 2606  1156 1397 2880  1138 1486 2596  1174 1466 2606  735 1685 2635  1381 1382 1383  1320 1478 2788  660 662 2632  450 2504 2661  1364 1366 3152  1315 1476 3021  116 303 2510  1443 2141 2785  701 2576 2581  2414 2415 2617  126 127 397  143 2331 2470  1410 1488 2751  2206 2207 2765  1682 1683 2944  456 2466 2965  838 2321 2793  644 2584 2594  1197 1220 2657  1717 2268 2836  1688 2265 2821  544 888 2914  76 77 353  681 683 2631  993 1020 2609  1228 2260 3078  1997 1998 3137  1163 1355 2934  999 1200 2688  1109 2866 2926  117 395 2510  1379 1380 1381  1416 1832 2725  877 879 2639  1155 1228 2835  331 2373 3065  434 521 2601  1872 1873 3156  622 624 2820  1416 2650 2725  204 205 351  1649 2624 2937  1889 2621 2886  394 2463 2464  1341 2690 2857  288 289 352  1979 1996 3079  1182 1521 2609  2184 2792 3029  2669 3076 3130  118 395 2527  307 3079 3121  1356 1690 2783  910 913 2723  1465 2178 2793  1329 2779 3159  2302 2674 2794  1082 1233 2779  1779 1780 2871  1918 1920 2648  833 2542 2678  1705 2838 2844  632 873 2786  666 668 2645  1433 2699 2913  1618 1622 1647  750 2387 2847  861 863 2649  710 2570 2834  2624 2664 2937  365 2269 2787  98 99 3141  1518 2602 2603  979 2494 2503  1226 1493 2615  119 333 2527  2422 2473 3080  1888 1889 2886  2044 2320 3004  601 751 2602  1156 1228 2880  1978 2512 2743  1130 1446 2823  2142 2891 3026  33 307 2746  1369 1864 2614  1675 1811 3086  1753 2332 3128  1516 2905 3056  1580 1630 3122  927 930 2655  120 333 2528  894 1018 2612  270 366 2765  2004 2259 2940  283 377 2692  1124 1335 2618  1705 1706 2838  943 2495 2496  395 2527 2884  1740 1741 2989  17 295 2874  812 1068 2690  1637 1658 2664  1417 1833 2801  16 387 2874  2229 2512 2743  366 2268 2836  1226 1389 2615  13 329 2878  2175 2527 2884  108 109 2754  12 390 2878  1493 1495 2640  1815 2587 3085  1577 1579 2665  1519 2552 2678  129 130 2713  1473 2299 2959  1686 2332 3128  823 825 2651  496 2512 2679  86 394 2719  121 396 2528  302 2459 2460  1564 1566 2664  631 725 2806  1674 1709 3087  421 423 2920  1714 2440 2700  1362 1487 3132  1600 1642 3117  993 1182 2609  122 396 2533  296 2571 2750  456 458 2965  939 941 2669  1475 2248 2764  1406 1408 2739  2281 2589 2796  1513 1514 2827  210 376 2468  109 979 2754  825 992 2651  1573 1575 2681  312 2548 3143  1623 3006 3145  1526 2643 2806  1587 1589 2672  883 2613 2813  248 2795 2942  636 750 2847  123 2533 2545  2240 2241 2779  603 2745 2977  1591 1593 2673  300 2474 2985  1152 1461 2662  1835 2936 3083  1461 1463 2892  1111 1216 2625  670 672 2659  2231 2603 3031  1523 1718 2800  1492 2688 2846  2335 2391 2753  377 2271 2984  1438 2369 2767  598 2557 2745  1495 1721 2640  2551 2552 2753  375 2194 3060  1020 1196 2609  1813 2745 2977  949 951 3094  440 534 2701  675 677 2668  1963 2622 2744  310 2294 2785  1197 1352 2657  1481 2724 2811  681 706 2631  984 1023 2699  1108 1109 2625  1408 1410 2751  1218 2531 2823  652 2223 2635  2202 2203 2991  823 991 2651  124 297 2545  877 1069 2639  2734 2763 2888  1389 1813 2740  900 1191 3058  1665 2896 2945  1558 1560 2760  863 1069 2649  1540 1839 3064  1676 1851 2805  2314 2519 2907  1850 2816 2893  127 128 2712  821 991 2700  1473 1530 2959  752 1098 2755  946 948 2694  1289 2243 2969  1216 2962 3020  2049 2548 3143  1506 2338 2807  1922 1924 2680  382 2428 2733  603 727 2977  654 735 2635  1629 1632 1659  1103 2076 3146  22 23 2802  1800 2509 3131  1746 1750 3108  602 604 2644  481 999 2688  1539 1669 1671  2189 2327 2901  2023 2571 2750  616 866 2939  664 690 2630  872 2581 2706  75 76 2720  1854 2678 2780  1406 2686 2739  868 1019 2854  1127 2611 2711  1292 2277 3082  1472 2386 2967  1168 1195 2817  192 331 3065  2311 2314 2829  662 690 2632  2088 2089 2819  193 392 3065  677 706 2668  257 258 2814  1034 1753 3128  660 2234 2632  2391 2551 2753  2064 2065 3139  531 2435 2914  1716 2566 3022  1669 1671 2691  698 2659 2660  79 302 2816  1401 2297 3062  1511 2732 2929  703 2670 2708  1873 2586 2818  1700 2632 2941  987 2734 2888  692 712 2737  2377 2427 3066  1291 1298 3089  384 2827 3080  985 2655 3118  345 2380 3114  2137 2588 3105  1479 1481 2811  1522 2604 2695  604 882 2644  861 883 2649  762 779 2684  1926 1928 2682  1668 1670 2873  2768 2861 2869  595 597 2770  1918 1932 2648  1476 1716 3045  602 751 2644  626 734 3162  1152 1430 2662  1657 2474 2667  1509 1510 2855  755 2302 2794  1655 2106 2156  1188 1678 2972  409 874 3160  668 698 2645  1501 1502 2782  1392 2432 2756  1741 2190 2995  779 885 2684  690 2632 2941  1920 1954 2648  1764 1765 2928  2037 2192 3020  618 2539 2939  1911 2344 2809  2372 2373 2919  766 812 2690  209 376 2525  1220 1707 2657  2064 3082 3139  1788 2308 2777  1118 1160 2934  879 2612 2639  1358 1360 2766  724 2539 2889  91 980 2748  2162 2386 2967  1712 2638 2761  1684 2956 3013  1105 1106 2926  1608 1611 2717  2154 2252 2897  2167 2889 2900  818 821 2700  2015 2017 2877  632 634 2786  725 2643 2806  1520 2552 2753  1490 2167 2900  1632 1655 1656  374 2381 3105  1696 1721 2781  859 2028 3100  1139 2562 3059  672 889 2659  1601 1603 2696  2376 2517 2812  78 79 2816  930 965 2655  392 2801 3054  766 2490 2690  324 2517 2812  2076 2522 3146  1893 2804 3103  1320 1852 2788  1398 3120 3142  1658 2298 2951  867 2695 2800  802 2587 3086  1066 2811 2891  670 698 2659  1849 2799 3111  2204 2418 2973  941 966 2669  971 988 2702  1696 1698 2781  927 985 2655  1334 1686 3128  1803 1808 2894  1935 1940 2888  2124 2125 2921  1553 1556 2797  675 889 2668  1389 2615 2740  1924 1931 2680  1447 2482 2776  395 2436 2884  1821 2462 2897  405 1539 2859  939 986 2669  703 2815 2961  763 810 2830  436 521 2849  1922 1954 2680  1067 1235 3069  1036 2432 2756  2482 2633 2776  755 2805 2958  1408 2739 2751  1493 2615 2640  598 600 2745  2534 2797 2935  481 2511 2688  762 776 2684  1577 1627 2665  399 2637 2638  1463 2685 2892  2515 3019 3041  321 2588 2936  1579 1609 2665  1641 2623 2760  818 2440 2700  2443 2629 2774  132 133 2791  442 534 2818  1566 1637 2664  128 129 334  1575 1627 2681  1382 2313 2518  1348 2359 2796  1928 2457 2682  976 984 2699  346 2379 2881  1589 1606 2672  1587 1626 2672  1765 2393 2928  174 2290 3164  287 2619 2747  125 297 2546  2001 2832 3123  296 2450 2750  1288 2590 3089  1573 2389 2681  1757 2539 2939  1591 1606 2673  2246 2571 2982  1926 1931 2682  1593 1620 2673  1558 1641 2760  1246 1486 2862  1534 2201 3030  343 2271 2984  1164 1318 2953  666 2630 2645  1005 2451 3008  950 952 2704  1399 2479 2883  444 2586 2818  235 236 2863  74 75 400  1441 2570 2834  1937 2670 2708  312 3068 3150  976 988 2699  208 341 2525  315 2262 2993  708 713 3005  366 2765 3163  1191 2683 3058  968 971 2702  948 973 2694  1560 1649 2760  1730 2784 3044  203 204 2634  243 339 2949  814 816 3016  1520 2753 2890  1864 2902 3107  1508 2520 3025  295 2443 2774  964 987 2734  289 290 2636  378 2325 3127  1936 1946 2708  286 343 2747  1930 1934 2710  982 2486 2882  2349 2350 2879  837 883 2822  1934 1937 2710  932 965 2792  1496 1979 3121  796 2540 2867  1597 1599 2870  1655 1656 2156  1524 2796 2948  1550 1660 2808  1487 2766 2843  1398 1737 3120  1707 2726 3039  1684 2742 3013  1798 1831 2887  1755 2637 2727  685 714 3147  2192 2472 3020  2460 2654 2778  1522 2695 2800  303 2392 3131  1895 2176 2804  2425 2500 3057  816 2279 2987  932 934 2792  952 955 2705  1507 1757 2981  2074 2372 2919  1502 2477 2782  1522 1523 2800  1544 2573 2974  2335 2753 2890  442 444 2818  1913 1942 2809  1685 2522 3146  1672 2540 2867  1397 2687 2880  1427 1733 2722  1166 1168 2817  2129 2776 2992  1904 2274 2905  372 2628 3011  968 987 2702  1425 1427 2722  1770 2778 3155  1698 2011 2810  297 2546 2547  1601 1612 2696  163 346 2833  682 703 2961  1130 1218 2823  1936 1937 2708  2170 2171 2979  2137 2588 3063  758 2334 2843  1979 3079 3121  2216 2820 3162  1930 2457 2710  1701 2931 3165  2112 2114 3024  622 724 2820  130 131 2714  752 2594 2755  170 349 2845  1556 1641 2797  2022 2750 2839  1196 2609 2852  2044 2339 3004  1116 1118 3157  950 973 2704  1630 2360 2850  2547 2864 2885  881 2593 2955  1521 2609 2852  1697 2010 3041  1603 1624 2696  1605 1608 2729  1550 1552 2808  1663 2230 3101  172 308 2848  1684 2956 3070  966 2595 3140  2365 2940 3008  1398 1734 3142  2126 2528 2938  2104 2562 3059  1611 1623 2717  2377 2812 3066  1423 1425 2721  344 2429 2799  2173 2233 2976  955 972 2705  16 17 2874  1796 2492 3110  1964 2218 3006  1860 2687 2880  597 2770 2902  1423 1508 2721  1661 1810 2947  903 905 3135  1952 2600 2990  313 2627 2819  996 1066 2891  1455 2480 3042  12 13 2878  1740 1742 3028  1695 1697 3019  1036 2756 2883  2337 2719 2971  2011 2749 2810  1207 2137 3063  784 885 2925  917 982 2882  1714 2596 3134  2206 2765 3163  872 2572 2927  1339 1755 2726  2622 2717 2729  438 2701 2849  1961 2749 3023  2240 2779 3159  73 74 2773  314 2764 3133  959 964 2734  936 2492 3110  1097 2223 2923  1528 2582 3060  302 2460 2893  1844 2040 3035  1510 2526 2855  866 2542 2780  1728 1730 3044  1690 2273 2993  284 377 2984  1857 1858 2876  2043 2966 3037  1377 1518 3031  2596 2608 3134  972 2734 2763  2496 2757 3049  2474 2667 2735  392 2373 3054  1383 1508 3025  730 776 3126  1905 2646 3040  1512 1514 2911  2199 2202 2980  1030 2153 3010  325 2403 2826  1151 2225 2918  319 2255 3003  1896 2666 2876  1184 2108 2908  835 837 2822  1841 2051 3068  1742 3028 3052  41 345 2868  690 2447 2941  323 2078 3064  634 636 2847  1497 1809 3136  2445 2599 2988  634 2786 2847  2224 2572 2927  2768 2861 2916  1585 1626 2865  1155 1401 2835  2338 2807 2957  1619 1746 3108  1605 1624 2729  2114 2590 3089  1005 2364 3008  2622 2717 2744  2193 2366 2856  1216 3020 3157  1837 2588 2936  1262 1276 3116  436 438 2849  1339 1707 2726  368 2417 2979  745 2633 2776  285 343 2984  1742 1849 3052  2013 2629 2774  1101 1685 3146  1673 2677 2856  1321 1853 2944  959 972 2734  1938 1939 2895  986 2669 3130  1447 2776 2992  943 2494 2757  324 2401 2812  355 2526 2855  1698 2781 2810  882 2607 3126  2403 2628 2826  1562 1649 2937  374 2775 3105  1669 2691 2872  1832 1833 2906  1470 2642 2995  909 2723 2895  1530 1531 2904  2291 2693 2922  2542 2678 2780  564 579 2968  1487 2879 3132  1987 2683 3058  306 2110 3123  2450 2750 2839  1789 2308 3049  126 397 2546  882 2644 2771  288 352 2619  551 2365 2912  1203 1422 2901  2409 2475 2931  1489 2738 2771  1911 1913 2809  205 351 2647  2223 2635 2923  202 203 398  1329 2538 3159  1503 1505 2899  1133 2560 2871  2058 2733 3081  1832 2725 3116  514 516 2973  290 291 399  206 2647 3077  1041 2324 3091  174 175 3164  1246 1692 2862  1685 2635 2923  570 572 2958  2494 2503 2757  1691 2206 3163  2338 2556 2957  1460 2698 2930  1889 2434 2831  67 68 2828  937 986 3153  914 917 2882  1829 2613 2813  72 73 309  1666 1667 2860  1779 2560 2871  579 2968 2999  943 2496 2757  865 2335 2890  524 2965 3109  343 2271 3151  1509 2855 3014  796 1033 2867  482 2515 3019  313 2819 3096  1425 2721 2722  379 2642 2917  750 2574 2824  390 2450 2839  1364 2350 3132  1858 2666 2876  332 2465 3112  1298 2501 2851  207 341 3077  1113 1238 2986  1664 1665 2945  2228 2229 2963  1350 2158 3084  1767 2534 2935  1692 2296 3148  2218 3006 3145  776 2607 3126  531 544 2914  1041 2281 2948  1608 2717 2729  579 748 2999  1715 1718 2972  1680 2271 3151  952 2704 2705  597 599 2902  201 202 2758  944 966 3140  1431 2501 2851  728 882 3126  1592 2777 3071  1518 2603 3031  1322 2523 3139  291 292 2761  284 285 2984  100 977 2875  713 2576 2821  1669 1670 2872  1725 2592 2752  2300 2490 2857  364 2299 2959  1196 1352 2852  1665 2134 2896  1235 1236 2950  2176 2177 2954  1749 2778 3155  1686 1830 2910  1660 2573 3034  1529 2290 2983  175 350 3164  2105 2768 2916  142 2331 3055  1668 2828 2858  133 134 2841  1366 1863 3152  683 2631 3147  131 132 357  911 2409 2931  2366 2677 2856  526 2532 3009  382 2733 3081  856 2511 2846  1618 1647 2898  1583 1585 2865  1509 2348 3014  1622 1629 2769  2334 2766 2843  1885 2585 2954  71 72 2772  200 201 1710  1537 2931 3165  403 2331 2956  1673 2437 3095  1564 2664 2937  292 293 1712  272 314 3133  1036 2479 2883  1755 2726 2727  1629 1659 2769  1622 1647 2769  2460 2893 2994  780 846 3085  1641 2623 2935  1996 2375 3079  1238 2911 2986  973 2694 3129  1599 1612 2870  1745 1749 3155  138 139 2861  137 356 2933  1789 2757 3049  1032 2529 2976  379 2398 2917  1166 2817 2953  1645 1761 3033  1903 2950 3030  1254 2226 3022  616 618 2939  2490 2690 2857  173 308 2970  1789 2503 2757  1501 2782 3075  2511 2688 2846  2032 2599 2988  321 2396 2936  1826 1828 2942  1800 2392 3131  962 2924 3034  2089 2627 2819  1656 2966 3037  2171 2417 2979  1095 2749 3023  710 2834 3005  1382 2518 3025  360 2470 3013  351 2647 2829  2025 2339 3004  2323 2538 3159  1436 1830 3092  1357 1359 3002  784 835 2925  1139 2467 3059  1160 1163 2934  70 71 401  706 2631 2838  1872 2532 3156  1623 2717 2744  77 353 3149  2581 2706 2932  2203 2418 2991  1852 1853 2987  302 2816 2893  946 2694 3140  127 397 2712  1472 2034 2967  1544 1694 2974  2133 2631 3147  2281 2796 2948  1562 1564 2937  394 2719 2971  76 353 2720  309 2592 3161  835 2822 2925  1719 2986 3104  300 2735 3074  360 2742 3013  1164 1166 2953  1067 1141 3069  2575 2614 3107  1931 2680 3067  1461 2662 2892  1106 1109 2926  206 207 3077  1668 2828 2873  192 193 3065  1709 2845 3087  1938 2723 2895  1233 1234 3017  1970 2749 2810  2134 2337 2896  1885 2804 2954  1687 1717 3046  2034 2863 3070  2173 2767 2976  898 900 3058  351 2829 2907  1184 2908 3043  991 2608 3134  1788 2777 3071  78 2816 3149  1455 1456 3042  2401 2812 3066  66 67 2858  1836 1837 3124  1460 1521 2930  359 2721 2722  2240 2323 3159  1932 2646 3040  69 70 2803  2122 2558 3154  1483 2891 3026  1184 2351 3043  1614 1623 3145  1870 2701 2849  37 38 3143  2500 2980 3057  1315 1351 3021  1848 1849 3115  2233 2529 2976  39 40 3150  1712 2638 3053  1749 2654 2778  856 2846 2964  1240 1537 3165  1447 1731 2992  1537 2475 2931  1684 2034 3070  1873 2586 3156  458 524 2965  708 710 3005  399 2636 2637  988 2699 2913  1958 1961 3023  1616 1618 2898  1439 2516 3144  1041 2948 3091  63 2663 3051  2398 2917 2989  1399 1682 3158  1420 2601 2909  1697 3019 3041  327 2398 2989  961 2621 2886  1833 2906 2919  1 63 3051  1341 1692 3148  3 142 3055  934 2792 3153  68 69 335  1288 1291 3089  2264 2424 3158  356 2667 2916  139 140 2869  129 334 2713  1486 2596 3125  1862 2698 2930  1289 2590 2969  0 402 2676  1352 2840 2852  2396 2936 3083  1483 1704 3026  372 2330 3011  872 2706 2927  1944 3076 3130  2576 2581 2932  204 351 2634  289 352 2636  2037 2962 3020  2001 2567 3123  77 78 3149  2576 2821 2932  1991 2296 3148  2595 2694 3140  2364 2365 3008  134 135 300  1420 2593 2955  128 334 2712  1514 2473 3080  1719 1720 3104  1501 2284 3075  2289 2693 2922  854 2425 3057  978 2487 2946  1533 2658 2998  332 2461 3112  856 2514 2964  2074 2906 2919  2558 2577 3154  1755 2637 2997  1656 2156 2966  1034 1334 3128  1828 2795 2942  405 1539 2837  1761 2864 3033  1362 1364 3132  1533 2471 2998  1852 2987 3016  1660 2808 2924  75 400 2720  305 2445 2988  394 2464 2971  130 2713 2714  313 2370 3096  1675 2455 3086  373 2396 3083  307 2746 3121  1632 1656 3007  1420 2909 2955  1032 2767 2976  307 2375 3079  1662 2824 3000  1682 2424 3158  991 2700 3134  1786 1788 3071  351 2634 2907  1539 1671 2837  359 2722 2952  64 405 2859  65 66 361  306 2567 3123  2107 2461 3112  2331 2470 2956  1741 2917 2989  137 138 356  1750 1752 3050  981 2499 2975  624 626 3162  1768 2808 2924  2316 2647 3077  339 2685 2892  1773 2885 2943  1818 2784 2994  136 137 2933  382 2423 3081  2546 2547 2885  869 2574 3000  985 2600 2990  724 2820 2900  2574 2824 3000  2023 2571 2982  98 301 3141  1851 2805 2958  371 2401 3066  2472 3020 3157  396 2528 2938  1737 2799 3111  378 2605 3127  2395 2822 2925  1527 1898 3100  683 685 3147  1377 1379 3031  2381 2588 3105  140 141 402  1216 2625 2962  375 2582 3060  2176 2804 2954  1733 2722 2952  482 2514 3018  1382 1383 3025  135 136 3074  816 2987 3016  1692 2862 2920  346 2833 3136  2211 2685 2949  1632 1659 3007  1486 2853 3125  1714 2700 3134  399 2638 2761  1813 2740 2977  1116 1216 3157  2840 2852 3106  2137 2775 3105  1521 2852 3106  728 730 3126  74 400 2773  1727 2592 3161  1101 1103 3146  2265 2821 2932  934 937 3153  1292 2523 3082  855 2515 3041  944 946 3140  1818 2893 2994  1833 2801 3054  913 2723 3012  64 65 2859  526 2661 3009  2184 2792 3153  397 2546 2885  2636 2637 2997  981 2488 3073  1616 2898 3145  1885 3090 3103  1837 2588 3063  1322 2516 3144  1935 2763 2888  2634 2907 3088  2006 2909 2955  2514 2964 3018  1850 2816 3149  866 2780 2981  2519 2907 3088  203 398 2634  1878 2597 3032  1725 2592 3119  290 399 2636  978 2946 3097  1725 3113 3119  978 2493 3097  133 2791 2841  1614 1616 3145  132 357 2791  981 2975 3073  965 2792 3029  1630 2850 3122  1775 2864 3033  2642 2917 2995  339 2685 2949  1852 2788 3016  1708 2577 3154  2460 2778 2994  1938 2723 3012  73 309 2773  1864 2614 3107  1877 2661 3009  1727 2592 3119  131 357 2714  2000 2605 3127  2373 2919 3054  365 2787 3056  1724 3113 3119  987 2702 3061  334 2713 2978  303 2509 3131  1717 2836 3046  1508 2721 3036  966 2669 3076  398 2634 3088  350 2983 3164  1623 2744 3006  987 2888 3061  2314 2829 2907  1606 2673 3072  1764 2928 3117  1298 2851 3024  335 2828 2873  401 2772 2903  352 2636 2997  202 398 2758  1833 2919 3054  1624 2831 3166  980 2748 3098  366 2836 3163  291 399 2761  2051 3068 3150  397 2712 2943  72 309 2772  1670 2872 3015  1691 2836 3046  954 3090 3103  782 2840 3106  345 2868 3035  1940 2888 3061  201 1710 2758  2218 2898 3145  1660 2924 3034  292 1712 2761  1514 2827 3080  1741 2917 2995  1401 2835 3062  397 2885 2943  349 2845 3087  1656 3007 3037  1642 2928 3117  1885 2804 3103  1985 2946 3097  67 2828 2858  1207 3063 3124  71 401 2772  1807 2975 3073  2470 2956 3013  1141 3001 3069  2622 2729 3166  482 3018 3019  874 3039 3160  403 2956 3070  1235 2950 3030  2350 2879 3132  2274 2905 3056  1673 2856 3095  68 335 2828  135 300 3074  334 2712 2996  1888 2886 3094  2308 2887 3049  359 2721 3036  2202 2980 3057  356 2861 2916  1624 2729 3166  2421 3007 3037  1664 2945 3027  70 401 2803  1521 2930 3106  1837 3063 3124  300 2841 2985  2772 2903 3161  134 300 2841  334 2978 2996  2 64 405  139 2861 2869  1691 2836 3163  2712 2943 2996  1793 2850 3122  1695 3018 3019  1966 2872 3015  69 335 2803  2201 3001 3069  138 356 2861  1772 2978 2996  1727 2903 3161  66 361 2858  1322 3139 3144  2290 2983 3164  309 2772 3161  1679 3039 3160  140 402 2869  1849 3111 3115  2065 3139 3144  2095 3111 3115  65 361 2859  2735 2933 3074  136 2933 3074  0 6 322  0 322 2676  2 199 323  2 323 405  4 200 1710  4 255 1710  5 238 1712  5 293 1712  </DataArray>
<DataArray  type="UInt32"  Name="offsets"  format="ascii">3 6 9 12 15 18 21 24 27 30 33 36 39 42 45 48 51 54 57 60 63 66 69 72 75 78 81 84 87 90 93 96 99 102 105 108 111 114 117 120 123 126 129 132 135 138 141 144 147 150 153 156 159 162 165 168 171 174 177 180 183 186 189 192 195 198 201 204 207 210 213 216 219 222 225 228 231 234 237 240 243 246 249 252 255 258 261 264 267 270 273 276 279 282 285 288 291 294 297 300 303 306 309 312 315 318 321 324 327 330 333 336 339 342 345 348 351 354 357 360 363 366 369 372 375 378 381 384 387 390 393 396 399 402 405 408 411 414 417 420 423 426 429 432 435 438 441 444 447 450 453 456 459 462 465 468 471 474 477 480 483 486 489 492 495 498 501 504 507 510 513 516 519 522 525 528 531 534 537 540 543 546 549 552 555 558 561 564 567 570 573 576 579 582 585 588 591 594 597 600 603 606 609 612 615 618 621 624 627 630 633 636 639 642 645 648 651 654 657 660 663 666 669 672 675 678 681 684 687 690 693 696 699 702 705 708 711 714 717 720 723 726 729 732 735 738 741 744 747 750 753 756 759 762 765 768 771 774 777 780 783 786 789 792 795 798 801 804 807 810 813 816 819 822 825 828 831 834 837 840 843 846 849 852 855 858 861 864 867 870 873 876 879 882 885 888 891 894 897 900 903 906 909 912 915 918 921 924 927 930 933 936 939 942 945 948 951 954 957 960 963 966 969 972 975 978 981 984 987 990 993 996 999 1002 1005 1008 1011 1014 1017 1020 1023 1026 1029 1032 1035 1038 1041 1044 1047 1050 1053 1056 1059 1062 1065 1068 1071 1074 1077 1080 1083 1086 1089 1092 1095 1098 1101 1104 1107 1110 1113 1116 1119 1122 1125 1128 1131 1134 1137 1140 1143 1146 1149 1152 1155 1158 1161 1164 1167 1170 1173 1176 1179 1182 1185 1188 1191 1194 1197 1200 1203 1206 1209 1212 1215 1218 1221 1224 1227 1230 1233 1236 1239 1242 1245 1248 1251 1254 1257 1260 1263 1266 1269 1272 1275 1278 1281 1284 1287 1290 1293 1296 1299 1302 1305 1308 1311 1314 1317 1320 1323 1326 1329 1332 1335 1338 1341 1344 1347 1350 1353 1356 1359 1362 1365 1368 1371 1374 1377 1380 1383 1386 1389 1392 1395 1398 1401 1404 1407 1410 1413 1416 1419 1422 1425 1428 1431 1434 1437 1440 1443 1446 1449 1452 1455 1458 1461 1464 1467 1470 1473 1476 1479 1482 1485 1488 1491 1494 1497 1500 1503 1506 1509 1512 1515 1518 1521 1524 1527 1530 1533 1536 1539 1542 1545 1548 1551 1554 1557 1560 1563 1566 1569 1572 1575 1578 1581 1584 1587 1590 1593 1596 1599 1602 1605 1608 1611 1614 1617 1620 1623 1626 1629 1632 1635 1638 1641 1644 1647 1650 1653 1656 1659 1662 1665 1668 1671 1674 1677 1680 1683 1686 1689 1692 1695 1698 1701 1704 1707 1710 1713 1716 1719 1722 1725 1728 1731 1734 1737 1740 1743 1746 1749 1752 1755 1758 1761 1764 1767 1770 1773 1776 1779 1782 1785 1788 1791 1794 1797 1800 1803 1806 1809 1812 1815 1818 1821 1824 1827 1830 1833 1836 1839 1842 1845 1848 1851 1854 1857 1860 1863 1866 1869 1872 1875 1878 1881 1884 1887 1890 1893 1896 1899 1902 1905 1908 1911 1914 1917 1920 1923 1926 1929 1932 1935 1938 1941 1944 1947 1950 1953 1956 1959 1962 1965 1968 1971 1974 1977 1980 1983 1986 1989 1992 1995 1998 2001 2004 2007 2010 2013 2016 2019 2022 2025 2028 2031 2034 2037 2040 2043 2046 2049 2052 2055 2058 2061 2064 2067 2070 2073 2076 2079 2082 2085 2088 2091 2094 2097 2100 2103 2106 2109 2112 2115 2118 2121 2124 2127 2130 2133 2136 2139 2142 2145 2148 2151 2154 2157 2160 2163 2166 2169 2172 2175 2178 2181 2184 2187 2190 2193 2196 2199 2202 2205 2208 2211 2214 2217 2220 2223 2226 2229 2232 2235 2238 2241 2244 2247 2250 2253 2256 2259 2262 2265 2268 2271 2274 2277 2280 2283 2286 2289 2292 2295 2298 2301 2304 2307 2310 2313 2316 2319 2322 2325 2328 2331 2334 2337 2340 2343 2346 2349 2352 2355 2358 2361 2364 2367 2370 2373 2376 2379 2382 2385 2388 2391 2394 2397 2400 2403 2406 2409 2412 2415 2418 2421 2424 2427 2430 2433 2436 2439 2442 2445 2448 2451 2454 2457 2460 2463 2466 2469 2472 2475 2478 2481 2484 2487 2490 2493 2496 2499 2502 2505 2508 2511 2514 2517 2520 2523 2526 2529 2532 2535 2538 2541 2544 2547 2550 2553 2556 2559 2562 2565 2568 2571 2574 2577 2580 2583 2586 2589 2592 2595 2598 2601 2604 2607 2610 2613 2616 2619 2622 2625 2628 2631 2634 2637 2640 2643 2646 2649 2652 2655 2658 2661 2664 2667 2670 2673 2676 2679 2682 2685 2688 2691 2694 2697 2700 2703 2706 2709 2712 2715 2718 2721 2724 2727 2730 2733 2736 2739 2742 2745 2748 2751 2754 2757 2760 2763 2766 2769 2772 2775 2778 2781 2784 2787 2790 2793 2796 2799 2802 2805 2808 2811 2814 2817 2820 2823 2826 2829 2832 2835 2838 2841 2844 2847 2850 2853 2856 2859 2862 2865 2868 2871 2874 2877 2880 2883 2886 2889 2892 2895 2898 2901 2904 2907 2910 2913 2916 2919 2922 2925 2928 2931 2934 2937 2940 2943 2946 2949 2952 2955 2958 2961 2964 2967 2970 2973 2976 2979 2982 2985 2988 2991 2994 2997 3000 3003 3006 3009 3012 3015 3018 3021 3024 3027 3030 3033 3036 3039 3042 3045 3048 3051 3054 3057 3060 3063 3066 3069 3072 3075 3078 3081 3084 3087 3090 3093 3096 3099 3102 3105 3108 3111 3114 3117 3120 3123 3126 3129 3132 3135 3138 3141 3144 3147 3150 3153 3156 3159 3162 3165 3168 3171 3174 3177 3180 3183 3186 3189 3192 3195 3198 3201 3204 3207 3210 3213 3216 3219 3222 3225 3228 3231 3234 3237 3240 3243 3246 3249 3252 3255 3258 3261 3264 3267 3270 3273 3276 3279 3282 3285 3288 3291 3294 3297 3300 3303 3306 3309 3312 3315 3318 3321 3324 3327 3330 3333 3336 3339 3342 3345 3348 3351 3354 3357 3360 3363 3366 3369 3372 3375 3378 3381 3384 3387 3390 3393 3396 3399 3402 3405 3408 3411 3414 3417 3420 3423 3426 3429 3432 3435 3438 3441 3444 3447 3450 3453 3456 3459 3462 3465 3468 3471 3474 3477 3480 3483 3486 3489 3492 3495 3498 3501 3504 3507 3510 3513 3516 3519 3522 3525 3528 3531 3534 3537 3540 3543 3546 3549 3552 3555 3558 3561 3564 3567 3570 3573 3576 3579 3582 3585 3588 3591 3594 3597 3600 3603 3606 3609 3612 3615 3618 3621 3624 3627 3630 3633 3636 3639 3642 3645 3648 3651 3654 3657 3660 3663 3666 3669 3672 3675 3678 3681 3684 3687 3690 3693 3696 3699 3702 3705 3708 3711 3714 3717 3720 3723 3726 3729 3732 3735 3738 3741 3744 3747 3750 3753 3756 3759 3762 3765 3768 3771 3774 3777 3780 3783 3786 3789 3792 3795 3798 3801 3804 3807 3810 3813 3816 3819 3822 3825 3828 3831 3834 3837 3840 3843 3846 3849 3852 3855 3858 3861 3864 3867 3870 3873 3876 3879 3882 3885 3888 3891 3894 3897 3900 3903 3906 3909 3912 3915 3918 3921 3924 3927 3930 3933 3936 3939 3942 3945 3948 3951 3954 3957 3960 3963 3966 3969 3972 3975 3978 3981 3984 3987 3990 3993 3996 3999 4002 4005 4008 4011 4014 4017 4020 4023 4026 4029 4032 4035 4038 4041 4044 4047 4050 4053 4056 4059 4062 4065 4068 4071 4074 4077 4080 4083 4086 4089 4092 4095 4098 4101 4104 4107 4110 4113 4116 4119 4122 4125 4128 4131 4134 4137 4140 4143 4146 4149 4152 4155 4158 4161 4164 4167 4170 4173 4176 4179 4182 4185 4188 4191 4194 4197 4200 4203 4206 4209 4212 4215 4218 4221 4224 4227 4230 4233 4236 4239 4242 4245 4248 4251 4254 4257 4260 4263 4266 4269 4272 4275 4278 4281 4284 4287 4290 4293 4296 4299 4302 4305 4308 4311 4314 4317 4320 4323 4326 4329 4332 4335 4338 4341 4344 4347 4350 4353 4356 4359 4362 4365 4368 4371 4374 4377 4380 4383 4386 4389 4392 4395 4398 4401 4404 4407 4410 4413 4416 4419 4422 4425 4428 4431 4434 4437 4440 4443 4446 4449 4452 4455 4458 4461 4464 4467 4470 4473 4476 4479 4482 4485 4488 4491 4494 4497 4500 4503 4506 4509 4512 4515 4518 4521 4524 4527 4530 4533 4536 4539 4542 4545 4548 4551 4554 4557 4560 4563 4566 4569 4572 4575 4578 4581 4584 4587 4590 4593 4596 4599 4602 4605 4608 4611 4614 4617 4620 4623 4626 4629 4632 4635 4638 4641 4644 4647 4650 4653 4656 4659 4662 4665 4668 4671 4674 4677 4680 4683 4686 4689 4692 4695 4698 4701 4704 4707 4710 4713 4716 4719 4722 4725 4728 4731 4734 4737 4740 4743 4746 4749 4752 4755 4758 4761 4764 4767 4770 4773 4776 4779 4782 4785 4788 4791 4794 4797 4800 4803 4806 4809 4812 4815 4818 4821 4824 4827 4830 4833 4836 4839 4842 4845 4848 4851 4854 4857 4860 4863 4866 4869 4872 4875 4878 4881 4884 4887 4890 4893 4896 4899 4902 4905 4908 4911 4914 4917 4920 4923 4926 4929 4932 4935 4938 4941 4944 4947 4950 4953 4956 4959 4962 4965 4968 4971 4974 4977 4980 4983 4986 4989 4992 4995 4998 5001 5004 5007 5010 5013 5016 5019 5022 5025 5028 5031 5034 5037 5040 5043 5046 5049 5052 5055 5058 5061 5064 5067 5070 5073 5076 5079 5082 5085 5088 5091 5094 5097 5100 5103 5106 5109 5112 5115 5118 5121 5124 5127 5130 5133 5136 5139 5142 5145 5148 5151 5154 5157 5160 5163 5166 5169 5172 5175 5178 5181 5184 5187 5190 5193 5196 5199 5202 5205 5208 5211 5214 5217 5220 5223 5226 5229 5232 5235 5238 5241 5244 5247 5250 5253 5256 5259 5262 5265 5268 5271 5274 5277 5280 5283 5286 5289 5292 5295 5298 5301 5304 5307 5310 5313 5316 5319 5322 5325 5328 5331 5334 5337 5340 5343 5346 5349 5352 5355 5358 5361 5364 5367 5370 5373 5376 5379 5382 5385 5388 5391 5394 5397 5400 5403 5406 5409 5412 5415 5418 5421 5424 5427 5430 5433 5436 5439 5442 5445 5448 5451 5454 5457 5460 5463 5466 5469 5472 5475 5478 5481 5484 5487 5490 5493 5496 5499 5502 5505 5508 5511 5514 5517 5520 5523 5526 5529 5532 5535 5538 5541 5544 5547 5550 5553 5556 5559 5562 5565 5568 5571 5574 5577 5580 5583 5586 5589 5592 5595 5598 5601 5604 5607 5610 5613 5616 5619 5622 5625 5628 5631 5634 5637 5640 5643 5646 5649 5652 5655 5658 5661 5664 5667 5670 5673 5676 5679 5682 5685 5688 5691 5694 5697 5700 5703 5706 5709 5712 5715 5718 5721 5724 5727 5730 5733 5736 5739 5742 5745 5748 5751 5754 5757 5760 5763 5766 5769 5772 5775 5778 5781 5784 5787 5790 5793 5796 5799 5802 5805 5808 5811 5814 5817 5820 5823 5826 5829 5832 5835 5838 5841 5844 5847 5850 5853 5856 5859 5862 5865 5868 5871 5874 5877 5880 5883 5886 5889 5892 5895 5898 5901 5904 5907 5910 5913 5916 5919 5922 5925 5928 5931 5934 5937 5940 5943 5946 5949 5952 5955 5958 5961 5964 5967 5970 5973 5976 5979 5982 5985 5988 5991 5994 5997 6000 6003 6006 6009 6012 6015 6018 6021 6024 6027 6030 6033 6036 6039 6042 6045 6048 6051 6054 6057 6060 6063 6066 6069 6072 6075 6078 6081 6084 6087 6090 6093 6096 6099 6102 6105 6108 6111 6114 6117 6120 6123 6126 6129 6132 6135 6138 6141 6144 6147 6150 6153 6156 6159 6162 6165 6168 6171 6174 6177 6180 6183 6186 6189 6192 6195 6198 6201 6204 6207 6210 6213 6216 6219 6222 6225 6228 6231 6234 6237 6240 6243 6246 6249 6252 6255 6258 6261 6264 6267 6270 6273 6276 6279 6282 6285 6288 6291 6294 6297 6300 6303 6306 6309 6312 6315 6318 6321 6324 6327 6330 6333 6336 6339 6342 6345 6348 6351 6354 6357 6360 6363 6366 6369 6372 6375 6378 6381 6384 6387 6390 6393 6396 6399 6402 6405 6408 6411 6414 6417 6420 6423 6426 6429 6432 6435 6438 6441 6444 6447 6450 6453 6456 6459 6462 6465 6468 6471 6474 6477 6480 6483 6486 6489 6492 6495 6498 6501 6504 6507 6510 6513 6516 6519 6522 6525 6528 6531 6534 6537 6540 6543 6546 6549 6552 6555 6558 6561 6564 6567 6570 6573 6576 6579 6582 6585 6588 6591 6594 6597 6600 6603 6606 6609 6612 6615 6618 6621 6624 6627 6630 6633 6636 6639 6642 6645 6648 6651 6654 6657 6660 6663 6666 6669 6672 6675 6678 6681 6684 6687 6690 6693 6696 6699 6702 6705 6708 6711 6714 6717 6720 6723 6726 6729 6732 6735 6738 6741 6744 6747 6750 6753 6756 6759 6762 6765 6768 6771 6774 6777 6780 6783 6786 6789 6792 6795 6798 6801 6804 6807 6810 6813 6816 6819 6822 6825 6828 6831 6834 6837 6840 6843 6846 6849 6852 6855 6858 6861 6864 6867 6870 6873 6876 6879 6882 6885 6888 6891 6894 6897 6900 6903 6906 6909 6912 6915 6918 6921 6924 6927 6930 6933 6936 6939 6942 6945 6948 6951 6954 6957 6960 6963 6966 6969 6972 6975 6978 6981 6984 6987 6990 6993 6996 6999 7002 7005 7008 7011 7014 7017 7020 7023 7026 7029 7032 7035 7038 7041 7044 7047 7050 7053 7056 7059 7062 7065 7068 7071 7074 7077 7080 7083 7086 7089 7092 7095 7098 7101 7104 7107 7110 7113 7116 7119 7122 7125 7128 7131 7134 7137 7140 7143 7146 7149 7152 7155 7158 7161 7164 7167 7170 7173 7176 7179 7182 7185 7188 7191 7194 7197 7200 7203 7206 7209 7212 7215 7218 7221 7224 7227 7230 7233 7236 7239 7242 7245 7248 7251 7254 7257 7260 7263 7266 7269 7272 7275 7278 7281 7284 7287 7290 7293 7296 7299 7302 7305 7308 7311 7314 7317 7320 7323 7326 7329 7332 7335 7338 7341 7344 7347 7350 7353 7356 7359 7362 7365 7368 7371 7374 7377 7380 7383 7386 7389 7392 7395 7398 7401 7404 7407 7410 7413 7416 7419 7422 7425 7428 7431 7434 7437 7440 7443 7446 7449 7452 7455 7458 7461 7464 7467 7470 7473 7476 7479 7482 7485 7488 7491 7494 7497 7500 7503 7506 7509 7512 7515 7518 7521 7524 7527 7530 7533 7536 7539 7542 7545 7548 7551 7554 7557 7560 7563 7566 7569 7572 7575 7578 7581 7584 7587 7590 7593 7596 7599 7602 7605 7608 7611 7614 7617 7620 7623 7626 7629 7632 7635 7638 7641 7644 7647 7650 7653 7656 7659 7662 7665 7668 7671 7674 7677 7680 7683 7686 7689 7692 7695 7698 7701 7704 7707 7710 7713 7716 7719 7722 7725 7728 7731 7734 7737 7740 7743 7746 7749 7752 7755 7758 7761 7764 7767 7770 7773 7776 7779 7782 7785 7788 7791 7794 7797 7800 7803 7806 7809 7812 7815 7818 7821 7824 7827 7830 7833 7836 7839 7842 7845 7848 7851 7854 7857 7860 7863 7866 7869 7872 7875 7878 7881 7884 7887 7890 7893 7896 7899 7902 7905 7908 7911 7914 7917 7920 7923 7926 7929 7932 7935 7938 7941 7944 7947 7950 7953 7956 7959 7962 7965 7968 7971 7974 7977 7980 7983 7986 7989 7992 7995 7998 8001 8004 8007 8010 8013 8016 8019 8022 8025 8028 8031 8034 8037 8040 8043 8046 8049 8052 8055 8058 8061 8064 8067 8070 8073 8076 8079 8082 8085 8088 8091 8094 8097 8100 8103 8106 8109 8112 8115 8118 8121 8124 8127 8130 8133 8136 8139 8142 8145 8148 8151 8154 8157 8160 8163 8166 8169 8172 8175 8178 8181 8184 8187 8190 8193 8196 8199 8202 8205 8208 8211 8214 8217 8220 8223 8226 8229 8232 8235 8238 8241 8244 8247 8250 8253 8256 8259 8262 8265 8268 8271 8274 8277 8280 8283 8286 8289 8292 8295 8298 8301 8304 8307 8310 8313 8316 8319 8322 8325 8328 8331 8334 8337 8340 8343 8346 8349 8352 8355 8358 8361 8364 8367 8370 8373 8376 8379 8382 8385 8388 8391 8394 8397 8400 8403 8406 8409 8412 8415 8418 8421 8424 8427 8430 8433 8436 8439 8442 8445 8448 8451 8454 8457 8460 8463 8466 8469 8472 8475 8478 8481 8484 8487 8490 8493 8496 8499 8502 8505 8508 8511 8514 8517 8520 8523 8526 8529 8532 8535 8538 8541 8544 8547 8550 8553 8556 8559 8562 8565 8568 8571 8574 8577 8580 8583 8586 8589 8592 8595 8598 8601 8604 8607 8610 8613 8616 8619 8622 8625 8628 8631 8634 8637 8640 8643 8646 8649 8652 8655 8658 8661 8664 8667 8670 8673 8676 8679 8682 8685 8688 8691 8694 8697 8700 8703 8706 8709 8712 8715 8718 8721 8724 8727 8730 8733 8736 8739 8742 8745 8748 8751 8754 8757 8760 8763 8766 8769 8772 8775 8778 8781 8784 8787 8790 8793 8796 8799 8802 8805 8808 8811 8814 8817 8820 8823 8826 8829 8832 8835 8838 8841 8844 8847 8850 8853 8856 8859 8862 8865 8868 8871 8874 8877 8880 8883 8886 8889 8892 8895 8898 8901 8904 8907 8910 8913 8916 8919 8922 8925 8928 8931 8934 8937 8940 8943 8946 8949 8952 8955 8958 8961 8964 8967 8970 8973 8976 8979 8982 8985 8988 8991 8994 8997 9000 9003 9006 9009 9012 9015 9018 9021 9024 9027 9030 9033 9036 9039 9042 9045 9048 9051 9054 9057 9060 9063 9066 9069 9072 9075 9078 9081 9084 9087 9090 9093 9096 9099 9102 9105 9108 9111 9114 9117 9120 9123 9126 9129 9132 9135 9138 9141 9144 9147 9150 9153 9156 9159 9162 9165 9168 9171 9174 9177 9180 9183 9186 9189 9192 9195 9198 9201 9204 9207 9210 9213 9216 9219 9222 9225 9228 9231 9234 9237 9240 9243 9246 9249 9252 9255 9258 9261 9264 9267 9270 9273 9276 9279 9282 9285 9288 9291 9294 9297 9300 9303 9306 9309 9312 9315 9318 9321 9324 9327 9330 9333 9336 9339 9342 9345 9348 9351 9354 9357 9360 9363 9366 9369 9372 9375 9378 9381 9384 9387 9390 9393 9396 9399 9402 9405 9408 9411 9414 9417 9420 9423 9426 9429 9432 9435 9438 9441 9444 9447 9450 9453 9456 9459 9462 9465 9468 9471 9474 9477 9480 9483 9486 9489 9492 9495 9498 9501 9504 9507 9510 9513 9516 9519 9522 9525 9528 9531 9534 9537 9540 9543 9546 9549 9552 9555 9558 9561 9564 9567 9570 9573 9576 9579 9582 9585 9588 9591 9594 9597 9600 9603 9606 9609 9612 9615 9618 9621 9624 9627 9630 9633 9636 9639 9642 9645 9648 9651 9654 9657 9660 9663 9666 9669 9672 9675 9678 9681 9684 9687 9690 9693 9696 9699 9702 9705 9708 9711 9714 9717 9720 9723 9726 9729 9732 9735 9738 9741 9744 9747 9750 9753 9756 9759 9762 9765 9768 9771 9774 9777 9780 9783 9786 9789 9792 9795 9798 9801 9804 9807 9810 9813 9816 9819 9822 9825 9828 9831 9834 9837 9840 9843 9846 9849 9852 9855 9858 9861 9864 9867 9870 9873 9876 9879 9882 9885 9888 9891 9894 9897 9900 9903 9906 9909 9912 9915 9918 9921 9924 9927 9930 9933 9936 9939 9942 9945 9948 9951 9954 9957 9960 9963 9966 9969 9972 9975 9978 9981 9984 9987 9990 9993 9996 9999 10002 10005 10008 10011 10014 10017 10020 10023 10026 10029 10032 10035 10038 10041 10044 10047 10050 10053 10056 10059 10062 10065 10068 10071 10074 10077 10080 10083 10086 10089 10092 10095 10098 10101 10104 10107 10110 10113 10116 10119 10122 10125 10128 10131 10134 10137 10140 10143 10146 10149 10152 10155 10158 10161 10164 10167 10170 10173 10176 10179 10182 10185 10188 10191 10194 10197 10200 10203 10206 10209 10212 10215 10218 10221 10224 10227 10230 10233 10236 10239 10242 10245 10248 10251 10254 10257 10260 10263 10266 10269 10272 10275 10278 10281 10284 10287 10290 10293 10296 10299 10302 10305 10308 10311 10314 10317 10320 10323 10326 10329 10332 10335 10338 10341 10344 10347 10350 10353 10356 10359 10362 10365 10368 10371 10374 10377 10380 10383 10386 10389 10392 10395 10398 10401 10404 10407 10410 10413 10416 10419 10422 10425 10428 10431 10434 10437 10440 10443 10446 10449 10452 10455 10458 10461 10464 10467 10470 10473 10476 10479 10482 10485 10488 10491 10494 10497 10500 10503 10506 10509 10512 10515 10518 10521 10524 10527 10530 10533 10536 10539 10542 10545 10548 10551 10554 10557 10560 10563 10566 10569 10572 10575 10578 10581 10584 10587 10590 10593 10596 10599 10602 10605 10608 10611 10614 10617 10620 10623 10626 10629 10632 10635 10638 10641 10644 10647 10650 10653 10656 10659 10662 10665 10668 10671 10674 10677 10680 10683 10686 10689 10692 10695 10698 10701 10704 10707 10710 10713 10716 10719 10722 10725 10728 10731 10734 10737 10740 10743 10746 10749 10752 10755 10758 10761 10764 10767 10770 10773 10776 10779 10782 10785 10788 10791 10794 10797 10800 10803 10806 10809 10812 10815 10818 10821 10824 10827 10830 10833 10836 10839 10842 10845 10848 10851 10854 10857 10860 10863 10866 10869 10872 10875 10878 10881 10884 10887 10890 10893 10896 10899 10902 10905 10908 10911 10914 10917 10920 10923 10926 10929 10932 10935 10938 10941 10944 10947 10950 10953 10956 10959 10962 10965 10968 10971 10974 10977 10980 10983 10986 10989 10992 10995 10998 11001 11004 11007 11010 11013 11016 11019 11022 11025 11028 11031 11034 11037 11040 11043 11046 11049 11052 11055 11058 11061 11064 11067 11070 11073 11076 11079 11082 11085 11088 11091 11094 11097 11100 11103 11106 11109 11112 11115 11118 11121 11124 11127 11130 11133 11136 11139 11142 11145 11148 11151 11154 11157 11160 11163 11166 11169 11172 11175 11178 11181 11184 11187 11190 11193 11196 11199 11202 11205 11208 11211 11214 11217 11220 11223 11226 11229 11232 11235 11238 11241 11244 11247 11250 11253 11256 11259 11262 11265 11268 11271 11274 11277 11280 11283 11286 11289 11292 11295 11298 11301 11304 11307 11310 11313 11316 11319 11322 11325 11328 11331 11334 11337 11340 11343 11346 11349 11352 11355 11358 11361 11364 11367 11370 11373 11376 11379 11382 11385 11388 11391 11394 11397 11400 11403 11406 11409 11412 11415 11418 11421 11424 11427 11430 11433 11436 11439 11442 11445 11448 11451 11454 11457 11460 11463 11466 11469 11472 11475 11478 11481 11484 11487 11490 11493 11496 11499 11502 11505 11508 11511 11514 11517 11520 11523 11526 11529 11532 11535 11538 11541 11544 11547 11550 11553 11556 11559 11562 11565 11568 11571 11574 11577 11580 11583 11586 11589 11592 11595 11598 11601 11604 11607 11610 11613 11616 11619 11622 11625 11628 11631 11634 11637 11640 11643 11646 11649 11652 11655 11658 11661 11664 11667 11670 11673 11676 11679 11682 11685 11688 11691 11694 11697 11700 11703 11706 11709 11712 11715 11718 11721 11724 11727 11730 11733 11736 11739 11742 11745 11748 11751 11754 11757 11760 11763 11766 11769 11772 11775 11778 11781 11784 11787 11790 11793 11796 11799 11802 11805 11808 11811 11814 11817 11820 11823 11826 11829 11832 11835 11838 11841 11844 11847 11850 11853 11856 11859 11862 11865 11868 11871 11874 11877 11880 11883 11886 11889 11892 11895 11898 11901 11904 11907 11910 11913 11916 11919 11922 11925 11928 11931 11934 11937 11940 11943 11946 11949 11952 11955 11958 11961 11964 11967 11970 11973 11976 11979 11982 11985 11988 11991 11994 11997 12000 12003 12006 12009 12012 12015 12018 12021 12024 12027 12030 12033 12036 12039 12042 12045 12048 12051 12054 12057 12060 12063 12066 12069 12072 12075 12078 12081 12084 12087 12090 12093 12096 12099 12102 12105 12108 12111 12114 12117 12120 12123 12126 12129 12132 12135 12138 12141 12144 12147 12150 12153 12156 12159 12162 12165 12168 12171 12174 12177 12180 12183 12186 12189 12192 12195 12198 12201 12204 12207 12210 12213 12216 12219 12222 12225 12228 12231 12234 12237 12240 12243 12246 12249 12252 12255 12258 12261 12264 12267 12270 12273 12276 12279 12282 12285 12288 12291 12294 12297 12300 12303 12306 12309 12312 12315 12318 12321 12324 12327 12330 12333 12336 12339 12342 12345 12348 12351 12354 12357 12360 12363 12366 12369 12372 12375 12378 12381 12384 12387 12390 12393 12396 12399 12402 12405 12408 12411 12414 12417 12420 12423 12426 12429 12432 12435 12438 12441 12444 12447 12450 12453 12456 12459 12462 12465 12468 12471 12474 12477 12480 12483 12486 12489 12492 12495 12498 12501 12504 12507 12510 12513 12516 12519 12522 12525 12528 12531 12534 12537 12540 12543 12546 12549 12552 12555 12558 12561 12564 12567 12570 12573 12576 12579 12582 12585 12588 12591 12594 12597 12600 12603 12606 12609 12612 12615 12618 12621 12624 12627 12630 12633 12636 12639 12642 12645 12648 12651 12654 12657 12660 12663 12666 12669 12672 12675 12678 12681 12684 12687 12690 12693 12696 12699 12702 12705 12708 12711 12714 12717 12720 12723 12726 12729 12732 12735 12738 12741 12744 12747 12750 12753 12756 12759 12762 12765 12768 12771 12774 12777 12780 12783 12786 12789 12792 12795 12798 12801 12804 12807 12810 12813 12816 12819 12822 12825 12828 12831 12834 12837 12840 12843 12846 12849 12852 12855 12858 12861 12864 12867 12870 12873 12876 12879 12882 12885 12888 12891 12894 12897 12900 12903 12906 12909 12912 12915 12918 12921 12924 12927 12930 12933 12936 12939 12942 12945 12948 12951 12954 12957 12960 12963 12966 12969 12972 12975 12978 12981 12984 12987 12990 12993 12996 12999 13002 13005 13008 13011 13014 13017 13020 13023 13026 13029 13032 13035 13038 13041 13044 13047 13050 13053 13056 13059 13062 13065 13068 13071 13074 13077 13080 13083 13086 13089 13092 13095 13098 13101 13104 13107 13110 13113 13116 13119 13122 13125 13128 13131 13134 13137 13140 13143 13146 13149 13152 13155 13158 13161 13164 13167 13170 13173 13176 13179 13182 13185 13188 13191 13194 13197 13200 13203 13206 13209 13212 13215 13218 13221 13224 13227 13230 13233 13236 13239 13242 13245 13248 13251 13254 13257 13260 13263 13266 13269 13272 13275 13278 13281 13284 13287 13290 13293 13296 13299 13302 13305 13308 13311 13314 13317 13320 13323 13326 13329 13332 13335 13338 13341 13344 13347 13350 13353 13356 13359 13362 13365 13368 13371 13374 13377 13380 13383 13386 13389 13392 13395 13398 13401 13404 13407 13410 13413 13416 13419 13422 13425 13428 13431 13434 13437 13440 13443 13446 13449 13452 13455 13458 13461 13464 13467 13470 13473 13476 13479 13482 13485 13488 13491 13494 13497 13500 13503 13506 13509 13512 13515 13518 13521 13524 13527 13530 13533 13536 13539 13542 13545 13548 13551 13554 13557 13560 13563 13566 13569 13572 13575 13578 13581 13584 13587 13590 13593 13596 13599 13602 13605 13608 13611 13614 13617 13620 13623 13626 13629 13632 13635 13638 13641 13644 13647 13650 13653 13656 13659 13662 13665 13668 13671 13674 13677 13680 13683 13686 13689 13692 13695 13698 13701 13704 13707 13710 13713 13716 13719 13722 13725 13728 13731 13734 13737 13740 13743 13746 13749 13752 13755 13758 13761 13764 13767 13770 13773 13776 13779 13782 13785 13788 13791 13794 13797 13800 13803 13806 13809 13812 13815 13818 13821 13824 13827 13830 13833 13836 13839 13842 13845 13848 13851 13854 13857 13860 13863 13866 13869 13872 13875 13878 13881 13884 13887 13890 13893 13896 13899 13902 13905 13908 13911 13914 13917 13920 13923 13926 13929 13932 13935 13938 13941 13944 13947 13950 13953 13956 13959 13962 13965 13968 13971 13974 13977 13980 13983 13986 13989 13992 13995 13998 14001 14004 14007 14010 14013 14016 14019 14022 14025 14028 14031 14034 14037 14040 14043 14046 14049 14052 14055 14058 14061 14064 14067 14070 14073 14076 14079 14082 14085 14088 14091 14094 14097 14100 14103 14106 14109 14112 14115 14118 14121 14124 14127 14130 14133 14136 14139 14142 14145 14148 14151 14154 14157 14160 14163 14166 14169 14172 14175 14178 14181 14184 14187 14190 14193 14196 14199 14202 14205 14208 14211 14214 14217 14220 14223 14226 14229 14232 14235 14238 14241 14244 14247 14250 14253 14256 14259 14262 14265 14268 14271 14274 14277 14280 14283 14286 14289 14292 14295 14298 14301 14304 14307 14310 14313 14316 14319 14322 14325 14328 14331 14334 14337 14340 14343 14346 14349 14352 14355 14358 14361 14364 14367 14370 14373 14376 14379 14382 14385 14388 14391 14394 14397 14400 14403 14406 14409 14412 14415 14418 14421 14424 14427 14430 14433 14436 14439 14442 14445 14448 14451 14454 14457 14460 14463 14466 14469 14472 14475 14478 14481 14484 14487 14490 14493 14496 14499 14502 14505 14508 14511 14514 14517 14520 14523 14526 14529 14532 14535 14538 14541 14544 14547 14550 14553 14556 14559 14562 14565 14568 14571 14574 14577 14580 14583 14586 14589 14592 14595 14598 14601 14604 14607 14610 14613 14616 14619 14622 14625 14628 14631 14634 14637 14640 14643 14646 14649 14652 14655 14658 14661 14664 14667 14670 14673 14676 14679 14682 14685 14688 14691 14694 14697 14700 14703 14706 14709 14712 14715 14718 14721 14724 14727 14730 14733 14736 14739 14742 14745 14748 14751 14754 14757 14760 14763 14766 14769 14772 14775 14778 14781 14784 14787 14790 14793 14796 14799 14802 14805 14808 14811 14814 14817 14820 14823 14826 14829 14832 14835 14838 14841 14844 14847 14850 14853 14856 14859 14862 14865 14868 14871 14874 14877 14880 14883 14886 14889 14892 14895 14898 14901 14904 14907 14910 14913 14916 14919 14922 14925 14928 14931 14934 14937 14940 14943 14946 14949 14952 14955 14958 14961 14964 14967 14970 14973 14976 14979 14982 14985 14988 14991 14994 14997 15000 15003 15006 15009 15012 15015 15018 15021 15024 15027 15030 15033 15036 15039 15042 15045 15048 15051 15054 15057 15060 15063 15066 15069 15072 15075 15078 15081 15084 15087 15090 15093 15096 15099 15102 15105 15108 15111 15114 15117 15120 15123 15126 15129 15132 15135 15138 15141 15144 15147 15150 15153 15156 15159 15162 15165 15168 15171 15174 15177 15180 15183 15186 15189 15192 15195 15198 15201 15204 15207 15210 15213 15216 15219 15222 15225 15228 15231 15234 15237 15240 15243 15246 15249 15252 15255 15258 15261 15264 15267 15270 15273 15276 15279 15282 15285 15288 15291 15294 15297 15300 15303 15306 15309 15312 15315 15318 15321 15324 15327 15330 15333 15336 15339 15342 15345 15348 15351 15354 15357 15360 15363 15366 15369 15372 15375 15378 15381 15384 15387 15390 15393 15396 15399 15402 15405 15408 15411 15414 15417 15420 15423 15426 15429 15432 15435 15438 15441 15444 15447 15450 15453 15456 15459 15462 15465 15468 15471 15474 15477 15480 15483 15486 15489 15492 15495 15498 15501 15504 15507 15510 15513 15516 15519 15522 15525 15528 15531 15534 15537 15540 15543 15546 15549 15552 15555 15558 15561 15564 15567 15570 15573 15576 15579 15582 15585 15588 15591 15594 15597 15600 15603 15606 15609 15612 15615 15618 15621 15624 15627 15630 15633 15636 15639 15642 15645 15648 15651 15654 15657 15660 15663 15666 15669 15672 15675 15678 15681 15684 15687 15690 15693 15696 15699 15702 15705 15708 15711 15714 15717 15720 15723 15726 15729 15732 15735 15738 15741 15744 15747 15750 15753 15756 15759 15762 15765 15768 15771 15774 15777 15780 15783 15786 15789 15792 15795 15798 15801 15804 15807 15810 15813 15816 15819 15822 15825 15828 15831 15834 15837 15840 15843 15846 15849 15852 15855 15858 15861 15864 15867 15870 15873 15876 15879 15882 15885 15888 15891 15894 15897 15900 15903 15906 15909 15912 15915 15918 15921 15924 15927 15930 15933 15936 15939 15942 15945 15948 15951 15954 15957 15960 15963 15966 15969 15972 15975 15978 15981 15984 15987 15990 15993 15996 15999 16002 16005 16008 16011 16014 16017 16020 16023 16026 16029 16032 16035 16038 16041 16044 16047 16050 16053 16056 16059 16062 16065 16068 16071 16074 16077 16080 16083 16086 16089 16092 16095 16098 16101 16104 16107 16110 16113 16116 16119 16122 16125 16128 16131 16134 16137 16140 16143 16146 16149 16152 16155 16158 16161 16164 16167 16170 16173 16176 16179 16182 16185 16188 16191 16194 16197 16200 16203 16206 16209 16212 16215 16218 16221 16224 16227 16230 16233 16236 16239 16242 16245 16248 16251 16254 16257 16260 16263 16266 16269 16272 16275 16278 16281 16284 16287 16290 16293 16296 16299 16302 16305 16308 16311 16314 16317 16320 16323 16326 16329 16332 16335 16338 16341 16344 16347 16350 16353 16356 16359 16362 16365 16368 16371 16374 16377 16380 16383 16386 16389 16392 16395 16398 16401 16404 16407 16410 16413 16416 16419 16422 16425 16428 16431 16434 16437 16440 16443 16446 16449 16452 16455 16458 16461 16464 16467 16470 16473 16476 16479 16482 16485 16488 16491 16494 16497 16500 16503 16506 16509 16512 16515 16518 16521 16524 16527 16530 16533 16536 16539 16542 16545 16548 16551 16554 16557 16560 16563 16566 16569 16572 16575 16578 16581 16584 16587 16590 16593 16596 16599 16602 16605 16608 16611 16614 16617 16620 16623 16626 16629 16632 16635 16638 16641 16644 16647 16650 16653 16656 16659 16662 16665 16668 16671 16674 16677 16680 16683 16686 16689 16692 16695 16698 16701 16704 16707 16710 16713 16716 16719 16722 16725 16728 16731 16734 16737 16740 16743 16746 16749 16752 16755 16758 16761 16764 16767 16770 16773 16776 16779 16782 16785 16788 16791 16794 16797 16800 16803 16806 16809 16812 16815 16818 16821 16824 16827 16830 16833 16836 16839 16842 16845 16848 16851 16854 16857 16860 16863 16866 16869 16872 16875 16878 16881 16884 16887 16890 16893 16896 16899 16902 16905 16908 16911 16914 16917 16920 16923 16926 16929 16932 16935 16938 16941 16944 16947 16950 16953 16956 16959 16962 16965 16968 16971 16974 16977 16980 16983 16986 16989 16992 16995 16998 17001 17004 17007 17010 17013 17016 17019 17022 17025 17028 17031 17034 17037 17040 17043 17046 17049 17052 17055 17058 17061 17064 17067 17070 17073 17076 17079 17082 17085 17088 17091 17094 17097 17100 17103 17106 17109 17112 17115 17118 17121 17124 17127 17130 17133 17136 17139 17142 17145 17148 17151 17154 17157 17160 17163 17166 17169 17172 17175 17178 17181 17184 17187 17190 17193 17196 17199 17202 17205 17208 17211 17214 17217 17220 17223 17226 17229 17232 17235 17238 17241 17244 17247 17250 17253 17256 17259 17262 17265 17268 17271 17274 17277 17280 17283 17286 17289 17292 17295 17298 17301 17304 17307 17310 17313 17316 17319 17322 17325 17328 17331 17334 17337 17340 17343 17346 17349 17352 17355 17358 17361 17364 17367 17370 17373 17376 17379 17382 17385 17388 17391 17394 17397 17400 17403 17406 17409 17412 17415 17418 17421 17424 17427 17430 17433 17436 17439 17442 17445 17448 17451 17454 17457 17460 17463 17466 17469 17472 17475 17478 17481 17484 17487 17490 17493 17496 17499 17502 17505 17508 17511 17514 17517 17520 17523 17526 17529 17532 17535 17538 17541 17544 17547 17550 17553 17556 17559 17562 17565 17568 17571 17574 17577 17580 17583 17586 17589 17592 17595 17598 17601 17604 17607 17610 17613 17616 17619 17622 17625 17628 17631 17634 17637 17640 17643 17646 17649 17652 17655 17658 17661 17664 17667 17670 17673 17676 17679 17682 17685 17688 17691 17694 17697 17700 17703 17706 17709 17712 17715 17718 17721 17724 17727 17730 17733 17736 17739 17742 17745 17748 17751 17754 17757 17760 17763 17766 17769 17772 17775 17778 17781 17784 17787 17790 17793 17796 17799 17802 17805 17808 17811 17814 17817 17820 17823 17826 17829 17832 17835 17838 17841 17844 17847 17850 17853 17856 17859 17862 17865 17868 17871 17874 17877 17880 17883 17886 17889 17892 17895 17898 17901 17904 17907 17910 17913 17916 17919 17922 17925 17928 17931 17934 17937 17940 17943 17946 17949 17952 17955 17958 17961 17964 17967 17970 17973 17976 17979 17982 17985 17988 17991 17994 17997 18000 18003 18006 18009 18012 18015 18018 18021 18024 18027 18030 18033 18036 18039 18042 18045 18048 18051 18054 18057 18060 18063 18066 18069 18072 18075 18078 18081 18084 18087 18090 18093 18096 18099 18102 18105 18108 18111 18114 </DataArray>
<DataArray  type="UInt8"  Name="types"  format="ascii">5 5 5 5 5 5 5 5 5 5 5 5 5 5 5 5 5 5 5 5 5 5 5 5 5 5 5 5 5 5 5 5 5 5 5 5 5 5 5 5 5 5 5 5 5 5 5 5 5 5 5 5 5 5 5 5 5 5 5 5 5 5 5 5 5 5 5 5 5 5 5 5 5 5 5 5 5 5 5 5 5 5 5 5 5 5 5 5 5 5 5 5 5 5 5 5 5 5 5 5 5 5 5 5 5 5 5 5 5 5 5 5 5 5 5 5 5 5 5 5 5 5 5 5 5 5 5 5 5 5 5 5 5 5 5 5 5 5 5 5 5 5 5 5 5 5 5 5 5 5 5 5 5 5 5 5 5 5 5 5 5 5 5 5 5 5 5 5 5 5 5 5 5 5 5 5 5 5 5 5 5 5 5 5 5 5 5 5 5 5 5 5 5 5 5 5 5 5 5 5 5 5 5 5 5 5 5 5 5 5 5 5 5 5 5 5 5 5 5 5 5 5 5 5 5 5 5 5 5 5 5 5 5 5 5 5 5 5 5 5 5 5 5 5 5 5 5 5 5 5 5 5 5 5 5 5 5 5 5 5 5 5 5 5 5 5 5 5 5 5 5 5 5 5 5 5 5 5 5 5 5 5 5 5 5 5 5 5 5 5 5 5 5 5 5 5 5 5 5 5 5 5 5 5 5 5 5 5 5 5 5 5 5 5 5 5 5 5 5 5 5 5 5 5 5 5 5 5 5 5 5 5 5 5 5 5 5 5 5 5 5 5 5 5 5 5 5 5 5 5 5 5 5 5 5 5 5 5 5 5 5 5 5 5 5 5 5 5 5 5 5 5 5 5 5 5 5 5 5 5 5 5 5 5 5 5 5 5 5 5 5 5 5 5 5 5 5 5 5 5 5 5 5 5 5 5 5 5 5 5 5 5 5 5 5 5 5 5 5 5 5 5 5 5 5 5 5 5 5 5 5 5 5 5 5 5 5 5 5 5 5 5 5 5 5 5 5 5 5 5 5 5 5 5 5 5 5 5 5 5 5 5 5 5 5 5 5 5 5 5 5 5 5 5 5 5 5 5 5 5 5 5 5 5 5 5 5 5 5 5 5 5 5 5 5 5 5 5 5 5 5 5 5 5 5 5 5 5 5 5 5 5 5 5 5 5 5 5 5 5 5 5 5 5 5 5 5 5 5 5 5 5 5 5 5 5 5 5 5 5 5 5 5 5 5 5 5 5 5 5 5 5 5 5 5 5 5 5 5 5 5 5 5 5 5 5 5 5 5 5 5 5 5 5 5 5 5 5 5 5 5 5 5 5 5 5 5 5 5 5 5 5 5 5 5 5 5 5 5 5 5 5 5 5 5 5 5 5 5 5 5 5 5 5 5 5 5 5 5 5 5 5 5 5 5 5 5 5 5 5 5 5 5 5 5 5 5 5 5 5 5 5 5 5 5 5 5 5 5 5 5 5 5 5 5 5 5 5 5 5 5 5 5 5 5 5 5 5 5 5 5 5 5 5 5 5 5 5 5 5 5 5 5 5 5 5 5 5 5 5 5 5 5 5 5 5 5 5 5 5 5 5 5 5 5 5 5 5 5 5 5 5 5 5 5 5 5 5 5 5 5 5 5 5 5 5 5 5 5 5 5 5 5 5 5 5 5 5 5 5 5 5 5 5 5 5 5 5 5 5 5 5 5 5 5 5 5 5 5 5 5 5 5 5 5 5 5 5 5 5 5 5 5 5 5 5 5 5 5 5 5 5 5 5 5 5 5 5 5 5 5 5 5 5 5 5 5 5 5 5 5 5 5 5 5 5 5 5 5 5 5 5 5 5 5 5 5 5 5 5 5 5 5 5 5 5 5 5 5 5 5 5 5 5 5 5 5 5 5 5 5 5 5 5 5 5 5 5 5 5 5 5 5 5 5 5 5 5 5 5 5 5 5 5 5 5 5 5 5 5 5 5 5 5 5 5 5 5 5 5 5 5 5 5 5 5 5 5 5 5 5 5 5 5 5 5 5 5 5 5 5 5 5 5 5 5 5 5 5 5 5 5 5 5 5 5 5 5 5 5 5 5 5 5 5 5 5 5 5 5 5 5 5 5 5 5 5 5 5 5 5 5 5 5 5 5 5 5 5 5 5 5 5 5 5 5 5 5 5 5 5 5 5 5 5 5 5 5 5 5 5 5 5 5 5 5 5 5 5 5 5 5 5 5 5 5 5 5 5 5 5 5 5 5 5 5 5 5 5 5 5 5 5 5 5 5 5 5 5 5 5 5 5 5 5 5 5 5 5 5 5 5 5 5 5 5 5 5 5 5 5 5 5 5 5 5 5 5 5 5 5 5 5 5 5 5 5 5 5 5 5 5 5 5 5 5 5 5 5 5 5 5 5 5 5 5 5 5 5 5 5 5 5 5 5 5 5 5 5 5 5 5 5 5 5 5 5 5 5 5 5 5 5 5 5 5 5 5 5 5 5 5 5 5 5 5 5 5 5 5 5 5 5 5 5 5 5 5 5 5 5 5 5 5 5 5 5 5 5 5 5 5 5 5 5 5 5 5 5 5 5 5 5 5 5 5 5 5 5 5 5 5 5 5 5 5 5 5 5 5 5 5 5 5 5 5 5 5 5 5 5 5 5 5 5 5 5 5 5 5 5 5 5 5 5 5 5 5 5 5 5 5 5 5 5 5 5 5 5 5 5 5 5 5 5 5 5 5 5 5 5 5 5 5 5 5 5 5 5 5 5 5 5 5 5 5 5 5 5 5 5 5 5 5 5 5 5 5 5 5 5 5 5 5 5 5 5 5 5 5 5 5 5 5 5 5 5 5 5 5 5 5 5 5 5 5 5 5 5 5 5 5 5 5 5 5 5 5 5 5 5 5 5 5 5 5 5 5 5 5 5 5 5 5 5 5 5 5 5 5 5 5 5 5 5 5 5 5 5 5 5 5 5 5 5 5 5 5 5 5 5 5 5 5 5 5 5 5 5 5 5 5 5 5 5 5 5 5 5 5 5 5 5 5 5 5 5 5 5 5 5 5 5 5 5 5 5 5 5 5 5 5 5 5 5 5 5 5 5 5 5 5 5 5 5 5 5 5 5 5 5 5 5 5 5 5 5 5 5 5 5 5 5 5 5 5 5 5 5 5 5 5 5 5 5 5 5 5 5 5 5 5 5 5 5 5 5 5 5 5 5 5 5 5 5 5 5 5 5 5 5 5 5 5 5 5 5 5 5 5 5 5 5 5 5 5 5 5 5 5 5 5 5 5 5 5 5 5 5 5 5 5 5 5 5 5 5 5 5 5 5 5 5 5 5 5 5 5 5 5 5 5 5 5 5 5 5 5 5 5 5 5 5 5 5 5 5 5 5 5 5 5 5 5 5 5 5 5 5 5 5 5 5 5 5 5 5 5 5 5 5 5 5 5 5 5 5 5 5 5 5 5 5 5 5 5 5 5 5 5 5 5 5 5 5 5 5 5 5 5 5 5 5 5 5 5 5 5 5 5 5 5 5 5 5 5 5 5 5 5 5 5 5 5 5 5 5 5 5 5 5 5 5 5 5 5 5 5 5 5 5 5 5 5 5 5 5 5 5 5 5 5 5 5 5 5 5 5 5 5 5 5 5 5 5 5 5 5 5 5 5 5 5 5 5 5 5 5 5 5 5 5 5 5 5 5 5 5 5 5 5 5 5 5 5 5 5 5 5 5 5 5 5 5 5 5 5 5 5 5 5 5 5 5 5 5 5 5 5 5 5 5 5 5 5 5 5 5 5 5 5 5 5 5 5 5 5 5 5 5 5 5 5 5 5 5 5 5 5 5 5 5 5 5 5 5 5 5 5 5 5 5 5 5 5 5 5 5 5 5 5 5 5 5 5 5 5 5 5 5 5 5 5 5 5 5 5 5 5 5 5 5 5 5 5 5 5 5 5 5 5 5 5 5 5 5 5 5 5 5 5 5 5 5 5 5 5 5 5 5 5 5 5 5 5 5 5 5 5 5 5 5 5 5 5 5 5 5 5 5 5 5 5 5 5 5 5 5 5 5 5 5 5 5 5 5 5 5 5 5 5 5 5 5 5 5 5 5 5 5 5 5 5 5 5 5 5 5 5 5 5 5 5 5 5 5 5 5 5 5 5 5 5 5 5 5 5 5 5 5 5 5 5 5 5 5 5 5 5 5 5 5 5 5 5 5 5 5 5 5 5 5 5 5 5 5 5 5 5 5 5 5 5 5 5 5 5 5 5 5 5 5 5 5 5 5 5 5 5 5 5 5 5 5 5 5 5 5 5 5 5 5 5 5 5 5 5 5 5 5 5 5 5 5 5 5 5 5 5 5 5 5 5 5 5 5 5 5 5 5 5 5 5 5 5 5 5 5 5 5 5 5 5 5 5 5 5 5 5 5 5 5 5 5 5 5 5 5 5 5 5 5 5 5 5 5 5 5 5 5 5 5 5 5 5 5 5 5 5 5 5 5 5 5 5 5 5 5 5 5 5 5 5 5 5 5 5 5 5 5 5 5 5 5 5 5 5 5 5 5 5 5 5 5 5 5 5 5 5 5 5 5 5 5 5 5 5 5 5 5 5 5 5 5 5 5 5 5 5 5 5 5 5 5 5 5 5 5 5 5 5 5 5 5 5 5 5 5 5 5 5 5 5 5 5 5 5 5 5 5 5 5 5 5 5 5 5 5 5 5 5 5 5 5 5 5 5 5 5 5 5 5 5 5 5 5 5 5 5 5 5 5 5 5 5 5 5 5 5 5 5 5 5 5 5 5 5 5 5 5 5 5 5 5 5 5 5 5 5 5 5 5 5 5 5 5 5 5 5 5 5 5 5 5 5 5 5 5 5 5 5 5 5 5 5 5 5 5 5 5 5 5 5 5 5 5 5 5 5 5 5 5 5 5 5 5 5 5 5 5 5 5 5 5 5 5 5 5 5 5 5 5 5 5 5 5 5 5 5 5 5 5 5 5 5 5 5 5 5 5 5 5 5 5 5 5 5 5 5 5 5 5 5 5 5 5 5 5 5 5 5 5 5 5 5 5 5 5 5 5 5 5 5 5 5 5 5 5 5 5 5 5 5 5 5 5 5 5 5 5 5 5 5 5 5 5 5 5 5 5 5 5 5 5 5 5 5 5 5 5 5 5 5 5 5 5 5 5 5 5 5 5 5 5 5 5 5 5 5 5 5 5 5 5 5 5 5 5 5 5 5 5 5 5 5 5 5 5 5 5 5 5 5 5 5 5 5 5 5 5 5 5 5 5 5 5 5 5 5 5 5 5 5 5 5 5 5 5 5 5 5 5 5 5 5 5 5 5 5 5 5 5 5 5 5 5 5 5 5 5 5 5 5 5 5 5 5 5 5 5 5 5 5 5 5 5 5 5 5 5 5 5 5 5 5 5 5 5 5 5 5 5 5 5 5 5 5 5 5 5 5 5 5 5 5 5 5 5 5 5 5 5 5 5 5 5 5 5 5 5 5 5 5 5 5 5 5 5 5 5 5 5 5 5 5 5 5 5 5 5 5 5 5 5 5 5 5 5 5 5 5 5 5 5 5 5 5 5 5 5 5 5 5 5 5 5 5 5 5 5 5 5 5 5 5 5 5 5 5 5 5 5 5 5 5 5 5 5 5 5 5 5 5 5 5 5 5 5 5 5 5 5 5 5 5 5 5 5 5 5 5 5 5 5 5 5 5 5 5 5 5 5 5 5 5 5 5 5 5 5 5 5 5 5 5 5 5 5 5 5 5 5 5 5 5 5 5 5 5 5 5 5 5 5 5 5 5 5 5 5 5 5 5 5 5 5 5 5 5 5 5 5 5 5 5 5 5 5 5 5 5 5 5 5 5 5 5 5 5 5 5 5 5 5 5 5 5 5 5 5 5 5 5 5 5 5 5 5 5 5 5 5 5 5 5 5 5 5 5 5 5 5 5 5 5 5 5 5 5 5 5 5 5 5 5 5 5 5 5 5 5 5 5 5 5 5 5 5 5 5 5 5 5 5 5 5 5 5 5 5 5 5 5 5 5 5 5 5 5 5 5 5 5 5 5 5 5 5 5 5 5 5 5 5 5 5 5 5 5 5 5 5 5 5 5 5 5 5 5 5 5 5 5 5 5 5 5 5 5 5 5 5 5 5 5 5 5 5 5 5 5 5 5 5 5 5 5 5 5 5 5 5 5 5 5 5 5 5 5 5 5 5 5 5 5 5 5 5 5 5 5 5 5 5 5 5 5 5 5 5 5 5 5 5 5 5 5 5 5 5 5 5 5 5 5 5 5 5 5 5 5 5 5 5 5 5 5 5 5 5 5 5 5 5 5 5 5 5 5 5 5 5 5 5 5 5 5 5 5 5 5 5 5 5 5 5 5 5 5 5 5 5 5 5 5 5 5 5 5 5 5 5 5 5 5 5 5 5 5 5 5 5 5 5 5 5 5 5 5 5 5 5 5 5 5 5 5 5 5 5 5 5 5 5 5 5 5 5 5 5 5 5 5 5 5 5 5 5 5 5 5 5 5 5 5 5 5 5 5 5 5 5 5 5 5 5 5 5 5 5 5 5 5 5 5 5 5 5 5 5 5 5 5 5 5 5 5 5 5 5 5 5 5 5 5 5 5 5 5 5 5 5 5 5 5 5 5 5 5 5 5 5 5 5 5 5 5 5 5 5 5 5 5 5 5 5 5 5 5 5 5 5 5 5 5 5 5 5 5 5 5 5 5 5 5 5 5 5 5 5 5 5 5 5 5 5 5 5 5 5 5 5 5 5 5 5 5 5 5 5 5 5 5 5 5 5 5 5 5 5 5 5 5 5 5 5 5 5 5 5 5 5 5 5 5 5 5 5 5 5 5 5 5 5 5 5 5 5 5 5 5 5 5 5 5 5 5 5 5 5 5 5 5 5 5 5 5 5 5 5 5 5 5 5 5 5 5 5 5 5 5 5 5 5 5 5 5 5 5 5 5 5 5 5 5 5 5 5 5 5 5 5 5 5 5 5 5 5 5 5 5 5 5 5 5 5 5 5 5 5 5 5 5 5 5 5 5 5 5 5 5 5 5 5 5 5 5 5 5 5 5 5 5 5 5 5 5 5 5 5 5 5 5 5 5 5 5 5 5 5 5 5 5 5 5 5 5 5 5 5 5 5 5 5 5 5 5 5 5 5 5 5 5 5 5 5 5 5 5 5 5 5 5 5 5 5 5 5 5 5 5 5 5 5 5 5 5 5 5 5 5 5 5 5 5 5 5 5 5 5 5 5 5 5 5 5 5 5 5 5 5 5 5 5 5 5 5 5 5 5 5 5 5 5 5 5 5 5 5 5 5 5 5 5 5 5 5 5 5 5 5 5 5 5 5 5 5 5 5 5 5 5 5 5 5 5 5 5 5 5 5 5 5 5 5 5 5 5 5 5 5 5 5 5 5 5 5 5 5 5 5 5 5 5 5 5 5 5 5 5 5 5 5 5 5 5 5 5 5 5 5 5 5 5 5 5 5 5 5 5 5 5 5 5 5 5 5 5 5 5 5 5 5 5 5 5 5 5 5 5 5 5 5 5 5 5 5 5 5 5 5 5 5 5 5 5 5 5 5 5 5 5 5 5 5 5 5 5 5 5 5 5 5 5 5 5 5 5 5 5 5 5 5 5 5 5 5 5 5 5 5 5 5 5 5 5 5 5 5 5 5 5 5 5 5 5 5 5 5 5 5 5 5 5 5 5 5 5 5 5 5 5 5 5 5 5 5 5 5 5 5 5 5 5 5 5 5 5 5 5 5 5 5 5 5 5 5 5 5 5 5 5 5 5 5 5 5 5 5 5 5 5 5 5 5 5 5 5 5 5 5 5 5 5 5 5 5 5 5 5 5 5 5 5 5 5 5 5 5 5 5 5 5 5 5 5 5 5 5 5 5 5 5 5 5 5 5 5 5 5 5 5 5 5 5 5 5 5 5 5 5 5 5 5 5 5 5 5 5 5 5 5 5 5 5 5 5 5 5 5 5 5 5 5 5 5 5 5 5 5 5 5 5 5 5 5 5 5 5 5 5 5 5 5 5 5 5 5 5 5 5 5 5 5 5 5 5 5 5 5 5 5 5 5 5 5 5 5 5 5 5 5 5 5 5 5 5 5 5 5 5 5 5 5 5 5 5 5 5 5 5 5 5 5 5 5 5 5 5 5 5 5 5 5 5 5 5 5 5 5 5 5 5 5 5 5 5 5 5 5 5 5 5 5 5 5 5 5 5 5 5 5 5 5 5 5 5 5 5 5 5 5 5 5 5 5 5 5 5 5 5 5 5 5 5 5 5 5 5 5 5 5 5 5 5 5 5 5 5 5 5 5 5 5 5 5 5 5 5 5 5 5 5 5 5 5 5 5 5 5 5 5 5 5 5 5 5 5 5 5 5 5 5 5 5 5 5 5 5 5 5 5 5 5 5 5 5 5 5 5 5 5 5 5 5 5 5 5 5 5 5 5 5 5 5 5 5 5 5 5 5 5 5 5 5 5 5 5 5 5 5 5 5 5 5 5 5 5 5 5 5 5 5 5 5 5 5 5 5 5 5 5 5 5 5 5 5 5 5 5 5 5 5 5 5 5 5 5 5 5 5 5 5 5 5 5 5 5 5 5 5 5 5 5 5 5 5 5 5 5 5 5 5 5 5 5 5 5 5 5 5 5 5 5 5 5 5 5 5 5 5 5 5 5 5 5 5 5 5 5 5 5 5 5 5 5 5 5 5 5 5 5 5 5 5 5 5 5 5 5 5 5 5 5 5 5 5 5 5 5 5 5 5 5 5 5 5 5 5 5 5 5 5 5 5 5 5 5 5 5 5 5 5 5 5 5 5 5 5 5 5 5 5 5 5 5 5 5 5 5 5 5 5 5 5 5 5 5 5 5 5 5 5 5 5 5 5 5 5 5 5 5 5 5 5 5 5 5 5 5 5 5 5 5 5 5 5 5 5 5 5 5 5 5 5 5 5 5 5 5 5 5 5 5 5 5 5 5 5 5 5 5 5 5 5 5 5 5 5 5 5 5 5 5 5 5 5 5 5 5 5 5 5 5 5 5 5 5 5 5 5 5 5 5 5 5 5 5 5 5 5 5 5 5 5 5 5 5 5 5 5 5 5 5 5 5 5 5 5 5 5 5 5 5 5 5 5 5 5 5 5 5 5 5 5 5 5 5 5 5 5 5 5 5 5 5 5 5 5 5 5 5 5 5 5 5 5 5 5 5 5 5 5 5 5 5 5 5 5 5 5 5 5 5 5 5 5 5 5 5 5 5 5 5 5 5 5 5 5 5 5 5 5 5 5 5 5 5 5 5 5 5 5 5 5 5 5 5 5 5 5 5 5 5 5 5 5 5 5 5 5 5 5 5 5 5 5 5 5 5 5 5 5 5 5 5 5 5 5 5 5 5 5 5 5 5 5 5 5 5 5 5 5 5 5 5 5 5 5 5 5 5 5 5 5 5 5 5 5 5 5 5 5 5 5 5 5 5 5 5 5 5 5 5 5 5 5 5 5 5 5 5 5 5 5 5 5 5 5 5 5 5 5 5 5 5 5 5 5 5 5 5 5 5 5 5 5 5 5 5 5 5 5 5 5 5 5 5 5 5 5 5 5 5 5 5 5 5 5 5 5 5 5 5 5 5 5 5 5 5 5 5 5 5 5 5 5 5 5 5 5 5 5 5 5 5 5 5 5 5 5 5 5 5 5 5 5 5 5 5 5 5 5 5 5 5 5 5 5 5 5 5 5 5 5 5 5 5 5 5 5 5 5 5 5 5 5 5 5 5 5 5 5 5 5 5 5 5 5 5 5 5 5 5 5 5 5 5 5 5 5 5 5 5 5 5 5 5 5 5 5 5 5 5 5 5 5 5 5 5 5 5 5 5 5 5 5 5 5 5 5 5 5 5 5 5 5 5 5 5 5 5 5 5 5 5 5 5 5 5 5 5 5 5 5 5 5 5 5 5 5 5 5 5 5 5 5 5 5 5 5 5 5 5 5 5 5 5 5 5 5 5 5 5 5 5 5 5 5 5 5 5 5 5 5 5 5 5 5 5 5 5 5 5 5 5 5 5 5 5 5 5 5 5 5 5 5 5 5 5 5 5 5 5 5 5 5 5 5 5 5 5 5 5 5 5 5 5 5 5 5 5 5 5 5 5 5 5 5 5 5 5 5 5 5 5 5 5 5 5 5 5 5 5 5 5 5 5 5 5 5 5 5 5 5 5 5 5 5 5 5 5 5 5 5 5 5 5 5 5 5 5 5 5 5 5 5 5 5 5 5 5 5 5 5 5 5 5 5 5 5 5 5 5 5 5 5 5 5 5 5 5 5 5 5 5 5 5 5 5 5 5 5 5 5 5 5 5 5 5 5 5 5 5 5 5 5 5 5 5 5 5 5 5 5 5 5 5 5 5 5 5 5 5 5 5 5 5 5 5 5 5 5 5 5 5 5 5 5 5 5 5 5 5 5 5 5 5 5 5 5 5 5 5 5 5 5 5 5 5 5 5 5 5 5 5 5 5 5 5 5 5 5 5 5 5 5 5 5 5 5 5 5 5 5 5 5 5 5 5 5 5 5 5 5 5 5 5 5 5 5 5 5 5 5 5 5 5 5 5 5 5 5 5 5 5 5 5 5 5 5 5 5 5 5 5 5 5 5 5 5 5 5 5 5 5 5 5 5 5 5 5 5 5 5 5 5 5 5 5 5 5 5 5 5 5 5 5 5 5 5 5 5 5 5 5 5 5 5 5 5 5 5 5 5 5 5 5 5 5 5 5 5 5 5 5 5 5 5 5 5 5 5 5 5 5 5 5 5 5 5 5 5 5 5 5 5 5 5 5 5 5 5 5 5 5 5 5 5 5 5 5 5 5 5 5 5 5 5 5 5 5 5 5 5 5 5 5 5 5 5 5 5 5 5 5 5 5 5 5 5 5 5 5 5 5 5 5 5 5 5 5 5 5 5 5 5 5 5 5 5 5 5 5 5 5 5 5 5 5 5 5 5 5 5 5 5 5 5 5 5 5 5 5 5 5 5 5 5 5 5 5 5 5 5 5 5 5 5 5 5 5 5 5 5 5 5 5 5 5 5 5 5 5 5 5 5 5 5 5 5 5 5 5 5 5 5 5 5 5 5 5 5 5 5 5 5 5 5 5 5 5 5 5 5 5 5 5 5 5 5 5 5 5 5 5 5 5 5 5 5 5 5 5 5 5 5 5 5 5 5 5 5 5 5 5 5 5 5 5 5 5 5 5 5 5 5 5 5 5 5 5 5 5 5 5 5 5 5 5 5 5 5 5 5 5 5 5 5 5 5 5 5 5 5 5 5 5 5 5 5 5 5 5 5 5 5 5 5 5 5 5 5 5 5 5 5 5 5 5 5 5 5 5 5 5 5 5 5 5 5 5 5 5 5 5 5 5 5 5 5 5 5 5 5 5 5 5 5 5 5 5 5 5 5 5 5 5 5 5 5 5 5 5 5 5 5 5 5 5 5 5 5 5 5 5 5 5 5 5 5 5 5 5 5 5 5 5 5 5 5 5 5 5 5 5 5 5 5 5 5 5 5 5 5 5 5 5 5 5 5 5 5 5 5 5 5 5 5 5 5 5 5 5 5 5 5 5 5 5 5 5 5 5 5 5 5 5 5 5 5 5 5 5 5 5 5 5 5 5 5 5 5 5 5 5 5 5 5 5 5 5 5 5 5 5 5 5 5 5 5 5 5 5 5 5 5 5 5 5 5 5 5 5 5 5 5 5 5 5 5 5 5 5 5 5 5 5 5 5 5 5 5 5 5 5 5 5 5 5 5 5 5 5 5 5 5 5 5 5 5 5 5 5 5 5 5 5 5 5 5 5 5 5 5 5 5 5 5 5 5 5 5 5 5 5 5 5 5 5 5 5 5 5 5 5 5 5 5 5 5 5 5 5 5 5 5 5 5 5 5 5 5 5 5 5 5 5 5 5 5 5 5 5 5 5 5 5 5 5 5 5 5 5 5 5 5 5 5 5 5 5 5 5 5 5 5 5 5 5 5 5 5 5 5 5 5 5 5 5 5 5 5 5 5 5 5 5 5 5 5 5 5 5 5 5 5 5 5 5 5 5 5 5 5 5 5 5 5 5 5 5 5 5 5 5 5 5 5 5 5 5 5 5 5 5 5 5 5 5 5 5 5 5 5 5 5 5 5 5 5 5 5 5 5 5 5 5 5 5 5 5 5 5 5 5 5 5 5 5 5 5 5 5 5 5 5 5 5 5 5 5 5 5 5 5 5 5 5 5 5 5 5 5 5 5 5 5 5 5 5 5 5 5 5 5 5 5 5 5 5 5 5 5 5 5 5 5 5 5 5 5 5 5 5 5 5 5 5 5 5 5 5 5 5 5 5 5 5 5 5 5 5 5 5 5 5 5 5 5 5 5 5 5 5 5 5 5 5 5 5 5 5 5 5 5 5 5 5 5 5 5 5 5 5 5 5 5 5 5 5 5 5 5 5 5 5 5 5 5 5 5 5 5 5 5 5 5 5 5 5 5 5 5 5 5 5 5 5 5 5 5 5 5 5 5 5 5 5 5 5 5 5 5 5 5 5 5 5 5 5 5 5 5 5 5 5 5 5 5 5 5 5 5 5 5 5 5 5 5 5 5 5 5 5 5 5 5 5 5 5 5 5 5 5 5 5 5 5 5 5 5 5 5 5 5 5 5 5 5 5 5 5 5 5 5 5 5 5 5 5 5 5 5 5 5 5 5 5 5 5 5 5 5 5 5 5 5 5 5 5 5 5 5 5 5 5 5 5 5 5 5 5 5 5 5 5 5 5 5 5 5 5 5 5 5 5 5 5 5 5 5 5 5 5 5 5 5 5 5 5 5 5 5 5 5 5 5 5 5 5 5 5 5 5 5 5 5 5 5 5 5 5 5 5 5 5 5 5 5 5 5 5 5 5 5 5 5 5 5 5 5 5 5 5 5 5 5 5 5 5 5 5 5 5 5 5 5 5 5 5 5 5 5 5 5 5 5 5 5 5 5 5 5 5 5 5 5 5 5 5 5 5 5 5 5 5 5 5 5 5 5 5 5 5 5 5 5 5 5 5 5 5 5 5 5 5 5 5 5 5 5 5 5 5 5 5 5 5 5 5 5 5 5 5 5 5 5 5 5 5 5 5 5 5 5 5 5 5 5 5 5 5 5 5 5 5 5 5 5 5 5 5 5 5 5 5 5 5 5 5 5 5 5 5 5 5 5 5 5 5 5 5 5 5 5 5 5 5 5 5 5 5 5 5 5 5 5 5 5 5 5 5 5 5 5 5 5 5 5 5 5 5 5 5 5 5 5 5 5 5 5 5 5 5 5 5 5 5 5 5 5 5 5 5 5 5 5 5 5 5 5 5 5 5 5 5 5 5 5 5 5 5 5 5 5 5 5 5 5 5 5 5 5 5 5 5 5 5 5 5 5 5 5 5 5 5 5 5 5 5 5 5 5 5 5 5 5 5 5 5 5 5 5 5 5 5 5 5 5 5 5 5 5 5 5 5 5 5 5 5 5 5 5 5 5 5 5 </DataArray>
</Cells>
<PointData  Scalars=" mean stress"> 
<DataArray  type="Float64"  Name=" mean stress"  format="ascii">6.2328207787471883e+03  5.7002603528006993e+01  3.6109972247177320e+03  5.7322580919314291e+01  8.1322479042376827e+01  8.0696992020797936e+01  2.0197857281248048e+02  7.3123443876653582e+01  1.7371163868738609e+01  1.3452802739177439e+01  1.1382861622793344e+01  9.4606214516101108e+00  1.6309709267339969e+01  1.3432462901013805e+01  6.1122852258098765e+00  8.3207805413924341e+00  1.7835410761392250e+01  2.2094885019809965e+01  1.9544070180599061e+01  2.4404538151375878e+01  2.8855877841106910e+01  3.3588230732003218e+01  3.8846769629860283e+01  4.1694784318126132e+01  4.3107128498300604e+01  4.4576616560751667e+01  4.6460005646994013e+01  4.7228503122273892e+01  4.7241238172700776e+01  4.8092237785113333e+01  4.9270692506035779e+01  5.0375970038657400e+01  5.1260241700578064e+01  5.2215391944336268e+01  5.2933574434446385e+01  5.3508002349088407e+01  5.4062909966565975e+01  5.4823201316112794e+01  5.5359234923924738e+01  5.5760676262530495e+01  5.6126300352433830e+01  5.6409954562864485e+01  5.6689028035439776e+01  5.6896422499619725e+01  5.7060761936980626e+01  5.7172674811837325e+01  5.7261169051481858e+01  5.7322297113694347e+01  5.7359455260082143e+01  5.7372281933869694e+01  5.7384175662156203e+01  5.7378826221514892e+01  5.7363340294267800e+01  5.7333860631411575e+01  5.7298075281388961e+01  5.7261181692638687e+01  5.7217466845918942e+01  5.7172047120643903e+01  5.7134927645720275e+01  5.7106818352835134e+01  5.7069255287944827e+01  5.7028712067390870e+01  5.7009217211782541e+01  5.7023918119208290e+01  1.7179004440234239e+04  1.5299064856058320e+02  8.3835993064382149e+02  -8.3354653041714130e+01  2.1402199118153882e+02  2.8718845746723588e+02  2.4106364182131702e+02  2.3774285928792727e+02  2.4586894277397678e+02  2.4594813528180234e+02  2.4649646145894252e+02  2.4696580429700541e+02  2.4742140544111606e+02  2.4709402136980830e+02  2.4658320819173323e+02  2.4594765434914731e+02  2.4539143253721019e+02  2.4475329098364750e+02  2.4416973120430069e+02  2.4357883963703642e+02  2.4298838418989575e+02  2.4244202413732819e+02  2.4192828633705560e+02  2.4143729287360671e+02  2.4098850688547753e+02  2.4063807638964272e+02  2.4019037211723480e+02  2.3981742609070304e+02  2.3946173013517844e+02  2.3916792566749257e+02  2.3889427934436188e+02  2.3864683062101693e+02  2.3848350356644070e+02  2.3831789920417032e+02  2.3819383987024318e+02  2.3817636562186053e+02  2.3815862721825437e+02  2.3819526983298528e+02  2.3828591952490129e+02  2.3841033947927477e+02  2.3858089512052624e+02  2.3879652718109949e+02  2.3906513986356052e+02  2.3937464621755120e+02  2.3972137798038122e+02  2.4009494551008808e+02  2.4053866084893755e+02  2.4103610917884225e+02  2.4156597309981044e+02  2.4214904395863650e+02  2.4277655024625622e+02  2.4348150739145612e+02  2.4423424897053982e+02  2.4504432191921373e+02  2.4603030111150707e+02  2.4701442753495184e+02  2.4810369091164597e+02  2.4918438694605516e+02  2.5053376715745046e+02  2.5180488675288751e+02  2.5338265067181737e+02  2.5503002038055942e+02  2.5687807884064932e+02  2.5896381402782845e+02  2.6120902094373872e+02  2.6372730952839146e+02  2.6676566894668321e+02  2.7018727872500938e+02  2.7469615158815702e+02  2.7941955725176598e+02  2.8587866707281262e+02  2.9828387598917124e+02  2.8729528470192480e+02  3.5271973896850989e+02  3.0218884466068133e+01  2.2172959339860631e+03  7.6176407043700905e+01  3.1482133634650882e+03  5.7343732137919652e+01  5.7356157448371825e+01  5.7376446857458440e+01  5.7401205292190888e+01  5.7433912447721745e+01  5.7462524629967191e+01  5.7507975105651958e+01  5.7557743661239300e+01  5.7607448305476304e+01  5.7649564756207226e+01  5.7686112106308840e+01  5.7722794793639608e+01  5.7766953718925144e+01  5.7790697172909653e+01  5.7795567589160093e+01  5.7781690336281663e+01  5.7744132521888254e+01  5.7695756734331638e+01  5.7628542680940576e+01  5.7555029910120204e+01  5.7398472758978265e+01  5.7196271893988317e+01  5.6976509893724582e+01  5.6720435120970272e+01  5.6378949648666321e+01  5.6030630810731459e+01  5.5543186126161928e+01  5.4958686680221582e+01  5.4452027810504795e+01  5.3824729347200645e+01  5.2853008242822241e+01  5.1902559165216402e+01  5.0992660276545756e+01  5.0609868285800630e+01  4.9852881110120990e+01  4.7968117323470572e+01  4.7405351981542736e+01  4.7531884126922897e+01  4.6454437891901847e+01  4.4482345924442598e+01  4.3015805828030317e+01  4.0182397442390474e+01  3.9532535953394046e+01  3.5594857260754587e+01  2.5840037348213528e+01  2.2068316033898618e+01  2.1410107170079371e+01  1.6205014989100768e+01  1.9419667574504579e+01  1.4401958867205684e+01  1.8400674734258224e+01  2.4637588884984371e+01  1.1508821415709644e+01  1.9770741053570642e+01  3.1290829293355987e+01  3.2565738246151405e+01  8.6001476526803046e+01  1.2117477072436282e+02  5.4954821970699783e+01  3.0684597192620586e+01  6.6474247762614338e+00  5.2458631576546395e+00  2.5418693420545694e+01  4.0123784503922494e+01  5.4090586410408591e+01  6.6782826818185725e+01  7.8568694228957582e+01  8.9503166273729647e+01  9.9520616220631467e+01  1.0872744732453822e+02  1.1705055705493299e+02  1.2445112178652238e+02  1.3085842214706267e+02  1.3619048843678038e+02  1.4040395563514983e+02  1.4338834972519416e+02  1.4509274773164694e+02  1.4545617986322412e+02  1.4443202856083843e+02  1.4200333963105956e+02  1.3815083689075277e+02  1.3289734193615354e+02  1.2626744816358648e+02  1.1829957072361141e+02  1.0909641206028512e+02  9.8717069718898529e+01  8.7276439843052117e+01  7.4881516289417618e+01  6.1670548281970838e+01  4.7774943223235361e+01  3.3203912058430902e+01  1.9131704112232232e+01  8.8577866720764475e-01  1.2058943855523209e+01  2.7074594630085102e+01  4.2462411735665725e+01  9.1877773501703373e+01  1.1795866854018870e+02  1.4714688092601511e+02  1.7156131270601739e+02  1.8595155763193037e+02  1.9225161128240791e+02  1.8916135399691865e+02  1.8220794293331684e+02  1.7575609003681046e+02  1.7729178358750201e+02  1.8226769090230604e+02  1.8981131501273134e+02  1.9174489116143701e+02  1.8638687745948354e+02  1.7210911362696871e+02  1.4682895498716584e+02  1.1846161882383568e+02  9.1150870894264955e+01  4.2038993723752057e+01  2.6579497429955264e+01  1.1212474545421841e+01  1.3620378352425047e+00  1.9932757688370192e+01  3.4061247902691619e+01  4.8649104796114685e+01  6.2553503489929327e+01  7.5747427626165290e+01  8.8097100794425330e+01  9.9480444750162007e+01  1.0978417980182967e+02  1.1890101982057456e+02  1.2676060354581782e+02  1.3326568927984283e+02  1.3840048106979452e+02  1.4213540420640604e+02  1.4443015740986482e+02  1.4532670356063440e+02  1.4484481483719401e+02  1.4303667350522861e+02  1.3995273755882562e+02  1.3567560700295516e+02  1.3026440932244367e+02  1.2380779908115140e+02  1.1638725187120262e+02  1.0803016319484259e+02  9.8817190156046820e+01  8.8756024859363762e+01  7.7879532147038105e+01  6.6146555783133365e+01  5.3427624751292527e+01  3.9514647886062171e+01  2.4920505680871216e+01  4.4753357231375235e+00  7.3045613023699474e+00  3.0922293304769468e+01  5.5297547346725274e+01  1.0237258165206082e+01  1.3317890413511487e+01  1.1576694360968439e+02  3.5389258794934210e+02  3.2143529419042102e+02  3.2877541977701804e+02  5.4374950979855043e+02  2.9014238148701776e+02  3.5209117563397257e+02  3.1906348860247124e+02  9.3753150434887971e+00  1.3448150830877021e+01  1.0027111082009085e+02  3.4194817439175871e+01  3.3830103425025371e+01  4.4564327185926663e+02  1.3812107727824127e+02  1.3860330607191503e+02  4.0766201717435592e+01  4.2271911524186983e+01  1.4369635767220947e+02  1.4370138848612805e+02  4.3876790263941665e+01  4.2910753108678655e+01  1.1531349730508889e+02  1.1359666369860891e+02  4.5686643862252929e+01  4.6878334279020670e+01  1.6369873256553788e+02  4.5861908140993654e+02  1.1312274850156204e+02  1.1173194013733490e+02  4.6900508054701348e+01  4.7322719156749010e+01  2.1355922698864434e+00  4.4160691040314603e+01  1.6594455769123844e+00  4.7066056319769672e+01  3.3290102601655155e+02  3.3933126523337501e+02  3.8741669804008632e+02  4.0112180352351101e+02  6.9422233137296743e+01  6.8485512462955668e+01  2.4679855388274703e+02  2.0684782326378533e+02  2.1012282247370607e+02  7.2537429562598930e+01  4.7444253780031865e+01  7.2380048349503554e+01  4.5137340983749361e+01  4.1092657552991049e+01  4.3780904131059366e+01  2.6425653006333899e+01  3.3889665635017423e+01  3.8237618583063181e+01  2.2757974404931151e+01  3.3747933390808512e+01  3.3260053509559604e+01  3.9980718381522263e+02  2.6884378484735556e+01  2.5712979153613183e+01  7.0380734032800137e+02  4.1208207145250481e+02  1.3067294402138651e+02  1.3503390450817696e+02  4.7509051629371719e+01  7.6433549629129027e+02  4.4064732524405620e+01  9.3370336276723407e+01  9.3782124432181533e+01  1.2970964885629473e+02  1.2985837388302292e+02  1.4560457496567483e+02  1.4543544578589649e+02  2.3491877335044107e+00  2.7142614267539580e+00  1.2790658633833181e+02  1.2728387025137361e+02  4.6862322186693547e+01  4.6263124051979155e+01  4.5556826323592645e+01  9.4743868265141359e+01  9.3893388521351881e+01  1.9379692348548708e+01  4.6482385455415212e+01  4.9123115572595957e+01  4.8573664808774311e+00  7.9462893260474621e+00  2.6743766579669440e+01  4.7428995993892862e+01  5.5886617844368089e+00  6.6416904144422322e+00  2.5431034302447308e+01  2.4858285424731591e+01  2.2481652844744070e+02  6.0138758686929762e+01  2.1869006349101358e+02  6.3893817172285978e+01  3.4143122665211581e+02  3.2603081709898447e+02  3.2420477206430746e+02  3.5698085611295176e+02  3.6781378974054718e+02  9.4522043861406502e+00  1.0554294675377086e+01  3.9581079333937396e+02  5.3929878909738477e+02  2.0483995060738416e+04  3.6115150384928434e+01  3.2899773589741386e+01  1.4931185576693946e+04  6.1350161503311320e+01  6.5746424024776289e+01  9.9289479852287869e+01  1.0354116896410657e+02  1.3173314127367047e+02  1.1390181504739458e+02  1.4401783434274680e+02  1.3313594218511042e+02  1.6529948129424440e+02  1.5826972824168479e+02  1.9252130019925531e+02  1.8737563147220209e+02  2.2365535085978789e+02  2.1958518902254207e+02  2.5772825749726712e+02  2.5388128677035056e+02  2.9373156928074968e+02  2.9002585818613056e+02  3.3126773438891991e+02  3.2543254946547739e+02  3.7064947559013717e+02  3.6039387600031478e+02  4.1086643061119804e+02  3.1704571351292941e+02  4.1846376565480654e+02  4.6565190401590786e+02  4.6933598366398400e+02  5.2301944976548987e+02  5.2027031479430946e+02  5.8034670157888320e+02  5.6964857479631530e+02  6.3503258632280188e+02  6.1403387419376645e+02  6.8123534295689149e+02  6.4867175181545235e+02  7.1336958437711928e+02  6.7483454216852590e+02  7.4927228206535369e+02  6.9372228414390497e+02  7.5975695003978399e+02  7.0053933651035027e+02  7.6605223839934422e+02  7.0027944935677601e+02  7.6432249144593675e+02  6.9031835911796873e+02  7.4692772977170478e+02  6.6792117549154170e+02  7.1104775929882510e+02  6.2986364176798861e+02  6.6430186874552180e+02  5.8725312673385451e+02  6.1062562049105907e+02  5.4685232308897548e+02  5.5420228388707983e+02  5.0003722228645762e+02  4.9950079962858052e+02  4.5398260978327784e+02  4.4903086522668320e+02  4.1092258099740138e+02  4.0371165642099226e+02  3.7145994880757820e+02  3.6279699436867958e+02  3.3616574267259625e+02  3.2593217968774002e+02  3.0452598861166246e+02  2.9374903359553161e+02  2.7713187983550398e+02  2.6643218959716557e+02  2.5324172572580810e+02  2.4288478672067626e+02  8.2263175975925196e+02  2.3232036452913823e+02  2.2251607223942963e+02  2.2956240561458046e+02  2.1070455255095212e+02  2.4008425588597368e+02  3.4206755439078216e+02  3.1149293383384804e+02  3.4564515249494013e+02  3.0564047365734774e+02  8.3682838663478924e+02  4.3337335909284565e+02  2.1422238567658263e+02  1.9690321736492481e+02  1.9475922322309569e+02  1.8167125681865008e+02  5.1664558167838379e+02  7.0866234681583899e+02  3.2723303904320841e+02  2.9113537987226067e+02  6.1743627685782326e+02  3.0732887893899942e+02  2.7340899878780266e+02  2.6092380265305604e+02  2.4568659882502118e+02  2.3621255680401609e+02  2.2370558453695674e+02  2.2853056426665404e+02  2.0856504875059576e+02  1.9769941240537244e+02  1.8110656931105203e+02  1.6857899990504674e+02  2.1618281259124632e+02  2.0942424085739555e+02  1.9281857080271507e+02  1.6936828342735916e+02  1.5698976412612996e+02  1.5455970548059946e+02  1.4444476406929292e+02  1.3986162558988420e+02  1.3062932192902750e+02  1.9065456498309860e+02  1.7614367603500392e+02  1.7896503692531155e+02  1.6404899355054212e+02  5.1338406677060516e+02  1.5847626658991393e+02  1.4817058777202672e+02  4.8806514586321600e+02  5.8996533989241300e+02  6.3865279647479031e+02  1.6754030898421013e+02  1.2433378898141677e+02  1.1583653111952374e+02  1.5869751988777287e+02  1.6875421840500036e+02  1.4051843921666537e+02  1.3192898861565291e+02  6.1549196100493305e+02  1.2297140953143182e+02  1.0836203953692052e+02  1.0832231981276644e+02  1.2266207659988584e+02  1.3209402594812255e+02  1.1481330229933741e+02  1.2457104114716839e+02  1.0854802196757555e+02  1.5994757682571580e+02  1.6794826510925853e+02  1.1849810957733469e+02  2.0725898853888529e+02  1.1697787997310812e+02  1.0385399339117363e+02  1.0004757394484453e+02  1.0857908264343614e+02  2.6195701670710133e+02  1.1818167509763617e+02  1.0209131190335746e+02  1.0420576232516156e+02  1.6010063699256457e+02  1.6667440262364011e+02  9.0917344663778110e+01  9.9318483737740706e+01  8.2733991454018110e+01  1.8727576891600955e+02  1.1356185978660713e+02  1.0929463343201330e+02  9.5740628212903275e+01  1.0069983520129801e+02  8.9896997566429391e+01  8.1055284365127577e+01  8.9263037163765190e+01  1.5957472885982759e+02  1.6449702011117350e+02  8.7716493954218535e+01  7.5684280413591608e+01  7.2726810895736975e+01  6.1129627501882489e+01  1.0327108461110618e+02  9.0328392108540299e+01  8.1739419724689668e+01  7.6889995330888283e+01  6.7537750859161918e+01  1.0948685562246672e+02  1.2158580212640324e+02  6.3061098308112406e+01  5.3216818561107210e+01  5.8884449132890190e+01  4.6978171425308553e+01  4.8632530497899857e+01  1.5840353737405482e+02  1.6175785166990386e+02  1.6803820711877137e+02  1.6360559677748768e+02  1.7023397342156647e+02  1.6388573377454526e+02  1.7093857162281552e+02  1.6265052013529657e+02  1.7010516214145741e+02  1.5999760311156126e+02  1.6807264623062792e+02  1.5589649334429231e+02  1.6435489304865345e+02  1.5009971909767788e+02  1.5986002103425372e+02  1.4287688869999047e+02  1.5477053875648164e+02  1.7412122998837435e+02  1.7128692254110851e+02  1.5353938026874019e+02  7.0473946173687651e+01  7.8497709476204136e+01  9.8108330244466927e+01  8.7340748799017177e+01  1.0804524024162153e+02  9.7207199001822232e+01  1.1925615338697087e+02  1.0841957137689292e+02  1.3192439632716773e+02  1.2114132586051093e+02  1.4568225128212845e+02  1.3535680374092760e+02  1.6180707883314332e+02  1.5180058576946752e+02  1.8111842591527400e+02  1.7096366243397551e+02  2.0215975780301099e+02  1.9270194476754341e+02  2.2517466704791786e+02  2.1783338023973133e+02  2.5400930029260803e+02  2.4734249925967529e+02  2.8839504913640246e+02  2.8187642121521293e+02  3.2685323585231276e+02  3.2173761301168076e+02  3.7102904463531081e+02  3.6994153537164976e+02  4.2289654719242327e+02  4.2738771915985524e+02  4.8358014661340911e+02  4.9447758351614408e+02  5.5419756104682403e+02  5.7313043897199771e+02  6.3431012717519855e+02  6.6293688166057268e+02  7.2396626662429651e+02  7.6393563053133994e+02  8.2121596273353953e+02  8.7116340001094670e+02  9.2169243423600983e+02  9.8328016565748112e+02  1.0230454223564557e+03  1.0903159259634951e+03  1.0455166973963760e+03  1.1462239483759433e+03  1.1749257184068442e+03  1.2332151340084274e+03  1.2550316354532890e+03  1.2396916013794778e+03  1.2569428663991448e+03  1.5551249773739314e+03  1.4820220873342723e+03  2.4624221486678052e+03  2.3340777420739464e+03  2.9021902656517027e+03  2.6976322830181907e+03  2.8253670975596838e+03  2.7292504426926475e+03  2.6189467154883805e+03  2.6584872783724149e+03  2.5618021491416407e+03  2.6913992430016037e+03  2.6608999556187341e+03  2.7649677969262411e+03  2.8943480287217080e+03  2.6073890094832277e+03  2.7687140477627072e+03  2.4478093498106064e+03  2.0330432308846664e+03  1.9328111706038171e+03  1.3310891130133700e+03  3.1234015093151797e+03  3.0910739324734686e+03  1.2391539735878998e+03  1.2646962421618564e+03  1.2530449674805743e+03  1.1954774232405671e+03  1.1616664778970410e+03  1.1105269503301663e+03  1.0549909390403516e+03  1.0065186965782509e+03  9.4036973012899057e+02  8.9829226182431796e+02  2.5124159099152566e+03  8.2695310258057862e+02  7.9601194198427334e+02  7.2227289229684720e+02  7.0196758692321077e+02  6.2638479484008542e+02  6.1675298460573879e+02  5.4653128889581455e+02  2.6423615356588793e+03  5.4198907668591607e+02  4.7473810128186665e+02  4.7704051217562773e+02  4.1606540317241183e+02  1.2132893322479345e+03  4.2105704470706740e+02  3.6556546993292926e+02  1.2708588284488746e+03  1.1064019336510894e+03  3.7167367927305963e+02  3.2235581867810458e+02  3.2943043133498378e+02  2.8570287880392084e+02  7.6409589097892388e+02  4.1391595432541402e+02  1.0566373504842436e+03  6.8747228595811862e+02  2.7166455922958181e+02  2.4106541789244946e+02  2.5512570605952430e+02  2.1499012032021329e+02  4.0259028546112887e+02  9.7266883799297000e+02  4.2838867624244608e+02  6.3284859666722377e+02  2.0836895875837388e+02  2.7130918902629912e+02  1.3904453339583645e+02  1.9504410478522550e+02  1.9354095006545387e+02  2.2199939088716485e+02  2.2033677315037519e+02  4.9132390819529682e+01  2.2884163651273900e+02  1.9261858409764011e+02  2.8714508463645433e+02  1.2655459611853964e+03  3.8943745346149797e+01  4.2723654519619160e+01  3.5250507343602258e+01  1.7643735673198461e+02  1.5767984694896290e+02  1.7325224660391896e+02  1.4184798878303775e+02  1.5663147082175314e+02  1.2784251391349160e+02  8.5973334675267026e+01  4.5171781246747472e+01  1.5284416502672411e+02  1.1801089571700470e+02  1.2848601465148965e+02  5.2929379742018557e+02  1.3514834967208884e+02  9.5276478364347429e+02  1.4197954843303737e+02  1.1518370009128620e+02  7.0075119990643543e+01  3.3006961433600154e+01  3.1576841529566181e+01  1.5845658519116259e+02  5.9109566652756847e+01  5.1992166350606652e+01  2.5345507002577122e+02  2.5020883376123095e+02  9.8586686136605039e+01  1.1009405761252603e+02  1.3479925564258437e+02  2.2520908267097849e+02  2.0673230990800508e+02  9.6282583622127035e+01  8.8998801040939043e+01  2.8437185313135043e+01  3.2132826558965903e+01  1.2354023224932918e+02  2.1593046885898170e+02  1.0375766233469419e+02  8.0253452213142097e+01  2.1144540534676500e+02  3.4606735898014472e+02  2.9025563636807999e+02  2.8405188693151581e+02  1.2521064689812823e+02  1.3423605204714383e+02  1.3037289561437220e+02  3.2873978976463695e+02  3.1937860217204280e+02  4.5329929543731701e+01  3.1653469798813060e+01  3.2117311167160904e+02  6.4939540814487174e+01  5.7785489775942381e+01  7.2308176830326872e+01  5.1278458114991885e+01  6.5214959373978573e+01  4.5581318323240986e+01  5.9012526630136051e+01  4.0414932887467543e+01  1.6885825053319451e+02  1.8020740545096146e+02  1.0499024901383341e+02  1.9974481098191230e+01  1.9064172739502954e+01  2.0964025151692958e+01  1.1458881361345760e+02  5.3340197633207538e+01  3.5629290451895770e+01  4.8379015987572700e+01  3.1503100588018100e+01  4.3943694444922897e+01  2.7803330075940263e+01  3.0344250773364362e+01  1.0585380995533450e+02  1.1639972207905517e+02  2.1318278505697251e+02  1.9636354458980992e+02  1.9099552342879338e+02  1.8271341579058878e+02  1.7858876673351054e+02  1.7212028751188885e+02  1.7374799699521733e+02  1.6457099074650620e+02  1.6393660209878814e+02  1.6408554477614754e+02  1.5628772082740659e+02  1.5376167924406721e+02  1.4729325360588629e+02  1.4290975575284480e+02  1.5044805344574146e+02  1.8142107559570157e+01  2.1963622901767316e+01  1.4564123670655748e+01  4.0179233072256189e+01  3.4028691364470241e+01  2.2226081599793571e+02  1.2874173065700708e+02  3.6854750080517346e+02  3.5359675646768170e+02  4.0410985296262629e+02  3.8104332186825610e+02  7.2288604939681207e+01  1.5408630736845026e+02  3.5917840301231827e+01  2.5591074364461150e+01  1.8280443235255581e+02  1.9981556278594547e+02  2.2148696054374562e+02  2.2279063750971449e+02  1.3046105798273953e+02  1.3876757444424825e+02  1.4285104330922357e+02  1.4609155228923231e+02  1.5332414774002041e+02  1.4850581330312670e+02  8.5613158171332842e+01  2.6554541596362645e+02  1.2104332553877263e+02  4.1281947463897319e+02  2.8484747582273758e+02  1.4239800898246548e+02  1.4823191480923447e+02  7.5230774085771645e+02  4.2994466756743014e+02  4.0117713569820683e+02  4.4864906658271923e+02  4.1259978906046547e+02  4.1844113047981033e+01  1.2593454278808444e+02  1.5352436763243628e+02  1.3794742008247351e+02  1.3135553540357895e+02  6.9472037033413358e+02  1.4915167688892939e+02  1.4440856516483407e+02  5.9846823395049148e+02  3.7166243721217347e+02  9.0538760920830796e+01  1.8075144878757296e+01  4.5484378622770134e+02  4.1345895464203807e+02  4.4755025577790536e+02  4.0290726658708894e+02  3.6273677021932104e+02  3.4235726807975715e+02  1.6700081073879662e+02  3.5667714674930113e+02  1.5072320407247886e+02  2.7569916981975263e+02  1.0038908254082402e+01  1.4199946517386151e+01  1.7475367416827777e+02  2.1072103482570174e+03  6.5057359499409237e+00  7.4081128870208586e+00  2.2040121972478182e+01  4.2860236267995953e+02  3.8156926217643110e+02  2.9286156499315428e+01  1.8449965048747192e+01  3.1837411017831620e+01  9.9744044602022450e+02  1.0513709882988258e+03  9.3558263705618720e+02  9.7090488757489834e+02  8.4009356027592480e+02  1.0914645399861906e+03  1.0143528814701191e+03  1.1270738316790737e+03  1.0607892544984691e+03  1.1971655529622901e+03  9.0855874430978110e+02  1.2230227827944734e+03  1.2043450101381684e+03  1.2040108540970666e+03  1.7234504698231990e+03  2.1521738419695439e+03  4.4085993023508381e+03  4.4674634739759958e+03  5.0983085297663556e+03  4.4928741745242587e+03  3.3257538437275425e+03  3.2550160251810571e+03  2.3713319590546998e+03  2.4504589145017026e+03  2.0634042357914000e+03  1.9696574578921475e+03  1.7544680090749548e+03  1.8730702095019012e+03  1.5931205238437274e+03  1.7475279807460377e+03  1.5366018496923027e+03  3.1939017714104517e+02  1.6710017237919478e+03  1.4865875605043177e+03  1.6205751645713401e+03  1.4562981418030959e+03  1.5810090012064177e+03  1.4364981771976172e+03  3.0927225842327294e+02  1.5691531759911356e+03  1.4322827859609815e+03  1.5792741473566896e+03  1.4416268041045187e+03  1.5979376804796823e+03  1.4660338976820176e+03  3.1276816812043467e+02  1.6253486938631970e+03  1.5047752792508049e+03  1.6792542415800199e+03  1.5636157555996051e+03  1.7712568738157515e+03  1.6600642126350592e+03  1.9014897301184324e+03  1.7941263260374453e+03  2.1118888416499667e+03  2.0262707805257371e+03  1.3065879873226525e+03  2.4052222351809919e+03  2.3478790185713624e+03  1.3680681906867210e+03  1.2819010494502909e+03  3.6192418614583407e+03  1.4936790334714826e+03  1.6922835891878995e+03  3.3588541501695204e+03  4.0444684796148385e+03  5.2185619106872336e+03  1.8224353563352640e+03  1.7667089784662392e+03  5.9603060814540204e+03  3.3577791581302777e+03  2.1022998987023088e+03  2.3483708472796397e+03  1.2394454839653281e+03  3.3506493907546751e+03  1.9981822337501380e+03  6.0870641362269243e+03  1.1613357339812753e+03  1.2123313737964675e+03  2.9251202446512644e+02  3.0245834892928298e+02  3.0908641174660556e+02  3.1250873076001193e+02  3.0543239591508672e+02  4.1381443210803718e+03  1.1256130391493546e+03  1.0796716514027869e+03  1.9597048115836594e+03  1.6919636392949269e+03  3.8412517787801080e+03  1.2047092508160733e+03  1.4974885297507972e+01  1.1673519569269537e+01  1.6282637013305998e+02  1.3799947856996451e+02  1.2444251067909130e+02  3.9006088041136175e+00  4.2225033888862477e+01  4.7617239935510419e+01  2.4375251469915611e+01  8.6267585921288426e+00  2.2687565987002534e+02  1.1229428916444029e+02  1.0139940811822710e+02  2.2271683671979808e+01  2.7582893367852890e+01  1.7250079628842915e+01  2.0307189762501801e+02  1.4721007049043453e+02  2.5056622672549742e+02  1.9982986067057152e+02  2.2406674258521471e+02  1.7284755279709555e+02  1.8667752450685407e+02  1.5364452520020114e+02  3.9926248994924839e+02  3.5207113711448363e+02  3.6233259346557820e+00  2.0541094845491212e+00  2.8189108037700006e+01  3.3782849652226190e+02  1.1893068923741636e+02  1.1073504761692436e+02  9.5208190464838333e+02  9.5266088117669642e+02  1.0651588923633819e+03  9.4053636811087415e+02  7.9644371956385658e+02  8.1278699484136951e+02  6.6379215149841707e+02  6.9696474022388793e+02  5.5313575063198095e+02  7.8447278335764182e+01  3.3933209487880247e+00  7.1136237938921340e+01  1.8038263868542083e+02  1.6350669494141871e+02  1.6306581507432945e+01  1.3257383346055320e+02  9.3582931518434648e+01  5.9470112335055569e+02  4.6272003622407277e+02  2.9508510447807731e+02  4.5091178165022612e+01  2.9481676291602454e+01  5.0851342891589042e+02  3.9110689879483527e+02  4.3678269516575222e+02  3.3170535991332781e+02  3.7665466913443368e+02  2.8543469358976535e+02  3.2679287566290799e+02  2.4631501485356407e+02  1.2623980005080656e+02  1.1235654132638169e+02  1.7843815317614136e+02  1.4498120633761803e+02  1.4933453349442055e+02  1.4646189340047387e+01  1.7647370274250400e+00  2.8316512219206305e+02  2.1333136494651478e+02  3.8989728448236104e+02  4.1080130036728480e+02  4.4846160849356238e+00  1.9708622930932702e+02  2.1630576883429754e+02  2.5777328342426333e+01  2.8891176920210047e+01  1.2166809939407668e+02  2.1905965574031316e+02  3.7766299687505375e+02  3.3338273175144269e+02  2.9855139729937179e+02  9.6544790971075429e+02  7.6841168445523761e+02  2.1977578119187520e+01  3.7288064939219581e+01  6.5663421357528886e+00  5.4836607607800740e+00  1.4581551405770691e+02  1.4919748413531838e+02  1.4110358339760305e+02  4.2191815506897342e+01  4.1440096679417550e+01  5.3709083373652028e+01  1.1829865350677970e+02  5.9976315776326645e+00  2.3749454020041622e+02  2.3787411381307092e+02  1.9167198243494499e+02  6.9888201244089099e-01  3.8630141433381546e+01  5.1754228288617497e+01  1.8026725102833311e+02  3.0712721457885067e+02  1.3957224826769715e+02  3.7790756542667970e+02  4.6786749431118198e+00  1.0440684563348984e+03  9.6445606741189033e+02  1.0494312030629499e+03  1.2787174682466102e+03  1.2737161039844559e+03  1.2906851805077351e+03  1.2594206229253309e+03  1.2708085815862253e+03  1.1639556999003016e+03  1.2009844982373650e+03  1.4336387437879825e+03  1.2033486927836373e+03  1.0740030928704541e+03  1.6131941871743957e+03  1.1978385333501326e+03  4.9203652373728142e+00  9.7145536725195480e+00  1.2520424182739744e+01  1.4821864178288549e+03  1.1853367957364489e+03  1.2858722703136743e+03  1.1431061071515262e+03  1.7990747841805458e+02  1.6914849327442622e+02  6.0698847166463459e+00  6.6206976712995802e+00  2.3852957941239106e+02  9.5759423273357356e+02  8.8137027371454587e+02  1.1639390157450468e+03  1.5301709673839176e+02  1.5254444247586079e+02  1.4940589460896291e+02  1.5100845949243637e+02  1.0671999485722777e+02  9.6983064580737306e+01  2.2705264604840725e+00  6.0709786732509485e+01  4.8517346012496859e+02  3.3215005996004621e+01  4.4268507476646583e+01  2.0198266878566312e+02  4.0624933493673666e+02  7.1514529603630160e+02  1.2655355612990341e+02  4.9599689035997625e+02  8.4032754211025321e+01  7.3565408598428135e+01  9.9914186506769980e+01  6.5240345143841310e+01  9.2192420629540607e+01  1.0180236576783294e+01  1.3497060578745794e+01  6.8829769752534160e+00  8.5151880512068576e+00  2.9597971099290743e+02  8.9175279343042561e+01  5.6528236746974770e+01  4.3982389420089322e+02  4.6440345152312204e+02  3.6214607306142437e+02  6.7617278308214521e+00  1.2401304464459831e+03  1.1084877081669122e+03  1.1576689676354574e+03  1.0414656343112936e+03  9.8939789400754648e+02  9.3344912005223148e+02  9.6087666692187031e+02  8.6491797113221821e+02  8.7184568379532175e+02  7.8764900611027440e+02  7.8052501023292871e+02  7.1031644409262105e+02  6.9312549827660087e+02  6.3601846135905396e+02  6.1503659740740591e+02  2.7225936162682217e+02  2.4499769240799779e+02  2.1509773885918872e+02  2.3776724167839086e+02  2.6206951804341344e+02  2.6368891647928143e+02  2.8994138066294397e+02  1.4956427599538148e+02  1.3270503798482477e+02  4.5140861215873758e+02  2.4957322398161571e+02  3.9810092668238389e+02  1.0461458267629814e+03  1.7701390859890779e+02  1.1658546936468969e+02  2.3221798320949662e+02  1.6184835885275939e+02  8.2694042815385023e+02  7.1631281332433605e+02  1.4254526334600931e+02  5.9572429917444060e+02  7.1692574978973630e+02  1.0254126746076003e+02  8.7656972675181507e+01  2.1024633941892253e+02  2.1321099201924000e+02  2.3103216272205268e+02  2.1408334499286616e+02  4.9302734299327767e+01  6.1361133732041012e+01  1.7182440781204599e+02  1.4826526824181391e+02  9.6885265904006470e+00  1.2785535414898572e+01  2.9367669204253752e+02  3.2177014556803448e+02  1.8239091243495247e+02  3.1979091181659197e+02  1.4659007581219319e+02  1.4872974156283016e+02  3.2784645515769682e+02  3.5878260633923696e+02  1.0576789408634247e+03  1.4850231814180347e+02  1.4870427851523931e+02  8.2291416533188993e+01  7.2475178470496274e+01  5.1547537701788713e+00  4.2972269075778843e+02  1.5780961583869521e+02  2.0216286123068809e+02  2.2621745482275983e+02  2.3334236668546203e+02  7.1701540239359476e+00  4.9604964518825051e+02  1.5845351918270254e+01  1.8188807752763701e+01  2.1225201833114244e+01  1.3998784077344451e+01  5.2014350084888889e+01  6.4575698844629528e+01  1.2610025097499542e+02  1.2340851608148199e+02  2.2907045642381828e+01  2.2140524030449061e+01  7.6328574046314804e+02  9.5941675110188942e+02  7.1058044243102154e+00  7.2215490244074886e+01  3.4678769034980110e+02  1.1999124736511561e+01  1.0348183764602322e+03  2.2424048949602215e+02  4.8935890909050698e+01  5.9519769874136855e+01  2.0183121603412964e+01  2.0441385371029781e+01  7.3758761480731510e+00  6.7723837257034694e+00  1.4442064471990481e+01  1.0278053541952335e+01  1.6131415587218265e+02  7.9554661437798401e+01  5.0558761767521283e+01  7.1332196217431573e+01  4.4396554216580597e+01  6.3913767441621047e+01  7.1090675226771850e+02  5.8904100992559017e+02  6.0014056105417376e+02  4.8639452690299646e+02  5.0311549902009511e+02  3.9768441367393768e+02  4.2065144450754968e+02  3.2430039091026828e+02  3.5082239579175177e+02  2.6453075821029387e+02  2.9316763785078405e+02  2.1641013734336096e+02  2.4485226094124354e+02  1.7668062935393269e+02  2.0458829208281597e+02  4.5014571347900170e+02  1.4366282893685005e+02  1.7041614260500361e+02  2.2762498406637405e+02  1.9254727432250414e+02  1.4069683720152938e+02  1.6185738028003468e+02  1.1479362662741829e+02  1.3555146380934914e+02  9.2907497224462162e+01  1.1299796150725618e+02  7.4178209757189876e+01  9.1875787535547062e+01  1.5216083097237873e+02  5.7721748789329439e+01  7.4864359121924366e+01  4.3544243619740155e+02  2.8903645165404197e+02  4.4069635690385041e+01  6.1369656735896818e+01  3.2479311333111575e+01  4.8830751747641187e+01  9.4308866488613361e+01  7.0383494491053568e+01  2.5503250364992017e+01  8.6035358561567341e+02  2.0183336276227191e+01  3.7624709161120258e+01  6.4084652240274437e+01  5.1719207278101280e+01  2.6859327137321202e+01  4.0697808122625091e+01  1.6963923457578435e+01  3.0876345307094120e+01  5.3644549626017032e+01  4.2958694490756429e+01  2.1324508485370526e+01  3.3395719161936789e+01  1.2677914569133243e+01  2.4680755398811385e+01  7.3777199163981733e+00  7.9472428835816956e+01  8.8873244060016702e+02  1.1475491778253392e+02  1.7922576687632105e+02  1.6986051892174970e+02  3.0857860095911877e+02  2.4210890015352411e+00  3.8613996338877200e+02  4.0282752375422729e+02  2.1474596764919578e+01  1.9186238194040957e+01  1.7958022558034301e+02  2.8557695621865797e+01  1.7784697198309846e+01  2.0506135011763052e+02  7.2340707020568864e+00  1.3995818605647065e+02  1.4929475732002857e+02  9.3024426444533162e+02  9.9397028964612628e+02  7.3069673833238733e+00  6.6680907254664092e+01  5.6901471321682145e+01  1.5103938004895238e+02  2.4304347625417242e+02  1.4677729032899512e+02  1.4556572793654814e+02  1.4713575074187386e+02  5.7369801468542437e+02  1.2762925894953615e+02  5.5886155254483697e+01  9.6270403610234947e+00  1.3750016839490470e+02  1.3215785464240193e+02  4.4346998750027730e+01  9.6223972862255309e+01  1.1880951330654774e+02  1.7065516010075115e+01  9.2418579464155061e+02  1.4682256630071188e+02  1.4781277237934137e+02  1.4962427273865802e+02  1.4756766802236061e+02  1.4930715968512200e+02  1.4592713500894186e+02  1.4757680500426474e+02  1.4300353131693529e+02  1.4495924787284181e+02  1.3872094954408874e+02  1.4038781609392700e+02  1.3289601986486633e+02  1.3761261018359107e+02  1.3499763903400520e+02  1.2611240378445206e+02  1.2507424421961370e+02  1.1702912272553310e+02  1.1816691117236539e+02  1.0750889523036207e+02  1.0934826495374210e+02  9.6940607172789370e+01  9.9969140578658923e+01  8.5970409860652424e+01  9.1028308759570578e+01  7.5589947245094976e+01  8.5136429754237000e+01  6.9061966162625936e+01  8.3679575365835959e+01  1.0072971647542376e+02  7.2001140518021103e+01  1.4500819545534756e+02  1.0782591371384139e+02  2.2213909135512716e+02  2.1325213611033277e+02  1.8540526400968957e+02  1.2742135945009072e+02  1.3218615732338688e+02  2.4575601229979901e+02  4.7312065660693747e+01  7.2816301396675570e+01  6.7510015713848844e+01  4.8607226417749786e+02  3.1230231743751116e+01  1.4756013401862182e+02  5.4658577866126251e+01  4.1270346975922990e+02  2.0558796455460688e+03  4.0116953923192096e+00  1.8196632176362581e+01  1.8452854254635781e+01  4.3142501295486244e+02  4.5449930910331341e+02  4.8296598476301989e+02  5.1405301317700366e+02  5.4125921493859369e+02  5.8154427809561969e+02  4.7638973578661029e+02  6.0558915121766836e+02  6.5544463715425229e+02  6.7552351297771168e+02  6.1048028585559939e+02  4.3040781228246914e+02  1.0500304802136981e+02  6.9463728955365298e+01  4.2184136449331606e+02  6.4538788926555284e+01  7.3738061950806994e+01  1.0409039943433255e+02  1.2321365868404943e+02  1.2919319351095999e+02  1.5100991079054933e+02  1.5713912205294758e+02  1.8322864115447862e+02  2.4851850652781312e+01  2.7693547428211525e+02  9.2395376449027680e+01  2.1263534803977274e+02  1.1408686341695127e+03  1.1214099533527753e+03  1.1173107706121989e+02  1.3896447992489720e+02  1.1763048398511360e+02  7.8335813806693523e+01  2.9724720936274741e+02  2.8295052486002828e+02  3.0323669060155919e+02  1.4396022705680656e+02  1.4175741826098917e+02  1.4336273131466035e+02  1.3806488150622715e+02  1.5435277026756899e+02  6.4525587848964108e+01  5.3942319582388234e+02  1.8855614903666878e+02  2.1740816333613154e+02  7.3077952557675907e+00  6.0095756367246213e+02  6.5922114759673221e+01  7.6693564546075322e+01  7.5226152117433855e+01  8.6609828166430319e+01  8.8292204388088777e+01  9.7660683597679778e+01  1.4901157130472032e+02  1.4498223660552253e+02  2.6654794670617594e+02  2.7199304907732414e+02  2.3306811013512112e+02  8.7826829878255566e+01  7.7054368332224101e+01  2.7566750810186971e+02  6.6145638999853520e+02  3.9041046052200286e+01  2.1515264216150538e+01  2.2059713021474280e+01  1.5986057919235853e+02  1.5598519139836510e+01  9.5414738862605333e+01  1.0618099751052388e+02  1.4079463939024643e+02  1.8045930083146477e+01  7.5352263220987181e+00  1.9107031669677423e+02  3.8665586080575814e+01  1.9097519995138860e+01  1.4385205345945364e+01  2.1567136735750612e+01  5.6860937311003845e+01  1.7218514031936816e+03  5.8087971570902550e+02  2.0336100188608276e+02  1.5213307027382447e+02  5.5420487746437800e+02  1.2193373461597575e+02  2.6375243053454852e+02  3.6924837325130352e+02  2.5199212578651878e+02  2.5621035708295864e+02  2.8172759367131420e+02  2.8357579137804959e+02  8.2238113837609728e+00  2.6002019919028147e+01  1.2199530371034823e+03  9.0362373755134342e+01  7.7247535649384133e+01  1.0888966235557024e+02  6.4470539202720758e+01  8.5490514486999615e+01  8.1153828176865701e+01  9.2566948649248118e+01  1.9647897186458462e+02  1.9220868384567538e+02  8.8182955963688869e+01  3.5644687748588538e+01  4.6040571846415311e+01  2.2450471622197860e+01  1.6607363802201704e+01  2.5734736052004806e+01  2.8581415235109684e+01  1.2227204408866088e+02  1.2893581935475777e+02  3.4946265713026584e+01  1.1199802560772356e+02  1.5632877053200190e+02  1.4330177538945108e+02  1.2788363598623134e+02  1.4009269652789473e+02  1.3337625814002357e+02  3.6663102306701440e+01  5.2832615600266180e+01  2.9512186866794372e+02  8.8711480295086642e+02  3.0303240032871301e+01  7.1247795625040062e+00  1.0527019780318591e+02  1.1409050769968897e+02  1.1563274789912026e+02  8.2998501717611850e+02  1.3861337554532898e+02  7.4564363238684348e+02  1.0065632032582243e+03  1.1493922452453503e+03  1.2041791943851067e+03  1.3571439305312138e+04  1.0815881803930426e+03  1.1399040930225854e+03  1.8496733942625121e+03  7.1523382322244206e+03  6.6599040708213506e+03  6.4316768268164251e+03  7.2400507164018782e+03  2.3153552082415204e+03  2.8488658320415357e+03  1.8016563922010696e+03  1.9573283051115675e+03  1.5065180398194918e+03  1.6340436987817475e+03  1.2762609580521928e+03  1.1348177774030673e+03  1.0527003435364695e+03  1.1809190731107960e+03  1.0203657818522979e+03  1.1291881617744268e+03  9.7803143828580096e+02  1.0874723527662029e+03  9.1705861435689417e+02  1.0439811022305400e+03  9.0872288052811587e+02  1.0148008060980292e+03  8.6312728759809772e+02  9.9140124311885597e+02  8.6732847896044154e+02  7.6233562367553247e+02  9.7461268705624195e+02  8.5278372743345494e+02  7.4502186450954366e+02  7.3498795348367969e+02  8.3761857707608647e+02  7.2471970987717384e+02  8.2545226017298103e+02  7.1592426767120776e+02  8.1628525921179266e+02  7.0905774392655724e+02  8.0967212475470376e+02  7.0859345237742480e+02  8.1256953506129764e+02  6.8784067528026355e+02  8.0487468309124949e+02  6.9565445582201676e+02  8.0087973633812771e+02  7.0048144365875089e+02  8.0542697650837579e+02  7.0445075686928908e+02  8.1087021281278567e+02  6.9524108528473687e+02  8.1594209535877576e+02  7.2260001098592807e+02  8.2886360546572269e+02  7.3147656596956426e+02  8.4854435571148940e+02  7.4081528338661917e+02  8.6421586674254002e+02  7.5529607507217588e+02  8.7736785501063957e+02  7.7633358114908867e+02  8.9972438677375612e+02  7.7709015262882633e+02  9.2816148002979764e+02  8.1951704637259115e+02  9.6628838639287801e+02  9.1831407229867864e+02  8.5547393431080195e+02  1.0126416063348717e+03  9.2637965846922134e+02  8.7078554198486302e+02  1.0645258435298238e+03  1.0035258571504118e+03  9.4247777294887555e+02  1.1245225248130962e+03  1.0200952397250273e+03  1.2025661197983609e+03  1.0962239348195737e+03  1.4353418731104439e+03  8.1476689428484940e+02  9.5965853099329286e+02  1.2539876776917060e+03  1.8203758059067629e+03  1.2277986130851068e+03  1.0692924351660954e+03  8.7115262362167641e+02  9.0786208177242600e+02  9.0710299520594901e+02  1.5694318523818599e+03  2.8659877778400805e+03  6.0033212149797055e+02  3.0950041580008806e+03  9.8132945018617502e+03  6.1539669121139468e+02  3.2644506589202462e+02  5.9473316573837815e+02  1.6190920307388365e+03  1.0963094504114949e+03  5.9507079179092511e+02  6.1579396672625580e+02  6.3029595524979584e+02  1.3116577141216922e+03  6.4125571355262002e+02  6.3659132119938283e+02  6.7618162430722339e+02  7.2201654891366547e+02  1.0775776751967264e+03  2.0057727496293639e+03  8.0313647332932806e+02  1.1958400326379019e+03  5.2843871698574424e+02  5.1716184149238188e+02  5.2933588883346499e+02  1.1989312177980153e+03  9.0938752723245909e+02  1.2786781770882648e+04  5.3490991071072058e+03  1.2240507527645095e+03  1.2186506225049141e+03  8.0289665904080221e+03  2.7657338995961622e+03  1.9193434120176747e+02  6.1870388511728390e+02  7.0422410106935547e+02  6.2991149543324445e+02  5.2206502655844474e+02  2.4863776207382190e+02  2.4878526245135885e+02  -6.9315634647105412e+01  5.2182318862867078e+03  1.1868968118819737e+03  1.1297227136346401e+04  2.1514190754005054e+02  6.4172584652770325e+01  9.4129527662638584e+00  9.9089393224741926e+01  9.0411165083552547e+01  4.2334624937893011e+02  1.1261351594042971e+02  6.7655467647875113e+01  7.8931648837894343e+01  1.3184345483666476e+02  1.5625777099405656e+02  1.5906317799180437e+02  2.8344188443272706e+01  1.2052505672353841e+03  1.6139289237570381e+02  1.2367723821798373e+02  4.4449611549906882e+02  3.8738525497972336e+02  1.4460920496358042e+02  1.3201557138110985e+02  2.5097739214236651e+02  1.1821018031120159e+03  2.7740557473287836e+03  3.1403490220919218e+02  3.1467474803086179e+02  3.4758777564916602e+02  3.4906806088163000e+02  1.1520762553903456e+01  1.6290519131826009e+03  1.1390172446353552e+03  1.7039982040010660e+01  2.6152207595838689e+01  8.2453909956420929e+01  1.2669349794952923e+03  1.1674061636591166e+03  6.8125076110930067e+01  1.0216632533445380e+03  2.2152520544676882e+01  4.7817820138074175e+01  8.4671726061469201e+01  4.6917177848381428e+01  1.6448845866347486e+02  1.8597749869336863e+02  1.2584135209848016e+02  7.7781118628568704e+00  1.2094349297493378e+02  1.2705585560208992e+02  5.0833067402020484e+00  6.5136928847330227e+00  2.8433891261291933e+02  1.2037790092278663e+03  9.9378529740729573e+02  1.0717373038395415e+03  7.9738603324706742e+02  1.2690992167412962e+03  8.8351202436195035e+02  9.3727745002961865e+02  7.7577682551074258e+02  7.3646347689855497e+02  7.7822768634731489e+01  2.2300016014185863e+02  1.6633391203409124e+02  3.1662024325875649e+01  2.0642510074727586e+01  2.2201189607723319e+02  3.1288741131434325e+01  1.0451053141749060e+03  7.2857254231555123e+02  2.8524272781654286e+01  2.7955983786351780e+01  2.9593946767326422e+01  4.9963999133718140e+01  8.2924221369301233e+02  6.8818111312060739e+02  6.6695505718806760e+02  5.3987039593251416e+02  5.3843466835715776e+02  5.6550204916361747e+02  6.3389674194409520e+02  5.0481246544749121e+02  6.1609912034380341e+02  1.8974582857108027e+02  4.7529351111679738e+01  4.0634159342674323e+01  4.0940394166916820e+02  1.8946575837730816e+02  1.0622914209559430e+02  7.0279632922095027e+02  5.6557134247058275e+02  5.9244291295365451e+02  5.4727803801848222e+02  5.4376631468069445e+02  6.3220784362324878e+02  5.0416611580639636e+02  2.2377588279699617e+03  1.8473827737852316e+03  2.1579993960348684e+03  1.6144662036801087e+03  7.1583206983751040e+02  8.6446197850936358e+02  6.6119216825533192e+02  6.1099455094428447e+02  6.3459413280696026e+02  7.6275270443287206e+02  4.2678928199832512e+02  3.2229689010935900e+01  2.0382236785657202e+01  7.0068581311879292e+00  3.4074759387004900e+00  5.9931598370656309e+02  5.0160708372399023e+02  4.9521154003146546e+02  5.0089666900652975e+02  4.9191524719942123e+02  5.7548517640762850e+02  4.7531961711979085e+02  5.5323116943587297e+02  4.6646278489647312e+02  4.0666229878304119e+02  5.9019108839298644e+02  4.7198216988909923e+02  5.6607299896850066e+02  4.6600205077192618e+02  3.8545651893153342e+02  3.9418423758344090e+02  6.3278353292326346e+02  5.1970605420578784e+02  5.2535748433213848e+02  4.1948428853617349e+02  6.1025608328178328e+02  5.1432014705930965e+02  5.1338875170894846e+02  5.0655022704488340e+02  4.1406507189761157e+02  4.2232251150208111e+02  4.3113695919017999e+02  4.0827059478297349e+02  2.0450384066563881e+01  1.8564813614706776e+02  1.0177861111535772e+02  1.9645939868809785e+02  1.9412865507499870e+02  1.9670050736481084e+01  1.2376509902486178e+02  4.0612438084165245e+02  5.8009488146318165e+02  5.7681205531259764e+02  5.6640911938434340e+02  7.8493676687695398e+01  6.1795592766152858e+01  9.7480089592622534e+01  2.9001140879145015e+02  3.3902000126911554e+02  3.0072703281239353e+02  2.5731813691996541e+02  2.9994498971917920e+02  2.5798424698783089e+02  2.8735042165849791e+02  1.4646361918851542e+02  4.1955434628247400e+02  4.9027670166397820e+02  3.3149615273912292e+02  3.3694355438183692e+01  2.8754185207848423e+01  1.6947434305980817e+01  2.7208036719652579e+01  6.7227094066591849e+02  7.8368358095196129e+02  1.9991414947426442e+01  2.0159776456476706e+01  7.2265332839276759e+00  1.5364177654623099e+01  2.1573255013178365e+01  8.8713600876169778e+00  1.0340615062981410e+01  4.6311554085528064e+02  1.9391081633087364e+01  3.1421279659577333e+01  4.4770650066129843e+02  9.0680465580326086e+01  1.7733820591333151e+02  1.6805399176713468e+02  1.7200708097900608e+02  5.9979946674507314e+00  1.2462619840269493e+01  1.1668617653864746e+03  1.0575991010347263e+03  1.3351643139882362e+03  5.6090875043471465e+02  5.8983055946112552e+02  1.5913537466642478e+02  1.4417185446866978e+02  1.3897844147163318e+02  2.0727958727984133e+03  2.5197103669487083e+03  4.7925853398363870e+02  5.0715753912719305e+02  4.7051078280571897e+02  5.2759731630981264e+02  5.3567531123440915e+02  5.5109091148872403e+02  5.9274319539706426e+02  4.9947152389609261e+02  5.4650418891287711e+02  5.2040594094359733e+02  5.8123905924105463e+02  4.6111913980437166e+03  1.3300262885489733e+03  1.1944874342517080e+03  1.2205567868415931e+03  1.1679981430340090e+03  1.2857269473521003e+03  1.1372865780810878e+03  1.1163849071964269e+03  1.4226828735094502e+03  1.2608886987942524e+03  1.4572344012457170e+03  1.3260199846767691e+03  1.0661619639181549e+03  1.0910798456691055e+03  1.0978452014319796e+03  1.2750493309904268e+03  1.2892335340606503e+03  1.1493804145312918e+03  1.1565948086813407e+03  1.0433595313651883e+03  8.3095928272609740e+02  1.0515622805856587e+02  9.3646661377789414e+01  6.0504393201314065e+02  9.3204799279410884e+02  1.3500462521981211e+02  1.3860870922286961e+02  2.9619331003643183e+03  3.0711923577863126e+03  3.3687378131078758e+03  3.1548174200335957e+03  2.6102332984634063e+03  3.6651426561285280e+03  2.9530325549993058e+03  3.1368769534485900e+03  1.7261081799734868e+03  2.5353330731113033e+03  2.2741199453694348e+03  2.3562988484561629e+03  2.1352205785935157e+03  2.2328491762399362e+03  2.0700923053863025e+03  2.1865762862157089e+03  2.0519982848445893e+03  2.1891985969116918e+03  2.0785519578190288e+03  2.2409321254062384e+03  2.1594805183867102e+03  2.3747894001822287e+03  2.2864104052115058e+03  2.6693209252184292e+03  2.6641076623138938e+03  3.3385226859451891e+03  2.4291911325237493e+03  2.4430765911766712e+03  3.6469021536889086e+03  3.6059130159904771e+03  3.7714921170194029e+03  2.5174274148656577e+03  2.6827546177806294e+03  1.5358328035446555e+03  1.2200609395112863e+03  2.2439416166565829e+03  1.9578529220860173e+03  1.2473935482532081e+03  1.2430602480434407e+03  1.9400012062393562e+03  2.0309778443125535e+03  1.2934460231725641e+03  1.2295964839858423e+03  2.7174895022943952e+03  1.9525400217225510e+03  1.9338314392705502e+03  3.2105201608862239e+03  2.4567978826470166e+03  2.9762334327410767e+03  2.3120494012676763e+03  4.6136243206053399e+02  4.9188341320481851e+02  4.2586497556462479e+02  4.6179145502087852e+02  5.2085028600856367e+02  4.9179470364903096e+02  4.3426840540946517e+02  1.9504154832363263e+03  1.5344356293360511e+03  1.7975503092129125e+03  1.9000208316530079e+03  1.7383146150283856e+03  3.0690523094498108e+01  1.3090737953630198e+03  1.2255852168749477e+03  3.3555703327729935e+02  2.1846314861479519e+02  1.8116057767774109e+02  7.3419892390328350e+03  2.0285657649378290e+03  2.2169585137814001e+03  2.8224936107266405e+01  2.8669303744965767e+01  6.8072668029138015e+02  7.4772021994564630e+00  5.8148281968606091e+02  6.4689088003166796e+02  1.0921031460439268e+02  3.8853127133872192e+02  7.5752168600617165e+02  4.1871367979067833e+02  8.0064423733285423e+02  9.2530251123306277e+02  3.7708407404753495e+02  3.4277295906638807e+02  9.3453812594982807e+01  2.8373927369240511e+02  1.9370507300582688e+01  3.2541987959658705e+01  5.5704059663529160e+03  2.3034865417383941e+01  6.9418158218935035e+00  6.4151609821188664e+00  2.6106045144409158e+01  3.6991479026853341e+01  9.5363230933022081e+00  5.1688182473151824e+02  4.1440293028592311e+02  3.7451175143776294e+02  3.1888170541407703e+02  4.2776355240007223e+02  3.8085511513114585e+02  3.3514456720613924e+02  8.1130763610214808e+02  1.4978575258159529e+02  3.9258775666099581e+02  3.8889637500340302e+02  2.0020555118118884e+02  1.2541591513290113e+02  1.4549880503635134e+02  1.7075463784257047e+02  2.7022426952071237e+02  2.1220379637516618e+02  3.3120946249095255e+02  2.5534759972312614e+02  3.1706915220668992e+02  4.8620289560341234e+02  4.0348203390717271e+02  5.0095588212315238e+02  7.3361747983313933e+02  7.6463249777637077e+02  1.0798056577026851e+02  1.9742529228805802e+02  7.9914325233080513e+02  9.3826783695621180e+02  1.4275326190660428e+02  9.2323187140539687e+01  1.3961583639296680e+02  1.7022496906298250e+02  1.7947030541617433e+01  1.3474909475160961e+01  8.3427806771838164e+02  8.9795791302801854e+02  9.2965139319864886e+02  8.5811607779352994e+02  2.4963990629050713e+01  7.6013311879707182e+00  1.3420969670011971e+03  1.2045204133002387e+03  1.0065564016156799e+03  9.7228778968280687e+02  3.8298069471091350e+02  4.5706895645446895e+02  1.4870300025597494e+01  3.6195950431533106e+01  8.7860919520246430e+00  3.2692757309223083e+01  1.9512109602962249e+02  2.8133225333858923e+02  1.9814317577324883e+02  1.7839258314458118e+02  5.4207592748749668e+01  2.2025679888275370e+01  4.9209942014056644e+01  1.3605210791113374e+01  5.3548372345119816e+01  1.5368667952213441e+01  5.8774271826992890e+02  5.0198711434713709e+02  4.2539725537981747e+02  3.6584808663730047e+02  7.0494737451165065e+02  3.6856045200974187e+01  2.4388389334671983e+03  2.8963607566030870e+01  3.6234718977206199e+02  2.3840864068593649e+02  1.8376708540050572e+02  1.2718272221498958e+02  3.1031770763559018e+02  2.3022948007107746e+02  1.1252797647645179e+03  4.3358847253427541e+02  1.0339620859594825e+03  5.4288223243172445e+02  2.9095973659467358e+01  4.8566854047438275e+00  9.3087050186443292e+01  1.1665007698021385e+02  8.3872889226825507e+01  9.6430363635657568e+02  9.5480865652159093e+02  8.3583580450494014e+02  1.0926848696132348e+01  2.3770296583455611e+01  1.8816082668203336e+01  1.1159064019398397e+02  1.3478415435613596e+02  3.3494192971459441e+01  1.0677378201704971e+03  2.0158100090813853e+01  3.5606624383461934e+02  3.0634823220878025e+02  3.4269217491480333e+02  3.3339502812857762e+02  3.8174427970091580e+02  3.1220240950160223e+02  4.6181870376054979e+02  5.3001278406143479e+02  5.4762067022076997e+02  2.5108459632652011e+03  1.5977686425621512e+04  4.4402473750915846e+02  2.1641425961162165e+02  4.4816164411250917e+01  1.1386771913903216e+02  1.5857134928044084e+02  1.4519781654630512e+02  1.6637056542088291e+02  1.2878490568357964e+02  1.2433629124774365e+02  7.2806741454038630e+01  2.7964313890005343e+02  2.5231216316052036e+02  2.6172216046315037e+02  7.3542985378797994e+02  8.4994564632228446e+02  8.4123781463120838e+02  1.7299024063142965e+03  2.5673504136811680e+01  9.7724874641247848e+00  4.3537686205515422e+02  1.5762923055763162e+02  1.5251307575111855e+02  9.6503393661406065e+01  9.8305784181122942e+02  2.3657010827636483e+01  3.5725196568968542e+01  1.1587779734508431e+03  4.2037192935204143e+02  6.6327598585268470e+00  4.8924819289987312e+02  2.4867857577357828e+01  7.0118562848589150e+01  1.1201252643410799e+01  1.2242524438889515e+02  1.3651853875858188e+02  7.0216820316238255e+01  2.5749178541411593e+03  4.1720305287159556e+02  4.3113365737842787e+02  3.3405705285641733e+02  2.3639693891380725e+02  2.2440514462843916e+02  2.0604480590883395e+02  1.0071049884893512e+02  9.2209613193077942e+01  1.6183767764502431e+02  6.3857572088589123e+01  5.2208260508136831e+01  3.6422032936367344e+01  3.6327156660945520e+03  3.2662354439043632e+01  1.3574479417184264e+02  1.1598831944261930e+02  6.8631552995033701e+01  1.0202351173698140e+01  2.3947954791122954e+00  1.9214626225901334e+01  1.5386971816981551e+02  3.4608015184419976e+01  5.5038133515337160e+00  2.3646887067441091e+02  8.7265512795983921e+02  8.7545933904230083e+01  1.4686925928086939e+02  1.4548534486670596e+02  1.1638480345812006e+02  1.0056460465211303e+02  9.8866353567083615e+02  4.2724830138354690e+02  1.0383095002260870e+03  9.3677774350141442e+02  8.9454085002311913e+01  4.0459590831107484e+00  7.6035776647624957e+01  6.7084959223406926e+01  5.2718715807542736e+01  4.6956982567031197e+01  1.7941767097646314e+03  2.4913967578378692e+01  9.2503197963889519e+01  8.9658874066819276e+00  5.4468347399752602e+01  6.1182001060122630e+01  1.7960806609260409e+01  1.0029058938067216e+02  8.9703596163557813e+02  5.6901525866159162e+01  3.0485861451176582e+01  2.7220920273836759e+03  1.4238418712447759e+02  1.3988376940078456e+02  1.4526752486013567e+02  1.3548898119830696e+02  1.4217173678786585e+02  1.3612902925778377e+02  1.3167949175743911e+02  1.3847872225069912e+02  1.4548428594105854e+02  1.5187859966244145e+02  1.3612448428502049e+02  1.3941948209620466e+02  1.3756290055044909e+02  1.5311736405758572e+02  1.5665466429273681e+02  1.7892129538787665e+02  1.9063815331723652e+02  1.0308113859544108e+03  2.9411635916538876e+02  3.2946789432105356e+02  2.6037750656209869e+02  3.6795659495213192e+02  1.6271629725508492e+03  1.6677199216944751e+02  1.4472678015759999e+02  4.7300123883835698e+02  1.1566442327679508e+03  1.1149545028197551e+03  7.2340471775539334e+02  3.8675442344794591e+00  1.0658357202668357e+01  1.1972045550444070e+03  7.3209101719366561e+02  7.5058579029197324e+02  8.0361131675552406e+02  1.0387565082513619e+02  2.2858908773321886e+02  9.5958938267503243e+01  1.5907431202369007e+03  2.3789876343712754e+02  3.2996799144903707e+02  5.5780107842630535e+01  6.2465768562322104e+01  4.1490458993640821e+01  3.4229394836910792e+01  5.0054258886364146e+01  8.2345489401149337e+01  1.9140631116085933e+02  8.1334594160372234e+01  1.5119865774424753e+02  5.4060737338346178e+02  1.0661377471783546e+03  1.4454569996053223e+02  4.3473959318715316e+01  2.6016278665579595e+01  1.0502832612939478e+02  3.4160941543392575e+01  1.0409264670851762e+02  9.8917605192653738e+01  1.0891185282206767e+02  1.0345898664936284e+02  1.0541713748701754e+03  5.5399756899442207e+02  3.1566521552884893e+02  5.0591032325385038e+02  3.3755160964576355e+01  1.4027556926406953e+02  1.4573933302852714e+02  1.4959507425669972e+02  5.0713954539245850e+02  2.1415016599610055e+02  2.2701565835498545e+03  1.2327462900424047e+02  1.2214163983480685e+02  7.5275436118776565e+02  8.3540035195721856e+01  1.4318644896395591e+02  1.4108289617908957e+02  1.3715415542440803e+02  3.3932720217597755e+01  1.2875013703330887e+02  5.0012365993036724e+02  5.9394308899550504e+02  1.6890035415818869e+02  1.6180812205244371e+02  2.8701023513022218e+01  2.0587582419970397e+02  7.1661914143109857e+02  1.6075724967308463e+02  3.2551676748952718e+02  7.9249391463307813e+02  1.4643479105332474e+02  1.4539240782829648e+02  1.4560643379893017e+02  2.5615016975359492e+01  1.4223548115858975e+02  1.4172679893932437e+02  1.3778664744581764e+02  1.4182317108820885e+02  1.0928505531092753e+03  2.8436256414216240e+02  3.9680447442979687e+02  1.3942699562823036e+03  8.8355500324760484e+01  2.7364728114635687e+02  8.5327301006632212e+01  5.6537724274704942e+01  1.4429018441030175e+02  1.1054796451789085e+02  1.9857095806968886e+02  1.8461648476592626e+02  1.8166200647146059e+02  5.3969677055084799e+02  8.4435586478149773e+01  7.2107275661524739e+01  5.7984846229687427e+01  8.6226058422174503e+01  6.0274940304418223e+01  4.4958919234046107e+01  9.6102255492832995e+01  5.9001104340211640e+01  6.2985353189074573e+01  3.4826697819189440e+02  3.9204158850655159e+02  7.0531378637066564e+02  8.5916988970507205e+01  1.0790356813417105e+02  2.0889058990898967e+01  6.3138985258739055e+01  1.2519816183611129e+01  5.8879334307665232e+00  7.5218545014913701e+01  3.4657404119879281e+01  7.5101523701260419e+01  1.3324277277628417e+02  4.7638292170700815e+01  1.8068453181925341e+02  1.5666038055147263e+02  1.5444054383149475e+02  1.1733369091961536e+02  3.3409167070096453e+02  4.1967086953047760e+02  1.9880511155419222e+02  9.8333836973408336e+02  4.1767737554643148e+01  1.8451714614655142e+01  2.4577456915268542e+02  2.6450764904061492e+02  2.6356768978760542e+03  2.9753443665924635e+02  5.8813577134182928e+01  6.3649370202912439e+02  2.5745895833521644e+01  1.5695853656222138e+02  1.5016208057971630e+02  2.7756829770140064e+02  4.9115044588970838e+00  1.7125349556819387e+01  5.5383968832395951e+01  4.5189573842447714e+01  1.9564143361027959e+02  9.1092103522177041e+01  9.3707016570345274e+01  2.1744820549498691e+01  4.9466573508797103e+02  3.9966903804137252e+02  3.3521593964432805e+02  1.3376956630077458e+02  2.3059885186142000e+02  2.7063698908375068e+02  4.6121686127910351e+01  4.8515201325563835e+00  7.3587950192604353e+02  9.6383602752191138e+01  4.2438996473106265e+01  3.8795929575635785e+02  1.8469762719232870e+02  1.3695153138042434e+02  2.3841969428829316e+01  3.0508074610593013e+01  1.1710769903647805e+02  1.2483445005654131e+02  1.3179164688647234e+02  4.2670921971058746e+01  4.3012942598752709e+01  4.6359819939437237e+01  4.6100572749402701e+01  3.1061736253808171e+01  4.5872334852601000e+01  4.5298129593052963e+01  1.1053072265822219e+00  5.0362869666552047e+02  1.4657751688345718e+02  9.5710644558150716e+02  2.5136431731422329e+02  1.0788875744267278e+02  4.2444289122822778e+02  5.1046608368997920e+02  2.6414092693385362e+02  2.9908443605854961e+02  4.7048470068119357e+01  2.3376813900843879e+02  4.7496396845736818e+01  1.5251765557364831e+02  4.2588358676571339e+01  1.2097696191950760e+02  2.1045913656385113e+02  1.2032410943044007e+02  1.5093590092006875e+02  1.3171197393392619e+01  2.4103975688657549e+01  1.6804504378144081e+01  2.1469024645962932e+01  1.3254617597410024e+03  4.6279957822002871e+01  4.7564349690263469e+01  2.8158406448884939e+01  1.7069350092449294e+01  7.4652940827668406e+00  1.9072607055875590e+01  1.3909895832659738e+03  1.4523199725991182e+02  1.3262681734775029e+02  7.8529275951208788e+01  2.5206547055102376e+02  5.9786245495558269e+03  4.7323739655275979e+01  9.4422708862344393e+00  1.5980065429422811e+02  1.1478195145320232e+02  1.3395138830263161e+02  1.3141700168433354e+02  2.8226882200027821e+00  4.5040602809037509e+01  4.7087656686364866e+01  4.8237426126367914e+01  1.2617444231581162e+02  9.9723604943317042e+01  1.1401172573943822e+03  1.7871176308160287e+02  4.1091238311748805e+02  7.9041671442590214e+01  2.0558735844546666e+02  5.5075409484581918e+01  1.8526519150815975e+02  1.2674562049349152e+01  6.4951543630613671e+01  1.1019638363553382e+01  1.3386361594063997e+01  1.7323482388539695e+01  3.9980763254677804e+01  2.3611739246353318e+03  3.7048135870644848e+02  8.9268285525304123e+01  8.4522585726128639e+01  2.2678243927032642e+02  6.9168920367198279e+00  2.4663965976722690e+02  2.4836063335354487e+02  1.0763394111715948e+02  1.5764137417542312e+02  3.2009195188278427e+03  3.2178382469607986e+03  3.4643033829655462e+02  4.5962912027325888e+02  3.3644402427419408e+02  5.1717850755042889e+01  3.3473453670328530e+02  4.2560154290609552e+02  4.4523495723990601e+02  5.5764752873063594e+02  4.3284814652119746e+02  1.0425436413308903e+02  1.7699217011179493e+02  4.7886890590793165e+01  8.3021153759316053e+02  9.9829893058321773e+02  3.5264476391334050e+01  9.2497454661834206e+02  1.1621265142692632e+03  1.3971073063829650e+02  5.7233479705925618e+01  3.8762938934507076e+01  1.3824700072244659e+02  7.5429646949751984e+01  4.0158685690435796e+01  5.4015874713646852e+01  3.9927771354404065e+01  1.2434770448253191e+03  3.9408331098165118e+03  3.9575835109280738e+03  3.0578653105858211e+02  3.1739776160147642e+02  6.6798488321702635e+01  2.4703540773336462e+02  3.4772625480066870e+02  3.1376183219197179e+02  3.0500282374830886e+02  3.1151423677562030e+02  3.2206483320645816e+02  3.8448850338660969e+02  3.2027011467860996e+02  4.1137659086002952e+02  3.0969602331945589e+02  1.2032643000316969e+02  7.7375512097163977e+01  4.3104196009197921e+01  3.8827596984511075e+02  6.2048104014983289e+02  1.7204877558008633e+02  1.7863265572793910e+02  9.4714467795645510e+02  1.5261894990893350e+02  3.1690653993660436e+02  3.2164344445689358e+02  2.6097194089771278e+02  6.8262758759173789e+02  1.0449725534562386e+01  3.1222898301643721e+02  3.7592299003890741e+02  2.6595863554154522e+02  1.1000249201321978e+02  5.4856729563102384e+01  3.7218056003505886e+01  6.6805905114310079e+01  3.4906179459588159e+01  1.1363320351578398e+03  3.6325935374326843e+02  6.6002101481341228e+01  8.4271709996601572e+01  4.0297793899011879e+01  3.3096382902279294e+02  3.3590315037569508e+02  7.7446264237173224e+01  4.5066805292690350e+02  1.4801471316617886e+02  5.8605232672599629e+02  3.3307953483668399e+02  1.7432485994059896e+03  1.8011099807284791e+02  5.1016074191261185e+02  1.7578161257147369e+02  1.5440987037505963e+01  1.8670958692575016e+02  1.8574291344067998e+02  9.3699890172770324e+01  1.4075693480017364e+02  1.4576359680585196e+02  2.1911685651364078e+02  3.4807699118244011e+02  3.6304243968209437e+02  4.7595771147151635e+02  3.1900474164420658e+01  8.7611018936549499e+01  9.2153349855533349e+01  1.1761067694972849e+02  1.3686180914184970e+02  1.2464048211139517e+01  1.9264348305080074e+02  1.1012655917281838e+02  1.9872518478094602e+02  1.7966559305746088e+02  8.2411461884551022e+02  3.5767306719851922e+02  7.9172449693996940e+00  1.0239069837103086e+03  4.6337264544954377e+02  3.1217726723309568e+02  1.3699272348903864e+02  1.4211233907933703e+02  1.4585294245151973e+01  3.3943957448411408e+02  3.2926485662377695e+02  2.7456571736455965e+02  2.9568919010151728e+02  3.7499753815558864e+02  6.7520602036331286e+02  5.5506775204171918e+03  6.0524928583400720e+02  1.2252729314989632e+02  4.7074326432949749e+02  9.3425314708273402e+02  4.7132489114479036e+01  2.2892556765763220e+02  3.6776534625945948e+02  5.3185917540461503e+02  4.5433691827568055e+01  6.2401575297590398e+02  7.7213600498603307e+02  9.9876412659844789e+02  6.4371270927031435e+02  1.1579170666915684e+02  3.4838433506951901e+01  1.3098632057661836e+01  1.2431540627200640e+02  6.4749292941392446e+02  6.7011197364173199e+02  3.7613051440505717e+02  8.4647422694340321e+02  1.8799374577728061e+03  1.8419815386608047e+02  2.6931914927411176e+03  3.0564594676566526e+02  1.0325511373158740e+02  2.1605972265319724e+03  4.7215075763936130e+02  1.2620475173932442e+02  1.1645964261735425e+02  1.4594996902103514e+02  2.1019748643823682e+01  3.0791771009146277e+02  1.7945385318194593e+02  1.6471389012006284e+02  1.1756904134724589e+02  1.6063290424057004e+00  1.5664149106849527e+02  3.6136123525129142e+02  3.2865371782312241e+02  1.2849788834633603e+02  2.3183180540215440e+02  6.4622580114768925e+02  2.3429604597752526e+01  8.4307155681546021e+02  4.8011678277952029e+01  2.0616525932366648e+02  1.3824471105112762e+03  1.2741642335018410e+03  1.4024205986351826e+03  1.2557634280688590e+03  1.0618111010173072e+03  1.5127532527784001e+02  4.0675626874604525e+01  1.2567030807800883e+02  6.6384428781222852e+01  2.6462175261711468e+03  1.2267048274134559e+03  2.2181288896396495e+03  6.4615065606306160e+01  1.9289287496204398e+01  1.1932339489484659e+03  1.8868278448930496e+01  2.5024009193560691e+01  3.1898989902410886e+01  3.8014743993065593e+02  2.5446662195852483e+02  7.1781170595846402e+02  3.5633674485177359e+01  2.5954348259577915e+02  1.4827277394010795e+02  2.6517106939982850e+03  2.6580943240276229e+03  4.8417669195522016e+01  2.3487695587339558e+03  3.6998824521853862e+02  7.5293103636635476e+02  1.5127937316480694e+02  2.9165027246234177e+02  9.5307922785103599e+01  4.5737419917017172e+02  1.8429879937100195e+03  4.6885368536503762e+01  8.1619288652460881e+01  7.5024750021658065e+02  2.4915855862109288e+03  2.3088690999224405e+03  6.4006996394072166e+02  2.6160611013373949e+02  4.6382555138298187e+01  1.1112174460300319e+03  9.1027228333715391e+02  1.0257774662679085e+03  8.7502890848957679e+02  1.4425695287179917e+03  1.7157008416502242e+03  1.7422410006293046e+03  2.5648907728071447e+02  9.2216983346853374e+02  9.2218011933534672e+02  5.4867012491584219e+01  4.5397968409713194e+01  9.4476824014087251e+03  4.9998112931855054e+01  1.4934514536828985e+02  6.1371913812375146e+02  2.3411434436906957e+03  9.3057446953290253e+02  2.7078399585352590e+03  8.1822969625358519e+02  2.4771055427528398e+02  2.0702790666570164e+02  4.0874076780926833e+02  5.4645715424241894e+02  2.4541921748562433e+02  6.7872837352290730e+01  2.3253956729597422e+02  9.3936754740763645e+03  1.0357525029339884e+02  1.4455238931098097e+02  1.8755938600892428e+03  1.4301197467663678e+02  1.0409743524978626e+03  1.5143948925317119e+02  1.6523812299704090e+02  1.1675053195863966e+03  1.7386974360887874e+02  5.8745257526098942e+02  1.7165832489472966e+03  3.3689386364141643e+02  2.1993717011850235e+03  2.4090015060122419e+03  5.7415348813758624e+02  1.4846660397874302e+01  1.4829810103805187e+03  5.7401739859085330e+02  3.4212800804400349e+03  1.5794918230233316e+02  3.7626779885998315e+02  4.1547857077712450e+02  4.4252358803072991e+02  4.1549271056439867e+00  1.5138719473648058e+02  1.1547568433737695e+03  1.5816344473446509e+02  3.2776207677800676e+02  3.7194676558753599e+02  1.1461469442419961e+02  1.4097950480582037e+02  1.2858832418135516e+03  1.0387163431780452e+01  6.2605895505318608e+02  5.5205440365011306e+01  4.1981093406091361e+01  5.4901921449386418e+02  1.1021176785938205e+03  1.9322613961269369e+01  5.5910326592021215e+02  1.1066021394256165e+01  2.5417821048612552e+01  4.6505143801402292e+03  7.1013323342451702e+02  1.0651121897800908e+02  8.4991241856116278e+02  1.2516126461681372e+02  4.5660244726196572e+02  2.1033070645509562e+02  1.3545654550928273e+02  3.6323215743266466e+01  7.5021976143598260e+02  1.3664343205678924e+03  1.7679132075007377e+02  3.7635420505824058e+01  6.0459272011153097e+01  3.1185137269812259e+02  3.8284726233719016e+02  2.9488621208850509e+02  5.0487358941378596e+02  5.8916117425154994e+02  1.2613520225825481e+02  3.0126721901375868e+02  8.8804171582895628e+02  1.3837353908237307e+02  3.8800754668801255e+02  2.3930836550549518e+01  5.4202872948423817e+00  1.2045847267452036e+03  2.3777577388372610e+01  1.6423667380598437e+02  4.1014570233294280e+03  1.4302296564826375e+02  1.3501809660562998e+02  1.5210688635653091e+02  8.3464278967895922e+01  1.4312756057321765e+03  2.8906982275642395e+03  1.4979710390965906e+02  1.4155794449384672e+02  4.5690305277698945e+02  4.3442953123623192e+02  7.6864474073270912e+01  3.3938722638953990e+01  7.5021171571499636e+01  6.3540287559738988e+02  5.7563637936581404e+02  3.9681326777819642e+01  1.5796415680283360e+02  3.1755587997571860e+02  9.8791776830143249e+01  1.4530995871408845e+02  7.2489416980439182e+02  1.4058448507194748e+02  4.1333471202678891e+02  1.2696662175983366e+02  1.8576246306437631e+02  1.7910463155074785e+03  4.1333748577279678e+01  4.7254532067138274e+02  1.7263363999451124e+03  8.1576197511384208e+01  6.8138109346693511e+01  2.2003709241480476e+02  2.4691926540288346e+01  1.4452295929048282e+03  4.6466679179217721e+01  3.7346621857858061e+01  1.3482030191670995e+02  2.4749949816251751e+02  7.7127461099109969e+00  5.3835100121381686e+02  1.1316562981130301e+03  8.1009299971163841e+01  3.0872746280195145e+02  1.8845373681558317e+02  2.1045130423780015e+03  1.9060728515994426e+03  3.4504647867108440e+02  3.3569078461970079e+01  1.1857220099038128e+02  3.1482723861629569e+02  1.9498399330469290e+01  1.2312177725619620e+03  3.4525250361366523e+02  7.8735785207999231e+02  6.4411394000290454e+02  2.7715499755733724e+01  2.3084929325923810e+02  4.5707179681668481e+02  3.3855936546567790e+02  1.5108458764285544e+02  5.7542238781870867e+02  6.1878782955867291e+02  1.1751081146166729e+02  3.6870588758605642e+01  1.0094022345356047e+03  4.4916631516406106e+01  9.4442988102797358e+01  1.1698669426852612e+03  4.4510154074900913e+02  4.6738496512988768e+01  3.3793067488364062e+02  4.5809699144838009e+02  1.2736212109061212e+02  4.7769343361059455e+03  1.2527622164836489e+03  2.2609089855710795e+02  1.1181946298278041e+02  5.1256721343568415e+02  3.7097901346393820e+02  1.5506185516995350e+02  1.2813290473474779e+03  3.8139092695564180e+01  2.6919174443171283e+02  4.6517138035625771e+02  3.6173792408759276e+01  5.4803262318315615e+02  5.4878964451592321e+02  1.0337989534912671e+02  1.1253315623427737e+02  1.9032596410522089e+02  1.2709177162936915e+02  3.2296958699485593e+01  5.8507700412184519e+01  2.5619722503680646e+02  1.1704787360616729e+03  6.0973055282094729e+03  2.7006451648652586e+02  1.0532955897925847e+03  2.2893187911644372e+02  2.0399347975114143e+01  6.0517306216493660e+02  8.9111604801291162e+02  9.6938994264393341e+02  1.9764484930130874e+02  4.4232334407585910e+01  -3.5882121414000505e+02  9.6958158765521978e+02  7.2985849021189719e-01  2.7203856151042678e+03  1.1851129552615521e+03  8.4416850885394563e+00  3.1257621748917813e+02  1.1451038019701627e+03  1.1810827926191213e+02  2.8847838478291642e+01  1.5327758174439180e+02  5.1286776587332236e+02  3.0142778622811864e+01  4.1379518920273840e+03  1.4315702069818516e+02  4.0272163962636313e+02  4.8472714240784933e+02  1.5342532681729685e+03  5.0615712340811524e+02  3.8495537488117625e+03  2.1144312269271271e+02  1.3271139276707115e+02  5.0750162033164543e+01  2.3412248761372226e+02  4.5689145248992003e+02  4.9180848796293816e+02  1.2290570320698782e+03  5.1200900589522064e+02  4.7568841931142607e+01  1.6097466494437022e+03  9.6499647091143430e+01  2.3538313872751041e+02  7.0461502968590878e+01  1.4345616789382589e+02  7.2146434999433370e+02  1.1231582462824238e+02  1.3417508451697179e+02  3.9929087405016202e+02  3.1243285498473313e+01  2.7586150367686668e+02  4.2796092718290640e+02  1.6294956073165287e+02  2.0086005597108123e+01  2.9695208421756490e+02  1.2265696455700370e+03  1.7504056486828551e+02  4.8346857538266391e+02  1.1232380937595424e+03  3.7614607668873468e+01  1.0404088383489221e+01  2.4867945762345207e+02  2.5367080012968410e+02  6.4424746733380225e+00  1.4391740112576721e+02  1.1281076565437722e+03  2.6337597007762774e+03  3.1203580392336778e+02  1.0579952327869973e+03  6.4074976323219937e+02  5.9502029786983348e+02  2.4451191288004328e+01  1.4097877665068941e+02  1.2105095876054099e+03  5.2094963687010238e+02  5.8899117742510862e+02  1.0324278311749467e+03  1.5514907174436746e+03  3.7596783314348045e+01  1.1238354674306142e+03  4.1857930054923480e+02  1.6827508473188047e+02  2.7540084871344493e+02  2.1542222732564342e+03  2.2671680473778395e+02  4.6815727601885760e+02  1.6301049697719859e+02  6.1631247758474797e+02  3.6063300963719911e+02  1.8199616310627715e+02  4.0422839012390213e+01  1.9269007139509299e+02  1.2955589117268445e+02  1.3904313698413321e+03  1.5686107167563787e+02  8.5444519478024597e+02  1.0461665616128157e+03  3.8448021363775462e+02  3.7806999327801279e+01  1.9001527435549659e+02  8.1012386177727123e+01  9.7642516026030677e+01  2.0292780087779138e+02  1.2353309733343165e+03  9.7317690644313461e+02  8.0223475857039682e+02  2.9288348958461495e+02  5.2318155265283997e+02  9.5919635348279451e+02  7.0818028743399379e+00  9.9983357423963923e+01  1.5823804026148750e+02  3.5055023423748935e+01  4.0185621419840822e+02  1.1991173742025683e+02  1.3612343304256956e+02  6.1293258411459228e+03  3.6423747711596781e+02  8.5798079721913027e+01  1.9243358925695352e+02  5.1929970978725714e+02  1.4590657380494764e+02  1.2783242581247391e+02  1.7375473361445870e+02  5.7931513837156024e+02  1.4395894634570952e+01  8.3525138462738113e+01  7.4798172524727477e+02  9.2691177189603557e+00  1.7327543177106895e+02  7.5364746381861366e+01  3.7741135701348931e+01  2.1731946596742077e+03  1.2932935370271161e+02  8.3952073944065205e+01  1.4290648354796923e+02  5.8691544324299127e+02  2.8033567830261394e+01  4.9848988189434880e+02  3.1311882067133880e+01  7.7360276287599686e+02  1.0895390667296586e+02  6.4048840751213459e+02  1.3345607199651880e+02  1.4667112546938884e+02  1.1632982718375186e+02  7.9793167076663110e+02  3.6883709815900403e+02  1.4520427092601283e+03  7.7990744976312308e+03  2.4062246116411094e+02  5.9792048870634892e+02  6.7719747461268383e+01  1.3078821855813342e+02  2.3900631090895022e+03  3.9315985416517840e+01  2.4675520956527105e+01  1.4381840503101848e+03  1.8348707943090758e+02  6.2642672505575305e+01  3.1351930995172211e+02  3.4505894430073818e+02  9.7691719095780616e+02  3.4926050096157368e+01  8.2378092117700614e+00  4.1763180445662607e+02  1.1830299693106569e+02  7.0213661336036338e+01  7.1883833160904388e+01  7.2621911795232450e+02  3.7510560730815975e+01  1.8613834838723271e+03  1.3267556627706196e+02  1.0396692489309079e+02  6.8641724928835674e+03  7.1556552540586699e+02  4.1835625224964224e+03  3.2522496289625245e+01  1.1154577040979198e+02  1.8615125038202527e+03  8.6321851197600637e+01  7.3235486727622018e+01  2.6779351626618886e+03  3.7702658948622673e+02  8.4261894238726910e+01  2.9515835138482964e+02  8.6634357656558120e+02  2.1706718321160995e+01  1.2704012824302698e+02  2.3375979854651783e+02  1.1448974591141325e+03  4.6364402678251804e+02  7.1378872224092891e+02  5.0569987310703908e+01  3.8753758807958391e+01  5.5599024563704333e+01  2.0859282892308514e+02  4.8175635361379939e+01  1.3213031462283237e+02  1.2323889857827399e+02  9.0875331700227025e+02  4.7476284615985219e+02  3.7942565791642160e+01  2.3523355186822837e+03  4.3140799401832516e+02  2.3640738970494048e+01  1.3581238230082549e+03  1.8929683008587229e+01  1.2483221131754675e+02  2.4929914499976348e+03  3.2636572039200594e+01  1.2957116369119174e+02  2.7690139214534113e+01  6.3529117890915097e+02  9.9483359583623292e+02  3.6491950519567541e+02  4.6198981091625006e+02  1.3808250556697269e+02  1.8365883519214433e+03  6.0425463555086147e+01  5.4209106593341983e+02  1.8526379561277981e+01  3.8461140092232860e+01  1.2284949575498860e+01  4.3039195016503777e+02  3.9053235686327291e+01  1.2995555439515485e+02  1.2216708981935697e+02  1.0800794810723488e+02  2.5700992127673938e+01  2.3188474198200662e+01  1.0155849851821702e+02  1.1882639638452417e+03  5.4685026275875821e+01  1.3116512179496303e+02  4.2752209071685002e+02  1.6282183307124974e+03  6.9135046998412548e+01  3.0934503648799165e+01  3.5611710015447557e+02  3.6440383320975877e+02  3.4564609389961544e+02  8.1475883361205501e+02  7.6281361415474987e+02  8.3163820228825429e+01  1.2017809596967938e+03  2.0928718831522954e+00  3.6834820411024666e+01  1.2390845577501059e+02  1.3262496177282677e+02  7.6100438379254399e+02  4.7231586078760739e+02  3.7041491802226835e+02  2.8331137389990033e+01  4.1466999239200698e+02  1.0127465896482415e+03  3.1301670545912035e+01  2.1620746296584890e+01  5.5235979526244091e+02  6.8435834912376845e+02  1.9985836050789544e+03  8.9889074731665153e+02  3.8108193131798906e+01  2.0575718188497397e+01  6.2332171769953027e+02  2.9871545348854016e+02  1.7247037025776123e+01  1.7710806900226532e+02  1.9361468884475832e+02  7.3674501190359383e+00  1.6891260209606855e+02  2.0949391468252497e+03  1.8292353442229721e+03  3.7432888380249091e+02  1.4938401922728730e+02  1.4158677958368790e+02  1.7406406403076545e+02  1.1644107210484383e+03  3.3987765387653049e+01  6.6705505300736894e+00  1.0541838577737831e+03  3.6601711975622857e+02  1.7552612383067280e+03  2.8946679379410313e+02  3.8814746136137174e+01  4.4674150007903641e+01  3.1670595379444956e+02  1.3251462247879144e+03  1.2035141105486146e+03  1.1518230039031266e+03  2.6435442614591403e+02  3.3108085200136139e+02  4.4556638272206385e+01  7.4327979042681250e+01  1.4601510688760490e+02  1.6714483289117745e+03  9.2264513994977619e+02  6.7920394766583138e+02  5.9999557050751889e+02  1.0752773849816710e+03  1.5269092220746921e+02  2.6954444769011392e+01  8.3868291004734886e+01  6.4377661486505258e+02  2.5306098144526027e+02  1.3210444773478770e+02  3.4225668050383021e+01  1.0778802964016797e+03  1.1774063691113063e+03  </DataArray> 
</PointData> 
</Piece>
</UnstructuredGrid>
</VTKFile>