<?xml version="1.0"?>
<VTKFile type="UnstructuredGrid"  version="0.1"  >
<UnstructuredGrid>
<Piece  NumberOfPoints="1250" NumberOfCells="2352">
<Points>
<DataArray  type="Float64"  NumberOfComponents="3"  format="ascii">0 0 0  0.0336 0 0  0.0336 0.07729999999999999 0  0 0.07729999999999999 0  0.001400000000000002 0 0  0.002800000000000005 0 0  0.004200000000000008 0 0  0.005600000000000009 0 0  0.007000000000000011 0 0  0.008400000000000013 0 0  0.009800000000000019 0 0  0.01120000000000002 0 0  0.01260000000000003 0 0  0.01400000000000003 0 0  0.01540000000000004 0 0  0.01680000000000005 0 0  0.01820000000000004 0 0  0.01960000000000004 0 0  0.02100000000000004 0 0  0.02240000000000003 0 0  0.02380000000000003 0 0  0.02520000000000002 0 0  0.02660000000000002 0 0  0.02800000000000001 0 0  0.02940000000000001 0 0  0.03080000000000001 0 0  0.0322 0 0  0.0336 0.001577551020408161 0  0.0336 0.003155102040816321 0  0.0336 0.004732653061224482 0  0.0336 0.006310204081632642 0  0.0336 0.007887755102040803 0  0.0336 0.009465306122448964 0  0.0336 0.01104285714285712 0  0.0336 0.01262040816326528 0  0.0336 0.01419795918367344 0  0.0336 0.0157755102040816 0  0.0336 0.01735306122448976 0  0.0336 0.01893061224489792 0  0.0336 0.02050816326530608 0  0.0336 0.02208571428571425 0  0.0336 0.02366326530612241 0  0.0336 0.02524081632653058 0  0.0336 0.02681836734693874 0  0.0336 0.02839591836734691 0  0.0336 0.02997346938775507 0  0.0336 0.03155102040816323 0  0.0336 0.0331285714285714 0  0.0336 0.03470612244897956 0  0.0336 0.03628367346938772 0  0.0336 0.03786122448979588 0  0.0336 0.03943877551020405 0  0.0336 0.04101632653061221 0  0.0336 0.04259387755102037 0  0.0336 0.04417142857142854 0  0.0336 0.04574897959183671 0  0.0336 0.04732653061224486 0  0.0336 0.04890408163265302 0  0.0336 0.05048163265306119 0  0.0336 0.05205918367346936 0  0.0336 0.05363673469387752 0  0.0336 0.05521428571428568 0  0.0336 0.05679183673469385 0  0.0336 0.05836938775510202 0  0.0336 0.05994693877551018 0  0.0336 0.06152448979591834 0  0.0336 0.0631020408163265 0  0.0336 0.06467959183673468 0  0.0336 0.06625714285714283 0  0.0336 0.06783469387755101 0  0.0336 0.06941224489795916 0  0.0336 0.07098979591836733 0  0.0336 0.07256734693877549 0  0.0336 0.07414489795918365 0  0.0336 0.07572244897959182 0  0.03219999999999999 0.07729999999999999 0  0.03079999999999999 0.07729999999999999 0  0.02939999999999999 0.07729999999999999 0  0.02799999999999999 0.07729999999999999 0  0.02659999999999999 0.07729999999999999 0  0.02519999999999999 0.07729999999999999 0  0.02379999999999998 0.07729999999999999 0  0.02239999999999998 0.07729999999999999 0  0.02099999999999997 0.07729999999999999 0  0.01959999999999996 0.07729999999999999 0  0.01819999999999996 0.07729999999999999 0  0.01679999999999995 0.07729999999999999 0  0.01539999999999996 0.07729999999999999 0  0.01399999999999996 0.07729999999999999 0  0.01259999999999996 0.07729999999999999 0  0.01119999999999997 0.07729999999999999 0  0.009799999999999972 0.07729999999999999 0  0.008399999999999977 0.07729999999999999 0  0.006999999999999978 0.07729999999999999 0  0.005599999999999983 0.07729999999999999 0  0.004199999999999988 0.07729999999999999 0  0.00279999999999999 0.07729999999999999 0  0.001399999999999998 0.07729999999999999 0  0 0.07572244897959184 0  0 0.07414489795918368 0  0 0.07256734693877551 0  0 0.07098979591836735 0  0 0.06941224489795919 0  0 0.06783469387755103 0  0 0.06625714285714288 0  0 0.06467959183673472 0  0 0.06310204081632656 0  0 0.0615244897959184 0  0 0.05994693877551023 0  0 0.05836938775510207 0  0 0.05679183673469392 0  0 0.05521428571428574 0  0 0.05363673469387759 0  0 0.05205918367346941 0  0 0.05048163265306126 0  0 0.04890408163265308 0  0 0.04732653061224493 0  0 0.04574897959183676 0  0 0.0441714285714286 0  0 0.04259387755102043 0  0 0.04101632653061228 0  0 0.03943877551020411 0  0 0.03786122448979595 0  0 0.03628367346938779 0  0 0.03470612244897962 0  0 0.03312857142857146 0  0 0.03155102040816329 0  0 0.02997346938775513 0  0 0.02839591836734697 0  0 0.0268183673469388 0  0 0.02524081632653064 0  0 0.02366326530612247 0  0 0.02208571428571431 0  0 0.02050816326530614 0  0 0.01893061224489798 0  0 0.01735306122448981 0  0 0.01577551020408165 0  0 0.01419795918367349 0  0 0.01262040816326532 0  0 0.01104285714285716 0  0 0.009465306122448988 0  0 0.00788775510204083 0  0 0.006310204081632659 0  0 0.004732653061224501 0  0 0.003155102040816343 0  0 0.001577551020408172 0  0.001400000000000004 0.001577551020408172 0  0.001400000000000004 0.003155102040816329 0  0.001400000000000002 0.004732653061224501 0  0.001400000000000002 0.006310204081632645 0  0.001400000000000005 0.007887755102040823 0  0.001400000000000002 0.009465306122448981 0  0.001400000000000002 0.01104285714285717 0  0.001400000000000004 0.01262040816326531 0  0.0014 0.01419795918367349 0  0.001400000000000002 0.01577551020408166 0  0.001400000000000005 0.0173530612244898 0  0.001400000000000002 0.01893061224489797 0  0.001400000000000002 0.02050816326530613 0  0.001400000000000002 0.02208571428571431 0  0.001400000000000002 0.02366326530612247 0  0.001400000000000002 0.02524081632653063 0  0.001400000000000002 0.0268183673469388 0  0.001400000000000002 0.02839591836734696 0  0.001400000000000002 0.02997346938775513 0  0.001400000000000002 0.03155102040816328 0  0.001400000000000002 0.03312857142857147 0  0.001399999999999997 0.03470612244897962 0  0.001400000000000005 0.03628367346938778 0  0.001400000000000002 0.03786122448979594 0  0.001400000000000002 0.03943877551020411 0  0.001400000000000002 0.04101632653061228 0  0.001400000000000002 0.04259387755102043 0  0.001400000000000002 0.0441714285714286 0  0.0014 0.04574897959183676 0  0.001400000000000002 0.04732653061224492 0  0.001400000000000004 0.04890408163265308 0  0.001400000000000002 0.05048163265306126 0  0.001400000000000002 0.05205918367346941 0  0.0014 0.05363673469387758 0  0.001400000000000004 0.05521428571428574 0  0.001399999999999998 0.05679183673469391 0  0.001400000000000002 0.05836938775510207 0  0.0014 0.05994693877551023 0  0.001400000000000002 0.0615244897959184 0  0.001400000000000002 0.06310204081632656 0  0.001400000000000002 0.06467959183673472 0  0.0014 0.06625714285714286 0  0.001400000000000002 0.06783469387755102 0  0.001399999999999998 0.06941224489795919 0  0.001400000000000002 0.07098979591836735 0  0.0014 0.07256734693877552 0  0.001400000000000002 0.07414489795918368 0  0.001400000000000002 0.07572244897959184 0  0.002800000000000006 0.001577551020408165 0  0.002800000000000004 0.003155102040816343 0  0.002800000000000002 0.004732653061224487 0  0.002800000000000002 0.006310204081632652 0  0.002800000000000002 0.007887755102040813 0  0.0028 0.009465306122448981 0  0.002799999999999997 0.01104285714285715 0  0.0028 0.01262040816326532 0  0.0028 0.01419795918367348 0  0.0028 0.01577551020408165 0  0.002799999999999997 0.0173530612244898 0  0.0028 0.01893061224489797 0  0.002800000000000004 0.02050816326530613 0  0.0028 0.0220857142857143 0  0.0028 0.02366326530612247 0  0.002800000000000004 0.02524081632653064 0  0.0028 0.0268183673469388 0  0.0028 0.02839591836734696 0  0.002799999999999995 0.02997346938775512 0  0.002799999999999997 0.03155102040816328 0  0.002799999999999995 0.03312857142857146 0  0.0028 0.03470612244897962 0  0.002799999999999995 0.03628367346938778 0  0.002799999999999997 0.03786122448979594 0  0.002799999999999997 0.03943877551020411 0  0.002799999999999997 0.04101632653061228 0  0.002799999999999997 0.04259387755102043 0  0.002799999999999995 0.0441714285714286 0  0.002799999999999997 0.04574897959183676 0  0.002799999999999997 0.04732653061224493 0  0.002799999999999995 0.04890408163265308 0  0.002799999999999993 0.05048163265306124 0  0.002799999999999995 0.05205918367346941 0  0.002799999999999995 0.05363673469387757 0  0.002799999999999992 0.05521428571428574 0  0.002799999999999997 0.05679183673469391 0  0.002799999999999993 0.05836938775510207 0  0.002799999999999993 0.05994693877551022 0  0.002799999999999992 0.0615244897959184 0  0.002799999999999988 0.06310204081632655 0  0.002799999999999992 0.0646795918367347 0  0.002799999999999992 0.06625714285714286 0  0.00279999999999999 0.06783469387755103 0  0.00279999999999999 0.06941224489795919 0  0.002799999999999988 0.07098979591836735 0  0.00279999999999999 0.07256734693877552 0  0.002799999999999988 0.07414489795918368 0  0.00279999999999999 0.07572244897959184 0  0.004200000000000006 0.001577551020408172 0  0.004200000000000006 0.003155102040816329 0  0.004200000000000008 0.00473265306122448 0  0.004200000000000009 0.006310204081632652 0  0.004200000000000008 0.00788775510204082 0  0.004200000000000008 0.009465306122448978 0  0.004200000000000006 0.01104285714285716 0  0.004200000000000006 0.01262040816326532 0  0.004200000000000004 0.01419795918367349 0  0.004200000000000002 0.01577551020408165 0  0.004200000000000004 0.0173530612244898 0  0.004200000000000006 0.01893061224489797 0  0.004200000000000006 0.02050816326530613 0  0.004200000000000002 0.0220857142857143 0  0.004200000000000004 0.02366326530612247 0  0.004199999999999999 0.02524081632653062 0  0.004200000000000004 0.0268183673469388 0  0.004200000000000004 0.02839591836734696 0  0.004200000000000002 0.02997346938775512 0  0.004199999999999999 0.03155102040816328 0  0.004200000000000001 0.03312857142857145 0  0.004200000000000001 0.03470612244897962 0  0.004199999999999995 0.03628367346938778 0  0.004199999999999999 0.03786122448979594 0  0.004199999999999999 0.0394387755102041 0  0.004199999999999997 0.04101632653061227 0  0.004199999999999999 0.04259387755102043 0  0.004199999999999999 0.04417142857142859 0  0.004199999999999999 0.04574897959183676 0  0.004199999999999999 0.04732653061224492 0  0.004199999999999997 0.04890408163265308 0  0.004199999999999997 0.05048163265306124 0  0.004199999999999999 0.05205918367346941 0  0.004199999999999992 0.05363673469387757 0  0.004199999999999997 0.05521428571428574 0  0.004199999999999997 0.0567918367346939 0  0.004199999999999992 0.05836938775510207 0  0.004199999999999992 0.05994693877551022 0  0.004199999999999994 0.06152448979591839 0  0.00419999999999999 0.06310204081632655 0  0.00419999999999999 0.0646795918367347 0  0.00419999999999999 0.06625714285714286 0  0.004199999999999992 0.06783469387755103 0  0.00419999999999999 0.06941224489795919 0  0.00419999999999999 0.07098979591836735 0  0.00419999999999999 0.07256734693877552 0  0.004199999999999992 0.07414489795918366 0  0.004199999999999988 0.07572244897959184 0  0.005600000000000009 0.001577551020408172 0  0.005600000000000009 0.003155102040816343 0  0.005600000000000011 0.004732653061224501 0  0.005600000000000004 0.006310204081632645 0  0.005600000000000009 0.007887755102040823 0  0.005600000000000004 0.009465306122448981 0  0.005600000000000009 0.01104285714285716 0  0.005600000000000008 0.01262040816326531 0  0.005600000000000006 0.01419795918367349 0  0.005600000000000006 0.01577551020408164 0  0.005600000000000008 0.0173530612244898 0  0.005600000000000004 0.01893061224489796 0  0.005600000000000006 0.02050816326530613 0  0.005600000000000004 0.02208571428571431 0  0.005600000000000008 0.02366326530612246 0  0.005600000000000003 0.02524081632653062 0  0.005600000000000001 0.02681836734693879 0  0.005600000000000001 0.02839591836734696 0  0.005600000000000001 0.02997346938775512 0  0.005599999999999999 0.03155102040816328 0  0.005600000000000001 0.03312857142857145 0  0.005600000000000001 0.03470612244897962 0  0.005599999999999997 0.03628367346938778 0  0.005599999999999997 0.03786122448979594 0  0.005599999999999999 0.0394387755102041 0  0.005599999999999999 0.04101632653061227 0  0.005599999999999996 0.04259387755102042 0  0.005599999999999999 0.04417142857142858 0  0.005599999999999996 0.04574897959183675 0  0.005599999999999992 0.04732653061224492 0  0.005599999999999992 0.04890408163265308 0  0.005599999999999994 0.05048163265306124 0  0.005599999999999992 0.05205918367346941 0  0.005599999999999994 0.05363673469387757 0  0.005599999999999992 0.05521428571428573 0  0.005599999999999994 0.05679183673469389 0  0.005599999999999992 0.05836938775510206 0  0.005599999999999992 0.05994693877551022 0  0.005599999999999992 0.06152448979591839 0  0.005599999999999994 0.06310204081632655 0  0.005599999999999989 0.0646795918367347 0  0.005599999999999992 0.06625714285714286 0  0.005599999999999987 0.06783469387755103 0  0.005599999999999987 0.06941224489795919 0  0.005599999999999983 0.07098979591836735 0  0.005599999999999985 0.07256734693877553 0  0.005599999999999983 0.07414489795918369 0  0.005599999999999985 0.07572244897959184 0  0.007000000000000013 0.001577551020408172 0  0.007000000000000008 0.003155102040816329 0  0.007000000000000008 0.004732653061224494 0  0.00700000000000001 0.006310204081632645 0  0.007000000000000008 0.007887755102040823 0  0.007000000000000006 0.009465306122448985 0  0.007000000000000006 0.01104285714285715 0  0.007000000000000006 0.01262040816326531 0  0.007000000000000004 0.01419795918367348 0  0.007000000000000003 0.01577551020408164 0  0.007000000000000003 0.0173530612244898 0  0.007000000000000001 0.01893061224489796 0  0.006999999999999999 0.02050816326530613 0  0.007000000000000001 0.0220857142857143 0  0.007000000000000003 0.02366326530612246 0  0.007000000000000003 0.02524081632653062 0  0.006999999999999998 0.02681836734693879 0  0.006999999999999999 0.02839591836734696 0  0.006999999999999999 0.02997346938775512 0  0.006999999999999998 0.03155102040816328 0  0.006999999999999996 0.03312857142857145 0  0.006999999999999996 0.03470612244897962 0  0.006999999999999994 0.03628367346938777 0  0.006999999999999994 0.03786122448979593 0  0.006999999999999996 0.0394387755102041 0  0.006999999999999996 0.04101632653061227 0  0.006999999999999994 0.04259387755102042 0  0.006999999999999991 0.04417142857142859 0  0.006999999999999991 0.04574897959183675 0  0.006999999999999991 0.04732653061224491 0  0.006999999999999989 0.04890408163265307 0  0.006999999999999987 0.05048163265306124 0  0.006999999999999987 0.05205918367346941 0  0.006999999999999989 0.05363673469387757 0  0.006999999999999985 0.05521428571428573 0  0.006999999999999987 0.05679183673469389 0  0.006999999999999989 0.05836938775510206 0  0.006999999999999984 0.05994693877551022 0  0.006999999999999987 0.06152448979591839 0  0.006999999999999985 0.06310204081632655 0  0.006999999999999985 0.0646795918367347 0  0.006999999999999984 0.06625714285714288 0  0.00699999999999998 0.06783469387755102 0  0.006999999999999982 0.06941224489795919 0  0.006999999999999978 0.07098979591836735 0  0.006999999999999982 0.07256734693877551 0  0.006999999999999982 0.07414489795918366 0  0.006999999999999982 0.07572244897959182 0  0.008400000000000013 0.001577551020408165 0  0.008400000000000013 0.003155102040816343 0  0.008400000000000015 0.00473265306122448 0  0.008400000000000013 0.006310204081632645 0  0.008400000000000012 0.007887755102040817 0  0.00840000000000001 0.009465306122448971 0  0.008400000000000012 0.01104285714285715 0  0.008400000000000012 0.01262040816326531 0  0.00840000000000001 0.01419795918367348 0  0.00840000000000001 0.01577551020408164 0  0.008400000000000006 0.01735306122448979 0  0.008400000000000005 0.01893061224489796 0  0.008400000000000008 0.02050816326530613 0  0.008400000000000006 0.0220857142857143 0  0.008400000000000001 0.02366326530612246 0  0.008400000000000005 0.02524081632653062 0  0.008400000000000005 0.02681836734693878 0  0.008400000000000003 0.02839591836734696 0  0.008400000000000001 0.02997346938775511 0  0.008399999999999998 0.03155102040816327 0  0.008399999999999998 0.03312857142857144 0  0.008399999999999999 0.03470612244897961 0  0.008399999999999998 0.03628367346938777 0  0.008399999999999996 0.03786122448979593 0  0.008399999999999996 0.0394387755102041 0  0.008399999999999996 0.04101632653061227 0  0.008399999999999996 0.04259387755102041 0  0.008399999999999996 0.04417142857142858 0  0.008399999999999996 0.04574897959183675 0  0.008399999999999993 0.04732653061224491 0  0.008399999999999993 0.04890408163265307 0  0.008399999999999989 0.05048163265306124 0  0.008399999999999989 0.05205918367346941 0  0.008399999999999991 0.05363673469387756 0  0.008399999999999989 0.05521428571428574 0  0.008399999999999989 0.0567918367346939 0  0.008399999999999989 0.05836938775510206 0  0.008399999999999987 0.05994693877551022 0  0.008399999999999989 0.06152448979591839 0  0.008399999999999986 0.06310204081632655 0  0.008399999999999987 0.0646795918367347 0  0.008399999999999984 0.06625714285714288 0  0.00839999999999998 0.06783469387755103 0  0.008399999999999982 0.06941224489795919 0  0.00839999999999998 0.07098979591836733 0  0.008399999999999982 0.07256734693877551 0  0.008399999999999982 0.07414489795918366 0  0.008399999999999979 0.07572244897959182 0  0.009800000000000019 0.001577551020408172 0  0.009800000000000017 0.003155102040816336 0  0.009800000000000015 0.00473265306122448 0  0.009800000000000014 0.006310204081632652 0  0.009800000000000014 0.007887755102040823 0  0.009800000000000014 0.009465306122448981 0  0.009800000000000012 0.01104285714285715 0  0.009800000000000014 0.0126204081632653 0  0.009800000000000012 0.01419795918367348 0  0.00980000000000001 0.01577551020408164 0  0.00980000000000001 0.0173530612244898 0  0.009800000000000008 0.01893061224489796 0  0.009800000000000007 0.02050816326530611 0  0.009800000000000007 0.02208571428571428 0  0.009800000000000005 0.02366326530612246 0  0.009800000000000005 0.02524081632653061 0  0.009800000000000003 0.02681836734693879 0  0.009800000000000001 0.02839591836734695 0  0.009800000000000003 0.02997346938775511 0  0.009800000000000001 0.03155102040816327 0  0.0098 0.03312857142857144 0  0.0098 0.03470612244897961 0  0.009799999999999998 0.03628367346938777 0  0.009799999999999996 0.03786122448979593 0  0.009799999999999996 0.0394387755102041 0  0.009799999999999993 0.04101632653061226 0  0.009799999999999993 0.04259387755102041 0  0.009799999999999993 0.04417142857142858 0  0.009799999999999991 0.04574897959183675 0  0.009799999999999989 0.04732653061224491 0  0.009799999999999989 0.04890408163265307 0  0.009799999999999989 0.05048163265306124 0  0.009799999999999986 0.0520591836734694 0  0.009799999999999988 0.05363673469387756 0  0.009799999999999986 0.05521428571428573 0  0.009799999999999984 0.05679183673469389 0  0.009799999999999986 0.05836938775510206 0  0.009799999999999984 0.05994693877551022 0  0.009799999999999982 0.06152448979591838 0  0.009799999999999979 0.06310204081632655 0  0.009799999999999979 0.0646795918367347 0  0.009799999999999979 0.06625714285714286 0  0.009799999999999977 0.06783469387755103 0  0.009799999999999975 0.06941224489795919 0  0.009799999999999974 0.07098979591836735 0  0.009799999999999974 0.07256734693877551 0  0.009799999999999975 0.07414489795918366 0  0.009799999999999972 0.07572244897959184 0  0.01120000000000002 0.001577551020408165 0  0.01120000000000002 0.003155102040816343 0  0.01120000000000002 0.00473265306122448 0  0.01120000000000002 0.006310204081632645 0  0.01120000000000002 0.007887755102040813 0  0.01120000000000002 0.009465306122448978 0  0.01120000000000002 0.01104285714285716 0  0.01120000000000001 0.01262040816326531 0  0.01120000000000001 0.01419795918367347 0  0.01120000000000001 0.01577551020408164 0  0.01120000000000001 0.01735306122448979 0  0.01120000000000001 0.01893061224489795 0  0.01120000000000001 0.02050816326530611 0  0.01120000000000001 0.02208571428571428 0  0.01120000000000001 0.02366326530612245 0  0.01120000000000001 0.02524081632653061 0  0.0112 0.02681836734693878 0  0.0112 0.02839591836734695 0  0.0112 0.0299734693877551 0  0.0112 0.03155102040816327 0  0.0112 0.03312857142857144 0  0.0112 0.0347061224489796 0  0.0112 0.03628367346938777 0  0.01119999999999999 0.03786122448979592 0  0.01119999999999999 0.03943877551020409 0  0.01119999999999999 0.04101632653061225 0  0.01119999999999999 0.04259387755102041 0  0.01119999999999999 0.04417142857142858 0  0.01119999999999999 0.04574897959183675 0  0.01119999999999999 0.04732653061224491 0  0.01119999999999999 0.04890408163265307 0  0.01119999999999999 0.05048163265306123 0  0.01119999999999998 0.0520591836734694 0  0.01119999999999998 0.05363673469387756 0  0.01119999999999998 0.05521428571428572 0  0.01119999999999998 0.05679183673469389 0  0.01119999999999998 0.05836938775510205 0  0.01119999999999998 0.05994693877551021 0  0.01119999999999998 0.06152448979591837 0  0.01119999999999998 0.06310204081632653 0  0.01119999999999997 0.0646795918367347 0  0.01119999999999997 0.06625714285714286 0  0.01119999999999997 0.06783469387755102 0  0.01119999999999997 0.06941224489795918 0  0.01119999999999997 0.07098979591836733 0  0.01119999999999997 0.07256734693877551 0  0.01119999999999997 0.07414489795918366 0  0.01119999999999997 0.07572244897959182 0  0.01260000000000003 0.001577551020408165 0  0.01260000000000002 0.003155102040816329 0  0.01260000000000002 0.00473265306122448 0  0.01260000000000003 0.006310204081632645 0  0.01260000000000002 0.007887755102040813 0  0.01260000000000002 0.009465306122448967 0  0.01260000000000002 0.01104285714285715 0  0.01260000000000002 0.01262040816326529 0  0.01260000000000002 0.01419795918367346 0  0.01260000000000001 0.01577551020408164 0  0.01260000000000001 0.01735306122448979 0  0.01260000000000001 0.01893061224489795 0  0.01260000000000001 0.02050816326530612 0  0.01260000000000001 0.02208571428571429 0  0.01260000000000001 0.02366326530612245 0  0.01260000000000001 0.02524081632653061 0  0.01260000000000001 0.02681836734693878 0  0.0126 0.02839591836734695 0  0.0126 0.02997346938775511 0  0.0126 0.03155102040816327 0  0.0126 0.03312857142857143 0  0.0126 0.0347061224489796 0  0.0126 0.03628367346938777 0  0.0126 0.03786122448979592 0  0.01259999999999999 0.03943877551020409 0  0.01259999999999999 0.04101632653061225 0  0.01259999999999999 0.04259387755102041 0  0.01259999999999999 0.04417142857142858 0  0.01259999999999999 0.04574897959183674 0  0.01259999999999999 0.0473265306122449 0  0.01259999999999999 0.04890408163265306 0  0.01259999999999999 0.05048163265306124 0  0.01259999999999998 0.0520591836734694 0  0.01259999999999998 0.05363673469387756 0  0.01259999999999998 0.05521428571428572 0  0.01259999999999998 0.05679183673469389 0  0.01259999999999998 0.05836938775510205 0  0.01259999999999998 0.05994693877551021 0  0.01259999999999997 0.06152448979591837 0  0.01259999999999998 0.06310204081632653 0  0.01259999999999997 0.0646795918367347 0  0.01259999999999997 0.06625714285714286 0  0.01259999999999997 0.06783469387755102 0  0.01259999999999997 0.06941224489795918 0  0.01259999999999997 0.07098979591836735 0  0.01259999999999997 0.07256734693877551 0  0.01259999999999997 0.07414489795918366 0  0.01259999999999996 0.07572244897959182 0  0.01400000000000003 0.001577551020408165 0  0.01400000000000003 0.003155102040816343 0  0.01400000000000003 0.004732653061224473 0  0.01400000000000003 0.006310204081632645 0  0.01400000000000003 0.00788775510204082 0  0.01400000000000003 0.009465306122448981 0  0.01400000000000002 0.01104285714285715 0  0.01400000000000002 0.01262040816326529 0  0.01400000000000002 0.01419795918367346 0  0.01400000000000002 0.01577551020408163 0  0.01400000000000002 0.01735306122448979 0  0.01400000000000002 0.01893061224489795 0  0.01400000000000002 0.02050816326530612 0  0.01400000000000001 0.02208571428571428 0  0.01400000000000001 0.02366326530612244 0  0.01400000000000001 0.02524081632653061 0  0.01400000000000001 0.02681836734693878 0  0.01400000000000001 0.02839591836734694 0  0.01400000000000001 0.0299734693877551 0  0.014 0.03155102040816326 0  0.014 0.03312857142857144 0  0.014 0.0347061224489796 0  0.014 0.03628367346938776 0  0.014 0.03786122448979592 0  0.014 0.03943877551020408 0  0.014 0.04101632653061225 0  0.01399999999999999 0.0425938775510204 0  0.01399999999999999 0.04417142857142858 0  0.01399999999999999 0.04574897959183673 0  0.01399999999999999 0.0473265306122449 0  0.01399999999999999 0.04890408163265306 0  0.01399999999999999 0.05048163265306123 0  0.01399999999999998 0.05205918367346939 0  0.01399999999999998 0.05363673469387756 0  0.01399999999999998 0.05521428571428572 0  0.01399999999999998 0.05679183673469389 0  0.01399999999999998 0.05836938775510205 0  0.01399999999999997 0.05994693877551021 0  0.01399999999999997 0.06152448979591837 0  0.01399999999999997 0.06310204081632653 0  0.01399999999999997 0.0646795918367347 0  0.01399999999999997 0.06625714285714286 0  0.01399999999999997 0.06783469387755102 0  0.01399999999999997 0.06941224489795918 0  0.01399999999999996 0.07098979591836733 0  0.01399999999999996 0.07256734693877551 0  0.01399999999999996 0.07414489795918366 0  0.01399999999999996 0.07572244897959182 0  0.01540000000000004 0.001577551020408165 0  0.01540000000000004 0.003155102040816329 0  0.01540000000000004 0.00473265306122448 0  0.01540000000000004 0.006310204081632645 0  0.01540000000000003 0.007887755102040827 0  0.01540000000000003 0.009465306122448964 0  0.01540000000000003 0.01104285714285714 0  0.01540000000000003 0.0126204081632653 0  0.01540000000000003 0.01419795918367347 0  0.01540000000000002 0.01577551020408163 0  0.01540000000000002 0.01735306122448978 0  0.01540000000000002 0.01893061224489796 0  0.01540000000000002 0.02050816326530612 0  0.01540000000000002 0.02208571428571428 0  0.01540000000000002 0.02366326530612245 0  0.01540000000000001 0.02524081632653061 0  0.01540000000000001 0.02681836734693877 0  0.01540000000000001 0.02839591836734694 0  0.01540000000000001 0.0299734693877551 0  0.01540000000000001 0.03155102040816326 0  0.01540000000000001 0.03312857142857144 0  0.01540000000000001 0.0347061224489796 0  0.0154 0.03628367346938775 0  0.0154 0.03786122448979592 0  0.0154 0.03943877551020408 0  0.0154 0.04101632653061225 0  0.0154 0.04259387755102041 0  0.01539999999999999 0.04417142857142857 0  0.01539999999999999 0.04574897959183673 0  0.01539999999999999 0.0473265306122449 0  0.01539999999999999 0.04890408163265306 0  0.01539999999999999 0.05048163265306123 0  0.01539999999999998 0.05205918367346939 0  0.01539999999999998 0.05363673469387756 0  0.01539999999999998 0.05521428571428572 0  0.01539999999999998 0.05679183673469389 0  0.01539999999999998 0.05836938775510205 0  0.01539999999999998 0.05994693877551021 0  0.01539999999999997 0.06152448979591837 0  0.01539999999999997 0.06310204081632653 0  0.01539999999999997 0.06467959183673469 0  0.01539999999999997 0.06625714285714286 0  0.01539999999999997 0.06783469387755102 0  0.01539999999999997 0.06941224489795918 0  0.01539999999999996 0.07098979591836733 0  0.01539999999999996 0.07256734693877551 0  0.01539999999999996 0.07414489795918366 0  0.01539999999999996 0.07572244897959182 0  0.01680000000000005 0.001577551020408172 0  0.01680000000000004 0.003155102040816322 0  0.01680000000000004 0.00473265306122448 0  0.01680000000000004 0.006310204081632645 0  0.01680000000000004 0.007887755102040823 0  0.01680000000000004 0.009465306122448964 0  0.01680000000000003 0.01104285714285714 0  0.01680000000000003 0.01262040816326529 0  0.01680000000000003 0.01419795918367347 0  0.01680000000000003 0.01577551020408163 0  0.01680000000000003 0.01735306122448978 0  0.01680000000000002 0.01893061224489795 0  0.01680000000000002 0.02050816326530612 0  0.01680000000000002 0.02208571428571427 0  0.01680000000000002 0.02366326530612244 0  0.01680000000000001 0.0252408163265306 0  0.01680000000000001 0.02681836734693877 0  0.01680000000000001 0.02839591836734694 0  0.01680000000000001 0.0299734693877551 0  0.01680000000000001 0.03155102040816326 0  0.01680000000000001 0.03312857142857143 0  0.01680000000000001 0.0347061224489796 0  0.0168 0.03628367346938775 0  0.0168 0.03786122448979591 0  0.0168 0.03943877551020408 0  0.0168 0.04101632653061225 0  0.0168 0.0425938775510204 0  0.01679999999999999 0.04417142857142856 0  0.01679999999999999 0.04574897959183673 0  0.01679999999999999 0.0473265306122449 0  0.01679999999999999 0.04890408163265306 0  0.01679999999999999 0.05048163265306123 0  0.01679999999999998 0.05205918367346939 0  0.01679999999999998 0.05363673469387756 0  0.01679999999999998 0.05521428571428572 0  0.01679999999999997 0.05679183673469388 0  0.01679999999999997 0.05836938775510205 0  0.01679999999999997 0.05994693877551021 0  0.01679999999999997 0.06152448979591837 0  0.01679999999999997 0.06310204081632653 0  0.01679999999999996 0.06467959183673469 0  0.01679999999999996 0.06625714285714285 0  0.01679999999999996 0.06783469387755102 0  0.01679999999999996 0.06941224489795918 0  0.01679999999999996 0.07098979591836733 0  0.01679999999999996 0.07256734693877551 0  0.01679999999999995 0.07414489795918366 0  0.01679999999999995 0.07572244897959182 0  0.01820000000000004 0.001577551020408172 0  0.01820000000000004 0.003155102040816329 0  0.01820000000000004 0.00473265306122448 0  0.01820000000000004 0.006310204081632645 0  0.01820000000000004 0.007887755102040823 0  0.01820000000000003 0.009465306122448967 0  0.01820000000000003 0.01104285714285714 0  0.01820000000000003 0.0126204081632653 0  0.01820000000000003 0.01419795918367346 0  0.01820000000000003 0.01577551020408163 0  0.01820000000000002 0.01735306122448978 0  0.01820000000000002 0.01893061224489794 0  0.01820000000000002 0.0205081632653061 0  0.01820000000000002 0.02208571428571427 0  0.01820000000000001 0.02366326530612244 0  0.01820000000000001 0.0252408163265306 0  0.01820000000000001 0.02681836734693877 0  0.01820000000000001 0.02839591836734694 0  0.01820000000000001 0.02997346938775509 0  0.01820000000000001 0.03155102040816326 0  0.0182 0.03312857142857143 0  0.0182 0.03470612244897959 0  0.0182 0.03628367346938775 0  0.0182 0.03786122448979591 0  0.0182 0.03943877551020408 0  0.0182 0.04101632653061224 0  0.01819999999999999 0.0425938775510204 0  0.01819999999999999 0.04417142857142856 0  0.01819999999999999 0.04574897959183673 0  0.01819999999999999 0.04732653061224489 0  0.01819999999999999 0.04890408163265306 0  0.01819999999999999 0.05048163265306122 0  0.01819999999999998 0.05205918367346939 0  0.01819999999999998 0.05363673469387755 0  0.01819999999999998 0.0552142857142857 0  0.01819999999999998 0.05679183673469389 0  0.01819999999999998 0.05836938775510205 0  0.01819999999999998 0.0599469387755102 0  0.01819999999999997 0.06152448979591837 0  0.01819999999999997 0.06310204081632653 0  0.01819999999999997 0.06467959183673469 0  0.01819999999999997 0.06625714285714285 0  0.01819999999999997 0.06783469387755102 0  0.01819999999999997 0.06941224489795918 0  0.01819999999999996 0.07098979591836733 0  0.01819999999999996 0.07256734693877549 0  0.01819999999999996 0.07414489795918366 0  0.01819999999999996 0.07572244897959182 0  0.01960000000000004 0.001577551020408172 0  0.01960000000000004 0.003155102040816322 0  0.01960000000000003 0.004732653061224487 0  0.01960000000000003 0.006310204081632652 0  0.01960000000000003 0.00788775510204081 0  0.01960000000000003 0.009465306122448967 0  0.01960000000000003 0.01104285714285714 0  0.01960000000000003 0.01262040816326529 0  0.01960000000000003 0.01419795918367345 0  0.01960000000000003 0.01577551020408162 0  0.01960000000000002 0.01735306122448978 0  0.01960000000000002 0.01893061224489794 0  0.01960000000000002 0.0205081632653061 0  0.01960000000000002 0.02208571428571427 0  0.01960000000000002 0.02366326530612244 0  0.01960000000000002 0.0252408163265306 0  0.01960000000000001 0.02681836734693877 0  0.01960000000000001 0.02839591836734694 0  0.01960000000000001 0.02997346938775509 0  0.01960000000000001 0.03155102040816325 0  0.01960000000000001 0.03312857142857142 0  0.01960000000000001 0.03470612244897959 0  0.01960000000000001 0.03628367346938775 0  0.0196 0.03786122448979591 0  0.0196 0.03943877551020408 0  0.0196 0.04101632653061223 0  0.0196 0.0425938775510204 0  0.0196 0.04417142857142856 0  0.01959999999999999 0.04574897959183673 0  0.01959999999999999 0.04732653061224489 0  0.01959999999999999 0.04890408163265305 0  0.01959999999999999 0.05048163265306121 0  0.01959999999999999 0.05205918367346939 0  0.01959999999999999 0.05363673469387754 0  0.01959999999999999 0.0552142857142857 0  0.01959999999999999 0.05679183673469387 0  0.01959999999999998 0.05836938775510205 0  0.01959999999999998 0.0599469387755102 0  0.01959999999999998 0.06152448979591837 0  0.01959999999999998 0.06310204081632653 0  0.01959999999999998 0.06467959183673469 0  0.01959999999999998 0.06625714285714285 0  0.01959999999999997 0.06783469387755102 0  0.01959999999999997 0.06941224489795918 0  0.01959999999999997 0.07098979591836733 0  0.01959999999999997 0.07256734693877549 0  0.01959999999999997 0.07414489795918366 0  0.01959999999999996 0.07572244897959182 0  0.02100000000000003 0.001577551020408165 0  0.02100000000000003 0.003155102040816329 0  0.02100000000000003 0.00473265306122448 0  0.02100000000000003 0.006310204081632645 0  0.02100000000000003 0.00788775510204082 0  0.02100000000000003 0.009465306122448967 0  0.02100000000000003 0.01104285714285714 0  0.02100000000000003 0.0126204081632653 0  0.02100000000000003 0.01419795918367346 0  0.02100000000000002 0.01577551020408162 0  0.02100000000000002 0.01735306122448978 0  0.02100000000000002 0.01893061224489793 0  0.02100000000000002 0.0205081632653061 0  0.02100000000000002 0.02208571428571428 0  0.02100000000000002 0.02366326530612244 0  0.02100000000000001 0.0252408163265306 0  0.02100000000000001 0.02681836734693877 0  0.02100000000000001 0.02839591836734693 0  0.02100000000000001 0.02997346938775509 0  0.02100000000000001 0.03155102040816325 0  0.021 0.03312857142857142 0  0.021 0.03470612244897959 0  0.021 0.03628367346938775 0  0.021 0.0378612244897959 0  0.021 0.03943877551020408 0  0.021 0.04101632653061224 0  0.021 0.04259387755102039 0  0.021 0.04417142857142856 0  0.021 0.04574897959183673 0  0.02099999999999999 0.04732653061224489 0  0.02099999999999999 0.04890408163265304 0  0.02099999999999999 0.05048163265306121 0  0.02099999999999999 0.05205918367346939 0  0.02099999999999999 0.05363673469387754 0  0.02099999999999999 0.0552142857142857 0  0.02099999999999999 0.05679183673469387 0  0.02099999999999998 0.05836938775510203 0  0.02099999999999998 0.0599469387755102 0  0.02099999999999998 0.06152448979591836 0  0.02099999999999998 0.06310204081632653 0  0.02099999999999998 0.06467959183673469 0  0.02099999999999998 0.06625714285714285 0  0.02099999999999998 0.06783469387755102 0  0.02099999999999998 0.06941224489795918 0  0.02099999999999997 0.07098979591836733 0  0.02099999999999997 0.07256734693877549 0  0.02099999999999997 0.07414489795918365 0  0.02099999999999997 0.07572244897959182 0  0.02240000000000003 0.001577551020408172 0  0.02240000000000003 0.003155102040816316 0  0.02240000000000003 0.00473265306122448 0  0.02240000000000002 0.006310204081632652 0  0.02240000000000003 0.007887755102040803 0  0.02240000000000002 0.009465306122448964 0  0.02240000000000002 0.01104285714285713 0  0.02240000000000002 0.01262040816326529 0  0.02240000000000002 0.01419795918367346 0  0.02240000000000002 0.01577551020408162 0  0.02240000000000002 0.01735306122448978 0  0.02240000000000002 0.01893061224489794 0  0.02240000000000001 0.0205081632653061 0  0.02240000000000001 0.02208571428571426 0  0.02240000000000001 0.02366326530612243 0  0.02240000000000001 0.0252408163265306 0  0.02240000000000001 0.02681836734693877 0  0.02240000000000001 0.02839591836734692 0  0.02240000000000001 0.02997346938775509 0  0.02240000000000001 0.03155102040816325 0  0.02240000000000001 0.03312857142857142 0  0.02240000000000001 0.03470612244897958 0  0.0224 0.03628367346938775 0  0.0224 0.0378612244897959 0  0.0224 0.03943877551020407 0  0.0224 0.04101632653061223 0  0.0224 0.04259387755102039 0  0.0224 0.04417142857142856 0  0.0224 0.04574897959183673 0  0.0224 0.04732653061224489 0  0.0224 0.04890408163265304 0  0.02239999999999999 0.05048163265306121 0  0.02239999999999999 0.05205918367346938 0  0.02239999999999999 0.05363673469387754 0  0.02239999999999999 0.05521428571428571 0  0.02239999999999999 0.05679183673469387 0  0.02239999999999999 0.05836938775510203 0  0.02239999999999999 0.0599469387755102 0  0.02239999999999998 0.06152448979591835 0  0.02239999999999999 0.06310204081632652 0  0.02239999999999998 0.06467959183673469 0  0.02239999999999998 0.06625714285714285 0  0.02239999999999998 0.06783469387755101 0  0.02239999999999998 0.06941224489795918 0  0.02239999999999998 0.07098979591836733 0  0.02239999999999998 0.07256734693877549 0  0.02239999999999998 0.07414489795918366 0  0.02239999999999998 0.07572244897959182 0  0.02380000000000003 0.001577551020408158 0  0.02380000000000002 0.003155102040816329 0  0.02380000000000002 0.00473265306122448 0  0.02380000000000002 0.006310204081632652 0  0.02380000000000002 0.00788775510204081 0  0.02380000000000002 0.009465306122448964 0  0.02380000000000002 0.01104285714285714 0  0.02380000000000002 0.0126204081632653 0  0.02380000000000002 0.01419795918367345 0  0.02380000000000002 0.01577551020408161 0  0.02380000000000002 0.01735306122448977 0  0.02380000000000002 0.01893061224489793 0  0.02380000000000002 0.0205081632653061 0  0.02380000000000001 0.02208571428571426 0  0.02380000000000001 0.02366326530612243 0  0.02380000000000001 0.02524081632653059 0  0.02380000000000001 0.02681836734693876 0  0.02380000000000001 0.02839591836734692 0  0.02380000000000001 0.02997346938775509 0  0.02380000000000001 0.03155102040816325 0  0.02380000000000001 0.03312857142857142 0  0.02380000000000001 0.03470612244897958 0  0.0238 0.03628367346938775 0  0.0238 0.0378612244897959 0  0.0238 0.03943877551020407 0  0.0238 0.04101632653061223 0  0.0238 0.04259387755102038 0  0.0238 0.04417142857142856 0  0.0238 0.04574897959183672 0  0.0238 0.04732653061224488 0  0.02379999999999999 0.04890408163265304 0  0.02379999999999999 0.05048163265306121 0  0.02379999999999999 0.05205918367346937 0  0.02379999999999999 0.05363673469387754 0  0.02379999999999999 0.05521428571428571 0  0.02379999999999999 0.05679183673469387 0  0.02379999999999999 0.05836938775510204 0  0.02379999999999999 0.0599469387755102 0  0.02379999999999999 0.06152448979591836 0  0.02379999999999999 0.06310204081632652 0  0.02379999999999999 0.06467959183673469 0  0.02379999999999999 0.06625714285714285 0  0.02379999999999998 0.06783469387755101 0  0.02379999999999998 0.06941224489795918 0  0.02379999999999998 0.07098979591836733 0  0.02379999999999998 0.07256734693877549 0  0.02379999999999998 0.07414489795918365 0  0.02379999999999998 0.07572244897959182 0  0.02520000000000002 0.001577551020408151 0  0.02520000000000002 0.003155102040816322 0  0.02520000000000002 0.004732653061224487 0  0.02520000000000002 0.006310204081632652 0  0.02520000000000002 0.007887755102040799 0  0.02520000000000001 0.009465306122448964 0  0.02520000000000002 0.01104285714285714 0  0.02520000000000001 0.01262040816326529 0  0.02520000000000001 0.01419795918367345 0  0.02520000000000001 0.01577551020408162 0  0.02520000000000001 0.01735306122448977 0  0.02520000000000001 0.01893061224489793 0  0.02520000000000001 0.0205081632653061 0  0.02520000000000001 0.02208571428571426 0  0.02520000000000001 0.02366326530612244 0  0.02520000000000001 0.02524081632653059 0  0.02520000000000001 0.02681836734693875 0  0.02520000000000001 0.02839591836734692 0  0.02520000000000001 0.02997346938775508 0  0.02520000000000001 0.03155102040816325 0  0.02520000000000001 0.03312857142857142 0  0.0252 0.03470612244897957 0  0.0252 0.03628367346938774 0  0.0252 0.0378612244897959 0  0.0252 0.03943877551020406 0  0.0252 0.04101632653061223 0  0.0252 0.04259387755102038 0  0.0252 0.04417142857142855 0  0.0252 0.04574897959183671 0  0.0252 0.04732653061224489 0  0.0252 0.04890408163265304 0  0.0252 0.05048163265306121 0  0.0252 0.05205918367346937 0  0.02519999999999999 0.05363673469387754 0  0.0252 0.05521428571428569 0  0.02519999999999999 0.05679183673469387 0  0.02519999999999999 0.05836938775510203 0  0.02519999999999999 0.0599469387755102 0  0.02519999999999999 0.06152448979591836 0  0.02519999999999999 0.06310204081632652 0  0.02519999999999999 0.06467959183673469 0  0.02519999999999999 0.06625714285714285 0  0.02519999999999999 0.06783469387755102 0  0.02519999999999999 0.06941224489795916 0  0.02519999999999999 0.07098979591836733 0  0.02519999999999999 0.07256734693877549 0  0.02519999999999999 0.07414489795918366 0  0.02519999999999999 0.07572244897959182 0  0.02660000000000002 0.001577551020408151 0  0.02660000000000002 0.003155102040816329 0  0.02660000000000002 0.004732653061224473 0  0.02660000000000002 0.006310204081632645 0  0.02660000000000002 0.007887755102040806 0  0.02660000000000002 0.009465306122448964 0  0.02660000000000001 0.01104285714285714 0  0.02660000000000001 0.01262040816326528 0  0.02660000000000002 0.01419795918367344 0  0.02660000000000001 0.01577551020408162 0  0.02660000000000001 0.01735306122448977 0  0.02660000000000001 0.01893061224489792 0  0.02660000000000001 0.02050816326530609 0  0.02660000000000001 0.02208571428571426 0  0.02660000000000001 0.02366326530612242 0  0.02660000000000001 0.02524081632653059 0  0.02660000000000001 0.02681836734693875 0  0.02660000000000001 0.02839591836734693 0  0.02660000000000001 0.02997346938775508 0  0.02660000000000001 0.03155102040816325 0  0.02660000000000001 0.03312857142857141 0  0.02660000000000001 0.03470612244897958 0  0.02660000000000001 0.03628367346938773 0  0.02660000000000001 0.0378612244897959 0  0.02660000000000001 0.03943877551020406 0  0.02660000000000001 0.04101632653061222 0  0.0266 0.04259387755102038 0  0.0266 0.04417142857142855 0  0.0266 0.04574897959183671 0  0.0266 0.04732653061224488 0  0.0266 0.04890408163265304 0  0.0266 0.0504816326530612 0  0.0266 0.05205918367346937 0  0.0266 0.05363673469387753 0  0.0266 0.05521428571428569 0  0.0266 0.05679183673469387 0  0.0266 0.05836938775510202 0  0.0266 0.0599469387755102 0  0.0266 0.06152448979591835 0  0.02659999999999999 0.06310204081632652 0  0.02659999999999999 0.06467959183673469 0  0.02659999999999999 0.06625714285714285 0  0.02659999999999999 0.06783469387755101 0  0.02659999999999999 0.06941224489795918 0  0.02659999999999999 0.07098979591836733 0  0.02659999999999999 0.07256734693877549 0  0.02659999999999999 0.07414489795918365 0  0.02659999999999999 0.07572244897959182 0  0.02800000000000001 0.001577551020408151 0  0.02800000000000001 0.003155102040816329 0  0.02800000000000001 0.004732653061224473 0  0.02800000000000001 0.006310204081632645 0  0.02800000000000001 0.007887755102040803 0  0.02800000000000001 0.009465306122448964 0  0.02800000000000001 0.01104285714285713 0  0.02800000000000001 0.01262040816326528 0  0.02800000000000001 0.01419795918367345 0  0.02800000000000001 0.01577551020408162 0  0.02800000000000001 0.01735306122448976 0  0.02800000000000001 0.01893061224489793 0  0.028 0.02050816326530609 0  0.028 0.02208571428571426 0  0.02800000000000001 0.02366326530612242 0  0.028 0.02524081632653058 0  0.02800000000000001 0.02681836734693876 0  0.028 0.02839591836734692 0  0.028 0.02997346938775507 0  0.028 0.03155102040816324 0  0.028 0.03312857142857141 0  0.028 0.03470612244897957 0  0.028 0.03628367346938773 0  0.028 0.0378612244897959 0  0.028 0.03943877551020407 0  0.028 0.04101632653061221 0  0.028 0.04259387755102038 0  0.028 0.04417142857142854 0  0.028 0.04574897959183671 0  0.028 0.04732653061224488 0  0.028 0.04890408163265304 0  0.028 0.05048163265306121 0  0.028 0.05205918367346937 0  0.028 0.05363673469387753 0  0.028 0.05521428571428569 0  0.02799999999999999 0.05679183673469386 0  0.02799999999999999 0.05836938775510202 0  0.02799999999999999 0.05994693877551018 0  0.02799999999999999 0.06152448979591835 0  0.028 0.06310204081632652 0  0.028 0.06467959183673469 0  0.02799999999999999 0.06625714285714285 0  0.02799999999999999 0.06783469387755101 0  0.02799999999999999 0.06941224489795916 0  0.02799999999999999 0.07098979591836733 0  0.02799999999999999 0.07256734693877549 0  0.02799999999999999 0.07414489795918366 0  0.02799999999999999 0.07572244897959182 0  0.02940000000000001 0.001577551020408151 0  0.02940000000000001 0.003155102040816309 0  0.02940000000000001 0.00473265306122448 0  0.02940000000000001 0.006310204081632652 0  0.02940000000000001 0.00788775510204081 0  0.02940000000000001 0.009465306122448964 0  0.02940000000000001 0.01104285714285714 0  0.02940000000000001 0.01262040816326529 0  0.0294 0.01419795918367344 0  0.02940000000000001 0.01577551020408161 0  0.02940000000000001 0.01735306122448976 0  0.0294 0.01893061224489792 0  0.0294 0.02050816326530609 0  0.0294 0.02208571428571425 0  0.0294 0.02366326530612242 0  0.0294 0.02524081632653058 0  0.0294 0.02681836734693875 0  0.0294 0.02839591836734691 0  0.0294 0.02997346938775508 0  0.0294 0.03155102040816324 0  0.0294 0.0331285714285714 0  0.0294 0.03470612244897957 0  0.0294 0.03628367346938773 0  0.0294 0.03786122448979589 0  0.0294 0.03943877551020405 0  0.0294 0.04101632653061222 0  0.0294 0.04259387755102038 0  0.0294 0.04417142857142854 0  0.0294 0.04574897959183671 0  0.0294 0.04732653061224487 0  0.0294 0.04890408163265303 0  0.0294 0.0504816326530612 0  0.0294 0.05205918367346937 0  0.0294 0.05363673469387753 0  0.0294 0.05521428571428569 0  0.0294 0.05679183673469386 0  0.0294 0.05836938775510202 0  0.0294 0.05994693877551019 0  0.0294 0.06152448979591835 0  0.02939999999999999 0.0631020408163265 0  0.02939999999999999 0.06467959183673468 0  0.02939999999999999 0.06625714285714283 0  0.02939999999999999 0.06783469387755101 0  0.02939999999999999 0.06941224489795916 0  0.02939999999999999 0.07098979591836733 0  0.02939999999999999 0.07256734693877549 0  0.02939999999999999 0.07414489795918365 0  0.02939999999999999 0.07572244897959182 0  0.03080000000000001 0.001577551020408151 0  0.03080000000000001 0.003155102040816309 0  0.03080000000000001 0.004732653061224487 0  0.03080000000000001 0.006310204081632645 0  0.03080000000000001 0.00788775510204081 0  0.0308 0.009465306122448957 0  0.03080000000000001 0.01104285714285713 0  0.03080000000000001 0.01262040816326528 0  0.0308 0.01419795918367344 0  0.0308 0.01577551020408161 0  0.03080000000000001 0.01735306122448976 0  0.0308 0.01893061224489792 0  0.0308 0.02050816326530608 0  0.0308 0.02208571428571424 0  0.0308 0.02366326530612241 0  0.0308 0.02524081632653058 0  0.0308 0.02681836734693875 0  0.0308 0.02839591836734691 0  0.0308 0.02997346938775507 0  0.0308 0.03155102040816324 0  0.0308 0.0331285714285714 0  0.0308 0.03470612244897957 0  0.0308 0.03628367346938773 0  0.0308 0.03786122448979589 0  0.0308 0.03943877551020405 0  0.0308 0.04101632653061221 0  0.0308 0.04259387755102037 0  0.0308 0.04417142857142854 0  0.0308 0.04574897959183671 0  0.0308 0.04732653061224487 0  0.0308 0.04890408163265303 0  0.0308 0.05048163265306119 0  0.0308 0.05205918367346936 0  0.03079999999999999 0.05363673469387752 0  0.0308 0.05521428571428569 0  0.0308 0.05679183673469385 0  0.03079999999999999 0.05836938775510202 0  0.03079999999999999 0.05994693877551018 0  0.03079999999999999 0.06152448979591834 0  0.03079999999999999 0.0631020408163265 0  0.03079999999999999 0.06467959183673468 0  0.03079999999999999 0.06625714285714283 0  0.03079999999999999 0.06783469387755101 0  0.03079999999999999 0.06941224489795916 0  0.03079999999999999 0.07098979591836733 0  0.03079999999999999 0.07256734693877549 0  0.03079999999999999 0.07414489795918366 0  0.03079999999999999 0.07572244897959182 0  0.0322 0.001577551020408158 0  0.03219999999999999 0.003155102040816309 0  0.0322 0.004732653061224487 0  0.0322 0.006310204081632645 0  0.03219999999999999 0.007887755102040806 0  0.0322 0.009465306122448964 0  0.0322 0.01104285714285713 0  0.0322 0.01262040816326529 0  0.0322 0.01419795918367343 0  0.0322 0.0157755102040816 0  0.03219999999999999 0.01735306122448976 0  0.03219999999999999 0.01893061224489792 0  0.0322 0.02050816326530607 0  0.0322 0.02208571428571424 0  0.0322 0.02366326530612242 0  0.03219999999999999 0.02524081632653057 0  0.0322 0.02681836734693874 0  0.0322 0.02839591836734691 0  0.0322 0.02997346938775507 0  0.03219999999999999 0.03155102040816323 0  0.0322 0.0331285714285714 0  0.0322 0.03470612244897957 0  0.03219999999999999 0.03628367346938773 0  0.0322 0.03786122448979588 0  0.0322 0.03943877551020405 0  0.0322 0.04101632653061221 0  0.0322 0.04259387755102037 0  0.0322 0.04417142857142854 0  0.0322 0.04574897959183671 0  0.0322 0.04732653061224487 0  0.0322 0.04890408163265303 0  0.0322 0.05048163265306119 0  0.0322 0.05205918367346936 0  0.0322 0.05363673469387753 0  0.03219999999999999 0.05521428571428569 0  0.03219999999999999 0.05679183673469385 0  0.0322 0.05836938775510202 0  0.0322 0.05994693877551019 0  0.03220000000000001 0.06152448979591835 0  0.0322 0.0631020408163265 0  0.03219999999999999 0.06467959183673468 0  0.03219999999999999 0.06625714285714283 0  0.0322 0.06783469387755101 0  0.03219999999999999 0.06941224489795916 0  0.0322 0.07098979591836733 0  0.03219999999999999 0.07256734693877549 0  0.0322 0.07414489795918365 0  0.03219999999999999 0.07572244897959182 0  </DataArray>
</Points>
<Cells>
<DataArray  type="UInt32"  Name="connectivity"  format="ascii">0 4 145  4 145 146  144 145 146  144 146 147  143 144 147  143 147 148  142 143 148  142 148 149  141 142 149  141 149 150  140 141 150  140 150 151  139 140 151  139 151 152  138 139 152  138 152 153  137 138 153  137 153 154  136 137 154  136 154 155  135 136 155  135 155 156  134 135 156  134 156 157  133 134 157  133 157 158  132 133 158  132 158 159  131 132 159  131 159 160  130 131 160  130 160 161  129 130 161  129 161 162  128 129 162  128 162 163  127 128 163  127 163 164  126 127 164  126 164 165  125 126 165  125 165 166  124 125 166  124 166 167  123 124 167  123 167 168  122 123 168  122 168 169  121 122 169  121 169 170  120 121 170  120 170 171  119 120 171  119 171 172  118 119 172  118 172 173  117 118 173  117 173 174  116 117 174  116 174 175  115 116 175  115 175 176  114 115 176  114 176 177  113 114 177  113 177 178  112 113 178  112 178 179  111 112 179  111 179 180  110 111 180  110 180 181  109 110 181  109 181 182  108 109 182  108 182 183  107 108 183  107 183 184  106 107 184  106 184 185  105 106 185  105 185 186  104 105 186  104 186 187  103 104 187  103 187 188  102 103 188  102 188 189  101 102 189  101 189 190  100 101 190  100 190 191  99 100 191  99 191 192  98 99 192  98 192 193  3 98 193  3 97 193  4 5 146  5 146 194  146 147 194  147 194 195  147 148 195  148 195 196  148 149 196  149 196 197  149 150 197  150 197 198  150 151 198  151 198 199  151 152 199  152 199 200  152 153 200  153 200 201  153 154 201  154 201 202  154 155 202  155 202 203  155 156 203  156 203 204  156 157 204  157 204 205  157 158 205  158 205 206  158 159 206  159 206 207  159 160 207  160 207 208  160 161 208  161 208 209  161 162 209  162 209 210  162 163 210  163 210 211  163 164 211  164 211 212  164 165 212  165 212 213  165 166 213  166 213 214  166 167 214  167 214 215  167 168 215  168 215 216  168 169 216  169 216 217  169 170 217  170 217 218  170 171 218  171 218 219  171 172 219  172 219 220  172 173 220  173 220 221  173 174 221  174 221 222  174 175 222  175 222 223  175 176 223  176 223 224  176 177 224  177 224 225  177 178 225  178 225 226  178 179 226  179 226 227  179 180 227  180 227 228  180 181 228  181 228 229  181 182 229  182 229 230  182 183 230  183 230 231  183 184 231  184 231 232  184 185 232  185 232 233  185 186 233  186 233 234  186 187 234  187 234 235  187 188 235  188 235 236  188 189 236  189 236 237  189 190 237  190 237 238  190 191 238  191 238 239  191 192 239  192 239 240  192 193 240  193 240 241  97 193 241  96 97 241  5 6 194  6 194 242  194 195 242  195 242 243  195 196 243  196 243 244  196 197 244  197 244 245  197 198 245  198 245 246  198 199 246  199 246 247  199 200 247  200 247 248  200 201 248  201 248 249  201 202 249  202 249 250  202 203 250  203 250 251  203 204 251  204 251 252  204 205 252  205 252 253  205 206 253  206 253 254  206 207 254  207 254 255  207 208 255  208 255 256  208 209 256  209 256 257  209 210 257  210 257 258  210 211 258  211 258 259  211 212 259  212 259 260  212 213 260  213 260 261  213 214 261  214 261 262  214 215 262  215 262 263  215 216 263  216 263 264  216 217 264  217 264 265  217 218 265  218 265 266  218 219 266  219 266 267  219 220 267  220 267 268  220 221 268  221 268 269  221 222 269  222 269 270  222 223 270  223 270 271  223 224 271  224 271 272  224 225 272  225 272 273  225 226 273  226 273 274  226 227 274  227 274 275  227 228 275  228 275 276  228 229 276  229 276 277  229 230 277  230 277 278  230 231 278  231 278 279  231 232 279  232 279 280  232 233 280  233 280 281  233 234 281  234 281 282  234 235 282  235 282 283  235 236 283  236 283 284  236 237 284  237 284 285  237 238 285  238 285 286  238 239 286  239 286 287  239 240 287  240 287 288  240 241 288  241 288 289  96 241 289  95 96 289  6 7 242  7 242 290  242 243 290  243 290 291  243 244 291  244 291 292  244 245 292  245 292 293  245 246 293  246 293 294  246 247 294  247 294 295  247 248 295  248 295 296  248 249 296  249 296 297  249 250 297  250 297 298  250 251 298  251 298 299  251 252 299  252 299 300  252 253 300  253 300 301  253 254 301  254 301 302  254 255 302  255 302 303  255 256 303  256 303 304  256 257 304  257 304 305  257 258 305  258 305 306  258 259 306  259 306 307  259 260 307  260 307 308  260 261 308  261 308 309  261 262 309  262 309 310  262 263 310  263 310 311  263 264 311  264 311 312  264 265 312  265 312 313  265 266 313  266 313 314  266 267 314  267 314 315  267 268 315  268 315 316  268 269 316  269 316 317  269 270 317  270 317 318  270 271 318  271 318 319  271 272 319  272 319 320  272 273 320  273 320 321  273 274 321  274 321 322  274 275 322  275 322 323  275 276 323  276 323 324  276 277 324  277 324 325  277 278 325  278 325 326  278 279 326  279 326 327  279 280 327  280 327 328  280 281 328  281 328 329  281 282 329  282 329 330  282 283 330  283 330 331  283 284 331  284 331 332  284 285 332  285 332 333  285 286 333  286 333 334  286 287 334  287 334 335  287 288 335  288 335 336  288 289 336  289 336 337  95 289 337  94 95 337  7 8 290  8 290 338  290 291 338  291 338 339  291 292 339  292 339 340  292 293 340  293 340 341  293 294 341  294 341 342  294 295 342  295 342 343  295 296 343  296 343 344  296 297 344  297 344 345  297 298 345  298 345 346  298 299 346  299 346 347  299 300 347  300 347 348  300 301 348  301 348 349  301 302 349  302 349 350  302 303 350  303 350 351  303 304 351  304 351 352  304 305 352  305 352 353  305 306 353  306 353 354  306 307 354  307 354 355  307 308 355  308 355 356  308 309 356  309 356 357  309 310 357  310 357 358  310 311 358  311 358 359  311 312 359  312 359 360  312 313 360  313 360 361  313 314 361  314 361 362  314 315 362  315 362 363  315 316 363  316 363 364  316 317 364  317 364 365  317 318 365  318 365 366  318 319 366  319 366 367  319 320 367  320 367 368  320 321 368  321 368 369  321 322 369  322 369 370  322 323 370  323 370 371  323 324 371  324 371 372  324 325 372  325 372 373  325 326 373  326 373 374  326 327 374  327 374 375  327 328 375  328 375 376  328 329 376  329 376 377  329 330 377  330 377 378  330 331 378  331 378 379  331 332 379  332 379 380  332 333 380  333 380 381  333 334 381  334 381 382  334 335 382  335 382 383  335 336 383  336 383 384  336 337 384  337 384 385  94 337 385  93 94 385  8 9 338  9 338 386  338 339 386  339 386 387  339 340 387  340 387 388  340 341 388  341 388 389  341 342 389  342 389 390  342 343 390  343 390 391  343 344 391  344 391 392  344 345 392  345 392 393  345 346 393  346 393 394  346 347 394  347 394 395  347 348 395  348 395 396  348 349 396  349 396 397  349 350 397  350 397 398  350 351 398  351 398 399  351 352 399  352 399 400  352 353 400  353 400 401  353 354 401  354 401 402  354 355 402  355 402 403  355 356 403  356 403 404  356 357 404  357 404 405  357 358 405  358 405 406  358 359 406  359 406 407  359 360 407  360 407 408  360 361 408  361 408 409  361 362 409  362 409 410  362 363 410  363 410 411  363 364 411  364 411 412  364 365 412  365 412 413  365 366 413  366 413 414  366 367 414  367 414 415  367 368 415  368 415 416  368 369 416  369 416 417  369 370 417  370 417 418  370 371 418  371 418 419  371 372 419  372 419 420  372 373 420  373 420 421  373 374 421  374 421 422  374 375 422  375 422 423  375 376 423  376 423 424  376 377 424  377 424 425  377 378 425  378 425 426  378 379 426  379 426 427  379 380 427  380 427 428  380 381 428  381 428 429  381 382 429  382 429 430  382 383 430  383 430 431  383 384 431  384 431 432  384 385 432  385 432 433  93 385 433  92 93 433  9 10 386  10 386 434  386 387 434  387 434 435  387 388 435  388 435 436  388 389 436  389 436 437  389 390 437  390 437 438  390 391 438  391 438 439  391 392 439  392 439 440  392 393 440  393 440 441  393 394 441  394 441 442  394 395 442  395 442 443  395 396 443  396 443 444  396 397 444  397 444 445  397 398 445  398 445 446  398 399 446  399 446 447  399 400 447  400 447 448  400 401 448  401 448 449  401 402 449  402 449 450  402 403 450  403 450 451  403 404 451  404 451 452  404 405 452  405 452 453  405 406 453  406 453 454  406 407 454  407 454 455  407 408 455  408 455 456  408 409 456  409 456 457  409 410 457  410 457 458  410 411 458  411 458 459  411 412 459  412 459 460  412 413 460  413 460 461  413 414 461  414 461 462  414 415 462  415 462 463  415 416 463  416 463 464  416 417 464  417 464 465  417 418 465  418 465 466  418 419 466  419 466 467  419 420 467  420 467 468  420 421 468  421 468 469  421 422 469  422 469 470  422 423 470  423 470 471  423 424 471  424 471 472  424 425 472  425 472 473  425 426 473  426 473 474  426 427 474  427 474 475  427 428 475  428 475 476  428 429 476  429 476 477  429 430 477  430 477 478  430 431 478  431 478 479  431 432 479  432 479 480  432 433 480  433 480 481  92 433 481  91 92 481  10 11 434  11 434 482  434 435 482  435 482 483  435 436 483  436 483 484  436 437 484  437 484 485  437 438 485  438 485 486  438 439 486  439 486 487  439 440 487  440 487 488  440 441 488  441 488 489  441 442 489  442 489 490  442 443 490  443 490 491  443 444 491  444 491 492  444 445 492  445 492 493  445 446 493  446 493 494  446 447 494  447 494 495  447 448 495  448 495 496  448 449 496  449 496 497  449 450 497  450 497 498  450 451 498  451 498 499  451 452 499  452 499 500  452 453 500  453 500 501  453 454 501  454 501 502  454 455 502  455 502 503  455 456 503  456 503 504  456 457 504  457 504 505  457 458 505  458 505 506  458 459 506  459 506 507  459 460 507  460 507 508  460 461 508  461 508 509  461 462 509  462 509 510  462 463 510  463 510 511  463 464 511  464 511 512  464 465 512  465 512 513  465 466 513  466 513 514  466 467 514  467 514 515  467 468 515  468 515 516  468 469 516  469 516 517  469 470 517  470 517 518  470 471 518  471 518 519  471 472 519  472 519 520  472 473 520  473 520 521  473 474 521  474 521 522  474 475 522  475 522 523  475 476 523  476 523 524  476 477 524  477 524 525  477 478 525  478 525 526  478 479 526  479 526 527  479 480 527  480 527 528  480 481 528  481 528 529  91 481 529  90 91 529  11 12 482  12 482 530  482 483 530  483 530 531  483 484 531  484 531 532  484 485 532  485 532 533  485 486 533  486 533 534  486 487 534  487 534 535  487 488 535  488 535 536  488 489 536  489 536 537  489 490 537  490 537 538  490 491 538  491 538 539  491 492 539  492 539 540  492 493 540  493 540 541  493 494 541  494 541 542  494 495 542  495 542 543  495 496 543  496 543 544  496 497 544  497 544 545  497 498 545  498 545 546  498 499 546  499 546 547  499 500 547  500 547 548  500 501 548  501 548 549  501 502 549  502 549 550  502 503 550  503 550 551  503 504 551  504 551 552  504 505 552  505 552 553  505 506 553  506 553 554  506 507 554  507 554 555  507 508 555  508 555 556  508 509 556  509 556 557  509 510 557  510 557 558  510 511 558  511 558 559  511 512 559  512 559 560  512 513 560  513 560 561  513 514 561  514 561 562  514 515 562  515 562 563  515 516 563  516 563 564  516 517 564  517 564 565  517 518 565  518 565 566  518 519 566  519 566 567  519 520 567  520 567 568  520 521 568  521 568 569  521 522 569  522 569 570  522 523 570  523 570 571  523 524 571  524 571 572  524 525 572  525 572 573  525 526 573  526 573 574  526 527 574  527 574 575  527 528 575  528 575 576  528 529 576  529 576 577  90 529 577  89 90 577  12 13 530  13 530 578  530 531 578  531 578 579  531 532 579  532 579 580  532 533 580  533 580 581  533 534 581  534 581 582  534 535 582  535 582 583  535 536 583  536 583 584  536 537 584  537 584 585  537 538 585  538 585 586  538 539 586  539 586 587  539 540 587  540 587 588  540 541 588  541 588 589  541 542 589  542 589 590  542 543 590  543 590 591  543 544 591  544 591 592  544 545 592  545 592 593  545 546 593  546 593 594  546 547 594  547 594 595  547 548 595  548 595 596  548 549 596  549 596 597  549 550 597  550 597 598  550 551 598  551 598 599  551 552 599  552 599 600  552 553 600  553 600 601  553 554 601  554 601 602  554 555 602  555 602 603  555 556 603  556 603 604  556 557 604  557 604 605  557 558 605  558 605 606  558 559 606  559 606 607  559 560 607  560 607 608  560 561 608  561 608 609  561 562 609  562 609 610  562 563 610  563 610 611  563 564 611  564 611 612  564 565 612  565 612 613  565 566 613  566 613 614  566 567 614  567 614 615  567 568 615  568 615 616  568 569 616  569 616 617  569 570 617  570 617 618  570 571 618  571 618 619  571 572 619  572 619 620  572 573 620  573 620 621  573 574 621  574 621 622  574 575 622  575 622 623  575 576 623  576 623 624  576 577 624  577 624 625  89 577 625  88 89 625  13 14 578  14 578 626  578 579 626  579 626 627  579 580 627  580 627 628  580 581 628  581 628 629  581 582 629  582 629 630  582 583 630  583 630 631  583 584 631  584 631 632  584 585 632  585 632 633  585 586 633  586 633 634  586 587 634  587 634 635  587 588 635  588 635 636  588 589 636  589 636 637  589 590 637  590 637 638  590 591 638  591 638 639  591 592 639  592 639 640  592 593 640  593 640 641  593 594 641  594 641 642  594 595 642  595 642 643  595 596 643  596 643 644  596 597 644  597 644 645  597 598 645  598 645 646  598 599 646  599 646 647  599 600 647  600 647 648  600 601 648  601 648 649  601 602 649  602 649 650  602 603 650  603 650 651  603 604 651  604 651 652  604 605 652  605 652 653  605 606 653  606 653 654  606 607 654  607 654 655  607 608 655  608 655 656  608 609 656  609 656 657  609 610 657  610 657 658  610 611 658  611 658 659  611 612 659  612 659 660  612 613 660  613 660 661  613 614 661  614 661 662  614 615 662  615 662 663  615 616 663  616 663 664  616 617 664  617 664 665  617 618 665  618 665 666  618 619 666  619 666 667  619 620 667  620 667 668  620 621 668  621 668 669  621 622 669  622 669 670  622 623 670  623 670 671  623 624 671  624 671 672  624 625 672  625 672 673  88 625 673  87 88 673  14 15 626  15 626 674  626 627 674  627 674 675  627 628 675  628 675 676  628 629 676  629 676 677  629 630 677  630 677 678  630 631 678  631 678 679  631 632 679  632 679 680  632 633 680  633 680 681  633 634 681  634 681 682  634 635 682  635 682 683  635 636 683  636 683 684  636 637 684  637 684 685  637 638 685  638 685 686  638 639 686  639 686 687  639 640 687  640 687 688  640 641 688  641 688 689  641 642 689  642 689 690  642 643 690  643 690 691  643 644 691  644 691 692  644 645 692  645 692 693  645 646 693  646 693 694  646 647 694  647 694 695  647 648 695  648 695 696  648 649 696  649 696 697  649 650 697  650 697 698  650 651 698  651 698 699  651 652 699  652 699 700  652 653 700  653 700 701  653 654 701  654 701 702  654 655 702  655 702 703  655 656 703  656 703 704  656 657 704  657 704 705  657 658 705  658 705 706  658 659 706  659 706 707  659 660 707  660 707 708  660 661 708  661 708 709  661 662 709  662 709 710  662 663 710  663 710 711  663 664 711  664 711 712  664 665 712  665 712 713  665 666 713  666 713 714  666 667 714  667 714 715  667 668 715  668 715 716  668 669 716  669 716 717  669 670 717  670 717 718  670 671 718  671 718 719  671 672 719  672 719 720  672 673 720  673 720 721  87 673 721  86 87 721  15 16 674  16 674 722  674 675 722  675 722 723  675 676 723  676 723 724  676 677 724  677 724 725  677 678 725  678 725 726  678 679 726  679 726 727  679 680 727  680 727 728  680 681 728  681 728 729  681 682 729  682 729 730  682 683 730  683 730 731  683 684 731  684 731 732  684 685 732  685 732 733  685 686 733  686 733 734  686 687 734  687 734 735  687 688 735  688 735 736  688 689 736  689 736 737  689 690 737  690 737 738  690 691 738  691 738 739  691 692 739  692 739 740  692 693 740  693 740 741  693 694 741  694 741 742  694 695 742  695 742 743  695 696 743  696 743 744  696 697 744  697 744 745  697 698 745  698 745 746  698 699 746  699 746 747  699 700 747  700 747 748  700 701 748  701 748 749  701 702 749  702 749 750  702 703 750  703 750 751  703 704 751  704 751 752  704 705 752  705 752 753  705 706 753  706 753 754  706 707 754  707 754 755  707 708 755  708 755 756  708 709 756  709 756 757  709 710 757  710 757 758  710 711 758  711 758 759  711 712 759  712 759 760  712 713 760  713 760 761  713 714 761  714 761 762  714 715 762  715 762 763  715 716 763  716 763 764  716 717 764  717 764 765  717 718 765  718 765 766  718 719 766  719 766 767  719 720 767  720 767 768  720 721 768  721 768 769  86 721 769  85 86 769  16 17 722  17 722 770  722 723 770  723 770 771  723 724 771  724 771 772  724 725 772  725 772 773  725 726 773  726 773 774  726 727 774  727 774 775  727 728 775  728 775 776  728 729 776  729 776 777  729 730 777  730 777 778  730 731 778  731 778 779  731 732 779  732 779 780  732 733 780  733 780 781  733 734 781  734 781 782  734 735 782  735 782 783  735 736 783  736 783 784  736 737 784  737 784 785  737 738 785  738 785 786  738 739 786  739 786 787  739 740 787  740 787 788  740 741 788  741 788 789  741 742 789  742 789 790  742 743 790  743 790 791  743 744 791  744 791 792  744 745 792  745 792 793  745 746 793  746 793 794  746 747 794  747 794 795  747 748 795  748 795 796  748 749 796  749 796 797  749 750 797  750 797 798  750 751 798  751 798 799  751 752 799  752 799 800  752 753 800  753 800 801  753 754 801  754 801 802  754 755 802  755 802 803  755 756 803  756 803 804  756 757 804  757 804 805  757 758 805  758 805 806  758 759 806  759 806 807  759 760 807  760 807 808  760 761 808  761 808 809  761 762 809  762 809 810  762 763 810  763 810 811  763 764 811  764 811 812  764 765 812  765 812 813  765 766 813  766 813 814  766 767 814  767 814 815  767 768 815  768 815 816  768 769 816  769 816 817  85 769 817  84 85 817  17 18 770  18 770 818  770 771 818  771 818 819  771 772 819  772 819 820  772 773 820  773 820 821  773 774 821  774 821 822  774 775 822  775 822 823  775 776 823  776 823 824  776 777 824  777 824 825  777 778 825  778 825 826  778 779 826  779 826 827  779 780 827  780 827 828  780 781 828  781 828 829  781 782 829  782 829 830  782 783 830  783 830 831  783 784 831  784 831 832  784 785 832  785 832 833  785 786 833  786 833 834  786 787 834  787 834 835  787 788 835  788 835 836  788 789 836  789 836 837  789 790 837  790 837 838  790 791 838  791 838 839  791 792 839  792 839 840  792 793 840  793 840 841  793 794 841  794 841 842  794 795 842  795 842 843  795 796 843  796 843 844  796 797 844  797 844 845  797 798 845  798 845 846  798 799 846  799 846 847  799 800 847  800 847 848  800 801 848  801 848 849  801 802 849  802 849 850  802 803 850  803 850 851  803 804 851  804 851 852  804 805 852  805 852 853  805 806 853  806 853 854  806 807 854  807 854 855  807 808 855  808 855 856  808 809 856  809 856 857  809 810 857  810 857 858  810 811 858  811 858 859  811 812 859  812 859 860  812 813 860  813 860 861  813 814 861  814 861 862  814 815 862  815 862 863  815 816 863  816 863 864  816 817 864  817 864 865  84 817 865  83 84 865  18 19 818  19 818 866  818 819 866  819 866 867  819 820 867  820 867 868  820 821 868  821 868 869  821 822 869  822 869 870  822 823 870  823 870 871  823 824 871  824 871 872  824 825 872  825 872 873  825 826 873  826 873 874  826 827 874  827 874 875  827 828 875  828 875 876  828 829 876  829 876 877  829 830 877  830 877 878  830 831 878  831 878 879  831 832 879  832 879 880  832 833 880  833 880 881  833 834 881  834 881 882  834 835 882  835 882 883  835 836 883  836 883 884  836 837 884  837 884 885  837 838 885  838 885 886  838 839 886  839 886 887  839 840 887  840 887 888  840 841 888  841 888 889  841 842 889  842 889 890  842 843 890  843 890 891  843 844 891  844 891 892  844 845 892  845 892 893  845 846 893  846 893 894  846 847 894  847 894 895  847 848 895  848 895 896  848 849 896  849 896 897  849 850 897  850 897 898  850 851 898  851 898 899  851 852 899  852 899 900  852 853 900  853 900 901  853 854 901  854 901 902  854 855 902  855 902 903  855 856 903  856 903 904  856 857 904  857 904 905  857 858 905  858 905 906  858 859 906  859 906 907  859 860 907  860 907 908  860 861 908  861 908 909  861 862 909  862 909 910  862 863 910  863 910 911  863 864 911  864 911 912  864 865 912  865 912 913  83 865 913  82 83 913  19 20 866  20 866 914  866 867 914  867 914 915  867 868 915  868 915 916  868 869 916  869 916 917  869 870 917  870 917 918  870 871 918  871 918 919  871 872 919  872 919 920  872 873 920  873 920 921  873 874 921  874 921 922  874 875 922  875 922 923  875 876 923  876 923 924  876 877 924  877 924 925  877 878 925  878 925 926  878 879 926  879 926 927  879 880 927  880 927 928  880 881 928  881 928 929  881 882 929  882 929 930  882 883 930  883 930 931  883 884 931  884 931 932  884 885 932  885 932 933  885 886 933  886 933 934  886 887 934  887 934 935  887 888 935  888 935 936  888 889 936  889 936 937  889 890 937  890 937 938  890 891 938  891 938 939  891 892 939  892 939 940  892 893 940  893 940 941  893 894 941  894 941 942  894 895 942  895 942 943  895 896 943  896 943 944  896 897 944  897 944 945  897 898 945  898 945 946  898 899 946  899 946 947  899 900 947  900 947 948  900 901 948  901 948 949  901 902 949  902 949 950  902 903 950  903 950 951  903 904 951  904 951 952  904 905 952  905 952 953  905 906 953  906 953 954  906 907 954  907 954 955  907 908 955  908 955 956  908 909 956  909 956 957  909 910 957  910 957 958  910 911 958  911 958 959  911 912 959  912 959 960  912 913 960  913 960 961  82 913 961  81 82 961  20 21 914  21 914 962  914 915 962  915 962 963  915 916 963  916 963 964  916 917 964  917 964 965  917 918 965  918 965 966  918 919 966  919 966 967  919 920 967  920 967 968  920 921 968  921 968 969  921 922 969  922 969 970  922 923 970  923 970 971  923 924 971  924 971 972  924 925 972  925 972 973  925 926 973  926 973 974  926 927 974  927 974 975  927 928 975  928 975 976  928 929 976  929 976 977  929 930 977  930 977 978  930 931 978  931 978 979  931 932 979  932 979 980  932 933 980  933 980 981  933 934 981  934 981 982  934 935 982  935 982 983  935 936 983  936 983 984  936 937 984  937 984 985  937 938 985  938 985 986  938 939 986  939 986 987  939 940 987  940 987 988  940 941 988  941 988 989  941 942 989  942 989 990  942 943 990  943 990 991  943 944 991  944 991 992  944 945 992  945 992 993  945 946 993  946 993 994  946 947 994  947 994 995  947 948 995  948 995 996  948 949 996  949 996 997  949 950 997  950 997 998  950 951 998  951 998 999  951 952 999  952 999 1000  952 953 1000  953 1000 1001  953 954 1001  954 1001 1002  954 955 1002  955 1002 1003  955 956 1003  956 1003 1004  956 957 1004  957 1004 1005  957 958 1005  958 1005 1006  958 959 1006  959 1006 1007  959 960 1007  960 1007 1008  960 961 1008  961 1008 1009  81 961 1009  80 81 1009  21 22 962  22 962 1010  962 963 1010  963 1010 1011  963 964 1011  964 1011 1012  964 965 1012  965 1012 1013  965 966 1013  966 1013 1014  966 967 1014  967 1014 1015  967 968 1015  968 1015 1016  968 969 1016  969 1016 1017  969 970 1017  970 1017 1018  970 971 1018  971 1018 1019  971 972 1019  972 1019 1020  972 973 1020  973 1020 1021  973 974 1021  974 1021 1022  974 975 1022  975 1022 1023  975 976 1023  976 1023 1024  976 977 1024  977 1024 1025  977 978 1025  978 1025 1026  978 979 1026  979 1026 1027  979 980 1027  980 1027 1028  980 981 1028  981 1028 1029  981 982 1029  982 1029 1030  982 983 1030  983 1030 1031  983 984 1031  984 1031 1032  984 985 1032  985 1032 1033  985 986 1033  986 1033 1034  986 987 1034  987 1034 1035  987 988 1035  988 1035 1036  988 989 1036  989 1036 1037  989 990 1037  990 1037 1038  990 991 1038  991 1038 1039  991 992 1039  992 1039 1040  992 993 1040  993 1040 1041  993 994 1041  994 1041 1042  994 995 1042  995 1042 1043  995 996 1043  996 1043 1044  996 997 1044  997 1044 1045  997 998 1045  998 1045 1046  998 999 1046  999 1046 1047  999 1000 1047  1000 1047 1048  1000 1001 1048  1001 1048 1049  1001 1002 1049  1002 1049 1050  1002 1003 1050  1003 1050 1051  1003 1004 1051  1004 1051 1052  1004 1005 1052  1005 1052 1053  1005 1006 1053  1006 1053 1054  1006 1007 1054  1007 1054 1055  1007 1008 1055  1008 1055 1056  1008 1009 1056  1009 1056 1057  80 1009 1057  79 80 1057  22 23 1010  23 1010 1058  1010 1011 1058  1011 1058 1059  1011 1012 1059  1012 1059 1060  1012 1013 1060  1013 1060 1061  1013 1014 1061  1014 1061 1062  1014 1015 1062  1015 1062 1063  1015 1016 1063  1016 1063 1064  1016 1017 1064  1017 1064 1065  1017 1018 1065  1018 1065 1066  1018 1019 1066  1019 1066 1067  1019 1020 1067  1020 1067 1068  1020 1021 1068  1021 1068 1069  1021 1022 1069  1022 1069 1070  1022 1023 1070  1023 1070 1071  1023 1024 1071  1024 1071 1072  1024 1025 1072  1025 1072 1073  1025 1026 1073  1026 1073 1074  1026 1027 1074  1027 1074 1075  1027 1028 1075  1028 1075 1076  1028 1029 1076  1029 1076 1077  1029 1030 1077  1030 1077 1078  1030 1031 1078  1031 1078 1079  1031 1032 1079  1032 1079 1080  1032 1033 1080  1033 1080 1081  1033 1034 1081  1034 1081 1082  1034 1035 1082  1035 1082 1083  1035 1036 1083  1036 1083 1084  1036 1037 1084  1037 1084 1085  1037 1038 1085  1038 1085 1086  1038 1039 1086  1039 1086 1087  1039 1040 1087  1040 1087 1088  1040 1041 1088  1041 1088 1089  1041 1042 1089  1042 1089 1090  1042 1043 1090  1043 1090 1091  1043 1044 1091  1044 1091 1092  1044 1045 1092  1045 1092 1093  1045 1046 1093  1046 1093 1094  1046 1047 1094  1047 1094 1095  1047 1048 1095  1048 1095 1096  1048 1049 1096  1049 1096 1097  1049 1050 1097  1050 1097 1098  1050 1051 1098  1051 1098 1099  1051 1052 1099  1052 1099 1100  1052 1053 1100  1053 1100 1101  1053 1054 1101  1054 1101 1102  1054 1055 1102  1055 1102 1103  1055 1056 1103  1056 1103 1104  1056 1057 1104  1057 1104 1105  79 1057 1105  78 79 1105  23 24 1058  24 1058 1106  1058 1059 1106  1059 1106 1107  1059 1060 1107  1060 1107 1108  1060 1061 1108  1061 1108 1109  1061 1062 1109  1062 1109 1110  1062 1063 1110  1063 1110 1111  1063 1064 1111  1064 1111 1112  1064 1065 1112  1065 1112 1113  1065 1066 1113  1066 1113 1114  1066 1067 1114  1067 1114 1115  1067 1068 1115  1068 1115 1116  1068 1069 1116  1069 1116 1117  1069 1070 1117  1070 1117 1118  1070 1071 1118  1071 1118 1119  1071 1072 1119  1072 1119 1120  1072 1073 1120  1073 1120 1121  1073 1074 1121  1074 1121 1122  1074 1075 1122  1075 1122 1123  1075 1076 1123  1076 1123 1124  1076 1077 1124  1077 1124 1125  1077 1078 1125  1078 1125 1126  1078 1079 1126  1079 1126 1127  1079 1080 1127  1080 1127 1128  1080 1081 1128  1081 1128 1129  1081 1082 1129  1082 1129 1130  1082 1083 1130  1083 1130 1131  1083 1084 1131  1084 1131 1132  1084 1085 1132  1085 1132 1133  1085 1086 1133  1086 1133 1134  1086 1087 1134  1087 1134 1135  1087 1088 1135  1088 1135 1136  1088 1089 1136  1089 1136 1137  1089 1090 1137  1090 1137 1138  1090 1091 1138  1091 1138 1139  1091 1092 1139  1092 1139 1140  1092 1093 1140  1093 1140 1141  1093 1094 1141  1094 1141 1142  1094 1095 1142  1095 1142 1143  1095 1096 1143  1096 1143 1144  1096 1097 1144  1097 1144 1145  1097 1098 1145  1098 1145 1146  1098 1099 1146  1099 1146 1147  1099 1100 1147  1100 1147 1148  1100 1101 1148  1101 1148 1149  1101 1102 1149  1102 1149 1150  1102 1103 1150  1103 1150 1151  1103 1104 1151  1104 1151 1152  1104 1105 1152  1105 1152 1153  78 1105 1153  77 78 1153  24 25 1106  25 1106 1154  1106 1107 1154  1107 1154 1155  1107 1108 1155  1108 1155 1156  1108 1109 1156  1109 1156 1157  1109 1110 1157  1110 1157 1158  1110 1111 1158  1111 1158 1159  1111 1112 1159  1112 1159 1160  1112 1113 1160  1113 1160 1161  1113 1114 1161  1114 1161 1162  1114 1115 1162  1115 1162 1163  1115 1116 1163  1116 1163 1164  1116 1117 1164  1117 1164 1165  1117 1118 1165  1118 1165 1166  1118 1119 1166  1119 1166 1167  1119 1120 1167  1120 1167 1168  1120 1121 1168  1121 1168 1169  1121 1122 1169  1122 1169 1170  1122 1123 1170  1123 1170 1171  1123 1124 1171  1124 1171 1172  1124 1125 1172  1125 1172 1173  1125 1126 1173  1126 1173 1174  1126 1127 1174  1127 1174 1175  1127 1128 1175  1128 1175 1176  1128 1129 1176  1129 1176 1177  1129 1130 1177  1130 1177 1178  1130 1131 1178  1131 1178 1179  1131 1132 1179  1132 1179 1180  1132 1133 1180  1133 1180 1181  1133 1134 1181  1134 1181 1182  1134 1135 1182  1135 1182 1183  1135 1136 1183  1136 1183 1184  1136 1137 1184  1137 1184 1185  1137 1138 1185  1138 1185 1186  1138 1139 1186  1139 1186 1187  1139 1140 1187  1140 1187 1188  1140 1141 1188  1141 1188 1189  1141 1142 1189  1142 1189 1190  1142 1143 1190  1143 1190 1191  1143 1144 1191  1144 1191 1192  1144 1145 1192  1145 1192 1193  1145 1146 1193  1146 1193 1194  1146 1147 1194  1147 1194 1195  1147 1148 1195  1148 1195 1196  1148 1149 1196  1149 1196 1197  1149 1150 1197  1150 1197 1198  1150 1151 1198  1151 1198 1199  1151 1152 1199  1152 1199 1200  1152 1153 1200  1153 1200 1201  77 1153 1201  76 77 1201  25 26 1154  26 1154 1202  1154 1155 1202  1155 1202 1203  1155 1156 1203  1156 1203 1204  1156 1157 1204  1157 1204 1205  1157 1158 1205  1158 1205 1206  1158 1159 1206  1159 1206 1207  1159 1160 1207  1160 1207 1208  1160 1161 1208  1161 1208 1209  1161 1162 1209  1162 1209 1210  1162 1163 1210  1163 1210 1211  1163 1164 1211  1164 1211 1212  1164 1165 1212  1165 1212 1213  1165 1166 1213  1166 1213 1214  1166 1167 1214  1167 1214 1215  1167 1168 1215  1168 1215 1216  1168 1169 1216  1169 1216 1217  1169 1170 1217  1170 1217 1218  1170 1171 1218  1171 1218 1219  1171 1172 1219  1172 1219 1220  1172 1173 1220  1173 1220 1221  1173 1174 1221  1174 1221 1222  1174 1175 1222  1175 1222 1223  1175 1176 1223  1176 1223 1224  1176 1177 1224  1177 1224 1225  1177 1178 1225  1178 1225 1226  1178 1179 1226  1179 1226 1227  1179 1180 1227  1180 1227 1228  1180 1181 1228  1181 1228 1229  1181 1182 1229  1182 1229 1230  1182 1183 1230  1183 1230 1231  1183 1184 1231  1184 1231 1232  1184 1185 1232  1185 1232 1233  1185 1186 1233  1186 1233 1234  1186 1187 1234  1187 1234 1235  1187 1188 1235  1188 1235 1236  1188 1189 1236  1189 1236 1237  1189 1190 1237  1190 1237 1238  1190 1191 1238  1191 1238 1239  1191 1192 1239  1192 1239 1240  1192 1193 1240  1193 1240 1241  1193 1194 1241  1194 1241 1242  1194 1195 1242  1195 1242 1243  1195 1196 1243  1196 1243 1244  1196 1197 1244  1197 1244 1245  1197 1198 1245  1198 1245 1246  1198 1199 1246  1199 1246 1247  1199 1200 1247  1200 1247 1248  1200 1201 1248  1201 1248 1249  76 1201 1249  75 76 1249  1 26 1202  1 27 1202  27 1202 1203  27 28 1203  28 1203 1204  28 29 1204  29 1204 1205  29 30 1205  30 1205 1206  30 31 1206  31 1206 1207  31 32 1207  32 1207 1208  32 33 1208  33 1208 1209  33 34 1209  34 1209 1210  34 35 1210  35 1210 1211  35 36 1211  36 1211 1212  36 37 1212  37 1212 1213  37 38 1213  38 1213 1214  38 39 1214  39 1214 1215  39 40 1215  40 1215 1216  40 41 1216  41 1216 1217  41 42 1217  42 1217 1218  42 43 1218  43 1218 1219  43 44 1219  44 1219 1220  44 45 1220  45 1220 1221  45 46 1221  46 1221 1222  46 47 1222  47 1222 1223  47 48 1223  48 1223 1224  48 49 1224  49 1224 1225  49 50 1225  50 1225 1226  50 51 1226  51 1226 1227  51 52 1227  52 1227 1228  52 53 1228  53 1228 1229  53 54 1229  54 1229 1230  54 55 1230  55 1230 1231  55 56 1231  56 1231 1232  56 57 1232  57 1232 1233  57 58 1233  58 1233 1234  58 59 1234  59 1234 1235  59 60 1235  60 1235 1236  60 61 1236  61 1236 1237  61 62 1237  62 1237 1238  62 63 1238  63 1238 1239  63 64 1239  64 1239 1240  64 65 1240  65 1240 1241  65 66 1241  66 1241 1242  66 67 1242  67 1242 1243  67 68 1243  68 1243 1244  68 69 1244  69 1244 1245  69 70 1245  70 1245 1246  70 71 1246  71 1246 1247  71 72 1247  72 1247 1248  72 73 1248  73 1248 1249  73 74 1249  74 75 1249  2 74 75  </DataArray>
<DataArray  type="UInt32"  Name="offsets"  format="ascii">3 6 9 12 15 18 21 24 27 30 33 36 39 42 45 48 51 54 57 60 63 66 69 72 75 78 81 84 87 90 93 96 99 102 105 108 111 114 117 120 123 126 129 132 135 138 141 144 147 150 153 156 159 162 165 168 171 174 177 180 183 186 189 192 195 198 201 204 207 210 213 216 219 222 225 228 231 234 237 240 243 246 249 252 255 258 261 264 267 270 273 276 279 282 285 288 291 294 297 300 303 306 309 312 315 318 321 324 327 330 333 336 339 342 345 348 351 354 357 360 363 366 369 372 375 378 381 384 387 390 393 396 399 402 405 408 411 414 417 420 423 426 429 432 435 438 441 444 447 450 453 456 459 462 465 468 471 474 477 480 483 486 489 492 495 498 501 504 507 510 513 516 519 522 525 528 531 534 537 540 543 546 549 552 555 558 561 564 567 570 573 576 579 582 585 588 591 594 597 600 603 606 609 612 615 618 621 624 627 630 633 636 639 642 645 648 651 654 657 660 663 666 669 672 675 678 681 684 687 690 693 696 699 702 705 708 711 714 717 720 723 726 729 732 735 738 741 744 747 750 753 756 759 762 765 768 771 774 777 780 783 786 789 792 795 798 801 804 807 810 813 816 819 822 825 828 831 834 837 840 843 846 849 852 855 858 861 864 867 870 873 876 879 882 885 888 891 894 897 900 903 906 909 912 915 918 921 924 927 930 933 936 939 942 945 948 951 954 957 960 963 966 969 972 975 978 981 984 987 990 993 996 999 1002 1005 1008 1011 1014 1017 1020 1023 1026 1029 1032 1035 1038 1041 1044 1047 1050 1053 1056 1059 1062 1065 1068 1071 1074 1077 1080 1083 1086 1089 1092 1095 1098 1101 1104 1107 1110 1113 1116 1119 1122 1125 1128 1131 1134 1137 1140 1143 1146 1149 1152 1155 1158 1161 1164 1167 1170 1173 1176 1179 1182 1185 1188 1191 1194 1197 1200 1203 1206 1209 1212 1215 1218 1221 1224 1227 1230 1233 1236 1239 1242 1245 1248 1251 1254 1257 1260 1263 1266 1269 1272 1275 1278 1281 1284 1287 1290 1293 1296 1299 1302 1305 1308 1311 1314 1317 1320 1323 1326 1329 1332 1335 1338 1341 1344 1347 1350 1353 1356 1359 1362 1365 1368 1371 1374 1377 1380 1383 1386 1389 1392 1395 1398 1401 1404 1407 1410 1413 1416 1419 1422 1425 1428 1431 1434 1437 1440 1443 1446 1449 1452 1455 1458 1461 1464 1467 1470 1473 1476 1479 1482 1485 1488 1491 1494 1497 1500 1503 1506 1509 1512 1515 1518 1521 1524 1527 1530 1533 1536 1539 1542 1545 1548 1551 1554 1557 1560 1563 1566 1569 1572 1575 1578 1581 1584 1587 1590 1593 1596 1599 1602 1605 1608 1611 1614 1617 1620 1623 1626 1629 1632 1635 1638 1641 1644 1647 1650 1653 1656 1659 1662 1665 1668 1671 1674 1677 1680 1683 1686 1689 1692 1695 1698 1701 1704 1707 1710 1713 1716 1719 1722 1725 1728 1731 1734 1737 1740 1743 1746 1749 1752 1755 1758 1761 1764 1767 1770 1773 1776 1779 1782 1785 1788 1791 1794 1797 1800 1803 1806 1809 1812 1815 1818 1821 1824 1827 1830 1833 1836 1839 1842 1845 1848 1851 1854 1857 1860 1863 1866 1869 1872 1875 1878 1881 1884 1887 1890 1893 1896 1899 1902 1905 1908 1911 1914 1917 1920 1923 1926 1929 1932 1935 1938 1941 1944 1947 1950 1953 1956 1959 1962 1965 1968 1971 1974 1977 1980 1983 1986 1989 1992 1995 1998 2001 2004 2007 2010 2013 2016 2019 2022 2025 2028 2031 2034 2037 2040 2043 2046 2049 2052 2055 2058 2061 2064 2067 2070 2073 2076 2079 2082 2085 2088 2091 2094 2097 2100 2103 2106 2109 2112 2115 2118 2121 2124 2127 2130 2133 2136 2139 2142 2145 2148 2151 2154 2157 2160 2163 2166 2169 2172 2175 2178 2181 2184 2187 2190 2193 2196 2199 2202 2205 2208 2211 2214 2217 2220 2223 2226 2229 2232 2235 2238 2241 2244 2247 2250 2253 2256 2259 2262 2265 2268 2271 2274 2277 2280 2283 2286 2289 2292 2295 2298 2301 2304 2307 2310 2313 2316 2319 2322 2325 2328 2331 2334 2337 2340 2343 2346 2349 2352 2355 2358 2361 2364 2367 2370 2373 2376 2379 2382 2385 2388 2391 2394 2397 2400 2403 2406 2409 2412 2415 2418 2421 2424 2427 2430 2433 2436 2439 2442 2445 2448 2451 2454 2457 2460 2463 2466 2469 2472 2475 2478 2481 2484 2487 2490 2493 2496 2499 2502 2505 2508 2511 2514 2517 2520 2523 2526 2529 2532 2535 2538 2541 2544 2547 2550 2553 2556 2559 2562 2565 2568 2571 2574 2577 2580 2583 2586 2589 2592 2595 2598 2601 2604 2607 2610 2613 2616 2619 2622 2625 2628 2631 2634 2637 2640 2643 2646 2649 2652 2655 2658 2661 2664 2667 2670 2673 2676 2679 2682 2685 2688 2691 2694 2697 2700 2703 2706 2709 2712 2715 2718 2721 2724 2727 2730 2733 2736 2739 2742 2745 2748 2751 2754 2757 2760 2763 2766 2769 2772 2775 2778 2781 2784 2787 2790 2793 2796 2799 2802 2805 2808 2811 2814 2817 2820 2823 2826 2829 2832 2835 2838 2841 2844 2847 2850 2853 2856 2859 2862 2865 2868 2871 2874 2877 2880 2883 2886 2889 2892 2895 2898 2901 2904 2907 2910 2913 2916 2919 2922 2925 2928 2931 2934 2937 2940 2943 2946 2949 2952 2955 2958 2961 2964 2967 2970 2973 2976 2979 2982 2985 2988 2991 2994 2997 3000 3003 3006 3009 3012 3015 3018 3021 3024 3027 3030 3033 3036 3039 3042 3045 3048 3051 3054 3057 3060 3063 3066 3069 3072 3075 3078 3081 3084 3087 3090 3093 3096 3099 3102 3105 3108 3111 3114 3117 3120 3123 3126 3129 3132 3135 3138 3141 3144 3147 3150 3153 3156 3159 3162 3165 3168 3171 3174 3177 3180 3183 3186 3189 3192 3195 3198 3201 3204 3207 3210 3213 3216 3219 3222 3225 3228 3231 3234 3237 3240 3243 3246 3249 3252 3255 3258 3261 3264 3267 3270 3273 3276 3279 3282 3285 3288 3291 3294 3297 3300 3303 3306 3309 3312 3315 3318 3321 3324 3327 3330 3333 3336 3339 3342 3345 3348 3351 3354 3357 3360 3363 3366 3369 3372 3375 3378 3381 3384 3387 3390 3393 3396 3399 3402 3405 3408 3411 3414 3417 3420 3423 3426 3429 3432 3435 3438 3441 3444 3447 3450 3453 3456 3459 3462 3465 3468 3471 3474 3477 3480 3483 3486 3489 3492 3495 3498 3501 3504 3507 3510 3513 3516 3519 3522 3525 3528 3531 3534 3537 3540 3543 3546 3549 3552 3555 3558 3561 3564 3567 3570 3573 3576 3579 3582 3585 3588 3591 3594 3597 3600 3603 3606 3609 3612 3615 3618 3621 3624 3627 3630 3633 3636 3639 3642 3645 3648 3651 3654 3657 3660 3663 3666 3669 3672 3675 3678 3681 3684 3687 3690 3693 3696 3699 3702 3705 3708 3711 3714 3717 3720 3723 3726 3729 3732 3735 3738 3741 3744 3747 3750 3753 3756 3759 3762 3765 3768 3771 3774 3777 3780 3783 3786 3789 3792 3795 3798 3801 3804 3807 3810 3813 3816 3819 3822 3825 3828 3831 3834 3837 3840 3843 3846 3849 3852 3855 3858 3861 3864 3867 3870 3873 3876 3879 3882 3885 3888 3891 3894 3897 3900 3903 3906 3909 3912 3915 3918 3921 3924 3927 3930 3933 3936 3939 3942 3945 3948 3951 3954 3957 3960 3963 3966 3969 3972 3975 3978 3981 3984 3987 3990 3993 3996 3999 4002 4005 4008 4011 4014 4017 4020 4023 4026 4029 4032 4035 4038 4041 4044 4047 4050 4053 4056 4059 4062 4065 4068 4071 4074 4077 4080 4083 4086 4089 4092 4095 4098 4101 4104 4107 4110 4113 4116 4119 4122 4125 4128 4131 4134 4137 4140 4143 4146 4149 4152 4155 4158 4161 4164 4167 4170 4173 4176 4179 4182 4185 4188 4191 4194 4197 4200 4203 4206 4209 4212 4215 4218 4221 4224 4227 4230 4233 4236 4239 4242 4245 4248 4251 4254 4257 4260 4263 4266 4269 4272 4275 4278 4281 4284 4287 4290 4293 4296 4299 4302 4305 4308 4311 4314 4317 4320 4323 4326 4329 4332 4335 4338 4341 4344 4347 4350 4353 4356 4359 4362 4365 4368 4371 4374 4377 4380 4383 4386 4389 4392 4395 4398 4401 4404 4407 4410 4413 4416 4419 4422 4425 4428 4431 4434 4437 4440 4443 4446 4449 4452 4455 4458 4461 4464 4467 4470 4473 4476 4479 4482 4485 4488 4491 4494 4497 4500 4503 4506 4509 4512 4515 4518 4521 4524 4527 4530 4533 4536 4539 4542 4545 4548 4551 4554 4557 4560 4563 4566 4569 4572 4575 4578 4581 4584 4587 4590 4593 4596 4599 4602 4605 4608 4611 4614 4617 4620 4623 4626 4629 4632 4635 4638 4641 4644 4647 4650 4653 4656 4659 4662 4665 4668 4671 4674 4677 4680 4683 4686 4689 4692 4695 4698 4701 4704 4707 4710 4713 4716 4719 4722 4725 4728 4731 4734 4737 4740 4743 4746 4749 4752 4755 4758 4761 4764 4767 4770 4773 4776 4779 4782 4785 4788 4791 4794 4797 4800 4803 4806 4809 4812 4815 4818 4821 4824 4827 4830 4833 4836 4839 4842 4845 4848 4851 4854 4857 4860 4863 4866 4869 4872 4875 4878 4881 4884 4887 4890 4893 4896 4899 4902 4905 4908 4911 4914 4917 4920 4923 4926 4929 4932 4935 4938 4941 4944 4947 4950 4953 4956 4959 4962 4965 4968 4971 4974 4977 4980 4983 4986 4989 4992 4995 4998 5001 5004 5007 5010 5013 5016 5019 5022 5025 5028 5031 5034 5037 5040 5043 5046 5049 5052 5055 5058 5061 5064 5067 5070 5073 5076 5079 5082 5085 5088 5091 5094 5097 5100 5103 5106 5109 5112 5115 5118 5121 5124 5127 5130 5133 5136 5139 5142 5145 5148 5151 5154 5157 5160 5163 5166 5169 5172 5175 5178 5181 5184 5187 5190 5193 5196 5199 5202 5205 5208 5211 5214 5217 5220 5223 5226 5229 5232 5235 5238 5241 5244 5247 5250 5253 5256 5259 5262 5265 5268 5271 5274 5277 5280 5283 5286 5289 5292 5295 5298 5301 5304 5307 5310 5313 5316 5319 5322 5325 5328 5331 5334 5337 5340 5343 5346 5349 5352 5355 5358 5361 5364 5367 5370 5373 5376 5379 5382 5385 5388 5391 5394 5397 5400 5403 5406 5409 5412 5415 5418 5421 5424 5427 5430 5433 5436 5439 5442 5445 5448 5451 5454 5457 5460 5463 5466 5469 5472 5475 5478 5481 5484 5487 5490 5493 5496 5499 5502 5505 5508 5511 5514 5517 5520 5523 5526 5529 5532 5535 5538 5541 5544 5547 5550 5553 5556 5559 5562 5565 5568 5571 5574 5577 5580 5583 5586 5589 5592 5595 5598 5601 5604 5607 5610 5613 5616 5619 5622 5625 5628 5631 5634 5637 5640 5643 5646 5649 5652 5655 5658 5661 5664 5667 5670 5673 5676 5679 5682 5685 5688 5691 5694 5697 5700 5703 5706 5709 5712 5715 5718 5721 5724 5727 5730 5733 5736 5739 5742 5745 5748 5751 5754 5757 5760 5763 5766 5769 5772 5775 5778 5781 5784 5787 5790 5793 5796 5799 5802 5805 5808 5811 5814 5817 5820 5823 5826 5829 5832 5835 5838 5841 5844 5847 5850 5853 5856 5859 5862 5865 5868 5871 5874 5877 5880 5883 5886 5889 5892 5895 5898 5901 5904 5907 5910 5913 5916 5919 5922 5925 5928 5931 5934 5937 5940 5943 5946 5949 5952 5955 5958 5961 5964 5967 5970 5973 5976 5979 5982 5985 5988 5991 5994 5997 6000 6003 6006 6009 6012 6015 6018 6021 6024 6027 6030 6033 6036 6039 6042 6045 6048 6051 6054 6057 6060 6063 6066 6069 6072 6075 6078 6081 6084 6087 6090 6093 6096 6099 6102 6105 6108 6111 6114 6117 6120 6123 6126 6129 6132 6135 6138 6141 6144 6147 6150 6153 6156 6159 6162 6165 6168 6171 6174 6177 6180 6183 6186 6189 6192 6195 6198 6201 6204 6207 6210 6213 6216 6219 6222 6225 6228 6231 6234 6237 6240 6243 6246 6249 6252 6255 6258 6261 6264 6267 6270 6273 6276 6279 6282 6285 6288 6291 6294 6297 6300 6303 6306 6309 6312 6315 6318 6321 6324 6327 6330 6333 6336 6339 6342 6345 6348 6351 6354 6357 6360 6363 6366 6369 6372 6375 6378 6381 6384 6387 6390 6393 6396 6399 6402 6405 6408 6411 6414 6417 6420 6423 6426 6429 6432 6435 6438 6441 6444 6447 6450 6453 6456 6459 6462 6465 6468 6471 6474 6477 6480 6483 6486 6489 6492 6495 6498 6501 6504 6507 6510 6513 6516 6519 6522 6525 6528 6531 6534 6537 6540 6543 6546 6549 6552 6555 6558 6561 6564 6567 6570 6573 6576 6579 6582 6585 6588 6591 6594 6597 6600 6603 6606 6609 6612 6615 6618 6621 6624 6627 6630 6633 6636 6639 6642 6645 6648 6651 6654 6657 6660 6663 6666 6669 6672 6675 6678 6681 6684 6687 6690 6693 6696 6699 6702 6705 6708 6711 6714 6717 6720 6723 6726 6729 6732 6735 6738 6741 6744 6747 6750 6753 6756 6759 6762 6765 6768 6771 6774 6777 6780 6783 6786 6789 6792 6795 6798 6801 6804 6807 6810 6813 6816 6819 6822 6825 6828 6831 6834 6837 6840 6843 6846 6849 6852 6855 6858 6861 6864 6867 6870 6873 6876 6879 6882 6885 6888 6891 6894 6897 6900 6903 6906 6909 6912 6915 6918 6921 6924 6927 6930 6933 6936 6939 6942 6945 6948 6951 6954 6957 6960 6963 6966 6969 6972 6975 6978 6981 6984 6987 6990 6993 6996 6999 7002 7005 7008 7011 7014 7017 7020 7023 7026 7029 7032 7035 7038 7041 7044 7047 7050 7053 7056 </DataArray>
<DataArray  type="UInt8"  Name="types"  format="ascii">5 5 5 5 5 5 5 5 5 5 5 5 5 5 5 5 5 5 5 5 5 5 5 5 5 5 5 5 5 5 5 5 5 5 5 5 5 5 5 5 5 5 5 5 5 5 5 5 5 5 5 5 5 5 5 5 5 5 5 5 5 5 5 5 5 5 5 5 5 5 5 5 5 5 5 5 5 5 5 5 5 5 5 5 5 5 5 5 5 5 5 5 5 5 5 5 5 5 5 5 5 5 5 5 5 5 5 5 5 5 5 5 5 5 5 5 5 5 5 5 5 5 5 5 5 5 5 5 5 5 5 5 5 5 5 5 5 5 5 5 5 5 5 5 5 5 5 5 5 5 5 5 5 5 5 5 5 5 5 5 5 5 5 5 5 5 5 5 5 5 5 5 5 5 5 5 5 5 5 5 5 5 5 5 5 5 5 5 5 5 5 5 5 5 5 5 5 5 5 5 5 5 5 5 5 5 5 5 5 5 5 5 5 5 5 5 5 5 5 5 5 5 5 5 5 5 5 5 5 5 5 5 5 5 5 5 5 5 5 5 5 5 5 5 5 5 5 5 5 5 5 5 5 5 5 5 5 5 5 5 5 5 5 5 5 5 5 5 5 5 5 5 5 5 5 5 5 5 5 5 5 5 5 5 5 5 5 5 5 5 5 5 5 5 5 5 5 5 5 5 5 5 5 5 5 5 5 5 5 5 5 5 5 5 5 5 5 5 5 5 5 5 5 5 5 5 5 5 5 5 5 5 5 5 5 5 5 5 5 5 5 5 5 5 5 5 5 5 5 5 5 5 5 5 5 5 5 5 5 5 5 5 5 5 5 5 5 5 5 5 5 5 5 5 5 5 5 5 5 5 5 5 5 5 5 5 5 5 5 5 5 5 5 5 5 5 5 5 5 5 5 5 5 5 5 5 5 5 5 5 5 5 5 5 5 5 5 5 5 5 5 5 5 5 5 5 5 5 5 5 5 5 5 5 5 5 5 5 5 5 5 5 5 5 5 5 5 5 5 5 5 5 5 5 5 5 5 5 5 5 5 5 5 5 5 5 5 5 5 5 5 5 5 5 5 5 5 5 5 5 5 5 5 5 5 5 5 5 5 5 5 5 5 5 5 5 5 5 5 5 5 5 5 5 5 5 5 5 5 5 5 5 5 5 5 5 5 5 5 5 5 5 5 5 5 5 5 5 5 5 5 5 5 5 5 5 5 5 5 5 5 5 5 5 5 5 5 5 5 5 5 5 5 5 5 5 5 5 5 5 5 5 5 5 5 5 5 5 5 5 5 5 5 5 5 5 5 5 5 5 5 5 5 5 5 5 5 5 5 5 5 5 5 5 5 5 5 5 5 5 5 5 5 5 5 5 5 5 5 5 5 5 5 5 5 5 5 5 5 5 5 5 5 5 5 5 5 5 5 5 5 5 5 5 5 5 5 5 5 5 5 5 5 5 5 5 5 5 5 5 5 5 5 5 5 5 5 5 5 5 5 5 5 5 5 5 5 5 5 5 5 5 5 5 5 5 5 5 5 5 5 5 5 5 5 5 5 5 5 5 5 5 5 5 5 5 5 5 5 5 5 5 5 5 5 5 5 5 5 5 5 5 5 5 5 5 5 5 5 5 5 5 5 5 5 5 5 5 5 5 5 5 5 5 5 5 5 5 5 5 5 5 5 5 5 5 5 5 5 5 5 5 5 5 5 5 5 5 5 5 5 5 5 5 5 5 5 5 5 5 5 5 5 5 5 5 5 5 5 5 5 5 5 5 5 5 5 5 5 5 5 5 5 5 5 5 5 5 5 5 5 5 5 5 5 5 5 5 5 5 5 5 5 5 5 5 5 5 5 5 5 5 5 5 5 5 5 5 5 5 5 5 5 5 5 5 5 5 5 5 5 5 5 5 5 5 5 5 5 5 5 5 5 5 5 5 5 5 5 5 5 5 5 5 5 5 5 5 5 5 5 5 5 5 5 5 5 5 5 5 5 5 5 5 5 5 5 5 5 5 5 5 5 5 5 5 5 5 5 5 5 5 5 5 5 5 5 5 5 5 5 5 5 5 5 5 5 5 5 5 5 5 5 5 5 5 5 5 5 5 5 5 5 5 5 5 5 5 5 5 5 5 5 5 5 5 5 5 5 5 5 5 5 5 5 5 5 5 5 5 5 5 5 5 5 5 5 5 5 5 5 5 5 5 5 5 5 5 5 5 5 5 5 5 5 5 5 5 5 5 5 5 5 5 5 5 5 5 5 5 5 5 5 5 5 5 5 5 5 5 5 5 5 5 5 5 5 5 5 5 5 5 5 5 5 5 5 5 5 5 5 5 5 5 5 5 5 5 5 5 5 5 5 5 5 5 5 5 5 5 5 5 5 5 5 5 5 5 5 5 5 5 5 5 5 5 5 5 5 5 5 5 5 5 5 5 5 5 5 5 5 5 5 5 5 5 5 5 5 5 5 5 5 5 5 5 5 5 5 5 5 5 5 5 5 5 5 5 5 5 5 5 5 5 5 5 5 5 5 5 5 5 5 5 5 5 5 5 5 5 5 5 5 5 5 5 5 5 5 5 5 5 5 5 5 5 5 5 5 5 5 5 5 5 5 5 5 5 5 5 5 5 5 5 5 5 5 5 5 5 5 5 5 5 5 5 5 5 5 5 5 5 5 5 5 5 5 5 5 5 5 5 5 5 5 5 5 5 5 5 5 5 5 5 5 5 5 5 5 5 5 5 5 5 5 5 5 5 5 5 5 5 5 5 5 5 5 5 5 5 5 5 5 5 5 5 5 5 5 5 5 5 5 5 5 5 5 5 5 5 5 5 5 5 5 5 5 5 5 5 5 5 5 5 5 5 5 5 5 5 5 5 5 5 5 5 5 5 5 5 5 5 5 5 5 5 5 5 5 5 5 5 5 5 5 5 5 5 5 5 5 5 5 5 5 5 5 5 5 5 5 5 5 5 5 5 5 5 5 5 5 5 5 5 5 5 5 5 5 5 5 5 5 5 5 5 5 5 5 5 5 5 5 5 5 5 5 5 5 5 5 5 5 5 5 5 5 5 5 5 5 5 5 5 5 5 5 5 5 5 5 5 5 5 5 5 5 5 5 5 5 5 5 5 5 5 5 5 5 5 5 5 5 5 5 5 5 5 5 5 5 5 5 5 5 5 5 5 5 5 5 5 5 5 5 5 5 5 5 5 5 5 5 5 5 5 5 5 5 5 5 5 5 5 5 5 5 5 5 5 5 5 5 5 5 5 5 5 5 5 5 5 5 5 5 5 5 5 5 5 5 5 5 5 5 5 5 5 5 5 5 5 5 5 5 5 5 5 5 5 5 5 5 5 5 5 5 5 5 5 5 5 5 5 5 5 5 5 5 5 5 5 5 5 5 5 5 5 5 5 5 5 5 5 5 5 5 5 5 5 5 5 5 5 5 5 5 5 5 5 5 5 5 5 5 5 5 5 5 5 5 5 5 5 5 5 5 5 5 5 5 5 5 5 5 5 5 5 5 5 5 5 5 5 5 5 5 5 5 5 5 5 5 5 5 5 5 5 5 5 5 5 5 5 5 5 5 5 5 5 5 5 5 5 5 5 5 5 5 5 5 5 5 5 5 5 5 5 5 5 5 5 5 5 5 5 5 5 5 5 5 5 5 5 5 5 5 5 5 5 5 5 5 5 5 5 5 5 5 5 5 5 5 5 5 5 5 5 5 5 5 5 5 5 5 5 5 5 5 5 5 5 5 5 5 5 5 5 5 5 5 5 5 5 5 5 5 5 5 5 5 5 5 5 5 5 5 5 5 5 5 5 5 5 5 5 5 5 5 5 5 5 5 5 5 5 5 5 5 5 5 5 5 5 5 5 5 5 5 5 5 5 5 5 5 5 5 5 5 5 5 5 5 5 5 5 5 5 5 5 5 5 5 5 5 5 5 5 5 5 5 5 5 5 5 5 5 5 5 5 5 5 5 5 5 5 5 5 5 5 5 5 5 5 5 5 5 5 5 5 5 5 5 5 5 5 5 5 5 5 5 5 5 5 5 5 5 5 5 5 5 5 5 5 5 5 5 5 5 5 5 5 5 5 5 5 5 5 5 5 5 5 5 5 5 5 5 5 5 5 5 5 5 5 5 5 5 5 5 5 5 5 5 5 5 5 5 5 5 5 5 5 5 5 5 5 5 5 5 5 5 5 5 5 5 5 5 5 5 5 5 5 5 5 5 5 5 5 5 5 5 5 5 5 5 5 5 5 5 5 5 5 5 5 5 5 5 5 5 5 5 5 5 5 5 5 5 5 5 5 5 5 5 5 5 5 5 5 5 5 5 5 5 5 5 5 5 5 5 5 5 5 5 5 5 5 5 5 5 5 5 5 5 5 5 5 5 5 5 5 5 5 5 5 5 5 5 5 5 5 5 5 5 5 5 5 5 5 5 5 5 5 5 5 5 5 5 5 5 5 5 5 5 5 5 5 5 5 5 5 5 5 5 5 5 5 5 5 5 5 5 5 5 5 5 5 5 5 5 5 5 5 5 5 5 5 5 5 5 5 5 5 5 5 5 5 5 5 5 5 5 5 5 5 5 5 5 5 5 5 5 5 5 5 5 5 5 5 5 5 5 5 5 5 5 5 5 5 5 5 5 5 5 5 5 5 5 5 5 5 5 5 5 5 5 5 5 5 5 5 5 5 5 5 5 5 5 5 5 5 5 5 5 5 5 5 5 5 5 5 5 5 5 5 5 5 5 5 5 5 5 5 5 5 5 5 5 5 5 5 5 5 5 5 5 5 5 5 5 5 5 5 5 5 5 5 5 5 5 5 5 5 5 5 5 5 5 5 5 5 5 5 5 5 5 5 5 5 5 5 5 5 5 5 5 5 5 5 5 5 5 5 5 5 5 5 5 5 5 5 5 5 5 5 5 5 5 5 5 5 5 5 5 5 5 5 5 5 5 5 5 5 5 5 5 5 5 5 5 5 5 5 5 5 5 5 5 5 5 5 5 5 5 5 5 5 5 5 5 5 5 5 5 5 5 5 5 5 5 5 5 5 5 5 5 5 5 5 5 5 5 5 5 5 5 5 5 5 5 5 5 5 5 5 5 5 5 5 5 5 5 5 5 5 5 5 5 5 5 5 5 5 5 5 5 5 5 5 5 5 5 5 5 5 5 5 5 5 5 5 5 5 5 5 5 5 5 5 5 5 5 5 5 5 5 5 5 5 5 5 5 5 5 5 5 5 5 5 5 5 5 5 5 5 5 5 5 5 5 5 5 5 5 5 5 5 5 5 5 5 5 5 </DataArray>
</Cells>
<PointData  Scalars=" mean stress"> 
<DataArray  type="Float64"  Name=" mean stress"  format="ascii">9.8169937054615846e+04  1.0028887762380188e+05  4.6374993655659237e+04  4.6374986996095417e+04  5.0850859684196337e+04  3.6224066288027010e+04  3.1245105494979631e+04  2.8110270840050318e+04  2.5770415443788694e+04  2.3920730130350148e+04  2.2443012287951802e+04  2.1284014200442922e+04  2.0409480901000672e+04  1.9799179542341986e+04  1.9441295344102804e+04  1.9329983048795821e+04  1.9463960676342860e+04  1.9846192447255591e+04  2.0484656719451097e+04  2.1394447456991118e+04  2.2601650226555903e+04  2.4150003826418135e+04  2.6121276470687852e+04  2.8636280598160487e+04  3.2060697754302506e+04  3.7487722462302889e+04  4.3340516508895445e+04  5.4326793897473763e+04  4.3710987641609136e+04  4.0866021365851921e+04  3.9667638491867743e+04  3.9343776656755523e+04  3.9513438820852913e+04  3.9943484902120756e+04  4.0509575659051487e+04  4.1134587313415235e+04  4.1770147779172556e+04  4.2385766837362004e+04  4.2962701641322747e+04  4.3490235688774388e+04  4.3963217281765392e+04  4.4380352725624769e+04  4.4742976682372602e+04  4.5054147373885280e+04  4.5317976070487945e+04  4.5539132544908352e+04  4.5722485936058925e+04  4.5872850847720503e+04  4.5994815141530678e+04  4.6092630555935801e+04  4.6170150867213721e+04  4.6230805225149168e+04  4.6277596740815497e+04  4.6313118472437403e+04  4.6339580698555568e+04  4.6358844820943741e+04  4.6372460433634995e+04  4.6381703059493098e+04  4.6387610822369345e+04  4.6391018920383365e+04  4.6392591222975767e+04  4.6392848656172566e+04  4.6392194290871354e+04  4.6390935227780406e+04  4.6389301497910150e+04  4.6387462284715839e+04  4.6385539838572018e+04  4.6383621502851383e+04  4.6381770338820395e+04  4.6380034870400654e+04  4.6378458569330251e+04  4.6377090311974549e+04  4.6375991357880615e+04  4.6375260245732970e+04  4.6374926176168919e+04  4.6375067830909866e+04  4.6374824195901063e+04  4.6374288403922714e+04  4.6373487689853049e+04  4.6372535423340691e+04  4.6371528684856283e+04  4.6370550542390658e+04  4.6369667316702202e+04  4.6368930120987643e+04  4.6368376562048041e+04  4.6368032298308790e+04  4.6367912279920791e+04  4.6368021544252646e+04  4.6368355506403779e+04  4.6368899724353272e+04  4.6369629165365259e+04  4.6370507047337669e+04  4.6371483382614322e+04  4.6372493429040689e+04  4.6373456347109808e+04  4.6374275198631396e+04  4.6374840383452392e+04  4.6375050028377802e+04  4.6374934440546851e+04  4.6375249453198216e+04  4.6376021446441875e+04  4.6377140880990388e+04  4.6378524857352029e+04  4.6380113624443358e+04  4.6381861039659299e+04  4.6383724820249081e+04  4.6385656978570274e+04  4.6387594537963640e+04  4.6389449865986928e+04  4.6391100062467725e+04  4.6392374885819299e+04  4.6393042752554997e+04  4.6392794392092954e+04  4.6391223787163384e+04  4.6387806091383143e+04  4.6381872301530355e+04  4.6372580586793614e+04  4.6358884356236704e+04  4.6339497396637278e+04  4.6312856756780697e+04  4.6277084514048729e+04  4.6229950161681867e+04  4.6168836128707240e+04  4.6090709919693632e+04  4.5992107569653563e+04  4.5869134581296581e+04  4.5717492279945574e+04  4.5532539621163029e+04  4.5309402970248586e+04  4.5043149337657094e+04  4.4729042200273856e+04  4.4362903794924445e+04  4.3941614537202935e+04  4.3463790813432061e+04  4.2930700742380832e+04  4.2347510618981098e+04  4.1725017070528098e+04  4.1082172941097982e+04  4.0449829746063442e+04  3.9877226819879870e+04  3.9444380657221329e+04  3.9268469934047367e+04  3.9649216212568106e+04  4.0894622973119913e+04  4.3982675339535570e+04  6.6012024615520510e+04  5.5809343002748086e+04  5.1458775653070647e+04  4.6013949864671318e+04  4.3751515371251720e+04  4.2619250684092563e+04  4.2161278737247820e+04  4.2093543039207696e+04  4.2253132739751243e+04  4.2543578473637470e+04  4.2902495605240292e+04  4.3289302385656447e+04  4.3677480797327698e+04  4.4050028086932238e+04  4.4396543133072351e+04  4.4711254737855117e+04  4.4991636182645183e+04  4.5237403068775282e+04  4.5449776643455902e+04  4.5630939164530246e+04  4.5783632681058945e+04  4.5910867071057524e+04  4.6015712083502607e+04  4.6101154001591713e+04  4.6170001692868056e+04  4.6224829933579007e+04  4.6267950355292007e+04  4.6301402358061496e+04  4.6326957975655270e+04  4.6346136030975424e+04  4.6360222029354416e+04  4.6370291139223475e+04  4.6377232333848129e+04  4.6381772341361939e+04  4.6384498497557805e+04  4.6385879938815153e+04  4.6386286830562523e+04  4.6386007516751750e+04  4.6385263612741866e+04  4.6384223159091438e+04  4.6383012016969005e+04  4.6381723721750779e+04  4.6380428018830484e+04  4.6379178280924032e+04  4.6378017865371083e+04  4.6376985182489640e+04  4.6376117357452153e+04  4.6375443721480973e+04  4.6375022197288592e+04  4.5552439164530791e+04  4.7873366866750970e+04  4.6749808182086141e+04  4.5362141511018439e+04  4.4473067151557239e+04  4.3975371553824953e+04  4.3762424546990114e+04  4.3739961467550602e+04  4.3840226079894266e+04  4.4015453668009082e+04  4.4232092940547322e+04  4.4466832658517327e+04  4.4703736150747347e+04  4.4932223452343911e+04  4.5145616877708380e+04  4.5340072415828203e+04  4.5513782396301714e+04  4.5666374515945347e+04  4.5798457246097110e+04  4.5911276905383078e+04  4.6006461273300331e+04  4.6085830829429411e+04  4.6151262911051177e+04  4.6204597094041805e+04  4.6247572378967001e+04  4.6281788566838506e+04  4.6308685682651303e+04  4.6329536530740821e+04  4.6345448492933101e+04  4.6357371537369108e+04  4.6366110116783660e+04  4.6372337216561114e+04  4.6376609283307880e+04  4.6379381138553625e+04  4.6381020274459472e+04  4.6381820152714972e+04  4.6382012295404187e+04  4.6381777078386105e+04  4.6381253222002000e+04  4.6380546026276788e+04  4.6379734424278722e+04  4.6378876928230078e+04  4.6378016530060704e+04  4.6377184716876000e+04  4.6376404515536473e+04  4.6375696957569729e+04  4.6375093894760124e+04  4.6374685456281390e+04  3.8548893532887341e+04  4.2946524851895374e+04  4.4586810781815533e+04  4.4939511178887682e+04  4.4903585367944193e+04  4.4817869462438881e+04  4.4774792677664896e+04  4.4790521526618613e+04  4.4856333571626885e+04  4.4958016820872508e+04  4.5082007002782171e+04  4.5217158926428820e+04  4.5354988726163159e+04  4.5489393231695693e+04  4.5616234698864973e+04  4.5732927815525931e+04  4.5838074911440468e+04  4.5931160093169965e+04  4.6012300159878898e+04  4.6082045985874909e+04  4.6141227160430251e+04  4.6190832956301703e+04  4.6231923345604795e+04  4.6265564506681934e+04  4.6292783976934617e+04  4.6314541279342673e+04  4.6331710478483605e+04  4.6345071702296489e+04  4.6355309194206748e+04  4.6363013932718604e+04  4.6368689270063958e+04  4.6372758396367557e+04  4.6375572734141591e+04  4.6377420611940703e+04  4.6378535761822634e+04  4.6379105337640212e+04  4.6379277266684454e+04  4.6379166831073730e+04  4.6378862433303853e+04  4.6378430538409266e+04  4.6377919811572785e+04  4.6377364509918887e+04  4.6376787240387159e+04  4.6376201660808067e+04  4.6375616001948729e+04  4.6375041244445500e+04  4.6374517757040609e+04  4.6374147357963811e+04  3.4076537851406894e+04  3.8819419881642352e+04  4.1820102629816778e+04  4.3490554951968268e+04  4.4395814501869216e+04  4.4904002951441507e+04  4.5212564928861364e+04  4.5419066078812764e+04  4.5571288570355995e+04  4.5692536311132899e+04  4.5794252900358297e+04  4.5882120844477839e+04  4.5959038916850674e+04  4.6026583752944614e+04  4.6085727452543855e+04  4.6137186266722245e+04  4.6181584275152971e+04  4.6219523849978679e+04  4.6251609475337740e+04  4.6278449000031913e+04  4.6300644991724781e+04  4.6318782915103817e+04  4.6333419646309070e+04  4.6345074035483718e+04  4.6354220189652391e+04  4.6361283545091137e+04  4.6366639461868166e+04  4.6370613906881183e+04  4.6373485734974827e+04  4.6375490089694307e+04  4.6376822496906054e+04  4.6377643295329923e+04  4.6378082124059591e+04  4.6378242259083563e+04  4.6378204653850400e+04  4.6378031589852792e+04  4.6377769882415581e+04  4.6377453614745005e+04  4.6377106393090347e+04  4.6376743134235112e+04  4.6376371422440185e+04  4.6375992553512835e+04  4.6375602518870968e+04  4.6375193642904589e+04  4.6374758767961983e+04  4.6374299057839249e+04  4.6373849963723253e+04  4.6373491908035481e+04  3.0964304753476947e+04  3.5636310602338330e+04  3.9235782937938333e+04  4.1743331263659915e+04  4.3411284917315286e+04  4.4505408059523543e+04  4.5224179486071858e+04  4.5698880364618752e+04  4.6013076561807269e+04  4.6220025591073419e+04  4.6354266140279433e+04  4.6438731323783875e+04  4.6488999991076817e+04  4.6515854980230702e+04  4.6526858068968140e+04  4.6527350988371814e+04  4.6521114108250433e+04  4.6510814105416415e+04  4.6498316420096082e+04  4.6484907668461856e+04  4.6471456064107741e+04  4.6458528075274822e+04  4.6446473658603230e+04  4.6435488695633067e+04  4.6425660789425725e+04  4.6417002867270312e+04  4.6409477816166218e+04  4.6403016497515091e+04  4.6397530849793664e+04  4.6392923327338729e+04  4.6389093591651355e+04  4.6385943133457455e+04  4.6383378332111730e+04  4.6381312334077717e+04  4.6379666039872041e+04  4.6378368418957936e+04  4.6377356318116421e+04  4.6376573887419399e+04  4.6375971718762732e+04  4.6375505780767584e+04  4.6375136249062562e+04  4.6374826407373534e+04  4.6374541987341574e+04  4.6374251486621572e+04  4.6373929375384287e+04  4.6373561282750132e+04  4.6373161306861912e+04  4.6372767974317896e+04  2.8696007445165029e+04  3.3223837487223558e+04  3.7067453392448886e+04  4.0064745755273623e+04  4.2279335432973705e+04  4.3862425259966294e+04  4.4969471856081611e+04  4.5728826848824829e+04  4.6237741080520318e+04  4.6567505056665315e+04  4.6769909812652979e+04  4.6882602339028817e+04  4.6933024229034323e+04  4.6941200850871828e+04  4.6921712077758675e+04  4.6885103727831993e+04  4.6838917195437061e+04  4.6788453449365457e+04  4.6737347132908246e+04  4.6688001225512162e+04  4.6641917093522752e+04  4.6599944912467327e+04  4.6562472986021428e+04  4.6529570030263552e+04  4.6501091260177556e+04  4.6476756683138949e+04  4.6456208129979794e+04  4.6439050094464903e+04  4.6424878310797169e+04  4.6413299107742554e+04  4.6403941883275009e+04  4.6396466503067626e+04  4.6390567005758901e+04  4.6385972670207368e+04  4.6382447244609190e+04  4.6379786937637342e+04  4.6377817616326683e+04  4.6376391536399358e+04  4.6375383843773343e+04  4.6374689032940805e+04  4.6374217535888769e+04  4.6373892643992425e+04  4.6373648133397255e+04  4.6373426894440745e+04  4.6373181836331052e+04  4.6372877264934228e+04  4.6372496140194009e+04  4.6372027562034746e+04  2.6991441712090676e+04  3.1398787770870782e+04  3.5334454752029815e+04  3.8609476526668892e+04  4.1192209397834355e+04  4.3148607933021216e+04  4.4583588193290263e+04  4.5605244446319593e+04  4.6309093137708740e+04  4.6773748326746558e+04  4.7061606236503016e+04  4.7221197557799809e+04  4.7289765887329959e+04  4.7295573450492797e+04  4.7259819424333742e+04  4.7198191856339581e+04  4.7122109102470837e+04  4.7039707577912879e+04  4.6956624357166700e+04  4.6876614233214859e+04  4.6802033335782624e+04  4.6734215440071370e+04  4.6673762333963226e+04  4.6620765733060056e+04  4.6574975021054983e+04  4.6535922412290558e+04  4.6503014897879264e+04  4.6475600482963768e+04  4.6453014697545535e+04  4.6434612118863595e+04  4.6419786635265351e+04  4.6407983369729714e+04  4.6398704530645809e+04  4.6391510938207954e+04  4.6386020561340396e+04  4.6381905072916539e+04  4.6378885173639006e+04  4.6376725235445891e+04  4.6375227666045073e+04  4.6374227291042043e+04  4.6373585994086949e+04  4.6373187820476196e+04  4.6372934823222080e+04  4.6372743725990462e+04  4.6372543959169110e+04  4.6372275103598906e+04  4.6371886116454865e+04  4.6371319016743466e+04  2.5707936662708948e+04  3.0030693611271825e+04  3.3996859665516888e+04  3.7427971351348853e+04  4.0250301328941925e+04  4.2475856963334554e+04  4.4167456139474998e+04  4.5409064007767549e+04  4.6286880679598376e+04  4.6879672742813302e+04  4.7254954236127436e+04  4.7468340000667529e+04  4.7564392772040410e+04  4.7578053880151427e+04  4.7536201621741580e+04  4.7459127473779437e+04  4.7361844760844579e+04  4.7255205466678366e+04  4.7146829669193503e+04  4.7041864791718624e+04  4.6943596519115781e+04  4.6853933860140452e+04  4.6773789499364721e+04  4.6703374359688707e+04  4.6642422775019397e+04  4.6590362169935986e+04  4.6546438823543402e+04  4.6509809233680011e+04  4.6479604817347281e+04  4.6454976176254961e+04  4.6435121899673162e+04  4.6419305840065448e+04  4.6406865949792707e+04  4.6397217079176313e+04  4.6389849582194212e+04  4.6384325131986116e+04  4.6380270796496574e+04  4.6377372148523056e+04  4.6375365972369451e+04  4.6374032969553977e+04  4.6373190755959869e+04  4.6372687344887760e+04  4.6372395278498530e+04  4.6372206303714993e+04  4.6372026627650550e+04  4.6371770975021012e+04  4.6371356197494570e+04  4.6370684241885850e+04  2.4766581279943617e+04  2.9034780012911986e+04  3.3008241210751439e+04  3.6526711390092933e+04  3.9500577340603144e+04  4.1910823611848609e+04  4.3790289904180769e+04  4.5201905440008915e+04  4.6220760582496383e+04  4.6922245842722266e+04  4.7375389199928664e+04  4.7639854305285699e+04  4.7765184875296174e+04  4.7791285954951731e+04  4.7749494764906645e+04  4.7663859490649877e+04  4.7552416238602673e+04  4.7428359416139348e+04  4.7301061820753930e+04  4.7176934610983342e+04  4.7060134955982729e+04  4.6953137346786010e+04  4.6857187417685949e+04  4.6772657123879253e+04  4.6699318685885948e+04  4.6636552664188290e+04  4.6583503323599114e+04  4.6539192326641154e+04  4.6502599872057996e+04  4.6472720712139213e+04  4.6448601044652925e+04  4.6429361066861027e+04  4.6414206976288886e+04  4.6402435378891169e+04  4.6393432394714073e+04  4.6386669209565487e+04  4.6381695388538545e+04  4.6378130924094512e+04  4.6375657723077435e+04  4.6374011026316388e+04  4.6372971091773688e+04  4.6372355320307513e+04  4.6372010886774362e+04  4.6371807656336496e+04  4.6371631117943056e+04  4.6371373914723372e+04  4.6370925776637123e+04  4.6370157325896958e+04  2.4122206236690639e+04  2.8357941568372717e+04  3.2331119331598431e+04  3.5897271692464754e+04  3.8962302623710144e+04  4.1490771034427453e+04  4.3496519753883855e+04  4.5027179057955225e+04  4.6148362284388713e+04  4.6931330492077439e+04  4.7444820863732944e+04  4.7750486095292639e+04  4.7900928286970651e+04  4.7939383432566603e+04  4.7900335244194619e+04  4.7810572763024982e+04  4.7690392397310854e+04  4.7554775471869500e+04  4.7414456170160593e+04  4.7276845342745277e+04  4.7146804277171090e+04  4.7027277455758500e+04  4.6919800118150764e+04  4.6824898614186837e+04  4.6742401228149560e+04  4.6671675643885705e+04  4.6611807222130046e+04  4.6561730169293143e+04  4.6520321692144949e+04  4.6486467446659211e+04  4.6459105033014610e+04  4.6437250962327307e+04  4.6420015406906183e+04  4.6406608123294842e+04  4.6396338180253850e+04  4.6388609509381276e+04  4.6382913801449227e+04  4.6378821876958784e+04  4.6375974345851588e+04  4.6374072120054101e+04  4.6372867137322770e+04  4.6372153462816721e+04  4.6371758762534744e+04  4.6371535868866042e+04  4.6371354009302304e+04  4.6371088671316160e+04  4.6370609246073029e+04  4.6369764253286674e+04  2.3749185128531022e+04  2.7968390260355609e+04  3.1939724992243726e+04  3.5529034637007775e+04  3.8641836766787870e+04  4.1235143809967572e+04  4.3312626661493123e+04  4.4912903376664770e+04  4.6095444742043117e+04  4.6928391130083590e+04  4.7479729849952942e+04  4.7811892968519496e+04  4.7979065225922866e+04  4.8026354013395583e+04  4.7990087155390960e+04  4.7898703670462171e+04  4.7773886967265222e+04  4.7631731567256262e+04  4.7483830974016855e+04  4.7338235153326408e+04  4.7200261887619592e+04  4.7073165788637445e+04  4.6958678292059696e+04  4.6857435698103269e+04  4.6769312864259555e+04  4.6693679069906488e+04  4.6629590759628809e+04  4.6575933834351970e+04  4.6531526158850051e+04  4.6495189118720613e+04  4.6465795439375572e+04  4.6442299085420396e+04  4.6423751880183539e+04  4.6409310502776345e+04  4.6398236710770012e+04  4.6389892976610965e+04  4.6383735193098262e+04  4.6379303675586845e+04  4.6376213346593693e+04  4.6374143710671960e+04  4.6372828995167874e+04  4.6372048616602013e+04  4.6371617927588217e+04  4.6371378945857046e+04  4.6371190547355480e+04  4.6370917429378809e+04  4.6370416408408841e+04  4.6369523126703883e+04  2.3634525283206400e+04  2.7849418791440403e+04  3.1819352968141353e+04  3.5414346662561577e+04  3.8540432519657981e+04  4.1152842067085148e+04  4.3252270808364025e+04  4.4874469443342641e+04  4.6076794144184241e+04  4.6926189163441770e+04  4.7490225492677891e+04  4.7831457922800255e+04  4.8004501222026651e+04  4.8055025465530038e+04  4.8019939975760753e+04  4.7928219528271606e+04  4.7802007404124532e+04  4.7657773326732793e+04  4.7507404523122881e+04  4.7359172295359240e+04  4.7218554669410812e+04  4.7088916850619447e+04  4.6972061757108495e+04  4.6868667238166534e+04  4.6778627461916192e+04  4.6701315046441487e+04  4.6635778781745219e+04  4.6580889785343592e+04  4.6535446939006521e+04  4.6498250608500231e+04  4.6468152010354621e+04  4.6444084175389668e+04  4.6425079259676735e+04  4.6410275952160679e+04  4.6398919901399560e+04  4.6390359408980403e+04  4.6384038091053662e+04  4.6379485770810505e+04  4.6376308512593001e+04  4.6374178421647332e+04  4.6372823591568900e+04  4.6372018358933332e+04  4.6371573804938627e+04  4.6371328211950873e+04  4.6371136894992262e+04  4.6370860944597429e+04  4.6370352848486575e+04  4.6369444523254744e+04  2.3774731132848749e+04  2.7996180143192421e+04  3.1965344893649075e+04  3.5550350942244047e+04  3.8657827212929871e+04  4.1246044891073601e+04  4.3319317004312623e+04  4.4916511869360773e+04  4.6097043390719409e+04  4.6928846777260595e+04  4.7479660119220338e+04  4.7811691860709390e+04  4.7978953383700296e+04  4.8026430925658206e+04  4.7990375501421753e+04  4.7899182517009991e+04  4.7774514496799435e+04  4.7632459583266100e+04  4.7484613359902884e+04  4.7339032231625104e+04  4.7201042143037303e+04  4.7073906000964955e+04  4.6959362793772612e+04  4.6858055220464055e+04  4.6769863261041668e+04  4.6694160087254386e+04  4.6630004941107742e+04  4.6576285599052586e+04  4.6531821059366113e+04  4.6495433267726061e+04  4.6465995084597613e+04  4.6442460309192720e+04  4.6423880399753791e+04  4.6409411549278193e+04  4.6398314967601393e+04  4.6389952561042650e+04  4.6383779668108626e+04  4.6379336081888330e+04  4.6376236247765803e+04  4.6374159247313793e+04  4.6372838946118296e+04  4.6372054470833507e+04  4.6371620962635956e+04  4.6371380340745949e+04  4.6371191444304219e+04  4.6370919213597903e+04  4.6370420203146656e+04  4.6369531777952172e+04  2.4174959512950900e+04  2.8414702115892538e+04  3.2382607540267694e+04  3.5939361399862864e+04  3.8993249172037729e+04  4.1511377775405410e+04  4.3508810176030915e+04  4.5033562982474788e+04  4.6151009689502047e+04  4.6931933014425769e+04  4.7444551058736390e+04  4.7750069166684763e+04  4.7900754134180846e+04  4.7939614786923943e+04  4.7900994220701439e+04  4.7811604309517497e+04  4.7691706688182872e+04  4.7556274364334626e+04  4.7416048275752721e+04  4.7278453468990716e+04  4.7148368057217856e+04  4.7028753124833995e+04  4.6921158762163759e+04  4.6826123740412819e+04  4.6743486180507745e+04  4.6672621162032454e+04  4.6612619297250392e+04  4.6562418256694240e+04  4.6520897284427258e+04  4.6486942979773310e+04  4.6459493082196088e+04  4.6437563679376835e+04  4.6420264151418851e+04  4.6406803244390037e+04  4.6396488911240296e+04  4.6388723944030513e+04  4.6382998926768691e+04  4.6378883643113302e+04  4.6376017759514238e+04  4.6374101353343809e+04  4.6372885648392810e+04  4.6372164135907340e+04  4.6371764059802023e+04  4.6371538054466677e+04  4.6371355272795910e+04  4.6371091714713977e+04  4.6370616265730736e+04  4.6369781080207278e+04  2.4850114146813692e+04  2.9122890780631824e+04  3.3085795737557994e+04  3.6588018149427393e+04  3.9544011839943603e+04  4.1938583181564529e+04  4.3805999065506338e+04  4.5209455424778047e+04  4.6223440589936603e+04  4.6922464793346153e+04  4.7374728083062044e+04  4.7639240575426287e+04  4.7765077506869704e+04  4.7791842557415701e+04  4.7750694998669438e+04  4.7665591495332272e+04  4.7554532500208617e+04  4.7430710175461296e+04  4.7303513246575763e+04  4.7179376973027065e+04  4.7062484687176307e+04  4.6955335604791355e+04  4.6859196876348717e+04  4.6774458082613113e+04  4.6700905149040816e+04  4.6637928750493556e+04  4.6584680177058173e+04  4.6540185582508573e+04  4.6503427662121176e+04  4.6473402156067561e+04  4.6449155157415633e+04  4.6429806008322361e+04  4.6414559572479491e+04  4.6402710852115131e+04  4.6393644248592245e+04  4.6386829224672816e+04  4.6381813693148339e+04  4.6378216113015966e+04  4.6375717004986298e+04  4.6374050388572607e+04  4.6372995476746764e+04  4.6372368825848644e+04  4.6372016980195665e+04  4.6371809502906741e+04  4.6371631761716839e+04  4.6371377225389762e+04  4.6370934904201305e+04  4.6370181347428086e+04  2.5828185219098781e+04  3.0153549046468925e+04  3.4100316261497857e+04  3.7505804090678255e+04  4.0302025451710229e+04  4.2506518252619986e+04  4.4183258009212237e+04  4.5415560542960993e+04  4.6288311277239773e+04  4.6878936042116606e+04  4.7253787970767095e+04  4.7467673662818641e+04  4.7564614549718994e+04  4.7579225993238055e+04  4.7538210180455906e+04  4.7461778985268102e+04  4.7364925999761159e+04  4.7258516838240255e+04  4.7150201749649736e+04  4.7045164219643906e+04  4.6946725677439856e+04  4.6856827225969864e+04  4.6776408507790118e+04  4.6705701906699265e+04  4.6644458004482840e+04  4.6592115875824646e+04  4.6547929600197371e+04  4.6511060386788733e+04  4.6480641980693224e+04  4.6455825545753745e+04  4.6435808984274379e+04  4.6419854630195172e+04  4.6407298412184471e+04  4.6397552898791779e+04  4.6390106084438121e+04  4.6384517331104718e+04  4.6380411527208955e+04  4.6377472248253762e+04  4.6375434490315005e+04  4.6374077388811071e+04  4.6373217220462007e+04  4.6372700908436032e+04  4.6372400160658319e+04  4.6372206306687200e+04  4.6372025357736900e+04  4.6371773217431662e+04  4.6371365822875014e+04  4.6370713912618892e+04  2.7157840616663227e+04  3.1560070807052096e+04  3.5459827548106347e+04  3.8696683844108222e+04  4.1245252498885129e+04  4.3176360236260160e+04  4.4595227631195812e+04  4.5608213036764544e+04  4.6308102996731184e+04  4.6771727916332136e+04  4.7060097290124439e+04  4.7220868901675021e+04  4.7290775503422919e+04  4.7297795635147188e+04  4.7263001197691105e+04  4.7202041830832299e+04  4.7126348999769463e+04  4.7044097525039026e+04  4.6960972664416389e+04  4.6880777962160624e+04  4.6805913913613767e+04  4.6737751981187183e+04  4.6676924294873701e+04  4.6623545839103070e+04  4.6577382957216083e+04  4.6537979488086232e+04  4.6504749724395268e+04  4.6477045601797283e+04  4.6454204051092638e+04  4.6435579231790674e+04  4.6420563375719968e+04  4.6408599168330358e+04  4.6399185949877901e+04  4.6391881501269942e+04  4.6386300765911503e+04  4.6382112530177197e+04  4.6379034826094285e+04  4.6376829618309632e+04  4.6375297186420838e+04  4.6374270508913229e+04  4.6373609894456829e+04  4.6373198095936685e+04  4.6372936143886101e+04  4.6372740213665078e+04  4.6372539397914850e+04  4.6372274804250956e+04  4.6371894243067916e+04  4.6371352143280950e+04  2.8920654763841969e+04  3.3430785583630604e+04  3.7213440025039490e+04  4.0150994667325147e+04  4.2321402516366164e+04  4.3879539035329224e+04  4.4972531077447820e+04  4.5726189484290095e+04  4.6233836128981580e+04  4.6564499693550672e+04  4.6768724592377454e+04  4.6883369405784266e+04  4.6935526896047275e+04  4.6945059990493173e+04  4.6926515042325409e+04  4.6890465949490659e+04  4.6844512198368117e+04  4.6794022590473636e+04  4.6742698316983711e+04  4.6693001895859357e+04  4.6646484766044705e+04  4.6604037187708127e+04  4.6566078124863991e+04  4.6532698642756281e+04  4.6503769323029963e+04  4.6479019901034328e+04  4.6458097543401833e+04  4.6440608780873765e+04  4.6426149006195512e+04  4.6414322577272171e+04  4.6404755883304751e+04  4.6397105196855111e+04  4.6391060716268767e+04  4.6386347874734347e+04  4.6382726735098033e+04  4.6379990087261511e+04  4.6377960707019884e+04  4.6376488113282248e+04  4.6375445071695023e+04  4.6374724037931075e+04  4.6374233719549862e+04  4.6373895983977891e+04  4.6373643437212915e+04  4.6373418270199996e+04  4.6373172793223421e+04  4.6372873104645398e+04  4.6372500592269535e+04  4.6372061220696283e+04  3.1261537763336226e+04  3.5867663633884200e+04  3.9368319692580430e+04  4.1812550333616891e+04  4.3429078015742627e+04  4.4503403709345424e+04  4.5215861590485954e+04  4.5690195379995537e+04  4.6007183585651706e+04  4.6217400334411548e+04  4.6354779201806050e+04  4.6441792281213464e+04  4.6493946554606635e+04  4.6522052582451484e+04  4.6533760913958242e+04  4.6534519163511264e+04  4.6528212377688142e+04  4.6517601405749003e+04  4.6504631524590724e+04  4.6490654045204101e+04  4.6476587543466674e+04  4.6463036136195587e+04  4.6450376654467342e+04  4.6438823052402346e+04  4.6428474046087395e+04  4.6419348346108010e+04  4.6411410678685519e+04  4.6404590941185430e+04  4.6398798217934804e+04  4.6393930930668066e+04  4.6389884069630476e+04  4.6386554213000883e+04  4.6383842868691449e+04  4.6381658544451049e+04  4.6379917856529784e+04  4.6378545913496208e+04  4.6377476154684351e+04  4.6376649777952567e+04  4.6376014859592753e+04  4.6375525255019049e+04  4.6375139383233902e+04  4.6374819078224835e+04  4.6374528849552116e+04  4.6374236355575063e+04  4.6373915124240346e+04  4.6373552559948999e+04  4.6373160172243210e+04  4.6372798442132764e+04  3.4499527740481557e+04  3.9165730453463184e+04  4.1896517563073583e+04  4.3492957533101602e+04  4.4375600705464705e+04  4.4876991900580309e+04  4.5193775817647009e+04  4.5407085324281179e+04  4.5566405003540189e+04  4.5692988534150594e+04  4.5798604962861697e+04  4.5889071370683472e+04  4.5967548717432888e+04  4.6035853281371928e+04  4.6095165327587121e+04  4.6146373363306033e+04  4.6190239424581501e+04  4.6227473534216362e+04  4.6258761960541720e+04  4.6284772854879855e+04  4.6306151650809115e+04  4.6323512833170316e+04  4.6337431549050285e+04  4.6348436775647941e+04  4.6357006746837615e+04  4.6363566752611136e+04  4.6368489096578276e+04  4.6372094832164948e+04  4.6374656839274066e+04  4.6376403810784708e+04  4.6377524764362075e+04  4.6378173759904734e+04  4.6378474573068670e+04  4.6378525142114049e+04  4.6378401663110446e+04  4.6378162255809475e+04  4.6377850157553345e+04  4.6377496427566555e+04  4.6377122160412539e+04  4.6376740222539302e+04  4.6376356549068274e+04  4.6375971109460326e+04  4.6375578796672962e+04  4.6375171021683265e+04  4.6374739374641722e+04  4.6374286044081062e+04  4.6373842247765213e+04  4.6373514896333079e+04  3.8812730920224101e+04  4.3151449030011761e+04  4.4605345939169529e+04  4.4834492632226938e+04  4.4846943131563319e+04  4.4773587757191017e+04  4.4753931629162478e+04  4.4782980996256119e+04  4.4858153036421514e+04  4.4965608203953896e+04  4.5092940813358386e+04  4.5229755147871496e+04  4.5368104913389609e+04  4.5502273668998096e+04  4.5628399720164824e+04  4.5744095088510476e+04  4.5848101854627923e+04  4.5940001414641898e+04  4.6019976398825231e+04  4.6088620250071610e+04  4.6146788069404167e+04  4.6195482318347531e+04  4.6235767448028215e+04  4.6268708149890117e+04  4.6295326571989986e+04  4.6316574476092988e+04  4.6333316908862427e+04  4.6346324517389323e+04  4.6356272149096745e+04  4.6363741833325228e+04  4.6369228643499351e+04  4.6373148283869836e+04  4.6375845534380220e+04  4.6377602925017170e+04  4.6378649201161963e+04  4.6379167289941899e+04  4.6379301589564842e+04  4.6379164484820787e+04  4.6378842047341925e+04  4.6378398914662241e+04  4.6377882362710545e+04  4.6377325620255557e+04  4.6376750522767368e+04  4.6376169987208043e+04  4.6375591242396644e+04  4.6375024903366029e+04  4.6374505926018697e+04  4.6374158489674286e+04  4.7426490134951098e+04  4.7237120046234522e+04  4.6491916478541709e+04  4.5147884905196501e+04  4.4394859685406525e+04  4.3938842010124266e+04  4.3755028799954140e+04  4.3747461192833653e+04  4.3855534266298877e+04  4.4034381198500218e+04  4.4252123628549307e+04  4.4486481618292804e+04  4.4722149543520754e+04  4.4948949910898365e+04  4.5160463080114350e+04  4.5353009488879463e+04  4.5524883615738261e+04  4.5675773197696639e+04  4.5806318206566444e+04  4.5917777282024894e+04  4.6011777911273392e+04  4.6090132304398219e+04  4.6154704817903599e+04  4.6207319612530067e+04  4.6249699397218057e+04  4.6283427840100900e+04  4.6309929649693739e+04  4.6330463518240482e+04  4.6346124118132080e+04  4.6357850178740919e+04  4.6366436365810878e+04  4.6372547255449179e+04  4.6376732156310252e+04  4.6379439900711361e+04  4.6381033013123917e+04  4.6381800885098586e+04  4.6381971750948876e+04  4.6381723378770737e+04  4.6381192473917108e+04  4.6380482844304446e+04  4.6379672398117036e+04  4.6378819048711513e+04  4.6377965547177919e+04  4.6377143336666581e+04  4.6376375404251390e+04  4.6375680406768261e+04  4.6375085168574755e+04  4.6374678661064230e+04  5.8370491068778938e+04  4.9418943844119836e+04  4.5956275266779841e+04  4.3648080704590044e+04  4.2613396831083301e+04  4.2186466604321940e+04  4.2128875920089340e+04  4.2291841893400255e+04  4.2581390830284516e+04  4.2937493872385909e+04  4.3320610278123706e+04  4.3704816588477130e+04  4.4073450115279942e+04  4.4416298309632672e+04  4.4727687880865014e+04  4.5005133086119356e+04  4.5248354857493025e+04  4.5458557948797054e+04  4.5637895522778577e+04  4.5789074140024677e+04  4.5915065937075618e+04  4.6018903358346499e+04  4.6103537484047760e+04  4.6171745024559947e+04  4.6226072091163587e+04  4.6268805254346866e+04  4.6301962352748742e+04  4.6327297123447213e+04  4.6346313051663696e+04  4.6360282928580033e+04  4.6370271493967033e+04  4.6377159254430990e+04  4.6381666134737206e+04  4.6384374061871626e+04  4.6385747921456350e+04  4.6386154582025199e+04  4.6385879871939636e+04  4.6385143530160400e+04  4.6384112247814512e+04  4.6382910981994399e+04  4.6381632759326909e+04  4.6380347204090285e+04  4.6379107965253497e+04  4.6377959205391126e+04  4.6376940511048160e+04  4.6376089918270882e+04  4.6375442375617087e+04  4.6375017519569359e+04  </DataArray> 
</PointData> 
</Piece>
</UnstructuredGrid>
</VTKFile>