<?xml version="1.0"?>
<VTKFile type="UnstructuredGrid"  version="0.1"  >
<UnstructuredGrid>
<Piece  NumberOfPoints="1656" NumberOfCells="3000">
<Points>
<DataArray  type="Float64"  NumberOfComponents="3"  format="ascii">0 0 0  2 0 0  4 0 0  6 0 0  8 0 0  10 0 0  12 0 0  14 0 0  16 0 0  18 0 0  20 0 0  22 0 0  24 0 0  26 0 0  28 0 0  30 0 0  32 0 0  34 0 0  36 0 0  38 0 0  40 0 0  42 0 0  44 0 0  46 0 0  48 0 0  50 0 0  52 0 0  54 0 0  56 0 0  58 0 0  60 0 0  62 0 0  64 0 0  66 0 0  68 0 0  70 0 0  72 0 0  74 0 0  76 0 0  78 0 0  80 0 0  82 0 0  84 0 0  86 0 0  88 0 0  90 0 0  92 0 0  94 0 0  96 0 0  98 0 0  100 0 0  102 0 0  104 0 0  106 0 0  108 0 0  110 0 0  112 0 0  114 0 0  116 0 0  118 0 0  120 0 0  122 0 0  124 0 0  126 0 0  128 0 0  130 0 0  132 0 0  134 0 0  136 0 0  138 0 0  140 0 0  142 0 0  144 0 0  146 0 0  148 0 0  150 0 0  152 0 0  154 0 0  156 0 0  158 0 0  160 0 0  162 0 0  164 0 0  166 0 0  168 0 0  170 0 0  172 0 0  174 0 0  176 0 0  178 0 0  180 0 0  182 0 0  184 0 0  186 0 0  188 0 0  190 0 0  192 0 0  194 0 0  196 0 0  198 0 0  200 0 0  202 0 0  204 0 0  206 0 0  208 0 0  210 0 0  212 0 0  214 0 0  216 0 0  218 0 0  220 0 0  222 0 0  224 0 0  226 0 0  228 0 0  230 0 0  232 0 0  234 0 0  236 0 0  238 0 0  240 0 0  242 0 0  244 0 0  246 0 0  248 0 0  250 0 0  252 0 0  254 0 0  256 0 0  258 0 0  260 0 0  262 0 0  264 0 0  266 0 0  268 0 0  270 0 0  272 0 0  274 0 0  276 0 0  278 0 0  280 0 0  282 0 0  284 0 0  286 0 0  288 0 0  290 0 0  292 0 0  294 0 0  296 0 0  298 0 0  300 0 0  0 2 0  2 2 0  4 2 0  6 2 0  8 2 0  10 2 0  12 2 0  14 2 0  16 2 0  18 2 0  20 2 0  22 2 0  24 2 0  26 2 0  28 2 0  30 2 0  32 2 0  34 2 0  36 2 0  38 2 0  40 2 0  42 2 0  44 2 0  46 2 0  48 2 0  50 2 0  52 2 0  54 2 0  56 2 0  58 2 0  60 2 0  62 2 0  64 2 0  66 2 0  68 2 0  70 2 0  72 2 0  74 2 0  76 2 0  78 2 0  80 2 0  82 2 0  84 2 0  86 2 0  88 2 0  90 2 0  92 2 0  94 2 0  96 2 0  98 2 0  100 2 0  102 2 0  104 2 0  106 2 0  108 2 0  110 2 0  112 2 0  114 2 0  116 2 0  118 2 0  120 2 0  122 2 0  124 2 0  126 2 0  128 2 0  130 2 0  132 2 0  134 2 0  136 2 0  138 2 0  140 2 0  142 2 0  144 2 0  146 2 0  148 2 0  150 2 0  152 2 0  154 2 0  156 2 0  158 2 0  160 2 0  162 2 0  164 2 0  166 2 0  168 2 0  170 2 0  172 2 0  174 2 0  176 2 0  178 2 0  180 2 0  182 2 0  184 2 0  186 2 0  188 2 0  190 2 0  192 2 0  194 2 0  196 2 0  198 2 0  200 2 0  202 2 0  204 2 0  206 2 0  208 2 0  210 2 0  212 2 0  214 2 0  216 2 0  218 2 0  220 2 0  222 2 0  224 2 0  226 2 0  228 2 0  230 2 0  232 2 0  234 2 0  236 2 0  238 2 0  240 2 0  242 2 0  244 2 0  246 2 0  248 2 0  250 2 0  252 2 0  254 2 0  256 2 0  258 2 0  260 2 0  262 2 0  264 2 0  266 2 0  268 2 0  270 2 0  272 2 0  274 2 0  276 2 0  278 2 0  280 2 0  282 2 0  284 2 0  286 2 0  288 2 0  290 2 0  292 2 0  294 2 0  296 2 0  298 2 0  300 2 0  0 4 0  2 4 0  4 4 0  6 4 0  8 4 0  10 4 0  12 4 0  14 4 0  16 4 0  18 4 0  20 4 0  22 4 0  24 4 0  26 4 0  28 4 0  30 4 0  32 4 0  34 4 0  36 4 0  38 4 0  40 4 0  42 4 0  44 4 0  46 4 0  48 4 0  50 4 0  52 4 0  54 4 0  56 4 0  58 4 0  60 4 0  62 4 0  64 4 0  66 4 0  68 4 0  70 4 0  72 4 0  74 4 0  76 4 0  78 4 0  80 4 0  82 4 0  84 4 0  86 4 0  88 4 0  90 4 0  92 4 0  94 4 0  96 4 0  98 4 0  100 4 0  102 4 0  104 4 0  106 4 0  108 4 0  110 4 0  112 4 0  114 4 0  116 4 0  118 4 0  120 4 0  122 4 0  124 4 0  126 4 0  128 4 0  130 4 0  132 4 0  134 4 0  136 4 0  138 4 0  140 4 0  142 4 0  144 4 0  146 4 0  148 4 0  150 4 0  152 4 0  154 4 0  156 4 0  158 4 0  160 4 0  162 4 0  164 4 0  166 4 0  168 4 0  170 4 0  172 4 0  174 4 0  176 4 0  178 4 0  180 4 0  182 4 0  184 4 0  186 4 0  188 4 0  190 4 0  192 4 0  194 4 0  196 4 0  198 4 0  200 4 0  202 4 0  204 4 0  206 4 0  208 4 0  210 4 0  212 4 0  214 4 0  216 4 0  218 4 0  220 4 0  222 4 0  224 4 0  226 4 0  228 4 0  230 4 0  232 4 0  234 4 0  236 4 0  238 4 0  240 4 0  242 4 0  244 4 0  246 4 0  248 4 0  250 4 0  252 4 0  254 4 0  256 4 0  258 4 0  260 4 0  262 4 0  264 4 0  266 4 0  268 4 0  270 4 0  272 4 0  274 4 0  276 4 0  278 4 0  280 4 0  282 4 0  284 4 0  286 4 0  288 4 0  290 4 0  292 4 0  294 4 0  296 4 0  298 4 0  300 4 0  0 6 0  2 6 0  4 6 0  6 6 0  8 6 0  10 6 0  12 6 0  14 6 0  16 6 0  18 6 0  20 6 0  22 6 0  24 6 0  26 6 0  28 6 0  30 6 0  32 6 0  34 6 0  36 6 0  38 6 0  40 6 0  42 6 0  44 6 0  46 6 0  48 6 0  50 6 0  52 6 0  54 6 0  56 6 0  58 6 0  60 6 0  62 6 0  64 6 0  66 6 0  68 6 0  70 6 0  72 6 0  74 6 0  76 6 0  78 6 0  80 6 0  82 6 0  84 6 0  86 6 0  88 6 0  90 6 0  92 6 0  94 6 0  96 6 0  98 6 0  100 6 0  102 6 0  104 6 0  106 6 0  108 6 0  110 6 0  112 6 0  114 6 0  116 6 0  118 6 0  120 6 0  122 6 0  124 6 0  126 6 0  128 6 0  130 6 0  132 6 0  134 6 0  136 6 0  138 6 0  140 6 0  142 6 0  144 6 0  146 6 0  148 6 0  150 6 0  152 6 0  154 6 0  156 6 0  158 6 0  160 6 0  162 6 0  164 6 0  166 6 0  168 6 0  170 6 0  172 6 0  174 6 0  176 6 0  178 6 0  180 6 0  182 6 0  184 6 0  186 6 0  188 6 0  190 6 0  192 6 0  194 6 0  196 6 0  198 6 0  200 6 0  202 6 0  204 6 0  206 6 0  208 6 0  210 6 0  212 6 0  214 6 0  216 6 0  218 6 0  220 6 0  222 6 0  224 6 0  226 6 0  228 6 0  230 6 0  232 6 0  234 6 0  236 6 0  238 6 0  240 6 0  242 6 0  244 6 0  246 6 0  248 6 0  250 6 0  252 6 0  254 6 0  256 6 0  258 6 0  260 6 0  262 6 0  264 6 0  266 6 0  268 6 0  270 6 0  272 6 0  274 6 0  276 6 0  278 6 0  280 6 0  282 6 0  284 6 0  286 6 0  288 6 0  290 6 0  292 6 0  294 6 0  296 6 0  298 6 0  300 6 0  0 8 0  2 8 0  4 8 0  6 8 0  8 8 0  10 8 0  12 8 0  14 8 0  16 8 0  18 8 0  20 8 0  22 8 0  24 8 0  26 8 0  28 8 0  30 8 0  32 8 0  34 8 0  36 8 0  38 8 0  40 8 0  42 8 0  44 8 0  46 8 0  48 8 0  50 8 0  52 8 0  54 8 0  56 8 0  58 8 0  60 8 0  62 8 0  64 8 0  66 8 0  68 8 0  70 8 0  72 8 0  74 8 0  76 8 0  78 8 0  80 8 0  82 8 0  84 8 0  86 8 0  88 8 0  90 8 0  92 8 0  94 8 0  96 8 0  98 8 0  100 8 0  102 8 0  104 8 0  106 8 0  108 8 0  110 8 0  112 8 0  114 8 0  116 8 0  118 8 0  120 8 0  122 8 0  124 8 0  126 8 0  128 8 0  130 8 0  132 8 0  134 8 0  136 8 0  138 8 0  140 8 0  142 8 0  144 8 0  146 8 0  148 8 0  150 8 0  152 8 0  154 8 0  156 8 0  158 8 0  160 8 0  162 8 0  164 8 0  166 8 0  168 8 0  170 8 0  172 8 0  174 8 0  176 8 0  178 8 0  180 8 0  182 8 0  184 8 0  186 8 0  188 8 0  190 8 0  192 8 0  194 8 0  196 8 0  198 8 0  200 8 0  202 8 0  204 8 0  206 8 0  208 8 0  210 8 0  212 8 0  214 8 0  216 8 0  218 8 0  220 8 0  222 8 0  224 8 0  226 8 0  228 8 0  230 8 0  232 8 0  234 8 0  236 8 0  238 8 0  240 8 0  242 8 0  244 8 0  246 8 0  248 8 0  250 8 0  252 8 0  254 8 0  256 8 0  258 8 0  260 8 0  262 8 0  264 8 0  266 8 0  268 8 0  270 8 0  272 8 0  274 8 0  276 8 0  278 8 0  280 8 0  282 8 0  284 8 0  286 8 0  288 8 0  290 8 0  292 8 0  294 8 0  296 8 0  298 8 0  300 8 0  0 10 0  2 10 0  4 10 0  6 10 0  8 10 0  10 10 0  12 10 0  14 10 0  16 10 0  18 10 0  20 10 0  22 10 0  24 10 0  26 10 0  28 10 0  30 10 0  32 10 0  34 10 0  36 10 0  38 10 0  40 10 0  42 10 0  44 10 0  46 10 0  48 10 0  50 10 0  52 10 0  54 10 0  56 10 0  58 10 0  60 10 0  62 10 0  64 10 0  66 10 0  68 10 0  70 10 0  72 10 0  74 10 0  76 10 0  78 10 0  80 10 0  82 10 0  84 10 0  86 10 0  88 10 0  90 10 0  92 10 0  94 10 0  96 10 0  98 10 0  100 10 0  102 10 0  104 10 0  106 10 0  108 10 0  110 10 0  112 10 0  114 10 0  116 10 0  118 10 0  120 10 0  122 10 0  124 10 0  126 10 0  128 10 0  130 10 0  132 10 0  134 10 0  136 10 0  138 10 0  140 10 0  142 10 0  144 10 0  146 10 0  148 10 0  150 10 0  152 10 0  154 10 0  156 10 0  158 10 0  160 10 0  162 10 0  164 10 0  166 10 0  168 10 0  170 10 0  172 10 0  174 10 0  176 10 0  178 10 0  180 10 0  182 10 0  184 10 0  186 10 0  188 10 0  190 10 0  192 10 0  194 10 0  196 10 0  198 10 0  200 10 0  202 10 0  204 10 0  206 10 0  208 10 0  210 10 0  212 10 0  214 10 0  216 10 0  218 10 0  220 10 0  222 10 0  224 10 0  226 10 0  228 10 0  230 10 0  232 10 0  234 10 0  236 10 0  238 10 0  240 10 0  242 10 0  244 10 0  246 10 0  248 10 0  250 10 0  252 10 0  254 10 0  256 10 0  258 10 0  260 10 0  262 10 0  264 10 0  266 10 0  268 10 0  270 10 0  272 10 0  274 10 0  276 10 0  278 10 0  280 10 0  282 10 0  284 10 0  286 10 0  288 10 0  290 10 0  292 10 0  294 10 0  296 10 0  298 10 0  300 10 0  1 1 0  3 1 0  5 1 0  7 1 0  9 1 0  11 1 0  13 1 0  15 1 0  17 1 0  19 1 0  21 1 0  23 1 0  25 1 0  27 1 0  29 1 0  31 1 0  33 1 0  35 1 0  37 1 0  39 1 0  41 1 0  43 1 0  45 1 0  47 1 0  49 1 0  51 1 0  53 1 0  55 1 0  57 1 0  59 1 0  61 1 0  63 1 0  65 1 0  67 1 0  69 1 0  71 1 0  73 1 0  75 1 0  77 1 0  79 1 0  81 1 0  83 1 0  85 1 0  87 1 0  89 1 0  91 1 0  93 1 0  95 1 0  97 1 0  99 1 0  101 1 0  103 1 0  105 1 0  107 1 0  109 1 0  111 1 0  113 1 0  115 1 0  117 1 0  119 1 0  121 1 0  123 1 0  125 1 0  127 1 0  129 1 0  131 1 0  133 1 0  135 1 0  137 1 0  139 1 0  141 1 0  143 1 0  145 1 0  147 1 0  149 1 0  151 1 0  153 1 0  155 1 0  157 1 0  159 1 0  161 1 0  163 1 0  165 1 0  167 1 0  169 1 0  171 1 0  173 1 0  175 1 0  177 1 0  179 1 0  181 1 0  183 1 0  185 1 0  187 1 0  189 1 0  191 1 0  193 1 0  195 1 0  197 1 0  199 1 0  201 1 0  203 1 0  205 1 0  207 1 0  209 1 0  211 1 0  213 1 0  215 1 0  217 1 0  219 1 0  221 1 0  223 1 0  225 1 0  227 1 0  229 1 0  231 1 0  233 1 0  235 1 0  237 1 0  239 1 0  241 1 0  243 1 0  245 1 0  247 1 0  249 1 0  251 1 0  253 1 0  255 1 0  257 1 0  259 1 0  261 1 0  263 1 0  265 1 0  267 1 0  269 1 0  271 1 0  273 1 0  275 1 0  277 1 0  279 1 0  281 1 0  283 1 0  285 1 0  287 1 0  289 1 0  291 1 0  293 1 0  295 1 0  297 1 0  299 1 0  1 3 0  3 3 0  5 3 0  7 3 0  9 3 0  11 3 0  13 3 0  15 3 0  17 3 0  19 3 0  21 3 0  23 3 0  25 3 0  27 3 0  29 3 0  31 3 0  33 3 0  35 3 0  37 3 0  39 3 0  41 3 0  43 3 0  45 3 0  47 3 0  49 3 0  51 3 0  53 3 0  55 3 0  57 3 0  59 3 0  61 3 0  63 3 0  65 3 0  67 3 0  69 3 0  71 3 0  73 3 0  75 3 0  77 3 0  79 3 0  81 3 0  83 3 0  85 3 0  87 3 0  89 3 0  91 3 0  93 3 0  95 3 0  97 3 0  99 3 0  101 3 0  103 3 0  105 3 0  107 3 0  109 3 0  111 3 0  113 3 0  115 3 0  117 3 0  119 3 0  121 3 0  123 3 0  125 3 0  127 3 0  129 3 0  131 3 0  133 3 0  135 3 0  137 3 0  139 3 0  141 3 0  143 3 0  145 3 0  147 3 0  149 3 0  151 3 0  153 3 0  155 3 0  157 3 0  159 3 0  161 3 0  163 3 0  165 3 0  167 3 0  169 3 0  171 3 0  173 3 0  175 3 0  177 3 0  179 3 0  181 3 0  183 3 0  185 3 0  187 3 0  189 3 0  191 3 0  193 3 0  195 3 0  197 3 0  199 3 0  201 3 0  203 3 0  205 3 0  207 3 0  209 3 0  211 3 0  213 3 0  215 3 0  217 3 0  219 3 0  221 3 0  223 3 0  225 3 0  227 3 0  229 3 0  231 3 0  233 3 0  235 3 0  237 3 0  239 3 0  241 3 0  243 3 0  245 3 0  247 3 0  249 3 0  251 3 0  253 3 0  255 3 0  257 3 0  259 3 0  261 3 0  263 3 0  265 3 0  267 3 0  269 3 0  271 3 0  273 3 0  275 3 0  277 3 0  279 3 0  281 3 0  283 3 0  285 3 0  287 3 0  289 3 0  291 3 0  293 3 0  295 3 0  297 3 0  299 3 0  1 5 0  3 5 0  5 5 0  7 5 0  9 5 0  11 5 0  13 5 0  15 5 0  17 5 0  19 5 0  21 5 0  23 5 0  25 5 0  27 5 0  29 5 0  31 5 0  33 5 0  35 5 0  37 5 0  39 5 0  41 5 0  43 5 0  45 5 0  47 5 0  49 5 0  51 5 0  53 5 0  55 5 0  57 5 0  59 5 0  61 5 0  63 5 0  65 5 0  67 5 0  69 5 0  71 5 0  73 5 0  75 5 0  77 5 0  79 5 0  81 5 0  83 5 0  85 5 0  87 5 0  89 5 0  91 5 0  93 5 0  95 5 0  97 5 0  99 5 0  101 5 0  103 5 0  105 5 0  107 5 0  109 5 0  111 5 0  113 5 0  115 5 0  117 5 0  119 5 0  121 5 0  123 5 0  125 5 0  127 5 0  129 5 0  131 5 0  133 5 0  135 5 0  137 5 0  139 5 0  141 5 0  143 5 0  145 5 0  147 5 0  149 5 0  151 5 0  153 5 0  155 5 0  157 5 0  159 5 0  161 5 0  163 5 0  165 5 0  167 5 0  169 5 0  171 5 0  173 5 0  175 5 0  177 5 0  179 5 0  181 5 0  183 5 0  185 5 0  187 5 0  189 5 0  191 5 0  193 5 0  195 5 0  197 5 0  199 5 0  201 5 0  203 5 0  205 5 0  207 5 0  209 5 0  211 5 0  213 5 0  215 5 0  217 5 0  219 5 0  221 5 0  223 5 0  225 5 0  227 5 0  229 5 0  231 5 0  233 5 0  235 5 0  237 5 0  239 5 0  241 5 0  243 5 0  245 5 0  247 5 0  249 5 0  251 5 0  253 5 0  255 5 0  257 5 0  259 5 0  261 5 0  263 5 0  265 5 0  267 5 0  269 5 0  271 5 0  273 5 0  275 5 0  277 5 0  279 5 0  281 5 0  283 5 0  285 5 0  287 5 0  289 5 0  291 5 0  293 5 0  295 5 0  297 5 0  299 5 0  1 7 0  3 7 0  5 7 0  7 7 0  9 7 0  11 7 0  13 7 0  15 7 0  17 7 0  19 7 0  21 7 0  23 7 0  25 7 0  27 7 0  29 7 0  31 7 0  33 7 0  35 7 0  37 7 0  39 7 0  41 7 0  43 7 0  45 7 0  47 7 0  49 7 0  51 7 0  53 7 0  55 7 0  57 7 0  59 7 0  61 7 0  63 7 0  65 7 0  67 7 0  69 7 0  71 7 0  73 7 0  75 7 0  77 7 0  79 7 0  81 7 0  83 7 0  85 7 0  87 7 0  89 7 0  91 7 0  93 7 0  95 7 0  97 7 0  99 7 0  101 7 0  103 7 0  105 7 0  107 7 0  109 7 0  111 7 0  113 7 0  115 7 0  117 7 0  119 7 0  121 7 0  123 7 0  125 7 0  127 7 0  129 7 0  131 7 0  133 7 0  135 7 0  137 7 0  139 7 0  141 7 0  143 7 0  145 7 0  147 7 0  149 7 0  151 7 0  153 7 0  155 7 0  157 7 0  159 7 0  161 7 0  163 7 0  165 7 0  167 7 0  169 7 0  171 7 0  173 7 0  175 7 0  177 7 0  179 7 0  181 7 0  183 7 0  185 7 0  187 7 0  189 7 0  191 7 0  193 7 0  195 7 0  197 7 0  199 7 0  201 7 0  203 7 0  205 7 0  207 7 0  209 7 0  211 7 0  213 7 0  215 7 0  217 7 0  219 7 0  221 7 0  223 7 0  225 7 0  227 7 0  229 7 0  231 7 0  233 7 0  235 7 0  237 7 0  239 7 0  241 7 0  243 7 0  245 7 0  247 7 0  249 7 0  251 7 0  253 7 0  255 7 0  257 7 0  259 7 0  261 7 0  263 7 0  265 7 0  267 7 0  269 7 0  271 7 0  273 7 0  275 7 0  277 7 0  279 7 0  281 7 0  283 7 0  285 7 0  287 7 0  289 7 0  291 7 0  293 7 0  295 7 0  297 7 0  299 7 0  1 9 0  3 9 0  5 9 0  7 9 0  9 9 0  11 9 0  13 9 0  15 9 0  17 9 0  19 9 0  21 9 0  23 9 0  25 9 0  27 9 0  29 9 0  31 9 0  33 9 0  35 9 0  37 9 0  39 9 0  41 9 0  43 9 0  45 9 0  47 9 0  49 9 0  51 9 0  53 9 0  55 9 0  57 9 0  59 9 0  61 9 0  63 9 0  65 9 0  67 9 0  69 9 0  71 9 0  73 9 0  75 9 0  77 9 0  79 9 0  81 9 0  83 9 0  85 9 0  87 9 0  89 9 0  91 9 0  93 9 0  95 9 0  97 9 0  99 9 0  101 9 0  103 9 0  105 9 0  107 9 0  109 9 0  111 9 0  113 9 0  115 9 0  117 9 0  119 9 0  121 9 0  123 9 0  125 9 0  127 9 0  129 9 0  131 9 0  133 9 0  135 9 0  137 9 0  139 9 0  141 9 0  143 9 0  145 9 0  147 9 0  149 9 0  151 9 0  153 9 0  155 9 0  157 9 0  159 9 0  161 9 0  163 9 0  165 9 0  167 9 0  169 9 0  171 9 0  173 9 0  175 9 0  177 9 0  179 9 0  181 9 0  183 9 0  185 9 0  187 9 0  189 9 0  191 9 0  193 9 0  195 9 0  197 9 0  199 9 0  201 9 0  203 9 0  205 9 0  207 9 0  209 9 0  211 9 0  213 9 0  215 9 0  217 9 0  219 9 0  221 9 0  223 9 0  225 9 0  227 9 0  229 9 0  231 9 0  233 9 0  235 9 0  237 9 0  239 9 0  241 9 0  243 9 0  245 9 0  247 9 0  249 9 0  251 9 0  253 9 0  255 9 0  257 9 0  259 9 0  261 9 0  263 9 0  265 9 0  267 9 0  269 9 0  271 9 0  273 9 0  275 9 0  277 9 0  279 9 0  281 9 0  283 9 0  285 9 0  287 9 0  289 9 0  291 9 0  293 9 0  295 9 0  297 9 0  299 9 0  </DataArray>
</Points>
<Cells>
<DataArray  type="UInt32"  Name="connectivity"  format="ascii">0 1 906  0 151 906  1 152 906  151 152 906  1 2 907  1 152 907  2 153 907  152 153 907  2 3 908  2 153 908  3 154 908  153 154 908  3 4 909  3 154 909  4 155 909  154 155 909  4 5 910  4 155 910  5 156 910  155 156 910  5 6 911  5 156 911  6 157 911  156 157 911  6 7 912  6 157 912  7 158 912  157 158 912  7 8 913  7 158 913  8 159 913  158 159 913  8 9 914  8 159 914  9 160 914  159 160 914  9 10 915  9 160 915  10 161 915  160 161 915  10 11 916  10 161 916  11 162 916  161 162 916  11 12 917  11 162 917  12 163 917  162 163 917  12 13 918  12 163 918  13 164 918  163 164 918  13 14 919  13 164 919  14 165 919  164 165 919  14 15 920  14 165 920  15 166 920  165 166 920  15 16 921  15 166 921  16 167 921  166 167 921  16 17 922  16 167 922  17 168 922  167 168 922  17 18 923  17 168 923  18 169 923  168 169 923  18 19 924  18 169 924  19 170 924  169 170 924  19 20 925  19 170 925  20 171 925  170 171 925  20 21 926  20 171 926  21 172 926  171 172 926  21 22 927  21 172 927  22 173 927  172 173 927  22 23 928  22 173 928  23 174 928  173 174 928  23 24 929  23 174 929  24 175 929  174 175 929  24 25 930  24 175 930  25 176 930  175 176 930  25 26 931  25 176 931  26 177 931  176 177 931  26 27 932  26 177 932  27 178 932  177 178 932  27 28 933  27 178 933  28 179 933  178 179 933  28 29 934  28 179 934  29 180 934  179 180 934  29 30 935  29 180 935  30 181 935  180 181 935  30 31 936  30 181 936  31 182 936  181 182 936  31 32 937  31 182 937  32 183 937  182 183 937  32 33 938  32 183 938  33 184 938  183 184 938  33 34 939  33 184 939  34 185 939  184 185 939  34 35 940  34 185 940  35 186 940  185 186 940  35 36 941  35 186 941  36 187 941  186 187 941  36 37 942  36 187 942  37 188 942  187 188 942  37 38 943  37 188 943  38 189 943  188 189 943  38 39 944  38 189 944  39 190 944  189 190 944  39 40 945  39 190 945  40 191 945  190 191 945  40 41 946  40 191 946  41 192 946  191 192 946  41 42 947  41 192 947  42 193 947  192 193 947  42 43 948  42 193 948  43 194 948  193 194 948  43 44 949  43 194 949  44 195 949  194 195 949  44 45 950  44 195 950  45 196 950  195 196 950  45 46 951  45 196 951  46 197 951  196 197 951  46 47 952  46 197 952  47 198 952  197 198 952  47 48 953  47 198 953  48 199 953  198 199 953  48 49 954  48 199 954  49 200 954  199 200 954  49 50 955  49 200 955  50 201 955  200 201 955  50 51 956  50 201 956  51 202 956  201 202 956  51 52 957  51 202 957  52 203 957  202 203 957  52 53 958  52 203 958  53 204 958  203 204 958  53 54 959  53 204 959  54 205 959  204 205 959  54 55 960  54 205 960  55 206 960  205 206 960  55 56 961  55 206 961  56 207 961  206 207 961  56 57 962  56 207 962  57 208 962  207 208 962  57 58 963  57 208 963  58 209 963  208 209 963  58 59 964  58 209 964  59 210 964  209 210 964  59 60 965  59 210 965  60 211 965  210 211 965  60 61 966  60 211 966  61 212 966  211 212 966  61 62 967  61 212 967  62 213 967  212 213 967  62 63 968  62 213 968  63 214 968  213 214 968  63 64 969  63 214 969  64 215 969  214 215 969  64 65 970  64 215 970  65 216 970  215 216 970  65 66 971  65 216 971  66 217 971  216 217 971  66 67 972  66 217 972  67 218 972  217 218 972  67 68 973  67 218 973  68 219 973  218 219 973  68 69 974  68 219 974  69 220 974  219 220 974  69 70 975  69 220 975  70 221 975  220 221 975  70 71 976  70 221 976  71 222 976  221 222 976  71 72 977  71 222 977  72 223 977  222 223 977  72 73 978  72 223 978  73 224 978  223 224 978  73 74 979  73 224 979  74 225 979  224 225 979  74 75 980  74 225 980  75 226 980  225 226 980  75 76 981  75 226 981  76 227 981  226 227 981  76 77 982  76 227 982  77 228 982  227 228 982  77 78 983  77 228 983  78 229 983  228 229 983  78 79 984  78 229 984  79 230 984  229 230 984  79 80 985  79 230 985  80 231 985  230 231 985  80 81 986  80 231 986  81 232 986  231 232 986  81 82 987  81 232 987  82 233 987  232 233 987  82 83 988  82 233 988  83 234 988  233 234 988  83 84 989  83 234 989  84 235 989  234 235 989  84 85 990  84 235 990  85 236 990  235 236 990  85 86 991  85 236 991  86 237 991  236 237 991  86 87 992  86 237 992  87 238 992  237 238 992  87 88 993  87 238 993  88 239 993  238 239 993  88 89 994  88 239 994  89 240 994  239 240 994  89 90 995  89 240 995  90 241 995  240 241 995  90 91 996  90 241 996  91 242 996  241 242 996  91 92 997  91 242 997  92 243 997  242 243 997  92 93 998  92 243 998  93 244 998  243 244 998  93 94 999  93 244 999  94 245 999  244 245 999  94 95 1000  94 245 1000  95 246 1000  245 246 1000  95 96 1001  95 246 1001  96 247 1001  246 247 1001  96 97 1002  96 247 1002  97 248 1002  247 248 1002  97 98 1003  97 248 1003  98 249 1003  248 249 1003  98 99 1004  98 249 1004  99 250 1004  249 250 1004  99 100 1005  99 250 1005  100 251 1005  250 251 1005  100 101 1006  100 251 1006  101 252 1006  251 252 1006  101 102 1007  101 252 1007  102 253 1007  252 253 1007  102 103 1008  102 253 1008  103 254 1008  253 254 1008  103 104 1009  103 254 1009  104 255 1009  254 255 1009  104 105 1010  104 255 1010  105 256 1010  255 256 1010  105 106 1011  105 256 1011  106 257 1011  256 257 1011  106 107 1012  106 257 1012  107 258 1012  257 258 1012  107 108 1013  107 258 1013  108 259 1013  258 259 1013  108 109 1014  108 259 1014  109 260 1014  259 260 1014  109 110 1015  109 260 1015  110 261 1015  260 261 1015  110 111 1016  110 261 1016  111 262 1016  261 262 1016  111 112 1017  111 262 1017  112 263 1017  262 263 1017  112 113 1018  112 263 1018  113 264 1018  263 264 1018  113 114 1019  113 264 1019  114 265 1019  264 265 1019  114 115 1020  114 265 1020  115 266 1020  265 266 1020  115 116 1021  115 266 1021  116 267 1021  266 267 1021  116 117 1022  116 267 1022  117 268 1022  267 268 1022  117 118 1023  117 268 1023  118 269 1023  268 269 1023  118 119 1024  118 269 1024  119 270 1024  269 270 1024  119 120 1025  119 270 1025  120 271 1025  270 271 1025  120 121 1026  120 271 1026  121 272 1026  271 272 1026  121 122 1027  121 272 1027  122 273 1027  272 273 1027  122 123 1028  122 273 1028  123 274 1028  273 274 1028  123 124 1029  123 274 1029  124 275 1029  274 275 1029  124 125 1030  124 275 1030  125 276 1030  275 276 1030  125 126 1031  125 276 1031  126 277 1031  276 277 1031  126 127 1032  126 277 1032  127 278 1032  277 278 1032  127 128 1033  127 278 1033  128 279 1033  278 279 1033  128 129 1034  128 279 1034  129 280 1034  279 280 1034  129 130 1035  129 280 1035  130 281 1035  280 281 1035  130 131 1036  130 281 1036  131 282 1036  281 282 1036  131 132 1037  131 282 1037  132 283 1037  282 283 1037  132 133 1038  132 283 1038  133 284 1038  283 284 1038  133 134 1039  133 284 1039  134 285 1039  284 285 1039  134 135 1040  134 285 1040  135 286 1040  285 286 1040  135 136 1041  135 286 1041  136 287 1041  286 287 1041  136 137 1042  136 287 1042  137 288 1042  287 288 1042  137 138 1043  137 288 1043  138 289 1043  288 289 1043  138 139 1044  138 289 1044  139 290 1044  289 290 1044  139 140 1045  139 290 1045  140 291 1045  290 291 1045  140 141 1046  140 291 1046  141 292 1046  291 292 1046  141 142 1047  141 292 1047  142 293 1047  292 293 1047  142 143 1048  142 293 1048  143 294 1048  293 294 1048  143 144 1049  143 294 1049  144 295 1049  294 295 1049  144 145 1050  144 295 1050  145 296 1050  295 296 1050  145 146 1051  145 296 1051  146 297 1051  296 297 1051  146 147 1052  146 297 1052  147 298 1052  297 298 1052  147 148 1053  147 298 1053  148 299 1053  298 299 1053  148 149 1054  148 299 1054  149 300 1054  299 300 1054  149 150 1055  149 300 1055  150 301 1055  300 301 1055  151 152 1056  151 302 1056  152 303 1056  302 303 1056  152 153 1057  152 303 1057  153 304 1057  303 304 1057  153 154 1058  153 304 1058  154 305 1058  304 305 1058  154 155 1059  154 305 1059  155 306 1059  305 306 1059  155 156 1060  155 306 1060  156 307 1060  306 307 1060  156 157 1061  156 307 1061  157 308 1061  307 308 1061  157 158 1062  157 308 1062  158 309 1062  308 309 1062  158 159 1063  158 309 1063  159 310 1063  309 310 1063  159 160 1064  159 310 1064  160 311 1064  310 311 1064  160 161 1065  160 311 1065  161 312 1065  311 312 1065  161 162 1066  161 312 1066  162 313 1066  312 313 1066  162 163 1067  162 313 1067  163 314 1067  313 314 1067  163 164 1068  163 314 1068  164 315 1068  314 315 1068  164 165 1069  164 315 1069  165 316 1069  315 316 1069  165 166 1070  165 316 1070  166 317 1070  316 317 1070  166 167 1071  166 317 1071  167 318 1071  317 318 1071  167 168 1072  167 318 1072  168 319 1072  318 319 1072  168 169 1073  168 319 1073  169 320 1073  319 320 1073  169 170 1074  169 320 1074  170 321 1074  320 321 1074  170 171 1075  170 321 1075  171 322 1075  321 322 1075  171 172 1076  171 322 1076  172 323 1076  322 323 1076  172 173 1077  172 323 1077  173 324 1077  323 324 1077  173 174 1078  173 324 1078  174 325 1078  324 325 1078  174 175 1079  174 325 1079  175 326 1079  325 326 1079  175 176 1080  175 326 1080  176 327 1080  326 327 1080  176 177 1081  176 327 1081  177 328 1081  327 328 1081  177 178 1082  177 328 1082  178 329 1082  328 329 1082  178 179 1083  178 329 1083  179 330 1083  329 330 1083  179 180 1084  179 330 1084  180 331 1084  330 331 1084  180 181 1085  180 331 1085  181 332 1085  331 332 1085  181 182 1086  181 332 1086  182 333 1086  332 333 1086  182 183 1087  182 333 1087  183 334 1087  333 334 1087  183 184 1088  183 334 1088  184 335 1088  334 335 1088  184 185 1089  184 335 1089  185 336 1089  335 336 1089  185 186 1090  185 336 1090  186 337 1090  336 337 1090  186 187 1091  186 337 1091  187 338 1091  337 338 1091  187 188 1092  187 338 1092  188 339 1092  338 339 1092  188 189 1093  188 339 1093  189 340 1093  339 340 1093  189 190 1094  189 340 1094  190 341 1094  340 341 1094  190 191 1095  190 341 1095  191 342 1095  341 342 1095  191 192 1096  191 342 1096  192 343 1096  342 343 1096  192 193 1097  192 343 1097  193 344 1097  343 344 1097  193 194 1098  193 344 1098  194 345 1098  344 345 1098  194 195 1099  194 345 1099  195 346 1099  345 346 1099  195 196 1100  195 346 1100  196 347 1100  346 347 1100  196 197 1101  196 347 1101  197 348 1101  347 348 1101  197 198 1102  197 348 1102  198 349 1102  348 349 1102  198 199 1103  198 349 1103  199 350 1103  349 350 1103  199 200 1104  199 350 1104  200 351 1104  350 351 1104  200 201 1105  200 351 1105  201 352 1105  351 352 1105  201 202 1106  201 352 1106  202 353 1106  352 353 1106  202 203 1107  202 353 1107  203 354 1107  353 354 1107  203 204 1108  203 354 1108  204 355 1108  354 355 1108  204 205 1109  204 355 1109  205 356 1109  355 356 1109  205 206 1110  205 356 1110  206 357 1110  356 357 1110  206 207 1111  206 357 1111  207 358 1111  357 358 1111  207 208 1112  207 358 1112  208 359 1112  358 359 1112  208 209 1113  208 359 1113  209 360 1113  359 360 1113  209 210 1114  209 360 1114  210 361 1114  360 361 1114  210 211 1115  210 361 1115  211 362 1115  361 362 1115  211 212 1116  211 362 1116  212 363 1116  362 363 1116  212 213 1117  212 363 1117  213 364 1117  363 364 1117  213 214 1118  213 364 1118  214 365 1118  364 365 1118  214 215 1119  214 365 1119  215 366 1119  365 366 1119  215 216 1120  215 366 1120  216 367 1120  366 367 1120  216 217 1121  216 367 1121  217 368 1121  367 368 1121  217 218 1122  217 368 1122  218 369 1122  368 369 1122  218 219 1123  218 369 1123  219 370 1123  369 370 1123  219 220 1124  219 370 1124  220 371 1124  370 371 1124  220 221 1125  220 371 1125  221 372 1125  371 372 1125  221 222 1126  221 372 1126  222 373 1126  372 373 1126  222 223 1127  222 373 1127  223 374 1127  373 374 1127  223 224 1128  223 374 1128  224 375 1128  374 375 1128  224 225 1129  224 375 1129  225 376 1129  375 376 1129  225 226 1130  225 376 1130  226 377 1130  376 377 1130  226 227 1131  226 377 1131  227 378 1131  377 378 1131  227 228 1132  227 378 1132  228 379 1132  378 379 1132  228 229 1133  228 379 1133  229 380 1133  379 380 1133  229 230 1134  229 380 1134  230 381 1134  380 381 1134  230 231 1135  230 381 1135  231 382 1135  381 382 1135  231 232 1136  231 382 1136  232 383 1136  382 383 1136  232 233 1137  232 383 1137  233 384 1137  383 384 1137  233 234 1138  233 384 1138  234 385 1138  384 385 1138  234 235 1139  234 385 1139  235 386 1139  385 386 1139  235 236 1140  235 386 1140  236 387 1140  386 387 1140  236 237 1141  236 387 1141  237 388 1141  387 388 1141  237 238 1142  237 388 1142  238 389 1142  388 389 1142  238 239 1143  238 389 1143  239 390 1143  389 390 1143  239 240 1144  239 390 1144  240 391 1144  390 391 1144  240 241 1145  240 391 1145  241 392 1145  391 392 1145  241 242 1146  241 392 1146  242 393 1146  392 393 1146  242 243 1147  242 393 1147  243 394 1147  393 394 1147  243 244 1148  243 394 1148  244 395 1148  394 395 1148  244 245 1149  244 395 1149  245 396 1149  395 396 1149  245 246 1150  245 396 1150  246 397 1150  396 397 1150  246 247 1151  246 397 1151  247 398 1151  397 398 1151  247 248 1152  247 398 1152  248 399 1152  398 399 1152  248 249 1153  248 399 1153  249 400 1153  399 400 1153  249 250 1154  249 400 1154  250 401 1154  400 401 1154  250 251 1155  250 401 1155  251 402 1155  401 402 1155  251 252 1156  251 402 1156  252 403 1156  402 403 1156  252 253 1157  252 403 1157  253 404 1157  403 404 1157  253 254 1158  253 404 1158  254 405 1158  404 405 1158  254 255 1159  254 405 1159  255 406 1159  405 406 1159  255 256 1160  255 406 1160  256 407 1160  406 407 1160  256 257 1161  256 407 1161  257 408 1161  407 408 1161  257 258 1162  257 408 1162  258 409 1162  408 409 1162  258 259 1163  258 409 1163  259 410 1163  409 410 1163  259 260 1164  259 410 1164  260 411 1164  410 411 1164  260 261 1165  260 411 1165  261 412 1165  411 412 1165  261 262 1166  261 412 1166  262 413 1166  412 413 1166  262 263 1167  262 413 1167  263 414 1167  413 414 1167  263 264 1168  263 414 1168  264 415 1168  414 415 1168  264 265 1169  264 415 1169  265 416 1169  415 416 1169  265 266 1170  265 416 1170  266 417 1170  416 417 1170  266 267 1171  266 417 1171  267 418 1171  417 418 1171  267 268 1172  267 418 1172  268 419 1172  418 419 1172  268 269 1173  268 419 1173  269 420 1173  419 420 1173  269 270 1174  269 420 1174  270 421 1174  420 421 1174  270 271 1175  270 421 1175  271 422 1175  421 422 1175  271 272 1176  271 422 1176  272 423 1176  422 423 1176  272 273 1177  272 423 1177  273 424 1177  423 424 1177  273 274 1178  273 424 1178  274 425 1178  424 425 1178  274 275 1179  274 425 1179  275 426 1179  425 426 1179  275 276 1180  275 426 1180  276 427 1180  426 427 1180  276 277 1181  276 427 1181  277 428 1181  427 428 1181  277 278 1182  277 428 1182  278 429 1182  428 429 1182  278 279 1183  278 429 1183  279 430 1183  429 430 1183  279 280 1184  279 430 1184  280 431 1184  430 431 1184  280 281 1185  280 431 1185  281 432 1185  431 432 1185  281 282 1186  281 432 1186  282 433 1186  432 433 1186  282 283 1187  282 433 1187  283 434 1187  433 434 1187  283 284 1188  283 434 1188  284 435 1188  434 435 1188  284 285 1189  284 435 1189  285 436 1189  435 436 1189  285 286 1190  285 436 1190  286 437 1190  436 437 1190  286 287 1191  286 437 1191  287 438 1191  437 438 1191  287 288 1192  287 438 1192  288 439 1192  438 439 1192  288 289 1193  288 439 1193  289 440 1193  439 440 1193  289 290 1194  289 440 1194  290 441 1194  440 441 1194  290 291 1195  290 441 1195  291 442 1195  441 442 1195  291 292 1196  291 442 1196  292 443 1196  442 443 1196  292 293 1197  292 443 1197  293 444 1197  443 444 1197  293 294 1198  293 444 1198  294 445 1198  444 445 1198  294 295 1199  294 445 1199  295 446 1199  445 446 1199  295 296 1200  295 446 1200  296 447 1200  446 447 1200  296 297 1201  296 447 1201  297 448 1201  447 448 1201  297 298 1202  297 448 1202  298 449 1202  448 449 1202  298 299 1203  298 449 1203  299 450 1203  449 450 1203  299 300 1204  299 450 1204  300 451 1204  450 451 1204  300 301 1205  300 451 1205  301 452 1205  451 452 1205  302 303 1206  302 453 1206  303 454 1206  453 454 1206  303 304 1207  303 454 1207  304 455 1207  454 455 1207  304 305 1208  304 455 1208  305 456 1208  455 456 1208  305 306 1209  305 456 1209  306 457 1209  456 457 1209  306 307 1210  306 457 1210  307 458 1210  457 458 1210  307 308 1211  307 458 1211  308 459 1211  458 459 1211  308 309 1212  308 459 1212  309 460 1212  459 460 1212  309 310 1213  309 460 1213  310 461 1213  460 461 1213  310 311 1214  310 461 1214  311 462 1214  461 462 1214  311 312 1215  311 462 1215  312 463 1215  462 463 1215  312 313 1216  312 463 1216  313 464 1216  463 464 1216  313 314 1217  313 464 1217  314 465 1217  464 465 1217  314 315 1218  314 465 1218  315 466 1218  465 466 1218  315 316 1219  315 466 1219  316 467 1219  466 467 1219  316 317 1220  316 467 1220  317 468 1220  467 468 1220  317 318 1221  317 468 1221  318 469 1221  468 469 1221  318 319 1222  318 469 1222  319 470 1222  469 470 1222  319 320 1223  319 470 1223  320 471 1223  470 471 1223  320 321 1224  320 471 1224  321 472 1224  471 472 1224  321 322 1225  321 472 1225  322 473 1225  472 473 1225  322 323 1226  322 473 1226  323 474 1226  473 474 1226  323 324 1227  323 474 1227  324 475 1227  474 475 1227  324 325 1228  324 475 1228  325 476 1228  475 476 1228  325 326 1229  325 476 1229  326 477 1229  476 477 1229  326 327 1230  326 477 1230  327 478 1230  477 478 1230  327 328 1231  327 478 1231  328 479 1231  478 479 1231  328 329 1232  328 479 1232  329 480 1232  479 480 1232  329 330 1233  329 480 1233  330 481 1233  480 481 1233  330 331 1234  330 481 1234  331 482 1234  481 482 1234  331 332 1235  331 482 1235  332 483 1235  482 483 1235  332 333 1236  332 483 1236  333 484 1236  483 484 1236  333 334 1237  333 484 1237  334 485 1237  484 485 1237  334 335 1238  334 485 1238  335 486 1238  485 486 1238  335 336 1239  335 486 1239  336 487 1239  486 487 1239  336 337 1240  336 487 1240  337 488 1240  487 488 1240  337 338 1241  337 488 1241  338 489 1241  488 489 1241  338 339 1242  338 489 1242  339 490 1242  489 490 1242  339 340 1243  339 490 1243  340 491 1243  490 491 1243  340 341 1244  340 491 1244  341 492 1244  491 492 1244  341 342 1245  341 492 1245  342 493 1245  492 493 1245  342 343 1246  342 493 1246  343 494 1246  493 494 1246  343 344 1247  343 494 1247  344 495 1247  494 495 1247  344 345 1248  344 495 1248  345 496 1248  495 496 1248  345 346 1249  345 496 1249  346 497 1249  496 497 1249  346 347 1250  346 497 1250  347 498 1250  497 498 1250  347 348 1251  347 498 1251  348 499 1251  498 499 1251  348 349 1252  348 499 1252  349 500 1252  499 500 1252  349 350 1253  349 500 1253  350 501 1253  500 501 1253  350 351 1254  350 501 1254  351 502 1254  501 502 1254  351 352 1255  351 502 1255  352 503 1255  502 503 1255  352 353 1256  352 503 1256  353 504 1256  503 504 1256  353 354 1257  353 504 1257  354 505 1257  504 505 1257  354 355 1258  354 505 1258  355 506 1258  505 506 1258  355 356 1259  355 506 1259  356 507 1259  506 507 1259  356 357 1260  356 507 1260  357 508 1260  507 508 1260  357 358 1261  357 508 1261  358 509 1261  508 509 1261  358 359 1262  358 509 1262  359 510 1262  509 510 1262  359 360 1263  359 510 1263  360 511 1263  510 511 1263  360 361 1264  360 511 1264  361 512 1264  511 512 1264  361 362 1265  361 512 1265  362 513 1265  512 513 1265  362 363 1266  362 513 1266  363 514 1266  513 514 1266  363 364 1267  363 514 1267  364 515 1267  514 515 1267  364 365 1268  364 515 1268  365 516 1268  515 516 1268  365 366 1269  365 516 1269  366 517 1269  516 517 1269  366 367 1270  366 517 1270  367 518 1270  517 518 1270  367 368 1271  367 518 1271  368 519 1271  518 519 1271  368 369 1272  368 519 1272  369 520 1272  519 520 1272  369 370 1273  369 520 1273  370 521 1273  520 521 1273  370 371 1274  370 521 1274  371 522 1274  521 522 1274  371 372 1275  371 522 1275  372 523 1275  522 523 1275  372 373 1276  372 523 1276  373 524 1276  523 524 1276  373 374 1277  373 524 1277  374 525 1277  524 525 1277  374 375 1278  374 525 1278  375 526 1278  525 526 1278  375 376 1279  375 526 1279  376 527 1279  526 527 1279  376 377 1280  376 527 1280  377 528 1280  527 528 1280  377 378 1281  377 528 1281  378 529 1281  528 529 1281  378 379 1282  378 529 1282  379 530 1282  529 530 1282  379 380 1283  379 530 1283  380 531 1283  530 531 1283  380 381 1284  380 531 1284  381 532 1284  531 532 1284  381 382 1285  381 532 1285  382 533 1285  532 533 1285  382 383 1286  382 533 1286  383 534 1286  533 534 1286  383 384 1287  383 534 1287  384 535 1287  534 535 1287  384 385 1288  384 535 1288  385 536 1288  535 536 1288  385 386 1289  385 536 1289  386 537 1289  536 537 1289  386 387 1290  386 537 1290  387 538 1290  537 538 1290  387 388 1291  387 538 1291  388 539 1291  538 539 1291  388 389 1292  388 539 1292  389 540 1292  539 540 1292  389 390 1293  389 540 1293  390 541 1293  540 541 1293  390 391 1294  390 541 1294  391 542 1294  541 542 1294  391 392 1295  391 542 1295  392 543 1295  542 543 1295  392 393 1296  392 543 1296  393 544 1296  543 544 1296  393 394 1297  393 544 1297  394 545 1297  544 545 1297  394 395 1298  394 545 1298  395 546 1298  545 546 1298  395 396 1299  395 546 1299  396 547 1299  546 547 1299  396 397 1300  396 547 1300  397 548 1300  547 548 1300  397 398 1301  397 548 1301  398 549 1301  548 549 1301  398 399 1302  398 549 1302  399 550 1302  549 550 1302  399 400 1303  399 550 1303  400 551 1303  550 551 1303  400 401 1304  400 551 1304  401 552 1304  551 552 1304  401 402 1305  401 552 1305  402 553 1305  552 553 1305  402 403 1306  402 553 1306  403 554 1306  553 554 1306  403 404 1307  403 554 1307  404 555 1307  554 555 1307  404 405 1308  404 555 1308  405 556 1308  555 556 1308  405 406 1309  405 556 1309  406 557 1309  556 557 1309  406 407 1310  406 557 1310  407 558 1310  557 558 1310  407 408 1311  407 558 1311  408 559 1311  558 559 1311  408 409 1312  408 559 1312  409 560 1312  559 560 1312  409 410 1313  409 560 1313  410 561 1313  560 561 1313  410 411 1314  410 561 1314  411 562 1314  561 562 1314  411 412 1315  411 562 1315  412 563 1315  562 563 1315  412 413 1316  412 563 1316  413 564 1316  563 564 1316  413 414 1317  413 564 1317  414 565 1317  564 565 1317  414 415 1318  414 565 1318  415 566 1318  565 566 1318  415 416 1319  415 566 1319  416 567 1319  566 567 1319  416 417 1320  416 567 1320  417 568 1320  567 568 1320  417 418 1321  417 568 1321  418 569 1321  568 569 1321  418 419 1322  418 569 1322  419 570 1322  569 570 1322  419 420 1323  419 570 1323  420 571 1323  570 571 1323  420 421 1324  420 571 1324  421 572 1324  571 572 1324  421 422 1325  421 572 1325  422 573 1325  572 573 1325  422 423 1326  422 573 1326  423 574 1326  573 574 1326  423 424 1327  423 574 1327  424 575 1327  574 575 1327  424 425 1328  424 575 1328  425 576 1328  575 576 1328  425 426 1329  425 576 1329  426 577 1329  576 577 1329  426 427 1330  426 577 1330  427 578 1330  577 578 1330  427 428 1331  427 578 1331  428 579 1331  578 579 1331  428 429 1332  428 579 1332  429 580 1332  579 580 1332  429 430 1333  429 580 1333  430 581 1333  580 581 1333  430 431 1334  430 581 1334  431 582 1334  581 582 1334  431 432 1335  431 582 1335  432 583 1335  582 583 1335  432 433 1336  432 583 1336  433 584 1336  583 584 1336  433 434 1337  433 584 1337  434 585 1337  584 585 1337  434 435 1338  434 585 1338  435 586 1338  585 586 1338  435 436 1339  435 586 1339  436 587 1339  586 587 1339  436 437 1340  436 587 1340  437 588 1340  587 588 1340  437 438 1341  437 588 1341  438 589 1341  588 589 1341  438 439 1342  438 589 1342  439 590 1342  589 590 1342  439 440 1343  439 590 1343  440 591 1343  590 591 1343  440 441 1344  440 591 1344  441 592 1344  591 592 1344  441 442 1345  441 592 1345  442 593 1345  592 593 1345  442 443 1346  442 593 1346  443 594 1346  593 594 1346  443 444 1347  443 594 1347  444 595 1347  594 595 1347  444 445 1348  444 595 1348  445 596 1348  595 596 1348  445 446 1349  445 596 1349  446 597 1349  596 597 1349  446 447 1350  446 597 1350  447 598 1350  597 598 1350  447 448 1351  447 598 1351  448 599 1351  598 599 1351  448 449 1352  448 599 1352  449 600 1352  599 600 1352  449 450 1353  449 600 1353  450 601 1353  600 601 1353  450 451 1354  450 601 1354  451 602 1354  601 602 1354  451 452 1355  451 602 1355  452 603 1355  602 603 1355  453 454 1356  453 604 1356  454 605 1356  604 605 1356  454 455 1357  454 605 1357  455 606 1357  605 606 1357  455 456 1358  455 606 1358  456 607 1358  606 607 1358  456 457 1359  456 607 1359  457 608 1359  607 608 1359  457 458 1360  457 608 1360  458 609 1360  608 609 1360  458 459 1361  458 609 1361  459 610 1361  609 610 1361  459 460 1362  459 610 1362  460 611 1362  610 611 1362  460 461 1363  460 611 1363  461 612 1363  611 612 1363  461 462 1364  461 612 1364  462 613 1364  612 613 1364  462 463 1365  462 613 1365  463 614 1365  613 614 1365  463 464 1366  463 614 1366  464 615 1366  614 615 1366  464 465 1367  464 615 1367  465 616 1367  615 616 1367  465 466 1368  465 616 1368  466 617 1368  616 617 1368  466 467 1369  466 617 1369  467 618 1369  617 618 1369  467 468 1370  467 618 1370  468 619 1370  618 619 1370  468 469 1371  468 619 1371  469 620 1371  619 620 1371  469 470 1372  469 620 1372  470 621 1372  620 621 1372  470 471 1373  470 621 1373  471 622 1373  621 622 1373  471 472 1374  471 622 1374  472 623 1374  622 623 1374  472 473 1375  472 623 1375  473 624 1375  623 624 1375  473 474 1376  473 624 1376  474 625 1376  624 625 1376  474 475 1377  474 625 1377  475 626 1377  625 626 1377  475 476 1378  475 626 1378  476 627 1378  626 627 1378  476 477 1379  476 627 1379  477 628 1379  627 628 1379  477 478 1380  477 628 1380  478 629 1380  628 629 1380  478 479 1381  478 629 1381  479 630 1381  629 630 1381  479 480 1382  479 630 1382  480 631 1382  630 631 1382  480 481 1383  480 631 1383  481 632 1383  631 632 1383  481 482 1384  481 632 1384  482 633 1384  632 633 1384  482 483 1385  482 633 1385  483 634 1385  633 634 1385  483 484 1386  483 634 1386  484 635 1386  634 635 1386  484 485 1387  484 635 1387  485 636 1387  635 636 1387  485 486 1388  485 636 1388  486 637 1388  636 637 1388  486 487 1389  486 637 1389  487 638 1389  637 638 1389  487 488 1390  487 638 1390  488 639 1390  638 639 1390  488 489 1391  488 639 1391  489 640 1391  639 640 1391  489 490 1392  489 640 1392  490 641 1392  640 641 1392  490 491 1393  490 641 1393  491 642 1393  641 642 1393  491 492 1394  491 642 1394  492 643 1394  642 643 1394  492 493 1395  492 643 1395  493 644 1395  643 644 1395  493 494 1396  493 644 1396  494 645 1396  644 645 1396  494 495 1397  494 645 1397  495 646 1397  645 646 1397  495 496 1398  495 646 1398  496 647 1398  646 647 1398  496 497 1399  496 647 1399  497 648 1399  647 648 1399  497 498 1400  497 648 1400  498 649 1400  648 649 1400  498 499 1401  498 649 1401  499 650 1401  649 650 1401  499 500 1402  499 650 1402  500 651 1402  650 651 1402  500 501 1403  500 651 1403  501 652 1403  651 652 1403  501 502 1404  501 652 1404  502 653 1404  652 653 1404  502 503 1405  502 653 1405  503 654 1405  653 654 1405  503 504 1406  503 654 1406  504 655 1406  654 655 1406  504 505 1407  504 655 1407  505 656 1407  655 656 1407  505 506 1408  505 656 1408  506 657 1408  656 657 1408  506 507 1409  506 657 1409  507 658 1409  657 658 1409  507 508 1410  507 658 1410  508 659 1410  658 659 1410  508 509 1411  508 659 1411  509 660 1411  659 660 1411  509 510 1412  509 660 1412  510 661 1412  660 661 1412  510 511 1413  510 661 1413  511 662 1413  661 662 1413  511 512 1414  511 662 1414  512 663 1414  662 663 1414  512 513 1415  512 663 1415  513 664 1415  663 664 1415  513 514 1416  513 664 1416  514 665 1416  664 665 1416  514 515 1417  514 665 1417  515 666 1417  665 666 1417  515 516 1418  515 666 1418  516 667 1418  666 667 1418  516 517 1419  516 667 1419  517 668 1419  667 668 1419  517 518 1420  517 668 1420  518 669 1420  668 669 1420  518 519 1421  518 669 1421  519 670 1421  669 670 1421  519 520 1422  519 670 1422  520 671 1422  670 671 1422  520 521 1423  520 671 1423  521 672 1423  671 672 1423  521 522 1424  521 672 1424  522 673 1424  672 673 1424  522 523 1425  522 673 1425  523 674 1425  673 674 1425  523 524 1426  523 674 1426  524 675 1426  674 675 1426  524 525 1427  524 675 1427  525 676 1427  675 676 1427  525 526 1428  525 676 1428  526 677 1428  676 677 1428  526 527 1429  526 677 1429  527 678 1429  677 678 1429  527 528 1430  527 678 1430  528 679 1430  678 679 1430  528 529 1431  528 679 1431  529 680 1431  679 680 1431  529 530 1432  529 680 1432  530 681 1432  680 681 1432  530 531 1433  530 681 1433  531 682 1433  681 682 1433  531 532 1434  531 682 1434  532 683 1434  682 683 1434  532 533 1435  532 683 1435  533 684 1435  683 684 1435  533 534 1436  533 684 1436  534 685 1436  684 685 1436  534 535 1437  534 685 1437  535 686 1437  685 686 1437  535 536 1438  535 686 1438  536 687 1438  686 687 1438  536 537 1439  536 687 1439  537 688 1439  687 688 1439  537 538 1440  537 688 1440  538 689 1440  688 689 1440  538 539 1441  538 689 1441  539 690 1441  689 690 1441  539 540 1442  539 690 1442  540 691 1442  690 691 1442  540 541 1443  540 691 1443  541 692 1443  691 692 1443  541 542 1444  541 692 1444  542 693 1444  692 693 1444  542 543 1445  542 693 1445  543 694 1445  693 694 1445  543 544 1446  543 694 1446  544 695 1446  694 695 1446  544 545 1447  544 695 1447  545 696 1447  695 696 1447  545 546 1448  545 696 1448  546 697 1448  696 697 1448  546 547 1449  546 697 1449  547 698 1449  697 698 1449  547 548 1450  547 698 1450  548 699 1450  698 699 1450  548 549 1451  548 699 1451  549 700 1451  699 700 1451  549 550 1452  549 700 1452  550 701 1452  700 701 1452  550 551 1453  550 701 1453  551 702 1453  701 702 1453  551 552 1454  551 702 1454  552 703 1454  702 703 1454  552 553 1455  552 703 1455  553 704 1455  703 704 1455  553 554 1456  553 704 1456  554 705 1456  704 705 1456  554 555 1457  554 705 1457  555 706 1457  705 706 1457  555 556 1458  555 706 1458  556 707 1458  706 707 1458  556 557 1459  556 707 1459  557 708 1459  707 708 1459  557 558 1460  557 708 1460  558 709 1460  708 709 1460  558 559 1461  558 709 1461  559 710 1461  709 710 1461  559 560 1462  559 710 1462  560 711 1462  710 711 1462  560 561 1463  560 711 1463  561 712 1463  711 712 1463  561 562 1464  561 712 1464  562 713 1464  712 713 1464  562 563 1465  562 713 1465  563 714 1465  713 714 1465  563 564 1466  563 714 1466  564 715 1466  714 715 1466  564 565 1467  564 715 1467  565 716 1467  715 716 1467  565 566 1468  565 716 1468  566 717 1468  716 717 1468  566 567 1469  566 717 1469  567 718 1469  717 718 1469  567 568 1470  567 718 1470  568 719 1470  718 719 1470  568 569 1471  568 719 1471  569 720 1471  719 720 1471  569 570 1472  569 720 1472  570 721 1472  720 721 1472  570 571 1473  570 721 1473  571 722 1473  721 722 1473  571 572 1474  571 722 1474  572 723 1474  722 723 1474  572 573 1475  572 723 1475  573 724 1475  723 724 1475  573 574 1476  573 724 1476  574 725 1476  724 725 1476  574 575 1477  574 725 1477  575 726 1477  725 726 1477  575 576 1478  575 726 1478  576 727 1478  726 727 1478  576 577 1479  576 727 1479  577 728 1479  727 728 1479  577 578 1480  577 728 1480  578 729 1480  728 729 1480  578 579 1481  578 729 1481  579 730 1481  729 730 1481  579 580 1482  579 730 1482  580 731 1482  730 731 1482  580 581 1483  580 731 1483  581 732 1483  731 732 1483  581 582 1484  581 732 1484  582 733 1484  732 733 1484  582 583 1485  582 733 1485  583 734 1485  733 734 1485  583 584 1486  583 734 1486  584 735 1486  734 735 1486  584 585 1487  584 735 1487  585 736 1487  735 736 1487  585 586 1488  585 736 1488  586 737 1488  736 737 1488  586 587 1489  586 737 1489  587 738 1489  737 738 1489  587 588 1490  587 738 1490  588 739 1490  738 739 1490  588 589 1491  588 739 1491  589 740 1491  739 740 1491  589 590 1492  589 740 1492  590 741 1492  740 741 1492  590 591 1493  590 741 1493  591 742 1493  741 742 1493  591 592 1494  591 742 1494  592 743 1494  742 743 1494  592 593 1495  592 743 1495  593 744 1495  743 744 1495  593 594 1496  593 744 1496  594 745 1496  744 745 1496  594 595 1497  594 745 1497  595 746 1497  745 746 1497  595 596 1498  595 746 1498  596 747 1498  746 747 1498  596 597 1499  596 747 1499  597 748 1499  747 748 1499  597 598 1500  597 748 1500  598 749 1500  748 749 1500  598 599 1501  598 749 1501  599 750 1501  749 750 1501  599 600 1502  599 750 1502  600 751 1502  750 751 1502  600 601 1503  600 751 1503  601 752 1503  751 752 1503  601 602 1504  601 752 1504  602 753 1504  752 753 1504  602 603 1505  602 753 1505  603 754 1505  753 754 1505  604 605 1506  604 755 1506  605 756 1506  755 756 1506  605 606 1507  605 756 1507  606 757 1507  756 757 1507  606 607 1508  606 757 1508  607 758 1508  757 758 1508  607 608 1509  607 758 1509  608 759 1509  758 759 1509  608 609 1510  608 759 1510  609 760 1510  759 760 1510  609 610 1511  609 760 1511  610 761 1511  760 761 1511  610 611 1512  610 761 1512  611 762 1512  761 762 1512  611 612 1513  611 762 1513  612 763 1513  762 763 1513  612 613 1514  612 763 1514  613 764 1514  763 764 1514  613 614 1515  613 764 1515  614 765 1515  764 765 1515  614 615 1516  614 765 1516  615 766 1516  765 766 1516  615 616 1517  615 766 1517  616 767 1517  766 767 1517  616 617 1518  616 767 1518  617 768 1518  767 768 1518  617 618 1519  617 768 1519  618 769 1519  768 769 1519  618 619 1520  618 769 1520  619 770 1520  769 770 1520  619 620 1521  619 770 1521  620 771 1521  770 771 1521  620 621 1522  620 771 1522  621 772 1522  771 772 1522  621 622 1523  621 772 1523  622 773 1523  772 773 1523  622 623 1524  622 773 1524  623 774 1524  773 774 1524  623 624 1525  623 774 1525  624 775 1525  774 775 1525  624 625 1526  624 775 1526  625 776 1526  775 776 1526  625 626 1527  625 776 1527  626 777 1527  776 777 1527  626 627 1528  626 777 1528  627 778 1528  777 778 1528  627 628 1529  627 778 1529  628 779 1529  778 779 1529  628 629 1530  628 779 1530  629 780 1530  779 780 1530  629 630 1531  629 780 1531  630 781 1531  780 781 1531  630 631 1532  630 781 1532  631 782 1532  781 782 1532  631 632 1533  631 782 1533  632 783 1533  782 783 1533  632 633 1534  632 783 1534  633 784 1534  783 784 1534  633 634 1535  633 784 1535  634 785 1535  784 785 1535  634 635 1536  634 785 1536  635 786 1536  785 786 1536  635 636 1537  635 786 1537  636 787 1537  786 787 1537  636 637 1538  636 787 1538  637 788 1538  787 788 1538  637 638 1539  637 788 1539  638 789 1539  788 789 1539  638 639 1540  638 789 1540  639 790 1540  789 790 1540  639 640 1541  639 790 1541  640 791 1541  790 791 1541  640 641 1542  640 791 1542  641 792 1542  791 792 1542  641 642 1543  641 792 1543  642 793 1543  792 793 1543  642 643 1544  642 793 1544  643 794 1544  793 794 1544  643 644 1545  643 794 1545  644 795 1545  794 795 1545  644 645 1546  644 795 1546  645 796 1546  795 796 1546  645 646 1547  645 796 1547  646 797 1547  796 797 1547  646 647 1548  646 797 1548  647 798 1548  797 798 1548  647 648 1549  647 798 1549  648 799 1549  798 799 1549  648 649 1550  648 799 1550  649 800 1550  799 800 1550  649 650 1551  649 800 1551  650 801 1551  800 801 1551  650 651 1552  650 801 1552  651 802 1552  801 802 1552  651 652 1553  651 802 1553  652 803 1553  802 803 1553  652 653 1554  652 803 1554  653 804 1554  803 804 1554  653 654 1555  653 804 1555  654 805 1555  804 805 1555  654 655 1556  654 805 1556  655 806 1556  805 806 1556  655 656 1557  655 806 1557  656 807 1557  806 807 1557  656 657 1558  656 807 1558  657 808 1558  807 808 1558  657 658 1559  657 808 1559  658 809 1559  808 809 1559  658 659 1560  658 809 1560  659 810 1560  809 810 1560  659 660 1561  659 810 1561  660 811 1561  810 811 1561  660 661 1562  660 811 1562  661 812 1562  811 812 1562  661 662 1563  661 812 1563  662 813 1563  812 813 1563  662 663 1564  662 813 1564  663 814 1564  813 814 1564  663 664 1565  663 814 1565  664 815 1565  814 815 1565  664 665 1566  664 815 1566  665 816 1566  815 816 1566  665 666 1567  665 816 1567  666 817 1567  816 817 1567  666 667 1568  666 817 1568  667 818 1568  817 818 1568  667 668 1569  667 818 1569  668 819 1569  818 819 1569  668 669 1570  668 819 1570  669 820 1570  819 820 1570  669 670 1571  669 820 1571  670 821 1571  820 821 1571  670 671 1572  670 821 1572  671 822 1572  821 822 1572  671 672 1573  671 822 1573  672 823 1573  822 823 1573  672 673 1574  672 823 1574  673 824 1574  823 824 1574  673 674 1575  673 824 1575  674 825 1575  824 825 1575  674 675 1576  674 825 1576  675 826 1576  825 826 1576  675 676 1577  675 826 1577  676 827 1577  826 827 1577  676 677 1578  676 827 1578  677 828 1578  827 828 1578  677 678 1579  677 828 1579  678 829 1579  828 829 1579  678 679 1580  678 829 1580  679 830 1580  829 830 1580  679 680 1581  679 830 1581  680 831 1581  830 831 1581  680 681 1582  680 831 1582  681 832 1582  831 832 1582  681 682 1583  681 832 1583  682 833 1583  832 833 1583  682 683 1584  682 833 1584  683 834 1584  833 834 1584  683 684 1585  683 834 1585  684 835 1585  834 835 1585  684 685 1586  684 835 1586  685 836 1586  835 836 1586  685 686 1587  685 836 1587  686 837 1587  836 837 1587  686 687 1588  686 837 1588  687 838 1588  837 838 1588  687 688 1589  687 838 1589  688 839 1589  838 839 1589  688 689 1590  688 839 1590  689 840 1590  839 840 1590  689 690 1591  689 840 1591  690 841 1591  840 841 1591  690 691 1592  690 841 1592  691 842 1592  841 842 1592  691 692 1593  691 842 1593  692 843 1593  842 843 1593  692 693 1594  692 843 1594  693 844 1594  843 844 1594  693 694 1595  693 844 1595  694 845 1595  844 845 1595  694 695 1596  694 845 1596  695 846 1596  845 846 1596  695 696 1597  695 846 1597  696 847 1597  846 847 1597  696 697 1598  696 847 1598  697 848 1598  847 848 1598  697 698 1599  697 848 1599  698 849 1599  848 849 1599  698 699 1600  698 849 1600  699 850 1600  849 850 1600  699 700 1601  699 850 1601  700 851 1601  850 851 1601  700 701 1602  700 851 1602  701 852 1602  851 852 1602  701 702 1603  701 852 1603  702 853 1603  852 853 1603  702 703 1604  702 853 1604  703 854 1604  853 854 1604  703 704 1605  703 854 1605  704 855 1605  854 855 1605  704 705 1606  704 855 1606  705 856 1606  855 856 1606  705 706 1607  705 856 1607  706 857 1607  856 857 1607  706 707 1608  706 857 1608  707 858 1608  857 858 1608  707 708 1609  707 858 1609  708 859 1609  858 859 1609  708 709 1610  708 859 1610  709 860 1610  859 860 1610  709 710 1611  709 860 1611  710 861 1611  860 861 1611  710 711 1612  710 861 1612  711 862 1612  861 862 1612  711 712 1613  711 862 1613  712 863 1613  862 863 1613  712 713 1614  712 863 1614  713 864 1614  863 864 1614  713 714 1615  713 864 1615  714 865 1615  864 865 1615  714 715 1616  714 865 1616  715 866 1616  865 866 1616  715 716 1617  715 866 1617  716 867 1617  866 867 1617  716 717 1618  716 867 1618  717 868 1618  867 868 1618  717 718 1619  717 868 1619  718 869 1619  868 869 1619  718 719 1620  718 869 1620  719 870 1620  869 870 1620  719 720 1621  719 870 1621  720 871 1621  870 871 1621  720 721 1622  720 871 1622  721 872 1622  871 872 1622  721 722 1623  721 872 1623  722 873 1623  872 873 1623  722 723 1624  722 873 1624  723 874 1624  873 874 1624  723 724 1625  723 874 1625  724 875 1625  874 875 1625  724 725 1626  724 875 1626  725 876 1626  875 876 1626  725 726 1627  725 876 1627  726 877 1627  876 877 1627  726 727 1628  726 877 1628  727 878 1628  877 878 1628  727 728 1629  727 878 1629  728 879 1629  878 879 1629  728 729 1630  728 879 1630  729 880 1630  879 880 1630  729 730 1631  729 880 1631  730 881 1631  880 881 1631  730 731 1632  730 881 1632  731 882 1632  881 882 1632  731 732 1633  731 882 1633  732 883 1633  882 883 1633  732 733 1634  732 883 1634  733 884 1634  883 884 1634  733 734 1635  733 884 1635  734 885 1635  884 885 1635  734 735 1636  734 885 1636  735 886 1636  885 886 1636  735 736 1637  735 886 1637  736 887 1637  886 887 1637  736 737 1638  736 887 1638  737 888 1638  887 888 1638  737 738 1639  737 888 1639  738 889 1639  888 889 1639  738 739 1640  738 889 1640  739 890 1640  889 890 1640  739 740 1641  739 890 1641  740 891 1641  890 891 1641  740 741 1642  740 891 1642  741 892 1642  891 892 1642  741 742 1643  741 892 1643  742 893 1643  892 893 1643  742 743 1644  742 893 1644  743 894 1644  893 894 1644  743 744 1645  743 894 1645  744 895 1645  894 895 1645  744 745 1646  744 895 1646  745 896 1646  895 896 1646  745 746 1647  745 896 1647  746 897 1647  896 897 1647  746 747 1648  746 897 1648  747 898 1648  897 898 1648  747 748 1649  747 898 1649  748 899 1649  898 899 1649  748 749 1650  748 899 1650  749 900 1650  899 900 1650  749 750 1651  749 900 1651  750 901 1651  900 901 1651  750 751 1652  750 901 1652  751 902 1652  901 902 1652  751 752 1653  751 902 1653  752 903 1653  902 903 1653  752 753 1654  752 903 1654  753 904 1654  903 904 1654  753 754 1655  753 904 1655  754 905 1655  904 905 1655  </DataArray>
<DataArray  type="UInt32"  Name="offsets"  format="ascii">3 6 9 12 15 18 21 24 27 30 33 36 39 42 45 48 51 54 57 60 63 66 69 72 75 78 81 84 87 90 93 96 99 102 105 108 111 114 117 120 123 126 129 132 135 138 141 144 147 150 153 156 159 162 165 168 171 174 177 180 183 186 189 192 195 198 201 204 207 210 213 216 219 222 225 228 231 234 237 240 243 246 249 252 255 258 261 264 267 270 273 276 279 282 285 288 291 294 297 300 303 306 309 312 315 318 321 324 327 330 333 336 339 342 345 348 351 354 357 360 363 366 369 372 375 378 381 384 387 390 393 396 399 402 405 408 411 414 417 420 423 426 429 432 435 438 441 444 447 450 453 456 459 462 465 468 471 474 477 480 483 486 489 492 495 498 501 504 507 510 513 516 519 522 525 528 531 534 537 540 543 546 549 552 555 558 561 564 567 570 573 576 579 582 585 588 591 594 597 600 603 606 609 612 615 618 621 624 627 630 633 636 639 642 645 648 651 654 657 660 663 666 669 672 675 678 681 684 687 690 693 696 699 702 705 708 711 714 717 720 723 726 729 732 735 738 741 744 747 750 753 756 759 762 765 768 771 774 777 780 783 786 789 792 795 798 801 804 807 810 813 816 819 822 825 828 831 834 837 840 843 846 849 852 855 858 861 864 867 870 873 876 879 882 885 888 891 894 897 900 903 906 909 912 915 918 921 924 927 930 933 936 939 942 945 948 951 954 957 960 963 966 969 972 975 978 981 984 987 990 993 996 999 1002 1005 1008 1011 1014 1017 1020 1023 1026 1029 1032 1035 1038 1041 1044 1047 1050 1053 1056 1059 1062 1065 1068 1071 1074 1077 1080 1083 1086 1089 1092 1095 1098 1101 1104 1107 1110 1113 1116 1119 1122 1125 1128 1131 1134 1137 1140 1143 1146 1149 1152 1155 1158 1161 1164 1167 1170 1173 1176 1179 1182 1185 1188 1191 1194 1197 1200 1203 1206 1209 1212 1215 1218 1221 1224 1227 1230 1233 1236 1239 1242 1245 1248 1251 1254 1257 1260 1263 1266 1269 1272 1275 1278 1281 1284 1287 1290 1293 1296 1299 1302 1305 1308 1311 1314 1317 1320 1323 1326 1329 1332 1335 1338 1341 1344 1347 1350 1353 1356 1359 1362 1365 1368 1371 1374 1377 1380 1383 1386 1389 1392 1395 1398 1401 1404 1407 1410 1413 1416 1419 1422 1425 1428 1431 1434 1437 1440 1443 1446 1449 1452 1455 1458 1461 1464 1467 1470 1473 1476 1479 1482 1485 1488 1491 1494 1497 1500 1503 1506 1509 1512 1515 1518 1521 1524 1527 1530 1533 1536 1539 1542 1545 1548 1551 1554 1557 1560 1563 1566 1569 1572 1575 1578 1581 1584 1587 1590 1593 1596 1599 1602 1605 1608 1611 1614 1617 1620 1623 1626 1629 1632 1635 1638 1641 1644 1647 1650 1653 1656 1659 1662 1665 1668 1671 1674 1677 1680 1683 1686 1689 1692 1695 1698 1701 1704 1707 1710 1713 1716 1719 1722 1725 1728 1731 1734 1737 1740 1743 1746 1749 1752 1755 1758 1761 1764 1767 1770 1773 1776 1779 1782 1785 1788 1791 1794 1797 1800 1803 1806 1809 1812 1815 1818 1821 1824 1827 1830 1833 1836 1839 1842 1845 1848 1851 1854 1857 1860 1863 1866 1869 1872 1875 1878 1881 1884 1887 1890 1893 1896 1899 1902 1905 1908 1911 1914 1917 1920 1923 1926 1929 1932 1935 1938 1941 1944 1947 1950 1953 1956 1959 1962 1965 1968 1971 1974 1977 1980 1983 1986 1989 1992 1995 1998 2001 2004 2007 2010 2013 2016 2019 2022 2025 2028 2031 2034 2037 2040 2043 2046 2049 2052 2055 2058 2061 2064 2067 2070 2073 2076 2079 2082 2085 2088 2091 2094 2097 2100 2103 2106 2109 2112 2115 2118 2121 2124 2127 2130 2133 2136 2139 2142 2145 2148 2151 2154 2157 2160 2163 2166 2169 2172 2175 2178 2181 2184 2187 2190 2193 2196 2199 2202 2205 2208 2211 2214 2217 2220 2223 2226 2229 2232 2235 2238 2241 2244 2247 2250 2253 2256 2259 2262 2265 2268 2271 2274 2277 2280 2283 2286 2289 2292 2295 2298 2301 2304 2307 2310 2313 2316 2319 2322 2325 2328 2331 2334 2337 2340 2343 2346 2349 2352 2355 2358 2361 2364 2367 2370 2373 2376 2379 2382 2385 2388 2391 2394 2397 2400 2403 2406 2409 2412 2415 2418 2421 2424 2427 2430 2433 2436 2439 2442 2445 2448 2451 2454 2457 2460 2463 2466 2469 2472 2475 2478 2481 2484 2487 2490 2493 2496 2499 2502 2505 2508 2511 2514 2517 2520 2523 2526 2529 2532 2535 2538 2541 2544 2547 2550 2553 2556 2559 2562 2565 2568 2571 2574 2577 2580 2583 2586 2589 2592 2595 2598 2601 2604 2607 2610 2613 2616 2619 2622 2625 2628 2631 2634 2637 2640 2643 2646 2649 2652 2655 2658 2661 2664 2667 2670 2673 2676 2679 2682 2685 2688 2691 2694 2697 2700 2703 2706 2709 2712 2715 2718 2721 2724 2727 2730 2733 2736 2739 2742 2745 2748 2751 2754 2757 2760 2763 2766 2769 2772 2775 2778 2781 2784 2787 2790 2793 2796 2799 2802 2805 2808 2811 2814 2817 2820 2823 2826 2829 2832 2835 2838 2841 2844 2847 2850 2853 2856 2859 2862 2865 2868 2871 2874 2877 2880 2883 2886 2889 2892 2895 2898 2901 2904 2907 2910 2913 2916 2919 2922 2925 2928 2931 2934 2937 2940 2943 2946 2949 2952 2955 2958 2961 2964 2967 2970 2973 2976 2979 2982 2985 2988 2991 2994 2997 3000 3003 3006 3009 3012 3015 3018 3021 3024 3027 3030 3033 3036 3039 3042 3045 3048 3051 3054 3057 3060 3063 3066 3069 3072 3075 3078 3081 3084 3087 3090 3093 3096 3099 3102 3105 3108 3111 3114 3117 3120 3123 3126 3129 3132 3135 3138 3141 3144 3147 3150 3153 3156 3159 3162 3165 3168 3171 3174 3177 3180 3183 3186 3189 3192 3195 3198 3201 3204 3207 3210 3213 3216 3219 3222 3225 3228 3231 3234 3237 3240 3243 3246 3249 3252 3255 3258 3261 3264 3267 3270 3273 3276 3279 3282 3285 3288 3291 3294 3297 3300 3303 3306 3309 3312 3315 3318 3321 3324 3327 3330 3333 3336 3339 3342 3345 3348 3351 3354 3357 3360 3363 3366 3369 3372 3375 3378 3381 3384 3387 3390 3393 3396 3399 3402 3405 3408 3411 3414 3417 3420 3423 3426 3429 3432 3435 3438 3441 3444 3447 3450 3453 3456 3459 3462 3465 3468 3471 3474 3477 3480 3483 3486 3489 3492 3495 3498 3501 3504 3507 3510 3513 3516 3519 3522 3525 3528 3531 3534 3537 3540 3543 3546 3549 3552 3555 3558 3561 3564 3567 3570 3573 3576 3579 3582 3585 3588 3591 3594 3597 3600 3603 3606 3609 3612 3615 3618 3621 3624 3627 3630 3633 3636 3639 3642 3645 3648 3651 3654 3657 3660 3663 3666 3669 3672 3675 3678 3681 3684 3687 3690 3693 3696 3699 3702 3705 3708 3711 3714 3717 3720 3723 3726 3729 3732 3735 3738 3741 3744 3747 3750 3753 3756 3759 3762 3765 3768 3771 3774 3777 3780 3783 3786 3789 3792 3795 3798 3801 3804 3807 3810 3813 3816 3819 3822 3825 3828 3831 3834 3837 3840 3843 3846 3849 3852 3855 3858 3861 3864 3867 3870 3873 3876 3879 3882 3885 3888 3891 3894 3897 3900 3903 3906 3909 3912 3915 3918 3921 3924 3927 3930 3933 3936 3939 3942 3945 3948 3951 3954 3957 3960 3963 3966 3969 3972 3975 3978 3981 3984 3987 3990 3993 3996 3999 4002 4005 4008 4011 4014 4017 4020 4023 4026 4029 4032 4035 4038 4041 4044 4047 4050 4053 4056 4059 4062 4065 4068 4071 4074 4077 4080 4083 4086 4089 4092 4095 4098 4101 4104 4107 4110 4113 4116 4119 4122 4125 4128 4131 4134 4137 4140 4143 4146 4149 4152 4155 4158 4161 4164 4167 4170 4173 4176 4179 4182 4185 4188 4191 4194 4197 4200 4203 4206 4209 4212 4215 4218 4221 4224 4227 4230 4233 4236 4239 4242 4245 4248 4251 4254 4257 4260 4263 4266 4269 4272 4275 4278 4281 4284 4287 4290 4293 4296 4299 4302 4305 4308 4311 4314 4317 4320 4323 4326 4329 4332 4335 4338 4341 4344 4347 4350 4353 4356 4359 4362 4365 4368 4371 4374 4377 4380 4383 4386 4389 4392 4395 4398 4401 4404 4407 4410 4413 4416 4419 4422 4425 4428 4431 4434 4437 4440 4443 4446 4449 4452 4455 4458 4461 4464 4467 4470 4473 4476 4479 4482 4485 4488 4491 4494 4497 4500 4503 4506 4509 4512 4515 4518 4521 4524 4527 4530 4533 4536 4539 4542 4545 4548 4551 4554 4557 4560 4563 4566 4569 4572 4575 4578 4581 4584 4587 4590 4593 4596 4599 4602 4605 4608 4611 4614 4617 4620 4623 4626 4629 4632 4635 4638 4641 4644 4647 4650 4653 4656 4659 4662 4665 4668 4671 4674 4677 4680 4683 4686 4689 4692 4695 4698 4701 4704 4707 4710 4713 4716 4719 4722 4725 4728 4731 4734 4737 4740 4743 4746 4749 4752 4755 4758 4761 4764 4767 4770 4773 4776 4779 4782 4785 4788 4791 4794 4797 4800 4803 4806 4809 4812 4815 4818 4821 4824 4827 4830 4833 4836 4839 4842 4845 4848 4851 4854 4857 4860 4863 4866 4869 4872 4875 4878 4881 4884 4887 4890 4893 4896 4899 4902 4905 4908 4911 4914 4917 4920 4923 4926 4929 4932 4935 4938 4941 4944 4947 4950 4953 4956 4959 4962 4965 4968 4971 4974 4977 4980 4983 4986 4989 4992 4995 4998 5001 5004 5007 5010 5013 5016 5019 5022 5025 5028 5031 5034 5037 5040 5043 5046 5049 5052 5055 5058 5061 5064 5067 5070 5073 5076 5079 5082 5085 5088 5091 5094 5097 5100 5103 5106 5109 5112 5115 5118 5121 5124 5127 5130 5133 5136 5139 5142 5145 5148 5151 5154 5157 5160 5163 5166 5169 5172 5175 5178 5181 5184 5187 5190 5193 5196 5199 5202 5205 5208 5211 5214 5217 5220 5223 5226 5229 5232 5235 5238 5241 5244 5247 5250 5253 5256 5259 5262 5265 5268 5271 5274 5277 5280 5283 5286 5289 5292 5295 5298 5301 5304 5307 5310 5313 5316 5319 5322 5325 5328 5331 5334 5337 5340 5343 5346 5349 5352 5355 5358 5361 5364 5367 5370 5373 5376 5379 5382 5385 5388 5391 5394 5397 5400 5403 5406 5409 5412 5415 5418 5421 5424 5427 5430 5433 5436 5439 5442 5445 5448 5451 5454 5457 5460 5463 5466 5469 5472 5475 5478 5481 5484 5487 5490 5493 5496 5499 5502 5505 5508 5511 5514 5517 5520 5523 5526 5529 5532 5535 5538 5541 5544 5547 5550 5553 5556 5559 5562 5565 5568 5571 5574 5577 5580 5583 5586 5589 5592 5595 5598 5601 5604 5607 5610 5613 5616 5619 5622 5625 5628 5631 5634 5637 5640 5643 5646 5649 5652 5655 5658 5661 5664 5667 5670 5673 5676 5679 5682 5685 5688 5691 5694 5697 5700 5703 5706 5709 5712 5715 5718 5721 5724 5727 5730 5733 5736 5739 5742 5745 5748 5751 5754 5757 5760 5763 5766 5769 5772 5775 5778 5781 5784 5787 5790 5793 5796 5799 5802 5805 5808 5811 5814 5817 5820 5823 5826 5829 5832 5835 5838 5841 5844 5847 5850 5853 5856 5859 5862 5865 5868 5871 5874 5877 5880 5883 5886 5889 5892 5895 5898 5901 5904 5907 5910 5913 5916 5919 5922 5925 5928 5931 5934 5937 5940 5943 5946 5949 5952 5955 5958 5961 5964 5967 5970 5973 5976 5979 5982 5985 5988 5991 5994 5997 6000 6003 6006 6009 6012 6015 6018 6021 6024 6027 6030 6033 6036 6039 6042 6045 6048 6051 6054 6057 6060 6063 6066 6069 6072 6075 6078 6081 6084 6087 6090 6093 6096 6099 6102 6105 6108 6111 6114 6117 6120 6123 6126 6129 6132 6135 6138 6141 6144 6147 6150 6153 6156 6159 6162 6165 6168 6171 6174 6177 6180 6183 6186 6189 6192 6195 6198 6201 6204 6207 6210 6213 6216 6219 6222 6225 6228 6231 6234 6237 6240 6243 6246 6249 6252 6255 6258 6261 6264 6267 6270 6273 6276 6279 6282 6285 6288 6291 6294 6297 6300 6303 6306 6309 6312 6315 6318 6321 6324 6327 6330 6333 6336 6339 6342 6345 6348 6351 6354 6357 6360 6363 6366 6369 6372 6375 6378 6381 6384 6387 6390 6393 6396 6399 6402 6405 6408 6411 6414 6417 6420 6423 6426 6429 6432 6435 6438 6441 6444 6447 6450 6453 6456 6459 6462 6465 6468 6471 6474 6477 6480 6483 6486 6489 6492 6495 6498 6501 6504 6507 6510 6513 6516 6519 6522 6525 6528 6531 6534 6537 6540 6543 6546 6549 6552 6555 6558 6561 6564 6567 6570 6573 6576 6579 6582 6585 6588 6591 6594 6597 6600 6603 6606 6609 6612 6615 6618 6621 6624 6627 6630 6633 6636 6639 6642 6645 6648 6651 6654 6657 6660 6663 6666 6669 6672 6675 6678 6681 6684 6687 6690 6693 6696 6699 6702 6705 6708 6711 6714 6717 6720 6723 6726 6729 6732 6735 6738 6741 6744 6747 6750 6753 6756 6759 6762 6765 6768 6771 6774 6777 6780 6783 6786 6789 6792 6795 6798 6801 6804 6807 6810 6813 6816 6819 6822 6825 6828 6831 6834 6837 6840 6843 6846 6849 6852 6855 6858 6861 6864 6867 6870 6873 6876 6879 6882 6885 6888 6891 6894 6897 6900 6903 6906 6909 6912 6915 6918 6921 6924 6927 6930 6933 6936 6939 6942 6945 6948 6951 6954 6957 6960 6963 6966 6969 6972 6975 6978 6981 6984 6987 6990 6993 6996 6999 7002 7005 7008 7011 7014 7017 7020 7023 7026 7029 7032 7035 7038 7041 7044 7047 7050 7053 7056 7059 7062 7065 7068 7071 7074 7077 7080 7083 7086 7089 7092 7095 7098 7101 7104 7107 7110 7113 7116 7119 7122 7125 7128 7131 7134 7137 7140 7143 7146 7149 7152 7155 7158 7161 7164 7167 7170 7173 7176 7179 7182 7185 7188 7191 7194 7197 7200 7203 7206 7209 7212 7215 7218 7221 7224 7227 7230 7233 7236 7239 7242 7245 7248 7251 7254 7257 7260 7263 7266 7269 7272 7275 7278 7281 7284 7287 7290 7293 7296 7299 7302 7305 7308 7311 7314 7317 7320 7323 7326 7329 7332 7335 7338 7341 7344 7347 7350 7353 7356 7359 7362 7365 7368 7371 7374 7377 7380 7383 7386 7389 7392 7395 7398 7401 7404 7407 7410 7413 7416 7419 7422 7425 7428 7431 7434 7437 7440 7443 7446 7449 7452 7455 7458 7461 7464 7467 7470 7473 7476 7479 7482 7485 7488 7491 7494 7497 7500 7503 7506 7509 7512 7515 7518 7521 7524 7527 7530 7533 7536 7539 7542 7545 7548 7551 7554 7557 7560 7563 7566 7569 7572 7575 7578 7581 7584 7587 7590 7593 7596 7599 7602 7605 7608 7611 7614 7617 7620 7623 7626 7629 7632 7635 7638 7641 7644 7647 7650 7653 7656 7659 7662 7665 7668 7671 7674 7677 7680 7683 7686 7689 7692 7695 7698 7701 7704 7707 7710 7713 7716 7719 7722 7725 7728 7731 7734 7737 7740 7743 7746 7749 7752 7755 7758 7761 7764 7767 7770 7773 7776 7779 7782 7785 7788 7791 7794 7797 7800 7803 7806 7809 7812 7815 7818 7821 7824 7827 7830 7833 7836 7839 7842 7845 7848 7851 7854 7857 7860 7863 7866 7869 7872 7875 7878 7881 7884 7887 7890 7893 7896 7899 7902 7905 7908 7911 7914 7917 7920 7923 7926 7929 7932 7935 7938 7941 7944 7947 7950 7953 7956 7959 7962 7965 7968 7971 7974 7977 7980 7983 7986 7989 7992 7995 7998 8001 8004 8007 8010 8013 8016 8019 8022 8025 8028 8031 8034 8037 8040 8043 8046 8049 8052 8055 8058 8061 8064 8067 8070 8073 8076 8079 8082 8085 8088 8091 8094 8097 8100 8103 8106 8109 8112 8115 8118 8121 8124 8127 8130 8133 8136 8139 8142 8145 8148 8151 8154 8157 8160 8163 8166 8169 8172 8175 8178 8181 8184 8187 8190 8193 8196 8199 8202 8205 8208 8211 8214 8217 8220 8223 8226 8229 8232 8235 8238 8241 8244 8247 8250 8253 8256 8259 8262 8265 8268 8271 8274 8277 8280 8283 8286 8289 8292 8295 8298 8301 8304 8307 8310 8313 8316 8319 8322 8325 8328 8331 8334 8337 8340 8343 8346 8349 8352 8355 8358 8361 8364 8367 8370 8373 8376 8379 8382 8385 8388 8391 8394 8397 8400 8403 8406 8409 8412 8415 8418 8421 8424 8427 8430 8433 8436 8439 8442 8445 8448 8451 8454 8457 8460 8463 8466 8469 8472 8475 8478 8481 8484 8487 8490 8493 8496 8499 8502 8505 8508 8511 8514 8517 8520 8523 8526 8529 8532 8535 8538 8541 8544 8547 8550 8553 8556 8559 8562 8565 8568 8571 8574 8577 8580 8583 8586 8589 8592 8595 8598 8601 8604 8607 8610 8613 8616 8619 8622 8625 8628 8631 8634 8637 8640 8643 8646 8649 8652 8655 8658 8661 8664 8667 8670 8673 8676 8679 8682 8685 8688 8691 8694 8697 8700 8703 8706 8709 8712 8715 8718 8721 8724 8727 8730 8733 8736 8739 8742 8745 8748 8751 8754 8757 8760 8763 8766 8769 8772 8775 8778 8781 8784 8787 8790 8793 8796 8799 8802 8805 8808 8811 8814 8817 8820 8823 8826 8829 8832 8835 8838 8841 8844 8847 8850 8853 8856 8859 8862 8865 8868 8871 8874 8877 8880 8883 8886 8889 8892 8895 8898 8901 8904 8907 8910 8913 8916 8919 8922 8925 8928 8931 8934 8937 8940 8943 8946 8949 8952 8955 8958 8961 8964 8967 8970 8973 8976 8979 8982 8985 8988 8991 8994 8997 9000 </DataArray>
<DataArray  type="UInt8"  Name="types"  format="ascii">5 5 5 5 5 5 5 5 5 5 5 5 5 5 5 5 5 5 5 5 5 5 5 5 5 5 5 5 5 5 5 5 5 5 5 5 5 5 5 5 5 5 5 5 5 5 5 5 5 5 5 5 5 5 5 5 5 5 5 5 5 5 5 5 5 5 5 5 5 5 5 5 5 5 5 5 5 5 5 5 5 5 5 5 5 5 5 5 5 5 5 5 5 5 5 5 5 5 5 5 5 5 5 5 5 5 5 5 5 5 5 5 5 5 5 5 5 5 5 5 5 5 5 5 5 5 5 5 5 5 5 5 5 5 5 5 5 5 5 5 5 5 5 5 5 5 5 5 5 5 5 5 5 5 5 5 5 5 5 5 5 5 5 5 5 5 5 5 5 5 5 5 5 5 5 5 5 5 5 5 5 5 5 5 5 5 5 5 5 5 5 5 5 5 5 5 5 5 5 5 5 5 5 5 5 5 5 5 5 5 5 5 5 5 5 5 5 5 5 5 5 5 5 5 5 5 5 5 5 5 5 5 5 5 5 5 5 5 5 5 5 5 5 5 5 5 5 5 5 5 5 5 5 5 5 5 5 5 5 5 5 5 5 5 5 5 5 5 5 5 5 5 5 5 5 5 5 5 5 5 5 5 5 5 5 5 5 5 5 5 5 5 5 5 5 5 5 5 5 5 5 5 5 5 5 5 5 5 5 5 5 5 5 5 5 5 5 5 5 5 5 5 5 5 5 5 5 5 5 5 5 5 5 5 5 5 5 5 5 5 5 5 5 5 5 5 5 5 5 5 5 5 5 5 5 5 5 5 5 5 5 5 5 5 5 5 5 5 5 5 5 5 5 5 5 5 5 5 5 5 5 5 5 5 5 5 5 5 5 5 5 5 5 5 5 5 5 5 5 5 5 5 5 5 5 5 5 5 5 5 5 5 5 5 5 5 5 5 5 5 5 5 5 5 5 5 5 5 5 5 5 5 5 5 5 5 5 5 5 5 5 5 5 5 5 5 5 5 5 5 5 5 5 5 5 5 5 5 5 5 5 5 5 5 5 5 5 5 5 5 5 5 5 5 5 5 5 5 5 5 5 5 5 5 5 5 5 5 5 5 5 5 5 5 5 5 5 5 5 5 5 5 5 5 5 5 5 5 5 5 5 5 5 5 5 5 5 5 5 5 5 5 5 5 5 5 5 5 5 5 5 5 5 5 5 5 5 5 5 5 5 5 5 5 5 5 5 5 5 5 5 5 5 5 5 5 5 5 5 5 5 5 5 5 5 5 5 5 5 5 5 5 5 5 5 5 5 5 5 5 5 5 5 5 5 5 5 5 5 5 5 5 5 5 5 5 5 5 5 5 5 5 5 5 5 5 5 5 5 5 5 5 5 5 5 5 5 5 5 5 5 5 5 5 5 5 5 5 5 5 5 5 5 5 5 5 5 5 5 5 5 5 5 5 5 5 5 5 5 5 5 5 5 5 5 5 5 5 5 5 5 5 5 5 5 5 5 5 5 5 5 5 5 5 5 5 5 5 5 5 5 5 5 5 5 5 5 5 5 5 5 5 5 5 5 5 5 5 5 5 5 5 5 5 5 5 5 5 5 5 5 5 5 5 5 5 5 5 5 5 5 5 5 5 5 5 5 5 5 5 5 5 5 5 5 5 5 5 5 5 5 5 5 5 5 5 5 5 5 5 5 5 5 5 5 5 5 5 5 5 5 5 5 5 5 5 5 5 5 5 5 5 5 5 5 5 5 5 5 5 5 5 5 5 5 5 5 5 5 5 5 5 5 5 5 5 5 5 5 5 5 5 5 5 5 5 5 5 5 5 5 5 5 5 5 5 5 5 5 5 5 5 5 5 5 5 5 5 5 5 5 5 5 5 5 5 5 5 5 5 5 5 5 5 5 5 5 5 5 5 5 5 5 5 5 5 5 5 5 5 5 5 5 5 5 5 5 5 5 5 5 5 5 5 5 5 5 5 5 5 5 5 5 5 5 5 5 5 5 5 5 5 5 5 5 5 5 5 5 5 5 5 5 5 5 5 5 5 5 5 5 5 5 5 5 5 5 5 5 5 5 5 5 5 5 5 5 5 5 5 5 5 5 5 5 5 5 5 5 5 5 5 5 5 5 5 5 5 5 5 5 5 5 5 5 5 5 5 5 5 5 5 5 5 5 5 5 5 5 5 5 5 5 5 5 5 5 5 5 5 5 5 5 5 5 5 5 5 5 5 5 5 5 5 5 5 5 5 5 5 5 5 5 5 5 5 5 5 5 5 5 5 5 5 5 5 5 5 5 5 5 5 5 5 5 5 5 5 5 5 5 5 5 5 5 5 5 5 5 5 5 5 5 5 5 5 5 5 5 5 5 5 5 5 5 5 5 5 5 5 5 5 5 5 5 5 5 5 5 5 5 5 5 5 5 5 5 5 5 5 5 5 5 5 5 5 5 5 5 5 5 5 5 5 5 5 5 5 5 5 5 5 5 5 5 5 5 5 5 5 5 5 5 5 5 5 5 5 5 5 5 5 5 5 5 5 5 5 5 5 5 5 5 5 5 5 5 5 5 5 5 5 5 5 5 5 5 5 5 5 5 5 5 5 5 5 5 5 5 5 5 5 5 5 5 5 5 5 5 5 5 5 5 5 5 5 5 5 5 5 5 5 5 5 5 5 5 5 5 5 5 5 5 5 5 5 5 5 5 5 5 5 5 5 5 5 5 5 5 5 5 5 5 5 5 5 5 5 5 5 5 5 5 5 5 5 5 5 5 5 5 5 5 5 5 5 5 5 5 5 5 5 5 5 5 5 5 5 5 5 5 5 5 5 5 5 5 5 5 5 5 5 5 5 5 5 5 5 5 5 5 5 5 5 5 5 5 5 5 5 5 5 5 5 5 5 5 5 5 5 5 5 5 5 5 5 5 5 5 5 5 5 5 5 5 5 5 5 5 5 5 5 5 5 5 5 5 5 5 5 5 5 5 5 5 5 5 5 5 5 5 5 5 5 5 5 5 5 5 5 5 5 5 5 5 5 5 5 5 5 5 5 5 5 5 5 5 5 5 5 5 5 5 5 5 5 5 5 5 5 5 5 5 5 5 5 5 5 5 5 5 5 5 5 5 5 5 5 5 5 5 5 5 5 5 5 5 5 5 5 5 5 5 5 5 5 5 5 5 5 5 5 5 5 5 5 5 5 5 5 5 5 5 5 5 5 5 5 5 5 5 5 5 5 5 5 5 5 5 5 5 5 5 5 5 5 5 5 5 5 5 5 5 5 5 5 5 5 5 5 5 5 5 5 5 5 5 5 5 5 5 5 5 5 5 5 5 5 5 5 5 5 5 5 5 5 5 5 5 5 5 5 5 5 5 5 5 5 5 5 5 5 5 5 5 5 5 5 5 5 5 5 5 5 5 5 5 5 5 5 5 5 5 5 5 5 5 5 5 5 5 5 5 5 5 5 5 5 5 5 5 5 5 5 5 5 5 5 5 5 5 5 5 5 5 5 5 5 5 5 5 5 5 5 5 5 5 5 5 5 5 5 5 5 5 5 5 5 5 5 5 5 5 5 5 5 5 5 5 5 5 5 5 5 5 5 5 5 5 5 5 5 5 5 5 5 5 5 5 5 5 5 5 5 5 5 5 5 5 5 5 5 5 5 5 5 5 5 5 5 5 5 5 5 5 5 5 5 5 5 5 5 5 5 5 5 5 5 5 5 5 5 5 5 5 5 5 5 5 5 5 5 5 5 5 5 5 5 5 5 5 5 5 5 5 5 5 5 5 5 5 5 5 5 5 5 5 5 5 5 5 5 5 5 5 5 5 5 5 5 5 5 5 5 5 5 5 5 5 5 5 5 5 5 5 5 5 5 5 5 5 5 5 5 5 5 5 5 5 5 5 5 5 5 5 5 5 5 5 5 5 5 5 5 5 5 5 5 5 5 5 5 5 5 5 5 5 5 5 5 5 5 5 5 5 5 5 5 5 5 5 5 5 5 5 5 5 5 5 5 5 5 5 5 5 5 5 5 5 5 5 5 5 5 5 5 5 5 5 5 5 5 5 5 5 5 5 5 5 5 5 5 5 5 5 5 5 5 5 5 5 5 5 5 5 5 5 5 5 5 5 5 5 5 5 5 5 5 5 5 5 5 5 5 5 5 5 5 5 5 5 5 5 5 5 5 5 5 5 5 5 5 5 5 5 5 5 5 5 5 5 5 5 5 5 5 5 5 5 5 5 5 5 5 5 5 5 5 5 5 5 5 5 5 5 5 5 5 5 5 5 5 5 5 5 5 5 5 5 5 5 5 5 5 5 5 5 5 5 5 5 5 5 5 5 5 5 5 5 5 5 5 5 5 5 5 5 5 5 5 5 5 5 5 5 5 5 5 5 5 5 5 5 5 5 5 5 5 5 5 5 5 5 5 5 5 5 5 5 5 5 5 5 5 5 5 5 5 5 5 5 5 5 5 5 5 5 5 5 5 5 5 5 5 5 5 5 5 5 5 5 5 5 5 5 5 5 5 5 5 5 5 5 5 5 5 5 5 5 5 5 5 5 5 5 5 5 5 5 5 5 5 5 5 5 5 5 5 5 5 5 5 5 5 5 5 5 5 5 5 5 5 5 5 5 5 5 5 5 5 5 5 5 5 5 5 5 5 5 5 5 5 5 5 5 5 5 5 5 5 5 5 5 5 5 5 5 5 5 5 5 5 5 5 5 5 5 5 5 5 5 5 5 5 5 5 5 5 5 5 5 5 5 5 5 5 5 5 5 5 5 5 5 5 5 5 5 5 5 5 5 5 5 5 5 5 5 5 5 5 5 5 5 5 5 5 5 5 5 5 5 5 5 5 5 5 5 5 5 5 5 5 5 5 5 5 5 5 5 5 5 5 5 5 5 5 5 5 5 5 5 5 5 5 5 5 5 5 5 5 5 5 5 5 5 5 5 5 5 5 5 5 5 5 5 5 5 5 5 5 5 5 5 5 5 5 5 5 5 5 5 5 5 5 5 5 5 5 5 5 5 5 5 5 5 5 5 5 5 5 5 5 5 5 5 5 5 5 5 5 5 5 5 5 5 5 5 5 5 5 5 5 5 5 5 5 5 5 5 5 5 5 5 5 5 5 5 5 5 5 5 5 5 5 5 5 5 5 5 5 5 5 5 5 5 5 5 5 5 5 5 5 5 5 5 5 5 5 5 5 5 5 5 5 5 5 5 5 5 5 5 5 5 5 5 5 5 5 5 5 5 5 5 5 5 5 5 5 5 5 5 5 5 5 5 5 5 5 5 5 5 5 5 5 5 5 5 5 5 5 5 5 5 5 5 5 5 5 5 5 5 5 5 5 5 5 5 5 5 5 5 5 5 5 5 5 5 5 5 5 5 5 5 5 5 5 5 5 5 5 5 5 5 5 5 5 5 5 5 5 5 5 5 5 5 5 5 5 5 5 5 5 5 5 5 5 5 5 5 5 5 5 5 5 5 5 5 5 5 5 5 5 5 5 5 5 5 5 5 5 5 5 5 5 5 5 5 5 5 5 5 5 5 5 5 5 5 5 5 5 5 5 5 5 5 5 5 5 5 5 5 5 5 5 5 5 5 5 5 5 5 5 5 5 5 5 5 5 5 5 5 5 5 5 5 5 5 5 5 5 5 5 5 5 5 5 5 5 5 5 5 5 5 5 5 5 5 5 5 5 5 5 5 5 5 5 5 5 5 5 5 5 5 5 5 5 5 5 5 5 5 5 5 5 5 5 5 5 5 5 5 5 5 5 5 5 5 5 5 5 5 5 5 5 5 5 5 5 5 5 5 5 5 5 5 5 5 5 5 5 5 5 5 5 5 5 5 5 5 5 5 5 5 5 5 5 5 5 5 5 5 5 5 5 5 5 5 5 5 5 5 5 5 5 5 5 5 5 5 5 5 5 5 5 5 5 5 5 5 5 5 5 5 5 5 5 5 5 5 5 5 5 5 5 5 5 5 5 5 5 5 5 5 5 5 5 5 5 5 5 5 5 5 5 5 5 5 5 5 5 5 5 5 5 5 5 5 5 5 5 5 5 5 5 5 5 5 5 5 5 5 5 5 5 5 5 5 5 5 5 5 5 5 5 5 5 5 5 5 5 5 5 5 5 5 5 5 5 5 5 5 5 5 5 5 5 5 5 5 5 5 5 5 5 5 5 5 5 5 5 5 5 5 5 5 5 5 5 5 5 5 5 5 5 5 5 5 5 5 5 5 5 5 5 5 5 5 5 5 5 5 5 5 5 5 5 5 5 5 5 5 5 5 5 5 5 5 5 5 5 5 5 5 5 5 5 5 5 5 5 5 5 5 5 5 5 5 5 5 5 5 5 5 5 5 5 5 5 5 5 5 5 5 5 5 5 5 5 5 5 5 5 5 5 5 5 5 5 5 5 5 5 5 5 5 5 5 5 5 5 5 5 5 5 5 5 5 5 5 5 5 5 5 5 5 5 5 5 5 5 5 5 5 5 5 5 5 5 5 5 5 5 5 5 5 5 5 5 5 5 5 5 5 5 5 5 5 5 5 5 5 5 5 5 5 5 5 5 5 5 5 5 5 5 5 5 5 5 5 5 5 5 5 5 5 5 5 5 5 5 5 5 5 5 5 5 5 5 5 5 5 5 5 5 5 5 5 5 5 5 5 5 5 5 5 5 5 5 5 5 5 5 5 5 5 5 5 5 5 5 5 5 5 5 5 5 5 5 5 5 5 5 5 5 5 5 5 5 5 5 </DataArray>
</Cells>
<PointData  Scalars="mean stress"> 
<DataArray  type="Float64"  Name="mean stress"  format="ascii">5.8490533423461275e+03  5.7885247875570276e+03  5.7065838676497824e+03  5.6253737648212345e+03  5.5448942192261457e+03  5.4651448743998262e+03  5.3861252715359178e+03  5.3078348502622030e+03  5.2302729487382521e+03  5.1534388038828265e+03  5.0773315516199109e+03  5.0019502271590009e+03  4.9272937653076551e+03  4.8533610008157693e+03  4.7801506687520396e+03  4.7076614049111249e+03  4.6358917462528443e+03  4.5648401313711875e+03  4.4945049009948007e+03  4.4248842985164547e+03  4.3559764705524822e+03  4.2877794675328505e+03  4.2202912443169826e+03  4.1535096608405011e+03  4.0874324827893865e+03  4.0220573822990809e+03  3.9573819386845271e+03  3.8934036391918098e+03  3.8301198797787688e+03  3.7675279659195512e+03  3.7056251134324843e+03  3.6444084493338082e+03  3.5838750127130070e+03  3.5240217556313328e+03  3.4648455440416787e+03  3.4063431587298255e+03  3.3485112962775729e+03  3.2913465700408169e+03  3.2348455111546464e+03  3.1790045695479621e+03  3.1238201149829774e+03  3.0692884381049075e+03  3.0154057515136201e+03  2.9621681908475834e+03  2.9095718158818372e+03  2.8576126116390351e+03  2.8062864895176435e+03  2.7555892884269228e+03  2.7055167759355209e+03  2.6560646494311668e+03  2.6072285372884844e+03  2.5590040000461186e+03  2.5113865315925214e+03  2.4643715603580386e+03  2.4179544505129988e+03  2.3721305031726552e+03  2.3268949576048540e+03  2.2822429924451753e+03  2.2381697269098058e+03  2.1946702220144034e+03  2.1517394817955610e+03  2.1093724545266923e+03  2.0675640339423621e+03  2.0263090604537733e+03  1.9856023223680190e+03  1.9454385571015180e+03  1.9058124523915299e+03  1.8667186475045878e+03  1.8281517344373560e+03  1.7901062591147502e+03  1.7525767225802806e+03  1.7155575821806092e+03  1.6790432527401738e+03  1.6430281077312350e+03  1.6075064804303129e+03  1.5724726650697182e+03  1.5379209179752020e+03  1.5038454586922862e+03  1.4702404711073884e+03  1.4371001045472030e+03  1.4044184748737107e+03  1.3721896655600403e+03  1.3404077287573539e+03  1.3090666863439710e+03  1.2781605309609452e+03  1.2476832270317821e+03  1.2176287117687680e+03  1.1879908961593519e+03  1.1587636659389950e+03  1.1299408825452426e+03  1.1015163840548134e+03  1.0734839861057592e+03  1.0458374827962623e+03  1.0185706475680138e+03  9.9167723407387325e+02  9.6515097702007256e+02  9.3898559299576914e+02  9.1317478127950312e+02  8.8771222462581238e+02  8.6259159003691684e+02  8.3780652950693752e+02  8.1335068075459435e+02  7.8921766792965582e+02  7.6540110230292089e+02  7.4189458293329233e+02  7.1869169732059720e+02  6.9578602203017795e+02  6.7317112330459338e+02  6.5084055765386995e+02  6.2878787242518274e+02  6.0700660635357985e+02  5.8549029009489254e+02  5.6423244674258967e+02  5.4322659231952775e+02  5.2246623626294434e+02  5.0194488188472042e+02  4.8165602682181100e+02  4.6159316347311886e+02  4.4174977942428075e+02  4.2211935787024851e+02  4.0269537802939521e+02  3.8347131557532958e+02  3.6444064308007557e+02  3.4559683050496096e+02  3.2693334576181610e+02  3.0844365539784059e+02  2.9012122548817530e+02  2.7195952284619688e+02  2.5395201673719868e+02  2.3609218134070267e+02  2.1837349928003559e+02  2.0078946652880245e+02  1.8333359880421506e+02  1.6599943871743216e+02  1.4878056068711317e+02  1.3167056517521544e+02  1.1466304090251083e+02  9.7751450339718133e+01  8.0928826526920091e+01  6.4187190266606933e+01  4.7515908242259464e+01  3.0902394674589399e+01  1.4327568508741612e+01  -1.2901680934253499e+00  -4.8255320697067194e+00  -9.0519750983011384e+00  -1.5028671006400426e+01  -2.4183637786624463e+01  -3.8119355059823661e+01  -5.8027358785869353e+01  -9.5746464437863068e+01  5.8490451490290097e+03  5.7885165915332236e+03  5.7065757052646704e+03  5.6253656317848390e+03  5.5448861166266861e+03  5.4651368026863820e+03  5.3861172312341532e+03  5.3078268418768421e+03  5.2302649727668404e+03  5.1534308608134234e+03  5.0773236419309915e+03  5.0019423513193869e+03  4.9272859237761450e+03  4.8533531940407975e+03  4.7801428971716105e+03  4.7076536689522527e+03  4.6358840463317247e+03  4.5648324678926774e+03  4.4944972743519211e+03  4.4248767090905640e+03  4.3559689187132080e+03  4.2877719536369759e+03  4.2202837687088359e+03  4.1535022238517868e+03  4.0874250847382564e+03  4.0220500234908586e+03  3.9573746194105229e+03  3.8933963597296088e+03  3.8301126403918643e+03  3.7675207668569892e+03  3.7056179549285230e+03  3.6444013316079036e+03  3.5838679359695616e+03  3.5240147200589354e+03  3.4648385498135253e+03  3.4063362060031777e+03  3.3485043851928249e+03  3.2913397007226658e+03  3.2348386837105727e+03  3.1789977840684114e+03  3.1238133715402018e+03  3.0692817367547109e+03  3.0153990922934872e+03  2.9621615737763173e+03  2.9095652409592944e+03  2.8576060788472496e+03  2.8062799988188272e+03  2.7555828397632445e+03  2.7055103692300022e+03  2.6560582845859744e+03  2.6072222141851835e+03  2.5589977185454532e+03  2.5113802915335546e+03  2.4643653615580720e+03  2.4179482927667796e+03  2.3721243862523629e+03  2.3268888812600089e+03  2.2822369564002815e+03  2.2381637308661038e+03  2.1946642656483295e+03  2.1517335647571813e+03  2.1093665764417251e+03  2.0675581944085848e+03  2.0263032590423397e+03  1.9855965586216569e+03  1.9454328305343822e+03  1.9058067624883527e+03  1.8667129937193922e+03  1.8281461161932082e+03  1.7901006758015976e+03  1.7525711735556763e+03  1.7155520667667543e+03  1.6790377702241547e+03  1.6430226573626228e+03  1.6075010614205764e+03  1.5724672765902708e+03  1.5379155591553952e+03  1.5038401286198875e+03  1.4702351688229555e+03  1.4370948290456877e+03  1.4044132250991343e+03  1.3721844404062006e+03  1.3404025270629777e+03  1.3090615068898499e+03  1.2781553724683365e+03  1.2476780881586635e+03  1.2176235911047236e+03  1.1879857922233289e+03  1.1587585771736726e+03  1.1299358073127612e+03  1.1015113206325309e+03  1.0734789326780856e+03  1.0458324374495753e+03  1.0185656082841865e+03  9.9167219872113128e+02  9.6514594334572530e+02  9.3898055861519936e+02  9.1316974366613624e+02  8.8770718109975996e+02  8.6258653774970480e+02  8.3780146542941100e+02  8.1334560165853566e+02  7.8921257036842348e+02  7.6539598259167553e+02  7.4188943712514504e+02  7.1868652117756972e+02  6.9578081099380574e+02  6.7316587246155427e+02  6.5083526169301672e+02  6.2878252559339091e+02  6.0700120240176864e+02  5.8548482221636868e+02  5.6422690749956757e+02  5.4322097356137772e+02  5.2246052902547876e+02  5.0193907627387330e+02  4.8165011187531672e+02  4.6158712699416452e+02  4.4174360778221325e+02  4.2211303575402616e+02  4.0268888815490817e+02  3.8346463830991934e+02  3.6443375598081786e+02  3.4558970772764059e+02  3.2692595729647223e+02  3.0843596607136737e+02  2.9011319362597084e+02  2.7195109845741109e+02  2.5394313901032990e+02  2.3608277512845962e+02  2.1836347010775012e+02  2.0077869346262332e+02  1.8332192422102727e+02  1.6598665372765103e+02  1.4876638466463061e+02  1.3165461757974006e+02  1.1464480438356780e+02  9.7730218877989714e+01  8.0903653175017453e+01  6.4156637494375474e+01  4.7478241776663950e+01  3.0849245620235475e+01  1.4249792726307488e+01  -1.6328692854373739e+00  -4.3465901192146053e+00  -8.0643003432843958e+00  -1.2851144747055550e+01  -2.0093863304694388e+01  -3.1884845866880347e+01  -5.0844051688546422e+01  -7.6003845701253638e+01  5.8490451482437848e+03  5.7885165918500334e+03  5.7065757051631563e+03  5.6253656318146286e+03  5.5448861166352281e+03  5.4651368026979471e+03  5.3861172312452354e+03  5.3078268418879452e+03  5.2302649727778298e+03  5.1534308608243446e+03  5.0773236419418290e+03  5.0019423513301708e+03  4.9272859237868197e+03  4.8533531940514104e+03  4.7801428971820842e+03  4.7076536689626928e+03  4.6358840463420265e+03  4.5648324679027783e+03  4.4944972743620292e+03  4.4248767091005775e+03  4.3559689187229915e+03  4.2877719536466020e+03  4.2202837687183919e+03  4.1535022238612064e+03  4.0874250847474709e+03  4.0220500235000586e+03  3.9573746194193823e+03  3.8933963597384245e+03  3.8301126404005413e+03  3.7675207668653716e+03  3.7056179549368326e+03  3.6444013316161122e+03  3.5838679359773505e+03  3.5240147200667029e+03  3.4648385498210441e+03  3.4063362060104760e+03  3.3485043851999371e+03  3.2913397007296862e+03  3.2348386837170256e+03  3.1789977840748634e+03  3.1238133715464242e+03  3.0692817367606076e+03  3.0153990922991666e+03  2.9621615737816928e+03  2.9095652409646668e+03  2.8576060788520485e+03  2.8062799988234151e+03  2.7555828397676391e+03  2.7055103692341481e+03  2.6560582845895456e+03  2.6072222141886814e+03  2.5589977185484749e+03  2.5113802915363744e+03  2.4643653615605099e+03  2.4179482927688273e+03  2.3721243862541414e+03  2.3268888812611940e+03  2.2822369564013329e+03  2.2381637308665672e+03  2.1946642656483668e+03  2.1517335647568580e+03  2.1093665764410971e+03  2.0675581944073278e+03  2.0263032590407190e+03  1.9855965586195280e+03  1.9454328305317024e+03  1.9058067624851474e+03  1.8667129937156501e+03  1.8281461161889226e+03  1.7901006757967471e+03  1.7525711735501256e+03  1.7155520667605119e+03  1.6790377702175031e+03  1.6430226573548873e+03  1.6075010614123278e+03  1.5724672765813007e+03  1.5379155591457288e+03  1.5038401286091557e+03  1.4702351688115368e+03  1.4370948290331010e+03  1.4044132250858081e+03  1.3721844403919711e+03  1.3404025270470925e+03  1.3090615068731952e+03  1.2781553724503485e+03  1.2476780881393934e+03  1.2176235910840680e+03  1.1879857922010574e+03  1.1587585771497079e+03  1.1299358072873586e+03  1.1015113206053286e+03  1.0734789326488933e+03  1.0458324374183271e+03  1.0185656082506579e+03  9.9167219868521602e+02  9.6514594330697946e+02  9.3898055857371367e+02  9.1316974362164262e+02  8.8770718105153878e+02  8.6258653769805187e+02  8.3780146537397263e+02  8.1334560159844978e+02  7.8921257030349307e+02  7.6539598252158873e+02  7.4188943704871156e+02  7.1868652109473305e+02  6.9578081090367334e+02  6.7316587236312353e+02  6.5083526158542008e+02  6.2878252547539000e+02  6.0700120227156981e+02  5.8548482207225186e+02  5.6422690733887703e+02  5.4322097338059814e+02  5.2246052881938431e+02  5.0193907603457842e+02  4.8165011159083031e+02  4.6158712664388327e+02  4.4174360733260363e+02  4.2211303514892614e+02  4.0268888729541152e+02  3.8346463702636504e+02  3.6443375397843420e+02  3.4558970449222608e+02  3.2692595193803805e+02  3.0843595704706343e+02  2.9011317828215329e+02  2.7195107225857072e+02  2.5394309426871467e+02  2.3608269896560645e+02  2.1836334125856541e+02  2.0077847747153263e+02  1.8332156668377314e+02  1.6598607183302209e+02  1.4876545922422173e+02  1.3165319290862786e+02  1.1464271465347392e+02  9.7727390281194261e+01  8.0900361720846888e+01  6.4154257306219733e+01  4.7480148975143116e+01  3.0867390840341528e+01  1.4273660283557088e+01  -1.0436249403201319e+00  -3.1440870552596376e+00  -5.6929854681059116e+00  -8.1563285001926200e+00  -9.6801047659521195e+00  -1.3381342639931042e+01  -1.9380128578792451e+01  -1.8788907789723922e+01  5.8490451482437738e+03  5.7885165918500334e+03  5.7065757051631590e+03  5.6253656318146368e+03  5.5448861166352081e+03  5.4651368026979681e+03  5.3861172312452427e+03  5.3078268418879397e+03  5.2302649727778116e+03  5.1534308608243509e+03  5.0773236419418563e+03  5.0019423513301590e+03  4.9272859237867733e+03  4.8533531940514258e+03  4.7801428971820887e+03  4.7076536689626819e+03  4.6358840463420083e+03  4.5648324679028119e+03  4.4944972743620183e+03  4.4248767091005629e+03  4.3559689187230406e+03  4.2877719536466338e+03  4.2202837687182309e+03  4.1535022238612073e+03  4.0874250847475296e+03  4.0220500235000522e+03  3.9573746194194450e+03  3.8933963597384832e+03  3.8301126404005440e+03  3.7675207668653620e+03  3.7056179549368503e+03  3.6444013316159421e+03  3.5838679359774674e+03  3.5240147200667402e+03  3.4648385498209514e+03  3.4063362060104992e+03  3.3485043851999808e+03  3.2913397007295516e+03  3.2348386837171206e+03  3.1789977840747679e+03  3.1238133715465738e+03  3.0692817367604944e+03  3.0153990922991939e+03  2.9621615737818152e+03  2.9095652409645313e+03  2.8576060788522041e+03  2.8062799988233942e+03  2.7555828397675600e+03  2.7055103692340977e+03  2.6560582845896770e+03  2.6072222141885736e+03  2.5589977185485309e+03  2.5113802915364317e+03  2.4643653615604394e+03  2.4179482927688778e+03  2.3721243862539022e+03  2.3268888812612568e+03  2.2822369564014029e+03  2.2381637308665199e+03  2.1946642656484373e+03  2.1517335647568020e+03  2.1093665764411044e+03  2.0675581944073519e+03  2.0263032590406228e+03  1.9855965586195236e+03  1.9454328305317269e+03  1.9058067624852113e+03  1.8667129937156167e+03  1.8281461161890111e+03  1.7901006757966579e+03  1.7525711735501427e+03  1.7155520667606456e+03  1.6790377702173694e+03  1.6430226573549890e+03  1.6075010614123944e+03  1.5724672765812531e+03  1.5379155591456988e+03  1.5038401286090593e+03  1.4702351688116330e+03  1.4370948290330784e+03  1.4044132250859627e+03  1.3721844403916937e+03  1.3404025270473851e+03  1.3090615068729530e+03  1.2781553724504731e+03  1.2476780881394734e+03  1.2176235910839173e+03  1.1879857922010856e+03  1.1587585771496854e+03  1.1299358072872487e+03  1.1015113206052977e+03  1.0734789326490290e+03  1.0458324374183564e+03  1.0185656082505258e+03  9.9167219868526206e+02  9.6514594330681132e+02  9.3898055857388840e+02  9.1316974362167252e+02  8.8770718105157084e+02  8.6258653769828663e+02  8.3780146537388543e+02  8.1334560159833643e+02  7.8921257030341758e+02  7.6539598252142991e+02  7.4188943704885571e+02  7.1868652109460231e+02  6.9578081090366561e+02  6.7316587236272278e+02  6.5083526158505390e+02  6.2878252547442207e+02  6.0700120226985280e+02  5.8548482206954748e+02  5.6422690733358377e+02  5.4322097337132527e+02  5.2246052880224681e+02  5.0193907600386586e+02  4.8165011153543293e+02  4.6158712654382958e+02  4.4174360715286520e+02  4.2211303482633798e+02  4.0268888671773192e+02  3.8346463599547820e+02  3.6443375214360043e+02  3.4558970123687033e+02  3.2692594618346885e+02  3.0843594691763155e+02  2.9011316053705411e+02  2.7195104134120265e+02  2.5394304074953055e+02  2.3608260702463107e+02  2.1836318475154627e+02  2.0077821402767731e+02  1.8332112941858293e+02  1.6598535906720306e+02  1.4876432516572541e+02  1.3165144885784693e+02  1.1464016729060270e+02  9.7723977411813877e+01  8.0896550807302447e+01  6.4151935248697683e+01  4.7485243471961695e+01  3.0893340398946307e+01  1.4345955862722144e+01  -4.5224194903136578e-01  -1.8662166977069166e+00  -3.4615458066586444e+00  -4.0235358404267743e+00  -2.4778037076404797e+00  1.0427863060458790e+01  2.8620161562252370e+01  3.5658450837042167e+01  5.8490451490290125e+03  5.7885165915332209e+03  5.7065757052646613e+03  5.6253656317848527e+03  5.5448861166266579e+03  5.4651368026863784e+03  5.3861172312341423e+03  5.3078268418768612e+03  5.2302649727668468e+03  5.1534308608133897e+03  5.0773236419310460e+03  5.0019423513194051e+03  4.9272859237760795e+03  4.8533531940407947e+03  4.7801428971716177e+03  4.7076536689523464e+03  4.6358840463317056e+03  4.5648324678926738e+03  4.4944972743519484e+03  4.4248767090905649e+03  4.3559689187132553e+03  4.2877719536369350e+03  4.2202837687087076e+03  4.1535022238517668e+03  4.0874250847382414e+03  4.0220500234909664e+03  3.9573746194105220e+03  3.8933963597295829e+03  3.8301126403919616e+03  3.7675207668568410e+03  3.7056179549286358e+03  3.6444013316079559e+03  3.5838679359694393e+03  3.5240147200589995e+03  3.4648385498135804e+03  3.4063362060032318e+03  3.3485043851926398e+03  3.2913397007227454e+03  3.2348386837106623e+03  3.1789977840683027e+03  3.1238133715401636e+03  3.0692817367547268e+03  3.0153990922933999e+03  2.9621615737762640e+03  2.9095652409594854e+03  2.8576060788472914e+03  2.8062799988186880e+03  2.7555828397632577e+03  2.7055103692301168e+03  2.6560582845859522e+03  2.6072222141851657e+03  2.5589977185454622e+03  2.5113802915335655e+03  2.4643653615580815e+03  2.4179482927669260e+03  2.3721243862522874e+03  2.3268888812597679e+03  2.2822369564003961e+03  2.2381637308660684e+03  2.1946642656482518e+03  2.1517335647573382e+03  2.1093665764415800e+03  2.0675581944087589e+03  2.0263032590421726e+03  1.9855965586215550e+03  1.9454328305344507e+03  1.9058067624884384e+03  1.8667129937193895e+03  1.8281461161932307e+03  1.7901006758016217e+03  1.7525711735555001e+03  1.7155520667667990e+03  1.6790377702242754e+03  1.6430226573625632e+03  1.6075010614204236e+03  1.5724672765903920e+03  1.5379155591556578e+03  1.5038401286196781e+03  1.4702351688230031e+03  1.4370948290456997e+03  1.4044132250993380e+03  1.3721844404062481e+03  1.3404025270627881e+03  1.3090615068900349e+03  1.2781553724683720e+03  1.2476780881584452e+03  1.2176235911046854e+03  1.1879857922232643e+03  1.1587585771734432e+03  1.1299358073129038e+03  1.1015113206324445e+03  1.0734789326780647e+03  1.0458324374497031e+03  1.0185656082840087e+03  9.9167219872114197e+02  9.6514594334585593e+02  9.3898055861514240e+02  9.1316974366623049e+02  8.8770718109970460e+02  8.6258653774989591e+02  8.3780146542947136e+02  8.1334560165828611e+02  7.8921257036845918e+02  7.6539598259164075e+02  7.4188943712513662e+02  7.1868652117726026e+02  6.9578081099359611e+02  6.7316587246077654e+02  6.5083526169178003e+02  6.2878252559119983e+02  6.0700120239761827e+02  5.8548482220882022e+02  5.6422690748607329e+02  5.4322097353683603e+02  5.2246052898090102e+02  5.0193907619347067e+02  4.8165011173002256e+02  4.6158712673232719e+02  4.4174360731117241e+02  4.2211303490967663e+02  4.0268888664305291e+02  3.8346463561116599e+02  3.6443375117722019e+02  3.4558969920513942e+02  3.2692594223188252e+02  3.0843593955339247e+02  2.9011314716904315e+02  2.7195101751937858e+02  2.5394299890238486e+02  2.3608253443642820e+02  2.1836306039360196e+02  2.0077800380843891e+02  1.8332077954274575e+02  1.6598478787860719e+02  1.4876341601700926e+02  1.3165005249541645e+02  1.1463813609914301e+02  9.7721291780953649e+01  8.0893658701400270e+01  6.4150722632575864e+01  4.7490903548542541e+01  3.0921287256116138e+01  1.4427064726245639e+01  -5.0967711087663695e-02  -9.9296800055485868e-01  -2.1768363144799441e+00  -2.6592540172115053e+00  -1.5421138737358611e+00  -1.0229999985801153e+00  -1.4232397920361869e-01  5.0546015516294549e+00  5.8490533423461266e+03  5.7885247875570340e+03  5.7065838676497879e+03  5.6253737648212591e+03  5.5448942192261347e+03  5.4651448743998471e+03  5.3861252715359578e+03  5.3078348502621766e+03  5.2302729487382503e+03  5.1534388038828083e+03  5.0773315516199409e+03  5.0019502271590054e+03  4.9272937653075987e+03  4.8533610008157939e+03  4.7801506687520723e+03  4.7076614049111749e+03  4.6358917462528580e+03  4.5648401313711820e+03  4.4945049009948452e+03  4.4248842985163747e+03  4.3559764705526122e+03  4.2877794675328014e+03  4.2202912443168125e+03  4.1535096608406802e+03  4.0874324827892601e+03  4.0220573822991519e+03  3.9573819386845266e+03  3.8934036391919217e+03  3.8301198797787847e+03  3.7675279659194821e+03  3.7056251134326035e+03  3.6444084493336782e+03  3.5838750127131370e+03  3.5240217556313182e+03  3.4648455440416160e+03  3.4063431587299388e+03  3.3485112962772478e+03  3.2913465700410047e+03  3.2348455111545709e+03  3.1790045695481517e+03  3.1238201149829661e+03  3.0692884381047138e+03  3.0154057515136906e+03  2.9621681908478208e+03  2.9095718158815739e+03  2.8576126116392038e+03  2.8062864895176331e+03  2.7555892884268083e+03  2.7055167759356586e+03  2.6560646494311313e+03  2.6072285372884135e+03  2.5590040000462373e+03  2.5113865315925887e+03  2.4643715603579349e+03  2.4179544505131685e+03  2.3721305031724287e+03  2.3268949576048826e+03  2.2822429924451799e+03  2.2381697269097635e+03  2.1946702220144334e+03  2.1517394817954796e+03  2.1093724545267828e+03  2.0675640339424358e+03  2.0263090604534652e+03  1.9856023223680156e+03  1.9454385571016157e+03  1.9058124523916181e+03  1.8667186475044564e+03  1.8281517344374874e+03  1.7901062591146690e+03  1.7525767225803506e+03  1.7155575821806635e+03  1.6790432527399539e+03  1.6430281077313612e+03  1.6075064804304479e+03  1.5724726650698346e+03  1.5379209179748714e+03  1.5038454586925216e+03  1.4702404711076072e+03  1.4371001045473693e+03  1.4044184748733981e+03  1.3721896655601367e+03  1.3404077287573277e+03  1.3090666863440624e+03  1.2781605309606095e+03  1.2476832270318630e+03  1.2176287117686825e+03  1.1879908961595722e+03  1.1587636659387754e+03  1.1299408825449134e+03  1.1015163840548457e+03  1.0734839861060157e+03  1.0458374827961813e+03  1.0185706475679079e+03  9.9167723407376855e+02  9.6515097702003652e+02  9.3898559299579688e+02  9.1317478127980871e+02  8.8771222462597370e+02  8.6259159003718412e+02  8.3780652950683009e+02  8.1335068075432275e+02  7.8921766792958442e+02  7.6540110230267589e+02  7.4189458293320934e+02  7.1869169732054991e+02  6.9578602202962020e+02  6.7317112330390898e+02  6.5084055765230983e+02  6.2878787242233841e+02  6.0700660634862732e+02  5.8549029008589639e+02  5.6423244672531996e+02  5.4322659228952512e+02  5.2246623620806565e+02  5.0194488178540848e+02  4.8165602664267436e+02  4.6159316315035534e+02  4.4174977884451192e+02  4.2211935682966043e+02  4.0269537616702593e+02  3.8347131225143539e+02  3.6444063716532781e+02  3.4559682001405832e+02  3.2693332722169276e+02  3.0844362277282039e+02  2.9012116835378583e+02  2.7195942334677255e+02  2.5395184458723298e+02  2.3609188578840568e+02  2.1837299656529302e+02  2.0078862115286640e+02  1.8333219742990383e+02  1.6599715832134223e+02  1.4877694117015531e+02  1.3166501907133357e+02  1.1465498805095420e+02  9.7740787130101637e+01  8.0917245640711030e+01  6.4181340701392614e+01  4.7535712974735603e+01  3.0995450409103057e+01  1.4607342195224536e+01  7.2975101250583074e-01  -6.5687328152967817e-01  -1.8073479155950087e+00  -2.4899909795745980e+00  -3.8517974529484666e+00  -7.4634011418572852e+00  -1.3661433639428621e+01  -1.5860109710739417e+01  5.8407278602316737e+03  5.7473498772711609e+03  5.6657744567269920e+03  5.5849297491086472e+03  5.5048154484207535e+03  5.4254311468113347e+03  5.3467763346575603e+03  5.2688504007868705e+03  5.1916526326665316e+03  5.1151822166366383e+03  5.0394382381734231e+03  4.9644196821864407e+03  4.8901254333463903e+03  4.8165542764460542e+03  4.7437048967917062e+03  4.6715758806266394e+03  4.6001657155855710e+03  4.5294727911791269e+03  4.4594953993088993e+03  4.3902317348126680e+03  4.3216798960383876e+03  4.2538378854475677e+03  4.1867036102469547e+03  4.1202748830492101e+03  4.0545494225586963e+03  3.9895248542877216e+03  3.9251987112958163e+03  3.8615684349581320e+03  3.7986313757555058e+03  3.7363847940930864e+03  3.6748258611406245e+03  3.6139516596969356e+03  3.5537591850769413e+03  3.4942453460208185e+03  3.4354069656267011e+03  3.3772407822987570e+03  3.3197434507242911e+03  3.2629115428592963e+03  3.2067415489417695e+03  3.1512298785181779e+03  3.0963728614889365e+03  3.0421667491698095e+03  2.9886077153672300e+03  2.9356918574701417e+03  2.8834151975584950e+03  2.8317736835192795e+03  2.7807631901775189e+03  2.7303795204423623e+03  2.6806184064581444e+03  2.6314755107687633e+03  2.5829464274925454e+03  2.5350266835003072e+03  2.4877117396074918e+03  2.4409969917685380e+03  2.3948777722773311e+03  2.3493493509769960e+03  2.3044069364678353e+03  2.2600456773218216e+03  2.2162606633029245e+03  2.1730469265819988e+03  2.1303994429578224e+03  2.0883131330806173e+03  2.0467828636657898e+03  2.0058034487156237e+03  1.9653696507356692e+03  1.9254761819467906e+03  1.8861177054935301e+03  1.8472888366522523e+03  1.8089841440272605e+03  1.7711981507491830e+03  1.7339253356576853e+03  1.6971601344850274e+03  1.6608969410276443e+03  1.6251301083065573e+03  1.5898539497273653e+03  1.5550627402174173e+03  1.5207507173644651e+03  1.4869120825382411e+03  1.4535410019961962e+03  1.4206316079886483e+03  1.3881779998370300e+03  1.3561742450108768e+03  1.3246143801816527e+03  1.2934924122649152e+03  1.2628023194521199e+03  1.2325380522191358e+03  1.2026935343229679e+03  1.1732626637825535e+03  1.1442393138403511e+03  1.1156173339107995e+03  1.0873905505035034e+03  1.0595527681380718e+03  1.0320977702331322e+03  1.0050193199809873e+03  9.7831116120035733e+02  9.5196701917543669e+02  9.2598060146739374e+02  9.0034559871192948e+02  8.7505568540039928e+02  8.5010452062757918e+02  8.2548574883856304e+02  8.0119300053853726e+02  7.7721989299046402e+02  7.5356003089203136e+02  7.3020700703082196e+02  7.0715440291822392e+02  6.8439578940455135e+02  6.6192472727470067e+02  6.3973476781900615e+02  6.1781945338783783e+02  5.9617231792408495e+02  5.7478688747814419e+02  5.5365668069647154e+02  5.3277520929504294e+02  5.1213597851565817e+02  4.9173248755497980e+02  4.7155822997748635e+02  4.5160669411868798e+02  4.3187136345113680e+02  4.1234571695704904e+02  3.9302322946974073e+02  3.7389737201513731e+02  3.5496161215233423e+02  3.3620941432127404e+02  3.1763424023020087e+02  2.9922954930965722e+02  2.8098879928588559e+02  2.6290544697066076e+02  2.4497294936646927e+02  2.2718476523641624e+02  2.0953435726821988e+02  1.9201519478892052e+02  1.7462075644532459e+02  1.5734453078951111e+02  1.4018000906042184e+02  1.2312065602255369e+02  1.0615982589238561e+02  8.9290549836108383e+01  7.2505032757428637e+01  5.5793520822048656e+01  3.9141862540394200e+01  2.2524998267884378e+01  5.5753983368713893e+00  -3.1276555483533199e+00  -7.0526033456345303e+00  -1.2181166184392037e+01  -1.9806248214189857e+01  -3.1489417747743630e+01  -4.9503211109903475e+01  -8.4969215256995255e+01  5.8407292309363092e+03  5.7473512402988717e+03  5.6657758146711367e+03  5.5849311020245450e+03  5.5048167962334128e+03  5.4254324894306792e+03  5.3467776719990989e+03  5.2688517327668924e+03  5.1916539592029876e+03  5.1151835376489053e+03  5.0394395535825861e+03  4.9644209919151863e+03  4.8901267373192013e+03  4.8165555745889969e+03  4.7437061890326531e+03  4.6715771668955322e+03  4.6001669958137618e+03  4.5294740653002746e+03  4.4594966672583896e+03  4.3902329965280560e+03  4.3216811514590045e+03  4.2538391345150776e+03  4.1867048529050307e+03  4.1202761192436683e+03  4.0545506522374867e+03  3.9895260774013541e+03  3.9251999277968889e+03  3.8615696448014078e+03  3.7986325788983359e+03  3.7363859904950427e+03  3.6748270507644829e+03  3.6139528425067460e+03  3.5537603610401461e+03  3.4942465151074452e+03  3.4354081278090957e+03  3.3772419375522672e+03  3.3197445990265210e+03  3.2629126841914267e+03  3.2067426832866859e+03  3.1512310058629182e+03  3.0963739818225995e+03  3.0421678624845035e+03  2.9886088216582439e+03  2.9356929567363773e+03  2.8834162898010186e+03  2.8317747687432316e+03  2.7807642683904214e+03  2.7303805916556166e+03  2.6806194706861902e+03  2.6314765680301525e+03  2.5829474778082322e+03  2.5350277268956152e+03  2.4877127761111874e+03  2.4409980214122306e+03  2.3948787950982005e+03  2.3493503670140722e+03  2.3044079457654498e+03  2.2600466799275555e+03  2.2162616592690524e+03  2.1730479159641982e+03  2.1304004258169089e+03  2.0883141094811290e+03  2.0467838336770137e+03  2.0058044124114463e+03  1.9653706081943428e+03  1.9254771332526441e+03  1.8861186507342077e+03  1.8472897759215577e+03  1.8089850774244110e+03  1.7711990783784809e+03  1.7339262576292663e+03  1.6971610509147511e+03  1.6608978520370804e+03  1.6251310140250096e+03  1.5898548502886258e+03  1.5550636357635449e+03  1.5207516080441562e+03  1.4869129685075538e+03  1.4535418834188138e+03  1.4206324850361023e+03  1.3881788726899506e+03  1.3561751138584475e+03  1.3246152452216904e+03  1.2934932737066808e+03  1.2628031775126419e+03  1.2325389071294169e+03  1.2026943863233012e+03  1.1732635131264351e+03  1.1442401607939091e+03  1.1156181787546700e+03  1.0873913935324254e+03  1.0595536096627513e+03  1.0320986105819961e+03  1.0050201594996209e+03  9.7831200025465580e+02  9.5196785815222165e+02  9.2598144077539678e+02  9.0034643878666827e+02  8.7505652670149198e+02  8.5010536364614336e+02  8.2548659409644574e+02  8.0119384859255638e+02  7.7722074443489646e+02  7.5356088636391701e+02  7.3020786721337674e+02  7.0715526854501752e+02  6.8439666126529562e+02  6.6192560622326278e+02  6.3973565477844136e+02  6.1782034935931142e+02  5.9617322399812724e+02  5.7478780484235494e+02  5.5365761065183074e+02  5.3277615326938985e+02  5.1213693808135542e+02  4.9173346444880707e+02  4.7155922612725499e+02  4.5160771166672453e+02  4.3187240479084568e+02  4.1234678476649702e+02  3.9302432675298178e+02  3.7389850214535318e+02  3.5496277891260786e+02  3.3621062193382346e+02  3.1763549336479906e+02  2.9923085303493690e+02  2.8099015892950820e+02  2.6290686780361978e+02  2.4497443600660489e+02  2.2718632060954437e+02  2.0953598092845871e+02  1.9201688042987618e+02  1.7462248868596299e+02  1.5734628212188503e+02  1.4018174005066803e+02  1.2312232719232304e+02  1.0616144202680057e+02  8.9292283650325146e+01  7.2507537436951651e+01  5.5798625683975949e+01  3.9154347765309815e+01  2.2561421772016519e+01  5.5753828394874949e+00  -2.2308996233419327e+00  -5.4960847008779732e+00  -8.9760353226534253e+00  -1.3401471334334150e+01  -2.0785463656927902e+01  -3.4349369600791405e+01  -5.3909936308217588e+01  5.8407292310532539e+03  5.7473512402450333e+03  5.6657758146890419e+03  5.5849311020149935e+03  5.5048167962283469e+03  5.4254324894250176e+03  5.3467776719935046e+03  5.2688517327614054e+03  5.1916539591975497e+03  5.1151835376434474e+03  5.0394395535772082e+03  4.9644209919097730e+03  4.8901267373139872e+03  4.8165555745835845e+03  4.7437061890274608e+03  4.6715771668902516e+03  4.6001669958088223e+03  4.5294740652950804e+03  4.4594966672535638e+03  4.3902329965230392e+03  4.3216811514541751e+03  4.2538391345102036e+03  4.1867048529004196e+03  4.1202761192388589e+03  4.0545506522328237e+03  3.9895260773969112e+03  3.9251999277925952e+03  3.8615696447970181e+03  3.7986325788940044e+03  3.7363859904908927e+03  3.6748270507602365e+03  3.6139528425028511e+03  3.5537603610361948e+03  3.4942465151036195e+03  3.4354081278053031e+03  3.3772419375487884e+03  3.3197445990232136e+03  3.2629126841879324e+03  3.2067426832831438e+03  3.1512310058599855e+03  3.0963739818195590e+03  3.0421678624816977e+03  2.9886088216553039e+03  2.9356929567336229e+03  2.8834162897988508e+03  2.8317747687406068e+03  2.7807642683882050e+03  2.7303805916535607e+03  2.6806194706840602e+03  2.6314765680284686e+03  2.5829474778067033e+03  2.5350277268943487e+03  2.4877127761097854e+03  2.4409980214108882e+03  2.3948787950974279e+03  2.3493503670133773e+03  2.3044079457648127e+03  2.2600466799271744e+03  2.2162616592688837e+03  2.1730479159639576e+03  2.1304004258174728e+03  2.0883141094816842e+03  2.0467838336774851e+03  2.0058044124124970e+03  1.9653706081956716e+03  1.9254771332540015e+03  1.8861186507361160e+03  1.8472897759232821e+03  1.8089850774268762e+03  1.7711990783811425e+03  1.7339262576320407e+03  1.6971610509181521e+03  1.6608978520402775e+03  1.6251310140293212e+03  1.5898548502926990e+03  1.5550636357682226e+03  1.5207516080495088e+03  1.4869129685130004e+03  1.4535418834248428e+03  1.4206324850423662e+03  1.3881788726970885e+03  1.3561751138661023e+03  1.3246152452298120e+03  1.2934932737150980e+03  1.2628031775222623e+03  1.2325389071391483e+03  1.2026943863340243e+03  1.1732635131376405e+03  1.1442401608067391e+03  1.1156181787676774e+03  1.0873913935467208e+03  1.0595536096775500e+03  1.0320986105983095e+03  1.0050201595169179e+03  9.7831200027349098e+02  9.5196785817227749e+02  9.2598144079692258e+02  9.0034643880960050e+02  8.7505652672630208e+02  8.5010536367310215e+02  8.2548659412541815e+02  8.0119384862372431e+02  7.7722074446880674e+02  7.5356088640060671e+02  7.3020786725316259e+02  7.0715526858792703e+02  6.8439666131234753e+02  6.6192560627420346e+02  6.3973565483395214e+02  6.1782034941986240e+02  5.9617322406437563e+02  5.7478780491380985e+02  5.5365761072838586e+02  5.3277615335069447e+02  5.1213693816456430e+02  4.9173346452850507e+02  4.7155922619491008e+02  4.5160771170116652e+02  4.3187240475832760e+02  4.1234678460233442e+02  3.9302432634000559e+02  3.7389850127722440e+02  3.5496277721880710e+02  3.3621061876605393e+02  3.1763548758690513e+02  2.9923084267211891e+02  2.8099014057978462e+02  2.6290683566176409e+02  2.4497438027138224e+02  2.2718622496283623e+02  2.0953581867293317e+02  1.9201660888225510e+02  1.7462204176174950e+02  1.5734556226625048e+02  1.4018061410009210e+02  1.2312063931581261e+02  1.0615907666655552e+02  8.9289356468838463e+01  7.2504881815885653e+01  5.5798997801857801e+01  3.9164613806858270e+01  2.2608864705542654e+01  5.5397051419304963e+00  -1.0569759061521191e+00  -3.3958391248073183e+00  -4.8916977273180100e+00  -4.8139132918559469e+00  -7.9834384118223656e-01  1.1846323895855798e+01  2.2165549534964882e+01  5.8407292309363138e+03  5.7473512402988799e+03  5.6657758146711094e+03  5.5849311020245859e+03  5.5048167962334201e+03  5.4254324894306346e+03  5.3467776719990252e+03  5.2688517327669415e+03  5.1916539592030495e+03  5.1151835376489089e+03  5.0394395535825888e+03  4.9644209919151781e+03  4.8901267373192395e+03  4.8165555745888696e+03  4.7437061890326340e+03  4.6715771668953830e+03  4.6001669958139746e+03  4.5294740653002846e+03  4.4594966672584278e+03  4.3902329965280114e+03  4.3216811514590245e+03  4.2538391345151122e+03  4.1867048529051335e+03  4.1202761192434318e+03  4.0545506522374744e+03  3.9895260774015792e+03  3.9251999277969730e+03  3.8615696448012623e+03  3.7986325788983290e+03  3.7363859904951614e+03  3.6748270507642319e+03  3.6139528425068456e+03  3.5537603610401202e+03  3.4942465151074775e+03  3.4354081278090016e+03  3.3772419375524460e+03  3.3197445990267488e+03  3.2629126841911020e+03  3.2067426832866472e+03  3.1512310058629637e+03  3.0963739818225031e+03  3.0421678624848746e+03  2.9886088216579888e+03  2.9356929567363673e+03  2.8834162898014283e+03  2.8317747687427518e+03  2.7807642683903946e+03  2.7303805916556425e+03  2.6806194706860761e+03  2.6314765680303308e+03  2.5829474778083336e+03  2.5350277268958971e+03  2.4877127761108704e+03  2.4409980214121956e+03  2.3948787950980545e+03  2.3493503670144228e+03  2.3044079457651333e+03  2.2600466799278006e+03  2.2162616592688532e+03  2.1730479159640877e+03  2.1304004258170098e+03  2.0883141094811645e+03  2.0467838336767159e+03  2.0058044124116720e+03  1.9653706081947037e+03  1.9254771332523126e+03  1.8861186507344053e+03  1.8472897759212685e+03  1.8089850774247145e+03  1.7711990783783124e+03  1.7339262576292610e+03  1.6971610509146153e+03  1.6608978520372468e+03  1.6251310140249755e+03  1.5898548502884921e+03  1.5550636357634651e+03  1.5207516080446671e+03  1.4869129685071459e+03  1.4535418834186466e+03  1.4206324850360118e+03  1.3881788726900911e+03  1.3561751138588359e+03  1.3246152452217702e+03  1.2934932737062475e+03  1.2628031775132192e+03  1.2325389071290531e+03  1.2026943863232339e+03  1.1732635131258869e+03  1.1442401607947750e+03  1.1156181787544658e+03  1.0873913935325597e+03  1.0595536096625931e+03  1.0320986105819954e+03  1.0050201594994212e+03  9.7831200025483213e+02  9.5196785815233602e+02  9.2598144077533539e+02  9.0034643878636928e+02  8.7505652670169854e+02  8.5010536364595089e+02  8.2548659409672848e+02  8.0119384859262334e+02  7.7722074443474401e+02  7.5356088636430798e+02  7.3020786721344541e+02  7.0715526854391260e+02  6.8439666126548013e+02  6.6192560622266149e+02  6.3973565477731847e+02  6.1782034935749198e+02  5.9617322399433931e+02  5.7478780483666185e+02  5.5365761064012179e+02  5.3277615324910971e+02  5.1213693804435263e+02  4.9173346438170239e+02  4.7155922600712069e+02  4.5160771145001820e+02  4.3187240440149452e+02  4.1234678406935416e+02  3.9302432550677787e+02  3.7389849992452253e+02  3.5496277496553182e+02  3.3621061494583472e+02  3.1763548104196980e+02  2.9923083140027313e+02  2.8099012114250928e+02  2.6290680220270667e+02  2.4497432292179982e+02  2.2718612730988320e+02  2.0953565388441547e+02  1.9201633408863867e+02  1.7462159062693519e+02  1.5734483694426447e+02  1.4017948130483788e+02  1.2311894409810019e+02  1.0615670858568195e+02  8.9286450410833240e+01  7.2502343842805175e+01  5.5799767942259940e+01  3.9176548000658137e+01  2.2654150767678637e+01  5.5342089452404979e+00  -8.0530145877070095e-02  -1.8788586479542477e+00  -2.5355884173199925e+00  -1.2751494785589208e+00  4.7064537733075440e+00  1.9881038560157645e+01  3.2647935038628553e+01  5.8407278602316746e+03  5.7473498772711546e+03  5.6657744567269956e+03  5.5849297491086463e+03  5.5048154484207816e+03  5.4254311468113010e+03  5.3467763346574975e+03  5.2688504007868623e+03  5.1916526326666362e+03  5.1151822166366574e+03  5.0394382381733494e+03  4.9644196821864780e+03  4.8901254333464231e+03  4.8165542764460033e+03  4.7437048967914907e+03  4.6715758806266585e+03  4.6001657155856283e+03  4.5294727911792106e+03  4.4594953993088802e+03  4.3902317348127199e+03  4.3216798960383194e+03  4.2538378854477332e+03  4.1867036102469228e+03  4.1202748830490227e+03  4.0545494225587536e+03  3.9895248542878294e+03  3.9251987112958791e+03  3.8615684349579637e+03  3.7986313757555295e+03  3.7363847940930359e+03  3.6748258611405608e+03  3.6139516596970384e+03  3.5537591850767926e+03  3.4942453460210327e+03  3.4354069656264151e+03  3.3772407822991136e+03  3.3197434507243538e+03  3.2629115428591163e+03  3.2067415489415389e+03  3.1512298785181220e+03  3.0963728614893034e+03  3.0421667491698981e+03  2.9886077153668693e+03  2.9356918574702449e+03  2.8834151975586669e+03  2.8317736835190208e+03  2.7807631901775367e+03  2.7303795204424150e+03  2.6806184064579120e+03  2.6314755107691344e+03  2.5829464274926227e+03  2.5350266835003004e+03  2.4877117396076778e+03  2.4409969917681283e+03  2.3948777722773739e+03  2.3493493509772129e+03  2.3044069364675852e+03  2.2600456773219412e+03  2.2162606633029104e+03  2.1730469265816787e+03  2.1303994429580025e+03  2.0883131330805277e+03  2.0467828636657107e+03  2.0058034487159894e+03  1.9653696507357838e+03  1.9254761819467014e+03  1.8861177054933846e+03  1.8472888366520208e+03  1.8089841440274151e+03  1.7711981507490420e+03  1.7339253356576401e+03  1.6971601344850710e+03  1.6608969410278312e+03  1.6251301083064945e+03  1.5898539497272577e+03  1.5550627402172784e+03  1.5207507173651888e+03  1.4869120825378918e+03  1.4535410019958551e+03  1.4206316079885378e+03  1.3881779998371528e+03  1.3561742450112051e+03  1.3246143801815006e+03  1.2934924122649663e+03  1.2628023194522332e+03  1.2325380522191624e+03  1.2026935343226519e+03  1.1732626637821397e+03  1.1442393138410562e+03  1.1156173339106863e+03  1.0873905505037324e+03  1.0595527681377785e+03  1.0320977702331923e+03  1.0050193199807240e+03  9.7831116120067588e+02  9.5196701917564610e+02  9.2598060146698231e+02  9.0034559871224212e+02  8.7505568539989190e+02  8.5010452062743491e+02  8.2548574883893832e+02  8.0119300053891664e+02  7.7721989299011784e+02  7.5356003089225305e+02  7.3020700703078023e+02  7.0715440291742539e+02  6.8439578940414208e+02  6.6192472727388315e+02  6.3973476781739805e+02  6.1781945338460275e+02  5.9617231791818972e+02  5.7478688746867113e+02  5.5365668067799368e+02  5.3277520926186219e+02  5.1213597845593597e+02  4.9173248744605723e+02  4.7155822978260198e+02  4.5160669376719039e+02  4.3187136281989319e+02  4.1234571582607839e+02  3.9302322744797891e+02  3.7389736841095419e+02  3.5496160574729652e+02  3.3620940297888353e+02  3.1763422022303541e+02  2.9922951417457142e+02  2.8098873790097934e+02  2.6290534036274397e+02  2.4497276550848426e+02  2.2718445078730292e+02  2.0953382488195732e+02  1.9201430461607606e+02  1.7461929146316893e+02  1.5734216941549877e+02  1.4017630944440862e+02  1.2311509376702270e+02  1.0615199128008753e+02  8.9280754747043119e+01  7.2495893180365471e+01  5.5793708617864894e+01  3.9174512712277576e+01  2.2659191668475124e+01  5.5016081830182149e+00  3.1265892470628476e-01  -1.2594777536867998e+00  -2.1482064518257658e+00  -3.0120532345384228e+00  -5.2346126347169211e+00  -1.0489739912175464e+01  -2.0912570661388457e+01  </DataArray> 
</PointData> 
</Piece>
</UnstructuredGrid>
</VTKFile>