<?xml version="1.0"?>
<VTKFile type="UnstructuredGrid"  version="0.1"  >
<UnstructuredGrid>
<Piece  NumberOfPoints="6382" NumberOfCells="12354">
<Points>
<DataArray  type="Float64"  NumberOfComponents="3"  format="ascii">0 -3 0  0 0 0  10 -3 0  10 0 0  5.2 0 0  5.2 -0.4 0  5.5 -0.4 0  5.5 -0.6000000000000001 0  4.5 -0.6000000000000001 0  4.5 -0.4 0  4.8 -0.4 0  4.8 0 0  0 -2.666666666666667 0  0 -2.333333333333333 0  0 -2 0  0 -1.666666666666667 0  0 -1.333333333333333 0  0 -1 0  0 -0.666666666666667 0  0 -0.3333333333333335 0  9.836518447033493 -3 0  9.676485174132324 -3 0  9.519716728676565 -3 0  9.366040597429432 -3 0  9.215293522901804 -3 0  9.067325347766827 -3 0  8.921978167503752 -3 0  8.779125793186953 -3 0  8.638633440048579 -3 0  8.500376249002967 -3 0  8.364235730108557 -3 0  8.230099119300583 -3 0  8.097858693472926 -3 0  7.96741165420296 -3 0  7.838659590098249 -3 0  7.711508416266758 -3 0  7.585867779025237 -3 0  7.461651037321721 -3 0  7.338774694871047 -3 0  7.217158563845377 -3 0  7.096725097152937 -3 0  6.977399455051415 -3 0  6.859109304538208 -3 0  6.741784490575633 -3 0  6.625356935727237 -3 0  6.509760461250432 -3 0  6.394930659317325 -3 0  6.2808046903675 -3 0  6.167321173775116 -3 0  6.054420032640893 -3 0  5.942042373994132 -3 0  5.830130346471836 -3 0  5.718627047087892 -3 0  5.607476358937133 -3 0  5.496622874861212 -3 0  5.386011773348871 -3 0  5.275588701244851 -3 0  5.1652996754838 -3 0  5.055090972556302 -3 0  4.944909027443701 -3 0  4.834700324516204 -3 0  4.724411298755151 -3 0  4.613988226651132 -3 0  4.50337712513879 -3 0  4.392523641062869 -3 0  4.281372952912111 -3 0  4.169869653528168 -3 0  4.05795762600587 -3 0  3.94557996735911 -3 0  3.832678826224885 -3 0  3.719195309632506 -3 0  3.605069340682676 -3 0  3.490239538749567 -3 0  3.374643064272765 -3 0  3.25821550942437 -3 0  3.140890695461794 -3 0  3.022600544948583 -3 0  2.903274902847057 -3 0  2.782841436154621 -3 0  2.661225305128949 -3 0  2.538348962678273 -3 0  2.414132220974763 -3 0  2.288491583733238 -3 0  2.161340409901745 -3 0  2.032588345797035 -3 0  1.902141306527067 -3 0  1.76990088069941 -3 0  1.63576426989143 -3 0  1.499623750997021 -3 0  1.361366559951406 -3 0  1.220874206813038 -3 0  1.078021832496241 -3 0  0.9326746522331657 -3 0  0.7847064770981866 -3 0  0.6339594025705644 -3 0  0.4802832713234277 -3 0  0.3235148258676688 -3 0  0.1634815529665037 -3 0  10 -0.3333333333333333 0  10 -0.6666666666666666 0  10 -1 0  10 -1.333333333333333 0  10 -1.666666666666667 0  10 -2 0  10 -2.333333333333333 0  10 -2.666666666666667 0  5.242711110725164 0 0  5.286293876642154 0 0  5.330766086609641 0 0  5.37614589213589 0 0  5.422451816439484 0 0  5.469702760205794 0 0  5.517918009017504 0 0  5.567117241892008 0 0  5.617320540096343 0 0  5.668548395644089 0 0  5.720821717893487 0 0  5.774161842649544 0 0  5.828590541642586 0 0  5.88413003019757 0 0  5.940802977381058 0 0  5.998632515893446 0 0  6.057642249375406 0 0  6.117856262977496 0 0  6.179299133651088 0 0  6.241995940085244 0 0  6.305972273082686 0 0  6.371254245606542 0 0  6.43786850326221 0 0  6.505842235920577 0 0  6.575203187664691 0 0  6.645979668539436 0 0  6.71820056760014 0 0  6.791895362764803 0 0  6.867094133292654 0 0  6.943827572794882 0 0  7.022127001289535 0 0  7.10202437703821 0 0  7.183552311040527 0 0  7.266744080707336 0 0  7.351633641831447 0 0  7.438255642584554 0 0  7.526645439439152 0 0  7.616839110330926 0 0  7.708873468012155 0 0  7.802786077905059 0 0  7.898615271449994 0 0  7.996400162886068 0 0  8.096180664647234 0 0  8.197997502517053 0 0  8.301892235188374 0 0  8.407907268711336 0 0  8.516085874431543 0 0  8.626472207031901 0 0  8.739111321743804 0 0  8.854049193814495 0 0  8.971332736524433 0 0  9.091009820696414 0 0  9.21312929427506 0 0  9.337741001971482 0 0  9.464895805719847 0 0  9.594645605970797 0 0  9.727043361679982 0 0  9.862143111819449 0 0  5.2 -0.01666666666666669 0  5.2 -0.03333333333333339 0  5.2 -0.05000000000000009 0  5.2 -0.06666666666666679 0  5.2 -0.0833333333333335 0  5.2 -0.1000000000000002 0  5.2 -0.1166666666666669 0  5.2 -0.1333333333333336 0  5.2 -0.1500000000000002 0  5.2 -0.1666666666666669 0  5.2 -0.1833333333333335 0  5.2 -0.2000000000000001 0  5.2 -0.2166666666666668 0  5.2 -0.2333333333333335 0  5.2 -0.2500000000000002 0  5.2 -0.2666666666666669 0  5.2 -0.2833333333333335 0  5.2 -0.3000000000000002 0  5.2 -0.3166666666666668 0  5.2 -0.3333333333333335 0  5.2 -0.3500000000000001 0  5.2 -0.3666666666666668 0  5.2 -0.3833333333333334 0  5.2125 -0.4 0  5.225 -0.4 0  5.2375 -0.4 0  5.25 -0.4 0  5.2625 -0.4 0  5.275 -0.4 0  5.2875 -0.4 0  5.3 -0.4 0  5.3125 -0.4 0  5.325 -0.4 0  5.337499999999999 -0.4 0  5.35 -0.4 0  5.3625 -0.4 0  5.375 -0.4 0  5.3875 -0.4 0  5.4 -0.4 0  5.4125 -0.4 0  5.425 -0.4 0  5.4375 -0.4 0  5.45 -0.4 0  5.4625 -0.4 0  5.475 -0.4 0  5.4875 -0.4 0  5.5 -0.4083333333333334 0  5.5 -0.4166666666666667 0  5.5 -0.425 0  5.5 -0.4333333333333334 0  5.5 -0.4416666666666668 0  5.5 -0.4500000000000001 0  5.5 -0.4583333333333334 0  5.5 -0.4666666666666668 0  5.5 -0.4750000000000001 0  5.5 -0.4833333333333335 0  5.5 -0.4916666666666668 0  5.5 -0.5000000000000002 0  5.5 -0.5083333333333335 0  5.5 -0.5166666666666668 0  5.5 -0.5250000000000002 0  5.5 -0.5333333333333335 0  5.5 -0.5416666666666669 0  5.5 -0.5500000000000002 0  5.5 -0.5583333333333335 0  5.5 -0.5666666666666668 0  5.5 -0.5750000000000002 0  5.5 -0.5833333333333335 0  5.5 -0.5916666666666668 0  5.479591836734694 -0.6000000000000001 0  5.459183673469388 -0.6000000000000001 0  5.438775510204081 -0.6000000000000001 0  5.418367346938775 -0.6000000000000001 0  5.397959183673469 -0.6000000000000001 0  5.377551020408164 -0.6000000000000001 0  5.357142857142857 -0.6000000000000001 0  5.336734693877551 -0.6000000000000001 0  5.316326530612245 -0.6000000000000001 0  5.295918367346939 -0.6000000000000001 0  5.275510204081633 -0.6000000000000001 0  5.255102040816326 -0.6000000000000001 0  5.23469387755102 -0.6000000000000001 0  5.214285714285714 -0.6000000000000001 0  5.193877551020408 -0.6000000000000001 0  5.173469387755102 -0.6000000000000001 0  5.153061224489796 -0.6000000000000001 0  5.13265306122449 -0.6000000000000001 0  5.112244897959184 -0.6000000000000001 0  5.091836734693878 -0.6000000000000001 0  5.071428571428571 -0.6000000000000001 0  5.051020408163265 -0.6000000000000001 0  5.030612244897959 -0.6000000000000001 0  5.010204081632653 -0.6000000000000001 0  4.989795918367347 -0.6000000000000001 0  4.969387755102041 -0.6000000000000001 0  4.948979591836735 -0.6000000000000001 0  4.928571428571429 -0.6000000000000001 0  4.908163265306122 -0.6000000000000001 0  4.887755102040816 -0.6000000000000001 0  4.86734693877551 -0.6000000000000001 0  4.846938775510204 -0.6000000000000001 0  4.826530612244898 -0.6000000000000001 0  4.806122448979592 -0.6000000000000001 0  4.785714285714286 -0.6000000000000001 0  4.76530612244898 -0.6000000000000001 0  4.744897959183674 -0.6000000000000001 0  4.724489795918368 -0.6000000000000001 0  4.704081632653061 -0.6000000000000001 0  4.683673469387755 -0.6000000000000001 0  4.663265306122449 -0.6000000000000001 0  4.642857142857143 -0.6000000000000001 0  4.622448979591836 -0.6000000000000001 0  4.602040816326531 -0.6000000000000001 0  4.581632653061225 -0.6000000000000001 0  4.561224489795919 -0.6000000000000001 0  4.540816326530612 -0.6000000000000001 0  4.520408163265306 -0.6000000000000001 0  4.5 -0.5916666666666668 0  4.5 -0.5833333333333334 0  4.5 -0.5750000000000001 0  4.5 -0.5666666666666668 0  4.5 -0.5583333333333333 0  4.5 -0.55 0  4.5 -0.5416666666666667 0  4.5 -0.5333333333333333 0  4.5 -0.525 0  4.5 -0.5166666666666666 0  4.5 -0.5083333333333333 0  4.5 -0.4999999999999999 0  4.5 -0.4916666666666666 0  4.5 -0.4833333333333332 0  4.5 -0.4749999999999999 0  4.5 -0.4666666666666666 0  4.5 -0.4583333333333333 0  4.5 -0.45 0  4.5 -0.4416666666666667 0  4.5 -0.4333333333333333 0  4.5 -0.425 0  4.5 -0.4166666666666667 0  4.5 -0.4083333333333334 0  4.5125 -0.4 0  4.525 -0.4 0  4.5375 -0.4 0  4.55 -0.4 0  4.5625 -0.4 0  4.575 -0.4 0  4.587499999999999 -0.4 0  4.6 -0.4 0  4.6125 -0.4 0  4.625 -0.4 0  4.637499999999999 -0.4 0  4.649999999999999 -0.4 0  4.6625 -0.4 0  4.675 -0.4 0  4.6875 -0.4 0  4.699999999999999 -0.4 0  4.712499999999999 -0.4 0  4.725 -0.4 0  4.7375 -0.4 0  4.75 -0.4 0  4.7625 -0.4 0  4.774999999999999 -0.4 0  4.7875 -0.4 0  4.8 -0.3833333333333333 0  4.8 -0.3666666666666666 0  4.8 -0.3499999999999999 0  4.8 -0.3333333333333333 0  4.8 -0.3166666666666665 0  4.8 -0.2999999999999998 0  4.8 -0.2833333333333331 0  4.8 -0.2666666666666664 0  4.8 -0.2499999999999998 0  4.8 -0.2333333333333331 0  4.8 -0.2166666666666665 0  4.8 -0.1999999999999999 0  4.8 -0.1833333333333332 0  4.8 -0.1666666666666665 0  4.8 -0.1499999999999998 0  4.8 -0.1333333333333331 0  4.8 -0.1166666666666665 0  4.8 -0.09999999999999987 0  4.8 -0.0833333333333332 0  4.8 -0.06666666666666654 0  4.8 -0.04999999999999988 0  4.8 -0.03333333333333327 0  4.8 -0.01666666666666661 0  0.1378568875240437 0 0  0.2729566377271358 0 0  0.4053543934976697 0 0  0.5351041938077431 0 0  0.6622589976130751 0 0  0.7868707053643811 0 0  0.9089901789958823 0 0  1.028667263218748 0 0  1.14595080597766 0 0  1.260888678095464 0 0  1.373527792852679 0 0  1.483914125496606 0 0  1.592092731258683 0 0  1.698107764821866 0 0  1.802002497531814 0 0  1.90381933543871 0 0  2.003599837235452 0 0  2.101384728705643 0 0  2.197213922283282 0 0  2.291126532207516 0 0  2.38316088991875 0 0  2.473354560839241 0 0  2.56174435771825 0 0  2.648366358500676 0 0  2.733255919649871 0 0  2.81644768934063 0 0  2.897975623365796 0 0  2.977872999136252 0 0  3.056172427651654 0 0  3.132905867173631 0 0  3.208104637720262 0 0  3.28179943290277 0 0  3.354020331980409 0 0  3.42479681287121 0 0  3.494157764630528 0 0  3.562131497303279 0 0  3.628745754972536 0 0  3.69402772750921 0 0  3.758004060518725 0 0  3.820700866964234 0 0  3.882143737648484 0 0  3.942357751260559 0 0  4.001367484751855 0 0  4.05919702327295 0 0  4.11586997046454 0 0  4.171409459027038 0 0  4.22583815802703 0 0  4.279178282789492 0 0  4.331451605044766 0 0  4.382679460597882 0 0  4.432882758807096 0 0  4.482081991686007 0 0  4.530297240501667 0 0  4.57754818427149 0 0  4.623854108578173 0 0  4.669233914107101 0 0  4.713706124076873 0 0  4.757288889995772 0 0  6.680782541890389 -0.06083541060055575 0  3.318129837014984 -0.05950723843848094 0  5.489795918367347 -0.6132554908742516 0  5.327524860195934 -0.6172628544597158 0  5.124203722708103 -0.6159257606326989 0  4.918367346938775 -0.6176739878323354 0  4.71340637387418 -0.6210757100504042 0  4.510204081632653 -0.6132554908742516 0  5.507080219277013 -0.5791666666666664 0  5.507007489948996 -0.4960926228895064 0  5.507460302031152 -0.4219048435397426 0  4.492655045321802 -0.5793322423010938 0  4.491531943340634 -0.4944191832053209 0  4.49278312163513 -0.4208333333333334 0  6.336697511439705 -0.05188539877494214 0  3.664082924427043 -0.05439378420351471 0  3.441836931718298 -2.885244660537754 0  6.57108361253264 -2.893660965682511 0  7.14323462812623 -0.0699982318411343 0  2.85758662794667 -0.06733044806248945 0  4.003405437001127 -2.905132207652987 0  5.991403798044456 -2.90480810200905 0  4.556781399258848 -2.905542296130181 0  2.428338049542874 -0.0709592626059139 0  1.9528215006071 -0.07647600558850853 0  7.567184481171173 -0.07119735457920573 0  8.040738592721311 -0.0795076332780702 0  5.442942023782731 -2.905370771075543 0  4.590949276581583 -0.6158474567751354 0  5.225831958946559 -0.6170881608021319 0  5.018777772140905 -0.6205514659459322 0  4.815101563512727 -0.6197284357242974 0  5.506990112793408 -0.5372667871113953 0  4.49278312163513 -0.5375000000000004 0  5.394104838487451 -0.3894821996805593 0  5.45501754519606 -0.3905723228577349 0  4.606249999999999 -0.3891746824526943 0  4.54331893045785 -0.3892062291107246 0  7.153079934636068 -2.901976406731795 0  2.843058169500839 -2.896181260497856 0  6.089405517467934 -0.05094551348636678 0  3.913177756917907 -0.05076848648817789 0  7.777708459683266 -2.896315630472399 0  2.221437753291344 -2.890049092872302 0  8.433414410577836 -2.879183516012696 0  1.560955913587919 -2.887715328604051 0  5.213856591203784 -0.2082371159010594 0  4.785886535701625 -0.2065962702331345 0  1.540901476851987 -0.07257821062322689 0  8.458841647366947 -0.08799367263371272 0  4.997748189409744 -2.904868103491296 0  5.407977837261488 -0.6164943708921239 0  5.33125 -0.3891746824526952 0  4.669132026361133 -0.3887661324610168 0  5.50721687836487 -0.4624999999999995 0  4.49278312163513 -0.4624999999999995 0  5.856360285920077 -0.04761762201236075 0  4.144051218861413 -0.04357252025254765 0  5.216021385376431 -0.2728778058106367 0  4.785538058216565 -0.2750952277715097 0  5.694685056768789 -0.04481732464696808 0  4.304017736303746 -0.04253285010595054 0  5.492865495030813 -0.3916485017029512 0  4.50625 -0.3909789020439118 0  4.653061224489796 -0.6176739878323354 0  5.279406582165286 -0.3879204802953522 0  4.719357324004912 -0.3883729388843 0  8.904356662529702 -0.09970493936449332 0  1.084495334814711 -0.1019374431977682 0  3.094684084673875 -0.06427113656258743 0  6.905527721772763 -0.05745416996050956 0  8.846975411298832 -2.866818050499836 0  1.14944801965464 -2.877308133997724 0  5.491367376645545 -0.04174091740565311 0  4.506189616093837 -0.04133807399080291 0  5.215548682544569 -0.1571562514927602 0  4.783482326144694 -0.1596032163696703 0  0.7224883412661374 -0.126142863494439 0  9.273716223479735 -0.09788866756059633 0  5.214433756729741 -0.1083333333333338 0  4.785121713443881 -0.1078944476561676 0  9.697170140184824 -1.537808139033223 0  0.2872023395789451 -1.549330877086487 0  5.213397644972966 -0.3249896158760952 0  4.78704412501462 -0.3255710163568668 0  5.352076415118645 -0.03653666749951556 0  4.646518109253654 -0.0369725348910932 0  9.290515620011032 -2.872121892102415 0  0.7097322236386141 -2.878302428861949 0  5.2442220474057 -0.3899255413858453 0  4.756096175897178 -0.3903434370226186 0  4.548567398460295 -0.6154449769134989 0  4.408248546540187 -0.04150397587754173 0  5.589834670206828 -0.04448611556556958 0  4.032078861170561 -0.04803881357185236 0  5.967848959103641 -0.04731217006462796 0  3.790360192937331 -0.04979800789271582 0  6.210861150697868 -0.05191614484244456 0  3.525503727979547 -0.05654054608990533 0  6.470721662458404 -0.0567483360093286 0  5.450774957860681 -0.6164300239859999 0  3.202682265177175 -2.907002130127035 0  1.317628166698353 -0.09386673331871709 0  8.690096827559792 -0.09940702830621695 0  1.75632311302077 -0.08390020800898834 0  8.24997266824926 -0.08819696223153173 0  6.8092799158277 -2.905426682746845 0  2.244494286340853 -0.07527748343627927 0  7.757503002421598 -0.08087460384758405 0  2.691239360066832 -0.06844020383525784 0  7.311169710219088 -0.08253554269277719 0  3.780615320832506 -2.919278664198719 0  8.032635173837942 -2.887763495919691 0  1.96974852099569 -2.884183203309643 0  6.22794463673859 -2.901397596302575 0  4.333613979180738 -2.902980955318292 0  7.388435684352053 -2.903898365955707 0  2.59339377220639 -2.901452307400936 0  5.663011152353379 -2.903841635721863 0  4.776464347092439 -2.905146031414928 0  5.225337045632029 -2.894769013984557 0  9.711914976955097 -0.8572253078400239 0  0.2757926333486651 -0.8449841203316388 0  5.216105335747622 -0.2416767119588634 0  4.783803801998506 -0.2422890912629878 0  5.285714285714286 -0.6168550043154325 0  5.36734693877551 -0.6176739878323354 0  5.30625 -0.3891746824526943 0  5.356664416265933 -0.3883515565557321 0  4.694103800079811 -0.3886034498588431 0  4.64210848062221 -0.3885058362872307 0  5.182844769785199 -0.62082465717924 0  5.079114985775607 -0.6188315143853098 0  4.979591836734694 -0.6176739878323354 0  4.877192172939413 -0.6205346116123435 0  4.771271408181071 -0.6153708252008987 0  5.418749999999999 -0.3893117448973824 0  4.581249999999999 -0.3895320562528144 0  5.507022920185658 -0.5624999999999989 0  4.492542482538769 -0.5630577277095026 0  5.507635280683195 -0.5211565621998402 0  4.49278312163513 -0.5208333333333321 0  5.50721687836487 -0.4791666666666656 0  5.50704619475026 -0.4458333333333351 0  4.49108398057798 -0.4789618000773412 0  4.493039687793118 -0.4458333333333346 0  5.507540816373275 -0.404335639885173 0  4.49243258359505 -0.4043555088278983 0  0.4702573362153011 -0.1132632042994179 0  9.525245303967516 -0.1232435558423519 0  9.690770292557064 -2.19103415343178 0  0.2686224596451829 -2.191613197575319 0  5.216699570580408 -0.07643785212138088 0  4.785566243270259 -0.07499999999999951 0  5.508604720456668 -0.5957852792704575 0  4.491588962273696 -0.5958930437888571 0  4.786146554691408 -0.3583106564262564 0  5.212852463196149 -0.3591082127813277 0  9.616767832166055 -2.84068367097804 0  0.3932523098834828 -2.853371233208979 0  4.781238312433925 -0.04005987560752722 0  5.217696893253837 -0.03907035991869767 0  5.260214410775916 -0.03530313535431828 0  4.729999004279559 -0.04040915244593668 0  4.780959410077932 -0.3889138199224624 0  5.2195173550513 -0.3888751715758059 0  4.574329780010907 -0.6157775910576783 0  4.581814369286402 -0.6301020942786878 0  9.835563756586964 -0.1279347284490409 0  0.1756968693136152 -0.1278153026890441 0  5.3152577096128 -0.03596638062575286 0  5.334023342685856 -0.06708181362976351 0  5.369464696713268 -0.07106300823743861 0  5.343601642914495 -0.1014808071426663 0  5.382393981092791 -0.1047462291398691 0  5.36334649758505 -0.1305748605338 0  5.396351687442047 -0.135086718965594 0  5.376815429965588 -0.1610076846459754 0  5.408818400836467 -0.163834042437156 0  5.393629780811285 -0.1886753848931664 0  5.421375280001492 -0.1907559575780204 0  5.405469856636313 -0.2135290692007819 0  5.432117891871219 -0.2175802726448934 0  5.380159320059918 -0.2123840449651371 0  5.389851876168462 -0.2347312212979118 0  5.366535936093355 -0.233385701117627 0  5.376541027735063 -0.253872461448605 0  5.354503773266431 -0.2527055722341958 0  5.343694844404689 -0.2335361611644902 0  5.447774153687106 -0.1940635056963296 0  5.458962077462938 -0.2169247413967765 0  5.364412156815792 -0.2723512728353428 0  5.385619492919219 -0.2735533989947532 0  5.343156641390586 -0.2710089268347211 0  5.474017630475078 -0.196729136117042 0  5.485107259953755 -0.2206453031346562 0  5.50075833420896 -0.199370380930499 0  5.511086901920766 -0.2238562234488897 0  5.495995649563638 -0.2442663398368097 0  5.521413501588165 -0.2475276309354331 0  5.536702996412854 -0.2272818545098079 0  5.546547039399417 -0.2511096649187372 0  5.563880346056195 -0.230308486673072 0  5.570883823402117 -0.2540098328096412 0  5.590404960581351 -0.2341855784264029 0  5.595767207123706 -0.2628223338345039 0  5.615100528139188 -0.2391658855735981 0  5.62465878140398 -0.2649996984386864 0  5.642273553786384 -0.2422411557430144 0  5.651966623707893 -0.2686604457371722 0  5.635307843028203 -0.2908921872391135 0  5.661450822843425 -0.2947514966957239 0  5.644761106785664 -0.3161373403377827 0  5.670279533348372 -0.3202181749895441 0  5.653764687213083 -0.3386105091508012 0  5.678902823743952 -0.3445446156313234 0  5.657905823170752 -0.3627500321865904 0  5.686445824933444 -0.3683902667569918 0  5.669871801022644 -0.3873580363634626 0  5.694985945733277 -0.3918083801914416 0  5.681031345790684 -0.4097718722789385 0  5.703434096408818 -0.4146782595095568 0  5.689026809625076 -0.4320626491403248 0  5.71163853455829 -0.4367819687892749 0  5.696124015540232 -0.4550167237103291 0  5.719645292847298 -0.4592113447909121 0  5.704368826443199 -0.4770903579350425 0  5.727440256934922 -0.482343925663222 0  5.713339210111183 -0.5001429010022103 0  5.736597844429928 -0.5058786277450436 0  5.721650702179661 -0.5250987944323444 0  5.746396891229933 -0.5300866401829079 0  5.729585154794385 -0.5503630010182565 0  5.756264680279553 -0.5555824495390005 0  5.73994514591431 -0.5752541467875707 0  5.766825374912063 -0.5810178463465391 0  5.784544728957129 -0.5597708215874218 0  5.796303296161302 -0.5866563896620383 0  5.772214021004927 -0.6113927392389139 0  5.80689618247578 -0.6168570728669762 0  5.785337417435247 -0.6402222443222637 0  5.818208385040963 -0.6472735695869054 0  5.79552277675139 -0.6712577391306258 0  5.828241293365503 -0.6781307845355079 0  5.805724257781776 -0.7032832994496416 0  5.839388985675802 -0.7098975605166794 0  5.816560012373467 -0.7355966641612536 0  5.851205483541217 -0.7429874743762852 0  5.827535460661966 -0.7697420241128637 0  5.863236998284131 -0.7771903593619802 0  5.838725878769119 -0.8055745045597765 0  5.875982295396919 -0.8130172262496006 0  5.850492870040437 -0.8422434956450335 0  5.889747532828665 -0.8500123841556018 0  5.862854847683964 -0.879518235604428 0  5.902395803560913 -0.8876187492546848 0  5.876018264459796 -0.9184546306604744 0  5.916031086937515 -0.927319746269597 0  5.889801357805339 -0.9588294269148945 0  5.93085837803689 -0.9678194140897547 0  5.901938130397553 -1.000679369063826 0  5.946473577678451 -1.009073593785229 0  5.854677421954795 -0.9887687853451962 0  5.871724181925805 -1.033963141343101 0  5.828107459617292 -1.025047817810231 0  5.842370900219524 -1.069179224620814 0  5.79818279088483 -1.060245846941281 0  5.811700198627404 -1.105239298853781 0  5.76683549026181 -1.095263825213699 0  5.780173141860332 -1.139661181417714 0  5.735056860996057 -1.130739489190459 0  5.748664115514618 -1.175340142631241 0  5.702301207345546 -1.166684892073824 0  5.795591609156553 -1.185135679574681 0  5.962816637881485 -0.9302450215846322 0  5.716270797996524 -1.212078824619635 0  5.667450902186133 -1.201419489327169 0  5.682974674102722 -1.249272769222707 0  5.634196746347368 -1.239605711028378 0  5.649263870456302 -1.287135326807234 0  5.598957731570451 -1.276735432636313 0  5.884386925140587 -0.7487643455797928 0  5.614663633850312 -1.325966318651204 0  5.564600037513749 -1.316485047515834 0  5.579025134703749 -1.365049765836898 0  5.527202732234162 -1.355056282114256 0  5.625960163368438 -1.376231638236998 0  5.544521078529015 -1.40606231198992 0  5.490547333102736 -1.395189360119291 0  5.506748305610353 -1.446268948789047 0  5.453896292674625 -1.435726874238761 0  5.436817061461111 -1.383848933143415 0  5.400447710649313 -1.424094158963748 0  5.382393318322801 -1.373097755161991 0  5.347547849061723 -1.412341694884246 0  5.329684022491213 -1.362159226884823 0  5.295590419599125 -1.400645298742682 0  5.279510153483393 -1.350766731745934 0  5.244031570401376 -1.389064106315478 0  5.260136044088477 -1.439209965862302 0  5.208510965783591 -1.427490283719592 0  5.192851735339191 -1.377367398354791 0  5.157340696824845 -1.415367035064055 0  5.142505369857774 -1.365673342686695 0  5.106895822728966 -1.403222431738294 0  5.09226913228133 -1.35409538153593 0  5.056944180286008 -1.391169486784714 0  5.042425800827579 -1.342484044789209 0  5.007251451759014 -1.37939504093468 0  5.021766165091023 -1.428791911271866 0  4.971494552369183 -1.416488389513226 0  4.957371975103138 -1.366808442961466 0  4.921795500941236 -1.403580431757258 0  4.908171723297569 -1.354891372398962 0  4.87283832169339 -1.390774142501344 0  4.859521112156629 -1.342986771213952 0  4.824815598974292 -1.378310120182931 0  4.812170292928785 -1.330733072153754 0  4.777552014984525 -1.365935921721631 0  4.766700988652445 -1.318465223256333 0  4.731180169386718 -1.353834894696529 0  4.719773648277952 -1.307550089567407 0  4.685689156706626 -1.340264464868392 0  4.671810481308944 -1.299449752649584 0  4.640137710734971 -1.328840295125117 0  4.626242648474789 -1.288404709300151 0  4.594827470159594 -1.318725577367474 0  4.581457525618025 -1.277424828158805 0  4.550234418231557 -1.307995527094822 0  4.537584641738776 -1.263990259479934 0  4.505820304787978 -1.296475110381436 0  4.493167295203593 -1.252146019285144 0  4.46111082456179 -1.285086745518936 0  4.448630980915455 -1.239706668803627 0  4.416119192121541 -1.273692994605675 0  4.403350667693522 -1.227695177002349 0  4.370128762089569 -1.262292964134979 0  4.357318449291577 -1.216593224567099 0  4.323417749352858 -1.250964885490899 0  4.310357724230875 -1.20425009394034 0  4.275999831760499 -1.239151944095342 0  4.262059817697419 -1.190947401557168 0  4.227556078695791 -1.228134582848513 0  4.212845119990276 -1.177849017777008 0  4.176284896824118 -1.215026114974149 0  4.383191610964218 -1.308447585767914 0  4.612143628555054 -1.365576661617178 0  4.836874051027315 -1.426255653944862 0  4.161779369566927 -1.164199260813256 0  4.123408125380204 -1.202375156528402 0  4.139293624612555 -1.256256515183761 0  4.084309598988843 -1.242374541493608 0  4.069029710995433 -1.187742929682403 0  4.028406125913854 -1.228480436874822 0  4.102112526147324 -1.296600847781518 0  4.01280581458427 -1.170759141215837 0  3.971076843535469 -1.213826614104996 0  3.955022635991319 -1.154525552445702 0  3.912093652102205 -1.199028528750786 0  3.897619701042037 -1.139285464912313 0  3.844129189068396 -1.18027785646531 0  5.471329523900235 -1.489320379889011 0  3.939282234878493 -1.095056235426909 0  5.829612523087233 -0.5909869477886287 0  5.223890265957142 -1.478942391115002 0  3.882219877719702 -1.080124475784827 0  3.923475349291842 -1.037025095252118 0  3.866264144451545 -1.021483888105763 0  3.906124398987036 -0.9762241953538118 0  3.867356544496572 -1.244562178614327 0  3.806120674781802 -1.229756916000645 0  3.82386126458413 -1.2929777622671 0  3.759064070566396 -1.27706115272127 0  3.777858578979199 -1.343167347540909 0  3.710662296536368 -1.326102958254548 0  3.729696498065304 -1.393018041804801 0  3.661439917217029 -1.375820365333699 0  3.642399875051324 -1.307805238985458 0  3.591992792977077 -1.358420207584873 0  3.572523390190288 -1.288493632843647 0  3.520716519121337 -1.34067972373496 0  3.500763029518781 -1.268816971912093 0  3.447878308801221 -1.322470805279953 0  4.846393202511141 -1.295987317443465 0  4.56946058086656 -1.240174362751913 0  3.427631141643604 -1.24901068858912 0  3.373427852427104 -1.303838710633004 0  5.077035165109541 -1.306317419705787 0  3.612590331311052 -1.423365571192611 0  5.617405098962637 -1.188567491625396 0  3.353076039215961 -1.229003072928725 0  3.297274932484668 -1.284632378120255 0  3.318698147882968 -1.361222032194577 0  3.240536202052715 -1.341824640575951 0  5.803291087204444 -0.798745113002158 0  3.849603853360964 -0.9632527038957258 0  4.390822085690759 -1.182297479807231 0  3.21927763802786 -1.263298816855861 0  3.160745547271388 -1.32162958073701 0  5.734531780663927 -0.4410537208409664 0  5.704189489306835 -0.3475934180635241 0  3.138883499041502 -1.240838004452138 0  3.079363965489307 -1.300716737846107 0  3.262775959937401 -1.420393521091193 0  4.202924608541679 -1.121905541163543 0  3.05719681370517 -1.217636747547709 0  2.996268216358651 -1.279443095161857 0  3.888458362908218 -0.9152852349249835 0  3.833649647306562 -0.9044011398900922 0  2.973785104574894 -1.19575511068421 0  2.911823962220715 -1.257852903590116 0  2.934907429460678 -1.343596461200957 0  2.847665349332894 -1.322058339031397 0  2.871871326133476 -1.409925594925008 0  2.781435287978273 -1.387495104413947 0  2.757120247312578 -1.296927821875011 0  2.689328123474242 -1.36371262441962 0  2.663544574569193 -1.270447492021069 0  2.593281654495709 -1.340674465273426 0  3.874354505732549 -0.8586229763000982 0  3.81788642775092 -0.8452185892409769 0  2.717094301601977 -1.457913938227463 0  2.566789353297577 -1.241639983993644 0  3.035548474136402 -1.134825597666538 0  2.49226226574726 -1.31631437314837 0  3.859725255834662 -0.8013358162544114 0  3.918577465332227 -0.8174454237151487 0  3.802189523461257 -0.785833091030438 0  3.904332566966765 -0.7614056337318867 0  3.957209469936097 -0.7750532349995147 0  3.94461644426254 -0.7231141429417013 0  3.993532855623353 -0.7380526117330647 0  2.463207266893393 -1.21003778838534 0  5.766244665169918 -0.6663845031088316 0  3.982875745879972 -0.6868929647523292 0  4.033232765219425 -0.7028770943126048 0  4.020025745115532 -0.6524624816917454 0  3.974715707934902 -0.6385572257666219 0  4.064816523632516 -0.6630458720464211 0  2.384426603640238 -1.291094950275658 0  4.054858660808985 -0.618283876009034 0  4.097806813151692 -0.62917951800996 0  4.101793298425716 -0.6707242912198181 0  4.087946987091862 -0.5870924935600856 0  4.128667219568279 -0.596873311762014 0  2.353288927203947 -1.178129657495085 0  4.11953322709465 -0.5569293763222587 0  4.159047730137633 -0.5671645949389877 0  4.149351240987767 -0.5284569695122077 0  4.107980342629826 -0.5172939481788249 0  2.268989691342664 -1.264297261282943 0  2.302723574794595 -1.380503103037623 0  2.543316328310972 -1.144584668124867 0  4.187588915149872 -0.5389023880659695 0  4.196995502659396 -0.5757099091204018 0  4.177866545890222 -0.5013863924254149 0  2.238191470849443 -1.147535989213783 0  4.985697086799763 -1.467178927945124 0  4.704194017034294 -1.263686135748001 0  4.222620562748292 -0.5497704833306413 0  4.23199102438908 -0.5826665041355636 0  2.177310946539181 -1.348079450284469 0  2.215879288554776 -1.477708391409229 0  5.724965470632861 -1.087733943158642 0  5.313698868935513 -1.312524346447428 0  5.703047466681405 -0.5461798880344872 0  4.255012186453728 -0.5600689301673398 0  4.263674486500045 -0.5897289053134593 0  5.684740397270619 -0.2739430027405341 0  5.533976848948018 -1.498609435286289 0  5.489662284930217 -1.544480431260308 0  5.5464510896232 -1.556380060908271 0  5.507043798852354 -1.601334765677641 0  5.566052279344446 -1.614316562168179 0  5.525666951826298 -1.660741924778479 0  5.587361395469076 -1.673119675482287 0  5.545168941617008 -1.721373755504624 0  5.607786630294918 -1.735304009037439 0  5.565005090152146 -1.784804118082516 0  5.631075224081383 -1.797987605032981 0  5.679198075109947 -1.738547797530555 0  5.698781062395541 -1.810212435474748 0  5.74317072194719 -1.75933667493565 0  5.766934149634564 -1.821286685105601 0  5.812190899214218 -1.771514547250229 0  5.835925886459818 -1.834443524245293 0  5.88181033542394 -1.784241562522935 0  5.905124273473239 -1.851634122562991 0  5.951748913234344 -1.798042221697175 0  5.975825870523893 -1.866570428679944 0  6.023601946371519 -1.811132413379852 0  6.048467176058734 -1.88127410860622 0  6.098231945912153 -1.823235846655769 0  6.123481606384368 -1.896423810652337 0  6.174911455791589 -1.836438186002781 0  6.200931198095451 -1.912166912735441 0  6.252930004541348 -1.851177521560889 0  6.22638862802981 -1.775221197165697 0  6.304873220882071 -1.789671198932461 0  6.277524360136634 -1.713639503246561 0  6.360529845500213 -1.727305212236202 0  6.386740159261127 -1.805212356505621 0  6.440516744806844 -1.741407418552873 0  6.414724795734618 -1.664112502726401 0  6.494425920127335 -1.676984727537088 0  6.467415638752647 -1.599707968882082 0  6.546971512208874 -1.611428697017437 0  6.517694871375042 -1.532218023810818 0  6.601056643381728 -1.546117175496194 0  6.571993919562093 -1.465789379932058 0  6.654476317101185 -1.4793339255345 0  6.625786131698538 -1.399851514069672 0  6.710793273293995 -1.413654254417238 0  6.741291205787086 -1.509822750783154 0  6.797782732456944 -1.429890153399966 0  6.828465327410431 -1.511045026448482 0  6.885887665435565 -1.44178335739233 0  6.917291523038937 -1.52622068317234 0  6.976868772543063 -1.456025013064164 0  6.679729202166648 -1.333867969170892 0  7.005009834776311 -1.5442574370011 0  7.069956638391416 -1.468264658793393 0  7.09914466791681 -1.561985516816586 0  7.165048897361157 -1.483014197089035 0  7.198867415802582 -1.576681599646019 0  7.261914413410889 -1.500858135871964 0  7.035780661492841 -1.381871193529203 0  7.297274838592512 -1.593991530104163 0  7.361776459834926 -1.51543473202795 0  6.469860061095299 -1.821227575122459 0  7.397388776571172 -1.611405933358287 0  7.46274219721576 -1.532170525045187 0  7.426434747553802 -1.435329426756955 0  7.528326691640883 -1.451934156794253 0  7.56603644151448 -1.55002109604808 0  7.633360591774151 -1.467723371029731 0  7.67175434489705 -1.568218214167328 0  7.740673974804508 -1.483658053016951 0  7.780870781014071 -1.586831246240413 0  5.585969020737907 -1.849399173802766 0  5.521459300972649 -1.838052746423844 0  7.490824940463437 -1.355248380459877 0  5.539482655143116 -1.901825069915924 0  5.473282967778704 -1.890425592595521 0  7.126211859759827 -1.657323336320384 0  5.849900183186014 -1.893267939938055 0  7.852479620201835 -1.498391470816198 0  7.894903990042529 -1.60747675516834 0  5.492432970451677 -1.956345167034212 0  5.421007525109959 -1.940462432182582 0  5.443367112170526 -2.01084759179607 0  5.370729492170458 -1.994985078304704 0  6.14809015475084 -1.972529508908483 0  6.596680472305621 -1.320384252010755 0  6.648957760730857 -1.255548724387952 0  6.441840632488841 -1.528425290509465 0  7.709971097318561 -1.67082027851012 0  7.970290931289123 -1.514213199123914 0  8.014506235862591 -1.629362729287209 0  7.925847307627785 -1.401674086554924 0  6.568576568774319 -1.242343281300363 0  6.619153571443356 -1.179865165034891 0  8.047190403035698 -1.415591594378803 0  8.001468142256989 -1.298824598477453 0  5.393686495061833 -2.066101424158825 0  5.318203562950728 -2.050710641817955 0  5.467400601100124 -2.078432673292864 0  5.680729978281642 -0.4732285147851316 0  6.540675210090791 -1.166681482514085 0  6.590127648972926 -1.105471141090948 0  2.082690985193428 -1.439670200925123 0  2.123706118293193 -1.57719096422186 0  5.927745086679127 -1.730872976619647 0  3.759105585337041 -0.8306025563228129 0  3.741927018533663 -0.7640714246300477 0  6.51347319236379 -1.0934787003201 0  6.562442886286679 -1.033956634445665 0  6.638765792725763 -1.045125001479464 0  6.610509734419954 -0.9732763715629649 0  6.687260633503636 -0.984164125660156 0  6.658368200671584 -0.9119987082160417 0  6.736270400694746 -0.9227692149916766 0  6.582668532749429 -0.9014243693330424 0  6.629210776714968 -0.8413389505241813 0  6.555495479026096 -0.830819523891972 0  6.600862317480416 -0.7725415787932535 0  6.529174327375509 -0.7622857853344773 0  6.465828848163852 -1.152309773971962 0  4.284319515207551 -0.5675870515930599 0  4.277274964378048 -0.5396643445881043 0  4.292307345474508 -0.5961079246858458 0  3.696270181812142 -0.8131423973584304 0  3.679995055221896 -0.747016577393162 0  3.633067620557955 -0.7965432699680653 0  3.616157728211198 -0.730781445668145 0  8.129607366165361 -1.315033243090244 0  8.081405287916791 -1.193454154016111 0  6.573681451101603 -0.7056161459571837 0  6.503042231156059 -0.6958077630699635 0  6.645737393381163 -0.7146724543070273 0  3.567956617753472 -0.7792913879988259 0  3.550888879941176 -0.7136424717687091 0  3.599545736122064 -0.6655320116584855 0  3.534261528654215 -0.6479464987522494 0  3.48457793759797 -0.6950845513062267 0  3.467484995297649 -0.6281487791000295 0  3.416511872810952 -0.6765813346016967 0  1.988071891234454 -1.542927344938835 0  1.9453383246859 -1.405039258715691 0  5.346626106231295 -2.12312140900075 0  5.267117223777912 -2.107394402604429 0  5.242680849100743 -2.034096391907333 0  5.191334568827397 -2.08854926587748 0  5.167968214486624 -2.017127627962791 0  5.116126430932471 -2.072308160457574 0  5.093626541300006 -2.000910919758449 0  5.042468078140469 -2.05434961510616 0  5.019341572215331 -1.984326678713076 0  4.968505852943331 -2.03962998938816 0  4.946662772048207 -1.968737313433154 0  4.89612906184002 -2.02306018698663 0  4.874442957284598 -1.952899527367573 0  4.824355497214569 -2.006661291902373 0  4.802494143414529 -1.936975048789797 0  4.753267380541717 -1.990020808512234 0  4.731887624742834 -1.921400199295171 0  4.682852780273437 -1.973691921637082 0  4.661607685036431 -1.905744446524422 0  4.612699716549198 -1.958241186470242 0  4.591111395664298 -1.889491812415641 0  4.541649745343443 -1.941521205357854 0  4.563667022313909 -2.011897833102022 0  4.492351036472225 -1.995369544832939 0  4.470600000355835 -1.924533012798885 0  4.420774585848294 -1.978291426276489 0  4.400372504160503 -1.907700247290363 0  4.348814748569855 -1.961139951955104 0  4.369152418177819 -2.032598962573816 0  4.295754715574692 -2.013912313303283 0  4.278809691966421 -1.945193614314959 0  4.220909963883049 -1.997072898522462 0  4.240184712536634 -2.067470486266538 0  4.165042417409603 -2.05148502695303 0  4.779918816362089 -2.060936898115231 0  4.997327766833949 -2.107155972558564 0  4.138637899745452 -1.977065318208182 0  4.084229018299998 -2.032167369563927 0  4.305144561493796 -0.5472172877328931 0  4.298349207671058 -0.5208464924233563 0  2.028488070541387 -1.679181129733006 0  2.161263009845114 -1.712020996645811 0  4.111374322779866 -2.109964672519254 0  4.029674063376337 -2.089795680597287 0  4.0032657965199 -2.013613292322142 0  3.94804223381477 -2.069812255320189 0  6.459916636195109 -0.7504104662789421 0  6.436235085428537 -0.6863132472142683 0  6.477341291813524 -0.6339498723195653 0  6.411501670589578 -0.6249946229006258 0  3.398827806161246 -0.607982659410776 0  3.347110201932217 -0.65784300196874 0  1.888751920954247 -1.65202700811128 0  6.372460158636018 -0.6757371244208701 0  6.349228397602495 -0.6174707222504374 0  4.32347415294673 -0.5277637960316727 0  4.317728748694337 -0.5033347349009256 0  5.209208456112131 -2.16708832609497 0  5.658185092275065 -0.4085262271935903 0  8.210506831783803 -1.213435906072748 0  8.267085804585614 -1.336394324050984 0  3.58361616251613 -0.6010935345586415 0  3.970751055911788 -2.149598718234614 0  3.889155108375836 -2.127189423483082 0  3.865506074041015 -2.046760309774604 0  3.806760611093171 -2.104143650413705 0  3.797926987548263 -1.410152377611483 0  3.783797104190873 -2.021374820433398 0  3.72393085560129 -2.08072847958108 0  6.31048169493469 -0.6679364268033159 0  6.288509675635593 -0.609944662683325 0  6.324984951327581 -0.5626389798560522 0  6.266886105689299 -0.5550427736198194 0  3.703692151327109 -1.996344200482093 0  3.640374753384005 -2.05669476626245 0  3.661901877618379 -2.142439548058714 0  3.576328783699469 -2.118131558228754 0  3.328030227231239 -0.5901526680271025 0  3.275515654219681 -0.6389723367443335 0  3.555035371937165 -2.031361900018029 0  3.489735405962991 -2.093331402665437 0  8.1625496891435 -1.087338608493262 0  8.286033580805679 -1.114085759845941 0  8.032655358882279 -1.071479159004415 0  2.074044282521313 -1.811704027039789 0  2.201787686478489 -1.843867889085273 0  4.341722753291483 -0.5103500767764948 0  4.336091387929775 -0.4867970265061539 0  4.348718391106738 -0.5371912811681796 0  4.272660367489923 -0.6183872350260432 0  4.301777453365488 -0.6251040300883134 0  4.281807703339987 -0.6466652588930142 0  4.310331891262257 -0.6535794794478416 0  4.290406295548227 -0.6749584181311192 0  4.317630806748226 -0.6820604628070999 0  4.298710899955287 -0.7034796336389617 0  4.328175442968235 -0.7098448736378468 0  4.30774722346848 -0.732286008015166 0  4.341467785641311 -0.7401767946808202 0  4.317161750974477 -0.7621171444505948 0  4.347331760282836 -0.769115272812994 0  4.325875697147615 -0.7925254420006835 0  4.356976344281978 -0.7988982879826791 0  4.377997404175886 -0.7761684066807438 0  4.386405828758391 -0.8042687925605525 0  4.407003420999446 -0.7838780908979912 0  4.41561337541741 -0.808933249183966 0  4.435514903531242 -0.7889801755921741 0  4.444835878641853 -0.8148810128321216 0  4.463477069311289 -0.7948937500020519 0  4.472483386466092 -0.8215635273567374 0  4.491127742132399 -0.8009509877699987 0  4.499894777140744 -0.8274470705533667 0  4.518608905519273 -0.8067337805932596 0  4.527277022456555 -0.833183700275724 0  4.546080361681595 -0.8123717470295679 0  4.554810432179011 -0.8390428227384692 0  4.573313921437663 -0.8180848191600749 0  4.582503968968685 -0.8449136540887088 0  4.601176058659187 -0.8237828632525308 0  4.610539476142566 -0.850760565027211 0  4.629566398479086 -0.8294485547247621 0  4.638842405133549 -0.8568508654531303 0  4.657820453903409 -0.8351746811390361 0  4.667415077746218 -0.8627727578859923 0  4.686692336072732 -0.8409718980396632 0  4.696263216695312 -0.8689626174938831 0  4.716470740993552 -0.8460520062450487 0  4.725482929321869 -0.8751020102494363 0  4.745333130552644 -0.8528671808708163 0  4.754816415136792 -0.8814825501163275 0  4.774569439968391 -0.8608764522341799 0  4.7846884052512 -0.8868670405597501 0  4.804772852933135 -0.8650013810334755 0  4.814731856418035 -0.8927679971301504 0  4.835130074100306 -0.8710221201447421 0  4.844872920616376 -0.8998774082252725 0  4.865504495036606 -0.8773327406443256 0  4.875763046966751 -0.9048372774321169 0  4.895786940342329 -0.8849636750193109 0  4.906473543382068 -0.9120223644851405 0  4.928789663939585 -0.8856282997168798 0  4.936598111811502 -0.9184938150222169 0  4.960338781832345 -0.8944077592774937 0  4.968038496188867 -0.9302667313324108 0  4.990657234122165 -0.9032320625964665 0  5.000524557064362 -0.9337823496217309 0  5.022406337625511 -0.9095330628519681 0  5.032653374688144 -0.9407518198679421 0  5.054681317746065 -0.9162317064125254 0  5.065067181886798 -0.9476356672425426 0  5.088344022288917 -0.9226760050967839 0  5.097706362103035 -0.9545431119397687 0  5.121942547043767 -0.9292876279521887 0  4.563532392173923 -0.8667250918763327 0  5.131016236263028 -0.9615180365676141 0  5.15417888379524 -0.9363888328755112 0  4.705625236726362 -0.8964925174938326 0  5.163702142626275 -0.9676268804235192 0  5.186432544413553 -0.9427700671088795 0  5.176481005023464 -0.9116664576704344 0  5.208515980525418 -0.9182839703721585 0  5.218843167597293 -0.9494697522615059 0  5.240985787136791 -0.924059572188066 0  5.251256870403019 -0.9561658133454705 0  5.273472252665162 -0.9302723254354246 0  5.284219430245184 -0.9623953462266605 0  5.306096115090638 -0.9368992483680556 0  5.293943636804529 -0.9032541211857241 0  5.326347857113643 -0.9103532567995312 0  4.45514272526301 -0.8406478471000099 0  4.823108649810722 -0.9248459145560894 0  5.341771724192996 -0.9460522616432062 0  5.359976637179225 -0.9166912595369384 0  5.348260144295167 -0.8869171904713443 0  5.380513864203968 -0.892016237904551 0  5.075679825548534 -0.8922509892859036 0  4.367545993314167 -0.8310566320501457 0  4.913054319215691 -0.9456010831581962 0  5.197978314329818 -0.8877721995133314 0  5.010509249040111 -0.965581563484686 0  5.261705456902314 -0.9888358822149829 0  5.391141568263227 -0.92223023521307 0  5.411816315070901 -0.8972562264578281 0  5.400801405053969 -0.8674887378611869 0  5.431450181804702 -0.8724508053999714 0  4.983301173908807 -0.871015234043258 0  5.443572690512535 -0.9021945590706455 0  5.463773687974563 -0.8765054517890468 0  4.00061649512329 -0.7929334099033877 0  4.887086910927505 -0.8550530433446991 0  5.419633288392222 -0.8435759439453256 0  4.794608900749061 -0.8375842982367261 0  5.108616770930269 -0.9875498337958688 0  4.423656609866513 -0.7606438798632772 0  5.475831579490374 -0.9068085188452721 0  5.496961702504309 -0.8804204185870431 0  4.293817037732873 -0.7852063526435715 0  4.707883449610113 -0.8173926991861976 0  6.30154350117787 -0.5096353193321542 0  6.24436312736356 -0.5033258982347393 0  6.210736461144935 -0.5471769670023505 0  6.18923517994597 -0.4975065271116148 0  4.339058779781373 -0.6636113990134316 0  4.618935996885858 -0.8026400298702521 0  4.509645370320486 -0.7818534863995743 0  3.255451774953548 -0.5694403560131279 0  3.202337570673144 -0.6191787537948746 0  3.468599819386596 -2.00534963936463 0  3.401635773941812 -2.067733820163779 0  3.422830266150463 -2.15709864145304 0  3.333379744290514 -2.131737324075009 0  3.311604623309385 -2.039894353554646 0  3.2415633601809 -2.105326347156749 0  6.228095440142024 -1.989356503158486 0  6.172172031107419 -2.052613348277917 0  6.256003433545524 -2.06917917174953 0  6.198155458588806 -2.134423956377217 0  6.28469474693231 -2.151426728581267 0  4.358340201852835 -0.493492017413768 0  4.353612401525627 -0.4701616557511801 0  4.331008847927841 -0.4638804853576115 0  4.34899395216996 -0.4466156717536138 0  4.324998029479415 -0.4398011869300473 0  4.343754450887194 -0.4225168395970154 0  4.318803675805048 -0.4147788689435661 0  4.338370376844138 -0.3967606488408615 0  4.312680287316763 -0.3887211309993859 0  4.33237543628515 -0.3682897456776648 0  4.305244761211977 -0.3623761854417822 0  4.326919839607011 -0.3392208333293938 0  4.297419453855688 -0.3326219643537704 0  4.321561809536768 -0.3099159100566935 0  4.351282634181409 -0.3193837673307787 0  4.290860425641523 -0.2993660168102066 0  4.265579116432122 -0.3240583993972397 0  3.909952998068254 -2.210062968492205 0  6.157220329573605 -0.5398139925338314 0  6.136686162429905 -0.4911993273562871 0  3.219667790897576 -2.011194583222183 0  3.146907101782824 -2.077627807831594 0  8.109880281505305 -0.9667731971602744 0  7.984104387628435 -0.9509774686725458 0  4.639694603941543 -1.838709318012774 0  6.167516533486964 -0.4497323350307498 0  6.116827780962713 -0.4435225015523909 0  3.183564134902199 -0.5441234353725219 0  3.12860497177026 -0.594024400974132 0  6.226925719990932 -2.214383439012672 0  6.139193184587623 -2.198909136665899 0  6.314053374788507 -2.235361223888964 0  5.55505071012079 -0.2722461643824095 0  5.629950099317005 -0.3323495014163047 0  2.116888991727407 -1.941904311946977 0  2.244767376142182 -1.971914728369736 0  5.069597834311181 -1.930316388722491 0  3.383247902346354 -0.5447295136803099 0  3.170177171400639 -2.175085680811811 0  3.072311338118517 -2.146782921276119 0  5.509424325506926 -0.9119615563860042 0  5.487975287088678 -0.9388184239222396 0  5.529844537280443 -0.8849518496473427 0  5.517646495054323 -0.854065034170654 0  5.549947460346401 -0.8583526703212593 0  5.53725074584591 -0.8281226226776879 0  5.56892943260055 -0.8325099354408787 0  5.558651101710407 -0.8030884601290043 0  5.581805303247847 -0.8621280719955323 0  4.345174416499407 -0.2892148683372644 0  4.373563451574708 -0.2979235917766718 0  4.374726705428749 -0.4773682719813974 0  5.406105752604021 -1.866900633952085 0  5.587800868148014 -0.8074787087190018 0  5.575562463591929 -0.7795406103057123 0  5.548677384425556 -0.7752300039485529 0  5.563766780379213 -0.7536138173141811 0  5.537915456722954 -0.7500707864552639 0  5.554370790243117 -0.730554272421067 0  5.578421057414543 -0.7327839124321556 0  5.570596182154309 -0.7105780511916219 0  3.36537781976691 -0.7272404772727713 0  4.258268335171302 -0.2881030919087848 0  4.232614225676993 -0.3127391832389406 0  3.048919771375919 -2.046573102446601 0  2.972077201076294 -2.117857636130166 0  4.851952129957182 -1.884717026311401 0  3.763277712338369 -1.940849375044848 0  6.865781413424424 -1.588034215848474 0  5.592768490267138 -0.7130590554921754 0  5.584514557964669 -0.6908484479550737 0  8.058451015702989 -0.8512696592452482 0  7.93776718981289 -0.8371426341307953 0  6.440359828343109 -1.082744238157216 0  6.394417726476534 -1.137553409518515 0  6.369865667833255 -1.073174359805436 0  6.326496394094655 -1.124493777850565 0  6.173935634656191 -2.291915577142204 0  6.07854227480415 -2.266454327559236 0  6.14669766412116 -0.4031042284602555 0  6.096679451951191 -0.3985296995418803 0  6.067560925841454 -0.4374316334523582 0  6.048105456276196 -0.3939791963755916 0  3.108095798967292 -0.5207155132243724 0  3.051455430346383 -0.5725522103937333 0  4.362530537501645 -0.4062921262222665 0  6.303106409272246 -1.06344647598169 0  6.260937271377044 -1.112974794181132 0  3.80878316433583 -1.012081710982717 0  4.368484954606245 -0.2686061349944229 0  4.397084136852753 -0.2791285139514719 0  2.155568467908308 -2.070474953118856 0  2.032655012958904 -2.0446507667391 0  2.283731693957789 -2.098490014259721 0  3.096898447034419 -2.24766843665622 0  5.529582626762311 -0.7250046136018868 0  6.019993206672484 -0.4319067402785135 0  6.001877297855657 -0.3901921558801145 0  6.028185031328705 -0.3521162403546465 0  5.983221514472394 -0.3487505218482843 0  5.95815066154521 -0.3868490796491055 0  5.940053437493661 -0.346214131930541 0  6.283371832984101 -1.174180590911015 0  6.21946235968497 -1.162720087782261 0  6.240102246324616 -1.222374076487593 0  6.177534980378981 -1.211468703691322 0  6.198019597881719 -1.270862729091651 0  6.135698889908015 -1.260020119726896 0  6.156935698887388 -1.320065123794339 0  6.094452868851088 -1.308137097886652 0  6.115275669558862 -1.368706706773614 0  6.052570878153505 -1.356652451521078 0  5.606655371583443 -0.6938198451497323 0  5.597348973785683 -0.6727003475681201 0  5.616887823359935 -0.7152764175104644 0  5.522570671554755 -0.9440902359215217 0  5.499929526361156 -0.9726455215984573 0  3.586158031440534 -0.8459878544571819 0  2.947976857154179 -2.013751602764232 0  4.400165700107443 -0.3102085643612646 0  4.424156369845695 -0.2891530184471942 0  4.419336230861548 -0.2606509186348838 0  4.446684733111591 -0.2707266280936875 0  4.442168989637731 -0.2426769073148278 0  4.46911509031539 -0.2531987733800938 0  4.223137664720548 -0.2759928001139709 0  4.194480663862799 -0.3037303206333397 0  3.03126653128711 -0.4978298000240369 0  2.971708788834621 -0.5546658452623956 0  3.005639725543987 -0.6451740975001168 0  2.913480602271807 -0.6173647392976578 0  2.892852391348245 -0.5309467070185997 0  2.827062071020226 -0.5914418860335909 0  2.849768769316428 -0.6790761356848067 0  2.761485215958254 -0.653934597918139 0  2.738944443287226 -0.5650760472181076 0  2.671629106566156 -0.6292572351705803 0  3.96545397233749 -0.9888373313877242 0  8.009957537587555 -0.739272567701298 0  8.12943345874422 -0.7525172079997942 0  7.893065465595766 -0.7267077532015532 0  7.820822039706815 -0.8241718383235976 0  7.777768116641014 -0.7131087638542191 0  7.710123649369429 -0.8023305766901057 0  7.670036297228805 -0.7013241879955636 0  7.603098178233788 -0.7903615685893474 0  7.564493593751364 -0.6887581460678982 0  7.500540153514658 -0.7741058714115082 0  7.463997229528072 -0.6778121483950612 0  7.402826328225551 -0.756515826281853 0  7.366118663211247 -0.6661804743675364 0  7.307281435049319 -0.7427612860825279 0  7.265236772541611 -0.650054389115527 0  7.342724143489896 -0.8318338735823022 0  7.251186095870043 -0.8168768317665188 0  7.287536622533971 -0.9034518502432228 0  5.352793190951123 -0.2889798635469014 0  5.332956046598111 -0.2878157925356724 0  6.106396367840841 -2.352245130683063 0  6.015640718992014 -2.333043521108866 0  5.620206216144813 -0.6751458642034032 0  5.61086959511811 -0.6541981242525476 0  4.47322858486213 -0.2812108821183488 0  4.495088068746164 -0.2639594249682085 0  4.491332145897269 -0.2376522469428786 0  4.516609002299991 -0.2485961357701123 0  3.165799518488039 -0.4670472387615889 0  4.519612494705556 -0.2742497105089474 0  4.543476098097025 -0.2628666555296884 0  4.539142738338168 -0.2340833997578491 0  4.563271310925628 -0.2455008963906424 0  4.560584702245854 -0.2188603427350462 0  4.583898999420724 -0.2309948779467268 0  4.585848677622284 -0.255951897506232 0  4.606032203166143 -0.2427626741496369 0  4.606728715734281 -0.2664876805029626 0  4.626395537575118 -0.2539820357629072 0  4.626009932256663 -0.2301578316041746 0  4.646193969674055 -0.2417714453772115 0  4.645713546028592 -0.2186828943030643 0  4.645809325768449 -0.264248661505512 0  4.664960643381534 -0.2528817939123973 0  4.664816594298938 -0.2739180547203952 0  6.765661642640515 -0.996490375980387 0  6.373420163216818 -2.16753148380329 0  6.404832694126673 -2.250150843992041 0  6.465191072327988 -2.183065369572771 0  6.492931920663789 -2.268864562350842 0  6.558145704883785 -2.200496886970634 0  6.585541721494821 -2.296589683818857 0  6.654562486780367 -2.214282163189817 0  6.687271947949764 -2.306886536434647 0  6.753617941597309 -2.229947422088074 0  6.785573662448521 -2.330749626028508 0  6.853609867632834 -2.250573158703855 0  6.421694279058153 -2.346804724849945 0  6.887060910401192 -2.350744977654102 0  6.956190284108149 -2.269031655693817 0  6.823498686734869 -2.1437056926297 0  2.649079743534553 -0.5372840531135799 0  2.579891838789647 -0.6037274614572949 0  7.424767409717581 -0.587690587053207 0  5.576930994553718 -0.6705326105310346 0  2.951514225362908 -1.111844281716627 0  4.18524640483306 -0.2635668276590331 0  4.154640336349573 -0.2931259216832889 0  6.008700945575635 -0.3129223924839493 0  6.990455896524884 -2.370556510592356 0  7.060303155181915 -2.289929664970214 0  6.239535881887575 -1.053512179496326 0  2.19577046366064 -2.195924009857916 0  2.317655846032511 -2.22323944239462 0  4.682926776337377 -0.2635616317468281 0  4.682822578102773 -0.2835458707649749 0  4.665860355181247 -0.2935782108787537 0  4.683344102642668 -0.3027983533336538 0  7.850218859931958 -0.6174968150639848 0  7.103740780295671 -2.406095244489858 0  7.166846373573948 -2.31090508533384 0  5.512787021044058 -0.7455693494421357 0  5.503836441494704 -0.7238241494612316 0  5.916445424214188 -0.3812449359197334 0  5.899273614130185 -0.3434159958414118 0  5.633713271877192 -0.6564262230774855 0  5.624262996653015 -0.6354441936328589 0  4.429579225125725 -0.3158915230651189 0  7.130395685009034 -2.208073966712777 0  7.23671818173867 -2.228019389480381 0  7.274780886412916 -2.329654556128053 0  7.345902131104653 -2.247007796621529 0  7.384984032384286 -2.348863181235486 0  7.458191435433713 -2.265268528578225 0  5.488090768748596 -0.7415620079463372 0  5.479207391278978 -0.7192274742044883 0  5.464322995020856 -0.7367629370837325 0  6.073230136727386 -1.41743274892849 0  6.010276099561937 -1.404949447161113 0  3.553879744078279 -1.216830671817845 0  5.455131480852399 -0.7158524901128821 0  5.440777469845846 -0.7323800819299617 0  6.279316136370738 -1.004763652497993 0  5.537329354249071 -0.9777080399857301 0  5.513748159870099 -1.007419080272622 0  6.815954203738856 -0.9337202281751807 0  5.449012666855204 -1.588544023221947 0  2.342713838131963 -1.872194546789788 0  5.630835810014513 -0.2153747719680048 0  7.497624179974466 -2.369970360737474 0  7.572602812101665 -2.283679052759271 0  2.556526831341055 -0.5096297415200002 0  2.485844527964929 -0.577686250235795 0  6.217509610642294 -0.9947686247458666 0  6.846188679209016 -1.010663015817681 0  4.251742099834776 -0.2513393729020539 0  4.699032544104046 -0.293134041332642 0  4.69947391057693 -0.3111589684317244 0  5.341778660863837 -0.3052774643859357 0  5.323058566984873 -0.3041176326546089 0  5.3140734084872 -0.2874362455989601 0  5.304721049715739 -0.303336299461473 0  7.414533631677894 -2.163160688158286 0  4.668681539732766 -0.3121903232112517 0  5.432232066805288 -0.7115016623734176 0  5.417341362323519 -0.7286187277905025 0  6.069170430375175 -1.251176020798739 0  4.145184337209242 -0.2508925911109974 0  4.113305968909684 -0.2807557934012408 0  3.013663861922351 -1.051356006016277 0  5.2959520760982 -0.2874449052291779 0  5.608982870786592 -1.576570098836793 0  4.379633063742847 -0.497397284712354 0  4.393696349031038 -0.4840369598396796 0  4.398811109860514 -0.5010610499034402 0  4.411623076729191 -0.4890565742341397 0  4.415923725475683 -0.5060306333806091 0  4.407278370046924 -0.4719691782865492 0  4.424393652981255 -0.4770933992240625 0  4.420390605435176 -0.4609939601903281 0  6.045210367916104 -2.420351468953119 0  5.954299576399855 -2.401632787246787 0  5.924023925179869 -2.314048759808048 0  5.864242481931089 -2.382008408179512 0  5.835110383163586 -2.295982220670029 0  5.774766766398741 -2.36250341555371 0  5.475733461713165 -1.001649280027168 0  5.489775939350113 -1.03771585954313 0  5.450936745071885 -1.031506962531548 0  5.465145132965043 -1.068643862195416 0  5.427385964601271 -1.063923445709144 0  5.440214423510222 -1.100684641560165 0  5.399291152799056 -1.093678772703727 0  2.784528756361407 -0.741864868426318 0  6.718636400973791 -2.407610557692433 0  5.802642785899 -2.449958898421456 0  5.712161521142083 -2.429692358317928 0  2.869256577182193 -2.087808141838922 0  2.845791160485927 -1.981386506704435 0  2.924292875452307 -1.909230083824786 0  4.294630947969857 -0.4096578487835356 0  2.462097133819567 -0.4822242524004356 0  2.389148174243341 -0.5509021160070551 0  5.515846576466958 -1.307851870971348 0  4.588248755954067 -0.279159221332774 0  6.25582603061921 -0.948061760036744 0  6.197478621366793 -0.9378896967475281 0  6.136629932741722 -2.44080920040772 0  7.613386362800695 -2.390020516633681 0  7.689718420596944 -2.302853424845582 0  2.414315981405678 -0.6494918799040453 0  2.314741198297531 -0.6220656068637256 0  2.289892319003275 -0.5212355196918663 0  2.213538764345818 -0.5933314325347891 0  5.408843426534816 -0.7069560540255942 0  5.393893962529862 -0.724976561394451 0  7.639641381340381 -0.8998121548609097 0  4.268962557298164 -0.6961537309173019 0  5.41376778792443 -1.133416777083411 0  5.372028919477724 -1.123171579096391 0  6.179869700903655 -1.039331423242226 0  5.602251698793139 -0.6334815740400153 0  5.614808574003888 -0.6158960122237263 0  5.594495459329479 -0.6136068919544208 0  5.605984805970774 -0.597513132283859 0  5.585017581178727 -0.5951953040166362 0  5.597397100293067 -0.580413530439329 0  5.579960511087025 -0.5776259365542126 0  5.590175743716573 -0.5642908725385172 0  5.573658846079302 -0.5625169797519725 0  5.583081690015591 -0.5490399189559516 0  5.599553318893395 -0.5506999523925283 0  5.592234618243006 -0.5357681749720096 0  5.576158596798622 -0.5343121221882912 0  5.584903738994328 -0.5212551412219111 0  5.570005288172665 -0.5202982144050978 0  5.577812427935143 -0.5074400266576141 0  5.593431522597706 -0.5080900629283014 0  5.586103838981622 -0.4941175087066356 0  5.568360974196437 -0.4931380600872861 0  5.578187450885237 -0.4799130573902768 0  5.577746788290827 -0.6114427698805058 0  5.594433185104636 -0.4805686092482557 0  5.586504685775307 -0.4667559087530349 0  5.571007523368576 -0.4663314108742909 0  5.578623717005742 -0.4535016262354743 0  5.563731642806767 -0.4530073266596299 0  5.571027426840748 -0.4406908704603381 0  6.137602719036242 -1.429773632600269 0  6.094097968309616 -1.480574942348131 0  7.744990537111331 -2.412814398272237 0  7.813151789914554 -2.31763784935422 0  7.767567661822944 -2.209029555775015 0  7.889595795936726 -2.229631650546633 0  7.934172357478487 -2.339831482611837 0  8.013602505974289 -2.250421505620987 0  8.057534993284147 -2.372165879481473 0  8.142043987260202 -2.270212287067831 0  6.038917065946986 -0.4742156201170507 0  5.993744128537519 -0.469278430106816 0  6.010953586679214 -0.5095624869455393 0  6.177451771630396 -0.5887790656951295 0  4.401581404927901 -0.5188762494824198 0  4.420064355329456 -0.5226106773118291 0  4.409260172646333 -0.5350760067592042 0  4.425040544844201 -0.5386638335851137 0  4.413997297200682 -0.5507535204112241 0  4.431616136720353 -0.5541424199703353 0  4.419047211373567 -0.566193984889617 0  4.43389449990309 -0.5699403630950032 0  4.423226282060136 -0.5817157856053576 0  4.407076419418318 -0.5781388663946071 0  4.412276794151506 -0.5944818867904242 0  4.428636247483794 -0.5977543884936993 0  4.417726918559103 -0.6109961455143278 0  4.434688045015931 -0.6143231208053991 0  4.42323851442717 -0.6278769761121592 0  4.440213062964817 -0.6306321796203875 0  4.429071149985531 -0.6450221115710916 0  4.448761579319181 -0.6470637480643084 0  4.431840407489888 -0.5115417593815188 0  5.361289486212708 -0.3061294282212128 0  8.081833931100068 -0.6429630813157552 0  8.199498870081683 -0.6557114305570535 0  2.188919879978359 -0.490456846590809 0  2.110075069805216 -0.5632598516583887 0  2.134206944600844 -0.6730755653825524 0  2.029112042927576 -0.639786382910839 0  2.003682356160732 -0.5303511892268075 0  1.920042461108586 -0.6071875435227687 0  1.946791464138566 -0.7208428432140866 0  1.831190088606791 -0.6863427304513623 0  1.859495230669847 -0.8062586367347506 0  1.736451755232305 -0.7713092353818443 0  1.708484176163478 -0.6443676327341468 0  1.609966435231826 -0.7313256127668671 0  1.637183225967946 -0.8697323524333633 0  1.498641697383546 -0.8266890671018968 0  1.529785169984829 -0.9765030637482213 0  1.370458507250955 -0.9224478592546971 0  1.413472271719923 -1.10108330476966 0  1.242757922449897 -1.043208431527696 0  1.282320261860827 -1.221837142963132 0  1.202610678128337 -0.8606448617917735 0  7.624031817444186 -0.6075877360644257 0  4.714370781320222 -0.3022977702483149 0  4.714405885202266 -0.3193497684684141 0  4.434938150983109 -0.6629562156347915 0  4.453800346113643 -0.6662953536961916 0  4.564138002548553 -0.7917831941318978 0  5.390258677580215 -0.8388596347228646 0  4.944432257376023 -1.319331450693684 0  5.602854055649591 -0.4667422743583369 0  5.876123260831976 -0.3750910403503813 0  5.860327297210051 -0.3406675427379156 0  5.881954975978321 -0.3080988488792338 0  5.843212871149929 -0.3050270568381044 0  5.865015189339434 -0.2727787292843022 0  5.892400098886196 -0.4120889354724464 0  5.825739572543212 -0.2697012119854056 0  4.683298721731934 -0.2427561791806916 0  5.385496661713755 -0.7029008706619455 0  5.370552002534486 -0.7209809845809837 0  5.331456094290605 -0.1302773106864303 0  4.582695669231313 -0.2040298674692151 0  4.557889550143092 -0.1910316764002662 0  4.581674418176798 -0.1754416642697751 0  6.277732203403041 -0.4591543011984438 0  6.336222157367517 -0.4636127805490697 0  6.312625240764589 -0.4117237592022114 0  6.372461263173461 -0.416841639838939 0  6.348783729596229 -0.3615283025814988 0  6.409377096900219 -0.3683467621936587 0  6.617284248446061 -0.649339293880085 0  6.68957128931247 -0.656070241710025 0  6.661521485088361 -0.5900843076458692 0  6.734744575823253 -0.5972662499057222 0  6.707180516392787 -0.5282814751565436 0  6.781799807337034 -0.5383029285218938 0  6.753084879816498 -0.4677816370779802 0  6.828488561806113 -0.4782134393097301 0  6.803482683352683 -0.6149333164824893 0  6.798811527793658 -0.4081627927117137 0  6.87521559670067 -0.4176790851630112 0  6.724355030855868 -0.3979575436418645 0  5.609312461812636 -0.536776271110912 0  2.823316286784089 -1.876664741640427 0  2.235573192122523 -2.320193594231972 0  2.376633794714581 -2.343780686075418 0  4.479022887967981 -1.20317850201992 0  3.647387854134892 -0.6185253052941553 0  3.631730744289478 -0.5552672383270725 0  3.693854716760934 -0.5725685083764886 0  3.678415277228054 -0.5098644609922049 0  3.616644349737164 -0.4920834011691473 0  3.663650413240471 -0.4485001648814646 0  3.723955697105667 -0.4658195970639825 0  3.601933007996773 -0.4294406121017991 0  3.707963766002789 -0.4044009953799812 0  3.766432267900787 -0.4216629562884457 0  3.753658244102126 -0.3638823325226439 0  3.809340297497716 -0.3799201235967069 0  3.796019710086035 -0.3231469298452985 0  3.853691536504892 -0.3415816457774663 0  3.866938690774277 -0.3971156383531087 0  3.736991246364235 -0.2982229938893939 0  5.179943181878309 -1.327791794502312 0  5.551534790269538 -1.013435944667727 0  5.575553341852396 -0.9824142598395496 0  4.700541349172934 -0.2532629240247033 0  4.701118134426551 -0.2333991085391627 0  4.394611080876181 -0.5909679275192853 0  5.563864612127579 -0.5752953953264843 0  5.558335900181635 -0.561396804675016 0  5.795874288256983 -1.700448878496121 0  5.781975427875922 -1.021643238274841 0  2.717881197130723 -0.4729436585900744 0  6.126211613124432 -0.3575361815578453 0  5.286735219402881 -0.3027083422865886 0  5.295272410166657 -0.3183813331713383 0  5.506390714311308 -0.2663881089095987 0  5.482996404647447 -0.2641019530009325 0  5.492280912642797 -0.2839994157697276 0  5.471576961381264 -0.2824131418189895 0  5.480058850265197 -0.3011383213108971 0  5.499665834161471 -0.302896220842571 0  5.460656485670791 -0.2988270905847901 0  5.488623022597128 -0.3183746431294372 0  5.506379935417186 -0.320317279235228 0  3.096107474763114 -1.073505761477256 0  3.075045154419236 -0.9918104066806643 0  3.15665428176806 -1.017936730325378 0  4.297563510486762 -1.155992401930004 0  4.124372944473761 -0.3236465705860068 0  4.081083950264469 -0.3116747023877635 0  4.070529722718656 -0.2660578459282039 0  5.636778741740828 -0.6160632925219612 0  5.98686467815725 -2.488504076204715 0  4.449548204726421 -1.855010658555688 0  3.407616025393723 -1.174749636182175 0  7.389424157949895 -1.339187750197747 0  3.533422907646025 -1.947101399474514 0  5.781506968301783 -0.7299113965237329 0  6.413891988893713 -1.204688023711443 0  1.58311093984132 -0.6120034271168946 0  6.384929509004709 -0.3122616902397577 0  6.44677947282732 -0.3187610860779069 0  6.327488104592206 -0.3037630362488466 0  7.310643153749833 -2.437887452058396 0  3.294954021335648 -1.954738997769802 0  4.435699265285709 -0.4652531459692528 0  4.43233527292958 -0.4503445569238487 0  5.823527110059151 -0.8713536973360786 0  5.331823968927018 -0.3223950559278201 0  5.494783984595243 -0.7015880876165018 0  3.890162771214589 -0.7026082542535781 0  4.380431040119903 -1.838059597990403 0  4.429672753917081 -1.787127371023021 0  4.362069313576536 -1.770827594186162 0  4.409412502453536 -1.721594243085737 0  4.343706736952766 -1.70528821048125 0  4.38976539562215 -1.657357380350425 0  4.325185225474718 -1.641352766629586 0  4.279116376664637 -1.688378161483911 0  4.260883073178935 -1.624558171477991 0  4.214358068449591 -1.671794924331317 0  4.453799888993267 -1.672649728675565 0  4.196044006329074 -1.607377818742581 0  4.149016127947601 -1.655517352101566 0  4.434682168905002 -1.611444513492873 0  4.495685268917363 -1.625450365791893 0  4.13113931454152 -1.590317221904035 0  4.083217169967048 -1.63886882990037 0  4.239907777679249 -1.561117900577136 0  4.065145291365323 -1.572920081441672 0  4.016837379512733 -1.621785139633882 0  4.478352857575906 -1.567216815941024 0  4.53750563145891 -1.581088278142101 0  4.035245851243939 -1.688981997167495 0  3.966794582248561 -1.672515449869496 0  5.556653060639995 -0.4401894329960321 0  5.563632591252701 -0.4282235825368486 0  5.578680943617083 -0.4282031595881948 0  5.570624325056467 -0.4150527792014878 0  3.839348026524557 -0.2851378941225751 0  5.99011150727198 -1.345251939937701 0  5.948163518488805 -1.39306413226649 0  3.994835304191606 -2.232529632606346 0  3.931669496555767 -2.295159283746283 0  4.019806842880394 -2.318166201782559 0  3.955315783323035 -2.382588141486108 0  4.043861347704234 -2.405852022426792 0  3.866178593057219 -2.358535322341612 0  3.890342987619959 -2.447929451667863 0  3.801992205096511 -2.422940883459385 0  5.847833016825985 -0.2371714771767044 0  5.807742555136496 -0.2344205646876163 0  5.887723523403102 -0.2381600634475933 0  5.427845877260384 -0.1393206805924148 0  5.968123108968029 -1.452504180743234 0  5.906221459018625 -1.440178657457333 0  3.785056285193447 -0.4818794030694522 0  4.047790763960362 -0.5713382948431425 0  8.189810157410406 -2.399399670934161 0  8.278224978537796 -2.29061168295325 0  8.224840992423022 -2.157848531654105 0  8.370291696260916 -2.178379577888797 0  8.425190087433361 -2.318437574512003 0  8.52573493532644 -2.200364864745511 0  8.470212072209222 -2.049497472188195 0  8.635923034480433 -2.073417933245682 0  8.573938842990231 -1.91129006191389 0  8.751100229067674 -1.937210609103976 0  8.810994315239869 -2.102951747983734 0  8.683259883456834 -1.768704517722023 0  4.303485530919938 -0.8175777198568722 0  4.26937316516651 -0.8095703738853421 0  4.279912383859538 -0.8446636609642842 0  4.243595423602274 -0.8361732924084644 0  4.254732357330159 -0.8732160806670737 0  4.216197802542319 -0.8641769193733038 0  4.228156379515382 -0.902442282264848 0  4.270047850895567 -0.9167102485431058 0  4.187595028246507 -0.8934697523570462 0  4.233494901545356 -0.7996191889065862 0  4.108401566133023 -2.340743309661073 0  4.13302831426093 -2.427968767194246 0  4.196570408584106 -2.363163668758826 0  4.221867136465566 -2.450524474372876 0  4.285335399537645 -2.385796679602123 0  4.310805058083236 -2.472965692634795 0  4.375952932931392 -2.407953747036212 0  4.400102481014937 -2.495667627540855 0  4.465776381560829 -2.430574673288353 0  4.488142884327713 -2.52436285782989 0  4.55390758370037 -2.45474552400478 0  4.577351950267201 -2.549122617741602 0  4.643302752988984 -2.476425223804824 0  4.617801685599504 -2.388136643045712 0  4.702947847934478 -2.408837011873582 0  4.730816703066213 -2.497891049316663 0  4.796112410976004 -2.430793881291488 0  4.820133405162327 -2.519034447299799 0  4.887392360688247 -2.451581008172282 0  4.073920114599903 -2.495317064894636 0  7.33188164979248 -1.690086910557474 0  4.512818394288209 -2.067010891513781 0  7.199831304733179 -2.125718162089357 0  6.923505238164291 -2.452747321361415 0  2.108224977033381 -2.293063219470278 0  4.910173839771407 -2.540845537020304 0  4.975178416629338 -2.473600350248373 0  6.898807091278045 -0.9439722036636383 0  6.929687554154999 -1.023202672618492 0  3.103473633341961 -1.382562898755137 0  4.700200748760416 -0.3280776835885826 0  5.967899386522631 -0.5044615042846001 0  5.984254516499477 -0.5439813458039301 0  3.597844590824562 -2.205992297726621 0  3.197009319558591 -2.275966979034836 0  3.122300409465748 -2.349560464628632 0  3.223868884510992 -2.378796180062876 0  3.148094468820076 -2.452878309931497 0  3.044560459326781 -2.42379635710265 0  3.250637551883484 -2.480803268319416 0  5.555329424411555 -0.4654914703561146 0  6.904773366766421 -0.4901736068143889 0  6.953599629015701 -0.4274354103486866 0  4.200771895113809 -0.9329236212280039 0  5.732530164681027 -1.869240404237345 0  3.987595010113957 -1.271624334059561 0  5.922431708099715 -0.8165638739577585 0  3.749058367501544 -1.460881656579876 0  6.576733226560551 -1.685211320597516 0  5.890704047301416 -1.081489219433711 0  4.176879254646255 -0.2216457381476091 0  3.468667023331924 -1.399711666285084 0  5.362532465973394 -0.6988095707583568 0  5.347121248721439 -0.7169462140215431 0  5.355315657266913 -0.7393359856581276 0  5.331378574527771 -0.7350725985387105 0  5.32350019741335 -0.712297861311497 0  5.307296108865939 -0.7308399942918915 0  5.314801200162568 -0.7536101262651521 0  5.290529519302736 -0.7494135838397782 0  5.283660097832717 -0.72623465184835 0  5.265763334824657 -0.744745800055948 0  5.273763555034981 -0.768863930555859 0  5.248425241197368 -0.7633758894109504 0  5.240542494923497 -0.7392754467039313 0  5.223189288099374 -0.7578343634947668 0  5.215284945199921 -0.7333076953359022 0  5.198091279508034 -0.7520665647734899 0  5.190140961393221 -0.7277845161557422 0  5.173106778614372 -0.7464859503110253 0  5.165575463899112 -0.7222115565830682 0  5.148167032338747 -0.7409217398004113 0  5.155804045077836 -0.7656309282486504 0  5.130422924600849 -0.7598189252460126 0  5.122976572010899 -0.7347336611525385 0  5.105161976979429 -0.7536830039794217 0  5.098726336187156 -0.7284660089559178 0  5.080262567774349 -0.7475168549737544 0  5.075522808390698 -0.7222818600655816 0  5.05587669946292 -0.7408319697839563 0  5.051343497345847 -0.7129879034315789 0  5.030565184086258 -0.7355317028740921 0  5.060331185725554 -0.7641220607843398 0  5.023963554007167 -0.7108105632777155 0  5.006400325546256 -0.7290107268800405 0  5.137951250625368 -0.7852661921663795 0  5.000097145277834 -0.7064160453866675 0  4.981949659059421 -0.7237078543216436 0  4.990946689926879 -0.7507836692895224 0  4.964271238358752 -0.7419390856260439 0  4.957172899953993 -0.7175794385045438 0  4.939650574931482 -0.7355754363012088 0  4.933954518621375 -0.7124429959273293 0  4.915548674532769 -0.7294165511897471 0  5.23434310807836 -0.7122488321463536 0  4.908551382746777 -0.7051679316377752 0  4.890832252160341 -0.7239412249490276 0  5.256359760485264 -0.78851627447664 0  5.282604910282176 -0.7939618694894497 0  5.204792655586371 -0.7801778245946865 0  2.604846358084171 -0.6938586478263629 0  5.000318000209632 -2.561488516125467 0  5.062668112161393 -2.494469404376646 0  4.156330924860125 -1.309911772695385 0  3.222764723432187 -0.6899215841275979 0  4.253469623020254 -2.541821098732638 0  6.769328410843002 -0.3388346105503408 0  4.947951255697227 -0.7604640930489374 0  4.897923557313907 -0.7474208659044445 0  4.87342976935994 -0.7414144915882485 0  4.866671775908447 -0.7168768638495298 0  4.848964399600125 -0.7342509613389832 0  4.842309364060585 -0.7109449927754956 0  4.824849865298085 -0.7275860408749386 0  4.818520853149478 -0.7037149671227433 0  4.801955880807642 -0.7206431224847674 0  4.740638344129449 -1.398700573840123 0  5.120494639443511 -1.452896378229618 0  5.73456870210654 -1.257414912429391 0  7.453216583148002 -1.260266703724025 0  7.558955029716876 -1.27971764387403 0  5.61121542484476 -0.481354664146316 0  5.661531790598753 -0.2187203325788456 0  4.414608195312244 -0.2309213219392947 0  4.438506142444273 -0.2114650858392177 0  4.408705402606642 -0.1992712803111336 0  8.151213666763969 -0.5480250655149892 0  8.269756269621144 -0.5590878801105585 0  8.318336795881359 -0.6684221284341961 0  8.393339957188818 -0.5670709373902221 0  8.445235219166619 -0.6838421654660305 0  8.524469707683028 -0.5759797662321222 0  8.579526100726209 -0.7122733937160655 0  8.66702185415946 -0.5849858295596766 0  8.726287473433779 -0.7356066749716178 0  8.822401704099169 -0.5958832660012735 0  8.885820247995472 -0.7483999879625509 0  8.784719114896195 -0.895026889398801 0  8.962264168332203 -0.9126307062389303 0  7.845716104685329 -2.115291464552057 0  4.619385782121729 -0.8787580844950035 0  4.766355200758462 -0.9124234462285856 0  4.175724488646351 -0.8532579635031837 0  4.145175182042058 -0.8839406662092261 0  6.223520155103778 -1.327948677330524 0  5.556228744354947 -0.2044369056680044 0  4.290583003135171 -1.286994702064282 0  5.586711307989053 -0.4148948823101724 0  5.578122292091926 -0.4008894581329137 0  5.562236148708706 -0.4016510470998842 0  5.569474509676128 -0.387338628618713 0  5.553585182027986 -0.3879491745671837 0  5.560953262960152 -0.3737582219394411 0  5.545127663911766 -0.3747698646397972 0  5.552180518721016 -0.3599640193246161 0  4.4400970493588 -0.5408609921948399 0  6.471681459783193 -0.3767673545859651 0  5.861802491412816 -0.683957357016596 0  6.621136305383347 -2.125777795627714 0  4.205356159615718 -0.3408118418265003 0  5.565856997282042 -1.967161415318154 0  4.518312063012548 -1.340910692523872 0  6.233849871899838 -0.8872954549414461 0  6.175199920204044 -0.8848405865244198 0  5.993309073826019 -1.946346624564686 0  6.313546788079206 -0.9569582665646907 0  2.901032803763586 -1.805812257950735 0  1.896004181648364 -0.4956127891690636 0  4.509800056555775 -0.8493750531014402 0  4.148942782546161 -1.112693853299497 0  2.533168810210632 -0.4149677060555086 0  2.764630837645448 -2.055124484172707 0  2.789418683183051 -2.164168418064425 0  5.6166919867482 -0.5814117550256029 0  7.353111580301187 -1.244127871400853 0  5.74901378974419 -2.276709722663742 0  6.875793034234405 -1.090235170961052 0  4.405448556697242 -0.6245980110734275 0  4.135380655421594 -0.2079139854399863 0  4.435054524051676 -0.1778225813200889 0  5.277880306176867 -0.317573742596823 0  8.986941089881688 -0.6110933307296941 0  6.696052112442084 -0.3298074231702603 0  5.764511492538935 -0.5068429855164395 0  5.6477584617396 -0.18860933707631 0  5.681580913261769 -0.1934484735202893 0  5.117912320889864 -0.7102474002116449 0  5.73986765354429 -2.518924317189584 0  5.648707618286612 -2.49767665208825 0  5.621553319176019 -2.409278705504661 0  5.558316240034872 -2.476091892628589 0  3.070903927477091 -2.529341426837426 0  2.960696176239727 -2.499713015402802 0  5.455917611935893 -1.139821580932743 0  5.495453339206974 -0.3343246411933549 0  5.479022174782347 -0.3327341125864109 0  5.643781342392321 -0.6782779550058339 0  5.658312683410106 -0.6584347026458851 0  5.66868618056608 -0.6817223631575965 0  5.722653739028061 -0.3950683648579161 0  5.428694598964272 -1.17419030048867 0  5.278021917999525 -0.2870342025483912 0  5.287217878477754 -0.2718029522685148 0  4.252421714913543 -0.6415838760143843 0  8.848517629743764 -1.062680084127126 0  8.938453725795405 -1.961484953351804 0  2.147935895145388 -2.418105741142786 0  2.019724695192553 -2.39011941502115 0  4.46696704538237 -0.6511239140490173 0  4.47291061774069 -0.6695803451344804 0  4.460108548827078 -0.6846624091644545 0  4.478962016212939 -0.6879031737754054 0  4.491625230826559 -0.6728745324934406 0  4.498155711516685 -0.6896631418639081 0  4.509990946449491 -0.6755486631408821 0  4.516879321835115 -0.6921364330027732 0  4.528379485311287 -0.678841073319427 0  4.535433228526033 -0.6956869117823287 0  4.547177437765616 -0.6816858040343717 0  4.554844488673176 -0.7002887113018182 0  4.566307446292162 -0.6839661724915923 0  4.574154087774663 -0.7026448777242463 0  4.587737760432179 -0.6832009245584678 0  4.594070912888538 -0.7041921193533258 0  4.606716182414169 -0.6885547218021086 0  4.614477016751149 -0.7069714368875737 0  4.627423421737941 -0.6910475283304102 0  4.635281293344655 -0.7110663102820414 0  4.6490857272573 -0.6933128252666586 0  4.656503821215311 -0.7148009579125423 0  4.671413349256248 -0.6958722238662024 0  4.679714658845578 -0.7178892640180865 0  4.694077074407349 -0.6996192585084703 0  4.702951328116603 -0.7214099587176717 0  4.717488389349286 -0.7027841394586458 0  4.597136363141494 -0.6322029615506356 0  8.582455767267522 -2.350469526545752 0  2.523837131642149 -1.411904661237153 0  3.824179443191552 -2.516444519254452 0  3.720504836919167 -2.480641391423275 0  4.797230043106794 -0.6963483277590358 0  5.468852090867291 -0.7580323896031038 0  6.983793754420522 -0.5023017812067099 0  7.033742367944461 -0.436799719884974 0  7.00140384671011 -0.3643133483414089 0  7.083259456974589 -0.3719469001611073 0  2.340739064347344 -0.7238686085406345 0  2.435922801991146 -0.3832310879975602 0  5.855218022671961 -0.4068335825914726 0  5.869730134554011 -0.4395348152906242 0  4.415533118398848 -0.6593271838019714 0  4.421749460006943 -0.6789173517272609 0  4.71435898160145 -0.3357834136747306 0  4.855468998418337 -0.7599241991970636 0  1.064173720163237 -0.9879851204900503 0  1.031415933323792 -0.8018974723500549 0  6.076895211093674 -1.744546572909479 0  5.296252004084317 -0.9954314357122345 0  5.272850501240062 -1.022602545705142 0  5.531495275916478 -2.388551650491346 0  5.468953763419106 -2.454663410476253 0  4.486151722946481 -0.7085442788465199 0  4.092383025242432 -0.3557658858355741 0  4.047944068357661 -0.3434203556293833 0  5.594863894103677 -0.4001365288581282 0  5.286014355960954 -0.3324446325233377 0  5.269519203785004 -0.3319868013807605 0  4.446397380339826 -0.454739898953711 0  4.443230700314437 -0.440741398210724 0  4.429116673071957 -0.4358303930966547 0  4.440686058387128 -0.425955417804923 0  4.451571063762918 -0.4690015233623537 0  4.426031109405258 -0.4207215885298061 0  4.441108810926155 -0.4094015769483492 0  4.422990533960984 -0.4046433312675095 0  4.436394581350712 -0.3929639116544652 0  4.418710967866076 -0.3877875788002991 0  5.808423821693881 -2.2109669223481 0  5.18239380012327 -0.7038755327471001 0  4.305980005027087 -0.4549648427686503 0  4.272006132548585 -0.5127655995055844 0  5.585639040465023 -2.56504897533905 0  5.505116017598457 -1.074121369872225 0  5.549655747702833 -0.4286556689061765 0  4.402175648888754 -0.1652414075084028 0  4.376910240370585 -0.1872051573665199 0  4.414873664812146 -0.4309276575861367 0  5.090162504100619 -2.584827209566811 0  5.424073790923229 -0.6873920848521594 0  2.92958189518911 -1.027615325157039 0  4.555438873962143 -0.1617408693813653 0  3.986300556235722 -1.742134659520675 0  3.914559820032047 -1.723284489872001 0  5.167016663643222 -0.8811237370152631 0  6.961301164632033 -1.103513724372842 0  6.141050575787273 -0.9282771905775018 0  6.122079480694227 -0.876804366105794 0  6.153592382113159 -0.8353741817627076 0  6.10284848813855 -0.8269923997394293 0  6.134592519930237 -0.786308482195392 0  6.084434052398167 -0.7788830087781029 0  4.718306812189898 -0.2436332477677821 0  4.71878078174522 -0.2236572297455928 0  4.701353339395134 -0.2132947627029367 0  4.719578595563719 -0.2032916098495439 0  4.701659312678475 -0.1925795263847612 0  4.720979975213764 -0.1816691998900424 0  4.701502459370056 -0.1703562000096221 0  4.722112374830174 -0.1587413042803223 0  4.701166322305691 -0.1464321411595237 0  4.679661263977976 -0.158698840142983 0  4.118592688797164 -1.352096041850393 0  4.174172794916442 -1.3659691787222 0  5.040590175855837 -0.6933506522172282 0  5.038127499429604 -2.407370956223367 0  5.12431736540033 -2.427658675109086 0  7.538823852220778 -2.479657148316811 0  5.818469117074525 -0.3392419328943828 0  4.555308482548544 -1.63866050462096 0  4.596429970949639 -1.594358578706886 0  5.549486771950722 -0.5726231465911786 0  5.544290160627681 -0.5604574010618619 0  4.726624323247281 -0.7249574831304572 0  4.729180152007588 -0.3107994817213315 0  6.16157084316823 -1.49286411295614 0  3.998261411292328 -1.555109881571261 0  5.264710549353354 -0.8144142337726223 0  4.580806080842149 -0.1426906355881861 0  5.926134092551491 -1.499816765912012 0  5.864468499956184 -1.486439993733981 0  5.489762987373437 -0.1733503808217645 0  4.607853420409572 -0.2889451430529848 0  4.590588873169043 -0.3006283032019013 0  4.608587006745569 -0.3093784384960754 0  4.592137493653264 -0.320829725511802 0  4.608986707344068 -0.3286283700025607 0  4.574583143631942 -0.3124190284132315 0  4.576135488433612 -0.3315454681571721 0  4.559388179044098 -0.3239736498036123 0  4.169668016943959 -1.72156252209458 0  5.620216328073978 -0.4664642210412937 0  4.953714371609479 -0.6970196277963685 0  5.927265945152977 -1.335403486277526 0  9.003813238544545 -2.14438912925528 0  5.844924040178022 -1.42764625814164 0  5.803906192146786 -1.473160541018827 0  5.269228730755541 -0.2713764555201958 0  5.278364719615443 -0.2559350911131173 0  5.40336624609803 -0.7467201778111419 0  5.451540433297327 -0.2811898949465204 0  5.440522355152206 -0.297110576819215 0  4.415590348268057 -1.54830775154041 0  5.830449239518529 -0.2007096174951239 0  5.277250260834215 -1.490992843606358 0  5.239041866057637 -1.532537401964905 0  4.807127546908956 -0.7448875169639499 0  5.590328907341783 -1.019286805160741 0  5.613509156344987 -0.9879363911885226 0  6.330724310632553 -0.7317330326659465 0  4.769537864850324 -2.3288894057768 0  4.351085227427868 -2.320962707027639 0  2.800826608956283 -1.773245998886873 0  2.999915117922421 -1.837582788461328 0  2.977018097013812 -1.737951157075404 0  3.071851658165679 -1.7670253376465 0  2.72219165776646 -1.843752309524458 0  5.221820080708721 -1.964122305473908 0  4.612666791259222 -1.650247136132075 0  4.654626394250196 -1.607081684219792 0  4.672535246119815 -1.671460505118404 0  4.713822792605733 -1.621360369827884 0  4.732636730147728 -1.677892603671934 0  4.774052715296724 -1.632232943296541 0  4.636219508716294 -1.55086750016547 0  4.542343051561195 -0.7178569306078415 0  5.723913234029423 -2.19321737082869 0  8.339972080133904 -0.4577448998974591 0  4.519776764355021 -1.525254221064883 0  6.125925395661898 -0.5809696262492543 0  7.962617659937011 -2.477148964984785 0  4.059526065964664 -0.3888540673516374 0  7.908264407994935 -1.0523511143062 0  4.792339513361492 -1.691320449091989 0  4.834113339200385 -1.644938965384513 0  4.852445071401851 -1.70478443048139 0  4.893984285359566 -1.659251813813164 0  4.912945457455153 -1.71859306764875 0  4.954227945583993 -1.669976057490382 0  4.974024006083947 -1.73219972343049 0  5.016636214197249 -1.685796036308168 0  4.663123190361323 -0.7372506414182307 0  6.982918963918207 -0.9562447475254333 0  6.95123804705015 -0.8761535280306537 0  4.834762920423318 -0.6876543427712355 0  9.040107882911862 -1.085450644726252 0  3.325485219560912 -2.407521180954597 0  3.352272331175212 -2.508012972415943 0  6.360871220405015 -0.2562189440950655 0  6.304912264724146 -0.2476453878303539 0  4.601405832306448 -0.7251458810087715 0  5.485637365950756 -0.3473705868991155 0  5.469991306394916 -0.3458794279748352 0  5.260215703614709 -0.3166311079058621 0  4.520565892772999 -0.6637969889062272 0  5.944727355837104 -0.5394958518403387 0  5.959944423189794 -0.5775716667834749 0  4.729222484512866 -0.2937669009095834 0  4.758171252429932 -2.580893142490568 0  4.72260792979823 -0.1351310134004384 0  7.094837576698887 -2.106413466413627 0  7.163171050582133 -2.025350970359397 0  7.059692454684496 -2.006349067192324 0  4.424048917054838 -2.586754624852146 0  3.894325089115983 -1.650922549889068 0  3.842102165741694 -1.707016011503706 0  4.446388235893757 -0.6017269091474475 0  7.724143833187715 -2.099753970841888 0  7.419401795871478 -1.166334942811375 0  5.50122917255087 -0.3489431548652751 0  1.458113852168688 -1.271518070987957 0  1.325943991858773 -1.404258263199174 0  1.146418715146548 -1.352670062328997 0  1.19061882754682 -1.53656073043496 0  1.372198657875256 -1.586689330119991 0  1.241990495590303 -1.717571196630012 0  1.417193901699719 -1.772660691163391 0  1.291851319335194 -1.899971368580244 0  1.11531495547435 -1.851997264067419 0  1.168299951771234 -2.029507388246 0  1.342896707566535 -2.073401826449222 0  1.223693103681502 -2.203157972610333 0  1.397138056033687 -2.236269923325955 0  1.042432919937085 -2.163824114751177 0  1.511078310550699 -2.114030147885035 0  1.55830261296696 -2.27178914597321 0  1.452195169220239 -2.391394920819383 0  1.606212649914135 -2.423399944253566 0  3.42288089121566 -2.429814440565663 0  3.451985904022276 -2.534017179205798 0  4.453414375901767 -0.4178351964006595 0  2.869733643405024 -0.7710099375692785 0  5.483744541278472 -1.707269491672964 0  5.543116960777729 -0.4396378566264052 0  6.042415215724998 -2.167826229547422 0  5.834523409368265 -0.435945652324871 0  5.848478952583396 -0.4684502081648174 0  1.167619893183328 -0.6814776413844481 0  1.002862891676533 -0.6202992066028913 0  4.700552960346583 -0.3442151018965269 0  1.9784742886849 -0.4206733106101948 0  3.894164129020333 -0.3007926430098715 0  3.881136658325626 -0.2478205143652561 0  3.827780070227216 -0.2310970315752052 0  1.974727498809859 -0.8406832267051549 0  1.891033097812451 -0.9242788288885661 0  5.603775690348125 -0.4152919026645852 0  2.700927774126269 -1.738026412483052 0  3.741256999054966 -1.212290046901566 0  7.935824517683532 -1.718280390859207 0  8.060708754496417 -1.748304341076305 0  5.442493737080411 -2.367585293680141 0  5.605122868876522 -0.7831692034282891 0  5.617800000016041 -0.8116131152189936 0  5.635687132013931 -0.7860221925765057 0  5.648994070895919 -0.8155898998200668 0  5.667782255816371 -0.7894347777453697 0  5.682027889881614 -0.8189709476006624 0  5.661725012755255 -0.8463661094870404 0  5.696582038689083 -0.8500084445510245 0  5.674926066636611 -0.878555142903667 0  5.711257985078424 -0.8826782253464207 0  5.568435303461604 -0.3584933540896524 0  5.559617593202089 -0.3436220376574992 0  4.873444911241222 -1.596161933302134 0  5.786949005621713 -0.26736145594435 0  3.135048815843636 -0.9338734552889303 0  3.227359727864552 -0.9604863135728789 0  1.1020329349427 -2.340538114532046 0  3.754271423201594 -2.585612551147744 0  3.850732575336936 -2.61193600734661 0  3.049453099567086 -1.675474674170209 0  3.141600862879787 -1.700643850326452 0  4.679235600433215 -0.1324808237125381 0  5.036032232074827 -1.745633442266457 0  5.07821371842239 -1.70019324303105 0  5.098225014767253 -1.760270324816849 0  5.139513417687461 -1.714791974327581 0  5.059288244705034 -1.639224924691515 0  7.433031384392615 -1.708776317339299 0  7.366705000766543 -1.788729229539586 0  7.470641260941189 -1.807759921364594 0  5.705063182738191 -0.7885448777237767 0  4.686569715007045 -0.6771615575029117 0  6.740461803571215 -0.2704724525514643 0  6.669358897573151 -0.2685904181110916 0  6.814096840334804 -0.2795397878263937 0  3.934166909074858 -1.795549828278103 0  6.113715149489614 -0.7396205646066381 0  6.066091403972816 -0.7319284403232231 0  5.689172693736027 -0.9116811237369826 0  6.785678511543739 -0.8586372864435755 0  3.518923301608159 -0.8278286793521439 0  3.537108797000512 -0.8949697116971606 0  3.468629904501914 -0.8772446043205061 0  3.604729944666324 -0.9122477705534945 0  3.555710906222342 -0.9622653359853335 0  4.322398135427412 -0.6014891139115528 0  6.634863358835782 -0.5253917431757429 0  2.681921277789778 -2.13091218437018 0  2.70710293531956 -2.242930766077952 0  4.456544484083693 -0.4452917004501908 0  6.001027596437954 -0.5830817790479216 0  5.974336242609138 -0.6167161140642876 0  4.561263981875237 -0.3424935371559428 0  4.544965999974218 -0.3350164662865214 0  4.755213947102782 -1.574832013716697 0  5.161233589009216 -1.774140045995487 0  5.201249905337306 -1.728308938473727 0  6.051413622281488 -0.8184375078261776 0  2.865885582457008 -1.08953926296211 0  2.843335481317823 -1.002882300559264 0  0.9181060963638465 -2.304399336251849 0  6.427608741496444 -2.100855417161531 0  5.628927110732034 -0.4821374173142172 0  1.872674504415037 -0.3855820739497013 0  6.906066677103824 -1.171604262744153 0  8.920775438644272 -1.243249867730399 0  5.377319211658045 -0.6810698531564725 0  5.354952822797835 -0.6772562722024492 0  6.451601820823077 -0.5744891577788422 0  7.04980037420043 -0.2918167005301282 0  7.133229964307234 -0.3087437205267136 0  7.166148727371758 -0.3821381532112644 0  7.216852288746565 -0.3146716922884516 0  4.744001707842641 -0.3023655215278123 0  4.74252145035116 -0.3197280478064228 0  2.509350050821822 -0.3208373254674339 0  4.43263760661063 -0.3759729534836165 0  4.449517372951059 -0.3816132576040578 0  4.414603283026967 -0.3694662325037907 0  3.623227439037377 -0.9794384214854508 0  4.16874689369788 -0.1781729364115021 0  4.125587240267826 -0.1634352051866077 0  4.368062373364256 -0.1523813293261527 0  4.340442094635495 -0.1757539999996129 0  5.472689626122507 -1.180787261014326 0  5.790216440101568 -0.1986684572099089 0  5.290945423534905 -0.8191946358324462 0  6.163916744107914 -0.7348453406353157 0  4.940658555797395 -2.630865336741159 0  1.019579161267221 -1.48972841593541 0  2.323665161759354 -1.062822258386539 0  4.587254311947683 -2.083738295923632 0  4.534453258308936 -2.141046887081251 0  4.744174039115669 -0.2851683010872224 0  6.509859690976569 -0.8890441301481216 0  4.183004460044979 -1.071659116660783 0  4.140332181640916 -1.059580601564108 0  5.68398525552205 -0.6605292692430952 0  5.695307789160323 -0.6849792666182775 0  5.409194609895699 -1.027327479004209 0  0.8526328479850829 -2.107999820445006 0  6.115656932900477 -1.545916454028249 0  3.278117661254366 -2.583031242650071 0  4.612636258517536 -2.158196049332989 0  5.277061597210541 -0.3463570833427694 0  5.293105217309821 -0.3471355190344272 0  5.261360030410207 -0.3456693267527959 0  5.779901043089291 -2.130394292445782 0  2.067003583062747 -2.512719203360009 0  2.188837732146377 -2.542062933982922 0  5.726564909030857 -0.9165599159311032 0  5.703696690155877 -0.9471095938594931 0  5.237367749066998 -1.015487365389805 0  5.248641560793994 -1.050502244737215 0  5.210910472386484 -1.04225196799721 0  5.222610425575151 -1.078360704436584 0  5.184407581343879 -1.070444162150591 0  5.196584293409602 -1.107724797167507 0  5.15780969260603 -1.10016540794402 0  5.171175109150657 -1.137236247485344 0  5.130759901915421 -1.130379801517024 0  5.212139148071088 -1.138966060139343 0  5.144228260152673 -1.166543565802088 0  5.102885276859157 -1.160900394023418 0  5.089833359019098 -1.121748033292285 0  5.062046960462395 -1.152260871003866 0  5.049524806091632 -1.112906846127109 0  5.021804024016597 -1.14321499196195 0  5.00964923511386 -1.104363606388902 0  4.982059765917318 -1.13422206394396 0  4.970060332513686 -1.095822572118211 0  4.94271766654966 -1.125293731184511 0  4.930967094049293 -1.087427093932557 0  4.903913571042535 -1.116506282653008 0  4.892050186491245 -1.079071911525044 0  4.865503195494649 -1.107697547899488 0  4.853481425729981 -1.0707132110919 0  4.827459052402812 -1.099152185535748 0  4.815811429298269 -1.062163500024956 0  4.789930645604342 -1.090585028761273 0  4.778210844946241 -1.054331965222905 0  4.752778551881306 -1.082193474503366 0  4.741147613299623 -1.047517674460627 0  4.716078955058348 -1.073944539741411 0  4.70455167291824 -1.039776853969465 0  4.679742109628182 -1.065782569879168 0  4.668426407641824 -1.031380104238341 0  4.643704731810359 -1.05744264953507 0  4.63246243520644 -1.023381777324439 0  4.607870722010527 -1.049422860178612 0  4.597478785851872 -1.01535474351259 0  4.572302114214225 -1.041615583286957 0  4.564132589168349 -1.008730179521997 0  4.537119687465263 -1.033822252587259 0  4.531143821101292 -0.9944414314423454 0  4.501955456293285 -1.025124404034723 0  4.489974971244294 -0.9908812964223821 0  4.465312621793916 -1.017891712260911 0  4.452590193110371 -0.9811387417313869 0  4.428699857367985 -1.009971992610193 0  4.416792843821638 -0.9736508100679699 0  4.392044451767544 -1.002266305244853 0  4.800835830543742 -1.127788213208451 0  4.65600920839403 -1.09372908506791 0  4.584951123401474 -1.07735882467487 0  4.476625025572304 -1.052182801790536 0  4.725796460988784 -1.110079766241887 0  4.916677425295326 -1.155491601772581 0  4.40345155919648 -1.039155873314935 0  4.364738319838199 -1.031021852497822 0  4.994318645423843 -1.172003598364154 0  4.510810388877114 -0.9578138645363847 0  4.621515425131587 -0.9895121150213273 0  4.380857587647609 -0.9659472552666947 0  4.838025172194952 -1.036772661300491 0  4.40555243312656 -0.9381585992856123 0  4.762251497039522 -1.023472278570963 0  4.692637470678437 -1.001003454639501 0  5.03680590911636 -1.074859003307818 0  5.256199541855139 -1.089396716505361 0  4.957387289394052 -1.058030735530368 0  4.400827398852432 -0.6747086375919991 0  4.407733112430269 -0.6963261780390785 0  5.884089334585672 -1.546354678038571 0  5.945806165086686 -1.560930280290201 0  5.668647028748903 -0.1609725075991832 0  5.632373181685683 -0.1565544391708915 0  4.37016980104294 -0.9302197870577789 0  4.013882806619929 -0.3760639644478001 0  4.025858361376942 -0.4226799714173926 0  7.250781998251447 -0.3930794090829774 0  7.303324359490308 -0.3233596422571878 0  4.446419997899802 -0.3646849791511055 0  4.464579126112317 -0.3725484435337638 0  4.460176893803969 -0.3540850987444388 0  4.476034859310229 -0.360056063832022 0  4.47330925658218 -0.3430809228202856 0  4.489286062260089 -0.3486151860418369 0  4.133257023325576 -0.8414947561953192 0  4.101133448583924 -0.8734777334324481 0  4.114119960287838 -0.9178992952229641 0  5.22458811223825 -1.789480074161364 0  5.264723566557285 -1.741510461560736 0  7.37147920259758 -0.9139441127160532 0  4.103916224533027 -0.4006599066111014 0  8.517810574149783 -1.743654622558541 0  7.317199147418922 -1.151186860730931 0  5.380382704885124 -2.433265916953625 0  5.406189073811385 -2.521763536675207 0  4.711645868108227 -0.744053300603982 0  4.735996229695869 -0.7477507942908524 0  4.640533530571028 -0.6730624263901368 0  6.177327414212272 -0.3620374986894486 0  6.156182760189637 -0.3144355967478005 0  7.065794235275133 -0.5128883512638465 0  7.014333917773939 -0.5781565996028222 0  2.991430760169626 -2.607531081854231 0  2.874418636229035 -2.582800578550818 0  4.397543568324727 -0.5473116387326448 0  5.308666611978848 -1.029428248337337 0  5.294690994145218 -1.54522938111924 0  9.134317642788528 -1.992391695431131 0  5.785484793222061 -1.415353886361661 0  5.744786060617489 -1.460203827609495 0  5.76289671015215 -1.518337130692927 0  3.333065113399457 -1.153891509031829 0  3.387344471020807 -1.099875516515816 0  5.187557430221111 -0.8581632835833299 0  8.60127635980389 -0.454381646102282 0  8.145356285226301 -1.648213744701698 0  9.065783765198432 -1.801169025235718 0  4.13350881964017 -1.409243896334502 0  4.073912080438104 -1.395138827056188 0  7.256704833812926 -1.227672662868616 0  7.223607971150357 -1.139381955903409 0  4.735586084499491 -0.2336399594202778 0  5.536703759527754 -0.4287211469178462 0  4.429929417116644 -0.1433631928370374 0  1.137403107221598 -0.5118862120263119 0  8.731814942604744 -1.20512284101598 0  5.679131644232589 -0.7064691402476407 0  5.811334740830745 -0.164279969546081 0  5.848706120743022 -0.164474979653696 0  5.260409620162534 -0.2556838703903082 0  5.26969214174705 -0.239912435671906 0  5.288260753243429 -0.240029713095393 0  5.279920947743112 -0.2236961201547962 0  6.01626533301153 -0.6220483989537651 0  5.986606126884992 -0.6541509572347043 0  8.478600813512461 -2.467017516354232 0  8.636165178474448 -2.501833591928305 0  4.486624770605447 -0.3319175945383033 0  4.007814681245902 -1.813974076815933 0  4.714042500111989 -0.3514974359176568 0  5.771638222464197 -0.161352950696946 0  5.537876295333552 -0.3884878745982161 0  4.530031154151728 -0.1786120552381272 0  4.526535179367411 -0.1474040462214752 0  4.37702901594201 -1.068864838689923 0  4.336662393023576 -1.060755391536152 0  4.324358483757931 -1.021128022250739 0  5.536575423252136 -0.5709409874450304 0  5.541088602098483 -0.5826804100555657 0  3.818029537358075 -1.477306354111506 0  3.866210337657099 -1.426786935438923 0  3.769003681355724 -1.529787662524412 0  4.067923856168868 -0.9072980315429759 0  4.081895713791775 -0.9538834011582903 0  5.511309128687736 -2.288661748273176 0  5.444543351743957 -1.216299722307407 0  5.399677343412936 -1.209251027065908 0  6.78466201928567 -0.2109652072664323 0  3.055046897576837 -0.9106766593855719 0  0.8784588178896566 -0.9275431651999109 0  4.577827558462249 -0.3493141459343989 0  7.126925490119996 -1.926404787540113 0  7.02471681865361 -1.909121973172899 0  5.3555077037659 -2.346804747118862 0  2.419021499528436 -0.2908617188944838 0  4.573403957702633 -1.696927593514513 0  3.553994900752157 -0.4738851743300914 0  3.539163566523676 -0.409719455946397 0  3.58675827597866 -0.3644945271514586 0  3.524395791962308 -0.3452512085273016 0  3.572053734662953 -0.2995475538416297 0  3.510060206897215 -0.2807133113278633 0  3.460576947813727 -0.32634924199971 0  3.445813533420816 -0.2599369584458104 0  3.395069640687536 -0.3069239610905607 0  3.558793305856164 -0.2361636802119638 0  3.380009504506746 -0.2387103587719079 0  3.327820951930915 -0.2858452693299465 0  3.34370269817356 -0.3556793448399853 0  5.530101656344263 -0.3757051327217285 0  5.507663689340435 -0.3954239394607661 0  5.935352780375771 -0.6096579281854251 0  3.934255553321619 -0.2639284581657415 0  3.921477978413036 -0.2108153426214179 0  2.956048369216762 -1.644722662724214 0  0.9772389291077594 -0.4498975533784644 0  0.8423556149415239 -0.5558256986112643 0  6.088535149698009 -0.9185698818979746 0  3.574765762568245 -1.030056853671012 0  3.642826858949511 -1.046146946806291 0  5.259819307462853 -0.2234227737872212 0  5.269051127459359 -0.20616730360305 0  5.290471522592171 -0.206628996237308 0  5.279289243735251 -0.1883891069822177 0  5.300836928475163 -0.1879380581188244 0  5.258230656157572 -0.1885334737544604 0  5.268375004335347 -0.1702931689970761 0  4.996257465248004 -1.794464830720756 0  4.339147284603321 -0.2582426285959767 0  0.9776985390959068 -2.483639276180043 0  0.7929610739039257 -2.453350147052677 0  5.651377186138242 -0.9056791982545745 0  9.117748193857514 -1.266117596379229 0  5.706804294518301 -0.7105621072830381 0  4.738976062966256 -0.193278678486728 0  5.531991788417367 -0.55946739864887 0  5.539091177786885 -0.5496504997515091 0  5.505707091163431 -0.8240927563470819 0  5.47628095040171 -0.359800880451153 0  5.460875395917993 -0.3584137909820484 0  5.454504748101836 -0.344533746846398 0  5.445428315806231 -0.3571440306749496 0  5.438911895631489 -0.3430826808468566 0  5.429804232405754 -0.3558205720330165 0  5.423235896605073 -0.3417445286025735 0  5.414115602995969 -0.3545003970771052 0  5.407538323004769 -0.3402972440915717 0  5.398641020247769 -0.3531679966687409 0  5.391849070873571 -0.3389301595419276 0  5.382942524492208 -0.3518301473972882 0  5.400910111638296 -0.3257028196267604 0  3.117091838155747 -1.604036528821051 0  3.209773434224874 -1.63914941718099 0  3.230780274087269 -1.726423992656055 0  3.298092666150846 -1.665288792139645 0  3.318538643766414 -1.750782338156514 0  3.382365125492804 -1.688989852017226 0  3.365658284112024 -1.604266781151719 0  3.445218781637873 -1.62986666753788 0  3.464955479493934 -1.712083693462278 0  3.524252421555616 -1.654315187974202 0  3.545267518412039 -1.734897611072518 0  3.604039301160165 -1.679709953670463 0  3.624965264323055 -1.757522566981949 0  4.556772539152221 -0.6662590959904919 0  5.074578609073285 -1.191795896438991 0  3.273513546860364 -0.3382835446571941 0  3.258586164837974 -0.2640814316573679 0  3.202832156114346 -0.3176462654704646 0  3.18806335894579 -0.2430135551765749 0  3.131008002979157 -0.2963587259184872 0  4.463951974311604 -0.3884962813187787 0  4.492327022153658 -0.3953470297792485 0  5.157156314121781 -0.8533644909686904 0  5.613686107869349 -0.4001996394640459 0  5.603380191494537 -0.3839213708503739 0  7.790915104233442 -1.993405026521136 0  7.926210994739329 -2.033356056029459 0  5.40870123230322 -0.8160105768551706 0  5.3800075747439 -0.8115774697192512 0  5.098904640735733 -2.342386016780388 0  5.014090215877416 -2.32207801205629 0  6.857109397578584 -0.220645129731835 0  4.750642801282484 -1.737180126394258 0  2.778497149678029 -1.066330884947455 0  2.755736374022065 -0.9783300385489244 0  6.509284271909857 -0.3263049573856671 0  6.484219883414313 -0.2679006802171342 0  8.493164993989863 -0.8166107215892731 0  5.415533152277384 -1.25171754001719 0  4.188968285775004 -1.420555958092796 0  5.577629000462157 -0.3425055126710035 0  5.567895927506568 -0.3262942294329281 0  1.957873534295384 -2.502046140678098 0  1.893911557302788 -2.402460978506604 0  5.630158580500168 -1.024226832439818 0  5.605136878434308 -1.057285231166204 0  3.430647100690913 -0.1959283715756659 0  7.035125023499335 -0.888829625260148 0  7.001596355087712 -0.8091306469255127 0  1.504596050872638 -2.538200591823956 0  1.650777802120931 -2.567665297579356 0  2.618664819690511 -1.811394562891679 0  2.597024947064197 -1.702140061954718 0  5.517630174038781 -0.3060621344486989 0  7.402724721161839 -1.888028301065212 0  7.509038966778835 -1.908495253978444 0  5.698868252678237 -2.113426215354324 0  6.184879855197154 -1.559051563403912 0  6.231482421507136 -1.504397715836632 0  5.730169883773863 -0.8534381494822197 0  4.395099951310896 -0.9037826217849756 0  4.429250154574984 -0.9114150535778585 0  7.069276420885712 -0.9688317366630033 0  1.66803847078247 -2.152813172989229 0  6.535898028733634 -0.3857148628751252 0  4.655520699246565 -0.1461279661003299 0  6.994235524857741 -1.181637874011653 0  4.547255890350736 -0.3520992578338524 0  4.531747770984743 -0.345620582624808 0  4.529014844427231 -0.3298342279716002 0  4.29487167585537 -1.05178931548043 0  4.282446495483383 -1.010199448889808 0  4.588330348693361 -0.6448432323612597 0  2.212281205686494 -1.029912983068891 0  2.127666272450639 -1.112207257125743 0  2.938376541054796 -2.393786067843712 0  5.221353802868017 -0.8570868512151876 0  4.655619537039912 -0.1178929642181887 0  4.680985581459324 -0.1027944913858998 0  4.624688553625341 -0.3193764077444334 0  4.624858165451814 -0.3369462330526447 0  4.60952604702668 -0.3463938548025218 0  4.625050320415113 -0.3534612978620173 0  4.639165782295539 -0.3447651109988277 0  9.148486115235471 -0.9179893310116919 0  5.314095972411813 -2.496573561090554 0  5.337616662951952 -2.585999157633935 0  5.437381520524477 -0.8202718747269783 0  5.256153317709105 -1.587823854844162 0  5.313661052575854 -1.600420779491385 0  5.198835393151988 -1.574640953129988 0  3.114750162595327 -0.8525331051755247 0  6.698131850053396 -1.192305323395005 0  5.541352661338868 -0.3453046039058574 0  3.684135499968286 -2.228245534068377 0  3.618486693074698 -2.29393920728469 0  5.273317202805597 -0.8411256021517228 0  4.603932533641538 -0.6472512237446779 0  7.863241331109275 -1.281936772496691 0  6.414369870021065 -1.884052250175197 0  6.499096404425439 -1.902729786082047 0  6.336686566348396 -0.2025454947743057 0  6.276044197468037 -0.1946629900740307 0  5.268718927684854 -0.3596516659370228 0  5.2534086117016 -0.3586546354297591 0  5.245957658843982 -0.3453563090655014 0  5.430565747575531 -0.2791390013266373 0  5.754282055884715 -2.052968252908137 0  5.833411403299573 -2.068841869350143 0  8.191779576993262 -1.776311580819289 0  5.404276183170099 -0.0768860785168215 0  5.820485299717043 -0.4029156577181467 0  5.882092659078517 -0.4720631922355851 0  5.861244081881047 -0.5007234071284232 0  4.332518404886089 -0.1358697113275056 0  4.301447319972666 -0.1631327801913907 0  8.917278264307392 -0.4581735484759608 0  9.085925647970498 -0.4682104861601057 0  5.515726824899033 -0.3999914872113948 0  3.504118533112115 -1.573240643349126 0  6.51188854065136 -1.301245754030892 0  5.643025104026323 -2.174361056383125 0  5.794506379198661 -0.1255567061488156 0  5.638828568477715 -0.4668112751620108 0  5.630302684891442 -0.4507871935742696 0  5.968325851032752 -1.288278654604121 0  5.908580343792801 -1.27881586321421 0  5.947146677478991 -1.23394206410042 0  7.339742810503032 -0.4074610877848979 0  7.390919924402841 -0.334349003113859 0  6.958903143735514 -1.986673476792386 0  6.92516050243442 -1.891719511213249 0  6.860321172318136 -1.967137474343653 0  6.827418202238583 -1.874089664725833 0  6.763592274914403 -1.947789797648617 0  6.732479244137515 -1.8562043424284 0  6.989849834458266 -1.815052939789536 0  9.204448038052115 -2.192619215665538 0  9.066706186076797 -2.355047301075635 0  9.279858065237608 -2.393395431327549 0  6.092120230315093 -0.6967064451553886 0  5.53077616629888 -0.4393349670548496 0  5.536462631469752 -0.4497902741399282 0  5.146888464266431 -1.062407145907158 0  4.360165884590218 -0.8956606092763668 0  4.558511739647343 -2.217472222184941 0  6.155621529293693 -1.15060807366118 0  6.250921615851633 -0.6566059818662534 0  6.106758616165749 -0.9684672843315207 0  5.825104594229265 -1.370977852160658 0  4.741133795995299 -0.7059836860409792 0  4.73202820944529 -0.6842299601504236 0  8.033815690342216 -0.53714275707879 0  8.102871870387343 -0.4443863086714397 0  7.989115112203572 -0.4338001271450318 0  8.055860370490407 -0.3439825011798034 0  7.947781866097289 -0.3330819491349071 0  7.881259618692813 -0.4196278316805253 0  7.842899936864153 -0.321905657363831 0  7.780218517105872 -0.4040810109381772 0  7.74116848426167 -0.3107966354763421 0  7.681349376240966 -0.3872506438517589 0  7.641162531044631 -0.2997768133493461 0  4.727600814677708 -0.3437209137498227 0  4.727411465054892 -0.3588774026637278 0  4.740258552080809 -0.351493227877679 0  3.709966773506411 -0.6348543350295355 0  8.608953311841866 -1.60682695324815 0  2.601251639235934 -0.348378222593591 0  2.578518062733228 -0.2575234590243709 0  2.662477070388402 -0.282458320381834 0  3.754704033215931 -0.5902104388471699 0  3.770389976494304 -0.6506464138292318 0  3.808236082360398 -0.6063076053100327 0  5.073156347633294 -2.259925933866979 0  4.686765484656142 -0.3367461603748232 0  4.687088283519418 -0.3521825255322957 0  4.384788125749743 -0.6915192666770822 0  4.392392768326429 -0.7149195305253429 0  7.579982171188458 -0.3657364404064876 0  2.397382801301626 -2.131521845964104 0  1.623561092454819 -1.999057019159648 0  5.029061556135416 -1.295379319917452 0  4.558023493169459 -0.3051239533113717 0  3.619702002522041 -0.2548835511254797 0  3.606479467271969 -0.1930230854306449 0  3.66697214458295 -0.2127362800181529 0  3.972885801074141 -0.2259435907779292 0  3.962304518343242 -0.1764377157918753 0  4.011373724173186 -0.1898416948538124 0  5.251365717959207 -0.2709640316950099 0  2.109149850193109 -2.635775684898325 0  5.361574452797432 -0.833829394591707 0  5.353049490065232 -0.8064459025513981 0  5.264908691809045 -1.302022905050954 0  5.297690757452064 -1.265288256967851 0  5.250765343829565 -1.254900531017973 0  5.281668239400267 -1.220399750215223 0  3.978744696139273 -0.4096074706992443 0  3.991044671022411 -0.4578714447773766 0  5.800956940588765 -0.4316103288843451 0  5.78784502864753 -0.4003458279329757 0  7.904703408697131 -0.2385187520104992 0  5.158552779667155 -0.6986434154050656 0  5.175073429845075 -0.6808950723067427 0  5.151839704608014 -0.6756852742585354 0  5.198243187994889 -0.6859374515277799 0  5.65547177144215 -0.1271754874652931 0  5.693462984295088 -0.1359401445808137 0  4.47878328433276 -2.199351502595149 0  5.527204080201549 -0.5484360817797217 0  5.53365163297408 -0.5387065656251209 0  5.545181003526054 -0.5396616650184404 0  5.539905317964111 -0.5289474910902372 0  1.183146564135558 -2.523081968723768 0  4.614488220307058 -0.6337757045869652 0  2.783673759881737 -1.669224146174849 0  4.172127952264287 -2.276658083291519 0  5.528418770431328 -0.5285568746798341 0  5.534515902982474 -0.5183950344173097 0  4.673699005449888 -0.345070893758425 0  1.95447736051422 -0.3123982394893645 0  2.058828113584658 -0.3484297228553241 0  3.914897341966254 -0.1515958142684914 0  5.617724508687377 -0.123042503914079 0  6.405051141638962 -1.021624615137883 0  4.492274300363002 -0.3652065448748079 0  7.355898104498933 -0.2520002785928459 0  7.445763616931634 -0.2653238465226426 0  6.496146691114992 -0.4346615186290688 0  6.846270799102939 -1.36143850059831 0  4.533202735525757 -0.3614589977549265 0  6.918637762877792 -0.7968554573223197 0  5.376034464330847 -0.33761362898221 0  5.367379305611474 -0.3506401043069889 0  5.373979086396877 -0.3643167746625235 0  5.358743960429569 -0.3632887960866706 0  5.35219187904449 -0.3496828771919871 0  5.343735611328174 -0.3621969667453286 0  6.134568963194951 -1.616154156608496 0  4.57159327096752 -1.823034770744597 0  5.587754760735751 -0.3257480216466615 0  5.542535121996302 -0.417182050843826 0  6.055402973960109 -0.9589276088801955 0  6.070591134937862 -1.011342217110018 0  4.67431835523123 -0.3600395581272702 0  3.114472729957037 -0.2243410341272367 0  3.057195622940467 -0.2749337952155955 0  3.034701373159886 -0.1948011824178719 0  2.980381594685737 -0.2508912967127725 0  3.000073645486349 -0.3265548193544912 0  2.923006347362136 -0.3016798252919739 0  5.191073881004868 -0.6636210038028854 0  5.212679764474216 -0.6678647425441506 0  3.178014928765273 -1.103911782498598 0  9.308873748523865 -1.843171850677859 0  8.168225269182697 -0.3534674945053555 0  7.093852168408675 -0.591880212883407 0  4.470020237292129 -0.3249675526764295 0  5.624888775234327 -0.4195273387792449 0  4.207965627761981 -0.1961132666812038 0  4.201188781631031 -0.1557054042645409 0  3.671506951881357 -0.9305161350396962 0  4.2319193332735 -1.378877335801857 0  4.243717378371067 -1.439602812499263 0  4.288773969980488 -1.392155412691235 0  4.305339461533421 -1.445356706170039 0  4.343857467228119 -1.405092207717864 0  7.17872083510491 -0.251539063518371 0  5.173708948252932 -0.8296136177413241 0  5.530138922045309 -0.4193680447632042 0  5.595497586977459 -0.1527607217820033 0  5.58038269604968 -0.1198011523983817 0  6.794267221837107 -1.784141352663365 0  3.779481625349631 -2.68346164276677 0  3.681058176226341 -2.656587407292975 0  3.877899241520343 -2.709424522294487 0  3.291326470483527 -0.4051374521463613 0  4.758688000497503 -0.2935266962153582 0  3.524847570430237 -2.451860900052443 0  2.908190334263615 -0.9443300640093828 0  4.484148890367191 -0.3999693757554863 0  4.305646843736115 -1.827075718199201 0  5.442804918757233 -0.2629176203379853 0  4.639429933484661 -0.3604963290781744 0  4.625909610614226 -0.3687928297966829 0  3.449374471254752 -1.924567913115768 0  2.266120013153403 -0.4178760289292165 0  5.528773022321581 -0.580817610189311 0  5.533090803639035 -0.5920635720932491 0  5.545912725206374 -0.5947183848922024 0  5.537980099092106 -0.6047685464777768 0  5.508476354888828 -0.6066198684304922 0  3.0350894176151 -0.8297163618055846 0  2.356384205979868 -1.502409054006673 0  6.20786508502521 -0.3188450171041004 0  6.186645009500491 -0.270585279419665 0  6.13439594004407 -0.2656222510614374 0  6.164329278692861 -0.2217254371855233 0  6.111420930049404 -0.2165787165227968 0  6.141521034486806 -0.1753351003305732 0  6.08764069497539 -0.1697641271426229 0  6.052982826275609 -0.2186840888575989 0  6.034413595964665 -0.1687926198731375 0  6.005541055337591 -0.2069370909363115 0  5.984275029347176 -0.1635688514214546 0  4.164553579224453 -0.8099426932276823 0  4.121725927322961 -0.7986700193921048 0  4.152908529280853 -0.7671057348205861 0  4.110284553471446 -0.7560379964662065 0  5.673016238138695 -0.6368680744120766 0  5.699348235201025 -0.6391420528344897 0  5.688320101266877 -0.6149729646645645 0  5.426856238618313 -0.7937730744602751 0  6.255576456801548 -1.572377318046972 0  7.263335222222942 -1.769769095951384 0  4.742892183655385 -0.1474471218635542 0  4.743796604021574 -0.1242167248839294 0  4.173834848761945 -1.031278897201942 0  5.337144326675563 -0.3488832680036542 0  5.328916579116626 -0.3614637850349078 0  5.322479365703579 -0.348360678316741 0  1.564716176909403 -1.65834231732131 0  3.954808398031337 -1.868469577957732 0  3.100351016609964 -2.637028964012432 0  3.020313572130622 -2.716123032002898 0  3.680505270409518 -1.915702446705903 0  3.742082231615923 -1.854449127914437 0  3.248657906034546 -0.1883440935319398 0  5.827484446098859 -0.4965636755135436 0  4.293883744055872 -0.1206476010539954 0  5.649110222388201 -0.4505086113877155 0  5.623600948935071 -0.3838551101770751 0  3.683574203192475 -1.704426413043804 0  5.299073642379708 -0.8453487118956591 0  4.054765017924073 -1.131015044439182 0  1.850299544917902 -0.2780217205964646 0  1.768107392459539 -0.3487549865580637 0  3.202710211729002 -1.922980035132165 0  3.504275690505071 -1.008051952920039 0  5.329943858848167 -1.002331043022596 0  5.344764780177385 -1.036477784427771 0  7.699941705007237 -1.385990830663709 0  5.36957394492594 -0.6601587759478191 0  5.391020607781387 -0.6638162973180053 0  5.347963108794009 -0.6562015990336295 0  5.3330443631503 -0.6730402016868087 0  3.341384909793391 -1.438905074571214 0  4.637917752625704 -2.234738335677453 0  3.097598139514746 -0.774645939417831 0  5.314301125125359 -0.3606771370288224 0  4.740040434061385 -0.3661247551940643 0  4.752895237572773 -0.3589759920272702 0  4.312697806477376 -0.9819729601526386 0  2.960163973771106 -1.431631191269669 0  2.295595414760316 -0.9487531723126914 0  2.401873349738458 -0.9761446697102776 0  6.058772589871948 -0.5192730165099045 0  5.136767984744025 -0.8744780394219005 0  5.127404179241959 -0.8486357400381281 0  6.091130575351736 -2.034161945786202 0  3.490461627865251 -0.4547853579404761 0  5.562356598005597 -0.1506570254368058 0  5.547478300137341 -0.1197351575603323 0  2.229248301279062 -2.662918674274311 0  2.31358764638821 -2.569804717621301 0  2.352661281806235 -2.688961114087237 0  2.436466990094564 -2.597405540324717 0  6.303685217872697 -1.231578259680361 0  6.396564458039513 -0.2072507180450724 0  4.470473176553437 -0.1926177059648937 0  3.890254086759883 -1.310486134759244 0  7.150944064535961 -0.527183495127319 0  2.905791945495492 -0.2255946291973094 0  2.846903859165677 -0.2797906284304856 0  2.863359053963257 -0.3584988323016118 0  6.5549189984783 -1.834411830330615 0  6.586966029279351 -1.915687927313038 0  5.435883133839071 -0.3690663380507904 0  4.720095887866758 -0.7682727697313195 0  4.745388665505477 -0.7717207883833089 0  6.720493836787108 -0.7190976089799981 0  5.238414319476825 -0.8083794554311697 0  5.42083865162939 -0.2960407266877121 0  2.457082817345688 -0.7569038630822023 0  7.049208741558735 -1.115733896323115 0  5.831788269603885 -2.53913085560615 0  5.767527250038767 -2.610505690653218 0  5.862036863624467 -2.631992796045499 0  5.793587758725241 -2.710449862150591 0  5.700466481923792 -2.684674270558014 0  5.893780823524676 -2.72569686196269 0  5.96071939345295 -2.652531217983276 0  3.523564920848272 -1.079086740524386 0  3.947247418069159 -2.637685434697264 0  7.268533922557449 -2.043118600595568 0  3.313527111892216 -1.07887127303032 0  3.37438739108534 -1.029548588757044 0  5.598780187909563 -0.9533657540944638 0  5.892317902308942 -1.224014677947552 0  5.844266300194836 -1.262015596439473 0  5.928025944442203 -1.182145704959396 0  5.981964244904342 -1.191126706986597 0  5.963066876731238 -1.140485096792265 0  6.016325367500277 -1.149239506472547 0  5.997557143651661 -1.099226656105871 0  6.050281411894792 -1.10755615503699 0  5.767373147065592 -1.360038733215285 0  6.06835187635547 -1.598596323325556 0  5.652891941635715 -0.7627905212615124 0  7.427491232041852 -0.4177287751879262 0  6.038434998685559 -0.9101688446873193 0  5.500225179038383 -1.145426286099066 0  5.517387904198737 -1.187105187433261 0  5.550362571570065 -1.151101541469194 0  5.840441282751366 -0.528944830559769 0  4.398951632426108 -0.3812404777093077 0  4.39432495098629 -0.3613451081749997 0  3.699587455738854 -1.512418301089494 0  2.664370224219406 -2.021218521659862 0  4.604854414991493 -0.1915785899514408 0  5.363864131485636 -1.464066107664165 0  3.534147010706481 -2.269899250926388 0  4.208918858649675 -0.6093141652386709 0  5.434400106224776 -2.611621423493852 0  5.367053888622098 -2.687629353865001 0  5.462233628469523 -2.713733265544155 0  5.269281973511689 -2.656097492159472 0  4.69488662714063 -0.764101597339414 0  1.68889568291261 -0.9987387656729315 0  4.149789889601083 -1.469205210929609 0  4.362633894019485 -0.1127823847801508 0  5.19120622675625 -2.361919333606131 0  7.082331597410196 -1.199741685253903 0  5.036630095099092 -1.47876894380367 0  4.998876582024425 -1.517515441356384 0  4.947185309880743 -1.505955437038746 0  5.044305861361596 -1.531155731847939 0  5.177928459435651 -1.834592328891257 0  7.286436097574303 -0.4778250737270953 0  9.156476976612442 -2.565429687084319 0  8.530415143566731 -2.617565736146929 0  8.379284802377551 -2.570763255451727 0  4.415109481722737 -1.074929877620817 0  4.753270230374264 -0.3442294596113011 0  4.96265420098533 -1.559279940754328 0  5.577107662958111 -0.3083810026917044 0  5.556079124956937 -0.3094780053442436 0  6.518122365402538 -0.5812408105642269 0  5.320990229052626 -1.067171111823376 0  5.619287410722507 -0.4966537890960725 0  5.637085159546579 -0.4983012741211974 0  5.247303464201177 -1.851900387840759 0  4.360982773581672 -1.45908963800465 0  4.398683234743348 -1.418014069132335 0  4.519163280012595 -0.3564233939447536 0  4.521249389188891 -0.3708901106575713 0  5.703701307363142 -1.504795435164291 0  5.721600775076251 -1.56351990456913 0  5.781711962027046 -1.577608388952689 0  5.874241595970395 -0.5337795624312476 0  1.291637316422665 -0.5667482800413075 0  1.26251691473606 -0.4132935668122601 0  5.447696443310328 -0.3322640641104957 0  4.729262338163061 -0.2764700377829206 0  4.745086478615956 -0.2707215624766404 0  3.539265543661037 -0.1663662033567086 0  4.429223398086601 -0.6991409986512287 0  5.899776749031414 -1.6062142651043 0  6.396414783360576 -0.4695496678055338 0  4.782822720652405 -0.7381773999484544 0  4.788466198647286 -0.7617837984781044 0  4.813546296247838 -0.7698366902285787 0  7.577081875128954 -1.826247285640189 0  5.260039005460169 -0.3711136073496017 0  4.691790698521674 -2.176559023014545 0  6.970000676339448 -0.7297934470858063 0  7.054885016170223 -0.7399003165429288 0  5.831481234264865 -2.807505381008458 0  6.309649650237343 -2.00484651705007 0  5.692416758414201 -0.2236284493754084 0  3.942887535136486 -0.4440950404614266 0  3.955324390952682 -0.4937299004183342 0  3.905511069975864 -0.4805337783954593 0  3.918281201495119 -0.531005959128743 0  5.370582115141672 -0.7860385597856234 0  7.227374185939933 -1.405196240350175 0  7.408160478192644 -0.1861118860290745 0  8.801380104208386 -1.587240290142881 0  3.886698722397924 -1.492872392179347 0  3.933598517322827 -1.441775307199259 0  2.032544719816479 -0.2444624770322252 0  2.133981143393148 -0.2752624564120412 0  5.525090284676168 -0.4495078402880233 0  5.529911968154537 -0.4591357470357726 0  8.431301928009884 -1.58602994397626 0  3.35620653259943 -2.224173756178366 0  4.00016576472648 -0.3290715306841061 0  5.311267126867263 -0.2072785748253554 0  5.323309383186324 -0.1890013545075786 0  8.743120375578313 -2.381041770976389 0  8.79685010893334 -2.537696794582761 0  4.31316281660654 -0.2056259358984205 0  6.055065178113447 -0.3144217833092529 0  5.242697146149756 -0.2556562376092235 0  5.742414136309631 -0.9520372432841085 0  5.71859895260838 -0.9843515870925268 0  5.765905827729444 -0.9217687810044615 0  4.038976145430873 -0.4699254800482149 0  2.187400459744247 -0.9140691468268001 0  5.951730009026559 -0.467355705462942 0  5.420987553362258 -0.2599657975538396 0  5.641528480127012 -0.09059508452496723 0  4.484362725834023 -0.3873033330087412 0  8.125868294613788 -0.2573071991011915 0  8.235179014790667 -0.2665097334722326 0  8.107673957113462 -1.877388183773429 0  4.503094804843579 -2.279462888454528 0  5.714368948566934 -0.6175777920061994 0  4.754979312239068 -0.6869301831662916 0  4.746256383841351 -0.6657866778166297 0  4.723514260833626 -0.6628437384076022 0  4.769391558777055 -0.6686835326485545 0  4.737391964275161 -0.646220832603702 0  4.714092820665037 -0.3660058219345983 0  0.8153571189553022 -0.3872961877386238 0  0.6776347427527449 -0.4918009168353046 0  4.02986874921824 -1.885613957834265 0  4.080826586428703 -1.831659167506748 0  4.65632834839346 -0.1740498152958125 0  4.334454503285298 -0.9206444799543204 0  4.871671979149837 -1.766046720191432 0  5.405968568004136 -0.3664691774675393 0  4.723974931937834 -0.1112657985374657 0  4.745460297716925 -0.100186483987607 0  4.722136667173427 -0.0873740551887332 0  0.915954418887531 -1.122572062354053 0  0.713821437424393 -1.064931431826186 0  0.688494301825517 -0.8591902464227079 0  3.999116464288734 -0.1387340275163886 0  5.545995330442406 -0.5188631073963043 0  5.540532551149713 -0.5086465388659991 0  5.528920846330316 -0.5077924033758479 0  5.53485010371884 -0.498038003588859 0  5.546395109116489 -0.4981944756082999 0  5.54073293075345 -0.4879094942971924 0  5.529075881104383 -0.4879937003231756 0  9.159195870249956 -0.6230040276011495 0  9.262361492600421 -0.4757490527976116 0  9.331438408457092 -0.6447849321334049 0  9.450617096448692 -0.4855409445074654 0  2.475300623845064 -2.710776540464614 0  2.557637978669151 -2.623920871245516 0  2.52023285706817 -2.508496566702309 0  2.63929500614023 -2.535825493177078 0  2.675497325400335 -2.649268840156252 0  5.619453244488358 -2.095978159313117 0  4.683852216545105 -0.2021072439298781 0  2.597230048914843 -2.210296467003121 0  2.816618169830055 -0.1995973513728124 0  5.325697319062025 -0.6524118914924346 0  5.311253503680217 -0.6686904214333304 0  5.24756230277807 -0.1712235058769673 0  5.257244875484905 -0.1523287733832053 0  5.278998560342459 -0.1489604129278117 0  5.266923117677367 -0.1312740856665309 0  5.244426922371203 -0.1353376091560674 0  5.250631572366732 -0.1122953754491256 0  5.278189110341128 -0.110364881654857 0  5.350812050750487 -1.557090222992832 0  5.617314881229735 -0.5521096697979709 0  5.62802355600471 -0.5372939028427344 0  5.636296431471514 -0.5544083146452973 0  5.647726061631937 -0.538347504130078 0  5.656478312666952 -0.5570124260159321 0  2.111142641949299 -0.1678361245557169 0  5.26469592392034 -0.08955347128318869 0  4.321957750270131 -1.492545779906662 0  4.404524589948837 -0.4554741069297079 0  6.546100569643972 -0.2725723641734819 0  6.522985149859633 -0.2129796367124892 0  8.525479691268758 -1.455252026002209 0  4.651524103067878 -0.3040541005042281 0  2.615970618803367 -2.322919335272716 0  2.734576821260391 -2.360709444220587 0  4.04702816007177 -1.506464663286425 0  4.394589025142824 -0.653692459217082 0  6.30191919486992 -1.517114795839856 0  6.278975970440876 -1.448990449452714 0  5.645163007735804 -1.063658875073278 0  5.618960193757812 -1.095934271743688 0  2.68750607241366 -1.039596535122467 0  2.662906541552931 -0.9510070760583155 0  4.35362563533209 -1.099755240639383 0  4.795454619530821 -0.7862645739777586 0  4.820117983567784 -0.7954123586438018 0  8.24517052603616 -1.902188021435069 0  7.61735607376603 -1.922961522693476 0  7.685808261679572 -1.842704611376565 0  7.553991071682129 -2.000291220766862 0  6.040900391369687 -0.5894160851881296 0  2.897904753285798 -1.496855625133176 0  4.315079476864397 -0.8519452655869136 0  5.714153656853014 -0.1956804066146627 0  5.727024315304057 -0.2339719723321902 0  5.53448288040546 -0.478119800622953 0  3.977194460486742 -2.732260767116375 0  4.046041945774234 -2.662120808374271 0  4.076275692726349 -2.756925461335734 0  4.146503410397183 -2.688799937593088 0  4.175016405936176 -2.785509996166232 0  4.246075067224895 -2.71485199069124 0  3.367608393100852 -0.1739079453462971 0  3.425267295232267 -0.125811858056629 0  3.280979312456949 -1.499575567536161 0  3.198426335250701 -1.477387841778277 0  4.055948126791266 -0.8619938159386227 0  4.0201276672145 -0.8957632151513907 0  5.958864084012457 -1.62512820394454 0  4.68766056937149 -0.3666308840436336 0  4.494387473815849 -0.3849656170620008 0  2.513376819244963 -1.777842217410344 0  2.488501195879239 -1.66681024043138 0  2.539770531970043 -1.882613695589882 0  6.889438253243003 -0.2884203198986506 0  6.930177001777972 -0.2324839101832308 0  4.985718571733073 -2.239837679893252 0  4.930493935621252 -2.300847927255488 0  4.903820387398558 -2.222353354188981 0  3.881727327618929 -1.848007073368092 0  3.869096460209843 -0.5208858505365924 0  1.779466627666761 -2.037407569518531 0  1.736067749350383 -1.887274500253416 0  6.65585255797535 -0.3940185083136623 0  9.342924154946751 -2.58824597256776 0  5.95640364532303 -0.2004276236910614 0  5.936238827951628 -0.1615597018525514 0  5.875676034094403 -1.169988683389824 0  4.389550545047613 -0.5732722122442795 0  4.376139437998365 -0.5867323512561343 0  4.370048046606076 -0.5683290058264123 0  4.380909303120024 -0.6051305408728406 0  4.355730930723335 -0.581611495952266 0  0.7580310291504153 -1.262327517017614 0  6.373618065137522 -0.1547669945176762 0  6.432187335360742 -0.1559883905205897 0  5.300972984287185 -2.75367984996657 0  5.191519643979674 -2.720643111735618 0  5.563053093665888 -2.155010681772244 0  2.803456271477616 -0.8318207581397695 0  2.715888687633816 -0.8023789122800368 0  2.57604463285911 -1.59758657160294 0  6.889041974953135 -0.7204768503558268 0  9.010056606901358 -0.3259998125783035 0  8.838073294716999 -0.3114567867732643 0  5.515889712666757 -0.4093320164569139 0  5.303530263999768 -0.6486532553621014 0  5.28907221421939 -0.6645888567135371 0  5.295654717532027 -0.6857535213472357 0  5.274329832006393 -0.6814952135571339 0  5.266945964742506 -0.6600152112866805 0  5.2520358751139 -0.6769023057127769 0  5.244876325853213 -0.6553468559636894 0  4.57208123808555 -0.6434121264791821 0  4.092609600120531 -0.1944554358280444 0  4.08153549794365 -0.1485447842428766 0  5.580717492031962 -1.089121220496707 0  3.504640214879607 -0.519149320834825 0  5.522750274354059 -0.4790299524795798 0  5.238575959747028 -0.1894972487557933 0  5.259851753664108 -0.6386768830545754 0  4.484636166921458 -0.4091248757428461 0  4.475276792507001 -0.4050962723454261 0  4.476016915438024 -0.4160128755189458 0  6.229730457263404 -0.3633445641918702 0  5.51573142883991 -0.3900210679748672 0  5.507353817728901 -0.385887283334343 0  6.01712229909454 -0.1199035560182029 0  6.070428092954687 -1.157712315941059 0  7.117188488323205 -0.892407433754973 0  7.152751266589561 -0.9719588587857926 0  3.59455085535703 -0.1298057729605637 0  1.410169394701748 -0.4634479569559176 0  1.38285781091858 -0.3250082064396873 0  1.506001706945766 -0.3633414867466469 0  6.528256187889427 -1.988272654609062 0  5.454574868060248 -0.7986289556731465 0  3.969441792828689 -0.5445101964349794 0  4.443416871523799 -0.3470561427125805 0  6.146585222646813 -0.626713319951963 0  3.361384380216581 -0.4210807835231396 0  5.419892265277216 -1.329177600551248 0  5.610946415686358 -0.3655347831919864 0  5.550864393041845 -0.6075611592183033 0  5.542004756161743 -0.6191507986358941 0  5.555861979249266 -0.6217276182842748 0  5.546154580013251 -0.6346440705522585 0  5.531451956510514 -0.6311118683142135 0  5.535018636602191 -0.6474623952843476 0  5.517932598508344 -0.6438371405101788 0  5.523200224158084 -0.6611195466885812 0  5.505273725883713 -0.6570451382656841 0  5.561329209045539 -0.6377123583226342 0  5.540783990438749 -0.6649199225737368 0  5.528752357110641 -0.6796788787932802 0  5.501372264822819 -0.6374619128151318 0  5.487490143652055 -0.6525109071654689 0  7.277733334124832 -1.06278638480617 0  5.678221110061733 -0.9728999619527985 0  5.692555788578908 -1.009330134962646 0  5.598144668172874 -0.3083750405024988 0  1.253105924112281 -0.2797547566648395 0  4.41712020377291 -0.8789098594453927 0  4.252371995876389 -1.041990659191129 0  4.266711869506647 -1.081069393673214 0  4.239396918887294 -1.001685987054928 0  3.704273322218012 -2.753668408216063 0  3.605827600686856 -2.729444814735448 0  6.701003644350849 -1.769999439252853 0  5.239392803465749 -0.3574080038135896 0  5.231481068801491 -0.3441237014711644 0  5.238610659317969 -0.3318072199794289 0  7.700566283626005 -0.2238963807337138 0  3.450653699571711 -0.8080437122082834 0  3.399286464916273 -0.8592840344721203 0  5.993644042165652 -2.745109690758487 0  6.061340009926919 -2.671963504533602 0  6.093419507231131 -2.769585531405756 0  6.162298045373845 -2.692798061408602 0  5.701602354714304 -0.594316646105517 0  5.675740451088334 -0.5949601089942458 0  6.021430844107568 -0.9987416561361355 0  5.973266241219338 -0.2412289424941791 0  4.411357265987181 -0.3490246303338789 0  4.394122234706189 -0.33759974768486 0  5.205145258062475 -0.648292966504129 0  3.71898585809515 -1.582301522160938 0  3.645085743147371 -1.561962702069153 0  5.383964783051072 -0.6451149304225539 0  5.4034851399374 -0.6485308070200793 0  4.449788172937968 -0.8881767612555143 0  4.462047742991578 -0.9183630580295279 0  3.789536716249618 -1.598816098392443 0  5.643984574154477 -0.5742981423430877 0  5.238560290478036 -1.211801635929594 0  5.206135654506134 -1.244692972833296 0  5.26973948312698 -1.17833178107645 0  5.311160670736496 -1.187744741962229 0  5.29931377461345 -1.143256156584295 0  4.548617297897969 -0.3674739802666971 0  4.630105141057592 -0.1302404216856585 0  4.628414220711795 -0.1021184481073925 0  5.559884499113657 -0.596448303705857 0  9.215055930171227 -1.635246395846627 0  6.827992492913086 -0.1512766632753613 0  5.740557114739986 -1.620834605951124 0  2.407663993510521 -2.797948426148237 0  4.621539221157152 -0.6497523729915817 0  4.764362951997049 -0.1373307499668035 0  4.653802822724209 -0.3230104172102353 0  5.66811404503451 -0.53926439518847 0  5.660208873982809 -0.5198787638809899 0  5.679801855948512 -0.5192683288716465 0  6.126990642701799 -2.596258938316725 0  6.230043339383386 -2.615784769203693 0  6.26323865400478 -2.712978888290686 0  6.331240521063767 -2.635414561415054 0  6.2983085031811 -2.538320273298572 0  6.397548312211651 -2.563730263155042 0  6.432636679606352 -2.656309634204704 0  6.499262951800952 -2.583568901878067 0  6.535303203827365 -2.676232880237389 0  6.604121786921036 -2.595998999899983 0  6.639694582816769 -2.695347258826819 0  6.709043387175651 -2.613441504058247 0  6.557834151311615 -2.497234462166731 0  6.746001639857369 -2.713052117852348 0  6.815766333687638 -2.632508944938575 0  6.850613492919986 -2.730144878619607 0  6.92445524637861 -2.651602072136866 0  6.958327695718587 -2.752072395738849 0  7.038220428645447 -2.674018120647655 0  6.468082165358878 -2.749008860960925 0  5.312993974089931 -0.1674148418154968 0  5.33607321988792 -0.1675884914677936 0  4.485425348798914 -0.3155762451113577 0  2.801520291923516 -1.150407213614473 0  7.497391715831344 -0.1900598197047478 0  6.758897495188053 -1.699433519864441 0  5.306352297910371 -0.796886767124406 0  3.556704749963025 -2.553330640795837 0  3.486039541967363 -2.62735981497426 0  4.128765191564113 -0.9630072421307658 0  4.096605565063801 -1.001226656923579 0  5.689863154080965 -0.7350687438018575 0  5.720489292386205 -0.7379333158777064 0  5.735190512752233 -0.7135471887175737 0  5.522417129782605 -0.3237044874223336 0  5.688375734832872 -1.446781527474307 0  7.719234381956678 -0.4847901612962213 0  5.21640202339052 -1.630044830380236 0  5.158910811669211 -1.615693075141628 0  5.144425476253574 -1.562477083248518 0  3.633167983342843 -2.824186160940604 0  5.369596846027466 -1.243539843087706 0  4.484046504823533 -0.8949076270318539 0  3.567737041589999 -1.814531146162758 0  0.9375430883168177 -0.2991665180365555 0  5.784471334287093 -0.9567168240297714 0  6.944087498311429 -1.258986053282043 0  6.852408003715324 -1.232450637618952 0  5.482796011358374 -0.6367775540286789 0  5.469178004747245 -0.6488709984624402 0  5.474409269633453 -0.666812900149411 0  5.455648724598515 -0.6621375825616863 0  5.460989193606794 -0.6811531841090491 0  3.17967854301892 -0.8003533136041632 0  6.060570802890798 -0.6271779439891303 0  4.374395829557199 -0.3537781653767698 0  5.546275739762347 -0.6845837891474913 0  4.049130481918024 -0.9901726549768033 0  4.062414641608111 -1.040121832251614 0  1.037247512754245 -2.651477595891508 0  4.661441551252693 -0.3551379694546257 0  4.662109121381227 -0.3684138705486999 0  5.060606050055521 -1.262051708945568 0  5.103175758693684 -1.269593128595258 0  5.015995951699854 -1.251827266417753 0  5.64231167249105 -1.489764748883269 0  6.759513865150074 -0.1405527592452911 0  7.893391541775727 -1.917433360551847 0  1.742242573188747 -0.2472032656945768 0  3.129087064633885 -2.745962352072798 0  3.050052418608157 -2.817028476490071 0  5.520375431019769 -0.4398645255913951 0  2.652692456114368 -0.199320083968777 0  2.566451833888518 -0.1583945486559197 0  6.193967202250893 -0.1759465379385716 0  5.467097171963608 -0.3709487651729071 0  5.481460660375939 -0.3726857327710063 0  4.417482249829815 -1.474835503432736 0  4.451542915836379 -1.428590886177432 0  4.437122096392027 -1.374819773634723 0  3.900214934727463 -1.918773484638485 0  2.784784366983039 -0.3324686248433995 0  6.347053382863258 -1.45881571322924 0  6.325368197518267 -1.391445345493416 0  6.395969892588727 -1.401295159769636 0  6.367921547719325 -1.32332842744928 0  5.524776388054828 -0.403941686489184 0  4.120980890570816 -0.1191518229298234 0  0.5323224902849004 -1.208303445131433 0  5.753752626074865 -0.1211690647283779 0  5.779254002719179 -0.08530948730890997 0  5.517692664564296 -0.1762821203266807 0  5.505703236753732 -0.1487145939713836 0  5.477120553913031 -0.1460822784784903 0  5.494456837725228 -0.1173765002106575 0  1.55388146963295 -2.672244240460814 0  1.695467346332257 -2.699353545277382 0  1.413203394191114 -2.649664826704397 0  5.163341847343323 -0.7887895558834351 0  5.202545742176758 -1.007054483459486 0  5.450432685151613 -0.6441741848586167 0  5.437319312869769 -0.6569567510685308 0  5.43193717374187 -0.6382177325227597 0  5.347462640672751 -0.1899986354519112 0  9.50062979988277 -2.421260213666722 0  5.428554402488427 -0.3123341303208438 0  6.561721786099197 -0.4470962862278607 0  5.726810047745808 -0.6404754898853433 0  5.552985110703293 -0.4877320765368556 0  3.783977229398737 -2.332848471060513 0  4.630734167753409 -0.6351720687815642 0  5.521302967512353 -0.558400365380413 0  5.516308579925565 -0.5478847376662463 0  5.372078147600128 -1.613007485772988 0  5.33231924601611 -1.656610104267658 0  5.388816961308287 -1.672278738289692 0  6.163215771590069 -0.1350207014617304 0  6.215087626316031 -0.1320236694638086 0  1.691594750583622 -0.529256765615927 0  5.352305407779545 -1.715657492795777 0  5.808788118454704 -0.9294514245211072 0  5.320473285252658 -0.3720598614120183 0  2.001392105920384 -0.9594515605425873 0  1.912426924412209 -1.053306273854567 0  4.50229210775021 -0.3376252977785816 0  5.346514644936272 -0.7809801709350144 0  4.366772484946743 -0.7059243625779928 0  4.374633927935317 -0.7339330006388025 0  2.211126855762736 -0.2085844752722656 0  3.418197542094247 -0.9277410026684615 0  3.346315828091965 -0.9103926338757327 0  3.32868118298162 -0.8404738020756426 0  6.209181371767295 -1.70210367831121 0  2.988613380253349 -1.51427947812762 0  5.469342548649167 -0.8234116798828151 0  4.271613918024376 -0.1901346135670998 0  4.614678412437966 -1.761884905766201 0  8.963978679989779 -1.425905158464867 0  4.142992622163272 -0.725435325423181 0  4.182526746948781 -0.7357118153793487 0  4.173804390717167 -0.6965004689679291 0  4.209571212471338 -0.7074578507950995 0  4.198911952127364 -0.670655969619958 0  4.219754685836675 -0.7419811314608656 0  4.163288360485876 -0.6583682391536367 0  4.763106815017617 -0.7083282537149628 0  5.653735932264301 -1.106909123911062 0  3.890651871752382 -0.5738234275688898 0  5.675522602188161 -1.601150744635411 0  4.328404524825526 -1.350366440488052 0  3.015494397714034 -0.7468650702945809 0  0.6636375148651332 -0.2863190858258557 0  0.4903832162534458 -0.3904082780178391 0  5.61115352839755 -0.4320204772026444 0  3.911919323111151 -2.813565713663882 0  6.324334039060064 -1.584767715663977 0  4.36291986129235 -0.2382655391523889 0  4.078288206250853 -0.7836720699752626 0  5.274898900200359 -0.3733504108837125 0  5.805112274330771 -0.5250096847661643 0  6.377782647000418 -2.460144970771264 0  3.311767729117289 -0.4711038519237132 0  6.674358878060189 -2.797666868505981 0  5.518487530336626 -0.4876071340703763 0  4.593508567192472 -0.6609140261852072 0  6.250268793499743 -2.436383894684971 0  6.589483131005974 -0.2199334084018973 0  6.563009352222806 -0.1575804163510641 0  6.63602394956546 -0.163285204459741 0  6.589743920180914 -0.1012997009449168 0  4.743674089872344 -0.0704435350585344 0  5.51632350568727 -0.6011328226424388 0  5.259148094399049 -0.6987834649800913 0  5.343946882791372 -0.3356200459872238 0  5.670965858949833 -0.5017098067965376 0  3.146730716121787 -0.3780290588562685 0  6.852593808563954 -1.716967257760896 0  9.375595230747212 -0.3377671890770113 0  6.6185161169007 -2.002452983964388 0  4.49566761550374 -0.925095468922142 0  4.51604399230894 -0.9047723060687742 0  2.593283780539399 -1.013885272177629 0  2.566964232876027 -0.9215270208173163 0  4.76553978753105 -0.353836221341334 0  4.764634007336428 -0.367968460744355 0  4.76638560964076 -0.3363987893679423 0  1.470130360949256 -0.2392305232790708 0  5.678266400279456 -0.5554395320376732 0  5.459875425163238 -1.257126520371366 0  4.729946220619795 -0.7918468433985271 0  4.755940689337904 -0.7960123251274014 0  1.781986210724281 -2.601071098081453 0  1.818403926207522 -2.742832326888032 0  5.632468564827495 -0.3657477925078689 0  1.869157982278927 -1.907137091790472 0  6.775689908670775 -2.527958311471975 0  9.555644347407725 -0.3003090601118796 0  9.64812614550101 -0.4893513688691495 0  5.147174195195936 -0.8109858178284288 0  5.118600304119362 -0.8022685654471702 0  5.23701826801971 -0.08723368287659272 0  5.307292311766584 -0.370778427081131 0  6.945514174097346 -0.6520296141754869 0  1.824295557780392 -2.182274370074857 0  5.517787991360282 -0.6116010419574305 0  3.851690541084366 -0.4647598205697281 0  5.50602086177222 -0.6196272508446511 0  3.086111397629636 -0.7000955674906908 0  5.291056497500053 -0.0884819447440881 0  7.000106315263175 -2.55518215212477 0  7.114141088296108 -2.587978510762986 0  7.154230713671277 -2.695499152105813 0  7.220288981236529 -2.60481893022019 0  7.263462253131383 -2.713115388142437 0  7.334892497295367 -2.627232377155279 0  7.376788269829533 -2.728619138168029 0  7.45060534529802 -2.6480018212159 0  7.493360727483374 -2.749292662339251 0  7.568637321989455 -2.667954000278986 0  7.609553729927382 -2.775706869698742 0  7.687435324344851 -2.683213696758564 0  4.49974205824935 -0.16582631414388 0  4.494755515491883 -0.1325744411237542 0  4.526657180084054 -0.1096388196898281 0  4.491753702365179 -0.1015598087808094 0  4.506405724505737 -0.1966880535320805 0  5.806998387476993 -1.998519370449037 0  5.88555426961095 -2.011321332790157 0  5.91232805227015 -2.085072195785651 0  5.728829889908065 -1.983092998646512 0  4.403874948485576 -0.7385383505412033 0  5.455261442264344 -0.1187439739444272 0  5.195848227062097 -1.204007195617092 0  5.166703303700904 -1.238228019454956 0  4.691181170603563 -0.04067145260469096 0  4.452202327407674 -0.3964336528512531 0  4.692883453518388 -1.777127003647259 0  5.771860222652434 -0.4259242357381936 0  5.782776944073856 -0.4563627129941121 0  5.753362780445112 -0.4013596777249344 0  5.773641273067662 -0.3741598838115869 0  5.742210039446358 -0.3728633922206968 0  5.76143579615597 -0.3491865839244457 0  5.586391692655744 -2.233851814836792 0  5.596194418967664 -0.3475814398426489 0  6.046382616454002 -0.6940583533841902 0  6.018284378824601 -0.7256865945671949 0  4.349598829276425 -0.5615919928298142 0  5.807384754868962 -1.314181240312216 0  5.541906604549531 -0.4602461900334993 0  4.533324504654491 -0.6150139954882818 0  4.541007826556171 -0.6280144109202117 0  4.527673081279597 -0.6284513632025802 0  4.534781312658294 -0.6401607954493067 0  4.547796132910271 -0.6400058798648333 0  4.520741973384662 -0.6403070584997184 0  4.542552105491222 -0.6530903249251584 0  4.515047230762725 -0.6272654012936372 0  4.506834132911672 -0.6406331825988421 0  4.491631054310804 -0.606147766897965 0  4.482147085504451 -0.6008070176475402 0  4.481908959639367 -0.6125598995522106 0  4.492898694904751 -0.6180345712295889 0  4.482154867566878 -0.6253508793486261 0  4.468094458125371 -0.6195315226830722 0  4.482771478573865 -0.5893924970790184 0  4.472342053388839 -0.5948889769810076 0  4.473019779865296 -0.5831913536356511 0  4.462336399212636 -0.5885362254089878 0  4.46298581991689 -0.5763357704870598 0  4.473419911717294 -0.5713443266105273 0  4.46390982226003 -0.5643459300141145 0  4.475990450259821 -0.5597641739029584 0  4.465030491033885 -0.5525796715134562 0  4.475439824521209 -0.5479940615128067 0  4.465984242952275 -0.5410870349446928 0  4.475874243859073 -0.5366520174432425 0  4.467146056438287 -0.5301418720158386 0  4.476409956438225 -0.525157444060344 0  4.467943388054807 -0.5186198615422173 0  4.457837664342409 -0.5241237727573966 0  4.457667069716 -0.511941156371697 0  4.469118779326998 -0.5070549888730292 0  4.458764849037284 -0.5001084621870747 0  4.470380664452382 -0.4955150327372309 0  4.461044314361259 -0.4885367085398764 0  4.450173264682722 -0.4931071319332339 0  4.471900001190058 -0.4842724304835242 0  4.454115936582799 -0.5574266816776925 0  4.479042796785083 -0.5027714167788069 0  4.452074778869568 -0.5808017729274345 0  5.213356227948958 -2.450574756620327 0  5.282273569352776 -0.8698990145072136 0  3.834537230338059 -0.6658911033610595 0  1.194174240528177 -2.726029989195578 0  6.035046764440065 -0.2714977807970516 0  5.638471923563387 -0.4327872834129636 0  5.655402194635863 -0.4308860639836092 0  5.517950141519597 -0.4584933523721599 0  2.508328452239629 -2.289075176683795 0  1.664659843558984 -0.3148472717143669 0  1.640515684932824 -0.2076314234697503 0  5.592630332398636 -0.3688379125119758 0  5.112721176090403 -0.8658173253075248 0  5.10203670443469 -0.8430277651537965 0  2.149606554972269 -2.762783170256587 0  2.016317028372743 -2.734671238986794 0  7.191874491943409 -2.496835100606844 0  7.465882637242636 -0.1171824757093214 0  5.473681292211502 -0.382101745776608 0  0.5379954099698239 -0.5797849466784279 0  5.618981190315389 -0.5225098428348722 0  5.335460697755432 -0.827840534173087 0  3.534589576005443 -2.807455302406877 0  4.718027138285642 -2.25169279927316 0  4.769848609077822 -2.190934338084467 0  5.562840984644389 -0.5316954263814058 0  4.484658385909652 -0.5520857092171848 0  2.407053539180534 -1.758107772940483 0  4.740804657756714 -0.8239024290488375 0  2.230729768461836 -0.3012194259828751 0  2.301327945056372 -0.2300855045746601 0  2.36315259326159 -0.888690069056473 0  4.361169342559416 -0.6816640487396902 0  4.069108853717204 -0.09447819966908555 0  5.58684990100841 -0.2887501416115827 0  5.565895264208974 -0.5472413922674038 0  9.723970952995455 -1.178125270530735 0  9.491986177042023 -1.354135879931664 0  9.466907983994341 -1.029099420402789 0  5.852868769037461 -0.5622783385771241 0  5.887447391626403 -0.5666926475050794 0  5.865825470107758 -0.5948701110287761 0  3.253565874924544 -1.813571063269338 0  3.342463239209966 -1.832813962327594 0  4.850405592405068 -2.280465007699784 0  5.637791026237593 -0.9629996312440676 0  1.738740352351327 -2.838789303572692 0  6.408152564964058 -0.1000420480206754 0  4.435339846475871 -0.5271203863473679 0  6.488385466952085 -0.5267598831999857 0  5.368088432639929 -1.005972038951993 0  4.333774658564342 -0.5776129968040978 0  5.316550812009995 -0.8741590718089066 0  9.735135210469036 -1.868060347425702 0  0.2710498479776842 -1.843973246372504 0  0.5291581083530676 -1.702386093890642 0  0.5092115357821365 -1.985112104717863 0  0.7620840793098971 -1.836919252037259 0  0.5237689912542223 -2.232516388576327 0  0.3838877831092118 -2.459086168926132 0  4.762352096071028 -0.1596769891447847 0  3.928103604120952 -0.3980558178348415 0  7.642035775679902 -2.56910101073507 0  7.769595641495416 -2.593659483281249 0  7.806888266572715 -2.702002305967691 0  7.889218156988019 -2.603127764483086 0  7.930476579444926 -2.718517259812584 0  8.016340716232936 -2.620252985874885 0  8.102687849588442 -2.51135518924284 0  8.148737723359172 -2.640328643153025 0  4.459891234597282 -0.4577189704301092 0  4.468696303358005 -0.4489908553042778 0  4.471772083401206 -0.4609988236113018 0  4.465954489621389 -0.4372108861302859 0  4.476854359155985 -0.4404592057646137 0  4.475185700655963 -0.4295752953247742 0  4.48441025486528 -0.4336424309780085 0  5.591638924874591 -1.129270577385272 0  3.387757582236488 -2.324386125649494 0  4.592945949953253 -0.3389068428644562 0  4.593782624812164 -0.3560418133621868 0  4.579444787333294 -0.3666576662805769 0  4.594415868116783 -0.3699622441731998 0  4.609570301572441 -0.3642680027697034 0  6.89212062617644 -2.064503036194153 0  4.503632665826713 -0.6583445860355869 0  4.48600438550626 -0.65555573097258 0  5.411056354823221 -0.6676027870890937 0  5.942512652434083 -1.091137727507042 0  5.565496870978592 -0.08424730311256523 0  5.520741681271192 -0.08909220400365858 0  1.351582717708437 -0.7386004109948121 0  6.081111661201898 -1.669358771661089 0  4.462415893063386 -0.4773332894569671 0  5.646487271952761 -0.3851847154739154 0  5.794310513637946 -0.492638823020898 0  5.443939290826986 -0.7714895649987051 0  3.1124948049288 -1.870491658352956 0  5.263091042348474 -0.8963479657879311 0  4.478946143453632 -0.4504372054459611 0  2.938564711640078 -2.795555360754956 0  4.3670646229769 -0.5158811804402619 0  4.369508074902345 -0.5357522619377755 0  4.48044891895033 -0.3742756754591043 0  4.428061708175058 -0.4932794279388846 0  4.740939187107116 -0.1710637048282306 0  4.757822661786475 -0.1828674117020024 0  4.75519635262426 -0.2035064780841467 0  5.531146708148194 -0.7010822895862587 0  4.448662058067764 -0.297070606736904 0  5.429577501222195 -0.6193614142617199 0  3.786558793342447 -0.7113137278019284 0  5.565225837089042 -1.193253476072035 0  5.536542449397476 -1.228105259694603 0  5.963240288960445 -2.022608858039136 0  5.233728117100694 -0.2706250675787609 0  5.24267838118597 -0.2856058979003517 0  5.491143468590955 -0.3611720667200067 0  5.50512429322267 -0.3626548243364718 0  5.51569625552842 -0.3508317279794324 0  5.494416867379044 -0.3731427538980132 0  4.010379866560063 -0.8460335706752466 0  3.974233117915538 -0.8810600500671678 0  2.703330555951398 -0.3711341470709695 0  4.535873614161345 -0.3775805628779487 0  4.523511404653108 -0.3847966577032997 0  5.67190903715399 -0.4481453399399693 0  5.587647220856121 -0.6510153135164098 0  4.329456044451734 -0.632592250332372 0  4.355299845731819 -0.639381895301141 0  4.346658085858701 -0.6141430309002369 0  5.264933260575151 -0.382654721804871 0  5.28833795736763 -0.3773857500013498 0  5.285468336220374 -0.3623186220183781 0  5.524073783513259 -0.5703471610505532 0  4.470167685133757 -0.6335643270908646 0  5.694149310538511 -1.664130609536622 0  3.790974563483165 -0.5471789890479766 0  5.484650291108273 -0.8012848682693158 0  5.512439836605091 -0.7947563901348048 0  5.51859106107082 -0.5896088426079751 0  7.60064676972943 -0.2146515748321964 0  7.657671510382176 -0.1373877791368801 0  5.522399455545659 -0.497398175689107 0  5.517231117467324 -0.5075282621292685 0  5.523410760763478 -0.5176464357446613 0  5.516911102292111 -0.5266615890579817 0  5.521428726550763 -0.5376923673538969 0  4.481090933517523 -0.4911592681011325 0  5.409796286864216 -1.732575728807333 0  5.36606014037046 -1.776464318079446 0  5.431204821539401 -1.79451528832801 0  5.529896259568445 -0.2727670889445175 0  6.026626223786029 -1.049524408994901 0  6.085308681202619 -1.06511756815595 0  4.487747985283805 -1.385840944897481 0  4.499591431743565 -1.436770742619549 0  4.533605338323172 -1.392258635640566 0  4.559353628717417 -1.439616089839229 0  7.410475004580288 -2.535238032756627 0  7.31328852372787 -0.1738778422335296 0  5.524967045635293 -0.4296593394546329 0  5.513857334868038 -0.431089484737353 0  5.517978474375397 -0.4205298212302473 0  5.364727515871582 -0.3763935022026423 0  5.378103495045377 -0.3775103476553159 0  3.298904390365363 -1.0049961243079 0  4.438471918987745 -0.4794464671977621 0  5.99015609169777 -2.088265187742236 0  5.940202116450864 -2.161779907597456 0  5.25287317385452 -0.8655156253809996 0  4.626290080378243 -0.2767111800555513 0  7.516082059322098 -2.87562883765176 0  4.464992956864638 -0.4240541560971658 0  5.546444890455981 -0.401683102192012 0  4.700615101053497 -0.3592716089475274 0  4.700522232903523 -0.3753003501200336 0  5.58472132492305 -0.6291304725756962 0  5.468986852412105 -0.2411531409392254 0  5.362378608088136 -0.6371943588535489 0  2.730917508285772 -0.2233524611448672 0  5.814371305076364 -0.4644500959257056 0  6.294961844452853 -1.328349084249328 0  1.103987634291786 -0.3378751592810365 0  4.477445219573195 -0.5137984602362782 0  4.485949278836717 -0.5090195140557556 0  5.389894817873011 -0.3673356529965761 0  4.461405275547246 -0.5992700984616331 0  4.218825288067936 -0.5115486922712511 0  4.206185040329275 -0.4739821409678238 0  4.167576346173624 -0.4637105075980528 0  4.197615913781631 -0.4389529409848003 0  4.232608573635185 -0.4477583665224194 0  4.22402543334891 -0.4124490533973206 0  4.185161843779536 -0.4042017013413477 0  5.433754147717093 -0.2432429452386988 0  4.71592550553918 -0.6425873771618638 0  4.701306906538305 -0.6597459227525726 0  4.694378884967269 -0.6387292433673734 0  8.751346235787878 -0.4555439877099219 0  8.671979388232106 -0.3136887742726682 0  8.530492573018538 -0.3398332536960915 0  8.576874195315533 -0.2251451933808848 0  8.456384668783995 -0.2445326793016127 0  4.254942884007002 -0.42389641481 0  4.251712368501353 -0.3875952859502063 0  4.260426562392158 -0.4578154122979281 0  4.239084925623776 -0.480465061889789 0  4.537007561370341 -0.2841480261378679 0  4.521200132039023 -0.2956171004973547 0  4.499759408491267 -0.286680958061206 0  4.980448054079546 -1.284848310343017 0  4.973280911423951 -1.240621235587002 0  5.420545256207488 -0.3672295981845601 0  5.866439525443217 -1.323935353664899 0  5.78407778405086 -1.263996079231833 0  5.184548163708458 -0.6417696236183116 0  0.7204921082582647 -1.612241755341889 0  4.357969287142987 -0.04111628544253909 0  5.2514418522388 -0.06611036178811847 0  4.454634203740917 -0.03987454554226466 0  4.432700098728201 -0.08071024576737296 0  4.070327044205995 -0.7355259682202917 0  2.793108628351706 -0.4137846727646812 0  9.430401299515855 -1.618516655814433 0  5.389310343750684 -1.286242271630925 0  4.568554283141641 -0.2699010984667054 0  5.517493734095477 -0.3792845268971938 0  5.805229983242444 -0.3018765551898341 0  5.768743741234012 -0.2975559199995133 0  5.750954577863085 -0.2669187373827928 0  5.735770687296654 -0.2940325869405254 0  5.470190947579441 -0.3159564593173465 0  4.528776469948916 -0.9305258199387436 0  4.545881264411983 -0.956866144342325 0  4.560554017318912 -0.9283009714424046 0  4.577655295400585 -0.9528503309261485 0  4.59173564211825 -0.9230979290127009 0  4.613042592228329 -0.9537332105119313 0  4.625101949335915 -0.9129881933024079 0  4.646504847764569 -0.9420994401924907 0  4.659975326100206 -0.9134839994992365 0  4.678678055911224 -0.9379486974215957 0  4.667055485870083 -0.9682449979475621 0  4.701824723513045 -0.9624854224891017 0  4.726883779857291 -0.9850315311533193 0  4.732102634265482 -0.953124091713566 0  4.754801660013999 -0.9734748552059047 0  5.475950221309787 -0.08423444704132299 0  5.455290922454065 -0.05692769005581577 0  5.742509557310358 -0.6191653783085151 0  8.151564526107164 -2.025784018893843 0  4.4982453606657 -1.804073749728113 0  5.736339686487485 -1.019151087828243 0  6.108128703063948 -0.5302545933964596 0  3.677972558477142 -0.2747085406551664 0  3.725909538757164 -0.2324822555893236 0  3.712844274694961 -0.1718619238062988 0  3.68968191022747 -0.3385731396005609 0  3.777886944588403 -0.1951443710621847 0  3.764705920112068 -0.135255564089803 0  3.813539016590447 -0.150283303249213 0  3.702826425958696 -0.1079784813631059 0  4.089464704466952 -0.04380247085903299 0  5.544749522388186 -0.291602396414381 0  8.235744890531425 -2.534335241023098 0  0.3004491807084602 -0.56360675935219 0  5.841643572309816 -0.6219234999468157 0  5.876936981024452 -0.627959794601161 0  4.640188901116712 -0.6519684036852772 0  5.220857077335362 -0.6898652834336489 0  5.661195530748333 -0.6161277262607783 0  6.799441894611604 -0.08260421958239239 0  3.946748337052556 -0.3167004278401582 0  2.160834485653014 -0.3820769539064646 0  5.913670495960088 -0.04834644445586322 0  5.885970447143576 -0.08851778462176774 0  5.937295786772224 -0.08730349115049285 0  1.704413041215778 -2.295567530679581 0  4.562820502852409 -0.358949156512443 0  4.562983226869095 -0.3755847384188071 0  5.93014097555618 -0.504994247184918 0  3.98986601525436 -0.9340005699327957 0  4.675134210631581 -0.3749614634159868 0  5.337981763262059 -0.6356052192419024 0  5.731219370530224 -0.08263892162810449 0  5.829696203681149 -0.09302249363385329 0  4.451349334858766 -0.6181253444287724 0  3.273032916113899 -0.8910729347304936 0  5.032030823232603 -2.18000983359473 0  4.453771280477944 -0.7684172724126388 0  4.445989434497666 -0.7439566673241489 0  4.470017563690636 -0.7485817347005919 0  4.46574251387259 -0.7261779776311543 0  4.486400351613913 -0.7308441427203815 0  4.506062248813028 -0.7209505928120649 0  4.506521957292031 -0.7404368325630118 0  5.398534372009737 -0.2561711265769162 0  4.481315973597017 -0.4806172515694032 0  4.473312532763261 -0.4722113552783254 0  4.484696359024513 -0.4701292450822885 0  5.124092195942731 -2.194117436049328 0  6.035468226565423 -0.7712399091897013 0  5.989456177218594 -0.7615237959826391 0  5.973063288394445 -0.719460969743983 0  5.949951404767891 -0.7523503931031023 0  5.930362729854305 -0.7113339633194221 0  5.961145931449403 -0.7930172623068591 0  5.470667899131952 -0.6142039649967134 0  3.257447662618007 -1.133760279394735 0  5.96878754362953 -1.050799404869242 0  4.907893171728908 -1.545971533187328 0  4.892875348319879 -1.492970241064554 0  4.852248862029471 -1.537332819550752 0  4.814839707385771 -1.584146384562952 0  4.79309973773089 -1.528718214118483 0  4.734265869427004 -1.519574069811106 0  4.77202180124194 -1.475088669764568 0  4.717135247879813 -1.468233476435616 0  8.283725250431466 -1.669287408545907 0  8.237121346027992 -1.54099661809082 0  5.717158179103548 -0.2674315089085124 0  5.769356989737445 -0.2334065902218583 0  2.755439733640054 -2.562084878231473 0  2.792645220822407 -2.670747697149514 0  2.713215804588917 -2.761571842852186 0  2.833338570012088 -2.469461446610572 0  5.485548289790964 -0.8491517770491404 0  8.421049212477556 -2.72155380060514 0  8.569605822341964 -2.761316895017027 0  8.296510755404304 -2.806221876918154 0  4.198865155680399 -0.7789542260300734 0  6.836475605938537 -0.7899773396221532 0  6.804114208541669 -0.7073682576065859 0  6.029486214056953 -1.298675458915002 0  5.640563148624222 -0.04239536826000201 0  4.10839460319307 -2.591827719220931 0  7.183188985921496 -0.6027837288046759 0  7.120419191255584 -0.6697344946824629 0  2.469541187582312 -1.561480318288972 0  5.451905232862301 -0.3695238469151869 0  5.364044494784861 -1.07572809531476 0  5.332321305089989 -1.108761651701805 0  4.386690477658155 -1.362583731003325 0  4.614784183463689 -0.3770355991221934 0  4.628577275347089 -0.3819368432906076 0  4.63964573771916 -0.3746139956224563 0  4.023794160112966 -0.2472208477669087 0  5.135232623235383 -0.693119971372566 0  5.129071365178065 -0.6702969098517276 0  5.145347570306572 -0.6533474762480058 0  5.12288563708116 -0.6491412765823832 0  5.106812972841241 -0.6644635371729501 0  5.100311806479829 -0.6442341692147319 0  5.085060583270091 -0.6589160884280274 0  5.091073626875598 -0.6807589676275687 0  5.069876567308933 -0.6749001661135331 0  5.063009529735881 -0.6533751739943269 0  6.197892007833657 -1.103355069596722 0  6.23873601571102 -0.2763538920239164 0  3.972016352210312 -0.04793232683231663 0  3.941180101042923 -0.09591892891938514 0  3.885227665741129 -0.09856777685399631 0  6.025282503289395 -0.05821566181313109 0  5.312624025932743 -0.3195855343360721 0  5.301894225014208 -0.3335206256384442 0  5.9837306372586 -2.242250367709349 0  3.912710879275088 -1.377288826717257 0  3.976101051808083 -1.394033698891037 0  5.249580427957238 -0.206848344881094 0  5.242286752203484 -0.2249241978170535 0  6.484918299646161 -0.8186985133620786 0  6.416700612638178 -0.8054291454682071 0  6.439931636909905 -0.8750554090663134 0  6.374162037739216 -0.8585508490731477 0  6.465354309014687 -0.9416939777424773 0  6.402392344055679 -0.9198904815884112 0  6.350973444003754 -0.795447345203032 0  6.309921183273404 -0.8459220613036283 0  6.289246642052765 -0.7833741783393909 0  6.261303966596868 -0.7220297077976725 0  6.237636444083895 -0.7737235812202634 0  6.206812716079934 -0.6949849310362712 0  6.246642063297724 -0.82855225716407 0  6.319907662419993 -2.363936034827725 0  6.480465715062047 -2.426213823888949 0  4.602458962736538 -0.03652894571024801 0  4.557278121911047 -0.03838045909771459 0  4.582802141529726 -0.06963054014402648 0  5.387838124868328 -0.6157006400525962 0  4.537019543980487 -0.7867548319823598 0  4.555103886518926 -0.7669738375364901 0  4.58061516080794 -0.7718846435110768 0  4.571846745792367 -0.7492708319543726 0  4.548199910614743 -0.7430499516721463 0  4.597202336635962 -0.7507881631588023 0  4.607902216592564 -0.7767837428946152 0  4.622978386433472 -0.7564313236734341 0  4.526302543425347 -0.7588980799739018 0  4.564813889419545 -0.724663748287609 0  4.629051806059181 -0.2996136523487105 0  4.416027170871056 -2.258932908314266 0  4.394808746724966 -2.17810585273038 0  4.384422059279676 -0.8637468853796307 0  4.410570668419162 -0.8519234129464442 0  5.83952420930491 -0.3719054395054 0  8.67234610313545 -1.03981282488329 0  8.549948601053124 -1.176112090863405 0  8.505953019188343 -0.995442197074729 0  4.767059579769596 -0.8213488354273376 0  5.909905848164457 -1.130981488130427 0  1.504536581359595 -1.460882417968875 0  1.629129327956242 -1.333531898704381 0  1.676364586527185 -1.500679520589205 0  5.215495674764442 -0.3428044336503788 0  5.590679098921695 -0.756801049958896 0  5.61983512957949 -0.758023397166472 0  5.639066688496969 -0.7349213758837941 0  4.72650317979743 -0.3753404755924443 0  4.740440641729274 -0.3796834873567669 0  6.524434497575553 -0.1008315945680895 0  6.002868233744888 -0.8061301537049219 0  5.968921074523977 -0.8376986056694893 0  6.015163233479175 -0.8621183230984504 0  5.97297771060535 -0.8827731644533077 0  5.334707502661725 -0.3759123363652044 0  5.350388167759498 -0.3758863067347125 0  6.196065043944179 -0.6404754886772633 0  6.682439086480925 -0.4625895974721097 0  4.384041904543887 -0.5253995702525289 0  4.894587719500283 -1.307708390505922 0  4.879556403453949 -1.262421004002091 0  4.834353732243691 -1.251018188416245 0  4.86471068494439 -1.21901466886097 0  4.822217373598559 -1.208521641793236 0  4.7911475760429 -1.239577907308856 0  4.779783257685034 -1.197821667851982 0  4.851964125522016 -1.176779147995851 0  4.905971605120619 -1.227057286288236 0  4.746610074219356 -1.229240527714489 0  4.736970932396853 -1.187623096325868 0  4.703852291306671 -1.217590795249648 0  4.695438202541311 -1.176712393039997 0  4.665292476178569 -1.205842797384109 0  4.654711273335728 -1.166397686384567 0  4.626754849629932 -1.195197111159125 0  4.61464748319039 -1.156023544300887 0  4.684404135004711 -1.135005366713278 0  4.587519232200897 -1.182462822789638 0  4.574193214094446 -1.144767889192864 0  4.545567721776465 -1.17411672839338 0  4.533761188884244 -1.134489600806428 0  4.505472380567591 -1.163695065151101 0  4.495067628361347 -1.12441059736674 0  4.4658730831789 -1.156346271622837 0  4.522697448034977 -1.096726618172503 0  4.456851584759978 -1.115335869233316 0  4.42033931774873 -1.142263144928045 0  4.4361857314713 -1.191307024844952 0  4.599166657856748 -1.116171163612787 0  4.638912922052731 -1.231974340764421 0  4.371957569786224 -1.139109613968399 0  6.14918569805109 -0.04811719976309847 0  6.117699544970317 -0.1015841858745477 0  5.047066919133099 -0.6708277159539152 0  5.040681560244216 -0.6487875535147307 0  5.025102106629036 -0.6627620347631265 0  5.056656567560672 -0.6320231963348337 0  5.019576410453493 -0.6425149482126125 0  5.00374848438384 -0.6562941090808189 0  4.997094478801132 -0.6347129654484587 0  4.981469285597282 -0.6519514721119959 0  4.988450886080449 -0.6706343526433354 0  4.965883944438917 -0.6663050938239687 0  4.959831635598382 -0.6462319183364191 0  4.944269326292307 -0.6599534147151122 0  4.936072258829983 -0.6365705577043406 0  4.9224699265765 -0.654793185810375 0  4.928215833002926 -0.673755854388712 0  4.906263068777351 -0.6689819330711257 0  4.90043918693692 -0.6490847985952561 0  4.884175497340515 -0.6637557063815858 0  4.893660225183443 -0.6849073797741616 0  4.871590175324467 -0.6797105072808213 0  4.863760431465437 -0.6563649100098505 0  4.957967834205919 -0.6217385432320736 0  4.465065968900339 -0.1555588874350524 0  4.45773845196627 -0.1157330786370767 0  4.769705967542627 -1.158100163319355 0  4.679540803500928 -0.656020155262706 0  4.672424899522145 -0.6357760870812441 0  4.664274343071549 -0.6748367566869525 0  4.493766498174041 -0.6316384598276217 0  1.755368023422176 -2.445280892916391 0  5.798177333537998 -1.634492749640037 0  7.963180699188065 -0.6321112707097812 0  6.56039280367871 -0.5194298602675855 0  3.980913476060555 -1.056444461864436 0  3.997260830736422 -1.115311605904426 0  4.474075129105231 -0.950627767765291 0  2.370582204138653 -2.008913438067882 0  2.479005224122859 -2.058717230390773 0  5.332985596336257 -0.2523491218777636 0  5.320713843439428 -0.2333695459754974 0  5.313360745616981 -0.2542294248635186 0  4.668727540846898 -0.06875570403258391 0  4.367202656838988 -0.4298732440253914 0  4.388092919997621 -0.4155555689896908 0  4.387251926021223 -0.4360125335985259 0  4.373057744005061 -0.4533015248805217 0  5.976513276035184 -0.4287096775340042 0  5.93045901769448 -0.4275670742714142 0  5.859105775486612 -1.117675571262775 0  5.477076497680384 -1.3449608644564 0  4.70142649192363 -0.7907623994320969 0  4.676977339554246 -0.78233076699272 0  6.27403015218982 -0.04993325301914076 0  6.298707840762557 -0.09775378744947338 0  6.528041210342002 -1.383450685527652 0  6.487803144880465 -1.462374843539114 0  4.997684521969362 -1.066275841687164 0  5.024087358179246 -1.037681250971445 0  5.062475205109601 -1.045674814048838 0  5.050194026190109 -1.009182419777182 0  4.984604339376625 -1.029982959802397 0  4.94719780653646 -1.022072422573429 0  4.976670842572276 -0.9891684834922497 0  4.936152217066795 -0.9792864638320077 0  4.912117066782112 -1.012940711610457 0  4.898530249066726 -0.9801657695310475 0  4.878096945497099 -0.9527848444917322 0  4.86584042434832 -0.9819383389084818 0  4.844808406727569 -0.9551067373363633 0  4.833512801628487 -0.984037490254833 0  4.812980772993831 -0.9582619762727773 0  4.805626893816688 -0.9897541986557845 0  4.790780929483628 -0.9354480305133654 0  4.19727706420652 -0.04578529174942214 0  4.171892599721158 -0.09106845211735792 0  4.22333785573982 -0.09084317004870712 0  4.248125642462712 -0.0488770695826406 0  4.510960557057435 -0.3801549305763081 0  4.507931698816698 -0.366783195028543 0  3.727982045357659 -0.04976973148342445 0  5.729477449402576 -0.1563748025449347 0  5.144953337728903 -1.94787654400845 0  6.069745828829501 -0.8688485538925244 0  5.398393074888061 -0.7904083128795268 0  4.694350749182272 -1.563217832564777 0  5.542079308335278 -0.04326109001457468 0  5.373018987663615 -0.2904171726313425 0  5.379588928593884 -0.3077051841835317 0  5.391131537201485 -0.2927803094383192 0  7.922461578374784 -0.5227475429553556 0  1.746567865515915 -1.641063747485015 0  5.255054076906526 -1.134464980631266 0  4.463260878155464 -1.509944718327294 0  4.236591825617734 -0.6781718099884002 0  5.230141078731931 -1.339491168393893 0  5.749954418988285 -0.7417754201017893 0  5.730865400486232 -0.7676304869945541 0  5.762637786678747 -0.7688110412838567 0  5.740288448042618 -0.796431636649708 0  4.751912475927607 -0.3733137074853885 0  4.786402035945069 -0.3420250819818773 0  5.818147145720877 -0.5589411688235243 0  7.861605568732143 -0.9360119674151837 0  7.789740668342997 -1.033082129712067 0  7.831947345804784 -1.141384137836625 0  7.71791892278155 -1.122121531980974 0  7.677554202972826 -1.015185343487539 0  7.604171062398114 -1.102836837146699 0  7.569007488294683 -0.9977519796902823 0  7.528666153719831 -0.893773161495633 0  7.749873967504799 -1.229354849457839 0  7.491379501437141 -1.085455926787845 0  7.467826824989449 -0.9948864402604336 0  1.827981421192857 -0.1701087401975661 0  1.928234946325682 -0.2167910745425956 0  6.123850944835006 -1.021609768169219 0  4.475785872501151 -1.738017951328033 0  5.443110099069425 -0.3812662580389674 0  4.482265971864463 -0.7719974686514093 0  4.577701918115549 -1.54068718806345 0  4.618688903454856 -1.495511119482624 0  4.677399459826331 -1.508391796108276 0  4.6615521603576 -1.45773357473336 0  5.575872578961961 -0.1801468110476305 0  5.611291229756817 -0.1880643968381914 0  4.527131276937054 -1.21414975763157 0  4.259585954883967 -2.299089044077275 0  4.236662085817303 -2.201607592252846 0  4.326056439375475 -2.234467737485282 0  4.318749914013285 -2.156025072678947 0  4.150017429779925 -2.191515542145261 0  4.110428261111293 -1.522214261450825 0  4.178163330956636 -1.530665972205236 0  4.231119893348605 -1.498144582691653 0  1.285639639740713 -2.36771269192114 0  5.296507930668231 -1.979890745753215 0  4.528299683961036 -2.364585682108658 0  4.931328959419678 -1.266800762929101 0  5.729579043649603 -1.402753983894833 0  5.714946208100982 -1.348251561411849 0  4.660071729203235 -0.3391881133318702 0  9.18468347406948 -0.3163926681183107 0  9.085345233131093 -0.2051559464734554 0  1.790959736568079 -1.373160184069229 0  1.761323606455403 -1.234836320114523 0  1.610516307908591 -1.144023341489789 0  8.745630057113177 -0.2190370967807376 0  5.555854804195499 -0.4154080384633725 0  4.699512903488464 -0.2734802938822809 0  3.594164886493417 -0.06435764422238655 0  6.286760023789919 -0.3519712807281055 0  4.996638229405329 -1.916418473696662 0  5.046126787785913 -1.860044354499117 0  5.126413307551508 -1.881374169215742 0  4.923819326037258 -1.901576157504879 0  4.896587176803069 -1.833996993083713 0  5.418000853593879 -2.280790548719274 0  5.32914237286108 -2.262844014082225 0  5.459989841512036 -2.209871911793725 0  5.381537137120944 -2.198861291786859 0  3.740074879934337 -0.5246733708365198 0  2.626873129567383 -0.4423895881572875 0  4.781391322290999 -1.869864297873034 0  5.201379515746779 -0.8358366826236009 0  5.197711851697009 -0.8102853127937335 0  5.017699081943178 -0.691448370078386 0  6.14044086416422 -1.08291829597427 0  4.765363219892398 -0.1143964591287778 0  4.767871508904702 -0.09175034827816031 0  2.445111253451817 -1.089282349185697 0  4.812682427144762 -0.6801603639491243 0  4.827854234751684 -0.6641154863709988 0  4.806825160339306 -0.6574620592278271 0  4.821842408316496 -0.6415547542292377 0  4.799928022862423 -0.6371211228022874 0  4.838230870184972 -0.6228526922994185 0  6.56559669686095 -2.392564446283374 0  4.71165129074378 -1.852730858825915 0  3.853479813861261 -0.05040664768950132 0  4.783575708827735 -0.6533421521086251 0  3.985943611680199 -0.2803578498631707 0  4.465323710936325 -0.4115208983240106 0  0.864168166254097 -2.62402850695769 0  0.6751859988175379 -2.608200223444745 0  0.9363902454803448 -2.768493704339264 0  5.21290380502928 -0.3762911475526958 0  5.227034918867995 -0.3783168057309643 0  4.787558319225951 -0.3762722767591846 0  4.760367208080199 -0.6495785686005118 0  4.75118465891867 -0.6272667142867976 0  7.951107906447911 -1.180518767069443 0  6.630847934228719 -0.3331035106254749 0  7.543562291483696 -0.2872110902990914 0  7.801102868090584 -0.2337559813458563 0  7.856408708894688 -0.1443890190217245 0  7.975931931026938 -0.1575006359150195 0  2.25276449192948 -1.608088924554539 0  5.230799683510506 -0.8915110307429457 0  5.270510294001292 -2.325449359282413 0  5.676737465980013 -2.038669961411044 0  5.647987082436323 -1.960299142911802 0  8.064090061934609 -2.762421538197796 0  5.260058535159359 -0.2863213153718003 0  5.251031069832953 -0.3009333326535406 0  5.231043736877604 -0.3002952881677035 0  5.225652790296907 -0.2566605083259312 0  4.48454465025709 -0.5424875637971681 0  4.878414190993588 -1.040151547451572 0  4.93095705254352 -1.606782131333364 0  4.9935378003621 -1.610051509452846 0  2.330855356676345 -0.3337136277398345 0  2.396724285494278 -0.1921794978471587 0  5.911145554950925 -0.1984647459846798 0  4.977377075737071 -0.7024799703087251 0  3.702989824130489 -1.779737828823923 0  3.763581916292893 -1.720391635921139 0  4.527328243853534 -0.7320387391465779 0  6.114149287229219 -1.201654501708719 0  4.827071664992199 -1.481131424658463 0  2.279843562331226 -0.8234158069902512 0  2.163086304511503 -0.7886051500420705 0  5.823162692758638 -0.9626770635030055 0  9.500375970920221 -1.997695983893128 0  5.130227702653825 -1.30952853223426 0  5.307402438185742 -0.1127277426611271 0  4.755120112771876 -1.273379835413329 0  4.369121016936612 -1.596990318933245 0  4.301927558621635 -1.581317500410474 0  1.581357893939233 -1.842228478067808 0  5.014819416863252 -1.000593896201026 0  3.663432726565472 -0.6818867803569292 0  5.044364588432995 -0.8856207001356324 0  5.063825630836225 -0.8623637651267091 0  5.033991071318147 -0.8561105613171265 0  5.053435414328756 -0.8337065383958823 0  5.026248468817758 -0.8266223012398947 0  5.045289793527689 -0.8063183187190299 0  5.017469747049489 -0.7994332504200521 0  4.99715766633666 -0.8204166452227518 0  4.991014273434645 -0.7943437733964132 0  4.970577644939915 -0.8137946950874684 0  5.073634710517181 -0.8118275258151355 0  5.011060261276405 -0.7718420126963814 0  4.963666660163711 -0.7850172382378112 0  4.942725685245806 -0.8072449120373286 0  4.951498430426228 -0.834621666928151 0  4.924441255637346 -0.8279702290247266 0  4.914926578689952 -0.8009656025532131 0  4.895092790790506 -0.8252041634734759 0  4.887804990255123 -0.7950816060508344 0  4.86756220033287 -0.8133519410485571 0  4.930922267299176 -0.8542512364312042 0  4.862289185981582 -0.7867146297121181 0  5.01266736638532 -0.8788685087895283 0  4.906855361494164 -0.7740453630405016 0  5.039435561692169 -0.7812725999195278 0  5.243530569936733 -0.3164461379953187 0  5.350573916903429 -1.924526436026476 0  5.326701419545519 -1.859143600820606 0  4.27969958897602 -2.809086691380915 0  4.348542645135753 -2.730493309264232 0  4.317787931559819 -2.635400299598127 0  4.206440120522982 -2.895596745244404 0  7.328529055398673 -0.5755591519572036 0  4.757390657138448 -0.3109711392944068 0  4.772217213283199 -0.3011692430117421 0  5.281804794675725 -0.6454998185979098 0  8.683975727475303 -2.651698814114767 0  8.826650735536006 -2.698356629471836 0  8.402644385806486 -0.3554031355244609 0  4.104403417293266 -1.904454543109146 0  4.157553409346894 -1.84613139919599 0  4.855324380198267 -0.8507717811900573 0  4.826443316871928 -0.8454748061978981 0  4.343108536174791 -1.172270272281939 0  5.536334735247622 -0.3621820930087345 0  6.444680042450749 -1.34477951312115 0  5.1684263289331 -0.6586683091039831 0  5.164195859051131 -0.6370953488641765 0  5.140743015451008 -0.6310304855540581 0  6.665312271550109 -1.691985052706789 0  6.725002633244354 -1.611920954886652 0  6.477886118508763 -1.015409094117315 0  8.79018489856027 -1.388711542569743 0  4.448842787788121 -2.906150768301909 0  4.50393610952753 -2.813892263047839 0  4.607969165805774 -2.812402440863711 0  4.555176033041861 -2.723957277079236 0  4.655211514700661 -2.723901907326435 0  4.716523880516869 -2.812885091349609 0  4.759218114103995 -2.726086381916176 0  3.619037331890649 -2.481244978317521 0  4.646931271244547 -0.8091840344308591 0  4.639146513113853 -0.7818586397743669 0  4.647898922785495 -0.7565389698600731 0  4.67682871008093 -0.8098358024800731 0  4.728055050214862 -0.3277304154640808 0  5.963677202811431 -0.3119145003638153 0  6.108383278541602 -2.884469978719223 0  7.633574938342994 -1.203019556187851 0  4.520457996287203 -1.87294420160013 0  8.236423754088776 -0.9801505324194423 0  5.552999804929659 -2.905039588109604 0  5.604371212841199 -2.815661797881067 0  5.502225661509756 -2.812693233581824 0  5.715614564095537 -2.793650268854812 0  5.774626463656576 -2.898503240498222 0  5.882838321704626 -2.90364488548985 0  4.452580525345283 -2.730774292466801 0  4.619786374030299 -0.674566962643699 0  4.446122894504462 -0.5180896439855975 0  5.339185512314073 -2.906788769586255 0  5.86276288838954 -1.717202334632054 0  5.391131993704494 -2.808195852123087 0  5.660607434391567 -1.15336957002029 0  4.139506966497652 -0.3690240650306558 0  3.318303197572021 -2.899336906490358 0  3.367487554274225 -2.798110676892493 0  3.240667325241762 -2.793695838264952 0  3.315792363098492 -2.697186577628954 0  4.168993340341845 -0.6112592089012221 0  4.88860590924033 -2.9057073960076 0  4.938322932572184 -2.811166398795809 0  5.048488509255139 -2.811310737129933 0  4.991900477934212 -2.721918679851359 0  5.106673625408613 -2.903717183090278 0  5.086279970677117 -2.726735314093453 0  4.823925923577903 -2.811918442632838 0  4.8644203579416 -2.710519356312908 0  4.082762910449062 -2.254868438464545 0  8.405479159436618 -1.877645070454273 0  6.534715326101121 -0.9606595898299044 0  7.321078781543964 -2.811989808516757 0  5.075970721792936 -1.083001236559355 0  5.102476199557603 -1.053346207980099 0  5.117289723192919 -1.091841305533324 0  5.125834382950256 -1.024089823149458 0  5.169045269946028 -1.028205602676631 0  5.300682639514767 -0.3597734283548173 0  3.430139480083687 -1.544800410562085 0  3.499078500989107 -1.480187891678562 0  3.570910688958668 -1.527737890548803 0  3.026623523179045 -1.943276103254016 0  2.276910560758172 -2.445274801473013 0  4.801312455003198 -1.025530242807042 0  3.68842830253917 -0.9966266326636795 0  3.70779875018655 -1.062193887218525 0  3.663029247702568 -1.11228365929228 0  3.732903379210412 -0.9432523953464141 0  3.735769956803646 -1.138155500301119 0  3.777645719623144 -1.077412735749967 0  3.795617934111927 -1.140352673918748 0  6.007347688907231 -0.9483605249629896 0  7.827537993868949 -2.49876355537922 0  7.216519718357423 -0.7370294273522286 0  7.165684107473417 -0.8163493273895897 0  5.148557436589632 -2.279476380516094 0  7.290873718455611 -1.323113823968141 0  7.193619951824659 -1.307593481690488 0  4.212473427829453 -1.323338020171926 0  3.999396035028311 -1.456369158949366 0  5.437584919599612 -0.9955215800815774 0  4.072012756018638 -0.4340260518149013 0  4.12639826578027 -0.4447628381359074 0  4.146640264461006 -0.4109017398981685 0  7.731313636380891 -0.5937920318932687 0  5.304432707404727 -0.141979016974457 0  4.637695564229816 -0.7337069611399507 0  4.248727456698965 -1.142777413277133 0  5.948130944383077 -0.6462794414226524 0  4.864666296583822 -2.362785680795621 0  5.246350276612842 -0.3694306164726926 0  2.937133633186104 -0.7069769850195118 0  7.026139365762989 -2.186826711819895 0  7.526000070289772 -0.5945786128432059 0  7.571150889316144 -0.5195041287832847 0  7.474102948047088 -0.5080399187633611 0  7.651164913411402 -2.193355134075762 0  4.652435396627951 -0.3779384196965394 0  5.635931702515514 -1.431313485094202 0  5.588938393416581 -1.472744594795952 0  3.458966467740761 -0.05970746556720341 0  3.495328917420508 -0.1142921908758858 0  5.177477201446255 -2.634108920202129 0  2.87543295579287 -0.4438083752163955 0  5.563525824074973 -0.5074627455947522 0  3.117178189899975 -1.159525524495594 0  5.560161520857127 -0.9484297920148466 0  5.584762455788585 -0.9183471317864659 0  9.532596383919619 -2.657697402699793 0  9.745517503139792 -2.489767635282514 0  5.463728049566841 -0.966819956879385 0  5.427711704048393 -0.9602420357698087 0  5.401559534627114 -0.9868441249512873 0  5.37024964016065 -0.9691387755831026 0  6.221142072549307 -0.4554725640502195 0  6.703129904494569 -0.2015193050627715 0  3.561527387011321 -2.360674371959835 0  3.647235529957216 -2.391954166333856 0  3.404036115346823 -1.770184348055965 0  6.154166358893118 -1.763805691804242 0  6.452879672087381 -2.904612729931407 0  6.34192658460098 -2.906250749451247 0  2.953684261434753 -0.8069567182566487 0  5.342932883194654 -0.8557784998775695 0  5.074993521462419 -0.6975507405411514 0  3.256213450504493 -0.8218094696281265 0  6.386791152050805 -0.5696702818248767 0  5.17415829012668 -1.279277841448131 0  5.268990458697716 -0.3018670072271679 0  4.709164092596817 -0.6810640961301047 0  7.0902876589321 -1.831709593814086 0  7.055708905055214 -1.737393032820395 0  6.95278394437978 -1.730666033284533 0  7.013030427146539 -1.6440138565124 0  7.16041874764535 -1.752181176519516 0  4.274353588417696 -1.339520644319082 0  4.613965618007508 -1.445429786362581 0  4.648185003165042 -1.405384998798646 0  4.440039366932627 -2.343745434371609 0  4.602560373492102 -0.1189865144207398 0  6.486470371246329 -1.224206942069222 0  4.960928491315682 -0.9612233325788577 0  4.267809587419769 -0.966599110267558 0  7.380178258880422 -0.4957174324122819 0  5.214214199325323 -0.3083568266543395 0  3.196513703018444 -0.8759469970886906 0  7.376519477396395 -1.073549565603839 0  5.087120399006514 -1.016778509210238 0  8.468789182150939 -0.4548479797509533 0  4.570370358057867 -0.8980234359773874 0  2.880626757980469 -1.706099738667553 0  2.862413026387907 -1.610703347955843 0  2.770173708236249 -1.567083832729509 0  2.680347575476313 -1.634665868985778 0  1.906763745401161 -2.640519134910088 0  6.394843126970954 -0.7399486377127031 0  5.214350650554606 -0.2915227225489025 0  3.715357865783047 -0.8784210183393276 0  4.919965803909464 -1.050331190316636 0  5.251469543634464 -0.2400655681567478 0  3.170865324395248 -0.06380106331937863 0  3.133093821017161 -0.1206347105170891 0  4.003018085027016 -0.505264078228098 0  4.052608948233988 -0.5171544466689934 0  4.829118651741219 -1.817990251002523 0  4.685263181374869 -0.3201409103584607 0  4.543538204596313 -1.753583384526574 0  5.323364461688107 -0.2705034572205181 0  5.109529744373572 -0.8942695862206441 0  5.88603521442046 -1.382218083585311 0  4.646155818782169 -0.2850841395140495 0  6.18632287236998 -2.521634434767752 0  2.490697930276327 -0.2277813746488826 0  1.483270453773904 -2.774704373467498 0  5.247481228197887 -2.243559867415688 0  5.686421923859116 -2.342794257808948 0  4.736858662284126 -0.213611809970345 0  4.752754306644499 -0.2238602165388062 0  4.75259150363974 -0.2435540619612695 0  4.767820095292329 -0.2335217975683195 0  4.76932690686391 -0.2515419315871852 0  4.785053733491051 -0.2589965355631345 0  4.784531398849669 -0.2242731486160927 0  5.236671935620593 -0.6352083761117331 0  2.053957392878185 -0.08033129227104663 0  6.920730025784313 -2.910789717317917 0  7.036095471448578 -2.908149369475673 0  4.666023053013369 -2.905995976626405 0  7.903815838512061 -2.89145019512404 0  2.091839768888471 -2.87861445090422 0  5.399585493951576 -0.6850549713371072 0  2.722997583004998 -2.879623279309554 0  4.651424620802065 -0.6366226978713808 0  2.518344787247228 -0.07494768960291287 0  4.087626302963992 -0.4779153126871984 0  2.938664902272969 -0.06799289921413698 0  7.06249707797401 -0.06949090998931839 0  7.100316613645601 -0.1383621778607691 0  7.021513811764372 -0.1335529110559901 0  7.179389703276531 -0.1339535294476115 0  7.056695384926146 -0.2071409963205753 0  7.129334131766639 -1.39094132786895 0  7.091334588514138 -1.291616302253335 0  2.398895104031952 -2.477701135783682 0  3.246277823933702 -0.06220489085671499 0  3.281936123222961 -0.1186240636630991 0  4.993719872136555 -1.331521442288498 0  4.762644892705782 -1.801567243921728 0  7.029547664575361 -0.6609587262093569 0  6.931003152125315 -0.5689458212130335 0  2.640616410117415 -1.180698613469834 0  5.005131618731536 -0.8487104554241154 0  5.600757289081737 -2.319788255953181 0  6.235785125997024 -2.350776489475146 0  5.65912708241871 -0.4683499966463762 0  5.562305896941226 -0.4783150254436781 0  6.705790432520013 -0.8514793062129089 0  5.774217273677703 -0.6962028010446095 0  5.391027579275774 -0.03932660868751525 0  3.65118176602356 -0.8628097409526994 0  0.2624191260414035 -1.121189925848197 0  4.348173641796522 -0.8587180608597289 0  8.169662350999705 -2.879851546362696 0  6.822790812107791 -1.151444886932535 0  6.668875300171304 -2.512724437186382 0  5.234300318588025 -0.2412776013023437 0  3.956813901244011 -1.328208097080767 0  4.02365986747378 -1.344832285608516 0  3.017343413056298 -0.06540131707208996 0  2.984407753429802 -0.1304878496876984 0  2.896946345290025 -0.144111531998723 0  6.983124040131838 -0.06559619280408846 0  6.938997520169695 -0.1173374738485209 0  7.749914585077431 -0.9184323350815671 0  5.182811518404176 -1.519274154716716 0  4.786180820447401 -0.2921367662237055 0  3.594717088855392 -1.096589312011753 0  3.611161486957152 -1.164492089589453 0  3.624093425071766 -1.237538904078422 0  8.017618260208387 -0.2490488805157758 0  6.162783590794866 -0.6783422956982266 0  5.99863646216706 -1.746037076948705 0  6.795133307324909 -2.043045626119534 0  6.72082336857205 -2.117741369963506 0  6.923953474126701 -2.166727829361528 0  6.050201025271659 -1.52968051957313 0  3.618444304216692 -1.974244467275752 0  5.781040864968849 -1.92949715446677 0  2.084314450321298 -0.4568296734824331 0  1.444925903258403 -0.1116941776619227 0  8.577175209485279 -0.1094653856582468 0  1.641492519109212 -0.1011195839592229 0  8.352041675571122 -0.0884893851351567 0  8.293823502567733 -0.1773021847168341 0  8.146217439241989 -0.08376661931227036 0  2.815657031208386 -2.271117766477154 0  6.005202882575242 -1.24375477589058 0  2.150981732850915 -0.07595711748751621 0  4.058751254458627 -1.759687704742788 0  7.230502369953479 -1.945587892494629 0  2.337291031410277 -0.06980980789283797 0  4.664955586056129 -0.231027437157731 0  5.407775984406548 -0.2794725528808619 0  3.483232879244544 -1.196566907338896 0  2.605832962772639 -0.07140549867715285 0  7.265262041127307 -0.2507820380640877 0  2.775097140815288 -0.06700144593150581 0  4.758297501009862 -0.2773825572056396 0  5.29380190992683 -2.409492720704807 0  5.239125354344762 -2.55276380766032 0  7.073218961828289 -2.795357708467084 0  4.879043280476557 -0.6417762494195995 0  4.858463514741061 -0.6346315800920341 0  4.662372154790418 -2.10184733805511 0  5.14113578193679 -0.7169751241897212 0  4.483059564336019 -0.4234867514453349 0  5.5131071566458 -0.2864469112840684 0  3.462577007650537 -1.122480409623097 0  8.219116069936726 -0.4539939923888454 0  5.214825295946145 -0.2230195799228392 0  2.362339299814513 -0.448197105460995 0  5.546424985415192 -0.4768857591083433 0  5.840778607635485 -1.21188302839063 0  4.77608419226979 -0.1769711398860805 0  4.772275147551805 -0.1958066165340238 0  2.595025293748639 -2.735624049772416 0  4.880628643803842 -0.7674335259155352 0  9.762210730464142 -0.3178049950483994 0  4.359487577114541 -0.3774063297290333 0  3.841417397940896 -0.7383790673525361 0  3.889191332866917 -0.6557274653135443 0  6.518058899777811 -2.115893444877689 0  4.541626190759601 -0.07331657428187532 0  4.570164116093843 -0.1055707268285526 0  5.355724051519553 -0.2129568097007142 0  8.182383335210023 -0.8637742912829232 0  8.307675637554819 -0.8714551033244582 0  4.482198273361457 -0.5777260372452098 0  4.483696404307929 -0.5674752989665295 0  3.933623853152756 -0.5785022061512231 0  3.089057992647099 -0.441717697220954 0  3.012651802275877 -0.418385301888188 0  3.214275780992348 -0.4071238986155798 0  6.992607773530837 -2.086248931295652 0  5.805348849657416 -0.04516666919222034 0  3.389351971483876 -0.05924254594129552 0  3.383574294821673 -1.982856221725318 0  3.837460502031139 -1.544207612881637 0  3.910273770991777 -1.564508004328445 0  5.22816828117262 -0.17277251039974 0  5.217992691368742 -0.1906128201628703 0  5.235893957321876 -0.15475970959688 0  5.224675977941277 -0.1392139330166908 0  6.794403564128558 -1.072465272282654 0  3.206616342900298 -2.667253638781481 0  6.890448536977624 -1.800430246356699 0  8.313746415608016 -2.03500334224883 0  4.67151203750003 -2.317775731998741 0  3.29254434682499 -2.301335184060799 0  4.609666148717317 -2.640641285141105 0  5.437671099678387 -0.1679548822959922 0  7.326531428160252 -1.418850839457342 0  3.919477714729878 -2.54191927269788 0  7.305465585443065 -2.145111884131091 0  6.191763538898841 -2.79513643226937 0  3.653587481404686 -0.152970760896382 0  6.867798537071186 -0.8665526738762535 0  6.9391086248626 -1.357947239899657 0  5.414137801760539 -0.7696028751100683 0  4.608195987734851 -0.6173698875382738 0  4.455694261444155 -2.122095249540962 0  2.99285798054624 -0.9688874983717124 0  5.206187084994115 -0.7091967667685501 0  3.496028701621245 -0.2164902025866877 0  1.945827806287008 -1.784230364045762 0  5.804406336857221 -0.3738534283831716 0  4.109608783208351 -1.150397710398287 0  8.969369172841809 -2.57827123350561 0  9.074878443255997 -2.724035644171261 0  5.812960603914346 -0.8342332543292977 0  5.785837603563033 -0.862164896459874 0  5.779880640275778 -0.8288856366381502 0  3.41162058490813 -0.3722906679535045 0  4.935085717056932 -1.45408132959857 0  3.725378390610699 -0.6982982098401391 0  5.306288156971431 -0.616607522265969 0  4.442117600971732 -0.7188019109713373 0  4.201682941711926 -1.915712149370287 0  4.233533699739164 -1.84626750597905 0  4.198883395159714 -1.788036451359123 0  3.646828200472275 -0.3833346082210567 0  4.736505733295096 -0.2562086732804572 0  6.022213260830652 -2.578665838681099 0  5.343418347781193 -0.3882208136847241 0  5.31875 -0.3894510212469422 0  4.681323982744262 -0.3888629063446554 0  5.26530612244898 -0.6176739878323344 0  3.126141712240642 -1.98202738367419 0  6.11068256252109 -2.117842317281081 0  7.652318802408358 -2.891934542836078 0  6.76045700242727 -1.348588265279627 0  6.10546799354524 -0.3108380156647546 0  4.590713812827101 -0.7974282755002132 0  3.845392081281719 -1.360882889713495 0  6.20783013381406 -1.44020227479224 0  5.64080343081737 -0.8733298399352906 0  5.616515814935327 -0.9003171401490552 0  5.205574443732594 -0.6174407952358842 0  5.368749653975865 -0.3222016643872614 0  7.603062452048406 -1.6500528372172 0  7.195054767082171 -1.848770596519382 0  6.087815538019493 -0.482649448730742 0  4.811784362491847 -1.167780324491007 0  5.293582423255485 -0.3892175398406696 0  4.706652782690512 -0.3884403634193903 0  5.33966123563723 -0.6950204361532056 0  6.030598332045356 -1.466213739276522 0  5.368999263639408 -0.3890389187172534 0  3.045601231783406 -1.447334618798429 0  8.700932026299274 -2.796771065548475 0  5.523989775758649 -0.468057870950132 0  5.514998199678065 -0.4731912043172506 0  5.932494995176993 -0.8607564461599357 0  5.594428572747056 -0.4536199032121191 0  5.102320079710152 -0.6162323536185367 0  5.041904784681121 -0.6165633713790848 0  4.900133362670974 -0.6180680822246425 0  4.69110354280237 -0.6184313464872064 0  4.331571708010812 -1.892962073679948 0  2.910753630779328 -2.687737959023948 0  3.072152140221261 -0.3591122750973441 0  5.115167889136375 -1.197745038065364 0  3.847860383971283 -2.270961991517606 0  2.894848589648145 -2.19179820765256 0  5.112302414480175 -0.7781874454116307 0  5.434779735875314 -1.530541927225219 0  2.470652068216376 -2.902427298655536 0  4.500451285497197 -2.631259836649429 0  5.308250433630548 -0.3475383341083222 0  3.316122790955344 -0.2193752058186365 0  3.209241452378103 -0.1220194988308601 0  3.679886282253259 -1.184276433363942 0  3.449093853210064 -1.053950625178453 0  4.192501992083409 -1.267829110689685 0  3.644606006115821 -1.836667016224119 0  4.594337242759737 -0.389607414918109 0  3.163274724465445 -1.791325409080504 0  4.484420213637673 -0.5318521143387853 0  3.693244451489431 -1.259566406560447 0  1.35563201043059 -2.511833251515357 0  2.069286063238269 -2.168879621268327 0  4.662823000082912 -1.727469043875836 0  1.361122825956559 -0.2019425538407555 0  4.296905470787832 -1.753854383729126 0  5.451188252856015 -0.8475612554655463 0  3.779821561058613 -0.2607693281205246 0  5.298145562272296 -0.7730405402806126 0  7.532332357565845 -2.179248928949544 0  1.436526415362971 -0.6040702010237885 0  4.056569181081431 -2.171378780761218 0  5.332046375442532 -0.2138951627318737 0  6.231835346661429 -0.5974273378157363 0  6.062574480304423 -0.09380474608830891 0  4.577034321743597 -0.6686321296454915 0  0.2973332618816906 -0.3101593813214827 0  4.604867147085393 -0.2174634884956765 0  4.301332465240506 -0.9415240075006941 0  4.331243074087141 -0.084692196077089 0  5.415692617941079 -0.1093170246499273 0  7.440342673330584 -1.984325238721305 0  6.365032978188143 -2.730867685890812 0  6.339255791809936 -1.014679194192253 0  3.17482446042878 -2.555848535564388 0  7.116412312133829 -0.4479744526352647 0  5.527852082395261 -1.111620897729149 0  7.594308647423557 -1.373501504233503 0  6.66702767996251 -1.118120802500763 0  7.22514819587393 -0.0698957048885791 0  7.437388151473546 -0.8457345694128603 0  4.240546434219021 -0.3508670055486147 0  3.48662115948282 -1.790463245305144 0  6.4422779230258 -1.967926215699772 0  5.921644098370637 -0.3097133720891101 0  6.725742394552737 -1.27050728560249 0  7.298859113619159 -1.866971032796567 0  2.940378980106137 -0.383054702737631 0  4.630488280508704 -0.155976103173648 0  6.54619894619348 -0.6425088178388384 0  6.844817320682692 -0.3484002104777968 0  5.406309139747909 -0.3892600199634997 0  5.432185016511569 -0.3903847322121266 0  4.568830537811515 -0.3887308465336305 0  5.595140491581061 -0.4299244795510906 0  4.291809376789658 -0.8806102733726682 0  5.311899671002222 -1.45137665521082 0  7.229664955635949 -1.67333894151649 0  3.871918619990355 -0.1955339469094051 0  3.383553734671543 -2.610421018968656 0  3.276243222455723 -1.208503551610455 0  6.493227655268253 -0.1586479045164642 0  1.067815116293708 -1.676499644632236 0  4.749359410198046 -0.7274258425379221 0  4.762837796723185 -0.7499294195245799 0  4.094194844916543 -1.088397648676555 0  5.647879910428029 -0.6365607020918409 0  5.647155205180132 -0.5958464291266323 0  5.89358443500399 -2.470287131335343 0  5.316997214041238 -0.9695402455461405 0  4.215951582504881 -0.3770075073922399 0  4.274738003986633 -0.3567071922016209 0  5.113004959194063 -0.6869325511792694 0  4.292643828333222 -0.4951557957463342 0  5.667372394195329 -2.255591358804164 0  1.200192727466844 -0.09867980251733455 0  8.795532735227258 -0.1009690062004356 0  2.807175077826931 -1.476530479539625 0  2.744036500728857 -1.948761364724753 0  6.33962870493619 -2.086197819105591 0  3.18242053061167 -1.400131860694623 0  4.55625 -0.3891746824526943 0  4.918950669062562 -2.092636829369408 0  5.417538591128198 -1.476098249426116 0  5.860638613695524 -2.147911745112917 0  3.681054484831664 -1.442891037070544 0  6.821385106114374 -2.429700140664864 0  3.511046472111064 -2.181277659803829 0  2.05480419867343 -0.7569486798076754 0  5.354577309012457 -1.201461631743381 0  5.495598679825695 -2.54300727112366 0  3.487722746412407 -0.9424888583869724 0  3.476114569054301 -0.3900606647775138 0  3.865802371247542 -1.775460494176369 0  3.745352138504808 -2.164120519264483 0  6.570103120120294 -2.77375063284421 0  4.465444992796386 -0.7046693360359704 0  5.549476636669493 -0.3274171559960271 0  4.714369668637857 -0.2851024611769715 0  3.568432849905834 -0.5376377853138394 0  3.450546992487316 -0.5618361875721141 0  7.968174460656877 -2.142666814246068 0  5.172295633790012 -1.465466543380583 0  3.954730424245805 -1.505232789345891 0  1.28170896021348 -2.877312710478118 0  1.953131224730923 -2.267085644258976 0  4.951658120804947 -2.38637732245857 0  4.667525504892561 -2.56502748275942 0  4.762800475012961 -1.118789285380693 0  4.831322786232433 -0.7522058155348339 0  4.839101806292373 -1.137381574212274 0  4.877793681006644 -1.146370544388719 0  7.499302645846163 -1.629876545303858 0  5.071429029380437 -1.440038361232122 0  4.16404388580956 -0.3363548110197629 0  5.657586507384992 -1.87583478750712 0  4.264306300675135 -0.1498547991810297 0  4.955493663915695 -1.163332625508209 0  5.219601139480268 -1.289934074393887 0  4.521300753821853 -0.6181379009184705 0  5.034161983937734 -1.18192197080776 0  4.542632534577113 -0.318190154862674 0  5.639171661372195 -0.5184516810511394 0  4.922906244630476 -0.7542676457158235 0  6.42102812506822 -0.2627539602675188 0  4.800980984191806 -1.284860257331997 0  5.468550942408548 -1.646128626099726 0  1.788262269397511 -0.4570854689002253 0  4.247320702414783 -0.5298842448121275 0  5.6591439730977 -1.545702772702808 0  2.806910735127698 -0.5038980809674597 0  5.507216878364869 -0.5875000000000007 0  4.49278312163513 -0.5874999999999996 0  4.693227020828753 -1.38226368259954 0  5.676044104176106 -2.58775287931897 0  4.453942398184473 -0.4320717078786696 0  6.715587779224574 -1.057150767847463 0  5.497535385101981 -1.774115804164552 0  4.371805304171443 -1.504150247323745 0  5.441748489874163 -0.6762375979339694 0  4.716890608104074 -0.2635085614949906 0  3.805748335676844 -2.775129610191756 0  3.501391114703773 -0.7609909908372824 0  3.021419846178802 -2.320908392094504 0  4.097314119504478 -2.849867383194845 0  4.847290378676058 -2.07661219070114 0  4.876540014736357 -2.148285051703205 0  4.049557404742385 -1.28658573213727 0  5.507300053545491 -0.5538141229443736 0  5.507252955471681 -0.5708333333333327 0  5.514400376120593 -0.5752473766790247 0  4.492783121635132 -0.5708333333333314 0  6.675661692343362 -0.7818656611725586 0  5.341594303335923 -1.154452575109631 0  5.086041979630843 -0.7715174665553984 0  6.881164375629388 -2.548262056226501 0  6.288832085579489 -0.9016471916539268 0  3.934998609041816 -0.6725703419074412 0  5.231068483667698 -0.7824912841447569 0  4.28448530985298 -0.265375653568851 0  4.279344693850001 -0.2292133606870164 0  3.295510001056829 -0.7064733207213669 0  4.886271530344583 -1.438957464469674 0  7.015829028763342 -1.035993128351784 0  2.889153356324019 -1.173581672278116 0  5.35134869118171 -0.32047297558248 0  5.180761167115243 -0.7707686760725517 0  5.721967666327028 -0.6872813772583184 0  2.375848505375262 -1.640933830685673 0  5.920356688894472 -1.044523742667025 0  5.823104912704979 -1.532151302822811 0  4.260329620573833 -0.7758024410258018 0  4.633803410420541 -2.026503386272368 0  3.394860255195249 -1.380303584568118 0  5.507521889884785 -0.545149950620619 0  5.51135103653835 -0.3363791401618301 0  2.241025973072378 -0.7040603617256708 0  4.44172158390825 -2.049031855459178 0  3.981182272163952 -2.472485642381642 0  5.507216878364876 -0.5291666666666647 0  5.507347164879898 -0.5124790954143446 0  5.507615995046088 -0.5040722189610756 0  5.144319471437215 -0.9045357135259904 0  3.019963075034185 -1.364214167172026 0  8.99906699575347 -2.87164220966101 0  9.143482165954529 -2.869909854016642 0  6.852801419842739 -0.5569082911593386 0  5.519803260039909 -0.7728773652706882 0  5.684203807962131 -0.7637404080012175 0  8.282657263531307 -0.361252305633269 0  4.788954310686324 -1.409899043165617 0  5.549533387442555 -0.4513937584686019 0  6.160531131254908 -0.9787173028806304 0  6.026438320203592 -0.5493638779821093 0  1.895626263562517 -1.273173353564472 0  2.035059676199238 -1.286198550278353 0  5.562648794759115 -0.8885835389714565 0  5.543161754155873 -0.9165437935688178 0  6.431652083501186 -1.274101429866208 0  3.265146745809178 -2.202270878552928 0  2.971417550641843 -0.8871563006763127 0  5.508760980301972 -0.4873843595600167 0  4.493456263544648 -0.4870549460800455 0  4.493025096492589 -0.4707860116527707 0  5.752583438930967 -0.8834601966072015 0  5.946202769262212 -0.2754205220799903 0  2.825262505644877 -2.78272630601013 0  4.344970358367742 -0.9570319414379996 0  5.370723571187567 -0.8624816159048706 0  6.222512141101451 -0.221423773464676 0  4.426371870701692 -1.322277176954275 0  5.507882781558725 -0.454193336506473 0  4.492737830451512 -0.4545290579992642 0  4.516253612543212 -1.687548254742923 0  5.489346399676764 -1.221931759613557 0  5.630012910985094 -0.8413497800254424 0  4.847074723687275 -2.60562256424992 0  3.197317948988387 -1.186435253331327 0  4.101919055191173 -1.703691187153569 0  5.566005768792655 -1.050022181283296 0  5.781225059696888 -0.3273041225775952 0  6.523190844283862 -1.754528573265693 0  4.440051416121727 -0.9455590050762746 0  5.715333666029322 -0.5731787403312854 0  7.820368025896567 -1.690572904136766 0  3.541507446586096 -1.409926233243845 0  3.415543272319152 -1.459466771173971 0  5.506664103728932 -0.4371260252340026 0  4.492671454344495 -0.4375515162741113 0  4.732091857588602 -0.3890349757534124 0  6.433398660316823 -0.42343993091734 0  4.013593597792554 -0.6024602512115219 0  5.91867239530682 -1.91614017989232 0  5.519872131954509 -0.3653989978694152 0  4.416425322396721 -0.7183377080064737 0  5.716756687768767 -0.822520020725069 0  5.411775222984348 -0.3117356386519097 0  5.253198970984768 -0.331316150513278 0  6.183401176217068 -1.37858099051786 0  5.274315342377851 -1.641571048212695 0  3.828093262784955 -2.186449672501784 0  4.809810484940444 -1.753148203513887 0  2.511307585654078 -0.6708426691976844 0  4.465556164979893 -0.2248797667256901 0  4.388277494543235 -0.08478508855000033 0  4.586189617362866 -2.300361917245006 0  5.507879739705032 -0.4132264667990566 0  4.492783121635132 -0.4124999999999992 0  4.647896718036589 -0.8858568772287294 0  4.591403000290738 -0.8719074694323548 0  5.30202888747012 -0.2258250156391624 0  4.672503599385365 -0.6150758313989428 0  5.385685258304316 -1.166739280237624 0  5.075259237656311 -0.9812760402739658 0  4.734700402091329 -0.9035660749756683 0  5.378776655962785 -0.7431016343497737 0  4.38916177847608 -0.4657853761431092 0  5.625604118455598 -0.5989035831526113 0  6.082710703341603 -0.2642192721275984 0  1.4613232042577 -1.950224921884224 0  6.279096731456962 -1.927347661488358 0  5.611927642279372 -0.4504390475669267 0  4.562831206049791 -1.351413541889274 0  4.103772475871082 -0.2379071471663097 0  5.246215201690729 -0.835553911927512 0  5.455335194391711 -0.9328927553991612 0  5.52039504601464 -2.020915702398529 0  2.695532342409789 -0.7159382612817161 0  4.711470243183803 -0.9280077483289624 0  2.643880928614085 -0.8608104410606863 0  2.545973327259055 -0.8246637997847046 0  4.33629015695372 -1.296488704351785 0  6.347820528394556 -1.186475663414527 0  5.610002101368369 -0.287071278513535 0  4.637106400992476 -0.6186436594670311 0  6.642390820193196 -1.84518463723567 0  4.354618368921463 -0.9940567390706311 0  4.768623591582654 -0.3894822426896958 0  6.33228982669037 -1.865448284034695 0  5.041417081054122 -0.9741702344745573 0  4.791090713665596 -0.673015200053436 0  5.493660213706086 -0.7642231510720513 0  3.93086500637535 -1.261289314561614 0  5.653258518479548 -0.7004801675475382 0  5.89970829005031 -0.784281941113934 0  6.198952977318849 -0.4080596546898263 0  4.472747524123307 -1.334235073985121 0  5.585792915291965 -0.3862422871854223 0  6.204198119866064 -1.628880691190761 0  5.765802979706487 -0.4770575452832493 0  5.699132593282364 -1.297520906577349 0  5.751247198245883 -1.30690057219632 0  8.251072451524603 -0.7636211270134483 0  0.8587926404841273 -0.7374379499349444 0  4.484474320454847 -0.848143083371017 0  2.997200403863301 -2.219030977828323 0  6.922013295181017 -0.357764666716671 0  5.872845482642203 -0.7163105572879326 0  5.896348100011664 -0.6926837557475749 0  5.889565245369381 -2.230415283150371 0  4.673113301880289 -0.3298739732107283 0  3.243735326789776 -0.4870399033836423 0  2.822497998672689 -0.9184916266301686 0  5.283781959949301 -1.060655604236479 0  5.298841374167897 -1.801593457955976 0  5.360167570167334 -0.3362065700310795 0  5.388071381048229 -0.7662635033291448 0  4.336189447387437 -0.8251202347228372 0  5.07933170125266 -0.6395127336675549 0  7.809111965122923 -1.398110818281679 0  4.533898946558761 -0.8591305418666216 0  4.542202508191173 -0.8875967032556753 0  5.301492853574027 -0.7077143007014328 0  6.075713366501587 -0.3561302618653071 0  3.538188854605696 -1.146007688484238 0  6.072483176066465 -1.951978499758977 0  4.092642589238287 -1.454535699023854 0  3.737417467408605 -1.649778138814017 0  6.035123877603239 -1.199329749938605 0  4.237997598750249 -0.9376425439237207 0  4.090617742429971 -0.829802308705423 0  4.10453421676557 -0.7126783530459634 0  3.440405356021807 -0.4989728579252017 0  4.310677026991473 -1.091520370777427 0  5.75091514003644 -0.04298873379603396 0  5.68700464503735 -0.09038284429718502 0  5.987671192716736 -1.514052185340593 0  5.13338733124239 -1.507055402826991 0  5.482411741240543 -1.106719773064794 0  4.68730698024395 -0.7406465389669632 0  5.481415551034401 -0.6840263229490469 0  5.601287673066775 -0.5222446335437579 0  6.692447977383398 -2.903453436044555 0  3.977831486274071 -1.939430017445753 0  5.228445482728357 -0.9821122613637474 0  5.731647281640572 -0.3470177354189254 0  4.7852840640675 -0.1418951868869678 0  4.161201790000703 -0.1349934559233159 0  8.093275043715682 -2.153903666205707 0  3.964423826272903 -0.3631021895440294 0  0.9688287211073083 -0.1022735925549343 0  0.8479304421801386 -0.1043670687043166 0  4.440126461852287 -1.045283409521296 0  5.695399219210724 -0.3219767476352415 0  5.684284981069145 -0.3000271297811665 0  4.034910212976738 -0.2963005220432562 0  5.551977345769093 -0.5505203628824861 0  1.805929654584725 -0.5699754883989158 0  4.158312164843001 -0.9243744451897633 0  2.280751475669356 -2.78349743244364 0  4.724825270203137 -1.14930656324227 0  4.035710831719538 -0.9428201670710645 0  4.279149519745866 -0.0810675169100139 0  8.346020919054707 -1.447802297831965 0  8.417666003748046 -1.315841219529605 0  5.330486914642617 -0.3382043329024236 0  0.339155515612398 -0.1131444183900965 0  9.66672551767952 -0.1448820565752786 0  5.515134828652402 -0.4491121645202463 0  5.41345261629418 -0.2375367387521736 0  4.935687298542796 -1.781761665005421 0  2.970554411882545 -2.902825917011113 0  5.317434478497859 -0.6904194571055851 0  4.512024625021141 -1.06026353230839 0  3.557215120276629 -2.905896716244756 0  5.423562084886077 -0.9272546905298049 0  3.148144666078476 -0.6608772941397704 0  2.623487204482945 -1.434895926039363 0  3.283521761921095 -1.582120803367821 0  5.256776730600991 -0.3910961635285877 0  4.38135393949242 -0.3938216752085957 0  4.891327394826043 -1.18722847489223 0  2.150161669327695 -1.233971943142044 0  4.214698759633528 -0.2366182839369051 0  5.228944988914717 -0.1213633611877734 0  5.486957395561299 -0.3826855629738599 0  4.326016121707024 -0.8866375455443989 0  5.149283831793053 -2.812305797752643 0  6.675909213893271 -1.928380375719995 0  5.305072921499852 -0.2720746345195848 0  5.602182947554633 -0.4948140082992993 0  5.753255044397754 -0.199098353774291 0  4.136133174070951 -0.4889209947562678 0  3.519970727260469 -0.5843480426632591 0  5.103000479489761 -1.602821932249922 0  4.205405225206858 -0.8236873805748823 0  5.416592853422725 -0.3274554173110029 0  2.643918837471808 -1.914421624646632 0  5.620797374847737 -0.3102329127496954 0  5.385480527115144 -0.3237722241106293 0  5.710255663790365 -0.6629895771125858 0  4.573054375799443 -0.291835740003733 0  4.285772992595759 -0.7542898206900119 0  6.751875397176504 -0.7920640682179825 0  4.443439388133502 -0.5044145133769399 0  6.361904119844606 -0.5161094953520857 0  4.548072241856158 -1.069298062304743 0  5.348094438910313 -0.6175177670240409 0  5.713688720014757 -0.3704569262515827 0  4.48368157593908 -0.4591239465896455 0  5.463468241076426 -0.3320414704040013 0  1.768924564749814 -0.8930595093724794 0  4.560473645688008 -1.106468693127366 0  5.527805356536061 -1.043479962143658 0  4.641555382566244 -1.128286624556414 0  6.296379865451394 -2.81025701175156 0  4.522290847829451 -0.7103051802240796 0  5.492740381936099 -0.6702152503294005 0  5.159528566564896 -0.6171433324936939 0  8.870106072408497 -1.779885984867906 0  4.769743972777365 -0.2145940879290875 0  0.8083210570379036 -0.2320717028070614 0  7.332986575035267 -1.964060039486212 0  4.127273713010366 -1.776267433380096 0  5.293891554437198 -2.182193154181638 0  4.448277118442034 -0.5316244961645402 0  4.453418014516356 -0.543521756456294 0  6.272049702122043 -1.641877772206644 0  7.477524850081965 -0.3457668626832582 0  2.733194708240356 -0.1443702621325074 0  5.773098996657906 -0.5337460472030764 0  3.586110327123193 -1.604871274927455 0  4.328612542109979 -0.552571184762815 0  2.95404857494081 -0.4714484553578746 0  5.513729800759843 -0.6923248389294073 0  8.19061550871068 -2.755435393435489 0  8.278657148810115 -2.671439701764439 0  9.414694778378752 -2.205805272264386 0  5.764001226302478 -1.219121027452627 0  4.39163248433132 -0.2497879443189339 0  4.243782379712653 -0.7174886257126121 0  5.229244008846048 -0.2102602416267074 0  5.606276381339962 -0.7351442014073263 0  1.839342387580964 -1.519149510651542 0  5.259749240776554 -0.7210395217955795 0  3.885699929441621 -2.914932148458165 0  6.5885008377826 -0.5857751720649278 0  4.677177275511816 -0.8902063410252118 0  7.5267831518191 -1.182938601755304 0  4.379856794444141 -0.667043280045863 0  4.692406173814812 -1.095708265528731 0  4.736190209137525 -0.6153963562234037 0  5.926201150112199 -2.560185319309347 0  5.461595084872446 -0.2631164102038577 0  5.63689140148554 -0.402871094414905 0  4.441045308850609 -0.6814049132564166 0  5.290821069730479 -0.1674957676359807 0  5.670807236258574 -0.2464884623016315 0  5.528202542807249 -0.2017637572521742 0  3.434339724982332 -0.7430537081443467 0  7.100884663170166 -1.04696984924426 0  5.526645301163563 -0.3400837586065104 0  5.629247731847569 -0.6960736786944507 0  4.740588261211688 -0.3365489107305311 0  9.442878663052996 -2.868590195048456 0  0.5571213369470032 -2.868590195048463 0  0.4928194041709775 -2.677518714699103 0  0.2783045103569535 -2.672085358704843 0  4.621310660137681 -1.086043011079951 0  5.840552685645484 -1.590047225390886 0  5.551558631030846 -0.6507403636065254 0  4.792090117181886 -0.6180653143110408 0  7.814117765407166 -0.507089232304589 0  4.492677825974973 -0.5550301951473079 0  7.53729420532459 -1.727928358971657 0  4.39561191121669 -0.1284291934728925 0  5.4468919142224 -0.6954779328053802 0  7.203284621651058 -0.4632952415390243 0  4.492825009854949 -0.5291666666666647 0  5.793710398652653 -0.7630723875967953 0  6.458368767835111 -0.2109202150465448 0  5.599616398173634 -0.8367905271894711 0  4.404509606380923 -2.81630503403019 0  1.958044766401368 -2.139625308416641 0  6.965020014986933 -0.2966186176315555 0  5.605921729112286 -0.08409458796259428 0  4.012710678088366 -2.566892657044437 0  8.691482123788342 -2.228893908510492 0  5.726406569844869 -0.4190544224550576 0  2.730995106587171 -1.210489627773334 0  5.524892058203076 -2.635183230881275 0  5.557571844405585 -2.727685058364978 0  4.242988267384654 -0.6118255728700255 0  4.277500627748147 -0.7248914181363516 0  4.93165875500635 -0.7810690844303676 0  8.885342031653547 -2.423434941541256 0  4.4509041957724 -0.4825758408040211 0  0.5984434766813767 -0.1263588116367671 0  9.401318403845664 -0.1086638988579502 0  4.683815353747293 -0.222734845998259 0  5.148555041409462 -2.511630818091001 0  8.331142621633834 -2.430094156871411 0  3.072859065560708 -1.530436679827777 0  4.709429403740041 -2.046382855808196 0  5.742068140622022 -0.4655729723016762 0  5.510711302333109 -0.6745377518186502 0  4.50381285533374 -0.3081726645119793 0  6.707558792241309 -2.018707318389952 0  5.377754178400862 -1.041971017150763 0  4.575715507430556 -0.3796345545963982 0  5.382222771349491 -0.389270428702746 0  4.453128782449196 -0.5688022441438627 0  5.048286100206949 -1.584321676337063 0  5.607659337244647 -0.5659945393932734 0  5.534221529574372 -0.4085839605550008 0  4.626130237290964 -0.2061672198139062 0  5.449052756562107 -0.3167961565890536 0  5.195227398191612 -0.974540395157561 0  4.536778039679056 -0.2070826908046504 0  3.238651350545579 -1.049993750521635 0  4.492154065863487 -0.4289745608940203 0  5.90517592355326 -0.2727271222320395 0  5.972913365068486 -0.9763145555309712 0  2.419349089000445 -1.392729712987332 0  4.503277040866855 -0.6234467748098493 0  7.980067688116984 -1.839397791170185 0  7.403015487105339 -0.06288153321990952 0  0.5760800862944651 -1.43677542267066 0  4.492443997296141 -0.5464616891380547 0  3.631827746770298 -0.3179259077502299 0  5.277670284996839 -1.91204850177887 0  5.14227206772956 -0.9933863108686287 0  4.671520208891341 -0.7591744717043942 0  4.399203468042062 -0.6082600812727401 0  0.5053426592775807 -0.9923130344690481 0  7.023312337837 -2.457733240597966 0  3.44866344298586 -2.248039249901407 0  4.403252651615536 -0.5626246550898788 0  4.762192299635236 -0.9446332181478481 0  5.912959063234962 -1.668133653568858 0  4.315296822448822 -0.27822585928139 0  4.655003615079261 -0.9982312865344152 0  5.584336438482786 -0.2089758270053004 0  5.438036976536106 -0.08293051867993873 0  3.909573596762391 -0.3495052057215564 0  4.309978527389004 -0.5717534684469948 0  1.103667294770319 -1.172297441300346 0  2.654240630690314 -1.533934188969599 0  4.783355324900138 -0.1252528072731196 0  4.785566243270267 -0.09166666666667456 0  2.826879226828604 -1.237062845244526 0  4.999092817535346 -0.6145876838453453 0  4.512721341529495 -0.2230346500791944 0  5.119264619136789 -1.657079658964491 0  4.837979610921258 -0.7767494846054886 0  8.192746220305921 -0.1723056956729976 0  4.638382874157254 -0.3291227770958449 0  8.094860549360892 -1.530610019563649 0  0.9819438415926456 -1.971953527042135 0  4.18756515578815 -2.125354893864159 0  5.232225255022351 -0.3894542687637839 0  4.714771403857872 -0.06087154592257482 0  4.760123759892643 -0.04943875858958879 0  4.771562907453814 -0.3210654007392548 0  5.614004830801949 -2.656211114019854 0  5.329228612924918 -1.503673908285076 0  4.465008070500916 -0.4002128814702308 0  4.235271913646539 -1.735982926508403 0  5.246242948174598 -0.6181079013001292 0  5.750013466195607 -0.3229723944384131 0  4.383200772315766 -2.106159189515081 0  4.403584763657046 -0.3998127886549157 0  4.972460152984874 -1.854729816143519 0  4.701602633652348 -0.1219341526699143 0  9.541343154867693 -0.6631397846721224 0  6.024266153421596 -1.646520189702266 0  4.929544383261244 -1.19276424205379 0  7.13490581062488 -1.128505936399143 0  4.589714844408716 -0.9832124290122749 0  1.969010570860733 -1.172871257287299 0  5.432729960956199 -0.329015059043146 0  3.776792010599507 -0.8890337074583121 0  5.412633755438737 -0.3783141088557855 0  5.53604943385959 -0.3117942858441658 0  2.284269188713016 -1.745242990543451 0  4.487420295873517 -1.087480470493307 0  7.163750792222858 -1.215752004061482 0  5.293861354061836 -1.103296659647903 0  5.27695079293412 -0.06611404339763216 0  2.489952081208475 -2.398377685158728 0  3.81842296613868 -0.1020598461691149 0  5.507212196034878 -0.4704186058565878 0  5.601153565671787 -1.911681560777702 0  4.304473773995023 -0.4311491423100533 0  5.216415343390944 -0.0934253388767563 0  1.857118437357776 -0.07829769755360383 0  9.060872235774395 -0.768628269125337 0  5.046627701533921 -1.221372738130717 0  5.565627584369283 -0.2913348238809781 0  8.575353644406624 -2.891046768534402 0  4.786469208603651 -0.309897315168234 0  4.411608374811433 -0.6411829697855626 0  2.464027327879846 -0.141554890036695 0  4.440094052580846 -0.5855593699959154 0  4.167713775577086 -2.522334499086914 0  5.338667393378793 -0.7577025509741284 0  5.363040665426969 -0.7620863225148543 0  4.31216922570542 -0.4794195342388838 0  4.002074688468696 -0.09892043928777627 0  4.499923209143704 -0.3754401435497734 0  6.189923742451342 -0.7924854183420282 0  7.37314812840309 -2.063650950387833 0  4.36703768335117 -0.6209363062377171 0  4.377218534739698 -0.6415907996154591 0  4.503914390671123 -0.3527988445689119 0  3.420393835669942 -2.705506258407844 0  7.245674816091251 -0.5510188336392385 0  4.656536590058985 -0.3894932090146455 0  5.555047254569081 -0.5848642683677523 0  5.546303202074004 -0.1788147120871981 0  5.588163821331735 -1.232196199087279 0  4.429266275498089 -0.3573445645985367 0  4.648126475200252 -0.1974117887149451 0  8.628041396225102 -0.8753367440654266 0  4.336323966313245 -0.2317986566620878 0  5.399999999999996 -0.3784640209612775 0  5.199348155770466 -1.898652372868164 0  4.482245588910153 -0.6402646987300451 0  4.245577986987003 -1.280828167364805 0  5.869995115084308 -0.2009735148115821 0  1.846741932361016 -2.892736214049012 0  4.842249876689353 -0.6478753579745369 0  4.213274285263568 -2.623760330378182 0  5.586085506100075 -0.4409997408369322 0  4.605433263665808 -0.1636226208562932 0  5.576697955161693 -0.3718603730040815 0  5.827170894476798 -1.154930573814901 0  1.774636356731532 -1.097942092333003 0  2.734061133662201 -0.8904731421196502 0  6.254314275203796 -1.385596629594631 0  1.155427873386694 -0.1971148329747936 0  5.647066177508462 -0.4828496002019806 0  2.45916281123254 -0.8787239031715649 0  3.3830414449229 -0.7920435888800603 0  4.626914584609145 -0.07081758770208713 0  5.900145060285345 -0.5995706770887899 0  4.843136545288807 -0.8044856951958035 0  3.122930138292527 -1.45980821022113 0  2.614128826415157 -2.431324987032993 0  4.658064516430738 -0.6547144211629496 0  6.360679915936707 -1.945494754122659 0  3.629137122228092 -1.488200948834921 0  4.772095871220309 -0.2846161310864019 0  1.566813263359526 -0.4762124312151268 0  5.324623713553954 -1.23143485711587 0  5.922862842790931 -0.5719670669191173 0  5.627300366734815 -1.633722863047287 0  5.462873065575411 -0.1709326406128526 0  5.897753087212834 -0.4447742853063856 0  3.957298446632277 -1.61296820505843 0  5.664150992971251 -1.336992648168375 0  4.471467291198435 -0.6064308093541984 0  4.417987378878664 -0.4458240239402651 0  6.423234668433274 -0.5218418547353665 0  7.725420737122624 -2.791993243418073 0  4.457301251395489 -0.3370840404168747 0  4.451059119917639 -0.3183797391497956 0  4.971247244145563 -0.7622954076556624 0  5.758450339044541 -0.9876917316770192 0  4.857142857142858 -0.6159455248001858 0  3.662535483354493 -1.630508334114305 0  3.92183179082472 -1.992033006918065 0  3.791351205745361 -0.954489142511498 0  5.911307835695317 -0.6355868471558135 0  4.192168736604128 -0.6388804671668105 0  4.619726909801797 -0.3900759888006808 0  9.237521337966857 -1.069837894838137 0  9.353940352947669 -0.8482232256653153 0  5.464134661274817 -0.6305439834139538 0  5.688703328745791 -0.4943271371546047 0  7.860593584468356 -1.799165253355696 0  2.920277013014437 -2.293822545433919 0  6.693242357374162 -0.1305650613329632 0  5.236751419086709 -0.0472265912116987 0  5.977024785971244 -1.687066367424066 0  7.642361842838699 -1.745807537801125 0  9.014059840008894 -1.61038860612251 0  2.58189731643057 -2.097405916581025 0  5.524501147753845 -0.3949670919745607 0  5.514502333158466 -0.5662977525320305 0  4.341242802146617 -2.546521868671713 0  6.251303722279987 -0.4146667377164137 0  4.755286519361689 -0.3281569579249768 0  6.610591634236144 -1.763553475564856 0  4.056372727891821 -1.958724083080569 0  3.812876442173341 -1.824019694984901 0  3.204098785869346 -1.553877586692807 0  2.715355791493584 -2.47188124985454 0  3.843582648478227 -1.9691254904634 0  5.227339596155162 -0.3184212238156809 0  4.687748959146133 -0.3788718107566305 0  8.083186789686389 -0.1665727772992209 0  4.683795533717731 -0.1819913056046032 0  5.005192606574285 -1.210934101680853 0  4.083172053802138 -0.5499617119146609 0  4.455806292167387 -0.6310109935166011 0  7.521612086501084 -0.431704675359077 0  3.058075315296533 -0.1241005674599611 0  5.225411979964514 -0.6513561075135852 0  5.279005806020128 -0.7035034457049706 0  4.266038019343531 -0.667506618788844 0  5.058161693981197 -1.797364675813777 0  3.352871170114383 -1.521522568060495 0  5.929986276285311 -0.2377381699882575 0  4.244368020023286 -0.2138788413781931 0  6.078975489101119 -0.5713980882658266 0  4.977530824911795 -0.8413948154941686 0  6.10010232091669 -1.117487873020326 0  3.595618585514614 -1.896191873444744 0  5.602549026649901 -2.027087374257669 0  5.395940143946896 -0.3100589475998343 0  3.748115913604902 -1.012275765492474 0  5.093022939321127 -0.7952709438432224 0  7.00560899663831 -1.307378068251915 0  5.38228308296741 -1.515980297707377 0  4.937991692076568 -0.6151966177537499 0  5.422551050902253 -2.137708533015001 0  4.499602174343012 -0.6121769207623311 0  6.942022236725692 -1.594266684835509 0  4.736776363610955 -2.117161313116195 0  5.178448814955923 -1.671259849085631 0  3.764832549370003 -2.248618410656095 0  4.411408588199066 -0.4158280999540895 0  4.568056956028942 -0.6292874264366916 0  3.510435437254635 -1.869449373205745 0  9.813146665968528 -2.862660729923583 0  0.1930921998457684 -2.865353876430081 0  5.66358869397257 -0.9385453730830053 0  5.295902880669645 -0.2558300768023447 0  5.341589985719935 -1.277177994276679 0  6.084038625786251 -2.507703992888521 0  4.475568498642261 -0.3951511789778268 0  5.227564454219061 -0.2841853564012708 0  4.798288770662297 -0.8109239373246184 0  4.713431342293482 -0.3784504448645842 0  5.851785947649278 -0.6531056115427043 0  6.744615195529418 -1.133315107602179 0  4.697534732129954 -0.080910098473717 0  4.771653633867326 -0.2683862960904562 0  6.005860082810766 -1.579151283696048 0  5.316326530612242 -0.6334994102552766 0  2.710454474101302 -1.123181226173239 0  5.357890435476539 -1.324733505688338 0  2.886869934486948 -0.8606493584084645 0  2.499167209350655 -0.9903705545648517 0  5.568220364753628 -0.6540871304117584 0  5.661638475220389 -0.7236175616496476 0  7.319837968999424 -0.9838563750729317 0  5.610038330622841 -0.508965747440657 0  5.908287123094077 -0.5390987942216927 0  4.220731171415881 -0.6448047529205645 0  8.343869858354195 -0.2631942815925847 0  5.095205595499966 -0.704372921430189 0  2.082424811725727 -0.8753264600685141 0  7.083183808183619 -0.8146823360520155 0  3.426774440519218 -0.4361461813588672 0  5.544720285131425 -2.087344076638413 0  5.838542644790328 -0.9078773451780165 0  4.769694103693727 -0.7764211889871468 0  7.599934194545574 -2.0936975420669 0  7.18814154433985 -1.053988567214793 0  5.664104943834296 -0.5756933214535509 0  7.209577137195156 -2.396275487723398 0  5.55417641993819 -1.271372753040529 0  4.212459650544392 -1.031917800144616 0  4.193774953516112 -0.9968640486246079 0  7.204675827264723 -2.80367612321241 0  3.312695139994832 -0.7734165579094737 0  4.639490031926773 -0.3150354709806904 0  5.083459840969962 -1.494335463332642 0  5.114983168631507 -1.817030930912922 0  5.396109367940578 -0.63136119490776 0  5.415164745958728 -0.6336956433230854 0  8.360952765005967 -1.004871507305717 0  5.087174974873854 -1.2299755516409 0  5.032265262763834 -2.64481915400991 0  5.537258259740346 -0.4684024597927192 0  4.425740953176189 -0.7371662322242216 0  4.776436107265816 -0.6901842927974066 0  4.044448298473831 -0.8117084995806296 0  2.296038415691799 -0.1476145057920912 0  6.264676737792714 -1.276883874410265 0  5.937933064017498 -0.8974272763908445 0  5.889492258098027 -0.1621466198057913 0  5.676490640906444 -1.390387474046761 0  4.059056609638567 -0.2191849896396496 0  4.502579893170517 -0.7602629177572315 0  4.760838211607959 -0.3804290937585142 0  7.936465890276087 -0.07449690358451733 0  5.863617809030081 -0.1267459814178404 0  0.7091682832477373 -0.6598719104228365 0  7.707619427213007 -1.926643890046379 0  4.494496654265768 -0.6452873316329352 0  4.582024416301619 -0.7185064448902152 0  0.5369144763208649 -0.2324277162008888 0  4.533040789854461 -0.3903166899383945 0  5.506471974346047 -0.3746813902970805 0  4.037696781953385 -1.080102455463912 0  3.657695395796447 -2.566999810500574 0  5.212965781022281 -0.1267628823674103 0  6.365457121917015 -1.250060370623992 0  4.913871453796299 -0.6358136811840278 0  2.348366388219667 -2.899921645330389 0  6.40349581874011 -2.822122492858776 0  4.706447244310909 -2.648021294211415 0  2.452408117080817 -1.847284489455601 0  6.750481318763437 -0.658947134936964 0  5.884993377264832 -0.6598518537244891 0  7.203248665860993 -0.8913762441976203 0  4.857803366930718 -0.9273561230077029 0  3.899026288218389 -0.4369120191229128 0  5.895014993571863 -0.5038794354106212 0  4.183335974089164 -0.3669637828137868 0  4.484084299781575 -0.520148994065292 0  4.13500336287496 -0.6380424507797098 0  4.881432901651108 -1.004550713839272 0  6.632062406987746 -1.616752919302999 0  2.846590005770014 -2.361479098474138 0  5.212547173706977 -0.1745450593934059 0  5.469736585931702 -0.6995542486328915 0  8.021282712988057 -1.965809207833675 0  4.361361008626534 -0.6004829561408906 0  6.67077784130042 -1.5527895452007 0  5.937025688818183 -2.81849773543872 0  6.38933959388411 -2.023407311788296 0  6.370473575135605 -1.524256455827616 0  4.390904392642734 -1.103533025340868 0  4.443914230774794 -0.5625856277971829 0  5.232854993648491 -0.6720195043769931 0  5.421051564911083 -0.6524341780210252 0  5.640713634560554 -1.688652843658622 0  6.868232414718175 -0.6472093493559997 0  5.431352840801728 -1.284581014481914 0  4.743749999999999 -0.3908129526869637 0  4.774332988414851 -0.3784488427047086 0  4.450267112952945 -1.079821103563306 0  1.998677292655892 -0.1548437973462855 0  3.352104633467894 -0.1138201681949318 0  4.664034877763306 -0.2098858737158522 0  8.615534636678213 -1.329719603839104 0  7.75036231658928 -1.769302021381364 0  3.428549973993557 -1.847327266255857 0  8.408894624097798 -1.152401276847427 0  5.505039641434673 -1.262166606860378 0  4.78350272899935 -0.9660286690410091 0  3.836131017599916 -1.062448944993396 0  6.102907410193745 -0.6182088384129353 0  4.782486492926564 -0.05797199458840652 0  4.783389504143218 -0.0207960835872496 0  5.215761345924428 -0.02041600149645317 0  5.214433756729729 -0.0583333333333218 0  5.427184543511048 -0.3792621300399355 0  5.498582965227893 -2.145819675372111 0  5.237857325780026 -1.684263538463272 0  4.226075725239514 -1.073323675574177 0  5.754636269871096 -1.055300786421639 0  3.965730654609669 -0.8248139995450245 0  8.850664314837479 -2.265117607565885 0  6.773907499692672 -2.812105992841088 0  4.257795007046945 -0.1139192065153185 0  1.350556750770292 -2.757446783361077 0  5.015511383172711 -0.748680016137164 0  5.957374102889568 -0.6845381971620532 0  5.514110197980308 -0.5 0  7.485713676200852 -2.080729094841788 0  8.186981064705044 -1.431071349501078 0  4.385102394069704 -0.219178390738763 0  5.236762012332821 -2.809323854211445 0  5.505596348125625 -0.4296907373688863 0  7.250496853658535 -0.1299012657513277 0  5.72109584605383 -0.3204731848902367 0  3.859139136148362 -0.1458037650094695 0  4.849834655350004 -0.6722425822886885 0  5.514507085217201 -0.5170943889092192 0  4.95239803883285 -2.165046453551357 0  4.493319197302439 -0.5041670925216548 0  5.428188990794141 -0.7500816492196176 0  6.569103444525227 -0.3327731901316595 0  6.344220436579936 -0.9073029367141987 0  4.955396857052989 -0.863553168648526 0  3.826868274746922 -1.894961945970999 0  7.293634825761085 -2.540402378559468 0  4.384580354599731 -0.5578872829333721 0  4.312646002974147 -2.083685135212982 0  5.726829104654591 -0.5966152509152947 0  4.728843378453851 -1.017054698826444 0  7.238208233741439 -0.9779030467200885 0  4.412206059396169 -0.3286244820170701 0  4.360657419277808 -0.660257400061911 0  5.551940556809234 -0.5082767450111303 0  3.669363145751357 -2.914733768393336 0  4.254149125090115 -0.7469543201651376 0  4.966475995930399 -1.200878911046293 0  3.088237012876843 -2.909870803607173 0  4.673407217928463 -1.237690659469138 0  3.588522759645543 -2.641284157328977 0  6.402561427276316 -0.04647043483410451 0  5.174558524134047 -0.9941627345171653 0  6.460174085728349 -0.4761708690465531 0  4.447587969906481 -0.6977359136158815 0  5.609938078707077 -0.8671833541750835 0  5.493364106029931 -0.62324301128722 0  3.704058632728233 -2.314809958479893 0  4.310551688558933 -0.2472400783193469 0  0.9660121802883559 -1.302867082585328 0  8.933054159847119 -0.2224925133035369 0  6.742782385469871 -0.0596232903565741 0  9.031171278610431 -0.08984859158917713 0  0.5994696364491761 -2.429432879296744 0  6.199841595993221 -0.8457095797469344 0  5.368657063254259 -0.1891142300992887 0  5.739013596706522 -0.6637132383168254 0  6.39392249207803 -1.592113020062371 0  5.570046316917669 -0.5874199696352247 0  7.667009118539331 -1.298581665273354 0  4.557531645309902 -0.6501980770800557 0  8.304041100726071 -1.785979040988815 0  4.775131793144225 -0.6351824159189842 0  4.057200344286813 -0.176897777326612 0  5.517207606552758 -0.6271163659428316 0  0.9653386480196664 -1.798356382771991 0  7.001918000155467 -0.2399008759868071 0  5.397075138622554 -0.9529367952662668 0  4.266531040176055 -0.487068828987014 0  3.846433382840958 -1.603785231380878 0  3.815891616490118 -0.4290675883754882 0  1.422913731549004 -2.882863199318457 0  6.593265009241298 -0.3977028840552141 0  4.485649370122744 -0.4421479404637956 0  5.211452463325839 -0.258333333333328 0  5.03699206941972 -0.7566476618472089 0  7.850355790189484 -0.059952105290765 0  5.317926488975119 -0.3349340935383038 0  5.060025063521847 -0.6134836164198457 0  8.371896358507581 -0.7820675996332578 0  4.51716684856672 -0.3411561591815051 0  4.513503712813764 -0.3258988182847751 0  5.558285843168908 -0.6683975132772548 0  2.106275890647405 -0.9930136384940313 0  4.329095174699613 -1.13335920374621 0  4.281533975464023 -1.523331577136142 0  4.5995993463849 -0.8969550224439709 0  5.542749773434259 -1.079845373198179 0  0.7263482744887861 -2.270767599218962 0  5.225264928802406 -0.3324292389585497 0  5.690917492795824 -0.5751876363753357 0  9.152069557485735 -0.08920642747307062 0  3.838893906527521 -1.113317025304093 0  7.754650474683011 -0.1640607528171518 0  5.758396464570699 -0.639140212123024 0  4.538843886143876 -0.6673581310939087 0  5.557623981368096 -0.5191931518726407 0  6.773519553366206 -1.210725513312994 0  5.650377423915821 -0.9967069762397728 0  5.065109951792537 -0.7890248066528702 0  2.496398659619152 -2.179560927638285 0  3.925350382489921 -0.8671578321900546 0  3.167230766797922 -0.1778129950341709 0  5.682663166122669 -1.075603887383234 0  6.248919440664949 -0.3196321428091011 0  2.624385923836908 -0.7737608445906656 0  6.343203973364744 -1.65234153258308 0  5.400760809519941 -1.571947968566667 0  3.515407722330984 -2.715803424878963 0  4.041426289558133 -0.1324619820686774 0  5.322136833568693 -0.7764828267836466 0  6.619298175009265 -0.4621066774668645 0  6.63646511011558 -2.434502927197913 0  4.010712561693448 -0.5483930010206893 0  4.016821768307877 -1.021913644268104 0  5.793770431460395 -0.8958490679068543 0  3.239707406339664 -0.7539084195685988 0  5.514442772607119 -0.4812758634187777 0  1.00478463973438 -2.894315668427255 0  2.815888598424479 -0.1244822078996075 0  2.55030309597257 -1.501690760761714 0  4.427162627940154 -0.337862449406247 0  4.858594203989574 -0.6971237288248446 0  4.286491437763075 -0.4711394955075594 0  5.240178959332149 -0.6913239040058752 0  7.848002515013001 -2.80394968142046 0  5.749458867145933 -0.6886096219760467 0  3.941581041648761 -0.9270942023094231 0  3.639887840034787 -0.1021548722738439 0  3.731553686819972 -2.388638974151384 0  4.463934475208756 -0.4672679070534838 0  5.294862372675847 -0.6316919752336441 0  5.608064175807124 -0.3288807355680881 0  5.075568391064462 -2.123589879353283 0  5.564360490439844 -0.6892980819406781 0  5.524608670986477 -0.3848462428539916 0  8.395138910824803 -0.1735314747993182 0  1.994498919059437 -1.917118293503554 0  6.465744743125402 -0.1144516547270296 0  4.569331016438412 -0.6563234653587479 0  6.028278420854292 -2.01685978010943 0  4.171848200348204 -0.9598135326613593 0  5.142037918087659 -0.6128199157360903 0  5.625673136883101 -0.5688007198739806 0  4.013221806565969 -2.811550306592765 0  6.312541434411703 -0.155589539789422 0  5.699512791368759 -0.5199801821118986 0  5.295306955457368 -1.697878107425905 0  4.374739382755005 -0.3236673407118866 0  4.28160696415574 -1.119746221710453 0  4.142112977515047 -1.006773635085243 0  5.55112668398654 -0.5299281621326218 0  4.255094022170614 -1.792440333393483 0  4.557590729758576 -1.497043430818735 0  4.664694395482371 -0.3787541782443988 0  4.65042554162351 -0.3655469641790856 0  7.272657547258684 -2.908610638068113 0  4.393632589969942 -0.7590950822499165 0  5.143266008575838 -2.129130613566527 0  4.351248852937633 -0.3438725659946162 0  4.39619253972616 -2.663205901435221 0  4.549846057339973 -0.3796304775376329 0  6.613271395663014 -0.04966220866863269 0  7.42851004458193 -2.434323235020959 0  4.381702785915311 -0.3735183512397413 0  3.02018910204093 -1.591824171779134 0  5.912414751906183 -0.1257619450632337 0  5.549437575904095 -0.7079924391415267 0  5.372042941683731 -0.9414098654485168 0  5.85168383468273 -1.652756517805376 0  4.515980473335134 -0.6507438248006877 0  5.449216167471024 -0.7497493245670243 0  5.222637296665742 -0.3675897514749564 0  4.974807072463073 -0.634984000062316 0  4.602903786653616 -0.3782607039691064 0  4.458532619338272 -0.5340997864677526 0  3.436396065007609 -0.9868701724876263 0  5.303456463363937 -0.06527301505451355 0  4.011396613907458 -0.9755488735272984 0  6.356139927907213 -0.1023294192000903 0  6.000741388894404 -0.690123566989076 0  5.697494857145922 -0.2501657033452063 0  4.616390961173932 -0.7376755390387574 0  4.598643216722288 -1.217860757028368 0  3.366925132963245 -1.903642035464714 0  4.304785343855463 -0.9101195647104507 0  5.693684361431 -1.121971466061807 0  5.653438469964993 -0.5010992512375085 0  5.587904466982259 -1.416917253699442 0  6.892928060608788 -0.1661842899574979 0  4.284717809788505 -0.3845798253784789 0  5.228517497163502 -1.109782651776012 0  9.228672632681725 -2.726478784748895 0  7.661614314463606 -0.05789194751273374 0  4.468760652042231 -0.3053379242515508 0  4.76795762554166 -0.06827685283542917 0  1.919828553942743 -2.785796713935463 0  7.783071087333927 -1.866741543107914 0  4.785511649087759 -2.257029152507734 0  5.69746440651227 -0.1684832669719767 0  2.561347998515211 -1.986673533902614 0  4.839020209020927 -2.210591229694329 0  4.493459318809983 -0.5128545011884393 0  1.573200098376436 -0.2785434471097399 0  4.628533593266696 -0.182661064293856 0  5.709105529126393 -1.046632655785506 0  5.85197775113377 -0.9457731209212159 0  5.748060845257917 -0.826481469799788 0  5.619345321917812 -0.3482808748505077 0  4.438736308172116 -0.8604109661791698 0  4.789709940247521 -0.1756482045844829 0  4.882541758262692 -0.7035792290464822 0  7.560063731071452 -0.1505104852107109 0  4.585026560971349 -0.7348635409178168 0  5.590874614083192 -0.8891847657557091 0  3.479970647431008 -2.347445723175872 0  9.743749352878943 -2.693529169906312 0  1.811911369086136 -1.767259432886549 0  4.401325891543938 -0.4279723331115601 0  4.476031171298697 -0.07514562062552055 0  4.528127701779622 -0.6506373079630643 0  4.910298531184284 -0.846450913333075 0  2.030469933640359 -1.080333969617743 0  5.472145700502153 -0.7809630842574447 0  1.680204326176128 -0.4189468192717063 0  4.554075080737743 -0.6285041121730603 0  1.616151298502144 -2.79628782432895 0  4.700839326469476 -1.426926180705349 0  4.474899240040457 -0.3845362913180526 0  4.55192028606992 -0.1334090195418816 0  9.445891934003624 -0.2177192364331118 0  5.092810848254039 -1.547027881640512 0  5.665954658506473 -1.03438551605833 0  5.983531479476636 -1.012855613830176 0  4.787325969295123 -0.1897259274285092 0  5.355130479264444 -0.1710451142218128 0  5.231656576666293 -0.06666666666664844 0  3.924015368086661 -0.6198216476233258 0  2.527353521132825 -2.808884717894484 0  5.533074521682035 -0.1499288329590074 0  5.757458659854765 -0.4481511181512603 0  8.297167424704568 -2.915456133356 0  5.523667327894739 -0.4129085005078033 0  5.419594603318469 -1.629683641338682 0  5.513469831747067 -0.5402659935365089 0  4.821148528922818 -0.820506666272685 0  4.254005583925894 -2.134011546316466 0  5.533763389941851 -0.3987089877997998 0  5.229494214231646 -1.17381051852375 0  4.807965570178696 -2.131864147964484 0  9.320480205475981 -1.461963992010987 0  3.971017146914836 -0.5887074213680603 0  5.216105283239673 -0.6336820748501033 0  3.547554146619586 -0.1069537456540313 0  4.073566913519752 -1.335050746886777 0  3.162334146002272 -0.7299670197247754 0  6.119051659102245 -0.6644548518376129 0  5.600903122076163 -0.4415819977299558 0  5.472153017540121 -1.29864113983884 0  5.556641514980085 -0.498960820567665 0  7.140073921439047 -0.1958020024997329 0  5.999347728901911 -0.908173474029023 0  6.416466182016745 -1.462900290707429 0  5.982480987466151 -0.08902246193881314 0  0.6711510009764616 -2.096907023691167 0  3.812232789608292 -1.655118277650209 0  6.02684741818206 -2.824360632354022 0  3.823922210879008 -0.5130679676579502 0  0.7798448495055812 -2.754651849225043 0  5.989928663260445 -0.2759470321761279 0  4.777287552598869 -0.7981941721688526 0  5.811366083954946 -0.9941426793558088 0  3.371617447964001 -0.4843548075059476 0  4.853781535625465 -1.009859810498586 0  5.666133088430079 -0.4854043813732059 0  4.420851474714208 -0.110604159852876 0  5.590080082480332 -1.52448942722754 0  4.741472572012968 -0.9287681576593746 0  4.343013398907538 -1.545972563734266 0  4.486857039695965 -0.5006211104007541 0  4.440685099497044 -0.4905369142841127 0  5.450575509006631 -0.2481558827618582 0  0.411663631730999 -0.2270449330706041 0  6.475681120423242 -2.038294530808138 0  4.515615715156323 -0.3911657567314244 0  4.471644597715699 -0.8706107251892937 0  5.53534072579108 -0.7955520182777681 0  0.8582131479628465 -2.888411755822029 0  2.459125856876583 -1.945664214547508 0  4.603777761644944 -0.67339460980793 0  5.92339828536114 -0.6706645780676129 0  1.91085597329835 -2.035236139741944 0  5.574559761317541 -0.2738787940707978 0  7.522068607373669 -2.580361633231967 0  4.510258453983504 -1.47971226336512 0  6.543590792465027 -0.04661811434041985 0  6.502484620710358 -2.831314180864024 0  5.300545503268646 -0.379937701217028 0  4.686585227486682 -0.9132278607537678 0  5.639415455638115 -2.736922269656835 0  2.617297482291406 -1.094101071232443 0  9.835612192140223 -0.4973002715343373 0  4.561250741006761 -0.6178028213161857 0  5.621273457505948 -0.9309027294501149 0  5.914083525850963 -0.4726174092618589 0  9.363758435309609 -2.739129658550977 0  4.652132292933415 -0.0924758390892304 0  5.961705214333054 -0.1255994556094104 0  5.252066421577328 -0.3806381240719476 0  6.141412027280506 -1.69424084187254 0  5.748724002692221 -0.4271086349820825 0  2.4192799107815 -2.233435615751244 0  4.64958269821548 -0.3508944187995398 0  7.622342566129475 -0.4541526921035461 0  4.023798550403272 -1.409206531983575 0  6.031121385504425 -0.6583848189821511 0  5.552417818697245 -1.44812050891213 0  5.316247409871512 -1.750339636750437 0  4.238019786854553 -0.1741371435472545 0  4.781689086253209 -0.7134063462860161 0  6.036729246945947 -1.703154971095927 0  5.125944387482833 -1.235373803496504 0  4.639384788963997 -0.9682720196455684 0  4.355838180505079 -0.2096191013443056 0  4.755576959548648 -0.2612991804336082 0  5.378162523976448 -0.62880749006782 0  6.79312232648735 -1.572451704779475 0  5.749556066356008 -0.5968859075462154 0  5.735116035960184 -1.705654814121671 0  4.366318404421952 -0.7553316420911876 0  4.65587650399809 -1.364466020601774 0  4.385961746888382 -0.6231937314186935 0  6.804427198543971 -1.286124490550367 0  5.514335691883851 -0.4657776980521273 0  2.649587639930195 -0.1278902424581809 0  5.113992995471042 -0.631585442161759 0  3.478277026934212 -0.1663340837079135 0  5.643546332086777 -0.4182127802097722 0  3.86389941354512 -0.6154659510932614 0  4.506015846658389 -0.8735051485549538 0  7.135048994446576 -0.741018267541633 0  8.708879616617768 -2.911537532247586 0  3.362042009987258 -0.967395222084344 0  2.540193899020529 -0.7449150053104868 0  4.395257183055114 -0.5338244700697389 0  6.881167320127547 -2.824958930910621 0  4.575500543859527 -1.390679341546955 0  6.864243387629855 -0.1020159345288301 0  5.590171252321349 -1.161191307387905 0  1.027992115247211 -0.1972171365465925 0  5.227590343495917 -0.2286823839462413 0  4.667227490323971 -0.1930892054522184 0  7.761540828452865 -1.319338964371897 0  6.264329633317084 -2.287313289622051 0  5.313051850047981 -0.3805741267716143 0  4.248533354395516 -0.5050716089748895 0  5.529745355473473 -0.6151097155323827 0  5.219721894442793 -0.8016271161155433 0  1.063873324470319 -2.783979778046507 0  8.505801427105599 -0.1686740373239317 0  4.427038251867085 -0.8321852329255137 0  6.603048962344712 -0.2717915530395085 0  4.138538387961157 -0.6834452639873942 0  6.242179776737087 -0.08743279712691532 0  1.495285319711803 -0.704134093105115 0  5.513251942796861 -0.5583333333333281 0  5.329494619604051 -0.8014404561059915 0  3.76646725378642 -1.786055335811995 0  4.658529831139775 -0.774281977756035 0  4.62582109697763 -1.701107626023062 0  4.751320663950264 -1.439694756815687 0  6.977564549471961 -0.1837549714060336 0  1.718514178057739 -0.1626224718108757 0  4.116482299315044 -0.07672529166071174 0  4.540985467726649 -0.3010414655220031 0  2.927433235632586 -1.566334377859684 0  4.913873055049711 -0.6852844342118787 0  4.340731947718432 -0.6918897823255072 0  0.49687268854297 -0.7941161821926548 0  3.308602195048737 -0.5315900669737479 0  5.560204800003529 -1.117398304084852 0  4.342860994958861 -0.5947133519912811 0  5.498091816368192 -0.3834571494042009 0  5.770974200452669 -0.7982730085477326 0  4.52519159115292 -0.3131257386083979 0  4.63125 -0.3923088079385884 0  0.1641248876031671 -2.500089084326223 0  5.501194963693668 -0.3912833747804523 0  7.660946609052065 -2.007406746532804 0  5.389083426372107 -0.3801778374747382 0  4.394965247655915 -0.636851594222045 0  8.668306528511499 -1.473550083160418 0  5.626366693540598 -0.509103586201946 0  5.747284142846459 -0.4875392113019261 0  4.58768629690804 -0.3800908681643742 0  5.459215226358599 -0.3794184604150299 0  5.900044384952125 -0.7235752304271336 0  4.563092901234193 -0.979874396735914 0  1.551861007246353 -0.1684662276838225 0  4.39518646429193 -0.8305534606044169 0  9.210786596532916 -0.7605259571073798 0  5.287222114652072 -0.1292888760646083 0  4.402737723454029 -0.4412812708099492 0  5.513091165437066 -0.5337809595639269 0  2.781380762728105 -0.2674409581420625 0  5.451536070066694 -0.1480234311436894 0  4.777366306291499 -0.36649983089587 0  6.369477165210569 -0.9659293299727312 0  4.104875385998427 -1.040045490662744 0  9.204984270476993 -0.1835858649194746 0  5.444343585335245 -0.6305764180663938 0  4.499001640578115 -0.3909652606365579 0  5.707307279573658 -0.2942946553956796 0  9.312086503622744 -2.038826635601602 0  8.947866644361312 -2.751953801328178 0  5.234555200552327 -0.3687214534284351 0  3.738861468323751 -2.83976881952898 0  5.42734666213551 -0.6696013471026016 0  4.846135451249542 -0.8287850876346744 0  4.032990079074537 -0.7576303703914125 0  5.034352630368859 -0.6322660267134925 0  5.519977201374638 -0.5802326459867675 0  3.298050843279022 -0.9448228104092997 0  5.569925466685885 -0.6244539717386456 0  7.653614658245475 -0.5319653500281493 0  5.48092311700043 -0.3919713066080326 0  4.425457800809358 -1.104875049355074 0  3.142145217307564 -2.834711920112406 0  4.498331759060415 -0.3238381240449997 0  7.656304085007619 -2.473023430037961 0  4.98420943747653 -0.9559133178354698 0  5.057253561482289 -0.6899573996075703 0  4.070387614883143 -0.6990150583657891 0  5.52821666486981 -0.3526180915522594 0  5.008053111594051 -1.561386855857131 0  5.685748511862529 -0.5360264652488351 0  5.186138193857468 -1.167939981294959 0  5.426193461033028 -0.04625834694451703 0  4.348983326423622 -0.7182912840734659 0  5.516291563727553 -0.7103126395348935 0  5.187437224122256 -2.227373281587025 0  4.773680054698666 -0.1498094569347244 0  5.313885671457843 -0.8221773210977434 0  4.560055242350812 -0.6379199555000433 0  5.640019847480882 -0.7140738402571789 0  4.487240176968563 -0.2144221050747934 0  4.753770071573983 -0.6116067791422202 0  4.826451771653758 -1.009190880703347 0  6.130317474761947 -0.7027938995866364 0  7.029143569847044 -1.244860376468832 0  5.564015565747845 -0.6095803228483456 0  6.881032115776665 -1.298387517064077 0  4.223202280806715 -0.969537457315088 0  6.347972270255737 -2.298302516380911 0  6.518311143438426 -0.4807985449523231 0  6.054680106748912 -2.086802982192268 0  4.611587289155589 -0.660529666228623 0  5.438135146942055 -1.688639006268875 0  5.498725000864097 -0.6847433598138849 0  4.893287850588407 -0.6334817458666119 0  4.486889908847039 -0.4166666666666616 0  5.347216144734475 -0.1497375152255631 0  5.098094492156588 -0.8190254812127473 0  4.508451572120274 -0.08019977947376744 0  6.813876927180891 -1.642507174644839 0  4.795824869713113 -0.9100547311467514 0  5.44375 -0.3925114400992797 0  4.452459748420811 -0.5911788751882836 0  4.94180207631566 -0.945943540043757 0  4.383094098472279 -0.5423525257494308 0  4.611583546134074 -1.254199704367195 0  4.490279325621382 -0.3774382627908854 0  5.468482627931357 -0.3921784153654071 0  4.995620821702161 -0.6876081730630752 0  6.569447591737913 -2.055903140827557 0  5.480761526527751 -0.6228913849281933 0  4.486921941962662 -0.4500000000000073 0  5.157581643759485 -1.20068935538443 0  5.546415933280546 -0.4679139658746929 0  5.32446390982276 -0.1509001970218782 0  5.315908076930016 -0.08700906464643143 0  5.239409020006423 -0.3794144683089451 0  6.454896200080833 -1.408467007914855 0  9.154704330346192 -1.444776332518228 0  5.184627525752767 -0.791421071257695 0  5.784826807954301 -0.515175860642646 0  6.01135311010661 -0.2428589870522539 0  5.930193416236771 -0.7792905991510123 0  4.486197369905656 -0.2993957348108884 0  4.23250250666221 -0.7699475062864491 0  4.487380146875457 -0.5834435910640449 0  4.461752490837878 -0.6106124705429113 0  6.076162044890823 -0.6627496933420395 0  7.964910891714664 -2.815876252011553 0  5.076100998159606 -0.8417302727565631 0  5.720093445150287 -0.1143762533173167 0  5.197996123111304 -0.6327060429331557 0  7.223488135195256 -0.1892437094941397 0  5.759306482360311 -0.8508860697974467 0  6.181546498364239 -0.08855587242635066 0  5.208984232016117 -0.3896999304923672 0  4.791203545860776 -0.389703886002996 0  3.280936091412583 -1.877402486393553 0  5.230118765949935 -0.1050358814576244 0  4.28232087155695 -0.4358634950531528 0  5.499531448211665 -0.6125491242873231 0  1.258621577131736 -0.1744210922918454 0  5.60695007276365 -0.2170274323669283 0  4.873794954233017 -0.8359664649441412 0  6.641288367775377 -0.2186519214222045 0  5.632091610450034 -0.5845818980386513 0  3.75859094079495 -0.08644811544120978 0  6.635405364501622 -2.364454485045229 0  4.622672686263968 -0.7223053662128283 0  5.225773863535449 -0.3559436671360885 0  3.841130100371653 -0.5627882985357839 0  1.903199856332615 -0.1393018124093039 0  5.623750451157468 -1.136625041492171 0  4.787066338494743 -2.654228547836198 0  0.6349018981772119 -2.746013274225139 0  8.319581888753516 -1.23438971305159 0  5.57557587930212 -0.6415989841885636 0  4.749202961260947 -0.9990768060053116 0  6.176221188323293 -2.376866895639539 0  4.505848262530908 -0.7039889392478753 0  4.242969995174739 -1.107599979810955 0  4.441703819180561 -0.3312547789501232 0  4.11038494157595 -2.935021228606623 0  5.828794558309092 -0.1344627993767489 0  5.302945385553554 -2.833254120187154 0  4.165258173824164 -0.4330074258377337 0  4.80176805535558 -1.447831020777137 0  4.230284677971412 -0.1332002801352554 0  4.705246909270577 -0.1008557192511459 0  5.46630475141857 -1.8354297710645 0  5.709594901875851 -1.92359289755391 0  5.555310817837871 -0.5404944936386256 0  1.864012646976891 -1.166704554679054 0  4.502059551672722 -0.3837862683740765 0  4.912228733038156 -0.867476679686047 0  6.261217197314839 -0.2402553563716323 0  2.641986087810393 -2.815431238405768 0  4.445639120207202 -0.5512774736849828 0  1.807138862426792 -0.990418648247901 0  4.272246470129605 -1.475431188638785 0  4.390692966274282 -0.4511890669391423 0  6.507253292079879 -2.345015573244071 0  5.707775188960695 -0.7591636450557676 0  5.144931180635285 -0.8336853753993951 0  5.665945332639343 -0.06704765543228053 0  6.112344168666959 -1.158124145388743 0  5.760105368958836 -0.7164524983854408 0  4.777050292474241 -0.3492559024050794 0  1.688124210960214 -1.75923369520282 0  4.542094157511299 -0.9112075849588629 0  1.599208016258857 -0.3752770627586628 0  4.628525109703182 -0.66190730548328 0  3.569201735547842 -1.464439845368083 0  7.392585707714458 -0.9951628811421643 0  4.603030906731086 -0.09258705941651213 0  2.459369397485161 -1.47223065507721 0  5.30337796769985 -0.241155445849722 0  2.958607774699331 -0.1915478077511108 0  4.444621268915498 -0.5735378755918796 0  5.222463068358179 -0.8253682641403376 0  5.343988806858829 -0.9777341160018572 0  8.839952348602589 -0.1876649727511654 0  3.961799328685333 -0.1335739947632859 0  4.777688994105701 -0.3348632381702041 0  6.236022875819751 -0.1720141639803565 0  4.365454394023183 -0.5518936736237477 0  5.09183673469388 -0.6296962596480994 0  9.296903132573753 -1.269036246285149 0  1.664592255334503 -2.90492015459126 0  4.950796661968565 -0.6770946473256692 0  4.730031366281796 -0.6309439416089965 0  2.011421548265028 -2.605146280566663 0  5.405492308033733 -0.2980176350517274 0  4.931848245272639 -0.6923127695878595 0  5.296509402610268 -0.3700039173753393 0  3.810479413458701 -1.757244841958456 0  4.768582950668979 -0.7267566810114691 0  6.908153770347193 -1.662952751141972 0  5.173663500938529 -0.8069634147206883 0  4.705268459387955 -1.717941278225567 0  5.446554626035762 -0.2311463867154004 0  3.828727471448429 -0.1876854211470449 0  7.090097418787047 -2.501713456775041 0  4.38649243531567 -0.5112702974052848 0  7.482450541011853 -0.04691463062781565 0  9.522690530106608 -0.8471168703861924 0  5.512686284783635 -0.4411250544302341 0  5.520290915513906 -0.1249694577410079 0  5.210067267851769 -0.1415305928238697 0  7.420245047476176 -2.811281840994664 0  4.648404137819437 -0.3366112561256838 0  6.26787434119203 -0.1380031222702058 0  5.140041888531585 -1.266400265045822 0  8.407928554849315 -0.894089425785487 0  4.562715356592614 -1.203790998676016 0  3.077666752934911 -0.6305671870304633 0  3.451945724581537 -2.78443163402043 0  5.63868689928923 -0.3495477420224147 0  4.273384462895833 -1.886416100834826 0  5.322497999920023 -0.8466509440205258 0  4.94102576498337 -1.225617663083753 0  2.532626553675005 -1.064039365508284 0  5.031419121006793 -0.6783214295886784 0  6.281505621535192 -0.2876459599975132 0  2.839430782610771 -1.539620981438117 0  5.757875045508717 -1.665454100639871 0  6.655036920052952 -2.064727435078352 0  5.45630927418034 -1.747071734427622 0  7.191878876091208 -0.6706482282026989 0  7.450433266194352 -0.9171174962239157 0  5.527637788177502 -0.2937593283346189 0  4.488874604876818 -0.7493000977698243 0  5.624584951769619 -0.4367392754981105 0  0.9140735078367435 -0.1877627255634837 0  4.197581141012825 -0.1211621524978355 0  0.8316123479411788 -1.447691572787276 0  4.608565281813424 -0.1407456791813866 0  5.6694104633548 -0.7450974474155734 0  5.582901407181675 -0.3564918336792835 0  5.513453147241586 -0.5823511063880868 0  5.495056040582474 -0.7845405381509076 0  3.783450330567893 -1.184622257454808 0  4.972582024169832 -0.6830210048345269 0  4.464327835900851 -1.468305618506233 0  5.672551699978203 -0.4257070733038484 0  8.392598630210646 -1.71176635505543 0  3.835983671028751 -2.851855446730407 0  8.661508080958999 -0.1848476088381292 0  9.53404722922069 -1.78394386362027 0  6.114687916544502 -0.1440157856117539 0  4.485948707624369 -0.5601626763201881 0  4.609568917652203 -1.404531778748527 0  5.324506752038071 -0.3818212517788451 0  1.299669937276778 -2.627697287850459 0  4.1624970314892 -0.387499827308377 0  2.197697424948225 -0.1322978046620533 0  3.313853946113224 -0.1646989123667744 0  6.648106106300426 -0.1027756654491929 0  4.622237864175545 -0.6220285265978988 0  7.376988333710356 -0.1262717686376706 0  4.74985789500008 -0.3829337840917368 0  5.268482745384289 -0.3929724030921469 0  7.101832856485837 -0.2545725383569297 0  5.793266249786054 -1.869547141598613 0  6.209193704912483 -0.7421340779654189 0  4.988010671482193 -0.7731211547651957 0  6.424032215685732 -0.9729094997117637 0  0.3316048084399439 -1.329786600814022 0  8.036286741722312 -2.068757466052273 0  5.571342150249745 -0.6000173340173137 0  5.915774525166998 -0.7499327454490662 0  4.776116366022284 -0.9962228417143358 0  6.843964094200532 -0.04790482058450118 0  5.276238214924984 -0.629416830838996 0  4.886600789136717 -0.9280261493398752 0  6.269811301012614 -0.8658542412657679 0  5.535188232562824 -0.3296608583549789 0  5.858829116564955 -1.958251606703321 0  0.8944869101816568 -1.64357283725101 0  4.307782635920584 -1.319844070902046 0  6.321749314285119 -1.281511550808213 0  5.928307730043247 -1.973694387589966 0  4.478365637782015 -0.4656158426403905 0  6.97414529082203 -2.839213918199424 0  5.010616384797431 -0.6733057499058959 0  5.236355305430148 -0.02460304862262053 0  4.654629167722199 -1.266884126954457 0  5.12304017596397 -0.8262714575132779 0  4.456881750980571 -0.4068675817598821 0  6.072356421975639 -0.1329775034347624 0  3.092126655173904 -0.166856655470681 0  9.738614614253022 -0.6413919350771049 0  3.137817963024166 -1.52249463552344 0  1.822698295666758 -2.310205930136226 0  4.045923717268079 -1.455658689412768 0  2.728954936315633 -0.3002712292393117 0  4.580967774278242 -0.6554020941213969 0  2.379218248690071 -0.8080976386569706 0  2.361982271688858 -0.2617100872640346 0  4.659928631453473 -0.7924744100593526 0  5.287561238207752 -0.04445049488381425 0  4.555873202747643 -0.2848219447515907 0  7.728092806632644 -2.509472375541147 0  5.112764898665699 -2.657166511936806 0  5.526918512806915 -0.6015327967411386 0  1.852367893184014 -2.516974847682653 0  5.786827743279279 -0.3540825869438518 0  5.370885588167974 -1.827230975145375 0  3.587496077619476 -2.422407139647663 0  4.196397084553775 -1.469228675659572 0  4.587399719984589 -1.469400106625792 0  2.066047837550787 -1.191153830402231 0  5.087751121493659 -0.8689200552135814 0  5.396523139486723 -1.063410645432028 0  2.384483822003814 -0.1244235928349393 0  3.19679663902961 -1.8496266057169 0  5.513500984983921 -0.4932224040037057 0  4.754290932470332 -0.02511731170505049 0  7.857479558907482 -2.404652933206339 0  5.526698937122938 -2.206616597641268 0  5.805483460759967 -1.226238923363887 0  5.215426902865927 -2.293894228166756 0  4.762998793413393 -0.8417971130865333 0  9.33110994628392 -0.2045147015369326 0  5.451022987631885 -0.02684076083714348 0  4.270891046092948 -0.4045704579835305 0  4.486870933384832 -0.4862275426087768 0  5.523284163013955 -0.8126003509912668 0  6.461346104690392 -2.509170485899263 0  4.461142651112635 -0.6408714677191054 0  </DataArray>
</Points>
<Cells>
<DataArray  type="UInt32"  Name="connectivity"  format="ascii">418 3832 5058  485 3529 5299  3659 3661 5206  521 3684 4603  474 4087 5041  3525 4713 5904  279 499 3628  3706 3893 5917  2170 3455 4225  2894 4530 5882  644 3537 4234  1373 3951 5794  2380 3726 5360  3026 4092 4215  2256 2894 5882  3901 5212 5318  2018 3617 5290  776 1373 5794  1710 3792 3892  1158 1160 5691  2038 2040 4068  3563 5365 5494  3981 4351 4974  2080 3962 3963  1865 3976 4091  558 3482 5239  1550 4239 4241  1708 4445 5836  560 3578 5396  4455 4457 4461  2691 5076 6231  2854 5100 5976  2697 2900 3752  3127 4004 5287  2729 2945 4841  258 541 4154  1708 4163 5836  1431 3538 4054  3103 3515 4416  462 3676 5023  2451 3557 4168  644 3537 5232  1402 3553 4714  4119 4121 4258  2735 4554 5010  1683 4121 4258  1365 3528 3585  3080 4765 5991  414 3865 3867  1859 3627 6145  3079 3080 4765  3525 5904 6005  1431 3538 4053  2221 4389 5049  1859 3627 5003  4065 4066 4426  2903 2904 3809  3434 5801 5834  1187 5876 5952  258 259 4154  2198 3734 3736  4307 5273 5729  2080 3962 4908  3443 4941 5943  1816 4556 4840  3197 4069 4584  4397 5365 5494  472 4159 4606  2048 2209 4500  501 4004 5287  3004 3005 4438  1158 4384 5691  1736 4228 4230  3444 5484 5718  3079 4765 4952  466 3784 4338  2691 3839 5076  4592 4765 5991  414 3867 4801  454 4724 5243  2018 3617 3619  2921 4000 5197  3457 4012 5022  473 3536 3800  2892 4716 5113  2066 4343 4694  552 3969 5015  2027 3755 5429  19 3935 4838  264 265 4308  1144 1146 3697  408 5484 5718  3241 3958 5686  1818 4000 5197  3827 6013 6303  581 1657 4357  1550 4241 4242  2170 3455 4950  2972 5005 5517  3965 4067 4349  4623 4998 5643  2601 3512 3807  2177 4046 4048  3414 4498 5274  3342 4431 4738  753 3527 4012  3859 4496 5194  473 3536 3801  1350 4086 5244  1195 4196 6135  2999 5082 5444  65 523 4395  3284 4724 5243  502 3702 5410  2701 3042 4683  2436 2451 4168  3078 5212 5318  280 3628 4931  1197 4195 4362  413 4145 5527  2041 3542 4837  549 5625 5869  4492 4549 5430  1195 4196 4198  3728 5268 5720  2696 3749 3752  1452 4498 5274  1573 3486 4629  3040 3041 4446  2193 4063 4068  2559 3514 4580  4337 4558 4570  3110 3988 3989  753 3527 5083  472 4606 5086  438 4137 4139  552 3967 3969  1355 3349 5699  2038 2193 4068  3447 4451 4728  4159 4801 5063  4496 4608 5194  499 3628 3629  3459 3792 3892  2177 4048 4049  3179 4499 5258  1197 4195 6097  1899 4538 6098  2559 3514 6036  2735 4187 4409  1186 1191 3721  866 4108 4358  480 3672 4916  755 4351 4974  3197 4069 5580  3200 4493 4915  2262 3837 3838  1221 4065 4426  1505 4941 5943  2721 2998 4676  481 3759 3917  438 4139 5353  1870 4473 5037  2999 5444 6349  1194 4072 6066  3046 4841 5056  1725 2295 5321  2368 4457 4461  3854 5625 5869  112 481 4218  1086 2762 4049  474 4087 5546  1052 3958 5686  3044 4278 5439  1144 1215 3697  1381 1383 4242  5122 5123 6006  3522 4453 5476  406 571 3612  3750 3949 5311  3270 3832 5058  2696 3748 3749  4250 4864 5663  4328 4653 5503  425 3540 4907  543 5273 5729  2892 3539 5113  558 3482 4523  2178 3692 4731  3288 3744 3842  3215 3432 5517  2630 2632 4716  3488 4606 5086  1099 5585 5654  2647 3614 4621  559 3728 6053  3535 5591 6086  2208 2306 4342  2206 2208 4342  413 4145 5613  3510 5100 5976  1749 3671 4703  3564 4663 6065  3887 4841 5056  1897 1899 4538  557 3574 5169  2857 3843 4280  1237 1287 4178  2682 3364 3948  539 3885 4411  1816 4556 5131  571 3612 5363  3683 3684 4603  4491 4616 5388  2058 4424 4531  1683 4121 4123  2058 4531 5796  3827 4550 6303  7 233 410  3269 3869 4279  4277 4278 5439  1526 1553 4010  7 410 6172  3867 4159 4801  2434 2451 3903  3642 3956 6158  2434 3903 6064  1736 4230 5281  452 3997 3998  3898 5032 5371  2384 2385 3802  537 3845 4788  2457 3912 3913  410 3977 6142  3457 3824 5098  472 4159 5063  2634 2862 4804  3355 5876 5952  3066 4934 5854  3293 4350 5130  2380 3726 5931  1937 3884 5103  1191 3721 4537  3729 3775 4697  1965 4549 5430  3229 5180 5498  729 866 4358  1500 4350 5130  1365 3528 4505  624 3571 3763  489 3706 3893  3757 3979 4981  2993 4250 5663  2872 4007 4622  2295 3835 5321  2041 3542 5956  3307 3622 3680  2384 2718 3802  1833 2178 4731  610 1964 5344  549 5280 5625  4085 4086 5244  2144 3200 4915  1959 3908 5060  2234 3856 6158  1355 3349 5815  3620 5032 5371  2601 3512 3996  3364 3948 3949  1336 1457 4180  2325 3720 5347  2337 4092 4215  3398 4499 5258  419 4711 4963  4187 4409 6149  2193 4063 4349  2825 3490 3816  481 3759 4218  2092 3613 6340  2027 3804 5429  3859 4496 6197  1211 3608 5589  3078 5318 5382  2451 3557 3902  2262 3838 4035  2985 3599 3603  2652 4077 5425  3750 3948 3949  3702 5410 5776  1614 3773 5206  571 3548 5363  3445 5327 5632  3269 3868 3869  485 3529 5223  4704 5904 6005  1194 4072 4635  1553 4010 4011  482 4706 6130  3047 4331 4682  1683 4123 4127  2652 4077 6265  489 3705 3706  1426 1428 4657  2491 3938 5451  669 3979 4981  1497 3374 5112  1210 4469 4561  3345 4879 5573  1828 1830 4811  534 3848 5209  3374 4273 5112  3220 3283 4794  4077 5585 5654  3103 3515 5488  2046 2048 4500  456 4663 6065  1215 3567 3697  4249 4580 5025  3114 3481 4834  4821 5280 5625  3110 3989 5165  626 1075 3763  532 4593 4594  4352 4353 4988  482 4056 4706  873 3565 5757  1980 3824 3826  3773 3836 5947  4244 4245 4560  2047 2049 4160  1296 5801 5834  3377 3552 5481  3336 4389 5049  3729 3774 3775  3432 5517 5658  4652 4815 4822  4082 4223 5245  3377 5481 5813  3113 4172 5062  540 4136 5745  2753 3055 4751  2735 4409 5010  3297 4832 5455  1457 1652 4180  1248 1252 4883  3015 3626 3884  420 3817 5946  1541 3543 6190  3376 4934 5854  1749 3671 4704  3288 3842 4314  466 4338 5741  1746 5569 5782  3776 4698 5222  454 4693 5243  1168 1193 4582  2529 3057 5303  1402 3553 4716  540 4136 5120  998 2325 5347  1573 3486 5926  1968 3843 4280  2221 4336 4389  434 4328 5503  460 4094 4767  1792 3609 4842  1505 3526 4941  1859 4629 4695  441 4339 4821  1865 4091 4796  2452 3907 5380  502 3702 3932  3048 4616 5388  2443 4116 5216  3823 4248 4299  3433 4702 5826  1868 3757 4079  420 3817 6378  2753 4751 5297  2903 3809 6088  3635 3636 5326  4192 4362 5091  490 3723 3724  4094 4095 4767  2833 3814 3815  2729 3046 4841  3483 5318 5382  835 982 3780  3363 4011 4965  2106 4516 5302  2900 3752 4013  425 3540 5144  1541 3543 4585  590 3864 5171  2065 4352 4988  4070 4071 4261  573 4318 6167  572 4320 6168  468 3954 5136  3522 4453 5626  538 4014 4015  1528 3573 4638  1699 3924 3925  560 3578 5903  930 952 4547  4516 4683 5302  539 4411 5220  2696 2697 3752  1747 3551 4977  116 468 5136  3026 4092 5928  3346 3822 5900  2443 4116 5252  2691 3839 4330  857 4577 4608  1864 4641 4959  2986 4640 5094  1580 1859 5003  462 3676 6000  3292 4032 4836  581 4357 6147  2047 2491 4160  2177 4046 4569  4760 4908 5711  3526 3805 5458  2953 3766 4771  4063 4067 4349  624 626 3763  336 337 4596  5155 5682 6079  2904 3809 6356  753 4012 5022  4591 4593 5222  2198 3736 3737  532 4594 4595  4451 4452 4728  2367 4051 4654  2443 5216 5270  4403 4404 4761  4693 5243 6017  1115 3505 6105  2178 3713 4503  3229 3230 5498  537 3845 5502  1245 4702 5826  1632 1634 4278  3378 4585 5542  3636 4161 5326  4176 5373 5534  2491 4160 5451  1115 3505 5996  1206 5591 6086  3616 3764 3850  3484 4165 5778  3672 4916 5672  2726 2816 4749  3047 3669 4682  4128 5216 5270  1895 1897 5564  2271 3928 4829  1215 3567 4183  2762 4049 4051  613 3703 5085  632 975 3795  3057 3934 5303  1377 1379 4647  4290 4292 5226  2092 2094 3613  2945 4841 5164  3626 3884 5103  3994 4605 5018  3345 3940 4879  2310 4229 4231  3819 5116 6359  3004 3093 4438  3320 3584 5731  536 3833 4095  1864 4640 4641  4422 4423 4460  2179 4070 4261  3472 3759 3917  2859 3346 3822  1185 1186 3721  3813 4992 4993  1563 1707 3704  538 4014 6052  2066 2558 4343  4333 4927 5394  1924 5406 5434  2641 3445 5632  3092 4007 4622  522 4431 4738  1980 3826 5074  2638 2947 5256  452 3998 5401  5155 5156 6079  2758 4467 4469  3198 5391 5450  866 4108 4110  2258 3842 4947  3395 3396 4684  3373 4300 5350  1632 3044 4278  589 590 5171  3700 5444 6349  1505 3526 5458  2154 2696 3748  406 571 6369  1069 4223 5245  3896 5045 5608  415 3635 4931  4288 5172 5374  1980 3824 5098  2198 3734 4486  952 4545 4547  1381 1550 4242  516 4327 5760  3616 3764 5101  277 436 574  2125 2598 3774  4005 5406 5434  3965 4067 5598  2964 3585 5922  3402 3810 4325  1555 3796 3846  420 5014 6378  1692 1694 3927  461 3952 4769  1418 1450 4584  4333 4927 6202  1835 2178 4503  529 3707 6257  2559 4580 5025  4176 5534 5885  4711 4712 4963  3805 5458 5642  3498 5569 5782  2292 3982 3983  630 632 3795  4316 5268 5720  1398 3879 6155  3880 3881 4270  1246 1248 4883  4455 4460 4461  174 175 4724  3642 3956 5507  3423 5470 5938  3962 4760 4908  175 454 4724  3822 3979 5900  797 6015 6184  3457 5022 5098  2495 3580 4623  1528 3573 4898  829 4566 5349  5101 5306 5907  1017 4292 5226  265 439 4308  18 19 3935  2700 2701 4683  3174 3849 5231  2700 3669 4683  3468 3955 4718  2996 4002 5205  3150 3548 5363  3573 4898 4967  2833 2834 3814  1086 2177 4049  3042 4516 4683  3198 3677 5391  520 4334 4636  3767 3839 4330  559 3725 3727  3113 4172 4834  2236 4244 4560  3252 4696 5438  2758 4467 4468  2436 2438 4168  3775 3776 4698  2825 2826 3816  3612 5363 5549  2457 3912 5343  3292 4032 5930  65 66 4395  508 3977 5480  3773 5206 5947  2292 3980 3982  3617 5290 5977  3041 4437 4446  3118 4775 5070  112 113 4218  433 3686 5879  2292 3980 4341  3008 4691 4816  3040 3261 4446  3373 5148 5350  1434 3753 4656  2258 3842 4314  3199 5450 5499  2713 4237 4243  2762 4051 4096  3676 5023 5170  1599 1974 3717  624 3571 6269  2144 4722 4915  4281 4910 4952  4197 4340 4572  1185 3670 3767  4240 4432 5250  3054 4396 4557  610 612 5344  3800 5181 5975  3220 4794 5588  1631 1633 3760  1211 3608 5824  489 3893 6300  3064 5115 5389  489 3722 6300  3510 5100 5229  3015 3626 3883  2092 2258 6340  4016 4313 5157  2244 2937 4361  1512 3773 3836  1747 4033 5744  1554 4248 4299  3436 4877 6075  1336 4179 4180  3661 3664 5206  771 3708 3710  3220 4695 5588  4245 4560 6225  523 4392 4395  9 304 471  6 209 470  3848 3953 5209  1952 2508 3868  2209 4427 4500  278 499 5969  2602 3454 3786  402 482 4056  3454 3786 3789  278 279 499  804 4126 4127  1193 4582 6364  3498 5569 5873  857 4608 5194  3786 3787 3789  4078 5545 5937  447 4605 5018  542 4685 4686  1236 1506 3770  3198 3199 5450  4260 4261 4262  2902 4343 4694  4470 5333 5709  2691 4296 6231  3688 3935 6045  1738 4832 5455  3451 4607 4678  2107 3756 4604  2234 5405 6134  5577 5808 5817  1185 3670 3721  523 4392 5284  982 3780 4758  397 469 4209  527 4422 4460  516 4327 5743  3413 4512 5596  529 3705 3707  4391 5116 6359  2027 2028 3755  3436 4877 5609  2591 5172 5374  2917 3673 5070  3654 4339 4821  797 4447 6184  234 508 3977  4180 5460 5971  3564 4663 4826  3585 5178 5922  4183 4184 4428  1699 3925 4829  1209 4078 5545  1237 1239 4178  2473 3772 5895  101 489 3705  1842 4898 4967  3201 5251 5415  2325 3797 3799  869 978 5007  1197 4362 5091  36 37 3841  4214 4286 5428  2591 4285 5374  3749 3751 3752  2985 3599 4155  4001 4002 5205  3911 3913 5080  2829 4267 4823  2737 3468 3955  2161 2741 3883  424 3691 5176  2276 4482 6293  1404 3895 6353  4066 4426 4427  3199 3995 5629  1720 3901 5318  3215 5005 5517  418 3831 3832  3558 5123 6006  3089 3800 5975  1607 2234 5405  2647 3614 6251  2495 3580 4622  3045 4264 4265  2630 2892 4716  1053 4403 4761  1482 2003 4257  2011 2690 3995  1675 4998 5643  1913 3550 5246  3540 5144 5670  436 574 575  2598 3774 3775  2937 4361 6220  1426 1977 4657  1645 3880 4270  1356 1461 3778  2459 4224 5389  1215 4183 4428  4469 4470 5333  1324 5474 5523  1510 1614 3773  3053 4286 5428  4481 5474 5523  1663 4283 5493  2700 3669 4682  1897 4538 5564  571 3548 5364  3574 4701 5169  1620 4353 4988  3333 4413 5495  4230 5281 6050  1648 2136 4074  2838 4030 4031  3687 6062 6139  2234 3956 6158  5251 5415 5700  2282 3024 4085  2548 3621 4626  3612 4174 5549  2326 4165 5778  3766 4475 4771  2987 5279 5418  2972 3923 5517  1730 3940 4878  2599 3489 3803  3449 3830 3831  3285 4770 5370  2263 2815 3850  1842 3587 4967  2902 3698 3943  3486 4629 4695  2713 4237 4323  3060 3980 4341  3247 3572 5884  2859 3822 3823  3117 5426 5990  907 3510 5229  928 930 4547  835 3780 4703  3045 4265 6361  1868 3757 4981  19 577 4838  2954 3008 4816  102 489 3722  15 490 3723  1682 3677 5391  2446 4116 5162  2221 4336 4542  3481 4708 4834  3199 3995 5499  1541 4585 5542  1747 5167 5744  1469 1748 5631  2018 3619 5210  1333 1336 4179  2473 2635 5895  559 3723 3725  3498 4354 5873  2843 3402 4325  4467 4469 4561  4593 4596 5222  2022 4226 5562  3030 3537 4234  3077 3326 3852  1729 4016 5157  4483 5657 5759  459 3779 5584  3157 3812 3813  727 729 4358  3659 4443 5206  1590 1797 3737  1700 4356 4541  921 4414 5634  2884 3576 6250  4831 5571 5676  2942 4347 4818  2925 3940 4878  451 3683 4603  2902 3698 4343  3619 5147 5210  3826 3827 6013  37 524 3841  3905 3907 5380  694 4512 5596  3472 3759 6259  1864 4640 5094  982 1000 4758  3363 4011 5389  2804 4016 5597  433 3686 6256  3218 4213 5193  802 5281 6050  4337 4558 5501  1707 3704 5158  18 530 3935  681 4696 5438  3989 5165 5677  2998 4676 6244  1105 3625 5234  2276 4482 4815  1696 1778 4829  3614 4310 4621  1205 3996 4828  1404 3877 6353  2144 4722 5461  1450 3197 4584  428 3532 5247  548 3815 4991  2756 3449 3830  4423 4460 4461  4366 4368 4625  1550 4239 4647  2332 2682 3948  543 4322 5729  279 280 3628  3079 4910 4952  2837 3107 3943  3529 5299 5606  2232 4722 5461  873 5035 5757  2628 3634 5762  771 3708 4234  1924 4394 5434  3997 3999 5238  3581 4917 6345  3797 3798 3799  1221 4065 4776  3489 3803 5491  2170 4950 5945  701 3306 5554  4473 5037 6224  2170 4359 5945  2634 3553 4804  1951 1953 5425  2363 3117 5990  2232 5736 5932  3433 5815 5826  3553 4714 4804  2917 3673 6153  1077 5165 5677  4337 4570 5544  2098 5790 6171  280 415 4931  3728 5268 5269  606 1715 3847  2816 3618 4749  233 410 3977  3128 3235 6138  2526 2586 5062  3580 4623 5643  3125 4180 5971  3118 3673 5070  1698 3730 5346  1747 3551 5167  2804 5597 5730  334 335 4595  2089 2258 4947  1913 3550 5791  3787 5045 5608  1398 1399 3879  1879 5246 5511  1952 1954 3868  4483 4484 5759  1714 3821 4690  1795 3583 5737  514 5144 5670  1383 4242 4852  2379 3719 4526  4329 4980 5386  2591 4285 5513  3112 3942 4313  3999 4636 5237  4050 4052 5412  3819 5116 5984  1675 4002 5643  1799 3920 4730  2743 3054 4557  2941 2942 4818  3547 4089 5962  2296 2829 4267  1194 4635 5119  1377 4235 4647  2884 3576 6215  3424 4741 6118  2862 2865 4804  2212 5684 5789  4553 4707 6226  607 1714 3821  3306 3894 5554  1220 3701 5700  1107 2325 3797  2003 2466 4257  3908 3910 5060  921 4414 5993  3228 4514 4515  443 6062 6139  4157 4920 5162  4060 4063 4067  3289 4283 5493  1675 4002 5618  3929 3930 5392  3616 5101 5907  2022 4226 5512  2632 3553 4716  3959 3961 4251  1870 4473 5038  2027 3804 6381  1428 1434 4657  4677 4691 5126  2767 2769 4222  2850 3834 3855  3572 4748 5884  2741 3015 3883  2534 4213 5193  1397 1555 3796  2822 3127 5137  2153 2154 3748  3464 5316 5909  4392 4393 5284  236 459 3779  2721 3126 4676  4901 4965 5064  2367 4654 6115  2804 5730 5776  804 4126 4130  4260 4262 5913  3970 5800 5825  536 4095 4767  4695 5588 6145  2125 2127 3774  1633 1637 3760  3726 5360 5732  3490 3816 5911  557 3574 5897  3285 4597 5370  2815 3616 3850  278 574 5969  1590 2198 3737  451 5161 5614  3505 3608 5824  4152 5789 5878  1742 3685 5574  2394 2396 4470  1748 5142 5631  4072 4073 6066  4411 4412 5220  1287 4178 5068  2548 3621 6371  2446 4116 5252  3024 4085 4086  3681 4582 6364  3981 3982 4351  3174 5231 5786  4375 5673 5742  2446 4920 5162  1220 3701 6044  2533 3139 3844  2495 2872 4622  3128 3772 6138  4170 5489 5767  264 4308 5471  2382 4452 4728  3999 4636 5908  3512 3996 4828  2310 4231 5047  829 4566 4889  2385 3802 4471  3111 3747 4732  1273 5939 6046  104 558 4523  3787 3789 5608  2222 5762 5887  1867 4413 5495  1500 4003 4670  2626 5233 5472  4071 4261 4262  2638 2874 5256  446 5578 5823  3958 3970 5800  1830 4733 4811  4052 5412 5721  1682 3677 5978  3480 3779 5584  3857 3858 3876  4151 4152 5878  2162 2753 5669  3342 4431 5933  2841 4211 5416  1709 5470 5938  4291 4292 5528  4334 4636 5237  1828 2231 4811  833 836 4703  3349 3433 5815  4176 5182 5373  4291 5528 5664  415 3635 5326  1842 3587 5337  1924 4394 5492  3288 3744 4689  336 532 4596  2628 3634 5727  1573 1574 4629  2457 3913 3914  5139 5581 5898  548 3815 5685  3314 3320 5731  3813 4992 5685  3107 3698 3943  1742 3685 5693  2930 4548 4869  3547 5829 5962  3705 3706 3707  3504 3701 6044  3581 4917 5285  2621 5180 5514  1987 5106 6006  3005 4438 5966  1146 3697 6374  2885 5316 5909  1979 4333 5521  1059 4263 4833  1970 2535 3843  423 3931 4212  2857 3843 5316  1694 1699 3927  4152 5684 5789  2497 3992 3993  428 3532 5811  2508 3868 3869  2518 3077 3852  1100 2200 4323  2382 4452 4871  3454 3789 5187  3796 3846 6188  3695 5275 5330  3424 4741 5525  3550 5246 5511  857 4577 5506  4285 5513 5582  2232 4722 5736  2191 2202 3983  1451 1497 4579  2232 2233 5932  3268 4274 4275  3985 4217 4254  4356 4541 6264  613 3703 5959  3015 4696 6372  4041 4046 4569  484 3729 4697  3352 4474 5233  1434 4656 4657  1964 4256 5344  4651 4652 4815  1506 3770 6255  2178 3692 5865  1434 3753 4658  1500 4670 5130  647 649 3936  1412 1416 3840  4263 4462 4833  1379 1550 4647  3465 4207 6040  1614 3717 4443  2167 4742 5118  3139 3844 3845  4216 4742 5118  4076 5166 5651  1669 2326 5248  445 3793 5828  3219 3899 3990  4044 4415 4464  493 578 579  2206 4341 4342  276 277 436  2562 4764 5331  4375 4388 5742  1795 3583 5934  1737 4554 5010  1926 4376 5296  1939 4432 5250  4374 6129 6161  4051 4096 4654  871 5770 5853  500 3887 5056  3723 3724 3725  5106 5952 6006  439 4306 4307  451 3683 5161  337 455 4596  3137 4312 4321  1563 1564 3704  3015 3884 6372  2444 4128 5214  2049 2311 4160  1180 1182 3767  3234 3844 3845  1404 1406 3895  2986 4036 4640  2822 2823 5137  1974 3717 5227  3699 4344 5592  4166 5609 5781  4285 4286 5582  3505 5824 5996  929 931 4615  1168 1170 4582  411 3953 5552  4041 4042 4043  2972 3923 4785  1053 1054 5496  1795 3806 4293  3539 5939 6046  3157 3158 3812  2795 4170 5767  2326 4165 5248  3929 5392 6178  4412 5220 5809  106 107 570  2699 5478 5479  2394 3477 4470  482 3889 5886  4219 4220 4221  4241 4242 4245  3485 5723 5761  3671 3780 4703  1832 1833 4731  1188 4201 4203  1075 3675 6296  3972 3976 4090  1645 3880 4620  3465 4207 5149  3651 3653 5228  2357 2473 2635  2084 2385 4034  3964 4349 5218  1868 4079 4181  3234 3845 5502  2804 3154 5776  3985 3987 4254  3662 3667 3817  4087 4088 5041  2276 4815 4822  3200 4264 5128  3371 5161 5614  4275 5717 5719  482 5886 6130  3695 4339 5330  2161 3883 4583  952 4545 4548  3546 4529 6176  3964 3965 4349  1331 3777 5834  3783 3837 5807  480 3672 6025  4174 5446 5973  2837 3943 4662  3067 4391 5332  1105 3625 6237  2152 2694 4069  3352 4474 5453  2011 2497 3995  978 1016 5007  399 500 3887  3516 5133 6029  4687 5305 5531  2075 3761 5976  3396 3589 4684  1825 2179 4552  3549 3809 6356  470 5187 6049  108 493 578  405 494 3612  1553 4011 4965  2080 3963 3964  1835 1837 4503  401 482 3889  4092 4093 5928  3214 5571 5676  3524 5770 5853  763 2950 4167  3145 4840 5019  1497 4579 5112  1103 1236 3770  1913 3939 4746  3656 3657 3853  3438 3439 5822  725 727 4937  2718 3536 3802  3789 5187 6049  3175 3953 5552  1959 3908 5753  4697 5877 5901  3038 5294 5562  4208 4209 5164  1126 3959 4251  488 4300 4301  3724 3725 3726  3546 4529 5484  2769 2772 4222  4044 4415 6318  439 4306 4308  3182 5186 6170  1951 2652 5425  3925 3928 4829  3651 3666 5228  647 771 3936  464 3944 3945  2859 3823 4248  2658 4162 6345  2086 2090 3739  613 615 5085  4126 5638 6093  3609 4842 5345  50 51 4440  1718 1720 3901  13 559 6053  424 3691 6268  2874 3674 6004  501 3758 5287  861 867 3857  447 3769 5173  2541 2599 3803  3146 4288 4578  3447 4451 6094  1481 3696 5386  3740 3741 3768  2219 2602 3786  1000 4363 4758  3057 3997 5238  2178 3713 5865  741 743 4127  3634 5762 5887  3181 4725 4726  1554 4248 5004  2933 5577 5817  389 504 4311  115 468 4004  3696 4980 5386  1697 1698 5346  4020 4412 6002  3971 3972 4090  521 3684 5863  186 4318 6167  327 4320 6168  2595 5539 5970  2438 4168 5034  2613 2850 3855  2607 2993 3882  530 3935 6045  3307 3622 5875  1650 2136 3897  3052 5581 5898  3751 3752 5841  3181 3182 5186  2885 3830 3832  305 3794 5951  541 4154 5840  4465 5578 5823  2869 3978 5029  3217 4635 5119  1199 5177 5734  3944 3945 3946  3352 5233 5472  3192 5752 5945  4307 4312 5729  4404 4761 4762  455 4698 5222  4368 4371 4625  2516 2756 3830  3195 4873 5282  3083 3233 5341  2878 4492 4549  763 765 4167  3827 5820 5961  527 4422 4601  86 3715 5432  1487 1554 5004  3123 4577 4608  2146 4553 4707  100 529 3705  3450 3849 5231  4042 4043 4045  4208 5164 5671  1551 4226 5242  2865 4715 4804  3101 4490 4491  1430 1433 4658  1634 2238 4278  4059 4060 4067  3451 4678 6001  2753 5297 5669  644 645 4234  1838 4005 5288  2090 3762 5797  3323 3324 5765  603 606 3847  3741 3768 5211  2732 3268 4274  2191 2334 3983  1865 3976 6154  808 5147 5210  119 464 3944  3528 4505 4536  484 3729 6108  1698 3583 5737  771 3710 3936  2874 3674 6284  3504 6044 6105  50 429 4440  1388 4006 5418  2762 4096 4835  1979 4333 5394  2094 2357 3613  3055 3249 5859  3682 6129 6161  413 4800 5613  1367 4517 4942  867 3857 4940  2179 4070 4552  3262 4516 6355  1222 4059 4067  2459 5115 5389  463 3969 5015  1452 4222 5274  4123 4126 4127  3008 4691 5126  3062 3933 5400  1509 1510 3773  543 4322 6113  483 4725 4726  4697 4698 5901  3233 5341 5486  2678 3581 3947  542 4686 5471  4360 5752 5945  2525 2526 5062  1710 3792 4294  531 4338 4639  3624 3971 3972  2893 4398 5454  2311 3866 4158  3085 3086 4876  4589 4626 4886  2259 4505 4536  3111 3747 5338  1492 1747 4977  2826 2833 3816  2442 4157 4786  3561 3562 6073  3336 4389 5501  2473 2475 3772  277 278 574  4040 4041 4042  3358 4879 5573  3833 3834 4791  3228 4514 4719  2851 3833 4095  1557 1575 3846  3837 5807 6122  1392 1615 4219  4508 5508 5980  334 467 4595  585 5902 6128  4253 4255 4550  2601 3807 3808  1445 1554 4027  3323 3714 5539  436 2054 4743  2994 3043 4183  4778 5050 5441  4048 4049 4050  990 2374 4464  1713 4033 4034  1698 3583 5622  2136 4074 4749  3648 3650 4712  3434 3777 5834  1777 1968 4280  2238 4080 4081  741 1683 4127  3874 4853 4882  1715 3847 5255  3414 4498 6091  1686 2786 4293  1713 2084 4034  2438 2440 5034  3054 4396 5418  1252 4853 4883  2414 4340 4572  2317 3624 3971  3113 3114 4834  3112 4313 5157  2968 4840 5019  4118 4128 5214  1832 4269 5057  412 4412 6002  618 5085 5200  2354 4397 5494  2508 3869 3870  2337 4090 4092  2475 2841 3772  2834 3157 3814  1075 3675 6004  2202 2292 3983  1548 2107 4604  836 1749 4703  2846 3070 3071  4175 4176 4177  1053 4403 5496  4508 4509 5508  3219 3899 3991  1321 4175 4176  2743 3025 4557  481 3917 3918  4166 4167 5609  17 18 530  99 100 529  4019 4020 4412  2267 2533 3844  2244 2245 5071  2584 4038 4039  103 558 3722  14 559 3723  396 397 4209  3320 3584 5713  2598 3775 3776  4253 4254 4255  1796 4577 5780  3563 5365 6235  1255 3923 4785  1647 1648 4074  2005 4017 4688  4800 5613 6126  3515 5488 6150  3222 4005 5288  2263 2264 3850  3262 4459 6355  2786 3806 4293  2280 4084 4085  3670 3767 3839  727 4358 4937  1779 2740 4003  104 105 4523  113 501 4218  107 570 6352  2200 4237 4323  2846 3364 3793  952 4548 4869  1355 1356 1461  3998 4793 5401  2150 2152 4069  3913 3915 5080  1416 1418 4584  2028 2031 3755  4019 4410 4411  975 3795 4628  4192 4561 5065  1461 3778 5468  3045 4264 5128  1853 4732 5011  2603 3453 4009  2334 3983 3984  4297 6024 6231  4366 4386 4625  1453 3685 5574  3737 3738 3934  1597 1599 3717  305 3794 5607  2329 3739 3740  2334 3984 3985  3363 4224 5389  418 3831 5680  1332 1333 4179  3306 5644 5925  3636 3754 5604  1790 2293 3991  2761 4299 5519  2838 4030 6234  1358 1398 3778  2139 2140 2541  4057 4707 6226  2667 3266 4567  121 503 4032  392 502 4029  3246 3581 5958  421 4689 5322  3853 3854 5625  1288 3820 6201  743 804 4127  1239 4175 4178  4158 4159 5451  478 4646 6014  1051 5305 5531  2921 2923 4000  508 5480 6077  4126 4130 5638  4100 4107 4270  335 532 4595  1182 1185 3767  3069 3457 4012  3196 5165 5166  3892 4517 4942  3840 4069 4584  1473 4651 4652  673 675 4181  1692 3927 4764  1063 4040 4041  876 3990 6079  3897 3898 5032  2497 3993 4803  1778 2271 4829  3738 3934 5238  2584 2585 4038  4646 5856 6014  2002 3764 5101  1700 4541 4930  4376 4377 5296  1790 2365 3991  994 1063 4040  1700 4227 4930  3707 5478 5479  4578 4621 5053  422 5708 5846  4019 4411 4412  2295 3957 4559  3622 3680 6290  1416 3840 4584  233 234 3977  2231 4394 5492  1706 1707 2139  105 4523 5883  3306 4182 5925  3490 4960 6032  3927 4764 5331  86 3715 6240  3621 4626 4886  4265 4266 6361  2268 2837 4662  3825 3827 5961  1087 2762 4835  2475 2477 2841  1707 2139 2140  1180 3767 4330  2311 3866 4543  2244 4361 5071  1507 1508 1509  3667 3817 5946  3831 5039 6258  3327 4072 4073  2602 3453 3454  1241 1321 4175  1136 1221 4776  915 963 4188  2865 4715 4859  2140 2541 2599  1796 4577 5506  3054 5279 5418  1563 1706 1707  3561 6073 6219  2535 5490 5802  3067 4391 5116  3211 3920 4730  2518 3076 3077  2558 4344 4586  1210 4469 5333  1205 1213 3996  494 3612 4174  463 3969 5211  2665 3569 4162  447 3769 5018  3325 5085 5200  1615 4219 4220  2726 4074 4749  812 2375 5666  2334 3985 4217  1206 3790 5591  3650 3652 3695  1721 1722 2013  558 4355 5239  3721 4537 6271  235 508 3779  673 1868 4181  2581 3026 4215  1948 2195 4562  581 583 1657  1130 1222 4059  1970 1972 2535  3077 3297 3298  107 108 578  405 406 3612  840 860 4302  3642 3804 5507  3874 4853 4883  507 3716 5708  393 502 3932  1287 1506 1507  812 5666 6192  1699 3924 3927  2261 2516 2756  4099 4100 4270  2846 3071 3793  2497 3992 3995  469 4209 5164  2541 2903 3803  3364 3793 5828  103 104 558  13 14 559  1142 1215 4428  2452 3907 5989  929 934 4615  1004 1100 4323  1191 1192 5020  4075 4076 4077  1286 1326 1355  4075 4077 5425  1797 3737 3934  2825 3489 3490  3739 3740 3741  1495 1713 4033  843 3891 6086  862 3038 4453  1292 1293 1294  2761 4027 4299  2994 3567 4183  2072 4385 4700  1710 3892 4942  3025 4509 4557  1954 2731 3868  3324 5765 5899  645 771 4234  123 448 4131  3438 5822 5979  3336 5501 5756  791 4099 4100  3196 5166 5651  3667 3853 3854  3395 4684 6335  452 3997 3999  4055 4056 4057  1671 2326 4097  57 528 4458  36 3841 4773  1324 4483 5523  1714 1715 1716  2396 2758 4470  3007 4766 5254  3258 5329 6287  867 868 874  1963 3851 5441  4197 4340 5627  1599 1601 1974  1937 3884 5240  2767 4164 4222  1559 1560 1561  1561 1563 1706  494 4174 5446  840 853 4302  3298 3299 3564  2516 2885 3830  2599 2825 3489  3740 3743 3768  2869 4519 5029  1314 1395 4035  606 607 1714  3030 3708 4234  2235 2640 6055  1356 1358 3778  106 570 6337  1557 1558 1559  3071 3793 3794  501 3758 4218  693 1537 4182  1290 2280 4084  4260 4263 5361  1725 2869 5321  3852 5442 6016  3581 5285 5958  861 862 867  1075 3763 5256  5056 5277 5942  3743 3744 3745  3076 3077 3297  558 3722 4355  1358 1360 1398  536 3833 4791  493 580 4632  2086 2329 3739  1403 3877 3878  1987 5122 6006  797 3781 5422  3490 4960 4986  528 4458 5189  2102 2261 2516  72 424 5176  599 1392 4219  1744 2086 2090  1510 1597 1614  3229 5180 5514  874 875 996  51 4439 4440  1968 1970 3843  1885 1913 4746  1508 1509 1510  573 4318 4319  4344 5592 6366  3740 3742 3743  3018 3757 4079  1859 4695 6145  3861 3873 3875  1506 1507 1508  4105 4157 4786  464 3955 4718  3720 5234 5347  1744 1745 2086  448 4131 4132  2319 4001 4740  2795 4169 4170  2121 2515 4590  3260 4873 5282  2794 4325 5230  4189 4190 4193  2374 4044 4464  580 2725 4632  1103 1105 3770  2086 2087 2329  1557 1559 1575  1774 2102 2261  1376 1452 4164  4819 5841 6061  855 862 4453  1555 1556 1557  4413 4414 5628  406 407 6369  3921 4249 4580  107 578 6352  723 791 4099  3707 5478 6239  2090 3739 5797  541 4139 5840  1509 1512 3773  1288 3820 6359  52 526 4439  1341 2761 4350  541 4139 5353  589 591 592  5078 5521 5568  234 235 508  3662 3665 3817  443 4250 6062  2460 4189 4193  1323 1445 4027  500 3889 3890  5024 5211 6143  125 505 4185  1272 4214 4286  1430 1434 4658  1631 3760 6031  2238 2239 4080  1453 3685 6254  2731 3268 3269  3660 3662 3667  465 4206 4207  2986 4036 4777  483 4723 4725  3111 4732 5011  2265 2518 3076  1512 1513 1744  2060 3765 5890  4491 4615 4616  2584 4039 4573  3046 5056 5277  3952 4769 5502  4522 5266 5972  1302 4287 4288  4496 4497 6197  1236 1287 1506  2150 2151 2152  1290 1291 1292  2306 4342 5314  3798 3799 5414  475 5717 5719  1825 1827 4552  3652 3654 4339  2931 3373 3729  2756 3108 3449  3219 3990 5848  3101 4491 4615  3537 5232 6152  3284 4038 5243  682 4093 5594  1306 1349 1438  1718 1719 1721  3297 3298 3299  1567 1569 3694  395 465 4206  2075 3761 5987  1597 1614 3717  3554 4546 4729  1767 4265 4266  850 5133 6029  1037 1038 4433  2855 3921 4433  2013 2014 2219  1000 1002 4363  3650 4712 6302  579 580 581  2152 2153 2154  3869 3870 3871  1742 3828 5693  3161 3283 3541  1308 1377 4235  3297 3299 5455  2935 3499 4094  2515 4590 4591  2579 3422 3852  2937 4082 4223  1403 1404 3877  507 4089 5805  620 622 1269  1220 3797 3798  2023 2519 4075  2855 3921 4580  479 4401 4793  3749 3750 3751  3422 3852 6016  3657 3660 3853  996 997 1055  2280 2282 4085  1578 1580 1859  4190 4192 4362  1314 2262 4035  1329 2795 4169  607 609 3821  4296 4297 6231  1128 1222 4251  888 3805 5642  870 2909 4329  1561 1562 1563  3886 5329 6287  559 3727 3728  4190 4193 4362  981 999 4571  3870 3871 3872  238 534 4058  2766 3136 4543  4916 5672 5738  888 3805 5995  713 795 4356  862 867 868  2675 3327 4072  3211 4463 4730  855 861 862  2071 2778 4429  1956 2023 4075  2576 3942 4313  1628 3496 5159  3881 4270 6272  2275 2667 4567  1178 1196 4330  3857 3876 6022  1411 1538 2150  2519 4075 4076  3298 3326 4826  1799 3920 5150  2357 2635 3613  2031 3754 3755  2398 2758 4468  2738 2946 4628  4196 4555 6135  2643 3100 4216  4587 5672 5738  3450 5231 6001  1055 1056 1072  1366 1369 4505  2658 4162 6357  1433 4506 4658  2410 2460 4189  2379 3719 5310  1268 3821 3933  1716 1717 1718  2265 2266 2518  2218 4064 5849  3362 4901 4965  51 52 4439  1554 4027 4299  2535 5490 5914  1170 1173 4994  1696 1699 4829  2107 3756 6084  1260 3614 4310  2484 4448 4497  2218 4064 5880  1753 1760 4249  2833 3815 3816  3086 4876 5570  2909 4008 4980  2829 3437 3672  464 3945 3955  587 588 589  1029 1302 4287  2151 2152 2153  1452 4164 4222  2033 2222 3754  1072 1103 1105  1963 5050 5441  4159 4606 5451  1761 1767 4265  3600 4155 4156  4414 5628 5634  1309 2840 4415  2947 3763 5256  2156 2332 2554  869 5007 5184  1832 4731 5057  795 3441 4356  2732 3163 4274  2854 3761 5976  3976 4090 4091  585 586 587  1509 1511 1512  1607 1609 2234  1239 1241 4175  1023 1272 4214  2255 2665 4162  705 2809 4227  603 605 606  3570 3715 5432  2332 2333 2682  1105 3770 3771  1206 3790 5668  2466 2886 4257  1362 1441 4926  1555 1557 3846  2554 3749 3750  2860 3439 3952  532 4593 4596  2585 2589 4038  583 584 585  2518 2579 3852  1072 1073 1103  1236 1237 1287  4335 4336 4542  2179 4259 4261  1302 4288 4578  1409 1410 1411  404 405 494  108 109 493  1640 2071 4429  463 5024 5211  3982 3983 3984  4472 4473 5038  1222 4067 5598  2573 3896 5045  3178 3181 4725  3776 4591 5222  1103 1104 1236  2953 3766 6367  1160 1203 5691  110 4632 6104  1191 4537 5020  1907 4375 5673  2033 2035 2222  999 4571 4633  2418 2454 4477  2937 4080 4082  445 3793 5607  2815 2816 3615  3463 5612 6332  4715 4859 5235  398 469 3887  2951 4246 4247  592 593 594  4517 4859 5235  4220 4221 5522  609 1268 3821  3453 3454 3687  386 423 4282  400 500 3889  2579 3140 3422  3698 3699 4343  2345 2519 4416  1620 4353 4900  581 582 583  1035 1260 4310  1850 3125 3950  1516 4035 5111  3993 4803 5018  2293 3897 3898  2682 2846 3364  3724 3726 3886  1411 1412 3840  3517 3518 3519  3987 4254 4255  1347 1779 4003  868 874 875  630 3795 6296  2695 2696 2697  466 3784 5544  3268 4275 5717  1538 2150 2151  931 3101 4615  591 592 593  2820 4019 4410  609 611 1268  1399 1401 1403  3449 3831 6258  1321 4702 5182  3126 3966 5171  3725 3726 5931  2231 4394 5827  4047 4048 4052  2031 2033 3754  2271 3928 6253  2931 2932 3373  1209 4406 5912  998 1107 2325  4041 4043 4046  3108 3449 5170  2756 2757 3108  2127 2931 3774  4192 5065 5091  4793 5401 6008  1286 1355 5815  1763 2170 4359  1837 1845 4918  594 595 599  1731 4766 5254  433 3811 5879  1196 2691 4330  516 3811 5760  1570 1573 4518  599 601 1392  1899 2132 6098  4524 4525 5077  598 603 3847  4240 4244 5250  1771 2196 4252  2758 4469 4470  2900 4013 4014  1533 2181 4475  3524 4447 5853  2181 3766 4475  1195 4198 4199  606 1714 1715  1109 1111 1220  855 856 861  2219 2237 3786  1614 4443 5206  76 5173 5705  737 792 4258  765 770 4167  850 5626 6029  2484 4495 4496  3444 3941 5718  1188 4203 4205  3960 3961 3962  3463 5010 5612  3947 4162 6345  1393 1494 4581  1374 1376 4164  2988 3174 4644  4520 4521 5009  4566 4567 5349  2529 3056 3057  1122 1124 1211  636 5481 5813  3149 3548 4301  1979 5078 5521  1211 3959 3960  588 589 590  1107 1109 3797  2536 3603 5320  2779 3139 4087  852 854 855  2253 2678 3947  587 589 591  2262 3837 6122  3861 3862 3873  3531 5073 6284  3624 3972 3973  3027 4848 5140  1001 1353 4633  4482 4484 6293  1715 1716 1717  2477 2841 5416  1349 1438 3796  4193 4195 4362  1601 1974 6209  1406 1408 1409  4062 4063 4068  1837 4503 4918  2119 2317 3971  1397 1460 1555  3821 4690 6282  1948 1950 4562  3402 3686 5879  4966 5524 5766  4080 4081 4082  1780 2161 4583  626 628 1075  2189 2334 4217  332 4649 5402  4398 4649 5454  3117 4972 5715  3108 3109 3676  1416 1417 1418  1395 1516 4035  752 758 4817  839 842 843  2599 2600 2825  473 3801 4787  4512 4513 5855  2040 4068 5605  1162 1203 4386  3770 4098 6255  402 403 4056  387 423 4212  2098 5395 6171  448 4032 4836  837 838 839  1109 1220 3797  2368 4461 5028  601 1393 4581  593 594 595  2775 3337 4326  2117 2337 4215  2697 2899 2900  2065 4352 6349  3163 3555 4274  3949 4865 4893  849 851 852  1658 3035 4839  4466 4467 4468  2694 4069 5580  1409 1411 1538  2259 4536 5555  4204 4477 6323  2090 3762 5298  4463 5728 6297  2154 2695 2696  1124 1211 3959  1473 4651 5126  2263 2726 2815  1801 2529 5303  2740 4003 4670  3443 4513 5943  595 599 601  875 996 998  1349 1397 3796  2022 5294 5562  3248 4324 5739  4091 4093 4796  2089 2092 2258  259 4154 5527  503 3944 3946  1998 2985 4155  3056 3057 3997  1362 1978 4926  1643 4059 4060  456 4665 6065  3658 4443 5227  2319 4001 5205  1823 2179 4259  586 587 588  2554 3748 3749  1170 4582 4994  1124 1126 3959  992 994 4040  1682 4476 4617  330 492 4233  3607 4332 4333  4132 4836 6341  3838 4035 5111  2805 3785 4335  2454 4340 5940  3845 4788 5546  3714 5539 5970  1331 3777 6106  120 503 3944  488 4300 5350  959 4268 4390  1719 1721 1722  1399 1403 3879  2722 3607 4332  1989 2783 4294  4551 4945 5894  3346 4485 5324  1291 1292 1293  2154 2694 2695  3665 3817 3967  719 1645 4620  1553 4965 5064  538 4015 4511  3660 3667 3853  1457 1458 1647  2589 3177 3284  2658 4917 6345  3679 4665 6065  2185 5332 5428  1283 1290 1291  2987 4006 5418  4076 4077 5654  1412 1414 1416  846 848 849  834 836 837  2840 4415 6318  3101 4490 4735  1336 1337 1457  1150 1209 4406  843 844 846  983 1309 4415  3898 3899 3900  2503 3413 4271  957 1288 4390  3770 3771 4098  471 4210 5951  646 3919 5761  907 908 5773  3706 3707 6239  3161 3220 3283  3785 4335 4336  2909 4329 4980  3064 4011 5389  2150 3840 4069  2944 3537 3764  876 3990 5848  1564 1567 3704  2115 2581 4215  3495 6030 6166  101 102 489  15 16 490  1703 4281 4952  516 3811 5860  2219 2220 2602  1402 4716 5113  3164 5376 5479  2357 2472 2473  3834 4791 5312  2682 2683 2846  1365 1366 4505  1637 2265 3760  3158 3161 3812  682 4093 5928  2850 2851 3833  4324 5689 5739  3858 3861 3876  1637 2074 2265  2295 3835 6089  693 696 4182  1392 1393 1492  3776 4590 4591  1512 1744 3836  404 494 4055  859 2909 5325  2101 4848 5140  3323 3714 5765  2153 2156 3748  503 4032 5930  1449 1450 1451  2541 2542 2903  2993 4009 4250  3129 4653 5503  1063 4041 4569  1755 1763 4359  3803 4962 6088  3480 3779 6077  468 3954 5137  3157 3813 3814  1492 1493 1747  1254 2197 3923  3207 5081 5440  566 4522 5266  1365 3585 6267  1653 2293 3897  3095 3219 5848  3535 3891 6086  2199 2484 4495  2432 2434 6064  749 1726 4501  2993 3882 5663  1081 5473 5500  1650 1653 3897  3984 3985 3986  1569 1570 4518  809 813 4519  2967 3562 4232  3123 4576 4577  3600 3602 4156  1567 1568 1569  1417 1654 4675  2398 2400 4468  1272 4284 4285  2586 3113 5062  4132 6301 6341  3400 5308 6155  583 585 6128  2249 2296 4267  3942 5151 5346  2212 4303 4304  1686 1687 4293  3228 4515 6003  3128 3772 5895  273 274 472  2376 2933 5817  861 863 3857  2697 2698 2899  2013 2219 2237  961 2735 4187  1742 3828 5830  4521 5008 5009  1456 1469 1748  3522 5626 6029  4060 4062 4063  1449 1490 4281  2548 4289 4291  3684 4568 5863  1792 3609 6072  2451 3902 3903  2458 4191 4466  833 835 4703  2930 4548 4784  2296 2593 2829  1388 4396 5418  605 606 607  2195 4402 4562  2120 4765 4952  2603 2605 4009  2731 3269 3868  1037 2855 4433  1972 2535 2573  3519 3520 4226  3830 3831 3832  3743 3768 5740  1293 1294 1331  3961 3962 3963  1279 1281 2601  1380 1638 4498  2753 2754 3055  3041 4437 5293  1193 4364 4365  3913 3914 3915  1259 1308 4235  1756 4359 4360  986 990 4464  3977 5480 6142  4507 4508 4509  967 2713 5121  2332 2554 3948  1751 1753 4249  2250 2252 2253  2992 5087 5190  3136 3866 4543  3682 6161 6364  1283 1289 1290  900 2075 4533  584 585 586  3390 4054 4309  2675 2676 3327  430 4417 4418  3252 4079 4181  3089 3536 3800  481 3918 6376  2751 4546 4729  1071 1088 4540  3936 3937 5547  71 5176 5702  2923 3516 3517  3062 4909 5385  3368 5488 6150  1418 1448 1449  2515 4591 4592  4082 4276 5245  1558 1559 1560  3972 3973 3974  4195 4555 6097  1450 1451 1497  1721 2013 2014  1805 2485 4463  122 448 4032  391 449 4029  4053 4627 6020  3959 3960 3961  1647 1652 2067  2789 3970 4489  2589 3284 4038  2540 2968 5088  3057 3934 5238  3973 3974 3975  1481 3696 5617  2156 2157 2332  1401 1403 1404  3745 4689 5322  57 58 4458  874 996 997  900 902 4533  1712 1999 4542  1928 2072 4700  2985 3603 6112  2169 2998 3483  1893 2005 4688  3518 3519 3520  2253 2254 2255  1120 1121 1122  3541 5013 5784  2255 3947 4162  2925 2927 3940  1243 1321 4702  601 1392 1393  1016 4276 5006  1288 4390 4391  1716 1719 4690  3648 3649 3650  403 4055 4056  1038 1041 4433  1333 1335 1336  2516 2857 2885  3716 5708 5846  1294 1295 1296  1326 1355 1356  2816 3615 3617  1451 1490 1491  2329 3740 3742  4039 4573 4639  3020 3822 3979  2512 4641 5981  1671 1673 4097  1580 1581 1774  959 973 4268  398 399 3887  3628 3629 3630  2860 3234 3952  435 4435 4437  837 839 1206  4340 5627 5940  2726 2815 2816  397 398 469  115 116 468  2293 3899 3991  4206 4207 4208  2647 4621 5053  2882 3069 4012  995 1737 4554  2067 2068 2263  400 401 3889  750 752 4817  3110 3196 5165  1774 1775 2102  2927 3345 3940  1410 1411 1412  4260 5361 5913  4060 4061 4062  399 400 500  113 114 501  1713 1999 2084  2311 4158 4160  2236 4244 5250  458 4454 4455  1648 1650 2136  1219 1254 1255  1578 1579 1580  3551 4977 5117  1716 1718 1719  236 237 459  401 402 482  111 112 481  2136 3897 5032  1268 3933 5400  1927 4387 4700  2613 2849 2850  2969 4792 4995  705 706 4227  2718 2719 3089  3126 3966 4676  656 802 5281  2927 3344 3345  1875 5124 5174  1460 1555 1556  2814 3123 4576  2609 2611 3147  1123 6027 6066  1556 1557 1558  2255 2664 2665  4435 4436 4437  461 3952 5821  4454 4455 4460  1999 2221 4542  2791 2860 3234  2252 2253 2678  2607 2609 3882  237 459 4058  2855 3514 4580  3043 4183 4184  2731 2732 3268  3139 4087 5546  3322 5572 5698  1408 1409 1410  2858 3346 4485  1927 1928 4700  1218 1219 1254  2294 2295 4559  1317 1318 1332  1609 2234 3956  522 4738 5217  3961 4251 6283  1574 1578 4629  4031 5392 5683  2129 3144 5504  3426 5480 6142  2853 2935 4094  3652 3695 4339  4194 4197 4572  846 849 850  1653 1790 2293  2071 2267 2533  183 491 4083  870 979 4329  3259 5812 5846  2485 2782 3110  4009 4250 6062  2676 3327 3355  3516 3517 3518  1640 1849 2071  3911 5080 5965  4076 5166 5654  2935 2965 3499  1360 1398 1399  747 1726 4407  599 600 4219  2783 3792 4294  996 998 5347  1850 2223 3950  2937 4223 6220  124 505 4131  4364 4366 4386  2851 2853 4095  2886 2977 4256  493 579 580  2331 2575 4502  2602 2603 3453  2959 3756 4604  1849 2071 2267  2640 5603 6055  2605 2607 2993  3668 5405 6134  2605 2993 4009  1905 1906 4346  3858 3860 3861  2067 2263 2726  1070 2177 4569  119 120 3944  4289 4290 4292  2237 3786 3787  1066 1071 4540  1189 4527 5835  4043 4046 4047  2678 3246 3581  1719 2668 4690  3245 5934 6182  3273 5124 5174  1324 4483 5657  2248 2249 2250  1414 1416 1417  3750 3751 6061  1560 1561 1562  1745 2086 2087  2094 2356 2357  1902 2132 4298  1418 1449 1450  2611 2613 3855  3496 4939 5159  1384 1437 4507  841 5723 5761  976 995 4554  1730 3940 4879  2958 2959 3353  4513 5855 5983  3284 4723 4724  3519 4226 5242  394 395 465  118 119 464  4450 4451 4452  3158 3160 3161  2060 5093 5890  4255 4550 4551  1593 1850 3125  2456 4477 6323  3438 4273 5979  1601 5639 6209  3643 3645 4711  1580 1774 5003  1309 1310 1311  2944 3030 3537  1982 2114 2115  1473 4677 5126  4327 4328 5600  1510 1596 1597  721 723 4099  3768 5740 6143  2455 2675 2676  1002 1010 4363  3599 3600 4155  4066 4427 4500  2946 3795 4628  1378 1380 4498  1031 1302 4295  1025 1272 4284  853 2370 4302  1254 1255 3923  4909 5385 6328  2248 2250 2252  4171 4172 4173  2279 2548 4289  2506 4691 4816  1933 2212 4303  2912 4775 5070  2253 2255 3947  1411 2150 3840  983 995 1309  2119 2337 3971  3241 3243 5686  1493 1747 4033  1322 1323 1445  4754 5016 5782  582 583 584  411 3953 5209  3769 4803 5018  1126 1128 4251  791 4100 4101  1311 1312 1322  1513 1744 1745  3645 3647 3648  2460 4194 4572  61 527 4601  2834 3156 3157  3294 3295 5620  650 841 4631  4046 4047 4048  1564 1566 1567  2266 2518 2579  997 1055 1056  3252 4181 5438  2337 3971 4090  4591 4592 4593  1414 1417 4675  2081 2484 4448  620 621 622  435 4444 4446  3890 4156 5886  1072 1105 5234  3719 4526 4527  531 4639 6017  1481 4169 5955  5 186 6167  10 327 6168  4081 4082 4276  2037 2039 2628  4308 4686 5433  2773 2775 4326  2616 5180 5498  2779 2966 4087  1071 1086 1087  1613 1642 2027  3431 4539 4559  3016 3018 4079  3742 3743 3744  1006 1063 1064  3451 4607 5404  1259 2200 4235  6 470 6054  2826 2828 2833  3517 3519 3521  3484 4165 6121  3867 4158 4159  845 5904 5918  3077 3298 3326  126 422 4185  2642 2643 4216  892 1708 4445  1208 1644 2642  2242 2244 2937  2384 2386 2718  3885 4410 4411  2850 3833 3834  2966 4087 4088  2406 2458 4466  2718 3089 3536  968 2735 4554  2045 2491 4442  1961 2921 5197  561 4301 5862  3814 3815 5685  1717 1718 1720  3717 4443 5227  2060 3765 5838  1795 3806 5934  2084 2085 2384  2734 4472 4473  3146 4578 5053  1491 1640 1849  1318 1332 1333  2644 2789 4489  4191 4466 4467  2959 3353 3354  2114 2115 2581  915 917 4188  121 122 4032  63 430 4417  391 392 4029  1417 1418 1448  4030 5410 6234  995 1309 1310  3437 4315 4317  16 4634 6319  49 429 4431  100 101 3705  2533 2779 3139  1332 1592 1593  2317 3623 3624  2121 2123 4590  622 623 624  1128 1130 1222  424 4449 4450  4327 5600 5743  1393 1492 1493  804 4130 4407  2370 2970 2971  802 4753 4755  1166 1193 4364  2182 2578 4564  1070 1071 1086  1498 1548 2107  3271 3272 4399  2928 3301 3765  1132 1643 4059  2117 2119 2337  2886 2887 2977  2053 2766 4543  73 424 4449  2460 4193 4194  2231 4811 5827  2777 3810 4325  1281 1282 1283  2054 2830 4743  1791 5323 5515  469 4841 5164  2991 2992 5087  1209 5545 5912  2741 2742 3014  2135 3731 5960  3014 3016 3252  1102 1271 1481  1907 4375 6317  774 776 1373  2970 3700 4352  1681 1682 4476  2880 2882 3527  2581 2858 3026  3570 5432 5863  827 833 834  2671 2722 4332  2346 2959 4604  2127 2227 2931  873 3565 6102  3791 5668 5768  2519 4416 5651  770 774 4166  1376 1377 1378  1818 4000 6156  1064 1070 4569  396 4206 4209  1004 1098 1100  2609 3147 3882  1628 1738 3496  992 2374 4040  1279 1280 1281  1337 1457 1458  1201 1208 1644  1335 1336 1337  1657 4357 4499  1178 1180 4330  2899 2900 4015  615 617 618  2919 2920 3250  3650 3651 3652  54 435 4435  4053 6020 6120  2115 2117 4215  1848 4792 4995  3020 3757 3979  1479 1846 4740  1609 1611 3956  2242 2243 2244  1271 1481 4169  1066 1070 1071  3018 3020 3757  2200 4235 4236  2764 3883 4583  4449 4450 4451  1310 1311 1312  276 436 4743  1570 1572 1573  1154 1207 4405  1540 1982 2114  1232 1234 4772  1277 1352 4524  392 393 502  120 121 503  2960 3175 3953  2354 4429 5265  102 103 3722  14 15 3723  114 501 4004  2593 2829 3437  3295 5620 5698  1493 1495 4033  2853 4094 4095  1445 1487 1554  1458 1647 1648  1574 1577 1578  3147 3855 5427  976 983 995  3543 4627 6190  917 4187 4188  1117 1119 1120  2153 2155 2156  2161 2740 2741  3494 3495 6166  1781 1783 4462  123 124 4131  2882 3527 4012  4525 5177 5734  1711 4775 5125  1860 2061 4623  2131 2878 4492  1210 4561 5065  16 490 6319  2849 2850 2851  1086 1087 2762  2264 2728 2944  1448 1703 4281  3140 3422 5223  47 522 4535  2611 3147 3855  2797 3880 4620  1250 1285 1286  979 1058 4329  1698 3730 5622  3344 5035 5696  1100 1258 1259  2084 2384 2385  2136 4749 6358  1241 1243 1321  994 1006 1063  1122 1123 1124  3069 3456 3457  2374 4040 4042  3982 3984 4351  56 528 4444  1448 1449 4281  711 713 4356  1271 1329 4169  1485 1989 4294  2831 4565 4566  2815 3615 3616  449 4029 4030  116 117 5136  4321 4322 5729  3730 5151 5346  2484 4496 4497  1312 1322 1323  568 5660 6369  1593 1594 1850  4441 4811 5827  430 4419 4601  2165 2805 4335  1203 4386 4625  580 581 582  3750 5311 6061  2157 2332 2333  4238 4239 4240  2622 2734 4472  4419 4422 4601  1712 1713 1999  4239 4240 4241  1850 1851 2223  1597 1598 1599  1056 1072 1073  1507 1509 1511  125 126 4185  1770 1771 2196  1437 4507 4509  2408 2410 4189  4236 4238 4239  1511 1512 1513  1926 4376 5469  389 390 4311  2152 2154 2694  3378 3379 4585  2256 3747 5882  1292 1294 1295  2353 2354 4397  1064 1066 1070  1378 1379 1380  1353 2323 4633  2843 4325 5230  1495 1712 1713  1296 1305 1306  594 599 600  1755 1760 1763  2686 2968 4556  1763 1764 1770  1217 1218 1219  1377 1378 1379  2264 2944 3850  3294 4488 5620  2254 2255 2664  990 992 2374  59 458 4454  1522 2379 4494  2742 3014 3016  3296 4282 5920  1760 4249 5025  770 4166 4167  2367 4051 6316  2867 3885 4410  3190 4598 4671  4081 4276 4277  957 959 4390  2245 2247 2248  1599 1600 1601  3055 4752 5859  4100 4101 4102  1221 4425 4426  2239 2242 4080  2965 3499 3579  2001 2313 4324  1765 4264 4265  9 471 6078  5017 5323 5515  2784 3451 4586  2812 3359 3361  2917 2918 2919  4193 4194 4195  779 781 4777  2522 5431 5595  3016 3252 4079  5043 5780 5918  2819 2820 4410  4592 4593 4594  1027 1029 4287  2346 2958 2959  1451 1491 4579  2261 2756 2757  2919 3250 3347  2192 4252 4253  1491 1639 1640  2455 2467 2675  1021 1023 4214  4287 4288 5374  2346 2347 2958  2664 2665 3473  2810 2811 2812  1382 1384 4507  2023 2345 2519  2675 2759 4072  1445 1476 1487  1914 4151 5878  4365 4366 4367  185 565 4318  328 564 4320  1781 4462 4833  2163 2764 4583  2665 3473 3474  1392 1492 1615  2740 2741 2742  795 2797 3440  3870 3872 4402  2960 3848 3953  3630 3633 3635  3112 3942 5151  2970 2971 3700  1520 4494 4524  1398 3778 5861  3456 3457 3824  1479 2319 4740  40 446 4600  385 386 4282  4404 4762 4763  852 855 4453  1406 1409 3895  1213 1279 3996  4175 4177 4178  2548 4291 6371  725 791 4937  2999 5082 6010  1519 1994 4589  1985 2182 4564  1262 1316 1317  385 506 4282  961 968 2735  1369 2259 4505  1130 1132 4059  4055 4057 5446  1449 1451 1490  3118 4775 5125  2267 2791 3844  4283 5771 6275  1540 1981 1982  3899 3900 3990  2078 2548 4626  235 236 3779  4289 4291 4292  1644 2642 2643  1487 1539 1540  2352 2471 4679  547 4712 4963  329 564 4233  1805 1808 2485  4295 4310 4621  1457 1647 1652  4303 4304 4305  1232 2975 4772  390 391 449  122 123 448  872 2809 2810  395 396 4206  2829 4823 6305  1645 4099 4270  1741 4283 6275  4364 4365 4366  1796 5043 5780  3093 4438 4439  1761 1765 4265  3746 6015 6184  1351 1477 4520  4367 4368 4369  624 625 626  4782 4977 5117  1343 1345 1500  2836 2837 3106  2312 2313 4529  1302 4295 4578  3937 5447 5475  1201 1202 1208  967 971 2713  2598 3776 4590  1100 1259 2200  2794 5230 5508  2928 4216 4742  1316 1317 1318  3636 3754 5837  526 4438 4439  2786 2787 2788  1749 4704 4969  2291 2708 4909  2169 3483 5318  2507 2637 2884  2293 3898 3899  1073 1103 1104  2115 2116 2117  719 721 1645  589 592 5171  2811 2812 3359  1259 1307 1308  3421 5520 5536  4029 4030 5410  1960 4205 5340  2502 2764 3022  5135 5751 5816  3985 3986 3987  2458 4189 4190  3902 3903 3904  4304 4305 4306  1196 2112 2507  4240 4241 4244  3070 3071 4211  4472 5038 5514  3013 4520 4521  600 4219 4221  2074 2265 2266  1339 1341 2761  4102 4103 4106  2802 2804 4016  1387 1388 4487  2642 2702 2928  1776 1966 4866  2831 4564 4565  2117 2118 2119  2642 2928 4216  715 2797 4620  4610 4612 4645  3652 3653 3654  3570 4568 5863  1177 1178 1196  632 634 975  4494 4524 4525  961 962 968  1254 1595 2197  1779 2161 2740  2643 2808 3100  968 969 976  2809 2810 2811  2533 2778 2779  976 977 983  1132 1134 1643  2529 2530 3056  2797 3440 3442  999 1001 4633  723 725 791  2097 2818 2819  507 3716 5805  721 1645 4099  751 812 4501  3697 4078 6374  622 624 6269  1306 1348 1349  4186 5812 5846  2459 4224 5858  1323 1339 4027  1770 2170 4225  184 185 565  328 329 564  1753 1754 1755  2250 2253 2254  2860 3438 3439  3117 5426 5715  2269 2576 3942  1751 3921 4249  1901 4388 5766  2683 2846 3070  2958 2960 3848  2192 4217 4254  618 619 620  813 831 4519  2136 5032 6358  2387 2671 2722  3736 3737 3738  2061 2495 4623  2535 3843 5914  4241 4244 4245  1033 1035 4310  106 5661 6337  4255 4551 5894  1089 1217 1218  684 797 4447  1188 4201 5621  2181 2182 2183  2096 2194 2387  3361 3363 4224  423 3931 5795  3967 3968 3969  388 389 504  124 125 505  1520 1522 4494  994 1005 1006  3081 4515 5920  779 2986 4777  3602 4156 5886  2734 4473 4474  836 837 838  1104 1236 1237  838 839 842  990 991 992  2695 2697 2698  933 936 4735  1562 1563 1564  699 701 3306  705 872 2809  2767 2768 2769  17 530 4634  2119 2316 2317  2764 3022 3626  1380 1381 1382  2513 4490 4491  595 596 4171  1308 1374 1376  2773 2817 4326  1016 5006 5007  2183 2299 2300  3149 4300 4301  2678 2796 3246  638 640 873  992 993 994  1779 1780 2161  2789 3241 3958  703 705 872  1140 1142 4428  2791 2835 2860  2379 4494 4526  2951 3446 4246  812 1988 2375  3219 3991 5193  715 795 2797  77 447 5173  508 3779 6077  1709 3922 5667  490 3724 5329  2317 2755 3623  2817 4328 4653  2968 5019 5088  919 961 4187  4546 4547 6249  1643 4060 4061  2644 2645 2789  2005 4017 4884  2267 2790 2791  522 4535 5217  1758 1767 4360  4101 4102 4103  1690 1692 1693  1950 2508 4562  3250 3251 4345  913 915 963  2769 2770 2771  1985 2181 2182  2370 2971 4302  2884 4296 4297  3106 3107 3190  618 620 5200  1968 1969 1970  3494 4132 6166  1753 1755 1760  833 834 836  1616 1945 2767  2837 3106 3107  3055 4751 4752  3582 5731 6023  2008 4589 4626  1207 4381 5888  1684 1685 1686  735 737 792  713 715 795  2268 2836 2837  2412 2414 4572  2434 2436 2451  2352 2883 4679  45 425 4534  1732 1750 1751  1260 2855 3514  2300 2615 2616  2182 2183 2299  1379 1380 1381  2719 3089 4504  4306 4308 5433  2355 2784 4586  4194 4195 4196  4370 4372 4375  2428 2430 2452  1693 1694 1695  1751 1752 1753  2391 3323 5539  739 1683 4258  3625 3720 5234  3461 3463 3851  1695 1696 1697  1655 1871 2346  4455 4456 4457  2299 2300 2615  1827 4269 4552  2194 2387 2671  2406 2408 2458  530 4634 5336  596 4171 4172  272 4801 5063  1354 1533 4475  1533 1985 2181  3361 3362 3363  3782 5422 5575  1999 2084 2085  2819 2821 2867  2410 2412 2460  1682 4617 5391  1308 1376 1377  1352 1520 4524  386 387 423  126 127 422  1331 1455 1456  3671 4704 6005  905 907 3510  3654 3655 3656  1029 1031 1302  2333 2682 2683  4404 4763 5225  4380 4382 4387  1497 3197 3374  422 4185 4186  4366 4367 4368  2329 3742 4947  4418 4419 4420  3474 3569 3570  2722 3604 3607  4105 4109 4157  2671 3171 4332  3246 3247 3572  1994 2096 2194  1902 1905 4298  1601 1602 1603  1899 1902 2132  2466 2839 2886  4026 4134 4136  1686 2781 2786  1611 1613 5507  4481 4571 5383  2156 2554 3748  3785 4336 4337  1909 1911 2160  2867 2868 3350  2808 3100 3503  1025 1027 4284  98 576 4701  2416 2418 2454  2408 2458 4189  2820 4018 4019  1023 1025 1272  2345 3515 4416  1933 2059 4303  1893 1895 2005  2620 2621 2622  4143 4145 4154  2078 2279 2548  2279 2557 4289  1341 1343 4350  1477 1702 4520  1518 1994 2096  2757 3108 3109  4190 4191 4192  527 4454 4460  3741 3968 5797  1437 4509 4557  2420 2422 2456  1213 1278 1279  2424 2426 2457  2120 2121 2515  4368 4369 4370  2224 2331 2575  1887 1889 2097  1064 1065 1066  4547 5530 6249  2444 4128 5270  1019 1021 2185  1998 2517 4155  2473 2474 2475  709 711 1700  2777 3337 3810  1771 2138 4252  1652 4180 5460  2931 3729 3774  1162 1164 4386  1217 1661 4528  902 905 4533  2832 4263 4462  1931 1933 2212  2268 2343 2836  3105 4036 4037  2621 2622 4472  2163 2502 2764  711 1700 4356  3984 3986 4351  2440 2453 2455  1031 1033 4295  3957 4539 4559  626 627 628  4111 4113 4116  526 4435 4436  2507 2691 4296  1883 1885 1913  4305 4306 4307  1768 3200 4264  729 731 866  1718 1721 3901  1945 2767 2768  2557 4289 4290  2832 4259 4260  2469 3123 4495  2771 2772 2773  1382 1383 1384  2140 2599 2600  2386 2718 2719  4048 4050 4052  1173 1176 1177  1339 2761 4027  3643 4711 6157  2107 4951 5278  2014 2219 2220  3681 3682 6364  1136 1138 1221  1186 1190 1191  2805 3119 3784  1760 1763 1764  3107 3190 3506  1756 1758 4360  1035 1037 1260  3536 3801 3802  2768 2769 2770  3062 3933 5385  4592 4594 5991  2375 2376 2933  1258 1259 1307  2645 2789 3241  680 684 4447  854 855 856  737 739 4258  1027 4284 4287  1687 1689 1690  185 186 4318  327 328 4320  1690 1693 1795  3135 3136 3138  842 843 844  1021 2185 4214  1567 3694 3704  2932 3373 4300  2773 2774 2775  1150 1152 4406  1456 1468 1469  3060 4341 4342  2138 2187 2192  2878 2879 2880  1182 1184 1185  2581 2763 2858  3267 4001 4002  1384 1385 1386  3081 4515 6003  1954 2000 2731  430 4418 4419  3125 4179 4180  1703 1704 2120  3662 3663 3665  1343 1500 4350  2777 2794 4325  971 1004 4323  1695 1697 1698  1307 1308 1374  1697 1778 2269  4236 4237 4238  2818 2819 2820  642 5035 5696  1665 1741 4283  2914 2916 2917  974 5568 5664  1164 4364 4386  468 4004 6216  3402 3810 5879  3132 4269 5057  2355 2783 2784  1643 4061 4776  917 919 4187  4382 4385 4700  1622 2268 4662  2382 4728 4846  1989 2355 2783  3275 3277 3285  1758 1761 1767  774 1373 4166  3861 3875 3876  2001 3248 4324  3071 3794 4210  2578 4564 4565  3265 5081 5440  2485 4463 6297  851 852 854  3022 4271 4272  2133 2644 2645  2214 3747 4732  4312 4321 5729  1702 3013 4520  4018 4019 4020  2112 2507 2637  1124 1125 1126  2775 2776 2777  435 4437 4446  470 5187 6092  3161 3541 3812  2269 2270 2576  3660 3661 3662  1770 2196 4225  4290 4588 5226  2123 2125 2598  1386 1387 1388  1303 2942 5692  1640 2142 4429  2818 4017 4688  1732 1751 3921  3862 3873 3874  2622 2624 2734  2786 2788 3806  3163 3165 3555  919 927 961  3458 5473 5500  2618 2620 2621  1152 4405 4406  2243 2244 2245  1437 4396 4557  458 4455 4456  2771 2817 4653  1764 1770 1771  2783 2784 2785  1347 1472 1779  1098 1100 1258  3123 4495 4608  658 802 4753  2771 2773 2817  1889 2097 2818  2819 2867 4410  1993 2513 4490  874 997 4940  4536 5012 5555  2028 2030 2031  1755 1756 4359  933 3101 4735  3405 4424 5610  2138 2192 4252  3741 3968 6334  1381 1382 1383  1678 2001 3248  2285 2287 5047  2785 3450 3849  743 745 804  1433 1444 4506  1317 1332 1592  986 988 990  3860 3861 3862  2867 3350 3885  4120 4122 4124  2013 2237 4987  4612 4645 4646  3394 3587 4967  2163 2164 2502  2576 2577 2802  1294 1331 5834  1255 1261 1262  809 4519 5029  3023 5377 5551  4452 4871 5417  2878 2880 4549  2544 3105 4036  2768 2871 4692  4398 4649 5402  3186 3689 4934  182 491 4558  825 830 4624  2133 2134 2644  4115 4118 4128  1166 1168 1193  2809 4227 4930  4061 4065 4776  2554 3750 3948  2085 2384 2386  1435 1710 4294  1945 2768 4692  2135 3731 6096  1647 2067 4074  1033 4295 4310  2534 3467 4213  3138 4321 4322  2858 3026 4485  1177 1196 2112  4061 4062 4064  4525 5077 5177  2189 2191 2334  2779 2780 2966  1119 1120 1121  1681 2025 4476  2199 2469 4495  1652 2067 2068  2817 4326 4327  1087 1088 1089  518 3829 5681  2958 3353 3848  1548 1655 4604  1819 1821 2832  2035 2222 5762  3262 4459 5189  3272 3275 4399  2801 3924 3925  1247 1249 1250  1192 1200 1201  1164 1166 4364  1378 1452 4498  844 846 848  2722 2723 3604  3407 5808 5817  1345 1500 4003  1765 1768 4264  1827 1829 4269  2310 4229 6214  1490 1491 1639  2195 4402 5001  661 663 4796  1332 1593 4179  979 1057 1058  1953 1956 5425  848 849 851  446 4600 4684  2836 2951 4247  739 741 1683  776 815 5794  2165 2523 2805  1906 1909 4346  1160 1162 1203  2214 2256 3747  2784 2785 3450  1374 1616 4164  2123 2598 4590  894 980 4445  839 843 6086  2877 4478 4481  4042 4044 4045  429 4440 5635  1821 1823 4259  2353 2893 4397  3538 3543 4053  1403 3878 3879  593 595 596  1823 1825 2179  1010 1078 1684  3182 3191 3578  1763 1770 2170  2787 2788 3671  1385 1386 1387  2400 2404 4468  1546 2902 4694  772 2173 4648  1386 1437 4396  1387 1390 4487  1889 2818 4688  1783 1819 4462  4436 4437 5293  433 3811 5860  1041 1043 1732  2020 2165 4335  2799 2800 2801  2920 3250 3251  1154 1156 1207  403 404 4055  1383 1384 1385  1973 2708 4408  1484 1543 4510  2544 4036 4777  973 1019 4268  4274 6076 6375  1152 1154 4405  1829 1832 4269  1390 4487 4488  1482 4257 6174  1255 1262 4785  1833 1835 2178  2583 4478 4479  696 699 4182  2192 4253 4254  2880 2881 2882  628 629 630  1622 1986 2268  1727 2081 4448  1435 1485 4294  3082 4760 5046  2766 3135 3136  1829 1831 1832  2665 3474 3569  2858 2859 3346  1058 1101 1102  2202 2204 2292  3119 3784 4338  3136 3138 3865  1376 1378 1452  4243 4432 5726  2404 2406 4466  2616 2617 2618  892 894 4445  184 565 4083  394 465 3932  1148 1150 1209  706 709 4227  2766 3134 3135  3135 3137 4321  1691 2562 4764  2540 2686 2968  2414 2416 4340  4369 4370 4388  383 4514 4719  1801 2055 2529  1981 4052 5721  1725 2294 2295  1176 1177 1178  1493 1494 1495  2918 2919 2920  1300 4475 4771  2418 2420 4477  1037 1260 2855  2657 2658 6357  2775 2777 3337  2462 3082 5046  2900 4014 4015  2847 3267 4001  2728 2944 3030  2142 2353 2354  3382 3538 3543  2370 2688 2970  797 3781 6015  2841 4211 5411  2031 2032 2033  1142 1144 1215  2770 3129 4653  2748 2749 2750  3732 3734 4486  3531 5073 5924  3226 4393 4394  3337 3810 3811  1272 4285 4286  1329 1447 2795  2029 2030 4908  465 4207 6040  3925 3926 3928  983 984 4415  2618 2619 2620  48 522 4431  2142 2354 4429  4419 4420 4421  2939 4728 4846  2208 2303 2306  3387 3390 4638  3218 3219 5193  1922 2131 4492  719 720 721  2805 3784 3785  1322 1445 1476  2847 3091 3267  859 870 2909  2523 2805 3119  729 730 731  3355 3356 3420  3601 4706 4707  64 523 4417  1684 1686 2781  703 704 705  2847 4001 4740  2702 2928 3301  1140 4425 4428  2486 2513 2514  1723 1724 1725  3132 4269 4552  1209 4078 6374  2750 2888 3333  1702 2176 3013  2043 2045 4442  1845 1921 2133  2639 3680 5099  4479 4482 4483  4456 4457 4459  2746 2747 2748  725 726 727  1794 2148 2163  601 4171 4581  2247 2248 2249  789 1473 4677  110 6104 6376  727 728 729  3333 3403 4413  2971 4302 5556  3016 3017 3018  2706 2964 3431  1196 2507 2691  4057 4706 4707  1777 1967 1968  512 4246 6039  1533 1680 1985  1871 2346 2347  3222 3224 4005  2932 3149 4300  3781 3782 5422  721 722 723  384 385 506  128 129 507  2507 2884 4296  595 601 4171  4235 4236 4647  723 724 725  34 450 4602  4153 4685 4686  2239 2241 2242  4259 4260 4261  83 451 4603  2781 2786 2787  3326 3852 5442  2081 2199 2484  1102 1270 1271  684 686 797  2576 2802 4313  2564 2569 2799  2882 3068 3069  2976 3282 5134  2275 2831 4567  2622 2623 2624  2385 4034 4812  2187 2189 4217  3131 5327 5632  74 509 4449  2794 5508 5980  53 526 4435  1996 5335 5998  1309 1311 2840  3160 3161 3220  2323 2359 2877  2544 3104 3105  3031 5182 5373  570 3888 5390  3312 5731 6023  2068 2263 2264  509 4449 4451  1811 3217 4867  2897 4762 6270  2331 2528 4502  2187 2192 4217  2045 2047 2491  3829 4679 6164  4753 4754 4755  2347 2958 2960  2802 2803 2804  114 115 4004  749 751 4501  3359 3360 3610  934 4615 4616  2832 4260 4263  2131 2654 2878  2502 2503 4271  672 674 1709  2644 3047 4489  2312 2551 4529  1895 2005 5564  701 702 703  3248 5739 5778  2162 2752 2753  4171 4173 4581  2970 3124 4352  1260 3514 3614  2556 2745 2746  1689 1690 1692  1495 1504 1712  55 435 4444  3174 3849 6071  3442 3880 3881  2002 3764 6152  1303 2941 2942  3656 4821 5625  1271 1327 1329  1821 2832 4259  2180 2831 4564  2139 2541 2542  1345 1347 4003  2282 2284 3024  46 4534 4535  2230 2555 2556  2097 2819 2821  4367 4369 4374  1138 1221 4425  1592 1593 1594  2536 3599 3603  1448 1654 1703  181 4558 4570  2776 2777 2794  1078 1684 1685  2923 3517 4000  2503 3072 3413  1678 1925 2001  4043 4047 5690  1963 3851 5593  1469 1470 1474  2265 3076 3760  3018 3019 3020  751 756 812  971 2713 4323  2772 2773 2774  2799 2801 3924  504 4311 5392  2228 2229 2230  3051 3981 4757  5595 5601 5833  1286 1325 1326  78 447 4605  1772 2110 4672  1685 1686 1687  1422 2341 4705  2600 2825 2826  117 118 4718  3693 5868 5916  1189 4527 6232  1121 1122 1123  2671 2736 3171  3928 3929 3930  3735 3736 4334  3069 3455 3456  4418 4420 4441  511 4279 4888  1184 1185 1186  4150 4153 4685  2914 2917 5070  2551 3444 4529  1566 1567 1568  1063 1064 4569  1058 4329 5386  699 700 701  2821 2867 2868  60 527 4454  3937 5547 5619  2001 2312 2313  1936 4914 5139  1989 2066 2355  905 3510 4533  1208 2642 2702  1819 2832 4462  136 137 4610  760 2950 4750  863 3857 3858  1803 4463 4730  2774 2775 2776  2227 2931 2932  4206 4208 4209  2359 2583 4478  765 767 770  1516 1517 1518  1780 1794 4583  1543 1586 4510  133 3941 5718  691 693 1537  1673 1676 1678  4336 4337 4389  1546 1618 2902  2624 2625 2626  3177 3284 4723  2075 4533 5976  2741 3014 3015  1768 2144 3200  2285 2310 5047  1568 1569 1570  3865 3866 3867  4195 4196 4555  3549 3582 6356  1317 1592 4785  2020 4335 4542  238 239 534  3656 3853 5625  4390 4391 5332  2294 2706 4559  628 1075 6296  968 976 4554  3156 3157 3158  856 861 863  621 622 623  1218 1254 1595  676 678 871  1333 1334 1335  1518 1519 1994  4103 4105 4786  2211 2663 2847  4089 4873 5805  72 73 424  3275 3285 4399  831 1503 1723  1706 5420 5725  1712 2020 4542  1522 1524 2379  4103 4104 4105  4370 4375 4388  3320 3321 3426  1993 2486 2513  1572 1573 1574  2842 3102 3829  1190 1191 1192  2037 2628 5762  2769 2771 2772  1615 4220 4782  2916 2917 2918  853 864 2370  182 183 491  330 331 492  2814 3097 4576  2512 4641 5921  2791 3234 3844  3506 3698 3699  770 773 774  1692 1693 1694  830 860 4624  1982 2115 2116  1616 2767 4164  1586 1958 2235  4026 4136 5120  3097 3302 4576  1669 1671 2326  998 1106 1107  1519 1530 4589  3617 3618 3619  67 68 428  3904 3905 3906  1694 1695 1696  1472 1779 1780  2458 4190 4191  1382 1638 4507  1096 1735 4660  1476 1487 1539  2751 4545 4546  731 732 733  2325 3720 6048  1862 5808 6119  1734 1993 4490  2214 2215 2256  1349 1396 1397  4037 4640 4641  1384 1386 1437  1559 1561 5725  44 45 425  111 481 6376  526 4436 4438  2524 2584 4573  4345 5431 5595  3067 5332 5428  3742 3842 4947  2375 2933 5576  4105 4108 4109  2242 2937 4080  2626 2627 2948  1750 1751 1752  3169 3170 3992  2053 2765 2766  4106 4786 4922  3657 3659 3660  2948 4347 4348  4196 4197 4198  69 70 519  1950 1952 2508  3327 3355 5876  2016 2925 4878  1323 1338 1339  3645 3648 4711  1043 1732 1750  2344 3425 4637  1993 2236 2486  1642 2027 2028  3630 3635 4931  3474 3570 3715  3248 4097 5778  1586 2235 4510  2440 2455 5034  890 892 1708  73 74 4449  849 850 5626  3282 4912 5134  562 3549 3809  2812 3361 3362  62 63 430  49 50 429  1909 2160 4346  1530 2008 4589  795 3440 3441  894 896 980  927 961 962  1266 1314 2262  2836 3106 4247  713 714 715  3581 3947 6345  1354 1532 1533  2406 2407 2408  4482 4483 4484  2828 2833 2834  1539 1540 1981  711 712 713  1089 1216 1217  4109 4110 4111  661 1865 4796  2408 2409 2410  4149 4150 4685  1490 4281 4910  1203 4625 5518  3104 4722 4915  2747 2748 2749  2982 3166 3167  709 710 711  1754 1755 1756  64 65 523  4238 4243 4432  1462 1841 2228  2008 2009 2078  2078 2079 2279  1138 1140 4425  2071 2533 2778  2359 2877 4478  2789 3958 3970  747 749 1726  2173 2705 4648  3413 3443 4512  1926 4935 5296  1673 1678 4097  47 48 522  58 458 4458  2404 2405 2406  2410 2411 2412  4100 4102 4107  2871 4692 5001  3448 5173 5705  2569 2799 2800  3972 3974 3976  1724 1725 2294  2279 2487 2557  2230 2745 4717  3103 4416 6058  1084 1090 1303  988 990 991  2619 3712 4532  4284 4285 5374  2412 2413 2414  54 55 435  1444 1462 4506  1831 1832 1833  4713 5904 5918  1087 1089 4835  2414 2415 2416  1386 1388 4396  2135 3828 5830  1083 2543 2544  3182 3578 6170  2782 3110 3196  2416 2417 2418  4111 4112 4113  716 719 4620  1387 1389 1390  1723 1725 2869  2343 2836 2951  907 5229 5773  2502 3022 4271  3135 3138 4321  2418 2419 2420  2416 2454 4340  2944 3764 3850  1639 1640 2142  3056 3998 4400  1289 1290 2280  2097 2821 4746  3741 5211 6334  2640 3445 5864  2420 2421 2422  3420 3557 3558  2469 2814 3123  4049 4051 6316  2801 3925 3926  52 53 526  2420 2456 4477  3014 3015 4696  1752 1753 1754  4109 4157 5162  5694 6136 6237  2422 2423 2424  3824 3825 3826  2373 2893 4681  2555 4544 4784  652 1736 4631  2893 4397 4398  2261 2757 5003  3790 3791 5668  237 238 4058  4382 4383 4385  1019 1020 1021  1025 1026 1027  2185 4268 5332  2204 2292 4341  2643 2807 2808  4370 4371 4372  1044 1047 4802  1023 1024 1025  1019 2185 4268  2851 2852 2853  3569 3570 4568  1021 1022 1023  4448 4926 5624  2748 2750 2888  2745 2746 2747  3314 3316 3320  3241 3242 3243  3904 3906 4563  1029 1030 1031  2220 2602 2603  1027 1028 1029  33 34 4602  83 84 4603  4337 4389 5501  1583 4659 4790  1885 1887 4746  1395 1515 1516  962 968 969  60 61 527  1594 1850 1851  1380 1382 1638  2412 2460 4572  1714 1716 4690  1931 1932 1933  1419 1488 4727  1933 1934 2059  4143 4144 4145  1733 2506 4691  2096 4896 5111  2228 4506 4717  4380 4381 4382  2230 2556 2745  1911 1912 1914  1126 1127 1128  2719 3334 4504  4137 4138 4139  1929 1930 1931  4372 4373 4376  4134 4135 4137  1840 2372 4744  4420 4441 4811  2888 3333 3403  2871 3130 5001  4326 4327 5760  3379 3382 4585  56 57 528  4020 4021 4022  3208 4130 5751  1280 1281 1282  1498 2107 5278  46 47 4535  3076 3760 4832  1734 1938 1993  1734 4490 4735  774 775 776  1909 1910 1911  1282 1283 1289  1485 1535 1989  4613 5927 6164  969 976 977  2886 4256 4257  1374 1375 1616  2556 2746 2751  2049 2051 2311  4026 4133 4134  1102 1481 5386  2238 4081 4278  940 949 1734  2877 4481 4571  3190 4598 5648  977 983 984  48 49 4431  58 59 458  4332 4333 5521  1744 2090 3836  4113 4114 4115  1851 2223 2224  1582 2143 4778  5770 5872 5899  1006 1064 1065  1122 1211 5824  2204 2206 4341  716 718 719  1371 1435 1710  1616 1617 1945  1696 1697 1778  623 624 625  615 618 5085  2229 2230 2555  4544 4548 4784  1663 1665 4283  2245 2248 5071  3277 3285 4597  1902 1903 1905  3906 3907 3908  1899 1900 1902  1031 1032 1033  1278 1279 1280  2134 2644 3047  2980 2981 2982  2180 2275 2831  2921 2922 2923  2821 3939 4746  380 4574 4618  1855 1858 2214  607 608 609  1995 2344 4637  699 3306 4182  709 1700 4227  1503 1723 1724  1897 1898 1899  2981 2982 3166  1329 1446 1447  696 698 699  1229 1743 4720  4273 5979 6262  1300 1354 4475  3382 3383 3538  3134 3135 3137  2424 2425 2426  2820 4017 4018  3341 3343 3378  3866 3867 4158  3167 3169 3170  3167 3168 3169  3403 4413 4414  2706 3431 4559  45 46 4534  1462 2228 4506  469 3887 4841  3240 5856 6038  2116 2117 2118  1895 1896 1897  2181 2183 3766  1096 1225 1735  2551 3369 3444  1583 2381 4659  1986 2268 2343  4545 4546 4547  562 3809 4943  2381 3023 4659  1687 1690 4293  2148 2163 2164  991 992 993  993 994 1005  2637 2973 2974  3137 4312 5092  1921 2133 2134  1787 2057 4736  473 3800 6313  1577 1578 1579  706 708 709  1262 1315 1316  590 597 598  758 1922 4817  78 79 4605  1841 2228 2229  2770 2871 3129  1893 1894 1895  3181 4726 5186  74 75 509  2118 2119 2316  2589 2590 3177  2974 3681 3682  3765 4742 5688  1530 2007 2008  460 4094 6304  3413 4271 5596  3143 4403 4404  2903 3803 6088  329 330 4233  1720 2168 2169  2164 2502 2503  3051 3980 3981  2923 2924 3516  2467 2675 2759  745 804 4407  3170 3992 3993  3167 3170 4699  3029 3746 6015  1279 2601 3996  42 43 514  3170 3994 4699  4111 4116 5162  2935 2936 2965  3753 4658 4717  2802 4016 4313  2471 2842 4679  1412 1413 1414  646 3919 5994  2295 3957 6089  1107 1108 1109  2453 2455 2467  924 2845 4741  3874 4883 5857  2621 4472 5514  785 4652 4822  4117 5850 6266  2746 2751 4729  3875 5790 6171  1504 1712 2020  2376 5817 6075  1808 2485 2782  2400 2403 2404  2705 3416 3417  3091 3267 3580  3926 3928 3929  1311 2840 4845  2110 2532 4672  3296 4282 5795  2783 2785 3792  2979 2980 2981  3324 5872 5899  1033 1034 1035  2102 2516 2857  4191 4192 4561  898 2075 4655  4506 4658 4717  2754 3055 3249  2108 2895 4745  1208 2702 4828  63 64 4417  2748 2888 4729  2387 2722 2723  2853 2934 2935  2300 2616 2617  1592 2972 4785  733 734 735  3604 3607 4661  1665 1739 1741  3908 3909 3910  1778 2269 2270  2256 2257 2894  1474 1475 1498  2943 4619 4814  1192 1201 5020  4276 4277 5006  951 957 1288  648 650 841  997 2099 4940  2316 2317 2755  1229 1256 1743  2801 3926 4739  3543 4053 4627  1498 1499 1548  3020 3021 3822  760 763 2950  2389 2806 2979  109 493 4632  4353 4900 5565  2392 2394 3477  1794 2163 4583  2396 2398 2758  1741 2216 2217  2353 2373 2893  2705 3417 4648  3736 3738 4334  4150 4152 4153  53 54 4435  1638 4507 4508  2663 2847 3091  1869 2360 2875  2747 2749 4656  2426 2427 2428  2135 3828 5960  1887 1888 1889  1983 3783 6333  2759 4072 4635  1507 1511 5068  2200 4236 4237  1508 1510 1596  1595 2197 3304  877 4513 5943  3998 4400 4793  2967 3561 3562  3926 3931 4739  4237 4238 4243  2613 2848 2849  4056 4057 4706  1071 1087 1088  4146 4148 4149  2620 2622 2623  1041 1732 4433  1885 1886 1887  2880 3527 4549  2428 2429 2430  4119 4258 6266  2270 2576 2577  4031 4311 5392  2745 3753 4717  4113 4116 5216  2686 3330 4556  4805 5988 6144  1846 2211 4740  79 525 4605  2169 2721 2998  1447 1681 1682  2888 3554 4729  1070 1086 2177  2611 2612 2613  2404 4466 4468  1915 1928 1929  2609 2610 2611  2252 2678 2796  2389 2979 2980  4047 4968 5690  2567 2661 4747  3072 3413 3443  2155 2156 2157  180 466 4570  3834 3855 6056  4140 4142 4143  1111 1220 6044  3405 5610 5707  4221 4676 6244  444 4013 5477  1123 1124 1125  33 520 4602  3294 4488 5566  4377 4379 4380  1679 3689 5143  84 521 4603  1883 1884 1885  2008 2078 4626  4495 4496 4608  1849 2267 2790  1066 2348 4540  787 1473 4652  3379 3381 3382  1487 1540 5004  1983 3783 5807  2025 2388 2389  99 529 6343  2607 2608 2609  2617 2618 2619  2223 3950 5561  3100 3503 5408  1985 2180 4564  1906 1908 1909  2486 2514 3322  1579 1580 1581  3664 5298 5947  1481 5617 5955  3056 3997 3998  3105 4037 4493  1420 2341 4891  2151 2153 2155  3275 3276 3277  4023 4025 4026  3427 3429 3478  1270 1271 1327  3097 3099 3302  2690 3995 5629  1704 2120 2121  1883 1913 5246  1404 1405 1406  1339 1340 1341  4648 4914 5139  1171 4563 5061  3042 3262 4516  55 56 4444  3174 4644 5786  3545 3547 4089  973 1018 1019  1035 1036 1037  2894 3405 4424  275 4743 6310  920 927 4774  118 464 4718  1109 1110 1111  3146 4288 5172  4494 4525 4526  2114 2581 2763  1296 1306 5801  1966 2274 4866  179 180 466  333 334 467  4238 4240 4432  2347 2961 4789  2430 2431 2432  4036 4037 4640  2532 3142 3143  1655 2346 4604  3874 5857 6377  2765 2766 3134  2355 2558 4586  2823 4213 6162  2566 2568 4756  936 940 4735  1618 2902 3943  4346 6140 6294  4387 4935 5296  4115 4117 4118  1853 1855 4732  625 626 627  2363 2730 3117  62 430 4601  3387 3389 4638  2442 4157 4920  1961 2478 2921  240 411 5209  381 382 409  131 132 408  1676 1678 1925  1371 1710 4942  2182 2299 2578  1630 3044 5213  3389 3573 4638  1105 3771 6237  1494 1495 1504  2930 4784 4858  1219 1255 1261  3178 3180 3181  592 594 3966  1581 1774 1775  434 4328 5600  3872 4402 5563  650 652 4631  756 812 1988  59 60 4454  1890 1892 1893  40 41 4600  989 2319 4630  4199 4200 4201  3485 3919 5761  984 4415 4464  2723 3604 3605  1090 1303 2941  1871 2347 4789  2217 2716 2717  3489 3490 6032  2897 4762 5819  577 4838 5168  2770 2771 4653  3914 3915 3916  1771 2137 2138  1200 1201 1202  4421 4422 4423  4393 4441 5284  1680 1985 2180  2784 3450 3451  2532 3143 4672  12 5269 5538  528 4444 6196  1234 1266 4772  3250 3347 5515  2066 2355 2558  781 1083 4777  1207 4381 6175  2158 5030 5225  29 30 452  87 88 453  2982 3168 4617  1322 1476 4845  1327 1329 1446  1593 3125 4179  3650 3695 6302  4191 4467 4561  2432 2433 2434  2033 2034 2035  2374 4042 4044  2176 3013 3714  652 654 1736  388 504 4212  3754 3755 5604  1839 2930 4869  3752 4013 5841  34 35 450  82 83 451  2241 2242 2243  1548 1549 1655  1406 1407 1408  4115 4128 5216  2030 2080 4908  1441 1727 4926  3647 3648 3649  4131 4132 6166  3478 3479 3480  3563 6219 6235  3879 5308 6155  3233 5377 5551  3029 3746 6047  3520 4226 5562  1101 1102 1270  2388 2389 2806  3007 3341 4766  2605 2606 2607  2982 3167 3168  1065 1066 2348  39 40 446  77 78 447  136 4610 4645  2667 3237 3266  1341 1342 1343  2693 4174 5549  1667 1669 5248  1450 1497 3197  1578 1859 4629  2806 2979 3683  1010 1684 4363  3175 3176 3271  2654 2878 2879  704 705 706  2623 2624 2625  1379 1381 1550  382 409 4719  3382 3543 4585  105 5537 5883  1532 1533 1680  32 33 520  84 85 521  2757 3627 5003  1880 1882 1883  1218 1595 4835  603 604 605  789 793 4677  4609 4642 4643  3124 4352 4353  1373 4166 5781  4382 4387 4700  1369 1527 2259  1013 4912 5195  1253 1782 4806  598 602 603  627 628 629  3385 3387 3390  619 620 621  1819 1820 1821  37 38 524  79 80 525  2323 2877 4633  2835 2860 3438  2811 3359 3360  2797 3442 3880  2194 2671 2736  1465 1496 4737  1393 1493 1494  1938 1993 2236  1678 3248 4097  1858 2214 2215  1890 1893 4688  1821 1822 1823  1905 4346 6140  1655 1656 1871  702 703 704  1290 1292 4084  42 514 4599  1946 1948 2195  1356 1357 1358  35 36 4773  2383 3090 4687  2051 2311 4543  1178 1179 1180  2577 2802 2803  393 394 3932  2790 2791 2835  4290 4331 4588  4043 4045 5690  3107 3506 3698  609 610 611  1876 1878 1879  2508 3870 4562  1488 1995 4727  3272 3274 3275  2059 4303 5092  2063 2349 5286  2428 2452 5343  4610 4611 4612  1925 2001 2312  181 182 4558  735 736 737  1988 2375 2376  2426 2457 5343  1057 1058 1101  4958 5868 5916  2506 3011 3012  3751 5841 6061  576 4701 5169  2676 3355 3356  3654 3656 4821  4754 5016 6165  507 4089 5962  1733 2505 2506  617 618 619  2372 2824 4744  2960 2961 3175  3203 3460 3461  1128 1129 1130  1535 1989 2066  2025 2389 4476  2401 4224 5915  2543 2544 3104  995 1310 1737  3389 3392 3573  570 3888 5485  2912 2913 2914  1343 1344 1345  3369 3444 3941  4101 4103 4104  4073 6027 6066  4201 4202 4203  2966 2967 4232  2120 2515 4765  1958 2235 2640  949 1734 1938  4479 4480 4482  2625 2626 2627  2051 2053 4543  2057 2298 4736  377 4609 4642  2869 3978 5321  568 5364 6369  2493 2912 4775  2183 3766 4820  2631 2943 4813  2879 2880 2881  1687 1688 1689  2434 2435 2436  2966 4088 4232  776 803 815  109 110 4632  1385 1387 1389  2328 3199 4669  1872 1874 1875  3109 3676 4794  3009 3221 3222  3136 3865 3866  3210 5356 5448  1422 1424 4705  2138 2186 2187  2764 3626 3883  4481 5383 5474  1946 2195 4692  1319 1402 4714  2582 3008 4650  1455 1456 1468  3903 3904 3905  512 4246 5397  905 906 907  275 5086 6310  1134 1136 4776  2796 3246 3247  1446 1447 1681  2980 2982 4617  4761 4762 6270  1994 4589 4886  1515 1516 1517  2493 2911 2912  3418 5176 5702  2996 4002 5618  378 379 477  134 135 478  1017 4292 5528  3343 3378 3379  4385 5356 5448  137 426 4610  2165 2166 2523  1397 1459 1460  2624 2626 5233  2237 3788 4987  1995 4637 4727  831 1723 4519  2627 2948 4347  911 912 913  379 380 4574  700 701 702  902 904 905  1943 2985 5055  793 1733 4677  4185 4186 6030  984 986 4464  2800 3081 3296  2800 3296 4739  2962 4985 5038  2778 2779 2780  1823 1824 1825  3719 4527 6232  2158 4763 5225  2228 2230 4717  2344 3424 3425  1838 4005 5406  3102 3402 3686  1869 2875 5185  2562 2563 2564  2959 3354 3756  3073 3526 4941  1467 1496 4831  2964 3528 3585  2557 4290 4331  1010 1011 1078  4194 4196 4197  61 62 4601  2736 3171 3263  2842 3829 4679  5093 5890 6292  1225 1735 2901  2323 2324 2359  3803 4962 5491  1748 5236 6106  4118 4119 4120  4305 4307 4312  4295 4578 4621  439 4307 5273  3100 4216 5118  1517 1518 1519  2356 2357 2472  2928 3765 4742  2751 4544 4545  2564 2565 2569  2734 4474 5233  720 721 722  3869 3871 6299  908 910 911  3960 3962 4760  3775 4697 4698  1803 1805 4463  830 840 860  180 181 4570  333 467 4649  2354 5265 5494  3143 4404 5225  3675 3795 6296  1845 2133 4918  2553 3153 5105  2359 2582 2583  2129 2680 3144  1970 1971 1972  1173 1175 1176  3394 3396 3587  379 477 4574  1409 1538 3895  1654 1703 1704  523 4417 5284  362 456 4665  41 4599 4600  3443 4512 4513  1263 1319 1402  1825 1826 1827  3461 3851 5441  3588 3590 3685  1658 1660 3035  656 658 802  3556 5190 5309  2143 2673 4778  1090 2941 4660  815 816 827  2215 2256 2257  724 725 726  787 789 1473  2555 2556 4544  3461 3462 3463  793 798 1733  1312 1323 1338  1006 1065 4861  2824 4070 4071  2702 3512 4828  722 723 724  718 719 720  3226 4392 4393  728 729 730  2631 2633 2943  1648 1649 1650  785 787 4652  4198 4199 4200  827 828 833  2294 2552 2706  3224 3225 3226  1047 1048 4761  2719 2720 3334  3602 5886 6130  2742 3016 3017  813 817 831  2673 3202 3203  1088 1089 1216  1170 1172 1173  1456 1748 6106  2530 3056 4400  4120 4121 4122  1914 4151 6043  1780 1793 1794  2883 5927 6164  3360 3610 3611  2187 2188 2189  4574 4618 4814  1358 1359 1360  1634 1636 2238  2298 2891 3009  3222 3223 3224  2487 2700 4682  3140 3141 3529  2817 4327 4328  1295 1296 1305  2645 3241 3242  44 425 5144  1462 1463 1841  1476 1984 4845  2980 4476 4617  2688 2970 3124  2035 2036 2037  2803 2804 3154  2568 2572 4756  2706 2908 2964  3166 3167 4699  913 914 915  843 3891 6099  1345 1346 1347  1827 1828 1829  4104 4105 4108  1399 1400 1401  1691 2561 2562  41 42 4599  1604 1606 1607  698 699 700  831 1439 1503  915 916 917  3924 3927 5331  1595 4096 4835  1492 1615 4977  4108 4109 4110  2193 4349 5218  2925 2926 2927  1618 3943 4662  4672 5030 5225  1783 1785 1819  1347 1471 1472  1927 4387 4935  862 868 3038  726 727 728  1067 1094 1273  1424 1426 1977  715 716 4620  2572 2892 3305  2763 2858 2859  2881 2882 3068  542 4685 6126  2373 3080 4681  361 362 456  151 152 457  2016 2377 2925  1644 2643 2807  369 515 4674  2328 3198 3199  1389 1390 1391  390 449 4311  4110 4111 4112  1424 1977 4705  2249 2250 4267  630 631 632  363 364 512  149 150 513  2300 2617 4820  1839 2308 2930  4368 4370 4371  3381 3382 3383  183 184 4083  730 731 732  4084 4085 5244  2272 4900 5565  1767 4360 5752  16 17 4634  365 366 432  147 148 434  2007 2008 2009  1468 1469 1470  3813 4993 5675  4112 4113 4114  2567 2570 2661  3524 4447 6184  2603 2604 2605  3981 4757 4974  2009 2078 2079  1420 1422 2341  2981 3166 3371  376 377 4609  2657 4568 6357  1353 2321 2323  1173 1177 4994  1125 1126 1127  3090 3692 3693  1002 1009 1010  3649 3650 3651  2639 3307 3680  3282 4912 5195  2968 4556 4840  368 369 515  144 145 516  1607 1608 1609  4420 4421 4733  3798 5415 5700  2407 2408 2409  1516 1518 5111  712 713 714  898 900 2075  448 4132 4836  4236 4239 4647  2079 2279 2487  960 2975 5127  1038 1040 1041  3335 4083 6181  1428 1430 1434  2259 3264 5555  2927 3133 3344  4018 4020 4021  2405 2406 2407  2457 3914 5697  2389 2980 4476  1168 1169 1170  3603 5320 5354  2409 2410 2411  370 371 431  142 143 433  710 711 712  1833 1834 1835  2447 4923 5183  135 478 4645  3456 3824 3825  177 178 531  335 336 532  2411 2412 2413  135 136 4645  1307 1374 1375  2842 2843 3102  2365 2534 5193  2413 2414 2415  1041 1042 1043  1829 1830 1831  2415 2416 2417  2392 3477 5146  2189 2190 2191  737 738 739  373 374 517  139 140 518  2417 2418 2419  2419 2420 2421  2421 2422 2423  2661 3227 3228  1739 1741 2216  1216 1217 1661  1318 1333 1334  2142 2225 2353  714 715 716  477 4574 4575  1444 1454 1462  2818 2820 4017  375 376 427  137 138 426  374 517 4680  2381 2854 3023  1256 1743 2953  708 709 710  2524 2526 2584  3014 3252 4696  1930 1931 1932  1932 1933 1934  3195 3545 4873  3980 3981 3982  924 926 4741  1020 1021 1022  4252 4253 5820  3068 3069 3455  1535 2066 4694  1301 1531 4807  1756 1757 1758  2717 5021 6236  1484 4510 4831  2768 2770 2871  2371 4687 4984  2191 2201 2202  382 383 4719  1171 4563 5123  4144 4145 4146  2403 2404 2405  2000 2731 2732  1130 1131 1132  2471 2744 2842  4381 4382 4383  506 4514 4515  1048 1053 4761  1024 1025 1026  1022 1023 1024  384 506 4514  1912 1914 1915  1661 1663 5493  1910 1911 1912  150 151 4666  2025 2026 2388  1794 2147 2148  3514 4825 6036  371 372 4607  387 388 4212  585 587 5722  2914 2915 2916  4148 4149 4150  1026 1027 1028  478 4645 4646  2281 2283 5027  1180 1181 1182  148 149 4668  670 4354 5938  3242 3243 3713  1166 1167 1168  1835 1836 1837  4138 4139 4140  4135 4137 4138  864 2370 2688  1018 1019 1020  69 519 5247  3565 5573 5757  2839 2886 2887  984 985 986  1028 1029 1030  1431 4054 6213  3592 3594 3828  1722 2668 3412  4133 4134 4135  2371 2383 4687  1650 1651 1653  2112 2637 2973  2383 2963 3090  1928 1929 1930  2423 2424 2425  449 4030 4031  917 918 919  2202 2203 2204  4373 4376 4377  3356 3420 3557  4371 4372 4373  1837 1844 1845  1065 3063 4861  68 428 5247  2039 2628 4837  3142 3143 4403  3744 3745 4689  3905 3906 3907  372 4607 4678  2780 2966 2967  177 531 4693  1164 1165 1166  4142 4143 4144  1261 1262 1315  919 920 927  366 367 4598  1162 1163 1164  2990 4517 4859  3154 5410 6234  3838 4896 5111  3614 4825 6251  1160 1161 1162  43 514 5144  2871 3129 3130  2885 3832 5909  2717 5021 6207  1030 1031 1032  2257 2894 3405  4122 4123 4125  2746 2748 4729  4656 4657 5309  2747 3753 4656  1158 1159 1160  922 924 2845  1511 3193 5068  1991 2328 4669  4021 4022 4023  1900 1902 1903  1903 1905 1906  2286 2288 4779  590 3864 6252  3347 5017 5515  2063 2064 2349  920 922 4774  1146 1147 1148  1144 1145 1146  1148 1149 1150  940 941 949  3610 5915 6103  1898 1899 1900  1156 1157 1158  1758 1759 1761  1142 1143 1144  4106 4923 5183  4379 4380 4381  2055 2529 2530  1044 1046 1047  1908 1909 1910  3153 5602 6045  1845 1920 1921  2436 2437 2438  1140 1141 1142  1690 1795 4293  1138 1139 1140  1154 1155 1156  3170 3993 3994  1136 1137 1138  1186 1189 1190  1896 1897 1898  4025 4026 4133  1855 2214 4732  896 980 4655  1152 1153 1154  4114 4115 4117  852 4453 5626  825 4624 5291  1005 1007 1667  2298 3009 4736  1150 1151 1152  1782 1786 4806  1596 1597 1598  2211 2847 4740  2798 6041 6353  926 929 934  1134 1135 1136  3821 3933 6282  1182 1183 1184  2204 2205 2206  2480 3407 5160  1274 1330 1853  2365 3991 5193  3999 5237 5238  1132 1133 1134  1048 1050 1053  2824 4071 4744  1588 1590 2198  1761 1762 1765  383 384 4514  4049 4050 6316  117 4718 5136  940 1734 4735  1894 1895 1896  1636 2238 2239  1417 1448 1654  2216 2217 2716  1917 2366 3404  1305 1306 1348  2108 2339 2895  3548 4301 5862  1262 1317 4785  2211 2662 2663  2800 2801 4739  732 733 734  3322 4560 5559  638 873 5813  3907 3908 3909  2206 2207 2208  1918 4297 6024  1732 3921 4433  823 5291 5352  3017 3018 3019  1032 1033 1034  4574 4575 4814  986 987 988  1786 1788 3487  151 457 4666  2208 2302 2303  2990 3892 4517  2303 2304 2305  2617 3711 4820  3217 4635 5188  367 4598 4671  3441 4356 6264  2503 2504 3072  2752 2753 2754  2067 2726 4074  3301 3512 3807  4118 4120 5214  1081 1082 1084  1375 1616 1617  458 4456 4458  2140 2600 5158  3450 3451 6001  332 333 4649  150 513 4666  2551 2646 3369  931 933 3101  149 513 4668  1249 1250 1285  2039 2041 4837  767 770 773  1586 1587 1958  4419 4421 4422  4081 4277 4278  1887 2097 4746  4103 4106 4786  739 740 741  176 177 4693  1293 1331 1455  2807 2808 3690  1892 1893 1894  1775 1777 4280  1367 4517 5235  148 434 4668  2973 2974 3681  2442 4786 4922  2274 2874 3531  1872 1875 4789  4198 4200 5627  2350 2352 2883  2291 2656 4909  3665 3762 3968  4400 4401 4793  1543 1585 1586  1830 4733 4919  2877 4571 4633  380 381 4618  2745 2747 3753  4122 4125 5387  1709 3922 5470  2312 2314 2551  2305 2335 2336  2542 2903 2904  989 1479 2319  376 427 4609  1617 1945 1946  1653 1789 1790  3596 3598 3731  1054 1060 1061  2583 4479 4480  1667 1668 1669  1062 1080 1081  3446 3678 3679  2475 2476 2477  1304 6131 6249  4369 4388 5766  3963 3964 3965  4611 4612 4614  1913 3939 5791  2572 3305 4756  1999 2085 2221  1016 4276 5245  2887 2977 2978  1723 2869 4519  1673 1674 1676  1084 1085 1090  1888 1889 1890  2616 2618 5180  1083 2544 4777  3283 4794 4795  3396 3587 3588  2236 2486 4560  1266 2262 4772  4173 4581 5191  2992 3556 5190  2425 2426 2427  2336 2481 2482  658 660 4753  4091 4092 4093  2585 2587 2589  2289 2674 5016  2619 2620 4532  2430 2432 5380  3278 5727 6110  1811 1813 4867  2288 2595 4779  777 2986 5094  3022 3626 5103  2225 2353 2373  936 939 940  1681 1843 2025  1531 1991 4807  502 4029 5410  4377 4380 5296  2939 2940 3447  2556 2751 4544  1004 1076 1098  800 2962 4985  4102 4107 5183  3909 3910 3911  3378 4766 5542  1886 1887 1888  1111 1112 1113  1609 1610 1611  2010 2496 2939  1943 1998 2985  3012 3835 6009  1861 2062 2063  4197 4198 5627  2582 2583 4650  3945 3946 5833  2673 3203 4778  3341 3378 4766  4646 5856 6038  1034 1035 1036  3129 3130 5357  4064 4065 4066  2229 2555 4673  4007 6007 6280  1465 1467 1496  1348 1349 1396  1846 2210 2211  436 575 2054  1338 1339 1340  2030 2031 2032  960 1232 2975  371 431 4607  1884 1885 1886  1841 2229 3010  1889 1890 4688  3186 3188 4934  1630 1632 3044  2848 4782 5201  819 821 2969  3557 3558 3902  366 432 4598  1853 1854 1855  1746 4753 4754  3012 4816 5843  3871 4664 6299  926 934 4741  3855 5427 6056  1765 1766 1768  1067 1273 4912  1701 2175 5031  3030 3075 3708  837 1206 5668  2053 2141 2765  1225 2901 4720  1764 1771 2137  2955 2956 3719  660 662 1746  2037 2038 2039  3126 3864 5171  3578 5396 6170  745 747 4407  2569 2800 3081  1552 1553 5064  2505 2506 3011  31 32 4636  2020 2021 2165  3099 3302 4713  1527 2259 3264  2888 3403 3554  426 4610 4611  3011 3012 3835  1036 1037 1038  1669 1670 1671  1551 5242 5295  3165 3555 3574  2619 3711 3712  453 4587 5893  377 378 4642  2438 2439 2440  2427 2428 2429  1882 1883 1884  1733 4677 4691  2558 4344 6350  518 3829 6311  798 1733 2505  3274 3275 3276  3651 3652 3653  2774 2776 3414  362 363 4665  3093 4439 4440  1134 1643 4776  1685 1687 1688  2386 2719 2720  808 5147 5682  3119 4338 4639  3007 3340 3341  80 81 4810  3341 3342 3343  3176 3271 3272  1074 3970 5825  800 811 2962  1945 1946 4692  660 1746 4753  2939 3447 4728  2480 2547 3407  3561 3563 6219  1281 1283 5953  2575 5447 5475  1364 1367 5235  769 4809 4895  2806 3683 3684  2788 3671 6005  4253 5820 6362  369 370 4674  888 889 890  777 779 2986  3373 5148 6108  1855 1856 1858  3226 4394 5434  890 891 892  3131 3211 3920  3765 5688 5838  1091 1093 1096  409 4618 4619  1059 4263 5361  734 735 736  1546 1547 1618  3829 5681 6164  3003 3006 3007  1724 2294 2552  3263 5568 5664  2264 2727 2728  2874 5256 6004  1544 2999 5054  892 893 894  374 375 4680  1671 1672 1673  3857 4940 6022  894 895 896  1878 1879 1880  741 742 743  1127 1128 1129  819 2969 4995  1922 4492 4817  1096 1097 1225  1870 4985 5038  3530 5606 5949  4544 4545 4548  1918 4297 6151  2816 3617 3618  3518 3520 3522  1598 1599 1600  922 2845 4774  2429 2430 2431  1684 2781 4363  971 1003 1004  1790 2171 2365  2076 2499 2955  3926 3929 3931  2360 2875 2876  2368 4457 5587  1600 1601 1602  4145 4154 5527  2051 2052 2053  2194 2736 4886  372 373 4678  2087 2089 4947  1475 1498 1499  3453 3687 6062  2849 2851 2852  1470 1474 1475  1990 3034 4890  3073 3370 3526  2891 3009 3221  1917 3404 4830  1820 1821 1822  1768 1769 2144  2969 3216 3511  1813 1815 1816  1697 2269 5346  1319 1363 4714  805 4872 5029  1454 1462 1463  2892 3305 3539  175 176 454  337 338 455  885 887 888  2515 4592 4765  2561 2562 2563  2978 3759 6259  1266 1313 1314  32 520 4636  2843 3102 3402  3825 3826 3827  1773 2111 2232  879 881 1505  1688 1689 1691  2570 2661 3227  3038 4453 5476  1009 1010 1011  2076 2955 4881  2500 2704 3184  1544 2065 2999  2563 2564 2565  1967 1968 1969  1722 3412 4987  1315 1316 1711  2523 3119 4573  4618 4619 4814  488 4301 5351  1314 1394 1395  1192 1199 1200  4187 4188 6149  4022 4023 5120  1083 1866 2543  4158 4160 5451  3468 4718 5136  680 4447 5853  1234 1265 1266  1785 1819 1820  2324 2359 2582  2799 3924 5331  2961 3175 3176  1964 4256 5421  381 409 4618  588 590 597  2911 2912 2913  2787 3671 3780  792 5850 6266  1874 1875 1876  3224 4005 5434  1090 1091 4660  1549 1655 1656  4117 4118 4119  1978 4853 4882  2321 2323 2324  2348 3063 3718  2224 2330 2331  942 944 4783  3019 3020 3021  1113 1114 1115  3379 3380 3381  3858 3859 3860  3027 3028 3029  3104 4721 4722  1176 1178 1179  2965 3579 4471  1499 1548 1549  3009 3222 5288  35 450 4773  875 998 1106  1822 1823 1824  781 783 1083  3383 3384 3385  367 368 4671  2908 2964 3528  569 5485 5662  3595 3597 3841  4018 4021 4884  563 3638 3643  2272 2273 3500  2137 2138 2186  2478 2921 2922  686 797 5422  877 4513 5983  1340 1341 1342  2114 2763 5004  769 878 4809  2821 2868 3939  2431 2432 2433  758 762 1922  1054 1061 5496  2979 3683 5161  670 671 672  4200 4201 4202  3405 3406 5707  2955 3719 6232  3108 3676 5170  3221 3222 3223  1472 1780 1793  1091 1096 4660  817 831 1439  2811 3360 4930  3978 4872 5029  1622 1623 1986  427 4609 4644  1414 1415 4675  3514 3614 4825  415 5326 5529  240 241 411  3771 6136 6237  80 525 4810  3304 4096 4654  1694 1696 1699  176 454 4693  1354 1531 1532  2656 3061 3062  1395 1514 1515  1534 6171 6377  1342 1343 1344  3605 3606 3783  1223 1263 5113  2229 3010 4673  684 685 686  1656 1871 1872  2496 2939 2940  772 4648 4914  828 833 835  4090 4091 4092  2347 2960 2961  672 673 674  3628 3630 4931  3653 3654 3655  1843 2025 2026  2950 4750 4877  2012 2364 3027  1991 4669 4807  1722 2013 4987  425 4907 5963  1793 1794 2147  3090 4687 5531  680 683 684  1217 1219 4528  629 630 631  1089 1218 4835  686 687 688  4202 4203 4204  1536 1545 1546  1717 1720 2168  550 5013 5784  1256 2953 4771  4062 4068 5880  2296 2340 2593  241 242 4759  1335 1337 4430  688 690 691  3598 3731 3732  600 4221 4676  3376 3377 3552  4612 4614 6038  1226 1228 1229  3708 3709 3710  3225 3226 4392  743 744 745  2064 2349 2350  691 692 693  139 518 4851  674 675 676  3810 3811 5879  1831 1833 1834  1824 1825 1826  3725 3727 5931  693 695 696  910 911 912  3385 3386 3387  3104 3105 4915  2552 2706 2908  3298 3564 4826  2922 2923 2924  3223 3224 3225  1344 1345 1346  3623 3624 5847  2579 2580 3140  4086 5558 6289  1922 2130 2131  196 197 460  316 317 461  3431 4539 5783  1973 2291 2708  3473 3475 4587  2365 2521 2534  3669 4683 5302  1809 1811 3217  3188 3375 3376  676 677 678  2252 2796 5071  3086 3209 5570  1519 1529 1530  242 243 533  2545 3357 4721  2085 2221 5049  2506 3012 4816  2595 4779 4780  4673 4784 4858  2487 2557 4682  273 472 5063  1115 1116 1117  2744 2842 2843  3699 4344 6350  2096 2387 4896  4456 4459 5189  1483 1542 2135  2012 3027 5140  1826 1827 1828  1046 1047 1048  3091 3580 4622  3545 3546 3547  2209 4427 5334  1446 1681 1843  3820 4949 6201  1485 1486 1535  3035 4839 5317  678 679 680  1857 2011 2690  4576 4577 5780  2694 2695 5358  1005 1667 4861  1677 4862 5108  2730 3117 3513  2941 4818 5520  2663 3091 3092  1596 4098 6255  2072 4385 5356  944 946 964  955 966 2277  1346 1347 1471  1463 1465 4737  3710 3936 3937  1786 3487 4806  1311 1322 4845  138 426 4851  195 196 4768  317 318 4769  736 737 738  1467 1484 4831  3237 3266 4008  3202 3203 3460  666 668 670  2545 3351 3357  2183 2300 4820  3665 3967 3968  2186 2187 2188  1956 4075 5425  1702 2175 2176  3588 3589 3590  4093 4796 5594  2462 2793 5046  479 4401 6081  3387 3388 3389  867 874 4940  816 827 828  2854 3023 3761  904 905 906  3025 4509 5508  3506 3699 5592  2433 2434 2435  2562 2564 5331  1040 1041 1042  3872 5563 5803  89 90 4916  1750 1752 2897  1285 1286 1325  1463 1841 4737  1876 1879 5124  3389 3391 3392  1689 1691 4764  782 784 785  4119 4120 4121  194 195 535  318 319 537  3392 3393 3394  1439 1503 2108  2852 2853 2934  2288 2318 2595  2486 3322 4560  836 838 1749  2713 5121 6019  2249 2251 2296  611 612 613  594 600 3966  2969 3511 4792  3394 3395 3396  3597 3841 4773  2376 4877 6075  2164 2503 2504  2331 2527 2528  2062 2063 2064  1270 1327 1328  1530 2006 2007  1055 5234 5347  718 720 4757  1619 1621 1622  561 4301 5351  1975 2679 2844  3316 3320 3321  2472 2473 2474  1828 1829 1830  988 991 4630  3591 3593 4465  1274 1853 5011  197 198 4767  3727 3728 5720  271 272 4801  987 988 989  2651 3194 3195  2645 3242 4918  500 3890 5056  778 780 2276  1129 1130 1131  1464 1466 1742  2487 2488 2700  967 970 971  2593 3437 4315  1858 2215 2382  1202 1204 1205  3195 3544 3545  245 246 437  944 964 4783  193 194 4787  319 320 4788  3655 3656 3657  706 707 708  2934 2935 2936  878 1480 4809  632 633 634  2676 3356 5034  939 940 941  3259 3260 3716  138 139 4851  977 984 985  2134 3047 3669  2893 4681 5454  1674 1676 1677  2391 3121 3323  3900 5682 6079  2895 5012 5555  916 917 918  2951 2952 3446  2913 2914 2915  773 774 775  2940 3447 3448  2963 3090 3692  378 477 4642  962 969 2707  2188 2189 2190  3106 3190 5648  243 244 4770  3517 3521 4000  1564 1565 1566  3084 5207 5465  756 1988 4750  1435 1436 1485  985 986 987  2440 2441 2453  2422 2456 5697  2988 2989 3174  1639 2142 2225  963 4188 5929  2131 2511 2654  3733 3734 3735  1624 1626 2272  2274 3531 4866  1754 1756 1757  696 697 698  1117 1118 1119  2314 2551 2646  1310 1737 5084  918 919 920  1934 2174 3085  2640 2641 3445  3483 5048 5198  775 776 803  3554 6131 6249  3590 3591 3592  246 247 4781  4308 4686 5471  2147 2148 2463  2772 4222 5274  1611 1612 1613  192 193 473  320 321 474  1060 1061 1062  3596 3597 3598  2565 2567 4747  1477 1701 1702  988 989 4630  1050 1053 1054  1665 1666 1739  3002 3004 3005  3460 3461 3462  3598 3732 3733  3021 3822 3823  912 913 914  2793 3505 3608  2550 4901 5064  2660 3205 3281  1080 1081 1082  3012 5843 6009  3406 5707 5775  1740 2651 4936  914 915 916  1834 1835 1836  3177 3178 4725  2664 3473 3475  1413 1415 5317  1413 1414 1415  3582 6023 6356  2039 2040 2041  3594 3595 3596  1330 1853 1854  1085 1090 1091  923 925 1304  1727 1728 2081  1300 1301 1354  1740 2650 2651  799 801 805  524 3841 6261  2373 3079 3080  4121 4122 4123  247 248 539  1082 1084 1085  3321 3426 3427  2765 3134 3523  3024 4086 6289  3732 3733 3734  1925 2312 2314  2909 5325 6227  2513 4491 5388  878 880 1480  2448 2538 3058  2716 2984 3259  2555 4673 4784  1334 1335 1442  1860 4623 4998  1351 4520 5009  1042 1043 1044  930 932 952  3595 3596 3597  1863 4927 6202  3592 3593 3594  2565 2569 4747  2736 3621 4886  198 199 536  314 315 538  948 950 951  1503 1724 4745  3663 3665 3762  1463 1464 1465  1778 2270 2271  4107 4270 6272  1363 4714 4715  1663 1664 1665  3381 3383 3384  4242 4245 6281  935 938 1839  1205 1212 1213  3869 4279 6299  808 5155 5682  2190 2191 2201  3364 3949 5828  2864 2866 2988  1618 1619 4662  951 956 957  3343 3379 3380  1585 1586 1587  1757 1758 1759  1836 1837 1844  1703 2120 4952  3661 3662 3663  1047 4761 6270  3140 3529 5223  1844 1845 1920  1213 1276 1278  691 1537 5575  2701 3040 3042  745 746 747  2600 2827 5158  565 4083 6181  2010 2939 4846  1184 1186 1189  2087 2088 2089  3042 3261 3262  1172 1173 1175  2210 2211 2662  1202 1208 4828  1574 1576 1577  809 810 813  738 739 740  2201 2202 2203  363 512 4665  1759 1761 1762  871 5667 5872  3633 3635 3636  1538 3895 5203  2617 2619 3711  1536 1546 4694  2032 2033 2034  1619 1622 4662  993 1005 1007  2344 2681 3424  4150 4151 4152  4792 5304 5449  3122 3423 3498  1441 1502 1727  3666 5313 5639  882 884 2260  2532 2938 3142  1863 4661 6202  1672 1673 1674  906 907 908  1491 1849 4579  1056 1073 4885  2620 2623 4532  1693 1795 5737  2940 3448 3769  1920 1921 2106  3396 3588 3589  513 4666 4667  1383 1385 4852  1257 1275 1300  3429 3478 3479  3462 3463 4409  886 947 948  2633 2634 2861  2863 4643 5509  2245 2246 2247  1444 1453 1454  3092 4007 6007  1975 2844 5042  2861 2862 2863  3466 4634 5336  957 958 959  1361 1489 5185  1727 4448 4926  873 5813 6102  2705 3415 3416  4243 5726 6019  1007 1667 1668  1762 1765 1766  1854 1855 1856  2087 2329 4947  1995 2113 2344  4146 4147 4148  2710 4530 4531  4487 6007 6280  1990 2327 3034  2720 3334 3335  2011 2496 2497  1526 1552 1553  1229 1230 1256  2283 2286 5027  805 806 809  1524 1525 1526  3332 3418 3691  370 431 4674  1235 1267 1420  3659 3660 3661  2612 2613 2848  2061 2494 2495  2610 2611 2612  2608 2609 2610  1503 2108 4745  3022 4272 5103  943 945 2957  3589 3590 3591  2872 4006 4007  3593 3594 3595  1428 1429 1430  716 717 718  3203 4778 5441  1371 1372 1435  1915 1927 1928  1575 3846 6090  2049 2050 2051  803 815 816  2110 2315 2532  2631 2632 2633  1169 1170 1172  1504 2020 2021  4199 4201 5621  1522 1523 1524  250 251 412  2203 2204 2205  4609 4643 4644  3043 5141 5334  251 252 4798  1430 1432 1433  1093 1096 1097  252 253 540  2669 2670 4843  3390 4054 6380  2540 2685 2686  2781 4363 4758  2081 2082 2199  1352 1478 1520  3545 4089 4873  1668 1669 1670  1689 1692 4764  255 256 438  1838 4990 5288  1005 1006 4861  257 258 541  2504 3072 3073  2550 2653 3419  1131 1132 1133  1335 1442 4430  254 255 4799  1143 1144 1145  3702 3932 6040  4140 4141 4142  1141 1142 1143  260 261 413  261 262 4800  262 263 542  265 266 439  267 268 543  1137 1138 1139  274 472 5086  2180 2184 2275  270 271 414  1139 1140 1141  3648 4711 4712  1145 1146 1147  1243 1245 4702  1373 5781 5845  2625 2627 3421  1135 1136 1137  1179 1181 5146  820 822 823  942 4783 4924  813 814 817  1147 1148 1149  2257 3405 3406  575 2687 3278  2874 3531 6284  1190 1192 1199  3006 3007 3340  2021 2165 2166  375 427 4680  1433 1443 1444  1133 1134 1135  1602 1603 1604  701 703 5554  2390 3120 3122  3340 3341 3342  3538 4054 6380  2308 2309 2669  2168 2169 2721  1719 1722 2668  959 972 973  1410 1412 1413  1225 1226 4720  2019 2549 2550  793 794 798  1570 1571 1572  2670 3212 3214  2173 2703 2705  2010 2011 2496  2205 2206 2207  2932 3148 3149  2981 3371 5161  754 4551 5997  896 898 4655  1661 1662 1663  1432 1443 1842  71 72 5176  1535 1536 4694  3384 3385 3386  3119 4573 4639  4418 4441 5284  1202 1205 4828  1226 1229 4720  2278 2724 3131  2400 2402 2403  2918 2920 3292  4448 5624 6306  1464 1465 1466  1679 3186 3689  3051 3060 3980  584 586 1792  931 932 933  929 930 931  1520 1521 1522  373 517 4678  3917 3918 5345  1159 1160 1161  1067 1068 1094  1052 3958 5800  2250 2254 4267  973 1017 1018  4377 4378 4379  1161 1162 1163  2207 2208 2302  789 790 793  1157 1158 1159  2740 2742 4670  1149 1150 1151  2302 2303 2304  4457 4459 5587  4521 4780 5970  1203 5518 5691  2304 2305 2335  1163 1164 1165  1906 1907 1908  4478 4481 5523  1167 1168 1169  2848 4782 5117  926 928 929  4130 4407 5751  811 2962 3229  2287 2674 5047  4023 4024 4025  2571 2630 2631  3095 3218 3219  3076 3297 4832  649 3936 5547  1389 1391 2483  3388 3391 3540  1155 1156 1157  2166 2523 2524  4123 4125 4126  3386 3387 3388  2435 2436 2437  865 3050 3051  2424 2457 5697  2627 4347 4818  1426 1427 1428  1092 1852 2709  1458 1648 1649  1153 1154 1155  783 1083 1866  1879 1880 5246  3393 3394 3395  1839 2307 2308  2470 2743 3054  1454 1463 1464  1644 2807 5020  4305 4312 5092  1151 1152 1153  2398 2399 2400  2606 2607 2608  152 153 4664  2335 2336 2481  3591 3592 3593  1871 1872 4789  1013 1014 1067  1223 5113 6046  1813 1816 4867  2175 2660 5031  3266 4567 5349  2057 2297 2298  1011 1012 1013  3391 3392 3393  640 873 5035  785 786 787  1165 1166 1167  1427 1429 1528  3342 3343 4738  2686 3328 3330  927 4774 4857  1670 1671 1672  2534 2737 3467  5313 5639 6230  4714 4715 4804  3360 4541 4930  1319 1320 1363  3154 5410 5776  2543 3104 4721  2449 2539 2540  3158 3159 3160  2320 2322 3338  1277 4524 5077  4021 4024 4884  1097 1225 1226  3217 4867 5188  1488 1847 1995  1841 3010 4737  2298 2889 2891  740 741 742  1724 2552 4745  2890 3331 3332  821 2969 3216  2477 2531 3502  3388 3389 3391  787 788 789  933 935 936  1774 2261 5003  1856 1858 4846  3339 3508 3509  1588 1589 1590  909 937 2714  823 824 825  1994 2194 4886  2950 4877 5609  768 4484 5759  3027 3029 4848  241 411 4759  4071 4262 5372  4480 4650 4651  1424 1425 1426  368 515 4671  1014 1068 1297  2396 2397 2398  1179 1180 1181  1265 1266 1313  2041 2042 2043  2289 2390 5016  1471 1472 4790  2523 2524 4573  429 4431 5933  426 4611 4613  924 925 926  2530 3116 4400  768 4484 6293  896 897 898  2112 2973 4994  1002 1008 1009  2565 2566 2567  2121 2122 2123  3384 3386 3397  1287 1507 5068  2715 2992 3300  2111 2232 2233  1691 2560 2561  889 890 891  1364 1366 1367  895 896 897  3267 4002 5643  1890 1891 1892  922 923 924  2879 4266 6361  3734 3735 3736  920 921 922  1422 1423 1424  2714 2715 4855  4760 5046 5589  2582 2954 3008  757 759 760  1766 1768 1769  2052 2053 2141  2070 2462 3082  2322 3339 3507  1299 1978 4853  3481 4708 5722  2568 2571 2572  1079 1253 1781  2026 2388 2657  891 892 893  1231 1233 3094  893 894 895  2309 2670 3088  2567 2568 2570  2998 3483 5048  1313 1314 1394  1001 1008 1353  2572 2630 2892  1106 1107 1108  3306 3894 5644  1000 1001 1002  2394 2395 2396  5577 5808 6119  3618 3619 3620  3509 3957 4539  426 4613 4851  4106 4922 4923  742 743 744  1394 1395 1514  2590 3177 3178  887 888 889  2328 3173 3198  1263 1264 1319  791 4101 4937  1711 2493 4775  835 981 982  539 3885 6163  2763 4248 5004  2632 2634 3553  3370 3526 3805  3488 3938 4606  982 999 1000  2471 2743 2744  1517 1519 1529  1542 1543 1584  3380 3381 4844  2560 2976 3282  2831 4566 4567  1353 2320 2321  4479 4483 5523  3422 5223 6285  2199 2468 2469  2723 3605 3606  2308 2669 4858  4420 4733 4811  1098 1258 4434  1476 1539 1984  3333 5087 5495  3423 4354 5938  3091 3092 4622  2287 2289 2674  3362 3363 4965  242 533 4759  2146 4707 5896  3301 3765 5890  2047 2048 2049  1320 1364 1365  1094 1095 1223  1312 1338 5084  2280 2281 2282  2577 2803 2838  568 5364 5659  3911 3912 3913  2702 3301 3512  2148 2463 4982  1443 1444 1453  1543 1584 1585  2704 3184 3491  2308 2930 4858  1328 5804 5958  1420 1421 1422  1940 2342 3065  4061 4064 4065  2045 2046 2047  676 871 5667  4510 4831 5571  3878 3879 5308  605 607 608  1861 2063 5108  1038 1039 1040  846 850 6099  2489 2994 3043  1585 1587 1588  932 933 935  941 942 943  930 931 932  201 202 442  311 312 444  704 706 707  3272 3273 3274  928 929 930  937 2715 2991  4186 6030 6263  2862 2864 2865  3544 3545 3546  3688 5602 6045  2113 2681 3000  1223 1224 1263  1866 2543 2545  1514 1515 1731  274 275 5086  3454 3687 5187  643 645 646  936 938 939  1471 1583 4790  152 457 4664  189 190 497  323 324 498  3392 3394 4967  2656 3062 4909  3504 3505 6105  2834 3155 3156  1465 1466 1467  2640 5603 5864  2043 2044 2045  1048 1049 1050  1552 2019 5064  1547 1618 1619  2352 2470 2471  591 593 4708  939 941 942  2338 2648 3401  1781 1782 1783  3099 3525 4713  2505 3011 3978  1429 1430 1432  3812 3813 5675  1831 1834 4919  4112 4114 4129  1460 1556 1730  3401 5291 5352  1892 1894 4808  1432 1433 1443  2007 2009 2100  3088 3212 3213  2646 3239 3240  3381 3384 4844  2297 2889 2890  1095 1224 1923  4650 4651 5126  196 460 4768  317 461 4769  2809 2811 4930  799 805 4872  935 936 938  2496 2940 4803  747 748 749  2781 2787 4758  4480 4482 4815  782 783 784  1187 5106 5952  700 702 3036  2711 3670 3839  1857 2010 2011  600 3966 4676  2669 4843 5224  1904 3576 3577  2670 3214 4843  925 926 928  3406 4871 5417  2216 2716 2984  2079 2487 2488  2133 2645 4918  3862 3874 4882  1858 2382 4846  953 4661 6329  1091 1092 1093  1880 1881 1882  1782 1784 1786  806 809 810  2736 3263 3621  3242 4503 4918  941 949 4849  2392 2393 2394  780 781 782  2866 2989 2990  3436 5609 5781  3611 5988 6144  1252 1299 4853  1783 1784 1785  765 766 767  199 200 4791  942 943 944  1061 1062 5473  3870 4402 4562  1427 1428 1429  2550 3419 4901  2284 2285 2310  640 642 5035  3013 4521 5970  127 422 5708  128 507 5708  4104 4108 4358  2604 2605 2606  2569 3081 4747  763 764 765  1009 1011 1012  2372 2760 2824  2967 3059 3561  1772 4672 5030  1115 1117 5996  4017 4018 4884  2796 4361 5071  1545 1546 1547  1043 1044 4802  1108 1109 1110  1440 1501 1869  2350 2351 2352  801 805 806  760 761 763  2583 4480 4650  3343 3380 4738  2282 2283 2284  1062 1079 1080  2113 2344 2681  3239 4862 5108  2469 2813 2814  1746 4754 5782  1584 4486 6370  2824 3132 4070  668 670 671  2573 4408 5045  1676 1677 4862  1396 1397 1459  1078 4911 5195  2570 3227 4813  1592 1594 2972  2651 3195 5282  3116 4400 4401  2557 4331 4682  2314 2646 3239  3362 4901 5456  197 460 4767  1065 2348 3063  4630 4964 5205  1198 2077 2392  1604 1607 5405  2517 4155 4156  918 920 921  1531 1532 1990  1401 1404 1405  815 827 5768  1299 1362 1978  671 672 673  923 924 925  1373 3951 5845  2739 5073 6284  2463 2464 3083  842 844 845  1916 2145 2997  4540 5207 5465  1529 1530 2006  3555 4274 6375  2496 2497 4803  2891 3221 3532  1085 1091 1092  195 535 4768  318 537 4769  1595 3304 4096  3836 5298 5947  2866 2988 2989  3785 4337 5544  1483 1484 1542  683 684 685  3449 5170 6258  1931 2212 5789  2826 2827 2828  921 922 923  943 944 945  3194 3195 3544  4143 4154 5840  2657 4568 6243  1237 1238 1239  2324 2582 2954  949 1938 1939  1688 1691 2560  1991 2327 2328  5485 5662 5903  3446 4246 6039  646 647 648  673 674 675  3356 4168 5034  528 5679 6196  794 799 800  2563 2565 2566  2064 2350 2351  1587 1958 4913  2118 2316 2367  1876 1877 1878  3063 3718 4165  3643 3644 3645  1316 1711 5125  1421 1423 1431  506 4282 5920  2494 2872 2987  810 813 814  1711 2492 2493  591 4708 5722  788 790 1870  2977 2978 5906  1786 1787 1788  794 798 799  762 1922 2130  938 1839 2307  675 676 677  2984 3259 3260  2225 2373 3079  1466 1467 1483  2437 2438 2439  2857 2885 5316  2141 2765 4875  800 801 811  1054 1059 1060  1680 2180 2184  243 533 4770  1110 1111 1112  1869 1997 2360  744 745 746  2632 2633 2634  1018 1020 1074  2662 2677 3294  790 793 794  360 361 4663  987 989 1419  989 1419 1479  685 686 687  2862 2863 2864  2275 2666 2667  2526 2584 2585  528 5189 5679  1587 1588 1589  677 678 679  1258 4434 4709  687 688 690  784 785 786  1368 1370 1371  944 945 946  1367 1368 4942  3606 3783 3837  1637 2073 2074  690 691 692  531 4338 5741  1014 1067 1068  1613 5507 6381  634 635 636  819 820 821  1861 2061 2062  692 693 695  1484 1542 1543  2151 2155 5203  202 203 4863  310 311 4819  1251 1298 4971  2634 2861 2862  695 696 697  1043 1750 4802  2377 2925 2926  1181 1182 1183  710 712 1936  2942 5497 5692  1425 1426 1427  444 4819 5841  908 909 910  4134 4136 6087  2448 3058 5154  1674 1677 1860  1677 1860 1861  806 810 1848  2630 2631 2632  2547 3407 3408  1531 1990 1991  679 680 683  2421 2423 2446  1055 1072 5234  1664 1665 1666  2417 2419 2442  638 639 640  2309 2669 2670  2499 2955 2956  1932 1934 2174  1318 1334 5125  2650 2651 3194  1486 1535 1536  3835 6009 6089  822 824 829  2761 5519 6217  2971 3700 5444  3359 3610 5915  1856 1857 2010  2411 2413 2447  640 641 642  1214 1810 4983  1941 2004 3095  828 835 981  714 716 717  3188 3376 4934  928 4547 5530  675 4181 5438  1012 1013 1014  788 789 790  3331 3332 3418  194 535 4787  319 537 4788  1958 2640 2641  4148 4150 4151  1024 1026 1052  1785 1820 1838  2210 2662 2677  534 3848 5992  2307 2308 2309  1928 1930 2072  631 632 633  4136 4799 6087  2940 3769 4803  1081 1084 5500  814 818 819  3242 3713 4503  782 785 4822  1423 1424 1425  1788 2057 2058  428 4956 6194  615 616 617  1078 1685 4911  778 779 780  2322 3338 3339  781 782 783  2849 2852 5117  2407 2409 2450  531 4693 6017  4144 4146 4147  1467 1483 1484  2593 2594 4315  1847 1995 2113  1060 1062 1079  3097 3098 3099  1872 1873 1874  2990 3459 3892  2050 2051 2052  1854 1856 1857  780 2276 4822  784 786 796  2488 2700 2701  2814 3096 3097  1852 2710 3037  2895 4745 5012  2528 4502 5674  799 800 801  3508 3509 3957  3497 5814 5984  2915 3452 3494  2494 2495 2872  2058 4424 5610  1479 1488 1846  2108 2338 2339  865 3051 4757  2286 4779 5027  3339 3507 3508  1235 1265 1267  2489 3043 5141  731 866 6338  1624 2272 4900  751 752 756  2364 3027 3028  1912 1915 1927  1372 1436 1919  786 787 788  2670 3088 3212  1846 1847 2210  1001 1002 1008  1234 1235 1265  1274 1275 1330  848 851 1796  275 276 4743  697 698 769  2681 3000 3048  1097 1226 1227  2679 2844 3484  3059 3561 3563  4372 4376 6317  4138 4140 4141  2034 2035 2036  3003 3004 3006  1327 1446 4824  2320 2321 2322  722 724 755  3360 3611 4541  2864 2865 2866  2543 2545 4721  2455 2676 5034  2715 3300 4855  1046 1048 1049  779 780 781  814 817 818  1540 2114 5004  321 322 5041  636 637 638  2425 2427 2443  2028 2029 2030  2728 3030 3075  2297 2298 2889  3173 3198 3677  1908 1910 1926  3099 3245 3525  979 1015 1057  2493 2910 2911  3040 3042 3261  1232 1233 1234  1988 2376 4877  2812 3362 5456  2992 3300 3556  2315 2532 2938  1529 2006 3001  749 750 751  1666 1739 1740  2571 2572 2630  1775 2102 4280  2444 5208 5214  3028 3029 3781  2560 2561 2976  1008 1353 2320  2568 2570 2571  1421 1422 1423  937 2714 2715  4021 4023 4024  2908 3528 4536  2315 2938 3244  2566 2567 2568  999 1000 1001  1044 1045 1046  246 437 4781  1613 1641 1642  1866 2545 3033  870 978 979  3053 4286 5582  3073 3074 3370  2936 2965 4812  2917 2919 6153  3001 3002 3003  1280 1282 1284  193 473 4787  320 474 4788  1301 1354 1531  2470 2471 2743  3426 3427 5480  1233 1234 1235  1267 1420 1421  4373 4377 4378  1030 1032 1051  1903 1906 1907  1050 1054 1059  1201 1644 5020  1628 1629 1738  4033 4034 5744  901 903 960  2715 2991 2992  947 948 950  950 951 956  2677 3294 3295  2403 2405 2629  2889 2890 3331  2036 2037 2038  2336 2482 5665  1851 2224 2330  746 747 748  209 470 6092  956 957 958  2159 2738 2739  3129 5357 5503  4434 4709 4710  1068 1094 1095  3367 5420 5725  2174 3085 3086  1494 4581 5191  981 982 999  3180 3181 3182  1394 1514 1541  2361 3280 3465  902 903 904  1216 1661 1662  1916 2997 4970  2989 2990 3459  2488 2701 3039  1471 1582 1583  1735 5520 5536  1200 1202 1204  2381 2672 2854  1583 2143 2381  2504 3073 3074  674 1709 5667  3144 4860 5871  1830 1831 4919  1226 1227 1228  1036 1038 1039  198 536 4767  4887 5442 6173  1852 2709 2710  3376 3552 5854  2006 2007 4946  1472 1793 4790  1253 1781 1782  3039 3040 3041  1896 1898 1901  1569 3694 5763  2284 2310 5000  2926 2927 3133  3909 3911 3912  2143 2672 2673  900 901 902  1911 1914 6245  3176 3272 3273  1436 1485 1486  3437 3672 6025  2383 2760 2963  3225 4392 4395  1822 1824 1924  912 914 1867  1439 2108 2338  203 204 544  309 310 545  1419 4727 4948  1366 1368 1369  1257 1300 4771  2322 3507 4903  717 718 865  909 910 937  1369 1370 1527  1079 1080 1253  1888 1890 1891  1826 1828 2231  822 823 824  820 821 822  898 899 900  1320 1363 1364  670 4354 5873  2429 2431 2444  4430 4856 5017  247 539 4781  1782 1783 1784  697 769 877  1750 2897 4802  958 959 972  3274 3276 3550  471 4210 6205  3144 5504 6018  1177 2112 4994  2743 2744 3025  2371 2372 2383  3114 3399 3481  1098 1099 4434  1327 1328 4824  2673 2929 3202  613 614 615  1990 1991 2327  718 865 4757  3074 3370 4163  1884 1886 1918  1007 1668 2996  1390 4488 5620  2130 2131 2511  677 679 681  972 973 1017  717 865 3049  1670 1672 1675  1721 2014 3901  3384 3397 4844  1773 2110 2111  2587 2589 2590  707 708 772  1228 1229 1230  1784 1786 1787  1787 1788 2057  2147 2463 2464  2351 2352 2470  1264 1319 1320  2973 3681 4582  1662 1663 1664  140 141 5328  1419 1479 1488  3002 3003 3004  3539 5113 6046  2061 2062 2494  2732 3162 3163  1695 1698 5737  2661 3228 6003  690 692 694  2571 2631 4813  3423 3498 4354  2545 3033 3351  1769 1772 1773  648 649 650  2710 3037 4530  958 972 974  586 588 4734  885 886 887  2807 4537 5020  1372 1435 1436  829 5179 5349  1488 1846 1847  1891 1904 3476  883 884 885  3072 3073 4941  1527 3264 3265  3105 4493 4915  608 609 610  2872 2987 4006  2511 2654 3045  2006 3001 3002  2057 2058 2297  2703 2705 3415  1385 1389 4852  2941 4660 5520  881 882 883  2739 2946 3674  1227 1228 3111  1092 1093 1852  2464 3083 3233  3392 3573 4967  3033 3351 3352  667 668 669  1364 1365 1366  1752 1754 4827  1834 1836 2226  665 666 667  2068 2264 2727  663 664 665  2239 2240 2241  811 3229 3230  2509 3989 5359  780 782 4822  1860 1861 2061  3121 3323 3324  1148 1209 6374  2750 3333 5087  204 205 4864  661 662 663  777 778 779  1446 1843 4824  1026 1028 4894  3207 3559 3560  2996 4964 5205  1766 1769 1772  1095 1223 1224  1759 1762 2158  879 880 881  272 273 5063  2375 5576 5666  1844 1920 2368  2174 3086 3087  950 956 1979  893 895 953  1760 1764 5025  659 660 661  3813 3814 5685  271 414 4801  818 819 820  1981 4052 6327  423 4282 5795  2750 5087 5190  1881 1916 1917  935 1839 4869  2881 3068 3192  1258 1307 4709  766 768 777  3818 3819 3820  3003 3007 5254  913 963 5724  2637 2884 6215  2807 3690 4537  766 767 768  2530 3115 3116  1059 1060 4833  3004 3006 3093  2594 4315 4316  1275 1300 1301  2912 2914 5070  2481 3053 3067  1856 2010 4846  877 878 879  2938 3244 3458  657 658 659  2327 2328 3173  3205 3281 3746  5044 6329 6333  764 765 766  960 1231 1232  2215 2382 4871  3345 5573 5757  611 613 5959  3606 3837 3838  955 2277 5036  1551 4226 5512  1701 1702 2175  2062 2064 4847  3066 4934 6059  1752 2897 4827  969 2707 4850  761 763 764  1676 1925 4862  2627 3421 4818  1039 1840 2371  882 2260 4938  2973 4582 4994  2089 2091 2092  1621 1622 1623  3002 3005 4946  3459 3792 6347  889 891 1863  2137 2186 2559  943 2957 4849  3138 4322 6242  2963 3692 4731  1224 1263 1264  665 667 682  2175 2176 2659  655 656 657  927 962 4857  759 760 761  1666 1740 1975  2623 2625 4854  1814 1817 1961  3493 3497 3818  962 2707 4857  1045 4989 5372  2701 3039 3040  1878 1880 1881  1310 1312 5084  859 869 870  2714 4855 5452  1239 1240 1241  3050 3051 3060  932 952 4869  1368 1371 4942  991 4630 4964  1231 1232 1233  2713 4243 6019  76 77 5173  2765 3523 4875  2215 2257 4871  2385 4471 4812  4024 4025 4538  3491 3492 3493  1633 1635 1637  1649 1650 1651  449 4031 4311  757 760 4750  2439 2440 2441  414 3865 6242  1042 1044 1045  707 772 2172  798 2505 4872  4378 4379 4384  4445 5341 5836  4303 4305 5092  2787 3780 4758  726 728 1935  2110 2111 2315  2335 2481 3053  1809 3217 5119  408 5484 6309  1857 2690 4955  2720 3335 3336  3568 3697 4078  886 948 4949  650 651 652  2667 3236 3237  269 270 5253  1502 1727 1728  3098 3245 3583  1315 1711 2492  1754 1757 4827  4480 4651 4815  3208 5135 5751  1074 4588 5226  2343 2951 2952  4492 4817 5430  2190 2201 2647  1137 1139 1959  2793 3608 5046  854 856 857  1013 1067 4912  2649 3206 3207  2203 2205 3146  1119 1121 1194  977 985 4850  1407 1408 1658  1133 1135 1171  2148 2164 4982  652 653 654  2653 3419 3894  4736 4990 5288  768 777 778  653 654 655  596 4708 4834  2207 2302 2591  954 965 967  552 3967 6378  654 655 656  3309 3311 3312  1143 1145 1174  656 657 658  1917 2145 2366  658 659 660  660 661 662  662 663 664  664 665 666  666 667 668  1204 1205 1212  2549 2550 2653  1558 1560 1992  3177 4723 4725  1212 1213 1276  1183 1184 4881  1346 1471 1582  3120 3122 3423  1114 1115 1116  1181 1198 5146  174 4724 5630  1125 1127 1187  2949 3670 3721  2366 2711 2949  3087 3209 3210  1772 1773 2110  3993 3994 5018  3421 4818 5520  1525 1526 1552  2479 2546 3231  2399 2400 2402  620 1269 5200  906 908 909  761 764 1864  3452 3494 3495  1728 2081 2082  2467 2759 3145  1092 2709 4906  308 309 4865  3072 3443 4941  1938 2236 5250  3467 3468 3954  1523 1524 1525  732 734 754  2680 3144 4860  769 877 878  2041 2043 5956  2339 2648 2649  1651 1653 1789  2402 2403 4805  2760 2824 3132  2704 3491 3492  441 4339 5330  3132 4070 4552  4023 4026 5120  1874 1876 1877  1366 1367 1368  1256 1257 4771  2570 2571 4813  868 3038 5294  1326 1356 1357  3049 3050 3052  2248 2252 5071  1337 4430 4856  1405 1406 1407  1891 1892 1904  1147 1149 1960  1049 5695 5913  2778 4429 5265  2330 2331 2527  878 879 880  1961 1962 2478  880 881 882  880 1480 4938  742 744 753  882 883 884  884 885 886  1834 2226 4919  886 887 947  2397 2398 2399  683 685 1937  1357 1358 1359  1151 1153 1188  1157 1159 1195  2924 3535 3891  1547 1619 1620  2909 4008 6227  3282 4911 5195  2780 2967 3059  2597 3410 3411  2500 2703 2704  2395 2396 2397  4038 4039 5243  2553 3152 3153  3497 3818 3819  2172 2173 2500  1521 1522 1523  2995 3567 3568  3361 4224 5915  1662 1664 3084  901 902 903  758 759 762  1219 1261 4528  3356 3557 4168  2742 3017 4670  2273 3500 3501  4013 4014 5477  651 652 653  1975 2650 2679  3950 5561 5623  897 898 899  2397 2399 2401  752 756 757  2666 3236 3238  1515 1731 4880  756 757 4750  969 977 4850  579 581 6147  1486 1536 1544  1740 1975 2650  1235 1420 4891  251 412 4798  1625 1627 1628  1881 1882 1916  748 749 750  1925 2314 4862  252 540 4798  1596 4098 6011  2913 2915 3452  2321 2324 4903  899 900 901  2490 2994 2995  1478 1520 1521  1536 1544 1545  1082 1085 4906  728 730 4945  1361 1440 5185  1342 1344 1963  2270 2577 4870  3070 5416 5747  1787 4736 4990  2082 2199 2468  1079 1781 4833  752 757 758  1704 2121 2122  2492 2910 3289  2220 2603 2604  1789 1790 2171  1518 2096 5111  255 438 4799  3492 3493 3497  682 4485 5324  3008 4650 5126  2763 2859 4248  596 4172 4834  2372 2383 2760  1163 1165 1197  2813 3096 3730  1432 1842 4898  949 1939 4849  3063 4861 5248  1875 4789 5174  261 413 4800  3992 3995 5499  262 542 4800  2561 2563 4904  1330 1854 4955  884 2260 4949  524 4465 5823  461 5419 5821  2345 2596 3515  876 5156 6079  659 661 1865  2052 2141 2489  3086 3087 3209  239 240 5209  3890 4156 5942  1276 1278 5009  1370 1371 1372  1230 1257 1274  798 799 4872  1656 1872 1873  1116 1117 1118  1539 1981 4968  750 751 752  1969 1970 1971  865 3049 3050  2393 2394 2395  1263 1402 5113  597 598 602  1515 1517 4880  1706 2139 5420  3075 3708 3709  2141 2489 2490  2048 2049 2050  361 456 4663  2549 2653 3566  647 648 649  2509 3988 3989  1039 1040 1840  2535 2573 5802  2452 5343 5989  1532 1680 4890  2393 2395 2459  1840 4744 4989  2566 4756 4904  364 512 5397  1230 1256 1257  359 360 510  153 154 511  757 758 759  307 308 4893  2660 3281 5031  1321 4176 5182  3442 3881 5505  2270 2271 4870  3388 3540 4907  910 912 5033  702 704 4868  476 4887 5442  1169 1172 1210  1389 2483 4852  2007 2100 4946  1707 2140 5158  3445 5327 5482  602 603 604  1877 1878 4830  1562 1564 1565  2299 2615 5832  2387 2723 4896  1442 3118 3673  1532 1990 4890  29 452 5401  2130 2511 2512  1112 1113 1114  1904 3577 4808  772 2172 2173  1544 1545 2065  1438 3796 5557  2586 2588 3113  2184 2275 2666  903 960 1231  1499 1549 2167  1088 4540 5207  671 673 1868  1429 1528 4898  2257 3406 4871  1076 1098 1099  775 803 1324  2038 2039 2040  2171 2365 2521  4751 4752 6081  838 1749 4969  2173 2500 2703  932 935 4869  2866 2990 4859  1606 1607 1608  2792 3504 3701  3068 3455 4950  1233 3094 4891  736 738 1980  1988 4750 4877  1685 1688 4911  1997 2361 3279  3366 5446 5973  897 899 1983  2492 2493 2910  649 650 651  1338 2983 5084  3949 4865 5311  1810 1812 1818  3098 3099 3245  1729 4016 5597  2539 2540 2685  3028 3781 3782  2865 2866 4859  2468 2469 2813  3063 4165 5248  2623 4532 4854  3208 4130 5638  1904 3476 3576  863 3858 3859  1253 4806 5052  2209 5141 5334  1849 2790 4579  2390 3122 5016  4563 5123 6221  3280 3465 3702  937 2991 5033  3223 3225 4956  1490 1639 4910  1060 1079 4833  2143 2381 2672  566 4522 5883  2625 3421 4854  2481 2482 5116  698 700 4895  2813 2814 3096  1080 1082 5052  3231 3232 3790  2338 3401 4976  3760 4832 6031  2320 3338 4954  1840 2371 2372  941 943 4849  1946 1947 1948  3793 3794 5607  2910 2911 4028  3307 3571 5875  2237 3787 3788  1582 1583 2143  746 748 1965  864 2688 2689  2069 2461 3201  1057 1101 4748  455 4596 5222  1525 1552 2012  2685 2686 3328  2796 3247 4361  2474 2475 2476  3463 4409 5010  991 993 4964  610 611 612  1537 5575 5655  3419 5456 5541  321 474 5041  3519 3521 5242  2082 2468 3112  2284 3024 5000  2009 2079 4902  1408 1658 4839  2338 2339 2648  3860 3862 3863  1468 1470 2060  4037 4641 5981  3096 3097 3098  2077 2392 2393  1338 1340 2983  3541 5013 6368  2672 2673 2929  1521 1523 2101  4109 4111 5162  2929 3202 3533  1958 2641 4913  2321 2322 4903  2830 3372 3488  2435 2437 2445  2026 2657 2658  1257 1274 1275  1916 1917 2145  1626 2272 2273  2012 2019 2364  978 1015 1016  1892 1904 4808  2046 2047 2048  199 536 4791  3232 3791 3951  3451 4586 5404  1572 1574 1576  1901 4966 5766  2964 3431 5922  1639 2225 4910  1501 1869 1997  1334 3118 5125  593 596 4708  1619 1620 1621  655 657 689  3386 3397 4907  2500 3184 5367  2044 2045 2046  805 809 5029  2023 2213 2345  1810 1818 4983  698 769 4895  645 646 647  2195 4692 5001  1370 1527 5079  324 325 5089  2254 4267 4823  2711 2949 3670  3567 3568 3697  206 207 443  306 307 445  1212 1276 1277  2145 2366 2711  563 3643 4944  2164 2504 4982  2772 2774 5274  3386 3388 4907  2185 4214 5428  939 942 4924  1803 1804 1805  1009 1012 4954  85 86 5432  850 5133 6099  2666 2667 3236  3121 3324 3922  3372 3488 3938  230 231 416  282 283 419  1307 1375 4709  2494 2987 4847  2561 2976 4904  3326 4826 6173  2403 2629 4805  817 1439 4976  2835 3438 4273  2175 2659 2660  2505 3978 4872  2019 2364 2549  938 939 4924  1008 1009 4954  3473 4587 5893  5002 6037 6198  550 4795 5393  2889 2891 4953  2283 2284 2285  2956 3064 4010  1429 1432 4898  1129 1131 1987  2141 2490 4875  2378 2597 4979  1093 1097 4899  2019 2550 5064  2076 2077 2499  3191 3578 3888  1273 4912 5134  1930 1932 4921  2062 2494 4847  229 230 4961  283 284 4963  2577 2838 4870  3630 3631 3633  2994 2995 3567  3187 3189 3358  1805 1806 1808  4145 4146 5613  2419 2421 4920  2277 5327 5482  2490 2995 4876  2125 2126 2127  2891 3532 4953  993 1007 4964  1316 1318 5125  853 858 864  3070 4211 5416  708 710 4914  712 714 4925  365 432 5397  3427 3428 3429  2521 2534 2737  1431 4053 6120  2415 2417 4922  580 582 2725  1183 1198 2076  437 4597 5370  783 784 4897  1291 1293 4999  1997 2360 2361  1368 1369 1370  1799 1800 4730  1739 2216 4936  2413 2415 4923  1298 1361 1489  784 796 4897  2006 3002 4946  1731 4880 5254  1552 2012 2019  228 229 546  284 285 547  4473 4474 6224  4600 4684 6335  2040 2041 2042  3416 3417 5196  3931 4212 6178  985 987 4948  2560 3282 4911  4101 4104 4937  2127 2128 2227  651 653 1976  409 4619 5649  2318 2390 2391  1459 1460 4878  1526 4010 6365  3408 3435 3436  2254 2664 4823  1233 1235 4891  1568 1570 1571  2441 2453 5088  997 1056 2099  2390 2391 3120  2314 3239 4862  4229 4230 4231  2409 2411 4929  2113 3000 4975  1910 1912 4935  2391 3120 3121  2823 4213 5866  3640 5326 5529  1956 1957 2023  2489 2490 2994  2979 2981 5161  2159 2739 5073  2003 2465 2466  3312 3313 3314  1494 1504 5191  2449 2540 5088  2660 3204 3205  1360 1399 1400  1068 1297 4973  996 1055 5347  912 1867 5033  2064 2351 4847  1921 2106 5302  678 871 5853  817 818 4976  2042 2043 2044  821 3216 4889  1277 1351 1352  331 332 5402  2233 4348 5932  3206 3207 3559  801 811 4892  1502 1728 1729  2405 2407 4932  1011 1013 5195  1040 1042 4989  2499 2956 3064  1352 1477 1478  2358 3348 5423  1517 1529 4880  2838 4031 5683  1398 5861 6155  2659 2660 3204  598 3847 6252  1739 1740 4936  4416 5651 6058  2281 2282 2283  1337 1458 4856  2648 2649 3206  2439 2441 2448  1080 1253 5052  720 4757 4974  1276 1277 1351  4659 4790 5138  2757 3109 3627  1095 1923 4973  633 634 635  946 964 5036  1590 1591 1797  1621 1623 1624  909 2714 5090  1289 2280 2281  1028 1030 4957  3204 3205 3524  2085 2386 5049  801 806 4892  639 640 641  225 226 440  287 288 441  3064 4010 4011  5376 5479 6257  3412 5385 6328  1843 2026 4917  1587 1589 4913  2324 2954 4903  226 227 4986  1351 1352 1477  1477 1478 1701  3375 3376 3377  1250 5815 5826  227 228 4960  822 829 4889  82 451 5614  641 642 643  2224 2575 5457  2863 4643 6229  2111 2233 4905  2693 4174 5973  783 1866 4897  2283 2285 2286  239 534 5209  1981 1982 5721  2685 3328 3329  1901 4388 5742  3019 3021 3293  1085 1092 4906  938 2307 4924  821 822 4889  1894 1896 4966  1184 1189 4881  141 5328 6256  224 225 4991  1413 4839 5317  2210 2677 4975  81 4810 5614  3314 3315 3316  3645 3646 3647  2303 2306 5355  4744 4989 5372  910 937 5033  2448 2449 2538  4374 5524 5766  2289 2318 2390  1608 1609 1610  1886 1888 4978  1617 1946 1947  588 597 4734  1459 2016 4878  646 648 5761  4068 5605 5880  2015 2017 5095  3871 4664 6026  4953 6083 6298  1882 1884 4970  25 26 4996  1773 2232 5461  2243 2245 2246  2463 3083 5271  2563 2566 4904  1330 4955 5107  2361 3279 3280  2480 2546 2547  3607 4661 6202  222 223 4992  1118 1119 5119  3245 3525 6182  586 1792 4734  3601 4706 6130  3209 5570 5937  1775 1776 1777  223 224 548  289 290 549  1269 5799 5875  2538 2539 3208  1785 1838 4990  3704 5158 6203  708 772 4914  452 3999 5908  1198 2076 2077  1791 4345 5515  1878 1881 4830  1293 1455 4999  637 638 639  1181 1183 1198  3337 3811 5760  704 707 4868  702 3036 4868  4184 4428 6351  2711 3839 5076  2009 2100 4902  2952 3446 3678  2339 2895 5114  966 2277 2278  2123 2124 2125  1275 1330 5107  1241 1242 1243  700 3036 4895  1183 2076 4881  2288 2289 2318  67 428 6194  1199 1200 5177  3823 4299 5519  1784 1785 4990  2547 3408 3435  2649 3207 5440  840 847 853  1962 2479 2480  2510 2870 3368  1026 1052 4894  3410 4228 4229  3699 4343 6350  2744 2843 5230  2339 2649 5114  2723 3606 4896  221 222 4993  2363 2729 2730  953 5044 6329  4752 4996 4997  2247 2249 2251  2597 3411 4979  720 722 4974  1539 1984 4968  2079 2488 4902  4102 4106 5183  1854 1857 4955  3494 4132 6301  2330 2527 3215  2922 2924 3535  635 636 637  2749 2750 5190  3467 4213 6162  4855 5452 5636  1793 2147 5138  2016 2017 2377  1688 2560 4911  830 832 840  1334 1442 3118  2490 4875 4876  3144 5424 5871  1034 1036 4984  43 44 5144  2479 3231 5132  2841 3772 6138  1245 1247 5826  3904 4563 6221  2466 2822 2839  1623 1986 5159  1672 1674 4998  3417 4648 5139  3236 3237 3696  2441 2448 2449  4272 5102 5103  220 221 417  292 293 420  1847 2210 4975  887 889 4927  1972 2573 4408  670 672 5938  2552 2908 5012  1565 1566 1679  2315 3244 4905  1511 1513 3193  2048 2050 2209  2286 2287 2288  3295 5572 5698  1944 2103 2104  1441 1501 1502  1231 3094 5072  1745 2087 2088  3994 4605 6208  2852 3551 5117  2104 2362 2363  1408 1410 4839  2965 4471 4812  2868 3350 5510  2070 3082 5257  219 220 5013  293 294 5014  2524 2525 2526  1791 4345 5431  4153 4686 5433  740 742 5022  2361 3465 5149  2348 3718 5465  1582 4778 5050  2306 5196 5314  2848 2849 5117  2401 4224 5858  1866 3033 4897  3160 3220 4695  2724 3131 3211  2889 3331 4953  815 5768 5794  285 286 5275  1008 2320 4954  3117 3513 4972  2340 2593 2594  3034 5489 5867  951 1288 6201  2166 2524 2525  1798 1800 1801  574 575 5535  1817 1961 1962  825 826 830  494 4055 5446  794 800 4985  218 219 550  294 295 552  4039 5243 6017  1093 1852 4899  2111 2315 4905  202 442 4863  311 444 4819  806 1848 4892  1847 2113 4975  2278 3131 5327  1097 1227 4899  2449 2538 2539  1298 1489 4971  2624 2734 5233  3351 3357 5129  3589 4684 5578  724 726 5002  1808 2782 3103  2287 2288 2289  3133 3485 3919  2527 3215 3432  847 858 859  1852 3037 4899  1815 1817 1862  3584 5713 6172  987 1419 4948  3317 6090 6188  2100 4902 5292  1642 2028 2029  3700 4352 6349  2262 4772 6122  1529 3001 4880  2514 3322 5572  295 296 5015  4120 4124 5214  26 27 479  90 91 480  412 4412 5809  248 539 5220  1175 1176 5319  1801 1802 2055  1538 2151 5203  2158 4763 5369  1764 2137 5025  572 4320 5646  517 4680 5231  2216 2984 4936  2447 4929 5378  2319 4630 5205  2655 2856 3622  811 3230 4892  2911 2913 5021  4228 4229 4230  2470 3054 5279  2481 3067 5116  1610 1611 1612  1875 1876 5124  1674 1860 4998  3930 5392 5683  4113 4115 5216  213 214 5039  216 217 462  296 297 463  1591 1798 1799  1301 4807 5107  3082 4760 5711  3225 4395 4956  3742 3744 3842  880 882 4938  2463 4982 5271  4057 5446 6226  2285 2286 2287  3453 4009 6062  1882 1916 4970  2017 2378 2520  790 1870 4985  2488 3039 4902  3207 3560 5081  1003 1004 1076  3604 4661 6329  3960 4760 5589  1204 1212 5077  4220 4782 5201  2618 2621 5180  2536 2537 3599  1680 2184 4890  1469 1474 5631  215 216 5023  297 298 5024  866 4110 5706  2725 4842 5345  1167 1169 5065  2948 4348 5129  477 4575 5509  538 4511 5419  2342 3065 3066  712 1936 4925  1276 1351 5009  2504 3074 4982  1930 2072 4921  884 886 4949  3234 3952 5502  1800 1802 1803  710 1936 4914  3931 4739 5795  3712 4532 5653  131 408 5829  1677 1861 5108  2875 5185 5516  790 794 4985  3156 3158 3159  3130 4667 5357  4104 4358 4937  214 215 551  298 299 553  1577 1579 4797  1654 4675 5301  2419 2442 4920  1370 1372 5079  1243 1244 1245  3503 5407 5408  1962 2478 2479  3410 3411 4228  288 289 5280  888 890 5995  429 5635 5933  2730 3513 4928  3102 3686 6311  1940 3065 5192  2024 2501 2510  714 717 4925  133 3941 6324  2947 3571 3763  814 819 4995  1007 2996 4964  788 1870 5037  2225 3079 4910  129 507 5962  1932 2174 4921  634 636 5481  2413 2447 4923  3130 4667 5563  2421 2446 4920  826 832 2056  1014 1297 5261  3560 5081 5082  1881 1917 4830  1344 1346 5050  1894 4808 4966  2417 2442 4922  3898 3900 5371  2552 4745 5012  3431 5783 5922  1986 2343 4939  945 946 954  1068 1095 4973  1496 4737 5413  2738 2739 2946  1784 1787 4990  3035 5436 5871  2677 4975 5262  1836 1844 5028  190 191 5181  1061 5145 5473  842 845 4969  3906 3908 5753  4054 4309 6213  1549 1656 5067  2528 5674 5847  838 842 4969  1245 1246 1247  453 4587 5738  810 814 4995  1439 2338 4976  887 947 4927  2155 2798 5203  810 1848 4995  1910 1926 4935  2145 2997 5076  1800 1803 4730  248 249 5220  1730 4879 5069  1527 3265 5079  2411 2447 4929  2447 5183 5378  2409 2450 4929  1659 2109 2536  1082 4906 5052  1247 1248 1249  4322 5253 6242  1813 1814 1815  1589 1590 1591  1620 1621 4900  2333 2683 2684  1804 1806 1807  2309 3088 5276  985 4850 4948  211 212 418  301 302 421  5839 6082 6181  2546 3231 3232  2978 3758 3759  4999 5093 6292  3149 3150 3548  299 300 5040  981 4571 5383  4894 4957 4958  1762 1766 5030  1912 1927 4935  1040 1840 4989  441 4821 5280  3429 3479 4951  3569 4568 6357  147 434 5600  1281 5953 6379  1545 1547 4988  1638 4498 6091  1576 1577 1646  2852 2934 3551  4860 5436 5871  1811 1812 1813  4417 4418 5284  1971 1972 1973  1372 1919 5079  2938 3142 5145  2407 2450 4932  4687 4984 5305  2171 2521 2522  605 608 5260  4376 5469 6317  1524 2379 6365  946 954 955  2092 2093 2094  734 736 5074  4124 5208 5214  2386 2720 5049  2004 3095 3218  2721 2898 3126  1966 2083 2274  2828 2834 3155  3237 4008 4980  179 466 5741  2405 2629 4932  70 71 5702  1018 1074 5226  2479 2480 2546  1363 1364 5235  1880 1883 5246  945 2957 5121  2305 2336 5532  2870 4355 6300  1867 4413 5628  2201 2203 5053  4371 4625 5518  3231 3790 5591  617 619 876  881 1505 5458  2963 4731 5057  1030 1051 4957  210 211 5058  302 303 5059  3474 3715 5893  2134 3669 5302  3483 5198 5382  3000 4975 5262  3258 3466 5329  735 792 6137  954 967 5121  2946 3674 3675  643 644 645  903 904 5072  645 647 771  1292 1295 4084  2737 3955 6195  312 313 5477  1436 1919 5054  5081 5082 5772  820 823 5352  4702 5182 5831  2069 3201 5403  38 524 5823  2761 4350 6217  2908 4536 5012  2520 2597 3409  1816 4840 5852  1359 1360 5055  2875 2876 5985  1891 3476 4978  1594 1851 5005  2600 2826 2827  4302 5556 6273  3232 3790 3791  2266 2579 2580  970 971 1003  1672 1675 4998  3010 4673 5224  1581 1775 1776  3380 4844 5217  513 4667 5357  3787 3788 5045  1972 1973 4408  2760 2963 5057  1028 4894 4957  3592 3828 5693  623 625 808  717 3049 4925  668 669 4981  2174 3087 4921  3068 3192 4950  904 906 5090  3606 3838 4896  1612 1613 1641  3218 4213 5866  1039 2371 4984  1636 2239 2240  3194 5689 6028  4256 4257 5344  360 510 4663  3039 4902 5292  722 755 4974  582 584 4842  4344 4586 5404  4139 4140 5840  3418 3691 5176  2840 4845 6074  1793 4790 5138  2870 4355 6080  759 761 4959  1135 1137 5061  786 796 5037  2926 3133 3485  424 4450 6268  266 439 5273  267 543 5273  2749 5190 5309  1886 1918 4978  1888 1891 4978  6 210 554  9 303 555  1459 2015 2016  1228 3111 5011  203 544 4863  310 545 4819  786 788 5037  2950 4167 5609  1896 1901 4966  759 762 4959  668 671 4981  1278 1280 5008  1198 2392 5146  2924 3516 5133  1884 1918 4970  4843 5224 5413  2147 2464 5138  1941 3095 5259  1615 4782 4977  866 5706 6338  889 1863 4927  410 5713 6172  1011 1078 5195  3001 4880 5254  1224 1923 5178  824 825 826  1809 1810 1811  1139 1141 5060  1042 1045 4989  2055 2530 3115  4933 6041 6051  4125 5387 5647  3477 5146 5319  2453 2467 5019  1145 1147 5066  4779 4780 5712  1222 4251 5598  2360 2876 5149  2132 4133 6098  707 2172 4868  724 755 5002  1443 1842 5337  1012 4954 5261  3289 4283 5771  1410 1413 4839  2911 4028 5021  1104 1237 1238  3385 3390 6380  2946 3675 3795  3881 5505 5704  1036 1039 4984  75 76 5705  2759 4635 5188  2938 3458 5145  4642 4643 5509  2362 2729 3046  1814 1815 1817  1388 4006 6280  2026 2658 4917  3256 5335 5998  1440 1441 1501  592 3966 5171  1843 4824 4917  1200 1204 5177  4456 4458 5189  1325 2592 3534  1664 1666 5042  3371 4810 5614  844 845 5043  1275 1301 5107  3428 3430 5142  2205 2207 5172  1127 1129 5106  132 133 5718  1720 2169 5318  2704 3492 5051  1248 1249 1251  975 5481 5941  728 1935 4945  245 437 5370  1625 1628 5159  1914 1915 5878  3460 5637 5929  1545 2065 4988  325 326 572  187 188 573  3590 3685 5693  259 260 5527  3179 4499 6068  1844 2368 5028  2626 2948 5472  2672 2854 5100  1077 5165 5166  2737 3467 3468  3448 3769 5173  244 4770 5370  1807 2024 2162  3609 3917 5345  1766 1772 5030  3471 3472 3609  1666 1975 5042  1326 1357 5241  3496 5455 5891  1246 1247 1248  1119 1194 5119  1836 2226 5028  573 4319 5362  3239 3240 5286  974 5078 5568  612 613 614  958 974 5078  2924 3891 5133  286 287 5330  1556 1730 5069  2433 2435 5175  2610 2612 2614  965 967 970  2017 2377 2378  1948 1949 1950  2498 5339 5694  875 1106 5294  2961 4789 5174  2042 2044 2218  39 446 5823  4673 4858 5224  438 4137 6087  1305 1348 1350  885 888 5642  3598 3733 5466  1174 5066 5080  300 301 5322  1594 2972 5005  2703 2704 5051  3321 3427 3428  3334 6082 6181  1762 2158 5030  578 579 5844  2415 4922 4923  3657 3658 3659  3159 3160 3486  641 643 644  1937 5102 5103  4268 4390 5332  190 497 5181  3428 3429 3430  358 359 4887  154 155 4888  1375 1617 5104  3638 3643 3644  2197 3923 5517  3597 4773 5466  266 267 5273  3249 3482 4522  1280 1284 5008  1547 1620 4988  2155 2157 2798  2149 3470 3471  1769 2144 5461  3348 3349 5699  1914 6043 6245  637 639 2002  4147 6241 6245  3038 5476 5562  2604 2606 3078  2738 4628 5443  2364 3028 5026  1278 5008 5009  901 960 5127  3043 4184 5334  738 740 5098  2423 2446 5252  2635 3613 5368  2137 2559 5025  2241 2243 4874  4783 4924 5276  3680 5099 5437  1158 4384 6206  1165 1167 5091  662 1746 5569  2664 3475 4823  2549 3566 5026  1355 1461 5699  1244 1245 1246  682 4485 5928  2203 3146 5053  2303 2305 5355  1458 1649 4856  3412 4987 5263  3011 3978 5321  1137 1959 5061  2703 3415 5051  1131 1133 5122  3862 3863 4882  895 897 5044  2729 2730 2945  3305 4756 5567  2030 2032 2080  1440 1869 5185  3571 5875 6269  1743 4720 5851  4367 4374 6161  2760 3132 5057  1228 1230 5011  256 438 5353  3139 3845 5546  1224 1264 5178  257 541 5353  204 544 4864  3541 3812 6368  1248 1251 1252  956 1979 5078  3623 5847 5982  3499 4094 6304  1815 1816 5131  1015 1057 1069  2201 2647 5053  3147 3882 5384  903 1231 5072  1135 1171 5061  726 1935 5002  2160 4346 6294  1486 1544 5054  2913 3452 5021  5196 5314 5898  1651 1789 1791  761 1864 4959  3715 5893 6240  4675 5301 5650  2425 2443 5252  2358 3032 3348  2207 2591 5172  1664 3084 5042  1812 1813 1814  3330 4556 6119  1777 1966 1967  3116 4401 4751  2083 2638 2639  1139 1959 5060  5006 5007 5381  906 909 5090  1261 1315 5097  766 777 5094  1851 2330 5005  956 958 5078  1504 2021 5191  1145 1174 5066  1362 1440 1441  948 4949 6201  316 461 5419  1147 1960 5066  504 5392 6178  2720 3336 5049  1169 1210 5065  848 1796 5043  2575 4502 5475  356 357 5152  2510 3368 5488  1436 1486 5054  3419 4901 5456  1116 1118 1214  1623 1624 1625  2036 2038 2193  742 753 5022  858 864 5184  2597 3409 3410  980 4445 5341  2205 3146 5172  3110 3988 6297  2431 2433 5208  3338 4954 5261  1118 1214 1809  2274 2638 2874  2378 2520 2597  2094 2095 2356  324 498 5089  614 615 616  2431 2444 5208  2364 2549 5026  2198 4486 6370  3188 3189 3375  844 848 5043  2526 2585 2586  3339 3509 5445  200 201 5312  3380 4738 5217  2749 4656 5309  3143 4672 5225  1810 1811 1812  1088 1216 5207  1057 1069 4748  978 979 1015  341 342 5148  685 687 5102  2251 2296 2340  584 1792 4842  2423 2425 5252  869 870 978  153 511 4664  30 452 5908  1346 1582 5050  2808 3690 6033  3092 5566 6007  509 4451 6094  904 5072 5090  309 545 4865  3176 3273 5174  1661 4528 5493  2362 2363 2729  1624 1625 1626  2378 4979 5202  1212 1277 5077  683 1937 5240  1230 1274 5011  2792 3701 5251  1251 4971 5342  4380 4387 5296  575 2054 2687  1654 1704 5301  2639 2947 3307  1604 1605 1606  3346 5324 5900  3949 4893 5828  868 875 5294  2961 3176 5174  3440 3441 5586  2427 2443 5270  178 531 5741  1960 4205 6132  1940 2159 2342  2072 4921 5356  619 621 5156  744 746 5083  2015 2016 2017  2615 5304 5832  1715 1717 5255  671 1868 4981  3278 5727 5806  2159 2342 2738  2453 5019 5088  1814 1961 5197  68 69 5247  443 4250 6133  3318 3319 3434  2360 2361 5149  1571 1572 5192  1621 1624 4900  2145 2711 5076  2168 2721 2898  2429 2444 5270  3286 3287 3288  3523 5590 5986  3017 3019 5130  3629 3630 3631  946 955 5036  1344 1963 5050  1662 3084 5207  654 656 5281  3894 5541 5554  1998 2103 2517  2090 3836 5298  2157 2333 4933  764 766 5094  1576 1646 1940  3125 3950 5971  1050 1059 5361  474 4788 5546  3313 3314 3315  2977 4256 5421  554 2733 3270  3313 3315 3318  895 953 5044  4511 5419 5821  1240 1241 1242  1242 1243 1244  2441 2449 5088  2680 3365 4860  2426 2428 5343  3589 3591 5578  1400 1401 5354  1943 1944 1998  1572 1576 5192  2017 2520 5095  201 442 5312  1667 4861 5248  1017 1018 5226  3468 3954 5136  510 4663 4826  4614 5733 6038  1656 1873 5067  1133 1171 5122  408 5829 6309  2197 5517 5658  685 1937 5102  3806 5934 6182  427 4644 5786  1879 5124 5511  3036 4868 5367  679 683 5240  305 306 5607  2103 2104 2362  2301 2692 2693  1214 4983 5204  88 453 5738  2651 4936 5282  3183 3586 4357  2879 4266 6211  657 659 5096  2564 2799 5331  5455 5891 6222  1460 1730 4878  1165 1197 5091  3028 3782 5026  1455 1468 5093  1797 3934 5303  2476 2477 2531  2325 3799 6048  315 538 5419  2790 2835 5112  734 754 5074  2478 2922 5132  1997 3279 5075  4284 4287 5374  3562 4232 5599  1282 1284 5283  764 1864 5094  679 681 5240  2663 3092 5566  2435 2445 5175  200 4791 5312  1502 1729 5075  3762 3968 5797  3915 3916 5340  3627 5588 6145  1560 1992 5315  1363 4715 5235  3619 3620 5147  1556 1558 5069  1396 1459 2015  1464 1742 5574  616 617 5259  2672 2929 5100  3945 5601 5833  2537 3600 3601  858 859 869  2962 5038 5514  2349 4614 5733  3311 3312 3313  2162 2501 2752  2227 2932 3148  1361 1362 1440  3255 3257 3625  2467 3145 5019  3237 3696 4980  1238 1239 1240  2492 3289 5097  3309 3310 3311  3160 3486 4695  1605 1705 3253  1646 1940 2159  1569 4518 5763  1032 1051 5305  3738 4334 5237  1634 1635 1636  1501 1502 5075  631 633 807  3186 3187 3188  2759 3145 5188  1143 1174 5249  2774 3414 5274  1216 1662 5207  1549 2167 5067  2050 2052 5141  3253 3254 3255  3578 3888 5903  1489 4971 4972  675 677 5438  1299 1361 1362  2595 4780 5970  144 516 5860  2052 2489 5141  2349 5286 5733  1110 1112 1551  1227 4899 5338  899 901 5127  4107 5183 5378  1815 1862 5131  4173 5191 5540  966 2278 2509  450 4773 5466  1214 1809 1810  2813 3730 5151  2393 2459 5115  455 4698 5901  3309 3312 6023  1806 1808 5221  1658 1659 1660  2666 3238 5199  3664 5206 5947  2278 2509 2724  2898 3126 3864  2351 4847 5279  1954 1955 2000  2669 4858 5224  1952 1953 1954  1171 5122 5123  3766 4820 6367  1501 1997 5075  3034 4890 5199  1127 1187 5106  744 753 5083  3383 3538 6380  1315 2492 5097  1453 1454 5574  270 414 5253  955 965 966  897 1983 5044  1964 5260 5421  1175 5319 5709  2656 2856 3061  3239 5108 5286  188 189 5362  2585 2586 2587  818 4976 5352  2427 2429 5270  736 1980 5074  754 4551 6303  3464 5316 5914  3023 4659 5551  3353 3354 5583  3211 4463 5728  627 629 2018  1521 2101 5215  2167 5067 5118  653 655 5109  4637 4727 5548  3166 3371 5905  3074 4982 5271  828 981 5383  1359 1943 5055  3890 5056 5942  2511 3045 5128  86 87 6240  2499 3064 5115  3151 3152 3258  1953 1955 1956  466 4570 5544  1577 1646 4797  2943 4619 6308  2307 4924 5276  2291 2655 2656  864 2689 5184  3569 4162 6357  980 5341 5486  1074 3970 6107  2077 2499 5115  2054 2712 2830  1566 1679 5143  2341 4891 5636  2511 2512 5128  3530 4838 5949  2522 5595 5601  4461 5028 6185  3429 3430 4951  1950 1951 1952  1949 1951 2652  1921 2134 5302  457 5803 6026  1141 1143 5249  3877 6041 6353  3061 3325 3703  308 4865 4893  172 173 483  340 341 484  3037 4899 5338  1056 2099 4885  2327 3034 5489  31 4636 5908  1359 1942 1943  513 4668 5357  2744 3025 5230  263 542 5471  1660 2109 2146  1798 1799 1800  3087 4921 5356  1705 3254 3256  555 2896 3286  1118 1809 5119  1478 1521 5215  2730 2945 4928  4397 4398 5365  2588 3113 3114  145 516 5743  1802 1803 1804  1525 2012 5140  2306 5196 5355  1325 1326 5241  2987 4847 5279  3134 3523 5590  256 257 5353  1944 1998 2103  1106 1108 2022  2269 3942 5346  2176 3714 5765  1573 4518 5926  3103 5221 5488  1820 1838 5406  2122 2123 2124  3115 3116 5297  3304 4654 5923  2430 2452 5380  746 1965 5083  950 1979 5394  5101 5306 6060  5304 5449 6344  3189 3375 3565  1528 4638 5779  1701 5031 5215  2223 2224 5457  1058 1102 5386  2793 3504 3505  217 218 5393  2465 2466 2822  2995 4876 5570  4153 5433 5684  4448 4497 6306  3365 3366 4553  1298 1299 1361  3172 5301 5650  1598 1600 2498  2465 2822 2823  738 1980 5098  1588 2198 6370  1967 1969 5099  3509 4539 5579  1282 1289 5283  3587 3588 6254  2077 2393 5115  2934 2936 5167  824 829 5179  1973 2290 2291  2887 2978 3758  1167 5065 5091  2580 3140 3141  3596 3731 5960  899 1983 5127  1641 1642 5257  2102 2857 4280  1874 1877 5407  3232 3951 5163  1759 2158 5369  2343 2952 4939  1252 1298 1299  66 4395 6194  3768 5211 6143  2281 5027 5283  3319 3434 3777  3049 3052 5581  1478 1701 5215  3041 5292 5293  3863 4497 6197  142 433 6256  2778 2780 5265  3033 3352 5453  3187 3188 3189  3273 3274 5511  3001 3003 5254  2379 5310 6365  1261 4528 5097  654 1736 5281  856 857 5194  4450 4452 5417  1627 1628 1629  2462 2792 2793  3724 3886 5329  2082 3112 5157  1523 2101 5140  4669 5483 5629  4556 5131 6119  1032 1034 5305  2929 3533 5229  140 518 5328  2063 5108 5286  2478 2479 5132  2537 3599 3600  3071 4210 4211  1204 5077 5177  2905 3308 3367  2845 4741 6118  832 840 847  1646 4797 5073  1455 4999 5093  1776 1777 1966  1908 1926 5469  189 497 5362  1523 1525 5140  1822 1924 5406  467 4595 5550  659 1865 5096  3649 3651 3666  1131 1987 5122  2330 3215 5005  2088 2089 2091  1757 4827 5369  851 1796 5506  3622 5799 5875  1947 1948 1949  3017 4670 5130  1242 1244 1534  1129 1987 5106  2687 2712 3542  1986 4939 5159  2680 2692 3365  2083 2274 2638  4641 4959 5921  649 651 5547  2118 2367 5412  2437 2439 5154  666 670 5873  1731 4766 5542  2468 3112 5151  4176 4177 5885  1565 1679 3185  364 365 5397  3011 3835 5321  2439 2448 5154  1806 1807 2024  1611 3956 5507  823 825 5291  1800 1801 1802  3168 4617 5391  1630 1631 1632  511 4279 6299  357 358 476  155 156 475  1249 1285 5342  2822 2839 3127  1589 4913 5150  3310 3311 3317  2122 2124 3172  1627 1629 1630  3477 4470 5709  1012 1014 5261  90 480 4916  826 830 832  2539 3208 5135  1350 4086 6111  1976 5109 5110  2129 2301 2680  3130 5001 5563  1251 1252 1298  925 928 5530  2172 4868 5367  519 6083 6298  667 682 5324  3253 5339 5694  3640 3641 4161  313 5477 6052  740 5022 5098  1285 1325 2592  1114 1116 5204  2160 6241 6294  2677 3295 5262  847 853 858  1635 1637 2073  4371 4373 5518  1591 1797 1798  24 25 4997  2780 3059 5265  621 623 5155  307 445 4893  3440 3442 5399  2984 3260 5282  1632 1633 1634  2829 3672 6305  444 4013 5841  1812 1818 5197  2984 4936 5282  604 2149 3469  3975 5110 5957  2868 5510 5640  244 245 5370  2307 2309 5276  3655 3657 3658  2716 3259 5812  1357 1359 1942  304 305 5951  1679 3185 3186  28 29 5401  2685 3329 5135  2845 4774 5999  604 605 5260  3074 4163 5271  2058 2297 5610  1728 2082 5157  1776 4866 5435  3116 4751 5297  2109 2536 2537  3401 4976 5352  1942 1943 1944  3788 4987 5263  3629 3631 3632  2590 3178 3179  1172 1210 5333  1938 1939 5250  3175 3271 5552  2547 3435 5163  331 492 5402  1802 2055 5289  1407 1658 1659  3019 3293 5130  4809 5526 5774  3315 3318 3319  1566 1568 5143  2662 3294 5566  1584 4486 6354  3506 5592 6307  667 669 5324  1726 5751 5816  2437 2445 5154  3432 5982 6159  1474 1498 5278  2468 2813 5151  3178 3179 3180  3929 3931 6178  1934 3085 5986  2513 2514 5388  3601 3602 6130  1602 1604 1605  3636 4161 5604  3661 3663 3664  4421 4423 5616  2509 2724 3988  2539 2685 5135  4551 4945 5997  2070 2461 2462  2433 5175 5208  2326 4097 5778  3425 4637 5764  3000 3048 5379  2546 2547 5163  1652 2068 5460  492 5365 5402  1612 1641 2069  1804 1805 1806  1468 2060 5093  3009 4736 5288  1034 4984 5305  2776 3414 5980  1360 1400 5055  694 4512 5855  1591 1799 5150  2710 4531 5714  1094 1273 6046  4251 5598 6283  143 433 5860  2000 2732 3162  3552 5481 5941  2073 2553 3151  1483 2135 5830  1289 2281 5283  1641 2069 2070  1003 1076 1077  4669 4807 5483  2351 2470 5279  1966 1967 2083  582 2725 4842  2638 2639 2947  4436 4438 5966  1743 5851 6169  655 689 5109  750 4817 5430  2377 2926 5202  3088 3213 5487  1558 1992 5069  3594 3828 5960  2947 3307 3571  491 4083 5756  2727 5623 5971  1728 1729 5157  1156 1207 6206  690 694 5462  2856 3061 3325  352 353 556  160 161 557  657 689 5096  2240 2241 2369  3637 3639 3640  2608 2610 5198  3088 5276 5487  1141 5060 5249  877 879 5943  3335 4083 5756  3686 5328 6311  3319 3777 5236  2956 4010 5310  2126 2128 2129  3600 3601 3602  2790 4579 5112  3686 5328 6256  1443 1453 5337  1297 5261 5445  1974 5227 5228  2792 2793 3504  2835 4273 5112  3684 4568 6243  2482 5814 5984  230 416 4961  283 419 4963  669 3979 5900  4709 4710 5104  2024 2510 5221  1375 4709 5104  3511 4792 5304  2050 2209 5141  1172 1175 5333  1962 2480 5160  2655 2656 2856  3308 3309 3310  1425 4309 6213  2922 3535 5132  617 876 5259  3264 3265 5440  3039 3041 5292  3325 3703 5085  428 4956 5811  2612 2848 5201  694 5462 5596  954 955 965  437 4781 5919  2149 3471 5459  847 859 5325  1826 2231 5492  945 954 5121  2054 2687 2712  3163 3164 3165  229 546 4961  284 547 4963  2290 2291 2655  583 1657 6128  524 4465 6261  3831 5039 5680  2754 3249 3482  2727 2728 5623  1957 2023 2213  3439 3952 5821  1560 1562 5315  2588 3114 3398  1617 1947 5104  1939 4432 5726  2668 3412 5385  1161 4555 6097  653 1976 5109  4304 4306 5433  1608 1610 1996  1808 3103 5221  4423 4461 6185  2341 4705 5950  2461 2462 2792  3122 5016 5782  3185 3186 3187  5082 5772 6010  3794 4210 5951  1646 2159 5073  1824 1924 5492  2184 2666 5199  1625 1626 1627  1817 1862 5160  4047 4052 6327  2461 3201 5251  2377 2378 5202  3203 3461 5441  608 610 1964  4122 4124 5387  1015 1016 5245  1642 2029 5257  1442 3673 5936  3726 3886 6330  2213 2345 2596  2712 2830 3372  2695 2698 5358  1941 2003 2004  2542 2904 2905  3257 3625 3720  3846 6090 6188  3121 3922 5470  3646 3647 3668  483 4726 6260  2003 2004 2465  947 4927 5394  3273 5124 5511  3808 4999 6292  2943 4813 6308  2614 5048 5198  1659 1660 2109  1807 2162 5669  3847 5948 6252  3815 3816 6070  3758 3759 4218  1073 4885 5409  4064 4066 5849  2501 2510 2870  3576 3577 6339  3142 5145 5496  228 546 4960  2069 2070 2461  315 316 5419  1514 1731 5542  491 4558 5501  4528 5097 5493  2073 2074 2553  2971 5444 5556  3289 5097 5493  3427 3478 5480  1576 1940 5192  2861 5769 6342  3254 3255 3257  1313 4627 6190  1357 1942 5241  2184 4890 5199  3371 4810 5905  608 1964 5260  849 852 5626  625 627 5210  3081 3296 5920  2091 2092 2093  2553 3151 3152  3202 3460 5637  3224 3226 5434  1049 1050 5361  3644 3645 3646  1605 1606 1705  602 604 2149  2845 5999 6118  431 4607 5404  1568 1571 5143  1238 1240 2098  407 5660 6369  3391 3540 5670  1705 3253 3254  1757 1759 5369  614 616 1482  1106 2022 5294  226 440 4986  459 4058 5583  85 521 5432  3489 5491 6032  2126 2127 2128  2810 2812 5456  227 4960 4986  2586 2587 2588  3658 3659 4443  2243 2246 4874  3120 3423 5470  1735 4660 5520  1623 1625 5159  225 440 4991  2034 2036 5218  748 750 5430  2401 5915 6103  803 1324 5474  1817 1962 5160  2454 4477 6114  1738 3496 5455  1704 2122 5301  3281 5754 6047  2080 3964 6191  269 5253 6113  1798 1801 5303  3087 3210 5356  3169 5450 5499  2546 3232 5163  4838 5168 5949  3487 4806 5533  1629 1630 1631  3873 6171 6377  89 4916 5738  1325 3534 5241  1971 1973 2290  2906 3308 3309  1537 4182 5925  3168 5391 5450  4594 4595 5550  1935 4945 5894  2074 2266 5105  285 547 5275  1099 4434 5585  3472 3609 3917  1227 3111 5338  224 548 4991  2956 3719 5310  3631 3632 3634  3487 5533 5714  2014 3901 5212  3470 3471 3472  1957 2213 2699  1176 1179 5319  2124 2125 2126  826 2056 5179  856 863 5194  223 548 4992  355 356 5153  3264 5114 5440  818 820 5352  1804 1807 5289  3316 3321 5219  3417 5139 5898  2868 3939 5640  3945 3955 5601  3826 5074 6013  4110 4112 5706  3595 3841 6261  1955 1956 1957  3877 3878 6041  2116 2118 5412  3114 3398 3399  3743 3745 5740  2615 2616 5498  1291 4999 5953  4798 6002 6238  3023 3761 5377  231 232 4943  281 282 4944  222 4992 4993  2083 2639 5099  1313 4627 6020  2302 2591 5513  918 921 5634  3690 6033 6109  3286 3288 6127  1788 2058 5796  3168 3169 5450  520 4334 6160  518 4851 5681  2558 4343 6350  4401 4751 6081  3093 4440 5635  3098 3583 5622  4199 5621 6326  2929 5100 5229  2648 3401 5553  3738 5237 5238  816 828 5383  3465 3702 6040  1496 4831 5676  2333 2684 4933  288 441 5280  3244 3458 5692  3374 4273 6262  1482 1941 2003  1659 2536 5320  4262 5695 5913  3419 3894 5541  1161 4555 6135  972 1017 5528  3032 3349 3433  575 3278 5535  2313 4529 6176  2606 2608 5382  688 5422 5575  2870 3368 3893  686 688 5422  3875 3876 5735  1559 5725 6321  2247 2251 5360  3430 4951 5278  1631 1632 1633  4575 5769 6342  3089 4504 5975  5364 5659 5862  921 923 5993  221 417 4993  3330 5576 5577  1633 1634 1635  3032 3348 3349  4379 4381 5888  3171 5521 5568  542 4800 6126  2318 2391 5539  289 549 5280  665 682 5594  4402 5001 5563  3444 4529 5484  457 4666 5803  1877 5407 5777  342 343 5350  2220 2604 5212  1508 1596 6255  3010 5224 5413  854 857 5506  467 4649 5454  3351 5129 5472  2810 5456 5541  1670 1675 5618  5535 5892 5969  858 869 5184  768 778 6293  1466 1742 5830  2335 3053 5582  2934 3551 5167  3733 3735 5792  863 3859 5194  1188 4205 6132  4383 6085 6175  253 540 5745  3268 3269 5717  2482 5665 5814  3249 4522 5972  1046 1049 5695  323 498 5645  2614 5201 5522  3639 3641 3642  3021 3823 5519  3006 3093 5635  220 417 5013  293 420 5014  254 4799 5745  1073 1104 5409  1717 2168 5255  616 1482 1941  4203 4205 5656  2167 4742 5688  2095 2358 3031  2014 2220 5212  2246 2247 5360  3478 5480 6077  914 1867 5628  3516 3518 6029  4071 4744 5372  4114 4117 5850  2936 4812 5744  3428 5142 5219  834 5668 5768  2128 2227 5375  2024 2162 2501  1195 4199 6326  4809 4895 5526  1820 1822 5406  219 550 5013  294 552 5014  2926 3485 5202  1285 2592 5342  1496 5413 5676  419 4711 6157  1812 1814 5197  2646 3240 5856  3509 5445 5579  1920 2368 5587  3469 5260 5421  287 441 5330  4637 5548 5764  2172 2500 5367  4170 5489 5867  1935 5894 6037  947 950 5394  2059 5092 5590  2574 3290 3291  3299 3564 5870  621 5155 5156  1601 1603 5639  3676 4794 6000  963 5637 5724  3576 6215 6339  3171 4332 5521  511 4664 6299  295 552 5015  2654 2879 6361  2196 4252 5820  4487 4488 6007  325 572 5089  3061 3703 5400  1726 4407 5751  1589 1591 5150  322 5041 5645  2149 3469 3470  2920 3292 5974  1626 2273 5213  3266 4008 5787  2095 2356 2358  1328 4824 5285  1189 1190 5835  1668 2996 5618  934 4616 5525  296 463 5015  263 264 5471  1062 1081 5473  3250 4345 5515  1559 1575 6321  3873 3875 6171  1873 1874 5407  2310 5000 6214  2472 2474 3303  3152 3153 5336  4383 4385 5448  250 412 5809  4359 4360 5945  2055 3115 5289  619 876 5156  585 5722 5902  1348 1396 5264  1120 5824 5996  2157 2798 4933  1084 1303 5500  3338 5261 5445  4721 4722 5736  2128 2129 2301  3912 5343 5989  4654 5923 6115  2251 2340 2380  1415 5317 5424  1179 5146 5319  216 462 5023  297 463 5024  792 4258 6266  26 479 4996  505 4185 6030  1121 1123 6066  3288 4689 6127  2166 2525 5540  3709 3710 5447  2863 2864 6229  2015 5095 5264  2093 2094 2095  2538 3208 5638  4733 4919 5616  2650 3194 5689  1949 1950 1951  214 551 5039  4398 5365 5402  3808 4999 5953  4783 5276 5487  286 5275 5330  4478 4479 5523  3587 5337 6254  3169 3992 5499  767 768 5759  5067 5118 5408  2491 3938 6223  2477 3502 5416  1270 1328 5804  353 354 5299  159 160 5300  534 4058 5992  3152 3258 3466  215 551 5023  298 553 5024  2806 3684 6243  484 4697 5877  2464 5138 5551  3784 3785 5544  338 455 5901  3187 3358 5810  2692 3365 3366  953 4661 6315  1613 2027 6381  2301 2680 2692  3184 5526 5774  2388 2657 6243  3081 4747 6003  3010 4737 5413  2531 2873 3400  3922 5667 5872  2277 2278 5327  4794 4795 6000  2222 3754 5837  832 2056 5325  3182 3183 3191  2367 5412 6316  1660 2146 5436  3640 4161 5326  3199 4669 5629  4667 5563 5803  3305 3539 5939  1848 4792 5449  1873 5067 5408  1562 1565 5315  2362 3046 5277  1295 1305 5244  1542 2135 6096  3315 3316 5307  1903 1907 5673  3373 3729 6108  2369 6287 6330  2241 2369 4874  3162 3163 3164  3492 3497 5814  1584 1585 6370  4315 4316 5935  3127 4004 6216  1944 2104 5678  3061 3062 5400  1513 3193 5464  1641 2070 5257  1342 1963 5593  4025 4133 6098  299 553 5040  3986 6037 6198  1249 1251 5342  1967 2083 5099  3287 3288 4314  1320 1365 6267  2171 2522 5431  3812 5675 6368  359 510 4887  154 511 4888  3735 5792 6160  2610 2614 5198  3572 4748 5804  1153 1188 5621  639 641 5232  3432 5658 6159  3270 3832 5909  1427 1528 6179  3053 3067 5428  1250 1286 5815  2612 2614 5201  1898 1901 5742  4844 5217 5615  824 826 5179  3180 3182 3183  1513 1745 5464  872 5541 5554  3052 5314 5898  1579 1581 5435  1211 3960 5589  6 554 2574  1020 1074 5825  1735 2901 5536  634 975 5481  5242 5295 5703  434 4668 5503  687 5102 5462  3319 5236 5307  550 4795 5784  3689 5143 5560  4611 4613 5927  3283 3541 5784  2520 3409 5558  3938 4606 5451  4668 5357 5503  4955 5107 5483  4136 4799 5745  5475 5619 5957  3221 3532 5811  908 911 5773  3644 3646 3856  3755 5429 5604  4430 5017 5936  2636 3128 3235  2915 3494 6301  2733 3270 3464  1116 1214 5204  2366 2949 6109  1955 2000 5398  3059 5265 5494  3148 3149 3150  2122 3172 5301  2604 3078 5212  3679 4665 6039  3530 3935 4838  834 837 5668  4860 5436 6288  3337 4326 5760  1246 4883 5857  3593 4465 6261  2904 2905 2906  4534 4535 5615  211 418 5058  302 421 5059  3817 3967 6378  2088 2091 2105  23 24 495  93 94 496  3710 3937 5447  1737 5084 5612  2305 5355 5532  622 1269 6269  1579 4797 5435  2752 2754 5239  1340 2983 5593  1603 1604 5405  218 550 5393  677 681 5438  3096 3730 5622  604 3469 5260  2074 2553 5105  1863 4661 6315  872 2810 5541  3090 3693 5531  629 631 5290  881 883 5458  623 808 5155  2587 2590 5258  3639 3640 3641  1802 1804 5289  2358 3031 3032  3455 4225 6295  3572 5804 5958  3365 4860 6288  2725 5345 6104  2573 3896 5802  2301 2693 5375  2708 4408 6100  3554 4546 6249  3663 3762 5298  2897 4802 6270  217 462 5393  3404 4830 5777  483 4723 5630  4141 6140 6294  4220 5201 5522  3601 4707 5896  2093 2095 5373  2233 4348 6247  775 1324 5657  3321 3428 5219  301 421 5322  3005 4946 5366  2188 4825 6036  3477 5319 5709  547 4712 6302  2606 3078 5382  300 5040 5322  3520 3522 5476  1705 3256 5335  2899 4015 5822  980 4655 5486  1769 1773 5461  3305 5567 5939  4535 5217 5615  210 554 5058  303 555 5059  3597 3598 5466  1806 2024 5221  3847 5255 5948  2100 4946 5366  544 4863 5384  2313 4324 6028  2336 5532 5665  2476 2531 2873  1112 1114 5295  2688 2689 5750  1069 4223 5884  1951 1952 1953  3974 3975 6322  188 573 5362  4152 4153 5684  2942 4347 6034  4393 4441 5827  2342 2738 5443  3910 5060 5249  1024 1052 5800  446 4684 5578  3416 5196 5355  3292 4836 6341  3338 3339 5445  1405 1407 5320  2690 5483 5629  641 644 5232  1865 5096 6154  2234 3856 6134  2188 4825 6251  2839 2887 5287  4824 4917 5285  2036 2193 5218  4024 4884 5564  3312 3314 5731  3560 5082 5444  1101 4748 5804  1907 1908 5469  2653 3894 5644  268 543 6113  2989 3174 6071  525 4810 5905  1421 1431 6120  3819 3820 6359  3029 3781 6015  3348 5423 5788  1977 4705 6141  4856 5017 5323  3511 5832 6042  4971 4972 5715  748 1965 5430  1789 2171 5431  3184 5367 5526  3044 5213 6210  2348 4540 5465  616 1941 5259  3416 5355 5532  1649 1651 5323  2277 5036 5482  3641 3642 3804  1953 1954 1955  192 473 6313  314 538 6052  2316 2367 6115  442 4863 5427  416 4961 4962  4246 4247 6183  2823 5137 6162  2397 2401 5858  1534 5395 6171  3667 3854 5946  2592 3534 5426  4848 5754 6047  643 646 5994  3398 4499 6146  1220 3798 5700  1581 1776 5435  1606 1608 5335  2681 3424 6116  3142 4403 5496  663 4796 5594  1636 2240 5348  2978 5906 6259  3502 5416 5747  1499 2167 5688  3414 5980 6091  3213 5487 5652  3562 5599 5646  703 872 5554  966 2509 5359  3437 4317 6025  545 4865 5311  1061 5145 5496  3907 3909 5989  3236 3696 5617  3165 3574 3575  1348 1350 5264  2803 2838 6234  525 5905 6208  312 444 5477  2575 5447 5457  1651 1791 5323  554 3270 5058  4781 5919 6163  551 5023 5170  2839 3127 5287  687 690 5462  2103 2517 5277  639 2002 5232  492 5365 6235  1789 1791 5431  633 635 5306  3316 5219 5307  555 3286 5059  697 877 5983  816 5383 5474  566 5537 5883  492 4233 6235  2068 2727 5460  2059 5590 5986  2235 4510 5571  354 355 485  158 159 486  3109 3627 5588  1824 1826 5492  3527 5083 6331  3048 5379 5388  3223 4956 5811  4124 5175 5208  1627 1630 5213  3059 3563 5494  803 816 5474  2629 4932 5399  437 4597 5919  3133 3919 5696  3393 3395 6012  3401 5291 5553  1313 1394 6190  851 854 5506  2896 3286 3287  4148 4151 6043  4304 5433 5684  477 4642 5509  2985 5055 6112  1401 1405 5354  3200 5128 6346  3313 3318 5272  4231 5874 6050  3120 3121 5470  5292 5293 5366  3048 4616 6116  4324 5689 6028  4421 4733 5616  1305 1350 5244  4560 5559 6225  1174 5080 5965  3637 3640 5529  569 5661 6337  3277 4597 5510  3127 5137 6216  1265 1313 6020  792 5850 6137  3243 4958 5686  2655 3622 6290  5110 5619 5957  1745 2088 5464  3577 4808 5524  4204 4477 6114  2876 5985 6199  3233 5377 5486  1247 1250 5826  2461 2792 5251  4659 5138 5551  2327 3173 5489  4526 4527 5734  3094 5452 5636  4129 6137 6338  2103 2362 5277  625 808 5210  3351 3352 5472  2510 5221 5488  1015 1069 5245  1600 1602 5339  2608 5198 5382  2949 6109 6271  3471 3609 6072  537 4769 5502  9 555 2636  3658 5227 5842  2649 5114 5440  2342 3066 5443  860 4302 6273  3807 3808 6292  1104 1238 5409  3647 3668 5313  3000 5262 5379  1489 4972 5516  2266 2580 5105  3271 4399 5798  515 4674 5592  692 694 5855  3228 4719 5649  4624 5291 5553  2456 5697 6189  4885 5409 5790  2104 2363 5990  4172 4173 6228  1605 3253 5339  3171 3263 5568  3574 3575 4701  3411 5793 6218  3311 3313 5272  4272 5102 5462  2948 5129 5472  3433 4702 5831  2991 5033 5495  3311 3317 5272  2910 3289 5771  1396 2015 5264  1726 4501 5816  2186 2188 6036  2918 3292 6341  3728 5269 6053  4272 5462 5596  1447 2795 5978  4015 4511 5822  3637 3638 3639  3647 3649 5313  4723 4724 5630  3190 3506 6307  3156 3159 5701  1660 3035 5436  3153 5105 5602  3615 3617 5977  3370 3805 6277  2690 4955 5483  2633 2943 5769  249 5220 5809  3131 3920 5632  3782 5575 5655  1649 4856 5323  1635 1636 5348  4146 4149 5613  4680 5231 5786  2954 4816 5843  2021 5191 5540  3287 4314 5368  3615 3616 5907  925 1304 5530  964 4783 5487  3407 5160 5808  3674 3675 6004  2962 3229 5514  3212 3214 6055  3928 3930 6253  2302 2304 5513  3694 5763 5818  2168 2898 5255  4894 4958 5686  3747 5338 5882  1294 1296 5834  1161 1163 6097  3327 4073 5876  2614 5048 5522  170 171 5611  893 953 6315  169 170 487  343 344 488  2130 2512 5921  3353 3848 5992  3124 4353 5565  1423 1425 6213  517 5231 6001  4271 4272 5596  2073 3151 5348  1626 1627 5213  2188 2190 6251  2227 3148 5375  146 147 5600  3815 4991 6070  2512 5128 6346  2196 5820 5961  730 4945 5997  563 3637 3638  1767 4266 5752  1400 5354 6112  1960 5340 5944  2588 3398 5258  2827 2828 5818  2005 4884 5564  1269 5200 5799  3277 5510 5640  3673 5936 6153  3476 3576 6250  3151 3258 5716  3315 3319 5307  688 691 5575  4850 4948 5548  3227 3228 5649  2991 5087 5495  3490 4986 5911  4619 5649 6308  2714 5090 5452  2272 3500 5565  554 2574 2733  2021 2166 5540  25 4996 4997  4906 5052 5533  2350 2883 6314  2662 2663 5566  4144 4147 6241  3529 3530 5606  3159 5701 5926  2709 5533 5714  1114 5204 5295  4843 5413 5676  260 413 5527  845 5043 5918  1606 1705 5335  3415 3416 5532  3085 4876 6248  3771 4098 6136  5179 5349 5787  1949 2652 5746  1108 1110 5512  98 99 5968  1939 4849 5726  1743 2953 6169  3939 5640 5791  4250 4864 6133  1797 1798 5303  841 4631 5793  1470 2060 5838  4138 4141 6336  934 4741 5525  491 5501 5756  3623 5982 6159  1112 1551 5295  4357 4499 6068  2395 2459 5858  4807 5107 5483  2905 2906 3308  1151 1188 6132  3183 4357 6068  3251 4345 5595  1284 5283 5712  2519 4076 5651  3390 4638 5779  1489 5185 5516  3889 3890 5886  3025 5230 5508  1977 4657 6278  5072 5090 5452  1157 1195 6326  4274 4275 6076  3409 5000 6214  972 974 5528  2100 5292 5366  4827 5369 5819  3274 3550 5511  3183 3191 3586  1120 1122 5824  2999 5054 6010  4373 4378 5518  2943 4814 5769  3560 5444 5556  3701 5251 5700  883 5458 5642  3047 4331 6373  3458 5145 5473  1295 4084 5244  4875 4876 6248  1159 1161 6135  832 847 5325  231 416 4943  282 419 4944  3591 4465 5578  3094 5072 5452  3975 5674 5957  3246 3572 5958  2633 2861 5769  2046 4500 6180  2445 5175 5387  732 754 5997  3134 3137 5590  3244 4905 5497  168 169 5396  344 345 5351  3390 4309 5779  2905 3367 5420  2212 4304 5684  4322 5253 6113  1978 4926 5624  1514 1541 5542  3320 3426 5713  4034 4812 5744  1297 5445 5579  3973 3975 5674  3209 3210 5545  4727 4948 5548  3267 3580 5643  3245 3583 5934  3197 3374 5580  462 5393 6000  1306 1438 5801  796 4897 5453  633 807 5306  2590 3179 5258  965 966 5359  2887 3758 5287  2042 2218 5605  3106 4247 5648  963 5637 5929  3735 4334 6160  341 484 5148  411 4759 5552  564 6073 6219  1110 1551 5512  3820 4949 6279  3920 5150 6320  3050 3052 6101  3190 4671 6307  1867 5033 5495  1565 3185 5315  2907 3582 3584  3031 5182 5831  81 82 5614  3694 3704 6203  409 4719 5649  3421 4854 5536  3718 5710 6121  2197 3304 5658  2895 5114 5555  1149 1960 6132  891 1863 6315  3230 4892 5449  2132 4133 6274  2318 2595 5539  2782 3103 6058  627 2018 5210  173 174 5630  1391 2483 5559  1454 1464 5574  1407 1659 5320  3863 4497 6306  2251 2380 5360  207 443 6139  3513 4972 5516  205 4864 6133  2587 2588 5258  2527 3432 5982  3189 3565 5573  3021 3293 5519  2933 5576 5577  1390 1391 5620  2450 4932 5505  1955 1957 5398  2949 3721 6271  3733 5466 5792  827 834 5768  3353 5583 5992  3620 5147 5371  3439 4511 5821  1848 4892 5449  2648 3206 5553  4705 5950 6141  3559 3560 5556  3347 5017 5936  2881 3192 6211  2574 2733 3290  1737 5010 5612  3639 3642 5463  2422 2424 5697  4393 4394 5827  3137 5092 5590  4488 5566 6007  2709 4906 5533  3261 3262 5679  292 420 5687  4525 4526 5734  3033 4897 5453  3718 5465 5710  2629 5399 5586  2995 3568 5570  1600 2498 5339  4149 5613 6126  3141 3529 3530  4806 5052 5533  1125 1187 6027  213 5039 5680  2000 3162 5398  4563 5061 5753  2707 4850 5548  3409 3410 6214  3871 3872 6026  2126 2129 5504  3663 3664 5298  5658 5923 6159  662 664 5569  663 665 5594  4088 5041 5645  2464 3233 5551  3989 5359 5677  1108 2022 5512  440 4986 5911  569 5485 6337  2095 3031 5373  2578 5832 6042  4205 5340 5656  648 841 5761  3463 3851 6332  3036 4895 5526  965 970 5359  2160 6241 6245  479 4793 6008  167 168 560  345 346 561  1873 5407 5408  1984 4968 5690  2399 2402 6103  629 2018 5290  1969 1971 5437  1693 1695 5737  2983 5593 6332  4863 5384 5427  3318 3434 5749  3903 3905 6064  2304 2335 5582  4177 4178 6212  212 418 5680  1977 6141 6278  1608 1996 5335  1738 4832 6031  2098 5409 5790  2139 2542 5420  505 6030 6166  2838 4870 5683  1561 1706 5725  3344 3345 5757  1340 1342 5593  1571 5192 5560  3328 3330 5576  4444 4446 6196  1281 2601 6379  358 476 4887  155 475 4888  1957 2699 5398  964 5487 5652  3860 3863 6197  3377 5813 6102  1920 2106 5587  3798 5414 5415  2035 2037 5762  3075 3709 5561  3100 5118 5408  3802 4471 6246  651 1976 5547  2349 4614 6314  631 807 5290  1969 5099 5437  4024 4538 5564  3482 4522 4523  2514 5379 5388  2754 3482 5239  1708 4163 6277  802 4755 6050  4203 4204 5656  3354 3756 5641  3205 3524 6184  2694 5358 5580  27 479 6008  191 5181 6313  555 2636 2896  4755 5874 6050  1602 1605 5339  322 323 5645  762 4959 5921  1264 5178 6267  4531 5714 5796  3709 5447 5457  4780 5712 5881  4022 6002 6238  552 5014 6378  357 476 5152  2724 3211 5728  2128 2301 5375  3555 3574 5897  206 443 6133  3303 5423 5788  1935 5002 6037  5377 5486 5987  1242 1534 5395  2356 2358 5423  70 519 5702  2537 3601 5896  547 5275 6302  3326 5442 6173  2297 2890 5610  3458 5500 5692  3649 3666 5313  3036 5367 5526  442 5312 6056  432 5648 6183  1610 1612 5403  2988 4644 6229  3276 3277 5640  3521 5242 5703  432 4598 5648  3537 3764 6152  146 5600 5743  4124 5175 5387  4058 5583 5992  4014 5477 6052  2132 4298 6274  3189 3358 5573  212 213 5680  2116 5412 5721  4808 4966 5524  3249 5859 5972  3150 5363 5549  2002 5101 6060  3712 5851 6169  3503 5407 5777  2707 5548 5764  3212 3213 5603  1238 2098 5409  4125 5647 6093  2485 3110 6297  3265 5081 5772  3251 5833 5974  911 913 5724  2844 5710 6121  2304 5513 5582  2465 2823 5866  3641 4161 5429  674 676 5667  1612 2069 5403  4210 4211 5411  3987 4255 5894  4434 4710 5585  587 591 5722  565 4318 5839  4797 5435 5924  3290 3291 3896  1117 1120 5996  2975 5127 5807  4178 5068 6212  3430 5278 5631  290 549 5869  156 157 5719  4643 4644 6229  3322 5559 5698  539 4781 6163  4459 5587 6355  3873 3874 6377  127 128 5708  1240 1242 5395  3464 5490 5914  2356 2472 5423  1929 5789 5878  1189 4881 6232  3801 4787 5964  3638 3644 5463  3739 3741 5797  1391 5620 5698  75 509 5705  4369 4374 5766  2684 4933 6051  597 602 5459  1668 1670 5618  3709 5457 5561  2954 4903 5843  843 846 6099  860 4624 5967  3058 5647 6093  2223 5457 5561  1207 5888 6206  2683 2684 5747  521 5432 5863  3411 4979 5793  4539 5579 5783  2827 5818 6203  1635 2073 5348  2674 5016 6165  3065 5192 5560  3031 3032 5831  3302 5780 5918  2402 4805 6144  1003 1077 5677  3256 5414 5633  2402 6103 6144  597 4734 5459  530 5336 6045  173 483 5630  3906 4563 5753  733 6137 6338  91 480 5785  2890 5610 5707  2240 5348 5716  2976 4904 5567  4202 4204 6114  2491 4442 6223  1153 1155 5621  2445 5387 5647  4169 4170 5955  4425 4428 6351  1936 5139 5581  1447 1682 5978  2976 5134 5567  4050 5412 6316  2629 4805 5586  914 916 5628  291 292 5687  3521 4000 6156  1297 4973 5579  3262 5189 5679  883 885 5642  2538 3058 5638  3479 3480 5641  3480 5584 5641  612 5344 6174  4188 5929 6149  2029 4908 5711  5027 5283 5712  342 5148 5350  497 5362 6148  3264 5114 5555  22 23 5266  94 95 5267  3065 5560 6059  2636 2896 3128  916 918 5634  3712 5653 5851  1984 5690 6074  3006 3340 5635  145 146 5743  3900 3990 6079  1929 1931 5789  467 5454 5550  2088 2105 5464  514 4599 6012  3236 3238 5617  2107 4951 6084  356 5152 5153  2432 5380 6064  1629 1738 6031  4008 5787 6227  3096 3098 5622  2687 3278 6348  3689 5560 6059  3058 5154 5647  450 4602 5792  2101 4848 5754  3265 5079 5772  3499 3579 6021  637 2002 6060  3843 5316 5914  2844 5042 5710  1405 5320 5354  498 5599 6312  611 1268 5959  2728 3075 5623  2641 4913 6320  525 4605 6208  3590 3592 5693  3440 5399 5586  88 89 5738  3547 5829 6309  1610 1996 5403  4932 5399 5505  28 5401 6008  3052 5314 6101  3152 3466 5336  132 408 5718  425 4534 5963  3653 5228 5842  3397 4844 5615  3084 5042 5710  590 598 6252  1900 1903 5673  3973 5674 5847  1240 2098 5395  3173 5489 5767  2341 5636 5950  1207 4405 6175  3420 5952 6006  3878 6041 6051  4575 4814 5769  499 3629 5892  3202 3533 5637  1936 4925 5581  3391 3393 5670  4207 4208 6286  4348 5129 5932  1244 1246 5857  3452 5021 6236  1816 4867 5852  4319 5362 6148  3666 5228 6209  1971 2290 5437  3439 4511 5822  1736 4228 6218  1453 5337 6254  3801 3802 6246  3425 5764 5999  3638 3639 5463  602 2149 5459  3937 5475 5619  3687 6092 6139  3970 4489 6107  2450 5505 5704  3164 3165 5376  3585 5178 6267  2890 3332 5707  2043 4442 5956  431 5404 6366  3141 3530 3688  2004 3218 5866  512 4665 6039  3254 3257 5633  3400 5308 6095  1051 4957 5916  3293 4350 6217  3624 3973 5847  3049 4925 5581  1415 5424 5650  3950 5623 5971  3296 4739 5795  1982 2116 5721  839 1206 6086  1388 4487 6280  2653 3566 5644  2226 4919 5616  2983 5084 5612  479 4996 6081  3302 4576 5780  157 158 5758  1976 5547 5619  306 445 5607  178 179 5741  3281 5031 5754  916 5628 5634  3415 5532 5665  253 254 5745  4062 4064 5880  3456 3825 6295  3332 5707 5775  4378 5518 5691  1596 1598 6011  3147 5384 5427  2483 6225 6281  4474 5453 6224  3291 5608 6049  3094 4891 5636  2708 4909 6328  4140 4143 5840  1475 1499 5688  2785 3849 6347  3424 5525 6116  2521 2522 6195  1976 5110 5619  2856 3325 5799  3484 5739 5778  2907 3549 3582  1992 5315 5810  812 4501 6192  1571 5143 5560  2474 2476 5467  1983 5127 5807  755 4351 6198  4870 5683 6253  2124 3172 5504  1331 1456 6106  3357 5736 5932  7 232 562  8 281 563  3359 3361 5915  3357 4721 5736  2840 6074 6318  4247 5648 6183  3732 4486 6354  3521 5703 6156  3109 4794 5588  161 162 5169  351 352 5168  3279 5597 5730  4763 5369 5819  3331 4953 6083  4424 4531 6360  3310 3317 6090  773 775 5657  3355 3420 5952  3406 5417 5775  459 5583 5584  4762 4763 5819  3200 4493 6346  3037 5338 5882  3133 3344 5696  1045 1046 5695  3403 3554 6131  412 4798 6002  546 4961 5491  96 97 5538  4344 5404 6366  3910 3911 5965  505 4131 6166  3375 3565 6102  3641 3804 5429  1199 5734 5835  4613 4851 5681  340 484 5877  91 92 5785  564 4320 6073  3155 3156 5701  3191 3888 5390  3124 5565 5750  4756 4904 5567  2258 4314 6340  2650 2679 5689  664 5569 5873  1947 5104 5746  3145 4840 5852  2032 2080 6191  3473 3474 5893  2542 2905 5420  1425 4309 6179  3430 5142 5631  3872 5803 6026  4233 6219 6235  2299 2578 5832  3115 5289 5669  2040 2042 5605  2273 3501 6210  3122 3498 5782  3231 5132 5591  3317 5272 5557  2044 2218 6180  3196 5651 6058  5262 5379 5572  3434 5749 5801  4378 4384 5691  3075 5561 5623  4726 5186 5611  544 5384 5663  4112 4129 5706  4752 4996 6081  4532 4854 5653  2698 2899 5979  3644 3856 5463  2975 5807 6122  3568 5570 5937  3328 3329 5666  3689 4934 6059  3301 3807 5890  2945 5164 5671  1898 1900 5742  2512 5981 6346  4426 4427 6035  2870 3893 6300  1915 1929 5878  3295 5262 5572  3254 3256 5633  4318 4319 5839  3886 6287 6330  1862 5131 6119  2472 3303 5423  672 1709 5938  612 614 6174  1918 4970 6024  4602 5792 6160  2213 2699 5478  2196 4225 5961  4657 5309 6278  130 131 5829  3954 5137 6162  3214 4843 5676  2894 4530 6360  2712 3542 6123  2109 2146 5896  2709 2710 5714  2574 3291 6054  3566 5026 5655  3332 3691 5775  519 5247 6298  4066 4500 5849  3800 5181 6313  4759 5552 5798  3083 5271 5836  156 475 5719  2517 4156 5942  4172 5062 6228  38 39 5823  4395 4956 6194  485 5153 5223  8 563 3637  134 478 6324  3986 3987 6037  2875 5516 5985  465 3932 6040  3607 4333 6202  4425 4426 6351  3905 5380 6064  1113 6044 6105  3358 4879 6177  2798 5203 6353  503 3946 5930  3206 5553 5967  964 5036 5652  4866 5435 5924  3283 4795 5784  4655 5486 5987  3608 5046 5589  2688 3124 5750  636 638 5813  1528 5779 6179  2101 5215 5754  1978 4882 5624  1288 4391 6359  2716 2717 5812  3446 3679 6039  4423 5616 6185  3214 5571 6055  3478 3480 6077  3791 5768 5794  3261 4446 6196  3618 4749 6358  1983 5044 6333  3253 3255 5694  2578 4565 6042  3328 5576 5666  3026 4485 5928  3292 5930 5974  3546 3547 6309  2957 4849 5726  130 5829 5962  249 250 5809  564 4233 6219  2785 3792 6347  515 5592 6307  2873 5467 5468  2636 3235 6078  3891 5133 6099  232 562 4943  281 563 4944  12 13 6053  2679 3484 5739  3420 3558 6006  3276 5640 5791  1900 5673 5742  1415 4675 5650  3403 4414 6131  3325 5200 5799  2531 3400 6095  3209 5545 5937  2104 5678 5990  3204 3524 5770  2628 4837 5806  133 134 6324  3655 3658 5842  4854 5536 5653  3260 4873 5805  1942 5241 5678  2093 5373 5534  5095 5558 6111  1729 5075 5597  1101 1270 5804  628 630 6296  3085 5986 6248  353 556 5299  160 557 5300  143 144 5860  3530 3688 3935  498 5089 5599  3687 5187 6092  2679 5689 5739  1074 4588 6107  2635 5368 5543  689 5096 6322  4550 4551 6303  2683 3070 5747  2075 4655 5987  2692 2693 5973  2213 2596 5478  1076 1099 6187  678 680 5853  421 4689 6127  3279 3280 5730  4381 4383 6175  1788 3487 5796  4257 5344 6174  1052 4894 5686  24 495 4997  4141 6140 6336  3179 3180 6068  3285 4399 6325  1603 5639 6230  3060 4342 6101  3475 4587 5672  4795 5393 6000  4020 4022 6002  3259 3716 5846  2176 2659 5765  572 5089 5646  3173 3677 5767  3354 5584 5641  2952 4939 5891  4631 5793 6218  544 4864 5663  1461 5788 6193  453 5893 6240  970 5359 5677  3782 5026 5655  2661 4747 6003  3285 4770 6325  3986 4351 6198  2689 5750 5889  3566 5655 5925  1996 5998 6057  3415 5051 5665  422 4186 5846  975 4628 5941  2520 5095 5558  3279 5075 5597  3902 3904 6221  4971 5342 5715  3184 3491 5774  3535 5132 5591  172 483 6260  2957 5726 6019  3082 5257 5711  1111 1113 6044  3243 3713 5868  2124 2126 5504  2592 5342 5715  4961 4962 5491  2953 6169 6367  4010 5310 6365  3510 4533 5976  4405 4406 6085  890 1708 5995  3731 3732 6354  3084 5465 5710  3335 3336 5756  5134 5567 5939  2899 5822 5979  427 4680 5786  3562 5646 6073  4983 5204 5703  1942 1944 5678  1022 1024 5800  3404 5777 6033  2106 4516 6355  3975 5110 6063  438 4799 6087  3308 3310 6117  8 3637 5529  2474 3303 5467  2884 4297 6250  1923 5783 5922  4408 5045 6100  796 5453 6224  4383 5448 6085  970 1003 5677  3013 3714 5970  4405 6085 6175  2901 4720 5851  767 773 5759  4565 4566 6276  4624 5553 5967  3442 5399 5505  3395 6012 6335  3851 5593 6332  2788 3806 6182  562 2907 3549  2733 3464 5490  2974 3682 6339  1283 1291 5953  4262 5372 5695  2707 4857 5764  2029 5257 5711  1047 4802 6270  2034 5218 6191  3407 3408 5817  5204 5295 5703  3280 3702 5776  4232 5599 6312  3151 5348 5716  2910 4028 5771  3260 3716 5805  2476 2873 5467  5535 5892 6110  3946 5833 5974  4039 4639 6017  506 4515 5920  3632 3634 5727  5031 5215 5754  3834 5312 6056  3350 3885 6163  2445 5154 5647  2594 5720 5755  1193 4365 6364  4037 4493 5981  3221 3223 5811  1466 1483 5830  3397 5615 5963  1020 1022 5825  3809 4943 6291  4134 4137 6087  3269 4279 6233  4245 6225 6281  3534 5241 5678  450 5466 5792  30 31 5908  2514 5379 5572  3511 5304 5832  3243 4958 5868  2594 4316 5720  1051 5531 5916  1807 5289 5669  4674 5592 6366  4315 4317 5935  110 111 6376  3466 4634 6319  1905 4298 6140  4754 4755 6165  4666 4667 5803  1480 4809 5774  3191 3586 5390  4149 4685 6126  346 347 5659  166 167 5662  533 4759 5798  21 22 566  95 96 567  3165 3575 5376  3558 3902 6221  129 130 5962  879 1505 5943  4242 4852 6281  1113 1115 6105  4355 5239 6080  3318 5272 5749  2615 5304 6344  3533 5724 5773  3204 5770 5899  3115 5297 5669  2725 4632 6104  3974 3976 6154  2883 4679 6164  773 5657 5759  4372 4375 6317  3276 3550 5791  1045 5372 5695  1960 5066 5944  2146 4553 6288  2646 3369 5856  733 735 6137  4681 5454 5550  496 5935 5954  3340 5635 5933  518 5328 6311  3620 5032 6358  4710 5104 5746  3302 4713 5918  1474 5278 5631  2313 6028 6176  4022 5120 6238  290 291 5869  1911 2160 6245  339 340 5877  3695 5275 6302  5227 5228 5842  3280 5730 5776  1877 4830 5777  2755 5923 6115  2340 2380 5755  2897 4827 5819  1965 4549 6331  731 733 6338  3047 4489 6373  2450 4929 5704  3631 3634 5887  1506 1508 6255  548 4992 5685  3185 5315 5810  2945 4928 5671  3435 3436 5781  4699 5905 6208  2091 2093 5534  2724 3988 5728  3692 3693 5865  2637 2974 6215  3520 5476 5562  3247 5884 6220  3501 5439 6210  490 5329 6319  5036 5482 5652  4779 5027 5712  3968 3969 6334  3310 6090 6117  3138 3865 6242  2340 2594 5755  3334 4504 6082  4365 4367 6161  5272 5557 5749  1480 5774 5910  4200 4202 5940  3507 5843 6009  2091 2105 5534  4521 4780 5881  3791 3951 5794  4518 5701 5763  2246 4874 5732  338 339 5901  4114 4129 5850  1741 2217 6275  3358 5810 6177  510 4826 6173  1918 4978 6151  3271 5552 5798  3287 5368 5543  3344 5035 5757  3777 5236 6106  1919 5772 6010  3603 5354 6112  1022 5800 5825  3863 4882 5624  2901 5536 5653  3491 5774 5910  1959 5061 5753  355 485 5153  1470 1475 5838  3900 5371 5682  1923 4973 5783  457 4664 6026  3369 5856 6014  2752 5239 6080  4277 5006 6204  4855 5636 5950  2217 2717 6207  3878 5308 6051  3745 5040 5322  3496 4939 5891  1934 2059 5986  3918 5345 6104  2733 3290 5490  3257 5633 6048  3240 5286 5733  1156 1158 6206  2601 3808 6379  3374 5358 5580  3255 5694 6237  4045 5690 6074  2641 5632 6320  1475 5688 5838  4365 6161 6364  3166 4699 5905  3827 4550 6362  3916 5340 5656  93 496 5954  4086 5558 6111  1187 5876 6027  3513 5516 5985  3718 4165 6121  3455 3456 6295  157 5719 5758  3435 5781 5845  3507 4903 5843  92 93 5954  3334 3335 6181  4347 4348 6034  2246 5360 5732  2856 3622 5799  2776 2794 5980  414 5253 6242  3500 5565 5750  1175 5333 5709  343 488 5350  1461 5699 5788  3818 6124 6279  2830 3488 6310  3930 5683 6253  545 5311 6061  2099 4885 5735  3141 3688 5602  4612 4646 6038  2659 5765 5899  3805 5995 6277  664 666 5873  2898 5255 5948  2975 4772 6122  27 28 6008  1919 5079 5772  3527 4549 6331  2808 3503 6033  1190 1199 5835  170 487 5611  2755 3623 6159  692 695 5855  3501 5381 5889  2668 4690 6282  2528 5847 5982  3497 3819 5984  2894 4424 6360  2936 5167 5744  291 5687 5869  923 1304 5993  4088 4232 6312  158 486 5758  567 5268 5269  1947 1949 5746  3083 5341 5836  3604 3605 6329  3238 5867 5955  1146 1148 6374  1438 5749 5801  4534 5615 5963  5109 5110 6063  3471 5459 6072  3594 3596 5960  20 21 5537  2896 3287 5543  354 485 5299  159 486 5300  2717 6236 6263  1303 5500 5692  2240 2369 5716  2395 2397 5858  3447 3448 6094  3610 3611 6144  417 4993 5675  911 5724 5773  499 5892 5969  3548 5364 5862  2056 5787 6227  635 5306 6060  504 4212 6178  3678 3679 5870  1537 5655 5925  4611 4614 5927  4905 5497 6247  5147 5371 5682  3500 3501 5889  3467 3954 6162  4379 4384 5888  3722 4355 6300  187 573 6167  326 572 6168  1442 4430 5936  3491 3493 5910  3568 4078 5937  2260 6124 6279  3192 5752 6211  3492 5051 5814  2615 5498 6344  1657 4499 6146  4979 5202 5723  3789 5608 6049  3354 5583 5584  208 209 6092  3037 4530 5882  1155 5621 6326  2828 3155 5818  4973 5579 5783  3102 3829 6311  3533 5229 5773  3080 4681 5991  553 5040 5740  2920 3251 5974  3964 5218 6191  1736 4631 6218  974 5528 5664  1907 5469 6317  4521 5008 5881  2997 6024 6231  2659 3204 5899  2501 2870 6080  4929 5378 5704  1480 4938 5910  3425 5999 6118  487 5186 5611  2592 5426 5715  3095 5259 5848  5066 5080 5944  4170 5867 5955  4208 5671 6199  487 5396 6170  3588 3685 6254  3369 3941 6014  4594 5550 5991  3895 5203 6353  2919 3347 6153  2977 5421 5906  4597 5510 5919  3266 5349 5787  1094 1223 6046  3185 3187 5810  171 5611 6260  3994 4699 6208  3340 3342 5933  520 4602 6160  4208 6199 6286  3278 5806 6348  841 5723 5793  3408 5817 6075  2522 5601 6195  208 6092 6139  3882 5384 5663  2955 4881 6232  3501 5381 6204  2876 5149 6286  3961 3963 6283  4983 5703 6156  2873 5468 5861  3799 5414 5633  3331 3418 6083  3605 3783 6333  3032 3433 5831  4253 4550 6362  4125 4126 6093  339 5877 5901  3605 6329 6333  3951 5163 5845  3291 3896 5608  2226 5616 6185  3653 3655 5842  3244 5497 5692  2525 5540 6228  313 314 6052  4044 4045 6318  1461 5468 6193  2525 5062 6228  66 67 6194  3256 5414 5998  87 453 6240  845 4969 5904  3910 5249 5965  3493 3818 6124  3324 3922 5872  1524 1526 6365  3633 3636 5837  4599 4600 6335  4957 4958 5916  517 4678 6001  92 5785 5954  3460 3462 5929  3534 5678 5990  3501 5439 6204  4231 5047 5874  762 2130 5921  681 4696 6372  2739 3674 6284  3487 5714 5796  3690 6109 6271  2580 3141 5602  3329 5135 5816  1638 4508 6091  730 732 5997  3145 5188 5852  141 142 6256  948 951 6201  860 5967 6273  3213 5652 5864  567 5267 5268  4704 4969 5904  3424 3425 6118  3399 3481 5902  3417 5196 5898  3466 5329 6319  3788 5045 6100  3703 5400 5959  1269 5875 6269  4628 5443 5941  2717 5812 6263  3632 5727 6110  3479 5641 6084  4774 4857 5999  2698 5979 6262  5096 6154 6322  5089 5599 5646  4518 5701 5926  3579 4471 6246  5482 5652 5864  2527 2528 5982  3441 5586 5988  2349 2350 6314  3216 3511 6042  642 643 5994  5051 5665 5814  2668 5385 6282  551 5170 6258  695 5855 5983  2896 3128 5543  3909 3912 5989  3646 3856 6134  5381 5889 6363  2099 4940 6022  268 269 6113  3469 5421 5906  3485 5202 5723  3761 5377 5987  1123 1125 6027  3507 3508 6009  3693 5531 5916  3643 4944 6157  2795 5767 5978  2684 5747 5748  3404 6033 6109  2864 2988 6229  3629 3632 5892  695 697 5983  2689 5889 6363  304 471 5951  5236 5307 6125  1069 4748 5884  3383 3385 6380  1542 1584 6096  3531 4866 5924  4317 5935 5954  4161 5429 5604  3005 5366 5966  1284 5008 5881  3368 3893 5917  445 4893 5828  2997 4970 6024  1121 1194 6066  535 4787 5964  1984 4845 6074  4374 5524 6129  3435 5163 5845  3227 5649 6308  207 208 6139  3357 5129 5932  2952 3678 5891  1265 1267 6020  3300 5950 6141  3546 5484 6309  3963 3965 6283  3366 5446 6226  1099 5654 6187  3206 3559 5967  4575 5509 6342  4077 5585 6265  3291 6049 6054  3300 4855 5950  2883 5927 6314  778 2276 6293  205 206 6133  3481 5722 5902  2366 3404 6109  2482 5116 5984  3408 3436 6075  1862 5160 5808  4279 4888 6233  2861 2863 6342  4147 4148 6043  1244 1534 5857  3397 4907 5963  3542 4837 6348  1391 5559 5698  3281 3746 6047  2290 5437 6290  162 163 576  350 351 577  3582 3584 5731  2989 3459 6071  3263 5664 6371  2004 2465 5866  3194 3544 6028  4797 5073 5924  169 487 5396  344 488 5351  1077 5166 6187  432 5397 6183  2388 2806 6243  3164 5479 6067  2056 5179 5787  2782 3196 6058  3411 4228 6218  4316 5935 6186  4508 5980 6091  533 5798 6325  3201 5415 6057  3631 3633 5887  2186 2559 6036  4221 5522 6244  3155 5763 5818  2369 4874 6330  3329 5816 6192  1923 5178 5922  2580 5105 5602  2906 3309 6023  535 4768 6021  3633 5837 5887  4163 5271 5836  352 556 5168  161 557 5169  3503 5777 6033  2109 2537 5896  5293 5366 5966  4879 5069 6177  2316 2755 6115  3508 6009 6089  3290 3896 5802  3875 5735 5790  3201 5403 6057  3756 5641 6084  3975 6063 6322  3513 4928 5985  4726 5611 6260  2916 6301 6341  3488 5086 6310  3144 5424 6018  2901 5653 5851  3238 5199 5867  3330 5577 6119  4566 4889 6276  3542 5956 6123  3508 3957 6089  347 348 568  165 166 569  3726 5732 6330  4734 5459 6072  2844 3484 6121  2898 3864 5948  556 5299 5606  2681 3048 6116  3745 5040 5740  3796 5557 6188  417 5013 6368  3611 4541 6264  468 5137 6216  2873 3400 5861  4025 4538 6098  1304 5530 6249  5308 5748 6051  2235 5571 6055  1267 6020 6120  3711 3712 6169  1163 1197 6097  3915 5080 5944  4331 4588 6373  3618 3620 6358  3818 3820 6279  3365 4553 6288  497 5181 5975  4857 5764 5999  1268 5400 5959  2916 2918 6341  3680 5437 6290  3347 5936 6153  191 192 6313  3914 3916 6189  416 4962 6291  1284 5712 5881  23 495 5266  94 496 5267  1394 1541 6190  3518 3522 6029  540 5120 6238  1267 1421 6120  5417 5775 6268  4752 4997 5859  3230 5498 6344  3300 3556 6141  3987 5894 6037  4436 5293 5966  1585 1588 6370  3593 3595 6261  3558 5123 6221  4399 5798 6325  3251 5595 5833  3255 3625 6237  3192 4950 5945  2915 2916 6301  2708 5263 6100  4204 5656 6323  3029 4848 6047  2674 5047 5874  5142 5219 6125  2260 4938 6124  5414 5415 5998  3410 4229 6214  4681 5550 5991  4230 4231 6050  168 560 5396  345 561 5351  3065 3066 6059  876 5259 5848  3159 3486 5926  4867 5188 5852  1273 5134 5939  3533 5637 5724  1174 5249 5965  3210 5448 5912  1919 5054 6010  3050 3060 6101  3374 5358 6262  3162 3164 6067  2957 5121 6019  3888 5485 5903  171 172 6260  2803 3154 6234  546 5491 6032  3544 3546 6176  1149 1151 6132  1748 5236 6125  1425 1427 6179  2652 5746 6265  3556 6141 6278  3544 6028 6176  3469 3470 5906  3462 5929 6149  4142 4144 6241  3799 5633 6048  570 5485 6337  5424 5650 6018  3916 5656 6323  1792 4734 6072  2635 5543 5895  535 5964 6021  635 637 6060  2879 2881 6211  3155 5701 5763  3919 5696 5994  2399 2401 6103  3066 5443 5854  1159 1195 6135  3711 4820 6367  348 349 5660  164 165 5661  4098 6011 6136  2942 5497 6034  5443 5854 5941  2065 2999 6349  2218 5849 6180  3694 5818 6203  3693 5865 5868  3230 5449 6344  3462 4409 6149  4133 4135 6274  3445 5482 5864  4342 5314 6101  3495 6030 6263  4142 6241 6294  1598 2498 6011  5 187 6167  10 326 6168  3263 3621 6371  3034 5199 5867  3409 5000 6289  514 5670 6012  3915 5340 5944  3475 5672 6305  2190 2647 6251  3227 4813 6308  2692 3366 5973  4006 4007 6280  515 4671 6307  3859 3860 6197  431 4674 6366  3290 5490 5802  4117 4119 6266  420 5687 5946  4135 4138 6336  3024 5000 6289  4207 5149 6286  3247 4361 6220  2146 5436 6288  1423 1431 6213  3479 4951 6084  2654 3045 6361  2218 5605 5880  1049 5361 5913  3044 5439 6210  3452 3495 6236  7 562 2907  2712 3372 6123  5153 5223 6285  1748 5142 6125  3210 5545 5912  3825 5961 6295  1264 1320 6267  3690 4537 6271  3370 4163 6277  669 5324 5900  1629 1631 6031  4501 5816 6192  3205 3746 6184  4141 4142 6294  3672 5672 6305  3216 6042 6276  4938 5910 6124  3350 5919 6163  4298 6274 6336  4530 4531 6360  2260 4949 6279  2708 5263 6328  3270 3464 5909  3523 4875 6248  1981 4968 6327  3235 6078 6205  891 893 6315  4135 6274 6336  3375 3377 6102  3400 5861 6155  754 5074 6013  3193 5068 6212  3500 5750 5889  2044 2046 6180  3559 5967 6273  99 5968 6343  2517 5277 5942  3788 5263 6100  3727 5720 5755  470 6049 6054  3299 5870 6222  1155 1157 6326  3778 5468 5861  2271 4870 6253  3668 5405 6230  545 4819 6061  3610 6103 6144  4768 6021 6304  3257 3720 6048  3148 3150 6200  3493 5910 6124  1075 5256 6004  3854 5687 5869  460 4768 6304  2596 3515 6150  533 4770 6325  4200 5627 5940  4047 4968 6327  2997 5076 6231  2032 2034 6191  1438 5557 5749  2798 4933 6041  4210 5411 6205  4316 5268 6186  3372 6123 6223  540 4798 6238  480 5785 6025  5317 5424 5871  2699 5479 6067  3575 4701 5968  574 5535 5969  3476 4978 6151  1328 5285 5958  3881 5704 6272  2531 3502 6095  2501 2752 6080  1992 5810 6177  4173 5540 6228  3348 5699 5788  689 5109 6063  3534 5426 5990  2687 3542 6348  2521 2737 6195  2483 4852 6281  3372 3938 6223  3532 5247 6298  2233 4905 6247  3532 4953 6298  4427 5334 6035  4616 5525 6116  614 1482 6174  4928 5985 6199  3586 5390 5844  2827 5158 6203  5497 6034 6247  546 4960 6032  3933 5385 6282  3216 4889 6276  3499 6021 6304  3955 5601 6195  4502 5674 5957  2906 6023 6356  4277 5439 6204  4028 5021 6207  3711 6169 6367  498 5645 6312  4885 5735 5790  681 5240 6372  796 5037 6224  4565 6042 6276  5267 5268 6186  4588 6107 6373  1818 4983 6156  807 5306 5907  3213 5603 5864  755 5002 6198  2226 5028 6185  1400 5055 6112  3180 3183 6068  3235 5411 6205  2727 5460 5971  3854 5687 5946  3965 5598 6283  6 2574 6054  3678 5870 6222  4028 6207 6275  3586 4357 6147  4979 5723 5793  4314 5368 6340  529 5376 6257  3235 5411 6138  807 5907 5977  476 5442 6016  3398 3399 6146  5048 5522 6244  2907 3584 6172  3579 5964 6021  1992 5069 6177  553 5740 6143  442 5427 6056  3646 3668 6134  3350 5510 5919  3153 5336 6045  4317 5785 5954  570 5390 6352  1076 1077 6187  3502 5747 5748  4275 5719 5758  1575 6090 6117  557 5300 5897  475 4888 6233  2099 5735 6022  2290 2655 6290  3475 4823 6305  471 6078 6205  4913 5150 6320  3035 5317 5871  4710 5746 6265  2380 5755 5931  5219 5307 6125  3586 5844 6147  487 5186 6170  4522 4523 5883  4489 6107 6373  3577 5524 6129  3470 5906 6259  3816 5911 6070  3409 5558 6289  3308 3367 6117  4527 5734 5835  3150 5549 6200  2693 5375 6200  4177 6069 6212  2830 4743 6310  2904 2906 6356  5095 5264 6111  3556 5309 6278  167 560 5662  346 561 5659  4442 6123 6223  3849 6071 6347  1974 5228 6209  3399 5902 6128  3366 4553 6226  2998 5048 6244  440 4991 6070  2222 5837 5887  3193 5464 6069  2974 6215 6339  807 5290 5977  4291 5664 6371  9 2636 6078  4502 5475 5957  4184 5334 6035  3801 5964 6246  3193 6069 6212  2698 5358 6262  4805 5586 5988  3470 3472 6259  3162 5398 6067  3269 5717 6233  2106 5587 6355  2483 5559 6225  3566 5644 5925  2105 5534 5885  2217 6207 6275  4177 5885 6069  529 5376 6343  3238 5617 5955  2056 5325 6227  4414 5993 6131  5007 5381 6363  3713 5865 5868  1603 5405 6230  553 5024 6143  4319 6082 6148  475 5717 6233  2002 5232 6152  2273 5213 6210  3884 5240 6372  2689 5184 6363  1350 5264 6111  3679 5870 6065  3920 5632 6320  510 4887 6173  1965 5083 6331  3691 5775 6268  3731 6096 6354  22 566 5266  95 567 5267  2105 5885 6069  3668 5313 6230  5007 5184 6363  561 5659 5862  3258 5716 6287  2699 5398 6067  3128 5543 5895  5415 5998 6057  5378 5704 6272  3299 5455 6222  3946 5930 5974  3412 5263 6328  4129 5706 6338  642 5696 5994  4320 5646 6073  3304 5658 5923  4599 6012 6335  3418 5702 6083  3666 5639 6209  476 5152 6016  4246 5397 6183  3212 5603 6055  495 4997 5859  5006 5381 6204  3278 5535 6110  3448 5705 6094  1996 5403 6057  478 6014 6324  3148 5375 6200  421 5059 6127  96 567 5538  3393 5670 6012  12 5269 6053  484 5148 6108  410 5713 6142  4317 5785 6025  3918 6104 6376  3969 5211 6334  2628 5727 5806  5467 5468 6193  871 5770 5872  5917 6150 6239  551 5039 6258  3707 5479 6257  3172 5504 6018  3807 5890 6292  2596 6150 6239  4450 5417 6268  4266 5752 6211  3317 5557 6188  3677 5767 5978  579 5844 6147  4426 6035 6351  560 5662 5903  3615 5907 5977  3303 5788 6193  4147 6043 6245  4107 5378 6272  2498 5694 6136  3058 5638 6093  2841 5411 6138  4755 5874 6165  567 5269 5538  5308 5748 6095  2876 6199 6286  3240 5733 6038  4045 6074 6318  3172 5650 6018  4319 5839 6082  1534 5857 6377  4962 6088 6291  3914 5697 6189  2693 5549 6200  3876 5735 6022  2684 5748 6051  519 5702 6083  4073 5876 6027  419 4944 6157  3564 5870 6065  416 4943 6291  509 5705 6094  3293 5519 6217  3642 5463 6158  3559 5556 6273  3727 5755 5931  3804 5507 6381  5166 5654 6187  4710 5585 6265  3611 5988 6264  2863 5509 6342  3261 5679 6196  3613 5368 6340  21 566 5537  2105 5464 6069  3426 5713 6142  162 576 5169  351 577 5168  98 4701 5968  3523 5986 6248  4613 5681 6164  2596 5478 6239  4309 5779 6179  486 5758 6076  495 5266 5972  3329 5666 6192  3399 6128 6146  495 5859 5972  571 5364 6369  5152 6016 6285  4928 5671 6199  2983 5612 6332  5152 5153 6285  4223 5884 6220  3552 5854 5941  496 5935 6186  556 5606 5949  3368 5917 6150  3286 5059 6127  3495 6236 6263  3579 5964 6246  5448 5912 6085  4504 6082 6148  4298 6140 6336  440 5911 6070  754 6013 6303  3502 5748 6095  347 568 5659  166 569 5662  486 6076 6375  2755 5923 6159  3303 5467 6193  3856 5463 6158  3575 5968 6343  4406 5912 6085  4442 5956 6123  4202 5940 6114  4500 5849 6180  4874 5732 6330  3525 6005 6182  4129 5850 6137  7 2907 6172  3422 6016 6285  3988 5728 6297  417 5675 6368  3863 5624 6306  5300 5897 6375  3706 5917 6239  4297 6151 6250  497 5975 6148  3974 6154 6322  4028 5771 6275  2454 5940 6114  3682 6129 6339  496 5267 6186  2498 6011 6136  565 5839 6181  5390 5844 6352  3575 5376 6343  556 5168 5949  3827 5820 6362  2369 5716 6287  1657 6128 6146  3367 5725 6321  2674 5874 6165  4186 5812 6263  4088 5645 6312  4837 5806 6348  1304 5993 6131  3678 5891 6222  4384 5888 6206  2788 6005 6182  486 5300 6375  4275 5758 6076  3632 5892 6110  3864 5948 6252  4614 5927 6314  348 568 5660  165 569 5661  1708 5995 6277  4504 5975 6148  3367 6117 6321  4348 6034 6247  3441 5988 6264  3916 6189 6323  3941 6014 6324  4225 5961 6295  3808 5953 6379  3476 6151 6250  689 6063 6322  4493 5981 6346  2456 6189 6323  3459 6071 6347  3577 6129 6339  4184 6035 6351  1584 6096 6354  3809 6088 6291  3555 5897 6375  578 5844 6352  1575 6117 6321  0 12 5538  0 97 5538  1 19 577  1 350 577  2 20 5537  2 105 5537  3 98 576  3 163 576  4 106 5661  4 164 5661  8 280 415  8 415 5529  11 349 5660  11 407 5660  </DataArray>
<DataArray  type="UInt32"  Name="offsets"  format="ascii">3 6 9 12 15 18 21 24 27 30 33 36 39 42 45 48 51 54 57 60 63 66 69 72 75 78 81 84 87 90 93 96 99 102 105 108 111 114 117 120 123 126 129 132 135 138 141 144 147 150 153 156 159 162 165 168 171 174 177 180 183 186 189 192 195 198 201 204 207 210 213 216 219 222 225 228 231 234 237 240 243 246 249 252 255 258 261 264 267 270 273 276 279 282 285 288 291 294 297 300 303 306 309 312 315 318 321 324 327 330 333 336 339 342 345 348 351 354 357 360 363 366 369 372 375 378 381 384 387 390 393 396 399 402 405 408 411 414 417 420 423 426 429 432 435 438 441 444 447 450 453 456 459 462 465 468 471 474 477 480 483 486 489 492 495 498 501 504 507 510 513 516 519 522 525 528 531 534 537 540 543 546 549 552 555 558 561 564 567 570 573 576 579 582 585 588 591 594 597 600 603 606 609 612 615 618 621 624 627 630 633 636 639 642 645 648 651 654 657 660 663 666 669 672 675 678 681 684 687 690 693 696 699 702 705 708 711 714 717 720 723 726 729 732 735 738 741 744 747 750 753 756 759 762 765 768 771 774 777 780 783 786 789 792 795 798 801 804 807 810 813 816 819 822 825 828 831 834 837 840 843 846 849 852 855 858 861 864 867 870 873 876 879 882 885 888 891 894 897 900 903 906 909 912 915 918 921 924 927 930 933 936 939 942 945 948 951 954 957 960 963 966 969 972 975 978 981 984 987 990 993 996 999 1002 1005 1008 1011 1014 1017 1020 1023 1026 1029 1032 1035 1038 1041 1044 1047 1050 1053 1056 1059 1062 1065 1068 1071 1074 1077 1080 1083 1086 1089 1092 1095 1098 1101 1104 1107 1110 1113 1116 1119 1122 1125 1128 1131 1134 1137 1140 1143 1146 1149 1152 1155 1158 1161 1164 1167 1170 1173 1176 1179 1182 1185 1188 1191 1194 1197 1200 1203 1206 1209 1212 1215 1218 1221 1224 1227 1230 1233 1236 1239 1242 1245 1248 1251 1254 1257 1260 1263 1266 1269 1272 1275 1278 1281 1284 1287 1290 1293 1296 1299 1302 1305 1308 1311 1314 1317 1320 1323 1326 1329 1332 1335 1338 1341 1344 1347 1350 1353 1356 1359 1362 1365 1368 1371 1374 1377 1380 1383 1386 1389 1392 1395 1398 1401 1404 1407 1410 1413 1416 1419 1422 1425 1428 1431 1434 1437 1440 1443 1446 1449 1452 1455 1458 1461 1464 1467 1470 1473 1476 1479 1482 1485 1488 1491 1494 1497 1500 1503 1506 1509 1512 1515 1518 1521 1524 1527 1530 1533 1536 1539 1542 1545 1548 1551 1554 1557 1560 1563 1566 1569 1572 1575 1578 1581 1584 1587 1590 1593 1596 1599 1602 1605 1608 1611 1614 1617 1620 1623 1626 1629 1632 1635 1638 1641 1644 1647 1650 1653 1656 1659 1662 1665 1668 1671 1674 1677 1680 1683 1686 1689 1692 1695 1698 1701 1704 1707 1710 1713 1716 1719 1722 1725 1728 1731 1734 1737 1740 1743 1746 1749 1752 1755 1758 1761 1764 1767 1770 1773 1776 1779 1782 1785 1788 1791 1794 1797 1800 1803 1806 1809 1812 1815 1818 1821 1824 1827 1830 1833 1836 1839 1842 1845 1848 1851 1854 1857 1860 1863 1866 1869 1872 1875 1878 1881 1884 1887 1890 1893 1896 1899 1902 1905 1908 1911 1914 1917 1920 1923 1926 1929 1932 1935 1938 1941 1944 1947 1950 1953 1956 1959 1962 1965 1968 1971 1974 1977 1980 1983 1986 1989 1992 1995 1998 2001 2004 2007 2010 2013 2016 2019 2022 2025 2028 2031 2034 2037 2040 2043 2046 2049 2052 2055 2058 2061 2064 2067 2070 2073 2076 2079 2082 2085 2088 2091 2094 2097 2100 2103 2106 2109 2112 2115 2118 2121 2124 2127 2130 2133 2136 2139 2142 2145 2148 2151 2154 2157 2160 2163 2166 2169 2172 2175 2178 2181 2184 2187 2190 2193 2196 2199 2202 2205 2208 2211 2214 2217 2220 2223 2226 2229 2232 2235 2238 2241 2244 2247 2250 2253 2256 2259 2262 2265 2268 2271 2274 2277 2280 2283 2286 2289 2292 2295 2298 2301 2304 2307 2310 2313 2316 2319 2322 2325 2328 2331 2334 2337 2340 2343 2346 2349 2352 2355 2358 2361 2364 2367 2370 2373 2376 2379 2382 2385 2388 2391 2394 2397 2400 2403 2406 2409 2412 2415 2418 2421 2424 2427 2430 2433 2436 2439 2442 2445 2448 2451 2454 2457 2460 2463 2466 2469 2472 2475 2478 2481 2484 2487 2490 2493 2496 2499 2502 2505 2508 2511 2514 2517 2520 2523 2526 2529 2532 2535 2538 2541 2544 2547 2550 2553 2556 2559 2562 2565 2568 2571 2574 2577 2580 2583 2586 2589 2592 2595 2598 2601 2604 2607 2610 2613 2616 2619 2622 2625 2628 2631 2634 2637 2640 2643 2646 2649 2652 2655 2658 2661 2664 2667 2670 2673 2676 2679 2682 2685 2688 2691 2694 2697 2700 2703 2706 2709 2712 2715 2718 2721 2724 2727 2730 2733 2736 2739 2742 2745 2748 2751 2754 2757 2760 2763 2766 2769 2772 2775 2778 2781 2784 2787 2790 2793 2796 2799 2802 2805 2808 2811 2814 2817 2820 2823 2826 2829 2832 2835 2838 2841 2844 2847 2850 2853 2856 2859 2862 2865 2868 2871 2874 2877 2880 2883 2886 2889 2892 2895 2898 2901 2904 2907 2910 2913 2916 2919 2922 2925 2928 2931 2934 2937 2940 2943 2946 2949 2952 2955 2958 2961 2964 2967 2970 2973 2976 2979 2982 2985 2988 2991 2994 2997 3000 3003 3006 3009 3012 3015 3018 3021 3024 3027 3030 3033 3036 3039 3042 3045 3048 3051 3054 3057 3060 3063 3066 3069 3072 3075 3078 3081 3084 3087 3090 3093 3096 3099 3102 3105 3108 3111 3114 3117 3120 3123 3126 3129 3132 3135 3138 3141 3144 3147 3150 3153 3156 3159 3162 3165 3168 3171 3174 3177 3180 3183 3186 3189 3192 3195 3198 3201 3204 3207 3210 3213 3216 3219 3222 3225 3228 3231 3234 3237 3240 3243 3246 3249 3252 3255 3258 3261 3264 3267 3270 3273 3276 3279 3282 3285 3288 3291 3294 3297 3300 3303 3306 3309 3312 3315 3318 3321 3324 3327 3330 3333 3336 3339 3342 3345 3348 3351 3354 3357 3360 3363 3366 3369 3372 3375 3378 3381 3384 3387 3390 3393 3396 3399 3402 3405 3408 3411 3414 3417 3420 3423 3426 3429 3432 3435 3438 3441 3444 3447 3450 3453 3456 3459 3462 3465 3468 3471 3474 3477 3480 3483 3486 3489 3492 3495 3498 3501 3504 3507 3510 3513 3516 3519 3522 3525 3528 3531 3534 3537 3540 3543 3546 3549 3552 3555 3558 3561 3564 3567 3570 3573 3576 3579 3582 3585 3588 3591 3594 3597 3600 3603 3606 3609 3612 3615 3618 3621 3624 3627 3630 3633 3636 3639 3642 3645 3648 3651 3654 3657 3660 3663 3666 3669 3672 3675 3678 3681 3684 3687 3690 3693 3696 3699 3702 3705 3708 3711 3714 3717 3720 3723 3726 3729 3732 3735 3738 3741 3744 3747 3750 3753 3756 3759 3762 3765 3768 3771 3774 3777 3780 3783 3786 3789 3792 3795 3798 3801 3804 3807 3810 3813 3816 3819 3822 3825 3828 3831 3834 3837 3840 3843 3846 3849 3852 3855 3858 3861 3864 3867 3870 3873 3876 3879 3882 3885 3888 3891 3894 3897 3900 3903 3906 3909 3912 3915 3918 3921 3924 3927 3930 3933 3936 3939 3942 3945 3948 3951 3954 3957 3960 3963 3966 3969 3972 3975 3978 3981 3984 3987 3990 3993 3996 3999 4002 4005 4008 4011 4014 4017 4020 4023 4026 4029 4032 4035 4038 4041 4044 4047 4050 4053 4056 4059 4062 4065 4068 4071 4074 4077 4080 4083 4086 4089 4092 4095 4098 4101 4104 4107 4110 4113 4116 4119 4122 4125 4128 4131 4134 4137 4140 4143 4146 4149 4152 4155 4158 4161 4164 4167 4170 4173 4176 4179 4182 4185 4188 4191 4194 4197 4200 4203 4206 4209 4212 4215 4218 4221 4224 4227 4230 4233 4236 4239 4242 4245 4248 4251 4254 4257 4260 4263 4266 4269 4272 4275 4278 4281 4284 4287 4290 4293 4296 4299 4302 4305 4308 4311 4314 4317 4320 4323 4326 4329 4332 4335 4338 4341 4344 4347 4350 4353 4356 4359 4362 4365 4368 4371 4374 4377 4380 4383 4386 4389 4392 4395 4398 4401 4404 4407 4410 4413 4416 4419 4422 4425 4428 4431 4434 4437 4440 4443 4446 4449 4452 4455 4458 4461 4464 4467 4470 4473 4476 4479 4482 4485 4488 4491 4494 4497 4500 4503 4506 4509 4512 4515 4518 4521 4524 4527 4530 4533 4536 4539 4542 4545 4548 4551 4554 4557 4560 4563 4566 4569 4572 4575 4578 4581 4584 4587 4590 4593 4596 4599 4602 4605 4608 4611 4614 4617 4620 4623 4626 4629 4632 4635 4638 4641 4644 4647 4650 4653 4656 4659 4662 4665 4668 4671 4674 4677 4680 4683 4686 4689 4692 4695 4698 4701 4704 4707 4710 4713 4716 4719 4722 4725 4728 4731 4734 4737 4740 4743 4746 4749 4752 4755 4758 4761 4764 4767 4770 4773 4776 4779 4782 4785 4788 4791 4794 4797 4800 4803 4806 4809 4812 4815 4818 4821 4824 4827 4830 4833 4836 4839 4842 4845 4848 4851 4854 4857 4860 4863 4866 4869 4872 4875 4878 4881 4884 4887 4890 4893 4896 4899 4902 4905 4908 4911 4914 4917 4920 4923 4926 4929 4932 4935 4938 4941 4944 4947 4950 4953 4956 4959 4962 4965 4968 4971 4974 4977 4980 4983 4986 4989 4992 4995 4998 5001 5004 5007 5010 5013 5016 5019 5022 5025 5028 5031 5034 5037 5040 5043 5046 5049 5052 5055 5058 5061 5064 5067 5070 5073 5076 5079 5082 5085 5088 5091 5094 5097 5100 5103 5106 5109 5112 5115 5118 5121 5124 5127 5130 5133 5136 5139 5142 5145 5148 5151 5154 5157 5160 5163 5166 5169 5172 5175 5178 5181 5184 5187 5190 5193 5196 5199 5202 5205 5208 5211 5214 5217 5220 5223 5226 5229 5232 5235 5238 5241 5244 5247 5250 5253 5256 5259 5262 5265 5268 5271 5274 5277 5280 5283 5286 5289 5292 5295 5298 5301 5304 5307 5310 5313 5316 5319 5322 5325 5328 5331 5334 5337 5340 5343 5346 5349 5352 5355 5358 5361 5364 5367 5370 5373 5376 5379 5382 5385 5388 5391 5394 5397 5400 5403 5406 5409 5412 5415 5418 5421 5424 5427 5430 5433 5436 5439 5442 5445 5448 5451 5454 5457 5460 5463 5466 5469 5472 5475 5478 5481 5484 5487 5490 5493 5496 5499 5502 5505 5508 5511 5514 5517 5520 5523 5526 5529 5532 5535 5538 5541 5544 5547 5550 5553 5556 5559 5562 5565 5568 5571 5574 5577 5580 5583 5586 5589 5592 5595 5598 5601 5604 5607 5610 5613 5616 5619 5622 5625 5628 5631 5634 5637 5640 5643 5646 5649 5652 5655 5658 5661 5664 5667 5670 5673 5676 5679 5682 5685 5688 5691 5694 5697 5700 5703 5706 5709 5712 5715 5718 5721 5724 5727 5730 5733 5736 5739 5742 5745 5748 5751 5754 5757 5760 5763 5766 5769 5772 5775 5778 5781 5784 5787 5790 5793 5796 5799 5802 5805 5808 5811 5814 5817 5820 5823 5826 5829 5832 5835 5838 5841 5844 5847 5850 5853 5856 5859 5862 5865 5868 5871 5874 5877 5880 5883 5886 5889 5892 5895 5898 5901 5904 5907 5910 5913 5916 5919 5922 5925 5928 5931 5934 5937 5940 5943 5946 5949 5952 5955 5958 5961 5964 5967 5970 5973 5976 5979 5982 5985 5988 5991 5994 5997 6000 6003 6006 6009 6012 6015 6018 6021 6024 6027 6030 6033 6036 6039 6042 6045 6048 6051 6054 6057 6060 6063 6066 6069 6072 6075 6078 6081 6084 6087 6090 6093 6096 6099 6102 6105 6108 6111 6114 6117 6120 6123 6126 6129 6132 6135 6138 6141 6144 6147 6150 6153 6156 6159 6162 6165 6168 6171 6174 6177 6180 6183 6186 6189 6192 6195 6198 6201 6204 6207 6210 6213 6216 6219 6222 6225 6228 6231 6234 6237 6240 6243 6246 6249 6252 6255 6258 6261 6264 6267 6270 6273 6276 6279 6282 6285 6288 6291 6294 6297 6300 6303 6306 6309 6312 6315 6318 6321 6324 6327 6330 6333 6336 6339 6342 6345 6348 6351 6354 6357 6360 6363 6366 6369 6372 6375 6378 6381 6384 6387 6390 6393 6396 6399 6402 6405 6408 6411 6414 6417 6420 6423 6426 6429 6432 6435 6438 6441 6444 6447 6450 6453 6456 6459 6462 6465 6468 6471 6474 6477 6480 6483 6486 6489 6492 6495 6498 6501 6504 6507 6510 6513 6516 6519 6522 6525 6528 6531 6534 6537 6540 6543 6546 6549 6552 6555 6558 6561 6564 6567 6570 6573 6576 6579 6582 6585 6588 6591 6594 6597 6600 6603 6606 6609 6612 6615 6618 6621 6624 6627 6630 6633 6636 6639 6642 6645 6648 6651 6654 6657 6660 6663 6666 6669 6672 6675 6678 6681 6684 6687 6690 6693 6696 6699 6702 6705 6708 6711 6714 6717 6720 6723 6726 6729 6732 6735 6738 6741 6744 6747 6750 6753 6756 6759 6762 6765 6768 6771 6774 6777 6780 6783 6786 6789 6792 6795 6798 6801 6804 6807 6810 6813 6816 6819 6822 6825 6828 6831 6834 6837 6840 6843 6846 6849 6852 6855 6858 6861 6864 6867 6870 6873 6876 6879 6882 6885 6888 6891 6894 6897 6900 6903 6906 6909 6912 6915 6918 6921 6924 6927 6930 6933 6936 6939 6942 6945 6948 6951 6954 6957 6960 6963 6966 6969 6972 6975 6978 6981 6984 6987 6990 6993 6996 6999 7002 7005 7008 7011 7014 7017 7020 7023 7026 7029 7032 7035 7038 7041 7044 7047 7050 7053 7056 7059 7062 7065 7068 7071 7074 7077 7080 7083 7086 7089 7092 7095 7098 7101 7104 7107 7110 7113 7116 7119 7122 7125 7128 7131 7134 7137 7140 7143 7146 7149 7152 7155 7158 7161 7164 7167 7170 7173 7176 7179 7182 7185 7188 7191 7194 7197 7200 7203 7206 7209 7212 7215 7218 7221 7224 7227 7230 7233 7236 7239 7242 7245 7248 7251 7254 7257 7260 7263 7266 7269 7272 7275 7278 7281 7284 7287 7290 7293 7296 7299 7302 7305 7308 7311 7314 7317 7320 7323 7326 7329 7332 7335 7338 7341 7344 7347 7350 7353 7356 7359 7362 7365 7368 7371 7374 7377 7380 7383 7386 7389 7392 7395 7398 7401 7404 7407 7410 7413 7416 7419 7422 7425 7428 7431 7434 7437 7440 7443 7446 7449 7452 7455 7458 7461 7464 7467 7470 7473 7476 7479 7482 7485 7488 7491 7494 7497 7500 7503 7506 7509 7512 7515 7518 7521 7524 7527 7530 7533 7536 7539 7542 7545 7548 7551 7554 7557 7560 7563 7566 7569 7572 7575 7578 7581 7584 7587 7590 7593 7596 7599 7602 7605 7608 7611 7614 7617 7620 7623 7626 7629 7632 7635 7638 7641 7644 7647 7650 7653 7656 7659 7662 7665 7668 7671 7674 7677 7680 7683 7686 7689 7692 7695 7698 7701 7704 7707 7710 7713 7716 7719 7722 7725 7728 7731 7734 7737 7740 7743 7746 7749 7752 7755 7758 7761 7764 7767 7770 7773 7776 7779 7782 7785 7788 7791 7794 7797 7800 7803 7806 7809 7812 7815 7818 7821 7824 7827 7830 7833 7836 7839 7842 7845 7848 7851 7854 7857 7860 7863 7866 7869 7872 7875 7878 7881 7884 7887 7890 7893 7896 7899 7902 7905 7908 7911 7914 7917 7920 7923 7926 7929 7932 7935 7938 7941 7944 7947 7950 7953 7956 7959 7962 7965 7968 7971 7974 7977 7980 7983 7986 7989 7992 7995 7998 8001 8004 8007 8010 8013 8016 8019 8022 8025 8028 8031 8034 8037 8040 8043 8046 8049 8052 8055 8058 8061 8064 8067 8070 8073 8076 8079 8082 8085 8088 8091 8094 8097 8100 8103 8106 8109 8112 8115 8118 8121 8124 8127 8130 8133 8136 8139 8142 8145 8148 8151 8154 8157 8160 8163 8166 8169 8172 8175 8178 8181 8184 8187 8190 8193 8196 8199 8202 8205 8208 8211 8214 8217 8220 8223 8226 8229 8232 8235 8238 8241 8244 8247 8250 8253 8256 8259 8262 8265 8268 8271 8274 8277 8280 8283 8286 8289 8292 8295 8298 8301 8304 8307 8310 8313 8316 8319 8322 8325 8328 8331 8334 8337 8340 8343 8346 8349 8352 8355 8358 8361 8364 8367 8370 8373 8376 8379 8382 8385 8388 8391 8394 8397 8400 8403 8406 8409 8412 8415 8418 8421 8424 8427 8430 8433 8436 8439 8442 8445 8448 8451 8454 8457 8460 8463 8466 8469 8472 8475 8478 8481 8484 8487 8490 8493 8496 8499 8502 8505 8508 8511 8514 8517 8520 8523 8526 8529 8532 8535 8538 8541 8544 8547 8550 8553 8556 8559 8562 8565 8568 8571 8574 8577 8580 8583 8586 8589 8592 8595 8598 8601 8604 8607 8610 8613 8616 8619 8622 8625 8628 8631 8634 8637 8640 8643 8646 8649 8652 8655 8658 8661 8664 8667 8670 8673 8676 8679 8682 8685 8688 8691 8694 8697 8700 8703 8706 8709 8712 8715 8718 8721 8724 8727 8730 8733 8736 8739 8742 8745 8748 8751 8754 8757 8760 8763 8766 8769 8772 8775 8778 8781 8784 8787 8790 8793 8796 8799 8802 8805 8808 8811 8814 8817 8820 8823 8826 8829 8832 8835 8838 8841 8844 8847 8850 8853 8856 8859 8862 8865 8868 8871 8874 8877 8880 8883 8886 8889 8892 8895 8898 8901 8904 8907 8910 8913 8916 8919 8922 8925 8928 8931 8934 8937 8940 8943 8946 8949 8952 8955 8958 8961 8964 8967 8970 8973 8976 8979 8982 8985 8988 8991 8994 8997 9000 9003 9006 9009 9012 9015 9018 9021 9024 9027 9030 9033 9036 9039 9042 9045 9048 9051 9054 9057 9060 9063 9066 9069 9072 9075 9078 9081 9084 9087 9090 9093 9096 9099 9102 9105 9108 9111 9114 9117 9120 9123 9126 9129 9132 9135 9138 9141 9144 9147 9150 9153 9156 9159 9162 9165 9168 9171 9174 9177 9180 9183 9186 9189 9192 9195 9198 9201 9204 9207 9210 9213 9216 9219 9222 9225 9228 9231 9234 9237 9240 9243 9246 9249 9252 9255 9258 9261 9264 9267 9270 9273 9276 9279 9282 9285 9288 9291 9294 9297 9300 9303 9306 9309 9312 9315 9318 9321 9324 9327 9330 9333 9336 9339 9342 9345 9348 9351 9354 9357 9360 9363 9366 9369 9372 9375 9378 9381 9384 9387 9390 9393 9396 9399 9402 9405 9408 9411 9414 9417 9420 9423 9426 9429 9432 9435 9438 9441 9444 9447 9450 9453 9456 9459 9462 9465 9468 9471 9474 9477 9480 9483 9486 9489 9492 9495 9498 9501 9504 9507 9510 9513 9516 9519 9522 9525 9528 9531 9534 9537 9540 9543 9546 9549 9552 9555 9558 9561 9564 9567 9570 9573 9576 9579 9582 9585 9588 9591 9594 9597 9600 9603 9606 9609 9612 9615 9618 9621 9624 9627 9630 9633 9636 9639 9642 9645 9648 9651 9654 9657 9660 9663 9666 9669 9672 9675 9678 9681 9684 9687 9690 9693 9696 9699 9702 9705 9708 9711 9714 9717 9720 9723 9726 9729 9732 9735 9738 9741 9744 9747 9750 9753 9756 9759 9762 9765 9768 9771 9774 9777 9780 9783 9786 9789 9792 9795 9798 9801 9804 9807 9810 9813 9816 9819 9822 9825 9828 9831 9834 9837 9840 9843 9846 9849 9852 9855 9858 9861 9864 9867 9870 9873 9876 9879 9882 9885 9888 9891 9894 9897 9900 9903 9906 9909 9912 9915 9918 9921 9924 9927 9930 9933 9936 9939 9942 9945 9948 9951 9954 9957 9960 9963 9966 9969 9972 9975 9978 9981 9984 9987 9990 9993 9996 9999 10002 10005 10008 10011 10014 10017 10020 10023 10026 10029 10032 10035 10038 10041 10044 10047 10050 10053 10056 10059 10062 10065 10068 10071 10074 10077 10080 10083 10086 10089 10092 10095 10098 10101 10104 10107 10110 10113 10116 10119 10122 10125 10128 10131 10134 10137 10140 10143 10146 10149 10152 10155 10158 10161 10164 10167 10170 10173 10176 10179 10182 10185 10188 10191 10194 10197 10200 10203 10206 10209 10212 10215 10218 10221 10224 10227 10230 10233 10236 10239 10242 10245 10248 10251 10254 10257 10260 10263 10266 10269 10272 10275 10278 10281 10284 10287 10290 10293 10296 10299 10302 10305 10308 10311 10314 10317 10320 10323 10326 10329 10332 10335 10338 10341 10344 10347 10350 10353 10356 10359 10362 10365 10368 10371 10374 10377 10380 10383 10386 10389 10392 10395 10398 10401 10404 10407 10410 10413 10416 10419 10422 10425 10428 10431 10434 10437 10440 10443 10446 10449 10452 10455 10458 10461 10464 10467 10470 10473 10476 10479 10482 10485 10488 10491 10494 10497 10500 10503 10506 10509 10512 10515 10518 10521 10524 10527 10530 10533 10536 10539 10542 10545 10548 10551 10554 10557 10560 10563 10566 10569 10572 10575 10578 10581 10584 10587 10590 10593 10596 10599 10602 10605 10608 10611 10614 10617 10620 10623 10626 10629 10632 10635 10638 10641 10644 10647 10650 10653 10656 10659 10662 10665 10668 10671 10674 10677 10680 10683 10686 10689 10692 10695 10698 10701 10704 10707 10710 10713 10716 10719 10722 10725 10728 10731 10734 10737 10740 10743 10746 10749 10752 10755 10758 10761 10764 10767 10770 10773 10776 10779 10782 10785 10788 10791 10794 10797 10800 10803 10806 10809 10812 10815 10818 10821 10824 10827 10830 10833 10836 10839 10842 10845 10848 10851 10854 10857 10860 10863 10866 10869 10872 10875 10878 10881 10884 10887 10890 10893 10896 10899 10902 10905 10908 10911 10914 10917 10920 10923 10926 10929 10932 10935 10938 10941 10944 10947 10950 10953 10956 10959 10962 10965 10968 10971 10974 10977 10980 10983 10986 10989 10992 10995 10998 11001 11004 11007 11010 11013 11016 11019 11022 11025 11028 11031 11034 11037 11040 11043 11046 11049 11052 11055 11058 11061 11064 11067 11070 11073 11076 11079 11082 11085 11088 11091 11094 11097 11100 11103 11106 11109 11112 11115 11118 11121 11124 11127 11130 11133 11136 11139 11142 11145 11148 11151 11154 11157 11160 11163 11166 11169 11172 11175 11178 11181 11184 11187 11190 11193 11196 11199 11202 11205 11208 11211 11214 11217 11220 11223 11226 11229 11232 11235 11238 11241 11244 11247 11250 11253 11256 11259 11262 11265 11268 11271 11274 11277 11280 11283 11286 11289 11292 11295 11298 11301 11304 11307 11310 11313 11316 11319 11322 11325 11328 11331 11334 11337 11340 11343 11346 11349 11352 11355 11358 11361 11364 11367 11370 11373 11376 11379 11382 11385 11388 11391 11394 11397 11400 11403 11406 11409 11412 11415 11418 11421 11424 11427 11430 11433 11436 11439 11442 11445 11448 11451 11454 11457 11460 11463 11466 11469 11472 11475 11478 11481 11484 11487 11490 11493 11496 11499 11502 11505 11508 11511 11514 11517 11520 11523 11526 11529 11532 11535 11538 11541 11544 11547 11550 11553 11556 11559 11562 11565 11568 11571 11574 11577 11580 11583 11586 11589 11592 11595 11598 11601 11604 11607 11610 11613 11616 11619 11622 11625 11628 11631 11634 11637 11640 11643 11646 11649 11652 11655 11658 11661 11664 11667 11670 11673 11676 11679 11682 11685 11688 11691 11694 11697 11700 11703 11706 11709 11712 11715 11718 11721 11724 11727 11730 11733 11736 11739 11742 11745 11748 11751 11754 11757 11760 11763 11766 11769 11772 11775 11778 11781 11784 11787 11790 11793 11796 11799 11802 11805 11808 11811 11814 11817 11820 11823 11826 11829 11832 11835 11838 11841 11844 11847 11850 11853 11856 11859 11862 11865 11868 11871 11874 11877 11880 11883 11886 11889 11892 11895 11898 11901 11904 11907 11910 11913 11916 11919 11922 11925 11928 11931 11934 11937 11940 11943 11946 11949 11952 11955 11958 11961 11964 11967 11970 11973 11976 11979 11982 11985 11988 11991 11994 11997 12000 12003 12006 12009 12012 12015 12018 12021 12024 12027 12030 12033 12036 12039 12042 12045 12048 12051 12054 12057 12060 12063 12066 12069 12072 12075 12078 12081 12084 12087 12090 12093 12096 12099 12102 12105 12108 12111 12114 12117 12120 12123 12126 12129 12132 12135 12138 12141 12144 12147 12150 12153 12156 12159 12162 12165 12168 12171 12174 12177 12180 12183 12186 12189 12192 12195 12198 12201 12204 12207 12210 12213 12216 12219 12222 12225 12228 12231 12234 12237 12240 12243 12246 12249 12252 12255 12258 12261 12264 12267 12270 12273 12276 12279 12282 12285 12288 12291 12294 12297 12300 12303 12306 12309 12312 12315 12318 12321 12324 12327 12330 12333 12336 12339 12342 12345 12348 12351 12354 12357 12360 12363 12366 12369 12372 12375 12378 12381 12384 12387 12390 12393 12396 12399 12402 12405 12408 12411 12414 12417 12420 12423 12426 12429 12432 12435 12438 12441 12444 12447 12450 12453 12456 12459 12462 12465 12468 12471 12474 12477 12480 12483 12486 12489 12492 12495 12498 12501 12504 12507 12510 12513 12516 12519 12522 12525 12528 12531 12534 12537 12540 12543 12546 12549 12552 12555 12558 12561 12564 12567 12570 12573 12576 12579 12582 12585 12588 12591 12594 12597 12600 12603 12606 12609 12612 12615 12618 12621 12624 12627 12630 12633 12636 12639 12642 12645 12648 12651 12654 12657 12660 12663 12666 12669 12672 12675 12678 12681 12684 12687 12690 12693 12696 12699 12702 12705 12708 12711 12714 12717 12720 12723 12726 12729 12732 12735 12738 12741 12744 12747 12750 12753 12756 12759 12762 12765 12768 12771 12774 12777 12780 12783 12786 12789 12792 12795 12798 12801 12804 12807 12810 12813 12816 12819 12822 12825 12828 12831 12834 12837 12840 12843 12846 12849 12852 12855 12858 12861 12864 12867 12870 12873 12876 12879 12882 12885 12888 12891 12894 12897 12900 12903 12906 12909 12912 12915 12918 12921 12924 12927 12930 12933 12936 12939 12942 12945 12948 12951 12954 12957 12960 12963 12966 12969 12972 12975 12978 12981 12984 12987 12990 12993 12996 12999 13002 13005 13008 13011 13014 13017 13020 13023 13026 13029 13032 13035 13038 13041 13044 13047 13050 13053 13056 13059 13062 13065 13068 13071 13074 13077 13080 13083 13086 13089 13092 13095 13098 13101 13104 13107 13110 13113 13116 13119 13122 13125 13128 13131 13134 13137 13140 13143 13146 13149 13152 13155 13158 13161 13164 13167 13170 13173 13176 13179 13182 13185 13188 13191 13194 13197 13200 13203 13206 13209 13212 13215 13218 13221 13224 13227 13230 13233 13236 13239 13242 13245 13248 13251 13254 13257 13260 13263 13266 13269 13272 13275 13278 13281 13284 13287 13290 13293 13296 13299 13302 13305 13308 13311 13314 13317 13320 13323 13326 13329 13332 13335 13338 13341 13344 13347 13350 13353 13356 13359 13362 13365 13368 13371 13374 13377 13380 13383 13386 13389 13392 13395 13398 13401 13404 13407 13410 13413 13416 13419 13422 13425 13428 13431 13434 13437 13440 13443 13446 13449 13452 13455 13458 13461 13464 13467 13470 13473 13476 13479 13482 13485 13488 13491 13494 13497 13500 13503 13506 13509 13512 13515 13518 13521 13524 13527 13530 13533 13536 13539 13542 13545 13548 13551 13554 13557 13560 13563 13566 13569 13572 13575 13578 13581 13584 13587 13590 13593 13596 13599 13602 13605 13608 13611 13614 13617 13620 13623 13626 13629 13632 13635 13638 13641 13644 13647 13650 13653 13656 13659 13662 13665 13668 13671 13674 13677 13680 13683 13686 13689 13692 13695 13698 13701 13704 13707 13710 13713 13716 13719 13722 13725 13728 13731 13734 13737 13740 13743 13746 13749 13752 13755 13758 13761 13764 13767 13770 13773 13776 13779 13782 13785 13788 13791 13794 13797 13800 13803 13806 13809 13812 13815 13818 13821 13824 13827 13830 13833 13836 13839 13842 13845 13848 13851 13854 13857 13860 13863 13866 13869 13872 13875 13878 13881 13884 13887 13890 13893 13896 13899 13902 13905 13908 13911 13914 13917 13920 13923 13926 13929 13932 13935 13938 13941 13944 13947 13950 13953 13956 13959 13962 13965 13968 13971 13974 13977 13980 13983 13986 13989 13992 13995 13998 14001 14004 14007 14010 14013 14016 14019 14022 14025 14028 14031 14034 14037 14040 14043 14046 14049 14052 14055 14058 14061 14064 14067 14070 14073 14076 14079 14082 14085 14088 14091 14094 14097 14100 14103 14106 14109 14112 14115 14118 14121 14124 14127 14130 14133 14136 14139 14142 14145 14148 14151 14154 14157 14160 14163 14166 14169 14172 14175 14178 14181 14184 14187 14190 14193 14196 14199 14202 14205 14208 14211 14214 14217 14220 14223 14226 14229 14232 14235 14238 14241 14244 14247 14250 14253 14256 14259 14262 14265 14268 14271 14274 14277 14280 14283 14286 14289 14292 14295 14298 14301 14304 14307 14310 14313 14316 14319 14322 14325 14328 14331 14334 14337 14340 14343 14346 14349 14352 14355 14358 14361 14364 14367 14370 14373 14376 14379 14382 14385 14388 14391 14394 14397 14400 14403 14406 14409 14412 14415 14418 14421 14424 14427 14430 14433 14436 14439 14442 14445 14448 14451 14454 14457 14460 14463 14466 14469 14472 14475 14478 14481 14484 14487 14490 14493 14496 14499 14502 14505 14508 14511 14514 14517 14520 14523 14526 14529 14532 14535 14538 14541 14544 14547 14550 14553 14556 14559 14562 14565 14568 14571 14574 14577 14580 14583 14586 14589 14592 14595 14598 14601 14604 14607 14610 14613 14616 14619 14622 14625 14628 14631 14634 14637 14640 14643 14646 14649 14652 14655 14658 14661 14664 14667 14670 14673 14676 14679 14682 14685 14688 14691 14694 14697 14700 14703 14706 14709 14712 14715 14718 14721 14724 14727 14730 14733 14736 14739 14742 14745 14748 14751 14754 14757 14760 14763 14766 14769 14772 14775 14778 14781 14784 14787 14790 14793 14796 14799 14802 14805 14808 14811 14814 14817 14820 14823 14826 14829 14832 14835 14838 14841 14844 14847 14850 14853 14856 14859 14862 14865 14868 14871 14874 14877 14880 14883 14886 14889 14892 14895 14898 14901 14904 14907 14910 14913 14916 14919 14922 14925 14928 14931 14934 14937 14940 14943 14946 14949 14952 14955 14958 14961 14964 14967 14970 14973 14976 14979 14982 14985 14988 14991 14994 14997 15000 15003 15006 15009 15012 15015 15018 15021 15024 15027 15030 15033 15036 15039 15042 15045 15048 15051 15054 15057 15060 15063 15066 15069 15072 15075 15078 15081 15084 15087 15090 15093 15096 15099 15102 15105 15108 15111 15114 15117 15120 15123 15126 15129 15132 15135 15138 15141 15144 15147 15150 15153 15156 15159 15162 15165 15168 15171 15174 15177 15180 15183 15186 15189 15192 15195 15198 15201 15204 15207 15210 15213 15216 15219 15222 15225 15228 15231 15234 15237 15240 15243 15246 15249 15252 15255 15258 15261 15264 15267 15270 15273 15276 15279 15282 15285 15288 15291 15294 15297 15300 15303 15306 15309 15312 15315 15318 15321 15324 15327 15330 15333 15336 15339 15342 15345 15348 15351 15354 15357 15360 15363 15366 15369 15372 15375 15378 15381 15384 15387 15390 15393 15396 15399 15402 15405 15408 15411 15414 15417 15420 15423 15426 15429 15432 15435 15438 15441 15444 15447 15450 15453 15456 15459 15462 15465 15468 15471 15474 15477 15480 15483 15486 15489 15492 15495 15498 15501 15504 15507 15510 15513 15516 15519 15522 15525 15528 15531 15534 15537 15540 15543 15546 15549 15552 15555 15558 15561 15564 15567 15570 15573 15576 15579 15582 15585 15588 15591 15594 15597 15600 15603 15606 15609 15612 15615 15618 15621 15624 15627 15630 15633 15636 15639 15642 15645 15648 15651 15654 15657 15660 15663 15666 15669 15672 15675 15678 15681 15684 15687 15690 15693 15696 15699 15702 15705 15708 15711 15714 15717 15720 15723 15726 15729 15732 15735 15738 15741 15744 15747 15750 15753 15756 15759 15762 15765 15768 15771 15774 15777 15780 15783 15786 15789 15792 15795 15798 15801 15804 15807 15810 15813 15816 15819 15822 15825 15828 15831 15834 15837 15840 15843 15846 15849 15852 15855 15858 15861 15864 15867 15870 15873 15876 15879 15882 15885 15888 15891 15894 15897 15900 15903 15906 15909 15912 15915 15918 15921 15924 15927 15930 15933 15936 15939 15942 15945 15948 15951 15954 15957 15960 15963 15966 15969 15972 15975 15978 15981 15984 15987 15990 15993 15996 15999 16002 16005 16008 16011 16014 16017 16020 16023 16026 16029 16032 16035 16038 16041 16044 16047 16050 16053 16056 16059 16062 16065 16068 16071 16074 16077 16080 16083 16086 16089 16092 16095 16098 16101 16104 16107 16110 16113 16116 16119 16122 16125 16128 16131 16134 16137 16140 16143 16146 16149 16152 16155 16158 16161 16164 16167 16170 16173 16176 16179 16182 16185 16188 16191 16194 16197 16200 16203 16206 16209 16212 16215 16218 16221 16224 16227 16230 16233 16236 16239 16242 16245 16248 16251 16254 16257 16260 16263 16266 16269 16272 16275 16278 16281 16284 16287 16290 16293 16296 16299 16302 16305 16308 16311 16314 16317 16320 16323 16326 16329 16332 16335 16338 16341 16344 16347 16350 16353 16356 16359 16362 16365 16368 16371 16374 16377 16380 16383 16386 16389 16392 16395 16398 16401 16404 16407 16410 16413 16416 16419 16422 16425 16428 16431 16434 16437 16440 16443 16446 16449 16452 16455 16458 16461 16464 16467 16470 16473 16476 16479 16482 16485 16488 16491 16494 16497 16500 16503 16506 16509 16512 16515 16518 16521 16524 16527 16530 16533 16536 16539 16542 16545 16548 16551 16554 16557 16560 16563 16566 16569 16572 16575 16578 16581 16584 16587 16590 16593 16596 16599 16602 16605 16608 16611 16614 16617 16620 16623 16626 16629 16632 16635 16638 16641 16644 16647 16650 16653 16656 16659 16662 16665 16668 16671 16674 16677 16680 16683 16686 16689 16692 16695 16698 16701 16704 16707 16710 16713 16716 16719 16722 16725 16728 16731 16734 16737 16740 16743 16746 16749 16752 16755 16758 16761 16764 16767 16770 16773 16776 16779 16782 16785 16788 16791 16794 16797 16800 16803 16806 16809 16812 16815 16818 16821 16824 16827 16830 16833 16836 16839 16842 16845 16848 16851 16854 16857 16860 16863 16866 16869 16872 16875 16878 16881 16884 16887 16890 16893 16896 16899 16902 16905 16908 16911 16914 16917 16920 16923 16926 16929 16932 16935 16938 16941 16944 16947 16950 16953 16956 16959 16962 16965 16968 16971 16974 16977 16980 16983 16986 16989 16992 16995 16998 17001 17004 17007 17010 17013 17016 17019 17022 17025 17028 17031 17034 17037 17040 17043 17046 17049 17052 17055 17058 17061 17064 17067 17070 17073 17076 17079 17082 17085 17088 17091 17094 17097 17100 17103 17106 17109 17112 17115 17118 17121 17124 17127 17130 17133 17136 17139 17142 17145 17148 17151 17154 17157 17160 17163 17166 17169 17172 17175 17178 17181 17184 17187 17190 17193 17196 17199 17202 17205 17208 17211 17214 17217 17220 17223 17226 17229 17232 17235 17238 17241 17244 17247 17250 17253 17256 17259 17262 17265 17268 17271 17274 17277 17280 17283 17286 17289 17292 17295 17298 17301 17304 17307 17310 17313 17316 17319 17322 17325 17328 17331 17334 17337 17340 17343 17346 17349 17352 17355 17358 17361 17364 17367 17370 17373 17376 17379 17382 17385 17388 17391 17394 17397 17400 17403 17406 17409 17412 17415 17418 17421 17424 17427 17430 17433 17436 17439 17442 17445 17448 17451 17454 17457 17460 17463 17466 17469 17472 17475 17478 17481 17484 17487 17490 17493 17496 17499 17502 17505 17508 17511 17514 17517 17520 17523 17526 17529 17532 17535 17538 17541 17544 17547 17550 17553 17556 17559 17562 17565 17568 17571 17574 17577 17580 17583 17586 17589 17592 17595 17598 17601 17604 17607 17610 17613 17616 17619 17622 17625 17628 17631 17634 17637 17640 17643 17646 17649 17652 17655 17658 17661 17664 17667 17670 17673 17676 17679 17682 17685 17688 17691 17694 17697 17700 17703 17706 17709 17712 17715 17718 17721 17724 17727 17730 17733 17736 17739 17742 17745 17748 17751 17754 17757 17760 17763 17766 17769 17772 17775 17778 17781 17784 17787 17790 17793 17796 17799 17802 17805 17808 17811 17814 17817 17820 17823 17826 17829 17832 17835 17838 17841 17844 17847 17850 17853 17856 17859 17862 17865 17868 17871 17874 17877 17880 17883 17886 17889 17892 17895 17898 17901 17904 17907 17910 17913 17916 17919 17922 17925 17928 17931 17934 17937 17940 17943 17946 17949 17952 17955 17958 17961 17964 17967 17970 17973 17976 17979 17982 17985 17988 17991 17994 17997 18000 18003 18006 18009 18012 18015 18018 18021 18024 18027 18030 18033 18036 18039 18042 18045 18048 18051 18054 18057 18060 18063 18066 18069 18072 18075 18078 18081 18084 18087 18090 18093 18096 18099 18102 18105 18108 18111 18114 18117 18120 18123 18126 18129 18132 18135 18138 18141 18144 18147 18150 18153 18156 18159 18162 18165 18168 18171 18174 18177 18180 18183 18186 18189 18192 18195 18198 18201 18204 18207 18210 18213 18216 18219 18222 18225 18228 18231 18234 18237 18240 18243 18246 18249 18252 18255 18258 18261 18264 18267 18270 18273 18276 18279 18282 18285 18288 18291 18294 18297 18300 18303 18306 18309 18312 18315 18318 18321 18324 18327 18330 18333 18336 18339 18342 18345 18348 18351 18354 18357 18360 18363 18366 18369 18372 18375 18378 18381 18384 18387 18390 18393 18396 18399 18402 18405 18408 18411 18414 18417 18420 18423 18426 18429 18432 18435 18438 18441 18444 18447 18450 18453 18456 18459 18462 18465 18468 18471 18474 18477 18480 18483 18486 18489 18492 18495 18498 18501 18504 18507 18510 18513 18516 18519 18522 18525 18528 18531 18534 18537 18540 18543 18546 18549 18552 18555 18558 18561 18564 18567 18570 18573 18576 18579 18582 18585 18588 18591 18594 18597 18600 18603 18606 18609 18612 18615 18618 18621 18624 18627 18630 18633 18636 18639 18642 18645 18648 18651 18654 18657 18660 18663 18666 18669 18672 18675 18678 18681 18684 18687 18690 18693 18696 18699 18702 18705 18708 18711 18714 18717 18720 18723 18726 18729 18732 18735 18738 18741 18744 18747 18750 18753 18756 18759 18762 18765 18768 18771 18774 18777 18780 18783 18786 18789 18792 18795 18798 18801 18804 18807 18810 18813 18816 18819 18822 18825 18828 18831 18834 18837 18840 18843 18846 18849 18852 18855 18858 18861 18864 18867 18870 18873 18876 18879 18882 18885 18888 18891 18894 18897 18900 18903 18906 18909 18912 18915 18918 18921 18924 18927 18930 18933 18936 18939 18942 18945 18948 18951 18954 18957 18960 18963 18966 18969 18972 18975 18978 18981 18984 18987 18990 18993 18996 18999 19002 19005 19008 19011 19014 19017 19020 19023 19026 19029 19032 19035 19038 19041 19044 19047 19050 19053 19056 19059 19062 19065 19068 19071 19074 19077 19080 19083 19086 19089 19092 19095 19098 19101 19104 19107 19110 19113 19116 19119 19122 19125 19128 19131 19134 19137 19140 19143 19146 19149 19152 19155 19158 19161 19164 19167 19170 19173 19176 19179 19182 19185 19188 19191 19194 19197 19200 19203 19206 19209 19212 19215 19218 19221 19224 19227 19230 19233 19236 19239 19242 19245 19248 19251 19254 19257 19260 19263 19266 19269 19272 19275 19278 19281 19284 19287 19290 19293 19296 19299 19302 19305 19308 19311 19314 19317 19320 19323 19326 19329 19332 19335 19338 19341 19344 19347 19350 19353 19356 19359 19362 19365 19368 19371 19374 19377 19380 19383 19386 19389 19392 19395 19398 19401 19404 19407 19410 19413 19416 19419 19422 19425 19428 19431 19434 19437 19440 19443 19446 19449 19452 19455 19458 19461 19464 19467 19470 19473 19476 19479 19482 19485 19488 19491 19494 19497 19500 19503 19506 19509 19512 19515 19518 19521 19524 19527 19530 19533 19536 19539 19542 19545 19548 19551 19554 19557 19560 19563 19566 19569 19572 19575 19578 19581 19584 19587 19590 19593 19596 19599 19602 19605 19608 19611 19614 19617 19620 19623 19626 19629 19632 19635 19638 19641 19644 19647 19650 19653 19656 19659 19662 19665 19668 19671 19674 19677 19680 19683 19686 19689 19692 19695 19698 19701 19704 19707 19710 19713 19716 19719 19722 19725 19728 19731 19734 19737 19740 19743 19746 19749 19752 19755 19758 19761 19764 19767 19770 19773 19776 19779 19782 19785 19788 19791 19794 19797 19800 19803 19806 19809 19812 19815 19818 19821 19824 19827 19830 19833 19836 19839 19842 19845 19848 19851 19854 19857 19860 19863 19866 19869 19872 19875 19878 19881 19884 19887 19890 19893 19896 19899 19902 19905 19908 19911 19914 19917 19920 19923 19926 19929 19932 19935 19938 19941 19944 19947 19950 19953 19956 19959 19962 19965 19968 19971 19974 19977 19980 19983 19986 19989 19992 19995 19998 20001 20004 20007 20010 20013 20016 20019 20022 20025 20028 20031 20034 20037 20040 20043 20046 20049 20052 20055 20058 20061 20064 20067 20070 20073 20076 20079 20082 20085 20088 20091 20094 20097 20100 20103 20106 20109 20112 20115 20118 20121 20124 20127 20130 20133 20136 20139 20142 20145 20148 20151 20154 20157 20160 20163 20166 20169 20172 20175 20178 20181 20184 20187 20190 20193 20196 20199 20202 20205 20208 20211 20214 20217 20220 20223 20226 20229 20232 20235 20238 20241 20244 20247 20250 20253 20256 20259 20262 20265 20268 20271 20274 20277 20280 20283 20286 20289 20292 20295 20298 20301 20304 20307 20310 20313 20316 20319 20322 20325 20328 20331 20334 20337 20340 20343 20346 20349 20352 20355 20358 20361 20364 20367 20370 20373 20376 20379 20382 20385 20388 20391 20394 20397 20400 20403 20406 20409 20412 20415 20418 20421 20424 20427 20430 20433 20436 20439 20442 20445 20448 20451 20454 20457 20460 20463 20466 20469 20472 20475 20478 20481 20484 20487 20490 20493 20496 20499 20502 20505 20508 20511 20514 20517 20520 20523 20526 20529 20532 20535 20538 20541 20544 20547 20550 20553 20556 20559 20562 20565 20568 20571 20574 20577 20580 20583 20586 20589 20592 20595 20598 20601 20604 20607 20610 20613 20616 20619 20622 20625 20628 20631 20634 20637 20640 20643 20646 20649 20652 20655 20658 20661 20664 20667 20670 20673 20676 20679 20682 20685 20688 20691 20694 20697 20700 20703 20706 20709 20712 20715 20718 20721 20724 20727 20730 20733 20736 20739 20742 20745 20748 20751 20754 20757 20760 20763 20766 20769 20772 20775 20778 20781 20784 20787 20790 20793 20796 20799 20802 20805 20808 20811 20814 20817 20820 20823 20826 20829 20832 20835 20838 20841 20844 20847 20850 20853 20856 20859 20862 20865 20868 20871 20874 20877 20880 20883 20886 20889 20892 20895 20898 20901 20904 20907 20910 20913 20916 20919 20922 20925 20928 20931 20934 20937 20940 20943 20946 20949 20952 20955 20958 20961 20964 20967 20970 20973 20976 20979 20982 20985 20988 20991 20994 20997 21000 21003 21006 21009 21012 21015 21018 21021 21024 21027 21030 21033 21036 21039 21042 21045 21048 21051 21054 21057 21060 21063 21066 21069 21072 21075 21078 21081 21084 21087 21090 21093 21096 21099 21102 21105 21108 21111 21114 21117 21120 21123 21126 21129 21132 21135 21138 21141 21144 21147 21150 21153 21156 21159 21162 21165 21168 21171 21174 21177 21180 21183 21186 21189 21192 21195 21198 21201 21204 21207 21210 21213 21216 21219 21222 21225 21228 21231 21234 21237 21240 21243 21246 21249 21252 21255 21258 21261 21264 21267 21270 21273 21276 21279 21282 21285 21288 21291 21294 21297 21300 21303 21306 21309 21312 21315 21318 21321 21324 21327 21330 21333 21336 21339 21342 21345 21348 21351 21354 21357 21360 21363 21366 21369 21372 21375 21378 21381 21384 21387 21390 21393 21396 21399 21402 21405 21408 21411 21414 21417 21420 21423 21426 21429 21432 21435 21438 21441 21444 21447 21450 21453 21456 21459 21462 21465 21468 21471 21474 21477 21480 21483 21486 21489 21492 21495 21498 21501 21504 21507 21510 21513 21516 21519 21522 21525 21528 21531 21534 21537 21540 21543 21546 21549 21552 21555 21558 21561 21564 21567 21570 21573 21576 21579 21582 21585 21588 21591 21594 21597 21600 21603 21606 21609 21612 21615 21618 21621 21624 21627 21630 21633 21636 21639 21642 21645 21648 21651 21654 21657 21660 21663 21666 21669 21672 21675 21678 21681 21684 21687 21690 21693 21696 21699 21702 21705 21708 21711 21714 21717 21720 21723 21726 21729 21732 21735 21738 21741 21744 21747 21750 21753 21756 21759 21762 21765 21768 21771 21774 21777 21780 21783 21786 21789 21792 21795 21798 21801 21804 21807 21810 21813 21816 21819 21822 21825 21828 21831 21834 21837 21840 21843 21846 21849 21852 21855 21858 21861 21864 21867 21870 21873 21876 21879 21882 21885 21888 21891 21894 21897 21900 21903 21906 21909 21912 21915 21918 21921 21924 21927 21930 21933 21936 21939 21942 21945 21948 21951 21954 21957 21960 21963 21966 21969 21972 21975 21978 21981 21984 21987 21990 21993 21996 21999 22002 22005 22008 22011 22014 22017 22020 22023 22026 22029 22032 22035 22038 22041 22044 22047 22050 22053 22056 22059 22062 22065 22068 22071 22074 22077 22080 22083 22086 22089 22092 22095 22098 22101 22104 22107 22110 22113 22116 22119 22122 22125 22128 22131 22134 22137 22140 22143 22146 22149 22152 22155 22158 22161 22164 22167 22170 22173 22176 22179 22182 22185 22188 22191 22194 22197 22200 22203 22206 22209 22212 22215 22218 22221 22224 22227 22230 22233 22236 22239 22242 22245 22248 22251 22254 22257 22260 22263 22266 22269 22272 22275 22278 22281 22284 22287 22290 22293 22296 22299 22302 22305 22308 22311 22314 22317 22320 22323 22326 22329 22332 22335 22338 22341 22344 22347 22350 22353 22356 22359 22362 22365 22368 22371 22374 22377 22380 22383 22386 22389 22392 22395 22398 22401 22404 22407 22410 22413 22416 22419 22422 22425 22428 22431 22434 22437 22440 22443 22446 22449 22452 22455 22458 22461 22464 22467 22470 22473 22476 22479 22482 22485 22488 22491 22494 22497 22500 22503 22506 22509 22512 22515 22518 22521 22524 22527 22530 22533 22536 22539 22542 22545 22548 22551 22554 22557 22560 22563 22566 22569 22572 22575 22578 22581 22584 22587 22590 22593 22596 22599 22602 22605 22608 22611 22614 22617 22620 22623 22626 22629 22632 22635 22638 22641 22644 22647 22650 22653 22656 22659 22662 22665 22668 22671 22674 22677 22680 22683 22686 22689 22692 22695 22698 22701 22704 22707 22710 22713 22716 22719 22722 22725 22728 22731 22734 22737 22740 22743 22746 22749 22752 22755 22758 22761 22764 22767 22770 22773 22776 22779 22782 22785 22788 22791 22794 22797 22800 22803 22806 22809 22812 22815 22818 22821 22824 22827 22830 22833 22836 22839 22842 22845 22848 22851 22854 22857 22860 22863 22866 22869 22872 22875 22878 22881 22884 22887 22890 22893 22896 22899 22902 22905 22908 22911 22914 22917 22920 22923 22926 22929 22932 22935 22938 22941 22944 22947 22950 22953 22956 22959 22962 22965 22968 22971 22974 22977 22980 22983 22986 22989 22992 22995 22998 23001 23004 23007 23010 23013 23016 23019 23022 23025 23028 23031 23034 23037 23040 23043 23046 23049 23052 23055 23058 23061 23064 23067 23070 23073 23076 23079 23082 23085 23088 23091 23094 23097 23100 23103 23106 23109 23112 23115 23118 23121 23124 23127 23130 23133 23136 23139 23142 23145 23148 23151 23154 23157 23160 23163 23166 23169 23172 23175 23178 23181 23184 23187 23190 23193 23196 23199 23202 23205 23208 23211 23214 23217 23220 23223 23226 23229 23232 23235 23238 23241 23244 23247 23250 23253 23256 23259 23262 23265 23268 23271 23274 23277 23280 23283 23286 23289 23292 23295 23298 23301 23304 23307 23310 23313 23316 23319 23322 23325 23328 23331 23334 23337 23340 23343 23346 23349 23352 23355 23358 23361 23364 23367 23370 23373 23376 23379 23382 23385 23388 23391 23394 23397 23400 23403 23406 23409 23412 23415 23418 23421 23424 23427 23430 23433 23436 23439 23442 23445 23448 23451 23454 23457 23460 23463 23466 23469 23472 23475 23478 23481 23484 23487 23490 23493 23496 23499 23502 23505 23508 23511 23514 23517 23520 23523 23526 23529 23532 23535 23538 23541 23544 23547 23550 23553 23556 23559 23562 23565 23568 23571 23574 23577 23580 23583 23586 23589 23592 23595 23598 23601 23604 23607 23610 23613 23616 23619 23622 23625 23628 23631 23634 23637 23640 23643 23646 23649 23652 23655 23658 23661 23664 23667 23670 23673 23676 23679 23682 23685 23688 23691 23694 23697 23700 23703 23706 23709 23712 23715 23718 23721 23724 23727 23730 23733 23736 23739 23742 23745 23748 23751 23754 23757 23760 23763 23766 23769 23772 23775 23778 23781 23784 23787 23790 23793 23796 23799 23802 23805 23808 23811 23814 23817 23820 23823 23826 23829 23832 23835 23838 23841 23844 23847 23850 23853 23856 23859 23862 23865 23868 23871 23874 23877 23880 23883 23886 23889 23892 23895 23898 23901 23904 23907 23910 23913 23916 23919 23922 23925 23928 23931 23934 23937 23940 23943 23946 23949 23952 23955 23958 23961 23964 23967 23970 23973 23976 23979 23982 23985 23988 23991 23994 23997 24000 24003 24006 24009 24012 24015 24018 24021 24024 24027 24030 24033 24036 24039 24042 24045 24048 24051 24054 24057 24060 24063 24066 24069 24072 24075 24078 24081 24084 24087 24090 24093 24096 24099 24102 24105 24108 24111 24114 24117 24120 24123 24126 24129 24132 24135 24138 24141 24144 24147 24150 24153 24156 24159 24162 24165 24168 24171 24174 24177 24180 24183 24186 24189 24192 24195 24198 24201 24204 24207 24210 24213 24216 24219 24222 24225 24228 24231 24234 24237 24240 24243 24246 24249 24252 24255 24258 24261 24264 24267 24270 24273 24276 24279 24282 24285 24288 24291 24294 24297 24300 24303 24306 24309 24312 24315 24318 24321 24324 24327 24330 24333 24336 24339 24342 24345 24348 24351 24354 24357 24360 24363 24366 24369 24372 24375 24378 24381 24384 24387 24390 24393 24396 24399 24402 24405 24408 24411 24414 24417 24420 24423 24426 24429 24432 24435 24438 24441 24444 24447 24450 24453 24456 24459 24462 24465 24468 24471 24474 24477 24480 24483 24486 24489 24492 24495 24498 24501 24504 24507 24510 24513 24516 24519 24522 24525 24528 24531 24534 24537 24540 24543 24546 24549 24552 24555 24558 24561 24564 24567 24570 24573 24576 24579 24582 24585 24588 24591 24594 24597 24600 24603 24606 24609 24612 24615 24618 24621 24624 24627 24630 24633 24636 24639 24642 24645 24648 24651 24654 24657 24660 24663 24666 24669 24672 24675 24678 24681 24684 24687 24690 24693 24696 24699 24702 24705 24708 24711 24714 24717 24720 24723 24726 24729 24732 24735 24738 24741 24744 24747 24750 24753 24756 24759 24762 24765 24768 24771 24774 24777 24780 24783 24786 24789 24792 24795 24798 24801 24804 24807 24810 24813 24816 24819 24822 24825 24828 24831 24834 24837 24840 24843 24846 24849 24852 24855 24858 24861 24864 24867 24870 24873 24876 24879 24882 24885 24888 24891 24894 24897 24900 24903 24906 24909 24912 24915 24918 24921 24924 24927 24930 24933 24936 24939 24942 24945 24948 24951 24954 24957 24960 24963 24966 24969 24972 24975 24978 24981 24984 24987 24990 24993 24996 24999 25002 25005 25008 25011 25014 25017 25020 25023 25026 25029 25032 25035 25038 25041 25044 25047 25050 25053 25056 25059 25062 25065 25068 25071 25074 25077 25080 25083 25086 25089 25092 25095 25098 25101 25104 25107 25110 25113 25116 25119 25122 25125 25128 25131 25134 25137 25140 25143 25146 25149 25152 25155 25158 25161 25164 25167 25170 25173 25176 25179 25182 25185 25188 25191 25194 25197 25200 25203 25206 25209 25212 25215 25218 25221 25224 25227 25230 25233 25236 25239 25242 25245 25248 25251 25254 25257 25260 25263 25266 25269 25272 25275 25278 25281 25284 25287 25290 25293 25296 25299 25302 25305 25308 25311 25314 25317 25320 25323 25326 25329 25332 25335 25338 25341 25344 25347 25350 25353 25356 25359 25362 25365 25368 25371 25374 25377 25380 25383 25386 25389 25392 25395 25398 25401 25404 25407 25410 25413 25416 25419 25422 25425 25428 25431 25434 25437 25440 25443 25446 25449 25452 25455 25458 25461 25464 25467 25470 25473 25476 25479 25482 25485 25488 25491 25494 25497 25500 25503 25506 25509 25512 25515 25518 25521 25524 25527 25530 25533 25536 25539 25542 25545 25548 25551 25554 25557 25560 25563 25566 25569 25572 25575 25578 25581 25584 25587 25590 25593 25596 25599 25602 25605 25608 25611 25614 25617 25620 25623 25626 25629 25632 25635 25638 25641 25644 25647 25650 25653 25656 25659 25662 25665 25668 25671 25674 25677 25680 25683 25686 25689 25692 25695 25698 25701 25704 25707 25710 25713 25716 25719 25722 25725 25728 25731 25734 25737 25740 25743 25746 25749 25752 25755 25758 25761 25764 25767 25770 25773 25776 25779 25782 25785 25788 25791 25794 25797 25800 25803 25806 25809 25812 25815 25818 25821 25824 25827 25830 25833 25836 25839 25842 25845 25848 25851 25854 25857 25860 25863 25866 25869 25872 25875 25878 25881 25884 25887 25890 25893 25896 25899 25902 25905 25908 25911 25914 25917 25920 25923 25926 25929 25932 25935 25938 25941 25944 25947 25950 25953 25956 25959 25962 25965 25968 25971 25974 25977 25980 25983 25986 25989 25992 25995 25998 26001 26004 26007 26010 26013 26016 26019 26022 26025 26028 26031 26034 26037 26040 26043 26046 26049 26052 26055 26058 26061 26064 26067 26070 26073 26076 26079 26082 26085 26088 26091 26094 26097 26100 26103 26106 26109 26112 26115 26118 26121 26124 26127 26130 26133 26136 26139 26142 26145 26148 26151 26154 26157 26160 26163 26166 26169 26172 26175 26178 26181 26184 26187 26190 26193 26196 26199 26202 26205 26208 26211 26214 26217 26220 26223 26226 26229 26232 26235 26238 26241 26244 26247 26250 26253 26256 26259 26262 26265 26268 26271 26274 26277 26280 26283 26286 26289 26292 26295 26298 26301 26304 26307 26310 26313 26316 26319 26322 26325 26328 26331 26334 26337 26340 26343 26346 26349 26352 26355 26358 26361 26364 26367 26370 26373 26376 26379 26382 26385 26388 26391 26394 26397 26400 26403 26406 26409 26412 26415 26418 26421 26424 26427 26430 26433 26436 26439 26442 26445 26448 26451 26454 26457 26460 26463 26466 26469 26472 26475 26478 26481 26484 26487 26490 26493 26496 26499 26502 26505 26508 26511 26514 26517 26520 26523 26526 26529 26532 26535 26538 26541 26544 26547 26550 26553 26556 26559 26562 26565 26568 26571 26574 26577 26580 26583 26586 26589 26592 26595 26598 26601 26604 26607 26610 26613 26616 26619 26622 26625 26628 26631 26634 26637 26640 26643 26646 26649 26652 26655 26658 26661 26664 26667 26670 26673 26676 26679 26682 26685 26688 26691 26694 26697 26700 26703 26706 26709 26712 26715 26718 26721 26724 26727 26730 26733 26736 26739 26742 26745 26748 26751 26754 26757 26760 26763 26766 26769 26772 26775 26778 26781 26784 26787 26790 26793 26796 26799 26802 26805 26808 26811 26814 26817 26820 26823 26826 26829 26832 26835 26838 26841 26844 26847 26850 26853 26856 26859 26862 26865 26868 26871 26874 26877 26880 26883 26886 26889 26892 26895 26898 26901 26904 26907 26910 26913 26916 26919 26922 26925 26928 26931 26934 26937 26940 26943 26946 26949 26952 26955 26958 26961 26964 26967 26970 26973 26976 26979 26982 26985 26988 26991 26994 26997 27000 27003 27006 27009 27012 27015 27018 27021 27024 27027 27030 27033 27036 27039 27042 27045 27048 27051 27054 27057 27060 27063 27066 27069 27072 27075 27078 27081 27084 27087 27090 27093 27096 27099 27102 27105 27108 27111 27114 27117 27120 27123 27126 27129 27132 27135 27138 27141 27144 27147 27150 27153 27156 27159 27162 27165 27168 27171 27174 27177 27180 27183 27186 27189 27192 27195 27198 27201 27204 27207 27210 27213 27216 27219 27222 27225 27228 27231 27234 27237 27240 27243 27246 27249 27252 27255 27258 27261 27264 27267 27270 27273 27276 27279 27282 27285 27288 27291 27294 27297 27300 27303 27306 27309 27312 27315 27318 27321 27324 27327 27330 27333 27336 27339 27342 27345 27348 27351 27354 27357 27360 27363 27366 27369 27372 27375 27378 27381 27384 27387 27390 27393 27396 27399 27402 27405 27408 27411 27414 27417 27420 27423 27426 27429 27432 27435 27438 27441 27444 27447 27450 27453 27456 27459 27462 27465 27468 27471 27474 27477 27480 27483 27486 27489 27492 27495 27498 27501 27504 27507 27510 27513 27516 27519 27522 27525 27528 27531 27534 27537 27540 27543 27546 27549 27552 27555 27558 27561 27564 27567 27570 27573 27576 27579 27582 27585 27588 27591 27594 27597 27600 27603 27606 27609 27612 27615 27618 27621 27624 27627 27630 27633 27636 27639 27642 27645 27648 27651 27654 27657 27660 27663 27666 27669 27672 27675 27678 27681 27684 27687 27690 27693 27696 27699 27702 27705 27708 27711 27714 27717 27720 27723 27726 27729 27732 27735 27738 27741 27744 27747 27750 27753 27756 27759 27762 27765 27768 27771 27774 27777 27780 27783 27786 27789 27792 27795 27798 27801 27804 27807 27810 27813 27816 27819 27822 27825 27828 27831 27834 27837 27840 27843 27846 27849 27852 27855 27858 27861 27864 27867 27870 27873 27876 27879 27882 27885 27888 27891 27894 27897 27900 27903 27906 27909 27912 27915 27918 27921 27924 27927 27930 27933 27936 27939 27942 27945 27948 27951 27954 27957 27960 27963 27966 27969 27972 27975 27978 27981 27984 27987 27990 27993 27996 27999 28002 28005 28008 28011 28014 28017 28020 28023 28026 28029 28032 28035 28038 28041 28044 28047 28050 28053 28056 28059 28062 28065 28068 28071 28074 28077 28080 28083 28086 28089 28092 28095 28098 28101 28104 28107 28110 28113 28116 28119 28122 28125 28128 28131 28134 28137 28140 28143 28146 28149 28152 28155 28158 28161 28164 28167 28170 28173 28176 28179 28182 28185 28188 28191 28194 28197 28200 28203 28206 28209 28212 28215 28218 28221 28224 28227 28230 28233 28236 28239 28242 28245 28248 28251 28254 28257 28260 28263 28266 28269 28272 28275 28278 28281 28284 28287 28290 28293 28296 28299 28302 28305 28308 28311 28314 28317 28320 28323 28326 28329 28332 28335 28338 28341 28344 28347 28350 28353 28356 28359 28362 28365 28368 28371 28374 28377 28380 28383 28386 28389 28392 28395 28398 28401 28404 28407 28410 28413 28416 28419 28422 28425 28428 28431 28434 28437 28440 28443 28446 28449 28452 28455 28458 28461 28464 28467 28470 28473 28476 28479 28482 28485 28488 28491 28494 28497 28500 28503 28506 28509 28512 28515 28518 28521 28524 28527 28530 28533 28536 28539 28542 28545 28548 28551 28554 28557 28560 28563 28566 28569 28572 28575 28578 28581 28584 28587 28590 28593 28596 28599 28602 28605 28608 28611 28614 28617 28620 28623 28626 28629 28632 28635 28638 28641 28644 28647 28650 28653 28656 28659 28662 28665 28668 28671 28674 28677 28680 28683 28686 28689 28692 28695 28698 28701 28704 28707 28710 28713 28716 28719 28722 28725 28728 28731 28734 28737 28740 28743 28746 28749 28752 28755 28758 28761 28764 28767 28770 28773 28776 28779 28782 28785 28788 28791 28794 28797 28800 28803 28806 28809 28812 28815 28818 28821 28824 28827 28830 28833 28836 28839 28842 28845 28848 28851 28854 28857 28860 28863 28866 28869 28872 28875 28878 28881 28884 28887 28890 28893 28896 28899 28902 28905 28908 28911 28914 28917 28920 28923 28926 28929 28932 28935 28938 28941 28944 28947 28950 28953 28956 28959 28962 28965 28968 28971 28974 28977 28980 28983 28986 28989 28992 28995 28998 29001 29004 29007 29010 29013 29016 29019 29022 29025 29028 29031 29034 29037 29040 29043 29046 29049 29052 29055 29058 29061 29064 29067 29070 29073 29076 29079 29082 29085 29088 29091 29094 29097 29100 29103 29106 29109 29112 29115 29118 29121 29124 29127 29130 29133 29136 29139 29142 29145 29148 29151 29154 29157 29160 29163 29166 29169 29172 29175 29178 29181 29184 29187 29190 29193 29196 29199 29202 29205 29208 29211 29214 29217 29220 29223 29226 29229 29232 29235 29238 29241 29244 29247 29250 29253 29256 29259 29262 29265 29268 29271 29274 29277 29280 29283 29286 29289 29292 29295 29298 29301 29304 29307 29310 29313 29316 29319 29322 29325 29328 29331 29334 29337 29340 29343 29346 29349 29352 29355 29358 29361 29364 29367 29370 29373 29376 29379 29382 29385 29388 29391 29394 29397 29400 29403 29406 29409 29412 29415 29418 29421 29424 29427 29430 29433 29436 29439 29442 29445 29448 29451 29454 29457 29460 29463 29466 29469 29472 29475 29478 29481 29484 29487 29490 29493 29496 29499 29502 29505 29508 29511 29514 29517 29520 29523 29526 29529 29532 29535 29538 29541 29544 29547 29550 29553 29556 29559 29562 29565 29568 29571 29574 29577 29580 29583 29586 29589 29592 29595 29598 29601 29604 29607 29610 29613 29616 29619 29622 29625 29628 29631 29634 29637 29640 29643 29646 29649 29652 29655 29658 29661 29664 29667 29670 29673 29676 29679 29682 29685 29688 29691 29694 29697 29700 29703 29706 29709 29712 29715 29718 29721 29724 29727 29730 29733 29736 29739 29742 29745 29748 29751 29754 29757 29760 29763 29766 29769 29772 29775 29778 29781 29784 29787 29790 29793 29796 29799 29802 29805 29808 29811 29814 29817 29820 29823 29826 29829 29832 29835 29838 29841 29844 29847 29850 29853 29856 29859 29862 29865 29868 29871 29874 29877 29880 29883 29886 29889 29892 29895 29898 29901 29904 29907 29910 29913 29916 29919 29922 29925 29928 29931 29934 29937 29940 29943 29946 29949 29952 29955 29958 29961 29964 29967 29970 29973 29976 29979 29982 29985 29988 29991 29994 29997 30000 30003 30006 30009 30012 30015 30018 30021 30024 30027 30030 30033 30036 30039 30042 30045 30048 30051 30054 30057 30060 30063 30066 30069 30072 30075 30078 30081 30084 30087 30090 30093 30096 30099 30102 30105 30108 30111 30114 30117 30120 30123 30126 30129 30132 30135 30138 30141 30144 30147 30150 30153 30156 30159 30162 30165 30168 30171 30174 30177 30180 30183 30186 30189 30192 30195 30198 30201 30204 30207 30210 30213 30216 30219 30222 30225 30228 30231 30234 30237 30240 30243 30246 30249 30252 30255 30258 30261 30264 30267 30270 30273 30276 30279 30282 30285 30288 30291 30294 30297 30300 30303 30306 30309 30312 30315 30318 30321 30324 30327 30330 30333 30336 30339 30342 30345 30348 30351 30354 30357 30360 30363 30366 30369 30372 30375 30378 30381 30384 30387 30390 30393 30396 30399 30402 30405 30408 30411 30414 30417 30420 30423 30426 30429 30432 30435 30438 30441 30444 30447 30450 30453 30456 30459 30462 30465 30468 30471 30474 30477 30480 30483 30486 30489 30492 30495 30498 30501 30504 30507 30510 30513 30516 30519 30522 30525 30528 30531 30534 30537 30540 30543 30546 30549 30552 30555 30558 30561 30564 30567 30570 30573 30576 30579 30582 30585 30588 30591 30594 30597 30600 30603 30606 30609 30612 30615 30618 30621 30624 30627 30630 30633 30636 30639 30642 30645 30648 30651 30654 30657 30660 30663 30666 30669 30672 30675 30678 30681 30684 30687 30690 30693 30696 30699 30702 30705 30708 30711 30714 30717 30720 30723 30726 30729 30732 30735 30738 30741 30744 30747 30750 30753 30756 30759 30762 30765 30768 30771 30774 30777 30780 30783 30786 30789 30792 30795 30798 30801 30804 30807 30810 30813 30816 30819 30822 30825 30828 30831 30834 30837 30840 30843 30846 30849 30852 30855 30858 30861 30864 30867 30870 30873 30876 30879 30882 30885 30888 30891 30894 30897 30900 30903 30906 30909 30912 30915 30918 30921 30924 30927 30930 30933 30936 30939 30942 30945 30948 30951 30954 30957 30960 30963 30966 30969 30972 30975 30978 30981 30984 30987 30990 30993 30996 30999 31002 31005 31008 31011 31014 31017 31020 31023 31026 31029 31032 31035 31038 31041 31044 31047 31050 31053 31056 31059 31062 31065 31068 31071 31074 31077 31080 31083 31086 31089 31092 31095 31098 31101 31104 31107 31110 31113 31116 31119 31122 31125 31128 31131 31134 31137 31140 31143 31146 31149 31152 31155 31158 31161 31164 31167 31170 31173 31176 31179 31182 31185 31188 31191 31194 31197 31200 31203 31206 31209 31212 31215 31218 31221 31224 31227 31230 31233 31236 31239 31242 31245 31248 31251 31254 31257 31260 31263 31266 31269 31272 31275 31278 31281 31284 31287 31290 31293 31296 31299 31302 31305 31308 31311 31314 31317 31320 31323 31326 31329 31332 31335 31338 31341 31344 31347 31350 31353 31356 31359 31362 31365 31368 31371 31374 31377 31380 31383 31386 31389 31392 31395 31398 31401 31404 31407 31410 31413 31416 31419 31422 31425 31428 31431 31434 31437 31440 31443 31446 31449 31452 31455 31458 31461 31464 31467 31470 31473 31476 31479 31482 31485 31488 31491 31494 31497 31500 31503 31506 31509 31512 31515 31518 31521 31524 31527 31530 31533 31536 31539 31542 31545 31548 31551 31554 31557 31560 31563 31566 31569 31572 31575 31578 31581 31584 31587 31590 31593 31596 31599 31602 31605 31608 31611 31614 31617 31620 31623 31626 31629 31632 31635 31638 31641 31644 31647 31650 31653 31656 31659 31662 31665 31668 31671 31674 31677 31680 31683 31686 31689 31692 31695 31698 31701 31704 31707 31710 31713 31716 31719 31722 31725 31728 31731 31734 31737 31740 31743 31746 31749 31752 31755 31758 31761 31764 31767 31770 31773 31776 31779 31782 31785 31788 31791 31794 31797 31800 31803 31806 31809 31812 31815 31818 31821 31824 31827 31830 31833 31836 31839 31842 31845 31848 31851 31854 31857 31860 31863 31866 31869 31872 31875 31878 31881 31884 31887 31890 31893 31896 31899 31902 31905 31908 31911 31914 31917 31920 31923 31926 31929 31932 31935 31938 31941 31944 31947 31950 31953 31956 31959 31962 31965 31968 31971 31974 31977 31980 31983 31986 31989 31992 31995 31998 32001 32004 32007 32010 32013 32016 32019 32022 32025 32028 32031 32034 32037 32040 32043 32046 32049 32052 32055 32058 32061 32064 32067 32070 32073 32076 32079 32082 32085 32088 32091 32094 32097 32100 32103 32106 32109 32112 32115 32118 32121 32124 32127 32130 32133 32136 32139 32142 32145 32148 32151 32154 32157 32160 32163 32166 32169 32172 32175 32178 32181 32184 32187 32190 32193 32196 32199 32202 32205 32208 32211 32214 32217 32220 32223 32226 32229 32232 32235 32238 32241 32244 32247 32250 32253 32256 32259 32262 32265 32268 32271 32274 32277 32280 32283 32286 32289 32292 32295 32298 32301 32304 32307 32310 32313 32316 32319 32322 32325 32328 32331 32334 32337 32340 32343 32346 32349 32352 32355 32358 32361 32364 32367 32370 32373 32376 32379 32382 32385 32388 32391 32394 32397 32400 32403 32406 32409 32412 32415 32418 32421 32424 32427 32430 32433 32436 32439 32442 32445 32448 32451 32454 32457 32460 32463 32466 32469 32472 32475 32478 32481 32484 32487 32490 32493 32496 32499 32502 32505 32508 32511 32514 32517 32520 32523 32526 32529 32532 32535 32538 32541 32544 32547 32550 32553 32556 32559 32562 32565 32568 32571 32574 32577 32580 32583 32586 32589 32592 32595 32598 32601 32604 32607 32610 32613 32616 32619 32622 32625 32628 32631 32634 32637 32640 32643 32646 32649 32652 32655 32658 32661 32664 32667 32670 32673 32676 32679 32682 32685 32688 32691 32694 32697 32700 32703 32706 32709 32712 32715 32718 32721 32724 32727 32730 32733 32736 32739 32742 32745 32748 32751 32754 32757 32760 32763 32766 32769 32772 32775 32778 32781 32784 32787 32790 32793 32796 32799 32802 32805 32808 32811 32814 32817 32820 32823 32826 32829 32832 32835 32838 32841 32844 32847 32850 32853 32856 32859 32862 32865 32868 32871 32874 32877 32880 32883 32886 32889 32892 32895 32898 32901 32904 32907 32910 32913 32916 32919 32922 32925 32928 32931 32934 32937 32940 32943 32946 32949 32952 32955 32958 32961 32964 32967 32970 32973 32976 32979 32982 32985 32988 32991 32994 32997 33000 33003 33006 33009 33012 33015 33018 33021 33024 33027 33030 33033 33036 33039 33042 33045 33048 33051 33054 33057 33060 33063 33066 33069 33072 33075 33078 33081 33084 33087 33090 33093 33096 33099 33102 33105 33108 33111 33114 33117 33120 33123 33126 33129 33132 33135 33138 33141 33144 33147 33150 33153 33156 33159 33162 33165 33168 33171 33174 33177 33180 33183 33186 33189 33192 33195 33198 33201 33204 33207 33210 33213 33216 33219 33222 33225 33228 33231 33234 33237 33240 33243 33246 33249 33252 33255 33258 33261 33264 33267 33270 33273 33276 33279 33282 33285 33288 33291 33294 33297 33300 33303 33306 33309 33312 33315 33318 33321 33324 33327 33330 33333 33336 33339 33342 33345 33348 33351 33354 33357 33360 33363 33366 33369 33372 33375 33378 33381 33384 33387 33390 33393 33396 33399 33402 33405 33408 33411 33414 33417 33420 33423 33426 33429 33432 33435 33438 33441 33444 33447 33450 33453 33456 33459 33462 33465 33468 33471 33474 33477 33480 33483 33486 33489 33492 33495 33498 33501 33504 33507 33510 33513 33516 33519 33522 33525 33528 33531 33534 33537 33540 33543 33546 33549 33552 33555 33558 33561 33564 33567 33570 33573 33576 33579 33582 33585 33588 33591 33594 33597 33600 33603 33606 33609 33612 33615 33618 33621 33624 33627 33630 33633 33636 33639 33642 33645 33648 33651 33654 33657 33660 33663 33666 33669 33672 33675 33678 33681 33684 33687 33690 33693 33696 33699 33702 33705 33708 33711 33714 33717 33720 33723 33726 33729 33732 33735 33738 33741 33744 33747 33750 33753 33756 33759 33762 33765 33768 33771 33774 33777 33780 33783 33786 33789 33792 33795 33798 33801 33804 33807 33810 33813 33816 33819 33822 33825 33828 33831 33834 33837 33840 33843 33846 33849 33852 33855 33858 33861 33864 33867 33870 33873 33876 33879 33882 33885 33888 33891 33894 33897 33900 33903 33906 33909 33912 33915 33918 33921 33924 33927 33930 33933 33936 33939 33942 33945 33948 33951 33954 33957 33960 33963 33966 33969 33972 33975 33978 33981 33984 33987 33990 33993 33996 33999 34002 34005 34008 34011 34014 34017 34020 34023 34026 34029 34032 34035 34038 34041 34044 34047 34050 34053 34056 34059 34062 34065 34068 34071 34074 34077 34080 34083 34086 34089 34092 34095 34098 34101 34104 34107 34110 34113 34116 34119 34122 34125 34128 34131 34134 34137 34140 34143 34146 34149 34152 34155 34158 34161 34164 34167 34170 34173 34176 34179 34182 34185 34188 34191 34194 34197 34200 34203 34206 34209 34212 34215 34218 34221 34224 34227 34230 34233 34236 34239 34242 34245 34248 34251 34254 34257 34260 34263 34266 34269 34272 34275 34278 34281 34284 34287 34290 34293 34296 34299 34302 34305 34308 34311 34314 34317 34320 34323 34326 34329 34332 34335 34338 34341 34344 34347 34350 34353 34356 34359 34362 34365 34368 34371 34374 34377 34380 34383 34386 34389 34392 34395 34398 34401 34404 34407 34410 34413 34416 34419 34422 34425 34428 34431 34434 34437 34440 34443 34446 34449 34452 34455 34458 34461 34464 34467 34470 34473 34476 34479 34482 34485 34488 34491 34494 34497 34500 34503 34506 34509 34512 34515 34518 34521 34524 34527 34530 34533 34536 34539 34542 34545 34548 34551 34554 34557 34560 34563 34566 34569 34572 34575 34578 34581 34584 34587 34590 34593 34596 34599 34602 34605 34608 34611 34614 34617 34620 34623 34626 34629 34632 34635 34638 34641 34644 34647 34650 34653 34656 34659 34662 34665 34668 34671 34674 34677 34680 34683 34686 34689 34692 34695 34698 34701 34704 34707 34710 34713 34716 34719 34722 34725 34728 34731 34734 34737 34740 34743 34746 34749 34752 34755 34758 34761 34764 34767 34770 34773 34776 34779 34782 34785 34788 34791 34794 34797 34800 34803 34806 34809 34812 34815 34818 34821 34824 34827 34830 34833 34836 34839 34842 34845 34848 34851 34854 34857 34860 34863 34866 34869 34872 34875 34878 34881 34884 34887 34890 34893 34896 34899 34902 34905 34908 34911 34914 34917 34920 34923 34926 34929 34932 34935 34938 34941 34944 34947 34950 34953 34956 34959 34962 34965 34968 34971 34974 34977 34980 34983 34986 34989 34992 34995 34998 35001 35004 35007 35010 35013 35016 35019 35022 35025 35028 35031 35034 35037 35040 35043 35046 35049 35052 35055 35058 35061 35064 35067 35070 35073 35076 35079 35082 35085 35088 35091 35094 35097 35100 35103 35106 35109 35112 35115 35118 35121 35124 35127 35130 35133 35136 35139 35142 35145 35148 35151 35154 35157 35160 35163 35166 35169 35172 35175 35178 35181 35184 35187 35190 35193 35196 35199 35202 35205 35208 35211 35214 35217 35220 35223 35226 35229 35232 35235 35238 35241 35244 35247 35250 35253 35256 35259 35262 35265 35268 35271 35274 35277 35280 35283 35286 35289 35292 35295 35298 35301 35304 35307 35310 35313 35316 35319 35322 35325 35328 35331 35334 35337 35340 35343 35346 35349 35352 35355 35358 35361 35364 35367 35370 35373 35376 35379 35382 35385 35388 35391 35394 35397 35400 35403 35406 35409 35412 35415 35418 35421 35424 35427 35430 35433 35436 35439 35442 35445 35448 35451 35454 35457 35460 35463 35466 35469 35472 35475 35478 35481 35484 35487 35490 35493 35496 35499 35502 35505 35508 35511 35514 35517 35520 35523 35526 35529 35532 35535 35538 35541 35544 35547 35550 35553 35556 35559 35562 35565 35568 35571 35574 35577 35580 35583 35586 35589 35592 35595 35598 35601 35604 35607 35610 35613 35616 35619 35622 35625 35628 35631 35634 35637 35640 35643 35646 35649 35652 35655 35658 35661 35664 35667 35670 35673 35676 35679 35682 35685 35688 35691 35694 35697 35700 35703 35706 35709 35712 35715 35718 35721 35724 35727 35730 35733 35736 35739 35742 35745 35748 35751 35754 35757 35760 35763 35766 35769 35772 35775 35778 35781 35784 35787 35790 35793 35796 35799 35802 35805 35808 35811 35814 35817 35820 35823 35826 35829 35832 35835 35838 35841 35844 35847 35850 35853 35856 35859 35862 35865 35868 35871 35874 35877 35880 35883 35886 35889 35892 35895 35898 35901 35904 35907 35910 35913 35916 35919 35922 35925 35928 35931 35934 35937 35940 35943 35946 35949 35952 35955 35958 35961 35964 35967 35970 35973 35976 35979 35982 35985 35988 35991 35994 35997 36000 36003 36006 36009 36012 36015 36018 36021 36024 36027 36030 36033 36036 36039 36042 36045 36048 36051 36054 36057 36060 36063 36066 36069 36072 36075 36078 36081 36084 36087 36090 36093 36096 36099 36102 36105 36108 36111 36114 36117 36120 36123 36126 36129 36132 36135 36138 36141 36144 36147 36150 36153 36156 36159 36162 36165 36168 36171 36174 36177 36180 36183 36186 36189 36192 36195 36198 36201 36204 36207 36210 36213 36216 36219 36222 36225 36228 36231 36234 36237 36240 36243 36246 36249 36252 36255 36258 36261 36264 36267 36270 36273 36276 36279 36282 36285 36288 36291 36294 36297 36300 36303 36306 36309 36312 36315 36318 36321 36324 36327 36330 36333 36336 36339 36342 36345 36348 36351 36354 36357 36360 36363 36366 36369 36372 36375 36378 36381 36384 36387 36390 36393 36396 36399 36402 36405 36408 36411 36414 36417 36420 36423 36426 36429 36432 36435 36438 36441 36444 36447 36450 36453 36456 36459 36462 36465 36468 36471 36474 36477 36480 36483 36486 36489 36492 36495 36498 36501 36504 36507 36510 36513 36516 36519 36522 36525 36528 36531 36534 36537 36540 36543 36546 36549 36552 36555 36558 36561 36564 36567 36570 36573 36576 36579 36582 36585 36588 36591 36594 36597 36600 36603 36606 36609 36612 36615 36618 36621 36624 36627 36630 36633 36636 36639 36642 36645 36648 36651 36654 36657 36660 36663 36666 36669 36672 36675 36678 36681 36684 36687 36690 36693 36696 36699 36702 36705 36708 36711 36714 36717 36720 36723 36726 36729 36732 36735 36738 36741 36744 36747 36750 36753 36756 36759 36762 36765 36768 36771 36774 36777 36780 36783 36786 36789 36792 36795 36798 36801 36804 36807 36810 36813 36816 36819 36822 36825 36828 36831 36834 36837 36840 36843 36846 36849 36852 36855 36858 36861 36864 36867 36870 36873 36876 36879 36882 36885 36888 36891 36894 36897 36900 36903 36906 36909 36912 36915 36918 36921 36924 36927 36930 36933 36936 36939 36942 36945 36948 36951 36954 36957 36960 36963 36966 36969 36972 36975 36978 36981 36984 36987 36990 36993 36996 36999 37002 37005 37008 37011 37014 37017 37020 37023 37026 37029 37032 37035 37038 37041 37044 37047 37050 37053 37056 37059 37062 </DataArray>
<DataArray  type="UInt8"  Name="types"  format="ascii">5 5 5 5 5 5 5 5 5 5 5 5 5 5 5 5 5 5 5 5 5 5 5 5 5 5 5 5 5 5 5 5 5 5 5 5 5 5 5 5 5 5 5 5 5 5 5 5 5 5 5 5 5 5 5 5 5 5 5 5 5 5 5 5 5 5 5 5 5 5 5 5 5 5 5 5 5 5 5 5 5 5 5 5 5 5 5 5 5 5 5 5 5 5 5 5 5 5 5 5 5 5 5 5 5 5 5 5 5 5 5 5 5 5 5 5 5 5 5 5 5 5 5 5 5 5 5 5 5 5 5 5 5 5 5 5 5 5 5 5 5 5 5 5 5 5 5 5 5 5 5 5 5 5 5 5 5 5 5 5 5 5 5 5 5 5 5 5 5 5 5 5 5 5 5 5 5 5 5 5 5 5 5 5 5 5 5 5 5 5 5 5 5 5 5 5 5 5 5 5 5 5 5 5 5 5 5 5 5 5 5 5 5 5 5 5 5 5 5 5 5 5 5 5 5 5 5 5 5 5 5 5 5 5 5 5 5 5 5 5 5 5 5 5 5 5 5 5 5 5 5 5 5 5 5 5 5 5 5 5 5 5 5 5 5 5 5 5 5 5 5 5 5 5 5 5 5 5 5 5 5 5 5 5 5 5 5 5 5 5 5 5 5 5 5 5 5 5 5 5 5 5 5 5 5 5 5 5 5 5 5 5 5 5 5 5 5 5 5 5 5 5 5 5 5 5 5 5 5 5 5 5 5 5 5 5 5 5 5 5 5 5 5 5 5 5 5 5 5 5 5 5 5 5 5 5 5 5 5 5 5 5 5 5 5 5 5 5 5 5 5 5 5 5 5 5 5 5 5 5 5 5 5 5 5 5 5 5 5 5 5 5 5 5 5 5 5 5 5 5 5 5 5 5 5 5 5 5 5 5 5 5 5 5 5 5 5 5 5 5 5 5 5 5 5 5 5 5 5 5 5 5 5 5 5 5 5 5 5 5 5 5 5 5 5 5 5 5 5 5 5 5 5 5 5 5 5 5 5 5 5 5 5 5 5 5 5 5 5 5 5 5 5 5 5 5 5 5 5 5 5 5 5 5 5 5 5 5 5 5 5 5 5 5 5 5 5 5 5 5 5 5 5 5 5 5 5 5 5 5 5 5 5 5 5 5 5 5 5 5 5 5 5 5 5 5 5 5 5 5 5 5 5 5 5 5 5 5 5 5 5 5 5 5 5 5 5 5 5 5 5 5 5 5 5 5 5 5 5 5 5 5 5 5 5 5 5 5 5 5 5 5 5 5 5 5 5 5 5 5 5 5 5 5 5 5 5 5 5 5 5 5 5 5 5 5 5 5 5 5 5 5 5 5 5 5 5 5 5 5 5 5 5 5 5 5 5 5 5 5 5 5 5 5 5 5 5 5 5 5 5 5 5 5 5 5 5 5 5 5 5 5 5 5 5 5 5 5 5 5 5 5 5 5 5 5 5 5 5 5 5 5 5 5 5 5 5 5 5 5 5 5 5 5 5 5 5 5 5 5 5 5 5 5 5 5 5 5 5 5 5 5 5 5 5 5 5 5 5 5 5 5 5 5 5 5 5 5 5 5 5 5 5 5 5 5 5 5 5 5 5 5 5 5 5 5 5 5 5 5 5 5 5 5 5 5 5 5 5 5 5 5 5 5 5 5 5 5 5 5 5 5 5 5 5 5 5 5 5 5 5 5 5 5 5 5 5 5 5 5 5 5 5 5 5 5 5 5 5 5 5 5 5 5 5 5 5 5 5 5 5 5 5 5 5 5 5 5 5 5 5 5 5 5 5 5 5 5 5 5 5 5 5 5 5 5 5 5 5 5 5 5 5 5 5 5 5 5 5 5 5 5 5 5 5 5 5 5 5 5 5 5 5 5 5 5 5 5 5 5 5 5 5 5 5 5 5 5 5 5 5 5 5 5 5 5 5 5 5 5 5 5 5 5 5 5 5 5 5 5 5 5 5 5 5 5 5 5 5 5 5 5 5 5 5 5 5 5 5 5 5 5 5 5 5 5 5 5 5 5 5 5 5 5 5 5 5 5 5 5 5 5 5 5 5 5 5 5 5 5 5 5 5 5 5 5 5 5 5 5 5 5 5 5 5 5 5 5 5 5 5 5 5 5 5 5 5 5 5 5 5 5 5 5 5 5 5 5 5 5 5 5 5 5 5 5 5 5 5 5 5 5 5 5 5 5 5 5 5 5 5 5 5 5 5 5 5 5 5 5 5 5 5 5 5 5 5 5 5 5 5 5 5 5 5 5 5 5 5 5 5 5 5 5 5 5 5 5 5 5 5 5 5 5 5 5 5 5 5 5 5 5 5 5 5 5 5 5 5 5 5 5 5 5 5 5 5 5 5 5 5 5 5 5 5 5 5 5 5 5 5 5 5 5 5 5 5 5 5 5 5 5 5 5 5 5 5 5 5 5 5 5 5 5 5 5 5 5 5 5 5 5 5 5 5 5 5 5 5 5 5 5 5 5 5 5 5 5 5 5 5 5 5 5 5 5 5 5 5 5 5 5 5 5 5 5 5 5 5 5 5 5 5 5 5 5 5 5 5 5 5 5 5 5 5 5 5 5 5 5 5 5 5 5 5 5 5 5 5 5 5 5 5 5 5 5 5 5 5 5 5 5 5 5 5 5 5 5 5 5 5 5 5 5 5 5 5 5 5 5 5 5 5 5 5 5 5 5 5 5 5 5 5 5 5 5 5 5 5 5 5 5 5 5 5 5 5 5 5 5 5 5 5 5 5 5 5 5 5 5 5 5 5 5 5 5 5 5 5 5 5 5 5 5 5 5 5 5 5 5 5 5 5 5 5 5 5 5 5 5 5 5 5 5 5 5 5 5 5 5 5 5 5 5 5 5 5 5 5 5 5 5 5 5 5 5 5 5 5 5 5 5 5 5 5 5 5 5 5 5 5 5 5 5 5 5 5 5 5 5 5 5 5 5 5 5 5 5 5 5 5 5 5 5 5 5 5 5 5 5 5 5 5 5 5 5 5 5 5 5 5 5 5 5 5 5 5 5 5 5 5 5 5 5 5 5 5 5 5 5 5 5 5 5 5 5 5 5 5 5 5 5 5 5 5 5 5 5 5 5 5 5 5 5 5 5 5 5 5 5 5 5 5 5 5 5 5 5 5 5 5 5 5 5 5 5 5 5 5 5 5 5 5 5 5 5 5 5 5 5 5 5 5 5 5 5 5 5 5 5 5 5 5 5 5 5 5 5 5 5 5 5 5 5 5 5 5 5 5 5 5 5 5 5 5 5 5 5 5 5 5 5 5 5 5 5 5 5 5 5 5 5 5 5 5 5 5 5 5 5 5 5 5 5 5 5 5 5 5 5 5 5 5 5 5 5 5 5 5 5 5 5 5 5 5 5 5 5 5 5 5 5 5 5 5 5 5 5 5 5 5 5 5 5 5 5 5 5 5 5 5 5 5 5 5 5 5 5 5 5 5 5 5 5 5 5 5 5 5 5 5 5 5 5 5 5 5 5 5 5 5 5 5 5 5 5 5 5 5 5 5 5 5 5 5 5 5 5 5 5 5 5 5 5 5 5 5 5 5 5 5 5 5 5 5 5 5 5 5 5 5 5 5 5 5 5 5 5 5 5 5 5 5 5 5 5 5 5 5 5 5 5 5 5 5 5 5 5 5 5 5 5 5 5 5 5 5 5 5 5 5 5 5 5 5 5 5 5 5 5 5 5 5 5 5 5 5 5 5 5 5 5 5 5 5 5 5 5 5 5 5 5 5 5 5 5 5 5 5 5 5 5 5 5 5 5 5 5 5 5 5 5 5 5 5 5 5 5 5 5 5 5 5 5 5 5 5 5 5 5 5 5 5 5 5 5 5 5 5 5 5 5 5 5 5 5 5 5 5 5 5 5 5 5 5 5 5 5 5 5 5 5 5 5 5 5 5 5 5 5 5 5 5 5 5 5 5 5 5 5 5 5 5 5 5 5 5 5 5 5 5 5 5 5 5 5 5 5 5 5 5 5 5 5 5 5 5 5 5 5 5 5 5 5 5 5 5 5 5 5 5 5 5 5 5 5 5 5 5 5 5 5 5 5 5 5 5 5 5 5 5 5 5 5 5 5 5 5 5 5 5 5 5 5 5 5 5 5 5 5 5 5 5 5 5 5 5 5 5 5 5 5 5 5 5 5 5 5 5 5 5 5 5 5 5 5 5 5 5 5 5 5 5 5 5 5 5 5 5 5 5 5 5 5 5 5 5 5 5 5 5 5 5 5 5 5 5 5 5 5 5 5 5 5 5 5 5 5 5 5 5 5 5 5 5 5 5 5 5 5 5 5 5 5 5 5 5 5 5 5 5 5 5 5 5 5 5 5 5 5 5 5 5 5 5 5 5 5 5 5 5 5 5 5 5 5 5 5 5 5 5 5 5 5 5 5 5 5 5 5 5 5 5 5 5 5 5 5 5 5 5 5 5 5 5 5 5 5 5 5 5 5 5 5 5 5 5 5 5 5 5 5 5 5 5 5 5 5 5 5 5 5 5 5 5 5 5 5 5 5 5 5 5 5 5 5 5 5 5 5 5 5 5 5 5 5 5 5 5 5 5 5 5 5 5 5 5 5 5 5 5 5 5 5 5 5 5 5 5 5 5 5 5 5 5 5 5 5 5 5 5 5 5 5 5 5 5 5 5 5 5 5 5 5 5 5 5 5 5 5 5 5 5 5 5 5 5 5 5 5 5 5 5 5 5 5 5 5 5 5 5 5 5 5 5 5 5 5 5 5 5 5 5 5 5 5 5 5 5 5 5 5 5 5 5 5 5 5 5 5 5 5 5 5 5 5 5 5 5 5 5 5 5 5 5 5 5 5 5 5 5 5 5 5 5 5 5 5 5 5 5 5 5 5 5 5 5 5 5 5 5 5 5 5 5 5 5 5 5 5 5 5 5 5 5 5 5 5 5 5 5 5 5 5 5 5 5 5 5 5 5 5 5 5 5 5 5 5 5 5 5 5 5 5 5 5 5 5 5 5 5 5 5 5 5 5 5 5 5 5 5 5 5 5 5 5 5 5 5 5 5 5 5 5 5 5 5 5 5 5 5 5 5 5 5 5 5 5 5 5 5 5 5 5 5 5 5 5 5 5 5 5 5 5 5 5 5 5 5 5 5 5 5 5 5 5 5 5 5 5 5 5 5 5 5 5 5 5 5 5 5 5 5 5 5 5 5 5 5 5 5 5 5 5 5 5 5 5 5 5 5 5 5 5 5 5 5 5 5 5 5 5 5 5 5 5 5 5 5 5 5 5 5 5 5 5 5 5 5 5 5 5 5 5 5 5 5 5 5 5 5 5 5 5 5 5 5 5 5 5 5 5 5 5 5 5 5 5 5 5 5 5 5 5 5 5 5 5 5 5 5 5 5 5 5 5 5 5 5 5 5 5 5 5 5 5 5 5 5 5 5 5 5 5 5 5 5 5 5 5 5 5 5 5 5 5 5 5 5 5 5 5 5 5 5 5 5 5 5 5 5 5 5 5 5 5 5 5 5 5 5 5 5 5 5 5 5 5 5 5 5 5 5 5 5 5 5 5 5 5 5 5 5 5 5 5 5 5 5 5 5 5 5 5 5 5 5 5 5 5 5 5 5 5 5 5 5 5 5 5 5 5 5 5 5 5 5 5 5 5 5 5 5 5 5 5 5 5 5 5 5 5 5 5 5 5 5 5 5 5 5 5 5 5 5 5 5 5 5 5 5 5 5 5 5 5 5 5 5 5 5 5 5 5 5 5 5 5 5 5 5 5 5 5 5 5 5 5 5 5 5 5 5 5 5 5 5 5 5 5 5 5 5 5 5 5 5 5 5 5 5 5 5 5 5 5 5 5 5 5 5 5 5 5 5 5 5 5 5 5 5 5 5 5 5 5 5 5 5 5 5 5 5 5 5 5 5 5 5 5 5 5 5 5 5 5 5 5 5 5 5 5 5 5 5 5 5 5 5 5 5 5 5 5 5 5 5 5 5 5 5 5 5 5 5 5 5 5 5 5 5 5 5 5 5 5 5 5 5 5 5 5 5 5 5 5 5 5 5 5 5 5 5 5 5 5 5 5 5 5 5 5 5 5 5 5 5 5 5 5 5 5 5 5 5 5 5 5 5 5 5 5 5 5 5 5 5 5 5 5 5 5 5 5 5 5 5 5 5 5 5 5 5 5 5 5 5 5 5 5 5 5 5 5 5 5 5 5 5 5 5 5 5 5 5 5 5 5 5 5 5 5 5 5 5 5 5 5 5 5 5 5 5 5 5 5 5 5 5 5 5 5 5 5 5 5 5 5 5 5 5 5 5 5 5 5 5 5 5 5 5 5 5 5 5 5 5 5 5 5 5 5 5 5 5 5 5 5 5 5 5 5 5 5 5 5 5 5 5 5 5 5 5 5 5 5 5 5 5 5 5 5 5 5 5 5 5 5 5 5 5 5 5 5 5 5 5 5 5 5 5 5 5 5 5 5 5 5 5 5 5 5 5 5 5 5 5 5 5 5 5 5 5 5 5 5 5 5 5 5 5 5 5 5 5 5 5 5 5 5 5 5 5 5 5 5 5 5 5 5 5 5 5 5 5 5 5 5 5 5 5 5 5 5 5 5 5 5 5 5 5 5 5 5 5 5 5 5 5 5 5 5 5 5 5 5 5 5 5 5 5 5 5 5 5 5 5 5 5 5 5 5 5 5 5 5 5 5 5 5 5 5 5 5 5 5 5 5 5 5 5 5 5 5 5 5 5 5 5 5 5 5 5 5 5 5 5 5 5 5 5 5 5 5 5 5 5 5 5 5 5 5 5 5 5 5 5 5 5 5 5 5 5 5 5 5 5 5 5 5 5 5 5 5 5 5 5 5 5 5 5 5 5 5 5 5 5 5 5 5 5 5 5 5 5 5 5 5 5 5 5 5 5 5 5 5 5 5 5 5 5 5 5 5 5 5 5 5 5 5 5 5 5 5 5 5 5 5 5 5 5 5 5 5 5 5 5 5 5 5 5 5 5 5 5 5 5 5 5 5 5 5 5 5 5 5 5 5 5 5 5 5 5 5 5 5 5 5 5 5 5 5 5 5 5 5 5 5 5 5 5 5 5 5 5 5 5 5 5 5 5 5 5 5 5 5 5 5 5 5 5 5 5 5 5 5 5 5 5 5 5 5 5 5 5 5 5 5 5 5 5 5 5 5 5 5 5 5 5 5 5 5 5 5 5 5 5 5 5 5 5 5 5 5 5 5 5 5 5 5 5 5 5 5 5 5 5 5 5 5 5 5 5 5 5 5 5 5 5 5 5 5 5 5 5 5 5 5 5 5 5 5 5 5 5 5 5 5 5 5 5 5 5 5 5 5 5 5 5 5 5 5 5 5 5 5 5 5 5 5 5 5 5 5 5 5 5 5 5 5 5 5 5 5 5 5 5 5 5 5 5 5 5 5 5 5 5 5 5 5 5 5 5 5 5 5 5 5 5 5 5 5 5 5 5 5 5 5 5 5 5 5 5 5 5 5 5 5 5 5 5 5 5 5 5 5 5 5 5 5 5 5 5 5 5 5 5 5 5 5 5 5 5 5 5 5 5 5 5 5 5 5 5 5 5 5 5 5 5 5 5 5 5 5 5 5 5 5 5 5 5 5 5 5 5 5 5 5 5 5 5 5 5 5 5 5 5 5 5 5 5 5 5 5 5 5 5 5 5 5 5 5 5 5 5 5 5 5 5 5 5 5 5 5 5 5 5 5 5 5 5 5 5 5 5 5 5 5 5 5 5 5 5 5 5 5 5 5 5 5 5 5 5 5 5 5 5 5 5 5 5 5 5 5 5 5 5 5 5 5 5 5 5 5 5 5 5 5 5 5 5 5 5 5 5 5 5 5 5 5 5 5 5 5 5 5 5 5 5 5 5 5 5 5 5 5 5 5 5 5 5 5 5 5 5 5 5 5 5 5 5 5 5 5 5 5 5 5 5 5 5 5 5 5 5 5 5 5 5 5 5 5 5 5 5 5 5 5 5 5 5 5 5 5 5 5 5 5 5 5 5 5 5 5 5 5 5 5 5 5 5 5 5 5 5 5 5 5 5 5 5 5 5 5 5 5 5 5 5 5 5 5 5 5 5 5 5 5 5 5 5 5 5 5 5 5 5 5 5 5 5 5 5 5 5 5 5 5 5 5 5 5 5 5 5 5 5 5 5 5 5 5 5 5 5 5 5 5 5 5 5 5 5 5 5 5 5 5 5 5 5 5 5 5 5 5 5 5 5 5 5 5 5 5 5 5 5 5 5 5 5 5 5 5 5 5 5 5 5 5 5 5 5 5 5 5 5 5 5 5 5 5 5 5 5 5 5 5 5 5 5 5 5 5 5 5 5 5 5 5 5 5 5 5 5 5 5 5 5 5 5 5 5 5 5 5 5 5 5 5 5 5 5 5 5 5 5 5 5 5 5 5 5 5 5 5 5 5 5 5 5 5 5 5 5 5 5 5 5 5 5 5 5 5 5 5 5 5 5 5 5 5 5 5 5 5 5 5 5 5 5 5 5 5 5 5 5 5 5 5 5 5 5 5 5 5 5 5 5 5 5 5 5 5 5 5 5 5 5 5 5 5 5 5 5 5 5 5 5 5 5 5 5 5 5 5 5 5 5 5 5 5 5 5 5 5 5 5 5 5 5 5 5 5 5 5 5 5 5 5 5 5 5 5 5 5 5 5 5 5 5 5 5 5 5 5 5 5 5 5 5 5 5 5 5 5 5 5 5 5 5 5 5 5 5 5 5 5 5 5 5 5 5 5 5 5 5 5 5 5 5 5 5 5 5 5 5 5 5 5 5 5 5 5 5 5 5 5 5 5 5 5 5 5 5 5 5 5 5 5 5 5 5 5 5 5 5 5 5 5 5 5 5 5 5 5 5 5 5 5 5 5 5 5 5 5 5 5 5 5 5 5 5 5 5 5 5 5 5 5 5 5 5 5 5 5 5 5 5 5 5 5 5 5 5 5 5 5 5 5 5 5 5 5 5 5 5 5 5 5 5 5 5 5 5 5 5 5 5 5 5 5 5 5 5 5 5 5 5 5 5 5 5 5 5 5 5 5 5 5 5 5 5 5 5 5 5 5 5 5 5 5 5 5 5 5 5 5 5 5 5 5 5 5 5 5 5 5 5 5 5 5 5 5 5 5 5 5 5 5 5 5 5 5 5 5 5 5 5 5 5 5 5 5 5 5 5 5 5 5 5 5 5 5 5 5 5 5 5 5 5 5 5 5 5 5 5 5 5 5 5 5 5 5 5 5 5 5 5 5 5 5 5 5 5 5 5 5 5 5 5 5 5 5 5 5 5 5 5 5 5 5 5 5 5 5 5 5 5 5 5 5 5 5 5 5 5 5 5 5 5 5 5 5 5 5 5 5 5 5 5 5 5 5 5 5 5 5 5 5 5 5 5 5 5 5 5 5 5 5 5 5 5 5 5 5 5 5 5 5 5 5 5 5 5 5 5 5 5 5 5 5 5 5 5 5 5 5 5 5 5 5 5 5 5 5 5 5 5 5 5 5 5 5 5 5 5 5 5 5 5 5 5 5 5 5 5 5 5 5 5 5 5 5 5 5 5 5 5 5 5 5 5 5 5 5 5 5 5 5 5 5 5 5 5 5 5 5 5 5 5 5 5 5 5 5 5 5 5 5 5 5 5 5 5 5 5 5 5 5 5 5 5 5 5 5 5 5 5 5 5 5 5 5 5 5 5 5 5 5 5 5 5 5 5 5 5 5 5 5 5 5 5 5 5 5 5 5 5 5 5 5 5 5 5 5 5 5 5 5 5 5 5 5 5 5 5 5 5 5 5 5 5 5 5 5 5 5 5 5 5 5 5 5 5 5 5 5 5 5 5 5 5 5 5 5 5 5 5 5 5 5 5 5 5 5 5 5 5 5 5 5 5 5 5 5 5 5 5 5 5 5 5 5 5 5 5 5 5 5 5 5 5 5 5 5 5 5 5 5 5 5 5 5 5 5 5 5 5 5 5 5 5 5 5 5 5 5 5 5 5 5 5 5 5 5 5 5 5 5 5 5 5 5 5 5 5 5 5 5 5 5 5 5 5 5 5 5 5 5 5 5 5 5 5 5 5 5 5 5 5 5 5 5 5 5 5 5 5 5 5 5 5 5 5 5 5 5 5 5 5 5 5 5 5 5 5 5 5 5 5 5 5 5 5 5 5 5 5 5 5 5 5 5 5 5 5 5 5 5 5 5 5 5 5 5 5 5 5 5 5 5 5 5 5 5 5 5 5 5 5 5 5 5 5 5 5 5 5 5 5 5 5 5 5 5 5 5 5 5 5 5 5 5 5 5 5 5 5 5 5 5 5 5 5 5 5 5 5 5 5 5 5 5 5 5 5 5 5 5 5 5 5 5 5 5 5 5 5 5 5 5 5 5 5 5 5 5 5 5 5 5 5 5 5 5 5 5 5 5 5 5 5 5 5 5 5 5 5 5 5 5 5 5 5 5 5 5 5 5 5 5 5 5 5 5 5 5 5 5 5 5 5 5 5 5 5 5 5 5 5 5 5 5 5 5 5 5 5 5 5 5 5 5 5 5 5 5 5 5 5 5 5 5 5 5 5 5 5 5 5 5 5 5 5 5 5 5 5 5 5 5 5 5 5 5 5 5 5 5 5 5 5 5 5 5 5 5 5 5 5 5 5 5 5 5 5 5 5 5 5 5 5 5 5 5 5 5 5 5 5 5 5 5 5 5 5 5 5 5 5 5 5 5 5 5 5 5 5 5 5 5 5 5 5 5 5 5 5 5 5 5 5 5 5 5 5 5 5 5 5 5 5 5 5 5 5 5 5 5 5 5 5 5 5 5 5 5 5 5 5 5 5 5 5 5 5 5 5 5 5 5 5 5 5 5 5 5 5 5 5 5 5 5 5 5 5 5 5 5 5 5 5 5 5 5 5 5 5 5 5 5 5 5 5 5 5 5 5 5 5 5 5 5 5 5 5 5 5 5 5 5 5 5 5 5 5 5 5 5 5 5 5 5 5 5 5 5 5 5 5 5 5 5 5 5 5 5 5 5 5 5 5 5 5 5 5 5 5 5 5 5 5 5 5 5 5 5 5 5 5 5 5 5 5 5 5 5 5 5 5 5 5 5 5 5 5 5 5 5 5 5 5 5 5 5 5 5 5 5 5 5 5 5 5 5 5 5 5 5 5 5 5 5 5 5 5 5 5 5 5 5 5 5 5 5 5 5 5 5 5 5 5 5 5 5 5 5 5 5 5 5 5 5 5 5 5 5 5 5 5 5 5 5 5 5 5 5 5 5 5 5 5 5 5 5 5 5 5 5 5 5 5 5 5 5 5 5 5 5 5 5 5 5 5 5 5 5 5 5 5 5 5 5 5 5 5 5 5 5 5 5 5 5 5 5 5 5 5 5 5 5 5 5 5 5 5 5 5 5 5 5 5 5 5 5 5 5 5 5 5 5 5 5 5 5 5 5 5 5 5 5 5 5 5 5 5 5 5 5 5 5 5 5 5 5 5 5 5 5 5 5 5 5 5 5 5 5 5 5 5 5 5 5 5 5 5 5 5 5 5 5 5 5 5 5 5 5 5 5 5 5 5 5 5 5 5 5 5 5 5 5 5 5 5 5 5 5 5 5 5 5 5 5 5 5 5 5 5 5 5 5 5 5 5 5 5 5 5 5 5 5 5 5 5 5 5 5 5 5 5 5 5 5 5 5 5 5 5 5 5 5 5 5 5 5 5 5 5 5 5 5 5 5 5 5 5 5 5 5 5 5 5 5 5 5 5 5 5 5 5 5 5 5 5 5 5 5 5 5 5 5 5 5 5 5 5 5 5 5 5 5 5 5 5 5 5 5 5 5 5 5 5 5 5 5 5 5 5 5 5 5 5 5 5 5 5 5 5 5 5 5 5 5 5 5 5 5 5 5 5 5 5 5 5 5 5 5 5 5 5 5 5 5 5 5 5 5 5 5 5 5 5 5 5 5 5 5 5 5 5 5 5 5 5 5 5 5 5 5 5 5 5 5 5 5 5 5 5 5 5 5 5 5 5 5 5 5 5 5 5 5 5 5 5 5 5 5 5 5 5 5 5 5 5 5 5 5 5 5 5 5 5 5 5 5 5 5 5 5 5 5 5 5 5 5 5 5 5 5 5 5 5 5 5 5 5 5 5 5 5 5 5 5 5 5 5 5 5 5 5 5 5 5 5 5 5 5 5 5 5 5 5 5 5 5 5 5 5 5 5 5 5 5 5 5 5 5 5 5 5 5 5 5 5 5 5 5 5 5 5 5 5 5 5 5 5 5 5 5 5 5 5 5 5 5 5 5 5 5 5 5 5 5 5 5 5 5 5 5 5 5 5 5 5 5 5 5 5 5 5 5 5 5 5 5 5 5 5 5 5 5 5 5 5 5 5 5 5 5 5 5 5 5 5 5 5 5 5 5 5 5 5 5 5 5 5 5 5 5 5 5 5 5 5 5 5 5 5 5 5 5 5 5 5 5 5 5 5 5 5 5 5 5 5 5 5 5 5 5 5 5 5 5 5 5 5 5 5 5 5 5 5 5 5 5 5 5 5 5 5 5 5 5 5 5 5 5 5 5 5 5 5 5 5 5 5 5 5 5 5 5 5 5 5 5 5 5 5 5 5 5 5 5 5 5 5 5 5 5 5 5 5 5 5 5 5 5 5 5 5 5 5 5 5 5 5 5 5 5 5 5 5 5 5 5 5 5 5 5 5 5 5 5 5 5 5 5 5 5 5 5 5 5 5 5 5 5 5 5 5 5 5 5 5 5 5 5 5 5 5 5 5 5 5 5 5 5 5 5 5 5 5 5 5 5 5 5 5 5 5 5 5 5 5 5 5 5 5 5 5 5 5 5 5 5 5 5 5 5 5 5 5 5 5 5 5 5 5 5 5 5 5 5 5 5 5 5 5 5 5 5 5 5 5 5 5 5 5 5 5 5 5 5 5 5 5 5 5 5 5 5 5 5 5 5 5 5 5 5 5 5 5 5 5 5 5 5 5 5 5 5 5 5 5 5 5 5 5 5 5 5 5 5 5 5 5 5 5 5 5 5 5 5 5 5 5 5 5 5 5 5 5 5 5 5 5 5 5 5 5 5 5 5 5 5 5 5 5 5 5 5 5 5 5 5 5 5 5 5 5 5 5 5 5 5 5 5 5 5 5 5 5 5 5 5 5 5 5 5 5 5 5 5 5 5 5 5 5 5 5 5 5 5 5 5 5 5 5 5 5 5 5 5 5 5 5 5 5 5 5 5 5 5 5 5 5 5 5 5 5 5 5 5 5 5 5 5 5 5 5 5 5 5 5 5 5 5 5 5 5 5 5 5 5 5 5 5 5 5 5 5 5 5 5 5 5 5 5 5 5 5 5 5 5 5 5 5 5 5 5 5 5 5 5 5 5 5 5 5 5 5 5 5 5 5 5 5 5 5 5 5 5 5 5 5 5 5 5 5 5 5 5 5 5 5 5 5 5 5 5 5 5 5 5 5 5 5 5 5 5 5 5 5 5 5 5 5 5 5 5 5 5 5 5 5 5 5 5 5 5 5 5 5 5 5 5 5 5 5 5 5 5 5 5 5 5 5 5 5 5 5 5 5 5 5 5 5 5 5 5 5 5 5 5 5 5 5 5 5 5 5 5 5 5 5 5 5 5 5 5 5 5 5 5 5 5 5 5 5 5 5 5 5 5 5 5 5 5 5 5 5 5 5 5 5 5 5 5 5 5 5 5 5 5 5 5 5 5 5 5 5 5 5 5 5 5 5 5 5 5 5 5 5 5 5 5 5 5 5 5 5 5 5 5 5 5 5 5 5 5 5 5 5 5 5 5 5 5 5 5 5 5 5 5 5 5 5 5 5 5 5 5 5 5 5 5 5 5 5 5 5 5 5 5 5 5 5 5 5 5 5 5 5 5 5 5 5 5 5 5 5 5 5 5 5 5 5 5 5 5 5 5 5 5 5 5 5 5 5 5 5 5 5 5 5 5 5 5 5 5 5 5 5 5 5 5 5 5 5 5 5 5 5 5 5 5 5 5 5 5 5 5 5 5 5 5 5 5 5 5 5 5 5 5 5 5 5 5 5 5 5 5 5 5 5 5 5 5 5 5 5 5 5 5 5 5 5 5 5 5 5 5 5 5 5 5 5 5 5 5 5 5 5 5 5 5 5 5 5 5 5 5 5 5 5 5 5 5 5 5 5 5 5 5 5 5 5 5 5 5 5 5 5 5 5 5 5 5 5 5 5 5 5 5 5 5 5 5 5 5 5 5 5 5 5 5 5 5 5 5 5 5 5 5 5 5 5 5 5 5 5 5 5 5 5 5 5 5 5 5 5 5 5 5 5 5 5 5 5 5 5 5 5 5 5 5 5 5 5 5 5 5 5 5 5 5 5 5 5 5 5 5 5 5 5 5 5 5 5 5 5 5 5 5 5 5 5 5 5 5 5 5 5 5 5 5 5 5 5 5 5 5 5 5 5 5 5 5 5 5 5 5 5 5 5 5 5 5 5 5 5 5 5 5 5 5 5 5 5 5 5 5 5 5 5 5 5 5 5 5 5 5 5 5 5 5 5 5 5 5 5 5 5 5 5 5 5 5 5 5 5 5 5 5 5 5 5 5 5 5 5 5 5 5 5 5 5 5 5 5 5 5 5 5 5 5 5 5 5 5 5 5 5 5 5 5 5 5 5 5 5 5 5 5 5 5 5 5 5 5 5 5 5 5 5 5 5 5 5 5 5 5 5 5 5 5 5 5 5 5 5 5 5 5 5 5 5 5 5 5 5 5 5 5 5 5 5 5 5 5 5 5 5 5 5 5 5 5 5 5 5 5 5 5 5 5 5 5 5 5 5 5 5 5 5 5 5 5 5 5 5 5 5 5 5 5 5 5 5 5 5 5 5 5 5 5 5 5 5 5 5 5 5 5 5 5 5 5 5 5 5 5 5 5 5 5 5 5 5 5 5 5 5 5 5 5 5 5 5 5 5 5 5 5 5 5 5 5 5 5 5 5 5 5 5 5 5 5 5 5 5 5 5 5 5 5 5 5 5 5 5 5 5 5 5 5 5 5 5 5 5 5 5 5 5 5 5 5 5 5 5 5 5 5 5 5 5 5 5 5 5 5 5 5 5 5 5 5 5 5 5 5 5 5 5 5 5 5 5 5 5 5 5 5 5 5 5 5 5 5 5 5 5 5 5 5 5 5 5 5 5 5 5 5 5 5 5 5 5 5 5 5 5 5 5 5 5 5 5 5 5 5 5 5 5 5 5 5 5 5 5 5 5 5 5 5 5 5 5 5 5 5 5 5 5 5 5 5 5 5 5 5 5 5 5 5 5 5 5 5 5 5 5 5 5 5 5 5 5 5 5 5 5 5 5 5 5 5 5 5 5 5 5 5 5 5 5 5 5 5 5 5 5 5 5 5 5 5 5 5 5 5 5 5 5 5 5 5 5 5 5 5 5 5 5 5 5 5 5 5 5 5 5 5 5 5 5 5 5 5 5 5 5 5 5 5 5 5 5 5 5 5 5 5 5 5 5 5 5 5 5 5 5 5 5 5 5 5 5 5 5 5 5 5 5 5 5 5 5 5 5 5 5 5 5 5 5 5 5 5 5 5 5 5 5 5 5 5 5 5 5 5 5 5 5 5 5 5 5 5 5 5 5 5 5 5 5 5 5 5 5 5 5 5 5 5 5 5 5 5 5 5 5 5 5 5 5 5 5 5 5 5 5 5 5 5 5 5 5 5 5 5 5 5 5 5 5 5 5 5 5 5 5 5 5 5 5 5 5 5 5 5 5 5 5 5 5 5 5 5 5 5 5 5 5 5 5 5 5 5 5 5 5 5 5 5 5 5 5 5 5 5 5 5 5 5 5 5 5 5 5 5 5 5 5 5 5 5 5 5 5 5 5 5 5 5 5 5 5 5 5 5 5 5 5 5 5 5 5 5 5 5 5 5 5 5 5 5 5 5 5 5 5 5 5 5 5 5 5 5 5 5 5 5 5 5 5 5 5 5 5 5 5 5 5 5 5 5 5 5 5 5 5 5 5 5 5 5 5 5 5 5 5 5 5 5 5 5 5 5 5 5 5 5 5 5 5 5 5 5 5 5 5 5 5 5 5 5 5 5 5 5 5 5 5 5 5 5 5 5 5 5 5 5 5 5 5 5 5 5 5 5 5 5 5 5 5 5 5 5 5 5 5 5 5 5 5 5 5 5 5 5 5 5 5 5 5 5 5 5 5 5 5 5 5 5 5 5 5 5 5 5 5 5 5 5 5 5 5 5 5 5 5 5 5 5 5 5 5 5 5 5 5 5 5 5 5 5 5 5 5 5 5 5 5 5 5 5 5 5 5 5 5 5 5 5 5 5 5 5 5 5 5 5 5 5 5 5 5 5 5 5 5 5 5 5 5 5 5 5 5 5 5 5 5 5 5 5 5 5 5 5 5 5 5 5 5 5 5 5 5 5 5 5 5 5 5 5 5 5 5 5 5 5 5 5 5 5 5 5 5 5 5 5 5 5 5 5 5 5 5 5 5 5 5 5 5 5 5 5 5 5 5 5 5 5 5 5 5 5 5 5 5 5 5 5 5 5 5 5 5 5 5 5 5 5 5 5 5 5 5 5 5 5 5 5 5 5 5 5 5 5 5 5 5 5 5 5 5 5 5 5 5 5 5 5 5 5 5 5 5 5 5 5 5 5 5 5 5 5 5 5 5 5 5 5 5 5 5 5 5 5 5 5 5 5 5 5 5 5 5 5 5 5 5 5 5 5 5 5 5 5 5 5 5 5 5 5 5 5 5 5 5 5 5 5 5 5 5 5 5 5 5 5 5 5 5 5 5 5 5 5 5 5 5 5 5 5 5 5 5 5 5 5 5 5 5 5 5 5 5 5 5 5 5 5 5 5 5 5 5 5 5 5 5 5 5 5 5 5 5 5 5 5 5 5 5 5 5 5 5 5 5 5 5 5 5 5 5 5 5 5 5 5 5 5 5 5 5 5 5 5 5 5 5 5 5 5 5 5 5 5 5 5 5 5 5 5 5 5 5 5 5 5 5 5 5 5 5 5 5 5 5 5 5 5 5 5 5 5 5 5 5 5 5 5 5 5 5 5 5 5 5 5 5 5 5 5 5 5 5 5 5 5 5 5 5 5 5 5 5 5 5 5 5 5 5 5 5 5 5 5 5 5 5 5 5 5 5 5 5 5 5 5 5 5 5 5 5 5 5 5 5 5 5 5 5 5 5 5 5 5 5 5 5 5 5 5 5 5 5 5 5 5 5 5 5 5 5 5 5 5 5 5 5 5 5 5 5 5 5 5 5 5 5 5 5 5 5 5 5 5 5 5 5 5 5 5 5 5 5 5 5 5 5 5 5 5 5 5 5 5 5 5 5 5 5 5 5 5 5 5 5 5 5 5 5 5 5 5 5 5 5 5 5 5 5 5 5 5 5 5 5 5 5 5 5 5 5 5 5 5 5 5 5 5 5 5 5 5 5 5 5 5 5 5 5 5 5 5 5 5 5 5 5 5 5 5 5 5 5 5 5 5 5 5 5 5 5 5 5 5 5 5 5 5 5 5 5 5 5 5 5 5 5 5 5 5 5 5 5 5 5 5 5 5 5 5 5 5 5 5 5 5 5 5 5 5 5 5 5 5 5 5 5 5 5 5 5 5 5 5 5 5 5 5 5 5 5 5 5 5 5 5 5 5 5 5 5 5 5 5 5 5 5 5 5 5 5 5 5 5 5 5 5 5 5 5 5 5 5 5 5 5 5 5 5 5 5 5 5 5 5 5 5 5 5 5 5 5 5 5 5 5 5 5 5 5 5 5 5 5 5 5 5 5 5 5 5 5 5 5 5 5 5 5 5 5 5 5 5 5 5 5 5 5 5 5 5 5 5 5 5 5 5 5 5 5 5 5 5 5 5 5 5 5 5 5 5 5 5 5 5 5 5 5 5 5 5 5 5 5 5 5 5 5 5 5 5 5 5 5 5 5 5 5 5 5 5 5 5 5 5 5 5 5 5 5 5 5 5 5 5 5 5 5 5 5 5 5 5 5 5 5 5 5 5 5 5 5 5 5 5 5 5 5 5 5 5 5 5 5 5 5 5 5 5 5 5 5 5 5 5 5 5 5 5 5 5 5 5 5 5 5 5 5 5 5 5 5 5 5 5 5 5 5 5 5 5 5 5 5 5 5 5 5 5 5 5 5 5 5 5 5 5 5 5 5 5 5 5 5 5 5 5 5 5 5 5 5 5 5 5 5 5 5 5 5 5 5 5 5 5 5 5 5 5 5 5 5 5 5 5 5 5 5 5 5 5 5 5 5 5 5 5 5 5 5 5 5 5 5 5 5 5 5 5 5 5 5 5 5 5 5 5 5 5 5 5 5 5 5 5 5 5 5 5 5 5 5 5 5 5 5 5 5 5 5 5 5 5 5 5 5 5 5 5 5 5 5 5 5 5 5 5 5 5 5 5 5 5 5 5 5 5 5 5 5 5 5 5 5 5 5 5 5 5 5 5 5 5 5 5 5 5 5 5 5 5 5 5 5 5 5 5 5 5 5 5 5 5 5 5 5 5 5 5 5 5 5 5 5 5 5 5 5 5 5 5 5 5 5 5 5 5 5 5 5 5 5 5 5 5 5 5 5 5 5 5 5 5 5 5 5 5 5 5 5 5 5 5 5 5 5 5 5 5 5 5 5 5 5 5 5 5 5 5 5 5 5 5 5 5 5 5 5 5 5 5 5 5 5 5 5 5 5 5 5 5 5 5 5 5 5 5 5 5 5 5 5 5 5 5 5 5 5 5 5 5 5 5 5 5 5 5 5 5 5 5 5 5 5 5 5 5 5 5 5 5 5 5 5 5 5 5 5 5 5 5 5 5 5 5 5 5 5 5 5 5 5 5 5 5 5 5 5 5 5 5 5 5 5 5 5 5 5 5 5 5 5 5 5 5 5 5 5 5 5 5 5 5 5 5 5 5 5 5 5 5 5 5 5 5 5 5 5 5 5 5 5 5 5 5 5 5 5 5 5 5 5 5 5 5 5 5 5 5 5 5 5 5 5 5 5 5 5 5 5 5 5 5 5 5 5 5 5 5 5 5 5 5 5 5 5 5 5 5 5 5 5 5 5 5 5 5 5 5 5 5 5 5 5 5 5 5 5 5 5 5 5 5 5 5 5 5 5 5 5 5 5 5 5 5 5 5 5 5 5 5 5 5 5 5 5 5 5 5 5 5 5 5 5 5 5 5 5 5 5 5 5 5 5 5 5 5 5 5 5 5 5 5 5 5 5 5 5 5 5 5 5 5 5 5 5 5 5 5 5 5 5 5 5 5 5 5 5 5 5 5 5 5 5 5 5 5 5 5 5 5 5 5 5 5 5 5 5 5 5 5 5 5 5 5 5 5 5 5 5 5 5 5 5 5 5 5 5 5 5 5 5 5 5 5 5 5 5 5 5 5 5 5 5 5 5 5 5 5 5 5 5 5 5 5 5 5 5 5 5 5 5 5 5 5 5 5 5 5 5 5 5 5 5 5 5 5 5 5 5 5 5 5 5 5 5 5 5 5 5 5 5 5 5 5 5 5 5 5 5 5 5 5 5 5 5 5 5 5 5 5 5 5 5 5 5 5 5 5 5 5 5 5 5 5 5 5 5 5 5 5 5 5 5 5 5 5 5 5 5 5 5 5 5 5 5 5 5 5 5 5 5 5 5 5 5 5 5 5 5 5 5 5 5 5 5 5 5 5 5 5 5 5 5 5 5 5 5 5 5 5 5 5 5 5 5 5 5 5 5 5 5 5 5 5 5 5 5 5 5 5 5 5 5 5 5 5 5 5 5 5 5 5 5 5 5 5 5 5 5 5 5 5 5 5 5 5 5 5 5 5 5 5 5 5 5 5 5 5 5 5 5 5 5 5 5 5 5 5 5 5 5 5 5 5 5 5 5 5 5 5 5 5 5 5 5 5 5 5 5 5 5 5 5 5 5 5 5 5 5 5 5 5 5 5 5 5 5 5 5 5 5 5 5 5 5 5 5 5 5 5 5 5 5 5 5 5 5 5 5 5 5 5 5 5 5 5 5 5 5 5 5 5 5 5 5 5 5 5 5 5 5 5 5 5 5 5 5 5 5 5 5 5 5 5 5 5 5 5 5 5 5 5 5 5 5 5 5 5 5 5 5 5 5 5 5 5 5 5 5 5 5 5 5 5 5 5 5 5 5 5 5 5 5 5 5 5 5 5 5 5 5 5 5 5 5 5 5 5 5 5 5 5 5 5 5 5 5 5 5 5 5 5 5 5 5 5 5 5 5 5 5 5 5 5 5 5 5 5 5 5 5 5 5 5 5 5 5 5 5 5 5 5 5 5 5 5 5 5 5 5 5 5 5 5 5 5 5 5 5 5 5 5 5 5 5 5 5 5 5 5 5 5 5 5 5 5 5 5 5 5 5 5 5 5 5 5 5 5 5 5 5 5 5 5 5 5 5 5 5 5 5 5 5 5 5 5 5 5 5 5 5 5 5 5 5 5 5 5 5 5 5 5 5 5 5 5 5 5 5 5 5 5 5 5 5 5 5 5 5 5 5 5 5 5 5 5 5 5 5 5 5 5 5 5 5 5 5 5 5 5 5 5 5 5 5 5 5 5 5 5 5 5 5 5 5 5 5 5 5 5 5 5 5 5 5 5 5 5 5 5 5 5 5 5 5 5 5 5 5 5 5 5 5 5 5 5 5 5 5 5 5 5 5 5 5 5 5 5 5 5 5 5 5 5 5 5 5 5 5 5 5 5 5 5 5 5 5 5 5 5 5 5 5 5 5 5 5 5 5 5 5 5 5 5 5 5 5 5 5 5 5 5 5 5 5 5 5 5 5 5 5 5 5 5 5 5 5 5 5 5 5 5 5 5 5 5 5 5 5 5 5 5 5 5 5 5 5 5 5 5 5 5 5 5 5 5 5 5 5 5 5 5 5 5 5 5 5 5 5 5 5 5 5 5 5 5 5 5 5 5 5 5 5 5 5 5 5 5 5 5 5 5 5 5 5 5 5 5 5 5 5 5 5 5 5 5 5 5 5 5 5 5 5 5 5 5 5 5 5 5 5 5 5 5 5 5 5 5 5 5 5 5 5 5 5 5 5 5 5 5 5 5 5 5 5 5 5 5 5 5 5 5 5 5 5 5 5 5 5 5 5 5 5 5 5 5 5 5 5 5 5 5 5 5 5 5 5 5 5 5 5 5 5 5 5 5 5 5 5 5 5 5 5 5 5 5 5 5 5 5 5 5 5 5 5 5 5 5 5 5 5 5 5 5 5 5 5 5 5 5 5 5 5 5 5 5 5 5 5 5 5 5 5 5 5 5 5 5 5 5 5 5 5 5 5 5 5 5 5 5 5 5 5 5 5 5 5 5 5 5 5 5 5 5 5 5 5 5 5 5 5 5 5 5 5 5 5 5 5 5 5 5 5 5 5 5 5 5 5 5 5 5 5 5 5 5 5 5 5 5 5 5 5 5 5 5 5 5 5 5 5 5 5 5 5 5 5 5 5 5 5 5 5 5 5 5 5 5 5 5 5 5 5 5 5 5 5 5 5 5 5 5 5 5 5 5 5 5 5 5 5 5 5 5 5 5 5 5 5 5 5 5 5 5 5 5 5 5 5 5 5 5 5 5 5 5 5 5 5 5 5 5 5 5 5 5 5 5 5 5 5 5 5 5 5 5 5 5 5 5 5 5 5 5 5 5 5 5 5 5 5 5 5 5 5 5 5 5 5 5 5 5 5 5 5 5 5 5 5 5 5 5 5 5 5 5 5 5 5 5 5 5 5 5 5 5 5 5 5 5 5 5 5 5 5 5 5 5 5 5 5 5 5 5 5 5 5 5 5 5 5 5 5 5 5 5 5 5 5 5 5 5 5 5 5 5 5 5 5 5 5 5 5 5 5 5 5 5 5 5 5 5 5 5 5 5 5 5 5 5 5 5 5 5 5 5 5 5 5 5 5 5 5 5 5 5 5 5 5 5 5 5 5 5 5 5 5 5 5 5 5 5 5 5 5 5 5 5 5 5 5 5 5 5 5 5 5 5 5 5 5 5 5 5 5 5 5 5 5 5 5 5 5 5 5 5 5 5 5 5 5 5 5 5 5 5 5 5 5 5 5 5 5 5 5 5 5 5 5 5 5 5 5 5 5 5 5 5 5 5 5 5 5 5 5 5 5 5 5 5 5 5 5 5 5 5 5 5 5 5 5 5 5 5 5 5 5 5 5 5 5 5 5 5 5 5 5 5 5 5 5 5 5 5 5 5 5 5 5 5 5 5 5 5 5 5 5 5 5 5 5 5 5 5 5 5 5 5 5 5 5 5 5 5 5 5 5 5 5 5 5 5 5 5 5 5 5 5 5 5 5 5 5 5 5 5 5 5 5 5 5 5 5 5 5 5 5 5 5 5 5 5 5 5 5 5 5 5 5 5 5 5 5 5 5 5 5 5 5 5 5 5 5 5 5 5 5 5 5 5 5 5 5 5 5 5 5 5 5 5 5 5 5 5 5 5 5 5 5 5 5 5 5 5 5 5 5 5 5 5 5 5 5 5 5 5 5 5 5 5 5 5 5 5 5 5 5 5 5 5 5 5 5 5 5 5 5 5 5 5 5 5 5 5 5 5 5 5 5 5 5 5 5 5 5 5 5 5 5 5 5 5 5 5 5 5 5 5 5 5 5 5 5 5 5 5 5 5 5 5 5 5 5 5 5 5 5 5 5 5 5 5 5 5 5 5 5 5 5 5 5 5 5 5 5 5 5 5 5 5 5 5 5 5 5 5 5 5 5 5 5 5 5 5 5 5 5 5 5 5 5 5 5 5 5 5 5 5 5 5 5 5 5 5 5 5 5 5 5 5 5 5 5 5 5 5 5 5 5 5 5 5 5 5 5 5 5 5 5 5 5 5 5 5 5 5 5 5 5 5 5 5 5 5 5 5 5 5 5 5 5 5 5 5 5 5 5 5 5 5 5 5 5 5 5 5 5 5 5 5 5 5 5 5 5 5 5 5 5 5 5 5 5 5 5 5 5 5 5 5 5 5 5 5 5 5 5 5 5 5 5 5 5 5 5 5 5 5 5 5 5 5 5 5 5 5 5 5 5 5 5 5 5 5 5 5 5 5 5 5 5 5 5 5 5 5 5 5 5 5 5 5 5 5 5 5 5 5 5 5 5 5 5 5 5 5 5 5 5 5 5 5 5 5 5 5 5 5 5 5 5 5 5 5 5 5 5 5 5 5 5 5 5 5 5 5 5 5 5 5 5 5 5 5 5 5 5 5 5 5 5 5 5 5 5 5 5 5 5 5 5 5 5 5 5 5 5 5 5 5 5 5 5 5 5 5 5 5 5 5 5 5 5 5 5 5 5 5 5 5 5 5 5 5 5 5 5 5 5 5 5 5 5 5 5 5 5 5 5 5 5 5 5 5 5 5 5 5 5 5 5 5 5 5 5 5 5 5 5 5 5 5 5 5 5 5 5 5 5 5 5 5 5 5 5 5 5 5 5 5 5 5 5 5 5 5 5 5 5 5 5 5 5 5 5 5 5 5 5 5 5 5 5 5 5 5 5 5 5 5 5 5 5 5 5 5 5 5 5 5 5 5 5 5 5 5 5 5 5 5 5 5 5 5 5 5 5 5 5 5 5 5 5 5 5 5 5 5 5 5 5 5 5 5 5 5 5 5 5 5 5 5 5 5 5 5 5 5 5 5 5 5 5 5 5 5 5 5 5 5 5 5 5 5 5 5 5 5 5 5 5 5 5 5 5 5 5 5 5 5 5 5 5 5 5 5 5 5 5 5 5 5 5 5 5 5 5 5 5 5 5 5 5 5 5 5 5 5 5 5 5 5 5 5 5 5 5 5 5 5 5 5 5 5 5 5 5 5 5 5 5 5 5 5 5 5 5 5 5 5 5 5 5 5 5 5 5 5 5 5 5 5 5 5 5 5 5 5 5 5 5 5 5 5 5 5 5 5 5 5 5 5 5 5 5 5 5 5 5 5 5 5 5 5 5 5 5 5 5 5 5 5 5 5 5 5 5 5 5 5 5 5 5 5 5 5 5 5 5 5 5 5 5 5 5 5 5 5 5 5 5 5 5 5 5 5 5 5 5 5 5 5 5 5 5 5 5 5 5 5 5 5 5 5 5 5 5 5 5 5 5 5 5 5 5 5 5 5 5 5 5 5 5 5 5 5 5 5 5 5 5 5 5 5 5 5 5 5 5 5 5 5 5 5 5 5 5 5 5 5 5 5 5 5 5 5 5 5 5 5 5 5 5 5 5 5 5 5 5 5 5 5 5 5 5 5 5 5 5 5 5 5 5 5 5 5 5 5 5 5 5 5 5 5 5 5 5 5 5 5 5 5 5 5 5 5 5 5 5 5 5 5 5 5 5 5 5 5 5 5 5 5 5 5 5 5 5 5 5 5 5 5 5 5 5 5 5 5 5 5 5 5 5 5 5 5 5 5 5 5 5 5 5 5 5 5 5 5 5 5 5 5 5 5 5 5 5 5 5 5 5 5 5 5 5 5 5 5 5 5 5 5 5 5 5 5 5 5 5 5 5 5 5 5 5 5 5 5 5 5 5 5 5 5 5 5 5 5 5 5 5 5 5 5 5 5 5 5 5 5 5 5 5 5 5 5 5 5 5 5 5 5 5 5 5 5 5 5 5 5 5 5 5 5 5 5 5 5 5 5 5 5 5 5 5 5 5 5 5 5 5 5 5 5 5 5 5 5 5 5 5 5 5 5 5 5 5 5 5 5 5 5 5 5 5 5 5 5 5 5 5 5 5 5 5 5 5 5 5 5 5 5 5 5 5 5 5 5 5 5 5 5 5 5 5 5 5 5 5 5 5 5 5 5 5 5 5 5 5 5 5 5 5 5 5 5 5 5 5 5 5 5 5 5 5 5 5 5 5 5 5 5 5 5 5 5 5 5 5 5 5 5 5 5 5 5 5 5 5 5 5 5 5 5 5 5 5 5 5 5 5 5 5 5 5 5 5 5 5 5 5 5 5 5 5 5 5 5 5 5 5 5 5 5 5 5 5 5 5 5 5 5 5 5 5 5 5 5 5 5 5 5 5 5 5 5 5 5 5 5 5 5 5 5 5 5 5 5 5 5 5 5 5 5 5 5 5 5 5 5 5 5 5 5 5 5 5 5 5 5 5 5 5 5 5 5 5 5 5 5 5 5 5 5 5 5 5 5 5 5 5 5 5 5 5 5 5 5 5 5 5 5 5 5 5 5 5 5 5 5 5 5 5 5 5 5 5 5 5 5 5 5 5 5 5 5 5 5 5 5 5 5 5 5 5 5 5 5 5 5 5 5 5 5 5 5 5 5 5 5 5 5 5 5 5 5 5 5 5 5 5 5 5 5 5 5 5 5 5 5 5 5 5 5 5 5 5 5 5 5 5 5 5 5 5 5 5 5 5 5 5 5 5 5 5 5 5 5 5 5 5 5 5 5 5 5 5 5 5 5 5 5 5 5 5 5 5 5 5 5 5 5 5 5 5 5 5 5 5 5 5 5 5 5 5 5 5 5 5 5 5 5 5 5 5 5 5 5 5 5 5 5 5 5 5 5 5 5 5 5 5 5 5 5 5 5 5 5 5 5 5 5 5 5 5 5 5 5 5 5 5 5 5 5 5 5 5 5 5 5 5 5 5 5 5 5 5 5 5 5 5 5 5 5 5 5 5 5 5 5 5 5 5 5 5 5 5 5 5 5 5 5 5 5 5 5 5 5 5 5 5 5 5 5 5 5 5 5 5 5 5 5 5 5 5 5 5 5 5 5 5 5 5 5 5 5 5 5 5 5 5 5 5 5 5 5 5 5 5 5 5 5 5 5 5 5 5 5 5 5 5 5 5 5 5 5 5 5 5 5 5 5 5 5 5 5 5 5 5 5 5 5 5 5 5 5 5 5 5 5 5 5 5 5 5 5 5 5 5 5 5 5 5 5 5 5 5 5 5 5 5 5 5 5 5 5 5 5 5 5 5 5 5 5 5 5 5 5 5 5 5 5 5 5 5 5 5 5 5 5 5 5 5 5 5 5 5 5 5 5 5 5 5 5 5 5 5 5 5 5 5 5 5 5 5 5 5 5 5 5 5 5 5 5 5 5 5 5 5 5 5 5 5 5 5 5 5 5 5 5 5 5 5 5 5 5 5 5 5 5 5 5 5 5 5 5 5 5 5 5 5 5 5 5 5 5 5 5 5 5 5 5 5 5 5 5 5 5 5 5 5 5 5 5 5 5 5 5 5 5 5 5 5 5 5 5 5 5 5 5 5 5 5 5 5 5 5 5 5 5 5 5 5 5 5 5 5 5 5 5 5 5 5 5 5 5 5 5 5 5 5 5 5 5 5 5 5 5 5 5 5 5 5 5 5 5 5 5 5 5 5 5 5 5 5 5 5 5 5 5 5 5 5 5 5 5 5 5 5 5 5 5 5 5 5 5 5 5 5 5 5 5 5 5 5 5 5 5 5 5 5 5 5 5 5 5 5 5 5 5 5 5 5 5 5 5 5 5 5 5 5 5 5 5 5 5 5 5 5 5 5 5 5 5 5 5 5 5 5 5 5 5 5 5 5 5 5 5 5 5 5 5 5 5 5 5 5 5 5 5 5 5 5 5 5 5 5 5 5 5 5 5 5 5 5 5 5 5 5 5 5 5 5 5 5 5 5 5 5 5 5 5 5 5 5 5 5 5 5 5 5 5 5 5 5 5 5 5 5 5 5 5 5 5 5 5 5 5 5 5 5 5 5 5 5 5 5 5 5 5 5 5 5 5 5 5 5 5 5 5 5 5 5 5 5 5 5 5 5 5 5 5 5 5 5 5 5 5 5 5 5 5 5 5 5 5 5 5 5 5 5 5 5 5 5 5 5 5 5 5 5 5 5 5 5 5 5 5 5 5 5 5 5 5 5 5 5 5 5 5 5 5 5 5 5 5 5 5 5 5 5 5 5 5 5 5 5 5 5 5 5 5 5 5 5 5 5 5 5 5 5 5 5 5 5 5 5 5 5 5 5 5 5 5 5 5 5 5 5 5 5 5 5 5 5 5 5 5 5 5 5 5 5 5 5 5 5 5 5 5 5 5 5 5 5 5 5 5 5 5 5 5 5 5 5 5 5 5 5 5 5 5 5 5 5 5 5 5 5 5 5 5 5 5 5 5 5 5 5 5 5 5 5 5 5 5 5 5 5 5 5 5 5 5 5 5 5 5 5 5 5 5 5 5 5 5 5 5 5 5 5 5 5 5 5 5 5 5 5 5 5 5 5 5 5 5 5 5 5 5 5 5 5 5 5 5 5 5 5 5 5 5 5 5 5 5 5 5 5 5 5 5 5 5 5 5 5 5 5 5 5 5 5 5 5 5 5 5 5 5 5 5 5 5 5 5 5 5 5 5 5 5 5 5 5 5 5 5 5 5 5 5 5 5 5 5 5 5 5 5 5 5 5 5 5 5 5 5 5 5 5 5 5 5 5 5 5 5 5 5 5 5 5 5 5 5 5 5 5 5 5 5 5 5 5 5 5 5 5 5 5 5 5 5 5 5 5 5 5 5 5 5 5 5 5 5 5 5 5 5 5 5 5 5 5 5 5 5 5 5 5 5 5 5 </DataArray>
</Cells>
<PointData  Scalars=" mean stress"> 
<DataArray  type="Float64"  Name=" mean stress"  format="ascii">2.0532570213877659e+02  5.0318859765982149e-01  2.0598510533648451e+02  6.6078910876720048e-02  1.2188694767980353e+03  -3.7645198385180274e-02  2.4011014957544658e+03  3.5446984420482368e+04  3.5647297039001358e+04  2.4005952803303039e+03  -3.8647321927261835e-02  1.2186807312311514e+03  1.6469616548640669e+01  4.4058855246198220e+01  9.3283496586487800e+01  1.0793236862458541e+02  9.0724699163105427e+01  6.0116031571367763e+01  2.5106955947768885e+01  1.8506207389268206e+00  1.1253759502203101e+02  1.4759536878058850e+02  1.6729392700843110e+02  1.8989967895518703e+02  2.1073392228055766e+02  2.3143825005524806e+02  2.5306490646738234e+02  2.7571045611294892e+02  3.0052015442586764e+02  3.2691080805934604e+02  3.5505392682116383e+02  3.8584541818431433e+02  4.1803769675215142e+02  4.5263130137340238e+02  4.8893464464465364e+02  5.2703043755545832e+02  5.6657882217585086e+02  6.0695110712900942e+02  6.4865558728821679e+02  6.9045977156841195e+02  7.3197469874285582e+02  7.7285440686546451e+02  8.1217398274802576e+02  8.4937126620338347e+02  8.8343415594007331e+02  9.1376515836411829e+02  9.3974711713084628e+02  9.6039042390423185e+02  9.7393009237538263e+02  9.8223980018130646e+02  9.8382031725883701e+02  9.7890380459219614e+02  9.6862903810250384e+02  9.5353128380566068e+02  9.3590680343422946e+02  9.1762544936423797e+02  9.0097372795012689e+02  8.8866159024531214e+02  8.8134015965522849e+02  8.8133548271696679e+02  8.8824734167958979e+02  9.0088617040068402e+02  9.1754937885045683e+02  9.3585251075541885e+02  9.5365219876708250e+02  9.6923920409976517e+02  9.7879542025244530e+02  9.8486665657302478e+02  9.8251057181585873e+02  9.7502419433287889e+02  9.6042726141570790e+02  9.3980895069913765e+02  9.1354836173754882e+02  8.8319237767455377e+02  8.4940328265004280e+02  8.1220223252119990e+02  7.7277448527476906e+02  7.3188726224028665e+02  6.9004377972460463e+02  6.4859282728417713e+02  6.0716856351796912e+02  5.6653009966116872e+02  5.2697463852452336e+02  4.8891110775664140e+02  4.5262106900949840e+02  4.1822241016293486e+02  3.8544256040376081e+02  3.5510920188899655e+02  3.2676479801367776e+02  3.0038399988426789e+02  2.7587118761490814e+02  2.5307654439199933e+02  2.3145624327772740e+02  2.1068120172393560e+02  1.8989808653328114e+02  1.6743310590484722e+02  1.4706036977993108e+02  1.1071214818331242e+02  2.0250700144283358e+00  2.5366499169680043e+01  5.9856143985791547e+01  9.1497101237687019e+01  1.0754314639764254e+02  9.2335981023920297e+01  3.9090326889618431e+01  1.4410284803983764e+01  1.2186655943480723e+03  1.2177057240296565e+03  1.2157838654943671e+03  1.2109808707843931e+03  1.2009101230848544e+03  1.1841609123305484e+03  1.1530462572121658e+03  1.1058732772874132e+03  1.0388938932748069e+03  9.4912664406623730e+02  8.3820379026279159e+02  7.1005971884940720e+02  5.7088631930250813e+02  4.2681567892625691e+02  2.8740737192946358e+02  1.5181567611815385e+02  2.6210252086185260e+01  2.7649300686329859e+01  1.3769625289726096e+02  2.1948339747119562e+02  2.8687700557822905e+02  3.3976615690524505e+02  3.8053077737691456e+02  4.1053146157299892e+02  4.3291691208174694e+02  4.4682698189882950e+02  4.5515152388070885e+02  4.5729356305827304e+02  4.5597200393143578e+02  4.5003284057249073e+02  4.4113326087773902e+02  4.2964923319695316e+02  4.1603809181199568e+02  4.0043539492631112e+02  3.8363990592254657e+02  3.6578759715464162e+02  3.4683259926252333e+02  3.2730952854495945e+02  3.0702539632119704e+02  2.8671525157355018e+02  2.6617662952154728e+02  2.4554600347648631e+02  2.2495200924328640e+02  2.0450697375377430e+02  1.8435543260487967e+02  1.6461668386422613e+02  1.4488908264939980e+02  1.2588320713408471e+02  1.0745824325399444e+02  8.9529030961509662e+01  7.2442383340880511e+01  5.6090740377427259e+01  4.0697590967239520e+01  2.6660722278189223e+01  1.4625524935974370e+01  5.5856716588303019e+00  5.6803586930053607e-01  5.8297016600200491e-01  1.1654991147910405e+03  1.1124347367446794e+03  1.0597915257432485e+03  1.0076773601207001e+03  9.5611360269342742e+02  9.0513829128846362e+02  8.5470768007945867e+02  8.0480655974163324e+02  7.5532621135715283e+02  7.0620455802687616e+02  6.5731657023916284e+02  6.0856444919188766e+02  5.5982623246639980e+02  5.1094414389597227e+02  4.6185113606623639e+02  4.1238787649085475e+02  3.6248101123288234e+02  3.1208820196922738e+02  2.6116177916872715e+02  2.0969492107900521e+02  1.5775140149873337e+02  1.0540272159059467e+02  5.2787746059814886e+01  1.0181291293335002e+00  3.2949652680996677e+00  6.4364684586506060e+00  1.0201625523214846e+01  1.5289982912634914e+01  1.9184860920393181e+01  2.3771814683715071e+01  3.0953615855572799e+01  3.8510817054621519e+01  4.7522031230844433e+01  5.7922024708107131e+01  7.0330080082182619e+01  8.5774166502679819e+01  1.0429155543275874e+02  1.2682507341089887e+02  1.5469480656230502e+02  1.8976877511338776e+02  2.3477340083030629e+02  2.9431786612099040e+02  3.7556131870643077e+02  4.9368904596418366e+02  6.7941918446513841e+02  1.0776200545715403e+03  2.1023433283860350e+03  1.8141089186382067e+03  1.7763049324714716e+03  1.7778814445067305e+03  1.8015826379402588e+03  1.8428849818731194e+03  1.8961733923030233e+03  1.9601230662807316e+03  2.0339667045571823e+03  2.1180462697907592e+03  2.2127420758644889e+03  2.3196882126015266e+03  2.4399181187854892e+03  2.5755099370303578e+03  2.7303144347861949e+03  2.9077527081894382e+03  3.1145794009584474e+03  3.3621729041114691e+03  3.6615399658904780e+03  4.0813302637029665e+03  4.9245161503415684e+03  3.9822075342604394e+03  2.5945998238840231e+04  1.0633829130919303e+04  3.8192518228799581e+03  3.4495967997809221e+03  2.9777595254033358e+03  2.6435276044970406e+03  2.4339810375758057e+03  2.2859845464300906e+03  2.1772769515099671e+03  2.0961855056051745e+03  2.0326649187904040e+03  1.9814228468660635e+03  1.9392038119296019e+03  1.9039035640203547e+03  1.8746274138291369e+03  1.8505933745605469e+03  1.8299674319768458e+03  1.8120934293905393e+03  1.7973973626000382e+03  1.7854628811583141e+03  1.7760856598661578e+03  1.7683749014722116e+03  1.7628226828725758e+03  1.7594221844880949e+03  1.7575096744875170e+03  1.7574500852888123e+03  1.7594546351318838e+03  1.7630377798284205e+03  1.7683273803110321e+03  1.7760855584224746e+03  1.7858954024043801e+03  1.7979712860031520e+03  1.8123987696374420e+03  1.8303355601058222e+03  1.8502777060002993e+03  1.8746283617015067e+03  1.9039545107596643e+03  1.9394832015208704e+03  1.9824221526118838e+03  2.0337343780655322e+03  2.0967093073532315e+03  2.1780884855013587e+03  2.2859820783238247e+03  2.4401724372797948e+03  2.6436714400422561e+03  2.9563420456691606e+03  3.4874609182857389e+03  3.5686686615316762e+03  9.7830090735536014e+03  2.5769099690273863e+04  3.9647834495157931e+03  4.9494896510454182e+03  4.0669038726865087e+03  3.6563321108723962e+03  3.3605466859482231e+03  3.1127334451109336e+03  2.9063079376910409e+03  2.7289229082235056e+03  2.5748327074706895e+03  2.4384483566479416e+03  2.3185188224384619e+03  2.2119732789060627e+03  2.1171774277570444e+03  2.0330343946462369e+03  1.9594443644114731e+03  1.8955838048755522e+03  1.8422195019617329e+03  1.8013197338427383e+03  1.7762995194005782e+03  1.7751445407098386e+03  1.8139831156910091e+03  2.1088963910748084e+03  1.0938727912096551e+03  6.8512784966037555e+02  4.9265417497608189e+02  3.7517211966844036e+02  2.9398658624555219e+02  2.3454285253553132e+02  1.8976300017863630e+02  1.5480265585145594e+02  1.2685504255231905e+02  1.0494368753895959e+02  8.6137650106139120e+01  7.0586540700153876e+01  5.8066198395987783e+01  4.7335421464961648e+01  3.8297183255986681e+01  3.0574359840355044e+01  2.3993582745883241e+01  1.8482052492499943e+01  1.4298277250849546e+01  1.0377961103914226e+01  6.4658481994009289e+00  3.2840277644569671e+00  1.0171620630488605e+00  5.2785410596398997e+01  1.0538840446020218e+02  1.5773607825351985e+02  2.0968224036270948e+02  2.6113995768636346e+02  3.1206418671268273e+02  3.6245208947407815e+02  4.1234336445603662e+02  4.6179078292784789e+02  5.1089281467568367e+02  5.5976834016513203e+02  6.0851718615227128e+02  6.5727014040353413e+02  7.0613128364205420e+02  7.5523279776862171e+02  8.0471005116829951e+02  8.5462248387137015e+02  9.0503267991470409e+02  9.5600831585601077e+02  1.0075778704387862e+03  1.0596745986727346e+03  1.1122939764491709e+03  1.1653824732541671e+03  6.3923535915134921e-01  6.2277495259056059e-01  5.3495065797508037e+00  1.4630910934649002e+01  2.6363151349859272e+01  4.0346211545917804e+01  5.5893639134410023e+01  7.2225006679456087e+01  8.9497644419437933e+01  1.0747221160027330e+02  1.2601005669111292e+02  1.4498161232844001e+02  1.6461554846720290e+02  1.8421804626650820e+02  2.0461957331911660e+02  2.2495537021683293e+02  2.4547102510174545e+02  2.6610004799124175e+02  2.8666511358424441e+02  3.0704799948255305e+02  3.2717184039430185e+02  3.4673146070672789e+02  3.6567247859858219e+02  3.8372284746783185e+02  4.0060624117753287e+02  4.1605873019635953e+02  4.2965845279329665e+02  4.4113609218951405e+02  4.4995555743114272e+02  4.5558338860033791e+02  4.5741651146145864e+02  4.5474394612067243e+02  4.4677089006897035e+02  4.3222245193278724e+02  4.1038184139977710e+02  3.7879457790713855e+02  3.3816938260821911e+02  2.8647348579647155e+02  2.2049037857289164e+02  1.3623543624478827e+02  2.6775046678658544e+01  2.6036156952829604e+01  1.5386487743669591e+02  2.8750671748535336e+02  4.2916829087835146e+02  5.7140532121073204e+02  7.0903839859787320e+02  8.3671245015898864e+02  9.4987303653393997e+02  1.0394020481113128e+03  1.1064506352099527e+03  1.1529788609532436e+03  1.1829407864678371e+03  1.2010987748900397e+03  1.2108188114173579e+03  1.2155048211220605e+03  1.2175291160157894e+03  1.2186247906237761e+03  3.7975538506958890e+02  3.8141432367913984e+02  2.2440372220456065e+04  2.5750991254675141e+03  2.0231110499947486e+03  2.0174574997071295e+03  2.4533742309629347e+03  2.3759805092930354e+04  5.7794327313432668e+03  2.2680983497516622e+03  1.8032019427539922e+03  5.7100309774349107e+03  2.2458442283069307e+03  1.8076321441937309e+03  2.6217116763497097e+02  2.5997162772813027e+02  8.4630147633870115e+02  8.4618832856009840e+02  3.6504155323049793e+02  3.6728444278276061e+02  9.8527386610019971e+02  9.8590944485479190e+02  1.0325062780202572e+03  2.9867838355002704e+02  2.1138539924334881e+02  2.9923136976827249e+02  2.1157016125597806e+02  1.0327502904368059e+03  3.4295114627426160e+03  2.1908726907758210e+03  2.0342686584253172e+03  2.1554904204255881e+03  2.9997756291805927e+03  3.0036767320147164e+03  1.4876092492431493e+02  4.1709884988307510e+02  1.4802053757360466e+02  4.3348691030309078e+02  6.6459286378873367e+02  6.6068695919948311e+02  1.6230355308946571e+02  1.6276146778079470e+02  4.7378034460926239e+02  4.7147657693359736e+02  3.2057839316879762e+02  3.2098879288196775e+02  5.8471679735328871e+02  5.8944629421581658e+02  1.4345602650347359e+02  1.4119007296461547e+02  1.0377521587524836e+03  3.4268947045277050e+03  6.6043834175096549e+01  6.6448646668238126e+01  1.9293707718779340e+03  1.9287381620447800e+03  5.0037581390917552e+02  4.9939127595788875e+02  3.9424237058634850e+02  3.8750491571488521e+02  8.0427932729565225e+02  8.0565256889143882e+02  1.1599998581740181e+03  1.1634921991855549e+03  2.7226034406884414e+03  4.5306152133600392e+01  4.4404189401334335e+01  7.9002915637691871e+01  7.7675960687736620e+01  3.8785845432708481e+02  3.9449126730229119e+02  2.5267351962344071e+02  2.5314275276236836e+02  1.0348135025128865e+03  1.0356891249894811e+03  7.3431312739291184e+02  7.2705963855814673e+02  4.1108593728861202e+01  3.9126359056259467e+01  8.7986398734661736e+02  8.8110148207642192e+02  6.7974109596343908e+01  6.8728012322516747e+01  2.3578870237555836e+02  2.3394183268525623e+02  1.0945384723522309e+03  1.0929195174317481e+03  1.9853410031379516e+02  1.9857445626136936e+02  3.3601583668471640e+01  3.2245695400337645e+01  4.9379411284428452e+03  9.5390825581105548e+02  9.4938158302489319e+02  2.9687734173301857e+02  2.9507591470722673e+02  1.7440251927694715e+02  1.7766838785645854e+02  3.3011037592223749e+02  3.2813287072836141e+02  4.8430788384217367e+03  7.8253928967224215e+02  1.0812859526365474e+02  1.0658618310197443e+02  1.7612950180995526e+02  1.7412573401870779e+02  7.7805003567705546e+02  2.6378546105689247e+02  2.6098721670823102e+02  3.4389520184887073e+02  3.3391817182739464e+02  9.4592088054799399e+02  4.0674284775474428e+02  4.0651016236471287e+02  9.3987633988966547e+02  1.0237158934329757e+03  5.9049398435207195e+02  5.8365214670036005e+02  1.0235202348518374e+03  1.0365974119366970e+03  1.0513646690865532e+03  5.7745937751608018e+01  5.6645152441986163e+01  4.8676924188311142e+02  4.8492100910609184e+02  2.3627188514483310e+03  2.8985030598475341e+03  5.1419451408762235e+01  9.0686844243889027e+01  5.2572655633615618e+01  9.1673321439046958e+01  2.1691446616089243e+03  2.0317600883565599e+03  1.9960792974025906e+03  2.0878657006348667e+03  2.1671364710545417e+03  2.1737529382363147e+02  2.1725860204939343e+02  3.8782910643962591e+03  3.9151674330991150e+03  2.6549131165843164e+03  2.6469864433752364e+03  2.0759879503461621e+03  1.8250200125661408e+03  2.0736905477697173e+03  1.8243678943903451e+03  2.2395688732834674e+03  2.2483244663811111e+03  2.0277469266340287e+01  2.1600684523120258e+01  7.9442966256678673e+01  7.5207671517172500e+01  9.7733568042933655e+02  9.8166242160071522e+02  7.8332683094244931e+03  7.8614662544722396e+03  1.3189429735957881e+02  1.2937236860042648e+02  1.6663123506486315e+02  1.6736315322002801e+02  1.0909438494299743e+03  1.0941938653414813e+03  1.1051466493734076e+03  1.0886655403187262e+03  3.5235639032072939e+01  3.5381324771447154e+01  3.8064286294831754e+03  4.0560759776698146e+03  2.9465927814063662e+00  3.3855372363430969e+00  1.1001917156226118e+03  1.0020277710184808e+03  9.8672893035161690e+02  9.0028023801570657e+02  8.9063559951105299e+02  8.2046361550654012e+02  8.1278223094751365e+02  7.4410307074452112e+02  7.4727288635231491e+02  6.8340425225517754e+02  6.9417134134284254e+02  6.3377001834063879e+02  6.4796149067436374e+02  6.1924763927154481e+02  5.7185019308966901e+02  5.5766092239033730e+02  5.1234978321054496e+02  4.9824949172770056e+02  5.4353861875003690e+02  7.0568573585210515e+02  6.7622622531850129e+02  4.5202452169178537e+02  4.6954751069079663e+02  4.3943730497179132e+02  7.2222218320228296e+02  7.0171702189237442e+02  7.4310923387856599e+02  7.3306182119178959e+02  6.9309669816017708e+02  7.3764087173828295e+02  7.6783597560699457e+02  7.8627276168696380e+02  8.0655697864532817e+02  8.3314438192036880e+02  8.4325131735699506e+02  8.8573168494858930e+02  8.7680562259203180e+02  9.2929763535485449e+02  9.0482701988835993e+02  9.6271762198909903e+02  1.0003325830316413e+03  1.0322113365962718e+03  1.0836577178678549e+03  1.1096021473577753e+03  1.1666673469792343e+03  1.1878388446070735e+03  1.2589558977236786e+03  1.2643143125689514e+03  1.3473549890576585e+03  1.3315182682481723e+03  1.4131616702351637e+03  1.3852381569599140e+03  1.4659318789221254e+03  1.4220409062010756e+03  1.5043850073632063e+03  1.4411953869536701e+03  1.5142288177051462e+03  1.4411606535516814e+03  1.4973828029260028e+03  1.4128243226798579e+03  1.4529032322579485e+03  1.3588894893317536e+03  1.3807414485012885e+03  1.2820416983911609e+03  1.2793429676674243e+03  1.1893134712418173e+03  1.1967578705589306e+03  1.1094690973887898e+03  1.0890340853822051e+03  1.0156926641710493e+03  9.8480483525741840e+02  9.3028999064171092e+02  9.0235508670898469e+02  8.6432906759104662e+02  8.5192612498219739e+02  8.2216768025606245e+02  8.3717981368973392e+02  8.0723910161357674e+02  8.5337417382908632e+02  8.1726863411983015e+02  8.9298197987709079e+02  8.4557598982535478e+02  9.4318053427778386e+02  8.8300359755831664e+02  9.9473913192726104e+02  9.2688544392393021e+02  1.0441095893108245e+03  9.7004186160452502e+02  1.0874250211854173e+03  1.0074321991896371e+03  1.1295355154179485e+03  1.0386588155243658e+03  1.2403720127362085e+03  1.2662436484780437e+03  1.3893404385341589e+03  1.4078821551850210e+03  1.5485358521838882e+03  1.5542056660254950e+03  1.7083740239169583e+03  1.6968549182705965e+03  1.8614340401953264e+03  1.8322308832212238e+03  2.0052248136439307e+03  1.6748145361855529e+03  8.8661749913873155e+02  1.9593294123831085e+03  2.1418120188790836e+03  2.0758439862946948e+03  2.2542013644828708e+03  2.1783185085678824e+03  2.3563982225818404e+03  7.8062285647227520e+02  2.2674222418517643e+03  2.4350528635387855e+03  2.3437214058596292e+03  2.5064627243239229e+03  2.1974945528340349e+03  2.3992716336334452e+03  2.5572853232834545e+03  2.4493472199160356e+03  2.5918345078823477e+03  2.7134014062831607e+03  2.7336006236291646e+03  2.8655511471210234e+03  2.8681895150952791e+03  3.0050875630128603e+03  2.9923203477390939e+03  3.1299966589907567e+03  3.1045741081470678e+03  2.9710399459896125e+03  3.0687651359660003e+03  3.2037589185048369e+03  3.1542086155904331e+03  3.2875298231433976e+03  3.2251598855679813e+03  3.3563712144022552e+03  3.2809418407014755e+03  3.4086373780196645e+03  3.3207386366223650e+03  3.1980919461235376e+03  3.2267129569930994e+03  3.3466034460080323e+03  3.2411327316811239e+03  3.3544853541369753e+03  3.2401549565287255e+03  3.3460493692044734e+03  3.2226746671373458e+03  3.3231093949016808e+03  3.1901726968225485e+03  3.2864857568333841e+03  3.1425594937228821e+03  3.2279716253253778e+03  3.0842299709596655e+03  3.1430424748919518e+03  3.0052634213772408e+03  3.0534497154562659e+03  2.9094223271051292e+03  2.9492782604501213e+03  2.8025576258133174e+03  2.8369096335983581e+03  2.6841874417881563e+03  2.7049570318205992e+03  2.5530749216168410e+03  2.5605286640416648e+03  2.4111398265242551e+03  2.4019678761781556e+03  2.2578612481900350e+03  2.2326857053969788e+03  2.0978911245343720e+03  2.0571861831310889e+03  1.9345317522028245e+03  1.8768332533275800e+03  1.7708125256723247e+03  1.6989104849101236e+03  1.6038791603959814e+03  2.2723522102783913e+03  2.8668058703285051e+03  3.1227384256694463e+03  1.5237662167464507e+03  1.4428417033831238e+03  1.5203539144229346e+03  1.3695884136075024e+03  1.2896262924536854e+03  1.2286362259233281e+03  1.4442597473351098e+03  1.1454339072111563e+03  1.0980997522841089e+03  1.0152472722583379e+03  9.7840721309006767e+02  9.0286067888809430e+02  8.5661940671350192e+02  2.4764933277319519e+03  9.2781061999110977e+02  1.0369127494939232e+03  2.9387606689095569e+03  8.2437989473814650e+02  8.4076028329753603e+02  7.4714863305881522e+02  7.5298353039198025e+02  9.4013419583473649e+02  8.3956747082894697e+02  9.0611388512456153e+02  8.0718886187341070e+02  8.6977093456935893e+02  7.7439285060464658e+02  8.3123205457553502e+02  7.4150779492666993e+02  6.8703036249586899e+02  6.5920331457816872e+02  6.0674244121807465e+02  5.8334789616398905e+02  5.3308843952675807e+02  5.1376145793981061e+02  3.4522878858861986e+03  2.9829948682714448e+03  4.6605332172766293e+02  4.4995196783425337e+02  3.4881522615980489e+03  7.0891972428266035e+02  2.3457348002705708e+03  4.0496049348007313e+02  3.9148234713162634e+02  4.3480812031743409e+02  3.7860932757785218e+02  9.4872099617148126e+02  6.7635324150315648e+02  2.3823890409790397e+03  3.3738409136754103e+02  3.2745268418159401e+02  1.3730095323873800e+03  1.1868675862735652e+03  2.8764092906839079e+02  2.8123920112250420e+02  4.2007698441493318e+02  1.6218822605788457e+03  2.4291957296300816e+02  2.3999070795860570e+02  6.7714302429525765e+02  6.1730858219487970e+02  2.0370063325826899e+02  2.0391220620367702e+02  2.3863952268588801e+02  2.0502381508529990e+02  2.3827041588598237e+02  2.0679381263696186e+02  1.7535653534453473e+02  1.8029384614871898e+02  1.5091186627442610e+02  1.5892083016099585e+02  6.2562895722162034e+02  5.7373324827048589e+02  2.1107906402917305e+02  1.3172655576087436e+02  2.0501471662419488e+02  1.4214951659811427e+02  5.9225116857859075e+02  6.4277959426881841e+02  5.4653464625207118e+02  6.2111545420394134e+02  6.6141952309513181e+02  6.5679319596699986e+02  6.8925750947557106e+02  1.1778638696957023e+02  9.3854057557472072e+02  7.0267855138158166e+02  7.3248554841500493e+02  7.6099652919017672e+02  7.2837517818145432e+02  7.9214348116411429e+02  1.2998622771815059e+02  8.3290131053064636e+02  8.6810241579015178e+02  8.1573261537132930e+02  9.1364970882067553e+02  9.5895310714295056e+02  1.0994666696266940e+02  1.0025929091198084e+03  1.0601350889698178e+03  1.0921708983745771e+03  1.0209319515786943e+03  1.2186573815911821e+02  1.4170450529211882e+02  1.0726157431168023e+02  1.1639232724687090e+03  1.1199861243921280e+03  1.1764155438019038e+03  1.0702291876282993e+02  3.1084555509878442e+03  3.2997075632949782e+03  1.2346574187889139e+03  1.1825211961055429e+03  1.3113358599469274e+02  1.5272274228592255e+02  1.8738141101771644e+03  3.1463729457212407e+03  1.4956753379110405e+03  1.3062369849744812e+03  1.2423408898734529e+03  9.9141239684184245e+02  2.3234124246132701e+03  2.3665711787491023e+03  2.2338551526692827e+03  2.2646525580563807e+03  2.1362247332104480e+03  2.1654056574003080e+03  2.0418588348937769e+03  2.0706785244408852e+03  1.9529451854119147e+03  1.9793592947526386e+03  1.8651017653131810e+03  1.8288512269776948e+03  1.7497819515681094e+03  1.7074505599841170e+03  1.6362703707420658e+03  1.5869867973850548e+03  1.5238054337214546e+03  1.4705636298526704e+03  1.4146970392821866e+03  1.3594807674779372e+03  1.3100365453501709e+03  1.2527053242998820e+03  1.2091995991508684e+03  1.1494626538688660e+03  1.1120955159083335e+03  1.0513929696672899e+03  1.0196771504578566e+03  9.5999150877108650e+02  9.8629804156231182e+02  8.9699273038558340e+02  9.1797025114804239e+02  8.2754825043164715e+02  8.1318503712754864e+02  7.4974129359565461e+02  7.5828638829991189e+02  6.8526610041991682e+02  6.8979498251485268e+02  6.2177903523159887e+02  6.2283907606584512e+02  5.5800563138109123e+02  5.5410198961236722e+02  4.9579611700034343e+02  4.8813775453895647e+02  4.3461857571068930e+02  4.4741567973363959e+02  3.8722574538241935e+02  3.9622101703997959e+02  3.4436275844689169e+02  3.5523029654473942e+02  3.0721378055502373e+02  4.2547699542479688e+02  3.2166868589815374e+02  2.7471840685140904e+02  2.9112171858588829e+02  2.4812416006120139e+02  2.6386719552270665e+02  2.2725618881801404e+02  2.6090348775990759e+02  2.4303624876048787e+02  2.0964669190736183e+02  7.3703983540978641e+02  2.2631835918125108e+02  1.9649408602846364e+02  1.7914250735242445e+02  1.6975046414945550e+02  1.8643471206057620e+02  1.6248294189353282e+02  1.7849213108154771e+02  1.5686686205582086e+02  1.7183548076171630e+02  1.8914772034931593e+03  1.9930408459990376e+03  1.5244739080090392e+02  1.9088271568672594e+03  2.0035768579967846e+03  3.0757293065451194e+02  1.4797403182589994e+03  1.5174055564031264e+02  1.6597428935152115e+02  1.9149690814549863e+03  2.0101946559518108e+03  1.9137074794589032e+03  1.9997076707037770e+03  1.0762057128694869e+03  4.7839767206532213e+02  4.1469225807923465e+02  6.9249205142262474e+02  1.9452453185421643e+02  1.4682518386454467e+02  1.6014584666780914e+02  1.3444456128040218e+02  4.6592345972113895e+02  4.0252630309824679e+02  1.3107350011442242e+02  1.2139643852945781e+02  1.9028073027454509e+03  1.9799620649287556e+03  1.8238314056381798e+03  1.5941483315376879e+03  4.5201149788761091e+02  3.8919312178003958e+02  1.3951109321682239e+02  1.6243756915840240e+02  1.4104334405417674e+03  5.2413957544367611e+02  4.9983489261655910e+02  4.3724745758502178e+02  3.7597846613034028e+02  3.3247192318552658e+02  3.2076738786256442e+02  2.8021773697792906e+02  2.7049943047816890e+02  2.3167256718769517e+02  3.1155146848568506e+02  2.6528370200176204e+02  3.0699583310295850e+02  2.6533138077207934e+02  3.0852025850664950e+02  5.0329531918798870e+02  1.3848477922488730e+03  1.4274461241859656e+03  1.3010519224774030e+03  4.7364220595129370e+02  4.5293026731864660e+02  4.2519661269328350e+02  4.0481977235114897e+02  1.1980067302792925e+02  1.1362270201605480e+02  2.7081984159299418e+02  3.1674306114233121e+02  2.2755063033754263e+02  3.7667907650315658e+02  3.5631160137448217e+02  3.8973267414715389e+02  3.3976868285470715e+02  3.0817789822687467e+02  2.9043976408634620e+02  2.6081408618647640e+02  1.4810323955434285e+02  1.2962899520309833e+02  1.8795438722991771e+03  1.9491237589901305e+03  2.0499294124429816e+03  2.0103422787222028e+03  2.1096225441005954e+03  2.0579263220414782e+03  2.1562808665555408e+03  2.0951572107699672e+03  2.1900244755185440e+03  2.1153345673749000e+03  2.2079423850222138e+03  2.1243619687571236e+03  2.2113862697156633e+03  2.1195670551431385e+03  2.1998681452879146e+03  2.1015512184903664e+03  2.1736070464498184e+03  2.0701491173673799e+03  2.1333817049124773e+03  2.0250534104739079e+03  2.0798903361344755e+03  1.9684312777744415e+03  1.9195523043175517e+03  1.8606910333959629e+03  1.9007698567987284e+03  1.7922841332269820e+03  1.8241358939046415e+03  1.7150004294696748e+03  1.6876311590953580e+03  1.6115332238004862e+03  1.6327532528691404e+03  1.5268371413245379e+03  1.5114304594484772e+03  1.4296252608742211e+03  2.0298976271077008e+03  2.0301188720937037e+03  1.4295074620973494e+03  1.3394171392501457e+03  1.5286557289622544e+03  1.5383369869100002e+03  1.7115486214458934e+02  1.8884226952220126e+02  1.3408514930632266e+03  1.2554678911954329e+03  1.2469071575466185e+03  1.1690164972824480e+03  3.5299634581633859e+02  3.6359683068540716e+02  3.3046884533764205e+02  3.8069487494129237e+02  2.4276455100904590e+02  2.1540538331166886e+02  1.5598913153462840e+02  4.1152760844065284e+02  4.3204705311746972e+02  1.6507109491139249e+03  1.6262517309570808e+03  1.9101316651855695e+03  1.4480698217570466e+03  1.1328376808755033e+02  1.1690437809082843e+02  3.7653788312318676e+02  1.1734488635690263e+03  1.0940232574865486e+03  1.0824126089487179e+03  1.0142274065399623e+03  9.3031695431291348e+02  9.9809962083063215e+02  9.3555357669819091e+02  4.6130392374861424e+02  4.8591499701189133e+02  4.5634069627559427e+02  5.1276538627685363e+02  9.1746897235021822e+02  8.5871067337153386e+02  8.7799234553949998e+02  8.0644434214327021e+02  1.9824762284094979e+02  1.7252944047220944e+02  7.8370008929174378e+02  7.3742241554790883e+02  1.1082582539429799e+02  1.1092695565529482e+02  1.0877279599624909e+02  1.9802335873226403e+02  2.1815097346762875e+02  1.7498020915208749e+03  1.6883068508504618e+03  1.7893745703141076e+03  1.1518525302491316e+03  1.1822778985310010e+03  1.0501882873102918e+03  1.0601276587469688e+03  9.7315633294477811e+02  1.0019239071917300e+03  9.7296795032387558e+02  1.0747989545964335e+03  1.0761939935213979e+03  1.3007010442913279e+03  1.2652322165063395e+03  1.5277120919109650e+03  1.4811837942313898e+03  1.7807762145243023e+03  1.8863099711369121e+03  2.1227105564664371e+03  2.3090770651332923e+03  2.5079184381287660e+03  2.7611591310829353e+03  2.9215716224259986e+03  3.2114439982793865e+03  3.2930376037626852e+03  3.6140498882984834e+03  3.6144306398962331e+03  3.9303413777340720e+03  3.8702988899173902e+03  4.1492902604659121e+03  4.0559734684049436e+03  4.2792738899094711e+03  4.1780900036935036e+03  4.3455893045929788e+03  4.2515622112147239e+03  4.3670080351963034e+03  4.2874588314621969e+03  4.3608947024904792e+03  4.2997474066710483e+03  4.3384644765635394e+03  4.2963166758429788e+03  4.3083822770879997e+03  4.2848988759815284e+03  4.2753405287708965e+03  4.2689518946474445e+03  4.2484546568561545e+03  4.2526171838797782e+03  4.2206391395994033e+03  4.2370862120926531e+03  4.1997056440697925e+03  4.2258834161724953e+03  4.1853911079744794e+03  4.2151113489767922e+03  4.1787079734732370e+03  4.2113015278850089e+03  4.1655279635430861e+03  4.2104463059433256e+03  4.1730074323865465e+03  4.2158260735910872e+03  4.1843679636360630e+03  4.2163982035170129e+03  4.1940042464212702e+03  4.2211924240676608e+03  4.2063560491301296e+03  4.2248264796611820e+03  4.2187871284124076e+03  4.2254303214327447e+03  4.2288227883454738e+03  3.9733624209853297e+03  4.2205773943716013e+03  4.2321507746841507e+03  4.2518927374574268e+03  4.2084962228082286e+03  4.2270587673575073e+03  4.2391318955103825e+03  4.2433301785197655e+03  4.2091548156839453e+03  4.2337595652501595e+03  4.1744480506622649e+03  4.2039966197868798e+03  4.1194918289722964e+03  4.1485437285220723e+03  4.2401372601372632e+03  4.1850940872325982e+03  3.0437221708676925e+03  4.2379211845492382e+03  4.0470610629491730e+03  4.0911571838023988e+03  4.2147483343860358e+03  4.1161939596832581e+03  4.1789467450049178e+03  2.0209049954637148e+03  4.2268694257184179e+03  4.2430101839617664e+03  4.2228706688663706e+03  4.0903698484354377e+03  3.9662535861906013e+03  3.9723442153301253e+03  4.1433153189537070e+03  3.9765118225855986e+03  4.1161834417687714e+03  3.7802684001602961e+03  3.7461645396429681e+03  6.9908352623414453e+02  4.1170298547576049e+03  4.1751904532775934e+03  4.1857434349344549e+03  4.2028963215629065e+03  2.4738591974927976e+03  3.5443681243462215e+03  3.4575509392536883e+03  1.2424358983025834e+03  4.3161089996829578e+03  4.8002156432853349e+02  5.3966586023518039e+02  5.7187138686513754e+02  6.0191720396545452e+02  1.0653590654954419e+03  4.4562160217320798e+03  3.9789017578594635e+03  1.5836269181330496e+02  1.3380369659191695e+02  7.1181204853817098e+02  6.7125606352667796e+02  6.9691549621807428e+02  6.3637419759126203e+02  6.0799795970845526e+02  5.7855506959244167e+02  9.8730012053184157e+02  1.0414824165633095e+03  9.5535022274916867e+02  1.0060004721743838e+03  9.2433709399692327e+02  1.8078655966346616e+03  1.7187004387377724e+03  1.6144385364830014e+03  1.6180618823818147e+03  1.5254822971613812e+03  1.5087733727035759e+03  1.4291143529111480e+03  1.3942931837324131e+03  1.3315137121285873e+03  1.2759980902314499e+03  1.2383695813424397e+03  1.1711560579734107e+03  1.1446275109550093e+03  1.0811270911007434e+03  1.0971238073602231e+03  1.0545155178762009e+03  1.1070258350196746e+03  1.0973087320947352e+03  6.3278977532364445e+02  6.6608168206436073e+02  5.4834762544294585e+02  5.2367425327311548e+02  1.0956161548232966e+02  1.0560050446551212e+02  2.1938619115490947e+03  6.2737465222954688e+02  6.9194672161329709e+02  1.2768066650755871e+02  1.0230586242514751e+02  9.7058516768342849e+02  1.0526451140472727e+03  8.9531442583008823e+02  8.1887594029431943e+02  1.1283667608814990e+03  2.2717782764020944e+02  2.4970084214803728e+02  2.2587395892055620e+03  2.2880536256514003e+02  5.5508792425146453e+02  5.0414656758475462e+02  3.2656355168793043e+03  3.3624917284517364e+03  3.1398302709831014e+03  3.3299838250761895e+03  2.9658396705763198e+03  3.1534477341175652e+03  2.7446627388601974e+03  2.8671824009379866e+03  2.6181222214662334e+03  1.0130515925963695e+03  1.0090806897547164e+03  1.8322431773092064e+03  2.1091915131613951e+03  2.4596036198492038e+03  2.5583529438036817e+03  3.0135043245050738e+03  2.6805937599522276e+03  3.2259632350450415e+03  2.7914202857133987e+03  2.2726801018794195e+03  2.2582745400377698e+03  2.3632987102282516e+02  1.0194914235967125e+03  1.0590333435771693e+03  4.7154234319652244e+02  4.5678511639402177e+02  2.2977938716746335e+03  9.7945748603540574e+02  3.9934908784311585e+02  1.8366385085175114e+03  1.7517715791881894e+03  1.0964309908937626e+02  1.0481285381257938e+02  4.8762734759355908e+02  5.5651764652305860e+02  5.4117987698139200e+02  6.1262210938405462e+02  1.0056248496706347e+03  1.0944109122681759e+03  6.4374523077358651e+02  7.0853533710141608e+02  7.5891219968323742e+02  7.7492168240640706e+02  1.0777361182431586e+02  8.1558273708468235e+01  1.4698206903125752e+03  5.9608456702522119e+02  6.7305854584973906e+02  6.7267950122950015e+02  9.4393925406701828e+02  9.2703913539377265e+02  2.5785491016675155e+02  2.3685048786276107e+02  2.8256243470511197e+02  5.3718925973993350e+02  3.4464794305120404e+03  8.2770712387435708e+02  8.4123317811249228e+02  7.7881147779325147e+02  8.4038113384081578e+02  9.0614702228231704e+02  9.0032771242214062e+02  6.9026062523329756e+02  7.5773973666948802e+02  7.7361612609363306e+02  8.4949622508332993e+02  8.6102759004585437e+02  9.4616015358244715e+02  9.5094047619172682e+02  1.0446873109692694e+03  1.0429062198447202e+03  1.1453987555980600e+03  1.4495131005387796e+03  1.3832483858406486e+03  1.5139129816591842e+03  3.0964758113388330e+03  3.2008903828347284e+03  4.0414368127836809e+02  4.2303947412781304e+02  1.0035375069185775e+03  8.9389434761619395e+02  8.5731139488956353e+02  8.1278830411828847e+02  8.0226968433726074e+02  7.5551405075524269e+02  9.7581313184369537e+02  1.0087449335650086e+03  1.0237132682368811e+02  7.3841160349366021e+01  5.4938467648197268e+01  4.5452922075517932e+01  8.3002661871457590e+01  5.9468369330855509e+01  1.6886712713575204e+01  4.1336564829289500e+01  7.8924335644735578e+01  6.3475037479745261e+01  8.4898264366360422e+02  1.1201547560751040e+02  1.1461222973810584e+02  1.0761767475193282e+02  9.7705027938095597e+01  1.0118340310459163e+02  8.8831711907477626e+01  9.3214685609004562e+01  7.6994732357829221e+01  8.3219194957014821e+01  6.3259358140684505e+01  7.1437027493903372e+01  4.7715373679608703e+01  5.8321787794910307e+01  2.8449630884494066e+01  4.6831481248509910e+01  3.6552681019393255e+01  2.3467133837131914e+01  5.0987319521517939e+01  3.9461078501633864e+02  3.8372482667018579e+02  1.0499433107540110e+03  1.1314005652407761e+03  1.2064498148971547e+03  1.2372743726843780e+03  7.5132064526667000e+02  6.9679869402835004e+02  7.1996601621214700e+02  6.6650271248918216e+02  1.3608102403823256e+02  6.3141955408726574e+02  5.9783170797542050e+02  6.5113673141671325e+02  5.9827047673551488e+02  6.5237439075449890e+02  6.0440936572471571e+02  5.4687501266446588e+02  5.5596161543740584e+02  4.9646066562632871e+02  5.0942487398837829e+02  5.7095773110544144e+02  5.2723538750852435e+02  5.8857251563224020e+02  4.6620717510868803e+02  4.8559396889396987e+02  4.2582798719467178e+02  2.4297884075216587e+02  8.4841780012991569e+02  8.2492292635575086e+02  7.7779195954154670e+02  7.6382943306344282e+02  7.1434327413379731e+02  7.0786085510756391e+02  6.5608540777495386e+02  6.5210070805246880e+02  6.0394188222076377e+02  6.0765862432698304e+02  5.5959392452326585e+02  8.1529486432248177e+02  5.6751094638498080e+02  5.2031580489393639e+02  5.5183883757581475e+02  9.9278761473364568e+01  8.4181779600731488e+01  8.9580498114847472e+01  1.6608323837711619e+03  1.6746422414856991e+02  9.2415781102932635e+02  9.4971600509937969e+02  7.7005441431626150e+02  5.3232391093816329e+02  4.8691611984040514e+02  6.5285653286618253e+02  2.9028027106670959e+02  3.1630406581681069e+02  4.4592652583393152e+02  3.8740460071565923e+02  3.6719876814447707e+02  3.2891993405333750e+02  1.1573472157963312e+02  5.0322029347181251e+02  4.5784857502087738e+02  3.8137019581166683e+03  4.1884230958301914e+03  9.6744234283437868e+02  9.5560618297259009e+02  1.1518073242831233e+03  1.3054039449570530e+03  9.5058821009273095e+02  4.4283670451286969e+02  4.1578994446345206e+02  4.3203924575609335e+02  3.9186297983015470e+02  4.0908169160064426e+02  3.7036809515457981e+02  4.3616945956450927e+03  4.8339223129419115e+03  4.7547689817152459e+03  1.1353682965555845e+03  1.2452548044032408e+03  5.5336034751948546e+02  5.1156009156235841e+03  4.8960962965322078e+03  5.8020267981356756e+02  2.9382138275403736e+03  3.0462136916492368e+03  1.9579435447292897e+02  2.3894015786762670e+03  2.4241708519729539e+02  8.5987735472395605e+02  3.8887364802040651e+02  3.5116211751961504e+02  1.1668110729597720e+02  1.0148439393843320e+02  6.3215335484003856e+02  2.0935923405038272e+02  9.3907168247704851e+02  3.5116468116998476e+02  2.9565159845095582e+02  3.3699153182130419e+02  3.2840217806633711e+02  3.7427591444465344e+02  3.2163549541481098e+02  3.5446873170573230e+02  3.0830270686823724e+02  5.0310982984620632e+03  4.8349810244591918e+03  1.0512818677064088e+03  8.6508360489059964e+02  8.8338159107254569e+02  1.6704478706368783e+02  3.6639471346854248e+02  2.0823128361152121e+03  1.9322118468435981e+03  1.9453493713129485e+03  2.0545181597144997e+03  2.0524922671297936e+03  2.1813546541049868e+03  1.9354487498089320e+03  2.0213860729695000e+03  1.9089699344245989e+03  1.0804111201934943e+03  1.1582560942151781e+03  1.2193273907467230e+03  1.2403943735792559e+03  1.3088688926072357e+03  1.3255807250722585e+03  3.2848519954239005e+03  3.1284061084698001e+03  3.3457949823449862e+03  3.1905260384370640e+03  3.3747399479075484e+03  3.2330870389587849e+03  3.4153038803245940e+03  2.8451923283874909e+00  6.5430637930370995e+02  1.2532930176059422e+03  1.3332860629885879e+03  4.1306153167538849e+02  3.7953272004164972e+02  3.8915141146994478e+02  1.3678520042177561e+03  1.3074264899932459e+02  1.1545931871224303e+02  2.6002544939227932e+03  4.8898936009509453e+02  5.6578785447774760e+02  6.1112919098816815e+02  1.0073310360028582e+03  3.6968409583263167e+02  3.3373052318964278e+02  9.2344570319873569e+01  1.0597214773214731e+02  1.2654004922278490e+02  1.1634747916322735e+02  4.7988609013648702e+03  4.6774397714010174e+03  8.0208609233238633e+01  9.2512656525838008e+02  3.2641950165469598e+03  3.4376682976837178e+03  7.0769395718084934e+02  1.4087516507275814e+03  1.5544450484604804e+03  1.7304262879992252e+03  1.8514907474875877e+03  2.1458387741905326e+03  2.1376094251864624e+03  2.4485378554060999e+03  2.3363745657752097e+03  2.6237893658475314e+03  2.4362037702890448e+03  2.2265344053264921e+03  2.2804258908886509e+03  2.4415329433340298e+03  2.2744665926483635e+03  2.3832806714738203e+03  2.2277961904835138e+03  2.1376716729419331e+03  2.0949200768159194e+03  2.1606581545602262e+03  2.0329235012691579e+03  1.9448297078429764e+03  1.9785150710155356e+03  1.9255458011024425e+03  1.9632992183946812e+03  1.8664496446703026e+03  1.8930632446405916e+03  1.8048822266738478e+03  1.0344426244182343e+03  1.1219616430154767e+03  3.4999842189387539e+02  3.1581226504691045e+02  2.9893713931011587e+02  2.8468059415400654e+02  3.0135564787036117e+02  2.7129305422086111e+02  2.8939648680882436e+02  2.5796340704921664e+02  8.0017118298293974e+02  8.6871787895335376e+02  8.3169373166120170e+02  5.9731645348491918e+02  2.1556401961700540e+03  2.3223100144220693e+03  2.2918191979764874e+03  2.4850892548515762e+03  2.3983251517093645e+03  2.6878962814812053e+03  2.4841264905583321e+03  2.7936458168987483e+03  2.4748924911634626e+03  2.2205729120080537e+03  2.1164325642974427e+03  2.3411753852818729e+03  1.8999835199118270e+03  2.0343168475108102e+03  1.6399347581143434e+03  1.7817914732096174e+03  1.5662145570660437e+03  2.0012109477658964e+03  2.3142630339627999e+03  3.5096191207151128e+02  1.1919280127208843e+02  1.1914265419906697e+02  1.3440026893879488e+02  1.2371941596631758e+02  1.1049320306748038e+02  1.1738994589787811e+02  1.2838848337868916e+02  1.2154531277431471e+02  1.1424246035329737e+02  1.1776581108158528e+02  1.1305508267082408e+02  1.1549817184475661e+02  1.1908400819890484e+02  1.1592438556974314e+02  1.1344249785721834e+02  1.1288386127998419e+02  1.1052462009576190e+02  1.0878197103608065e+02  1.0569674491366182e+02  1.0231939447381305e+02  9.8762055637972892e+01  1.0524427677021218e+02  1.0399819013756854e+02  3.1758769776389562e+02  2.6478905102946504e+02  1.8253119767743283e+03  2.4809865163847339e+03  4.4022187701094836e+03  4.2993778947273331e+03  3.4641459945554570e+03  1.8711726307496524e+03  1.0247512706111131e+03  1.0061558383632589e+03  9.3149706246928110e+02  9.7210822943741073e+02  8.9382397275789583e+02  1.0275089572273707e+03  9.2656926574150521e+02  5.0512369577371010e+02  4.5356631897271927e+03  4.4836418784547641e+03  8.1874925261636213e+02  6.6330882235300805e+02  7.0717862947304286e+02  7.2526839670456127e+02  5.0124075806978294e+02  4.4226313524057809e+02  4.5570732577400457e+02  3.9933671084399606e+02  4.0414901827322774e+02  3.5439572500943825e+02  2.3626505079799168e+02  1.9377573122726145e+02  2.0422724524000924e+02  1.6412474561968145e+02  1.7726538921517974e+02  1.4225431902992335e+02  1.6142096036820465e+02  1.3494486454606135e+02  1.3084889532782506e+02  1.6188616488695538e+02  1.4578181815337911e+02  1.8358403692895033e+02  2.1150119258595209e+03  3.4681953720214631e+02  3.2457327943308309e+02  3.5598896967139370e+02  2.7199836667402005e+03  4.2910401102468842e+02  4.1720913574603401e+02  4.7333086245474971e+02  4.6023255515017098e+02  4.0108674836751300e+02  4.4000089262352708e+02  5.0399907503060882e+02  3.7918469333314374e+02  4.7482928830854587e+02  5.4368771723079851e+02  5.0844366837203040e+02  5.7986415573040631e+02  5.3197705694910201e+02  6.1372953526523486e+02  6.5984697168459331e+02  4.5131588965235062e+02  3.3407693112988318e+03  2.8026512538596940e+03  2.6687722936615837e+03  4.6838569417027026e+02  5.2510131964807272e+02  1.9338280954762213e+03  2.8380393386918595e+03  2.9498760185256001e+03  1.6441245637337802e+03  1.5542267867350149e+03  1.2041783004203234e+02  6.4928842806209911e+02  3.1672858326002449e+02  2.7112186642221155e+02  6.9933995313208243e+02  6.4840136501432846e+02  6.5369175716837287e+02  6.0065176921418356e+02  6.0348924226740405e+02  6.6962757317996159e+02  5.4873291987032815e+02  6.2513133090608824e+02  7.0450057307874147e+02  2.0715950218623053e+02  1.6883519366709135e+02  2.1325857222007181e+02  2.0022598428403012e+03  9.6217938386206276e+02  8.8943966233108927e+02  8.0991701267991516e+02  1.4384327862703119e+03  1.1013384065952901e+03  1.9368264511818511e+03  4.1852191632023005e+02  1.6096002526108151e+02  7.5738289617047656e+02  8.6998540529845559e+02  5.7609971598353991e+02  1.1763445934560873e+02  3.5301637660648191e+02  3.1190609570720392e+02  3.9534922807290661e+02  4.5249387056323644e+02  5.8214640507579929e+02  1.9684711886644761e+03  1.8696645883730116e+03  1.0776023857549926e+03  2.7642303839176850e+02  4.7323356524630972e+03  6.2044294875421951e+02  1.8516104095419873e+03  1.9690423681172829e+03  1.8747126358527614e+03  1.9938904413936095e+03  1.8916345386181317e+03  2.0130613238079859e+03  1.9009337337278985e+03  1.7852886860993458e+03  1.7839302171625709e+03  1.6739336360167683e+03  2.1166793370916907e+03  1.6626222780233757e+03  1.5593196384775515e+03  2.1406499724113582e+03  2.2425327461259349e+03  1.5395146481951772e+03  1.4439030835940173e+03  1.7685970626568599e+03  1.4163219517267869e+03  1.3296337460711823e+03  2.2740580647352026e+03  2.3742001885623331e+03  1.3564505130778300e+03  1.2475835700933749e+03  1.8282833713195337e+03  1.7425527394035514e+03  1.7086118930795635e+03  1.6345908840575692e+03  5.4940527307319212e+02  1.2604376335888182e+03  1.3663353304591071e+03  1.1731544336898357e+03  1.0963395424734267e+03  1.1675068608501060e+03  1.0919595193977243e+03  1.1551325169488064e+03  1.0263040936350262e+03  1.0253862024030354e+03  9.6641886671400584e+02  8.4610862565069840e+02  8.7347953581060426e+02  8.0896042252805285e+02  8.0785120763055806e+02  1.3410854443231703e+03  1.4665019959086012e+03  5.7263724495997315e+02  8.7505318835238018e+02  2.7578672887365190e+02  2.4461678549121129e+02  2.2736869328542249e+02  2.1468243509070055e+02  2.3209034092499266e+02  2.0196747386715074e+02  1.8315718993416019e+02  1.7097503670560539e+02  1.5217749810638389e+02  1.3984674769579604e+02  1.5944580436998419e+02  1.2358241496338285e+02  1.4430123860840702e+03  1.2224190746454078e+03  1.4102462427380290e+03  1.2056553530613182e+03  1.3776015656860620e+03  1.1869652735089508e+03  1.3428008446202386e+03  1.5811484552712893e+03  1.1674940012919747e+03  1.0491396181588671e+03  1.2365138257333354e+03  1.2158595466819577e+03  1.3010919996839662e+03  1.2711692208773372e+03  1.3602686680855604e+03  1.3203724028564623e+03  1.4138087216344823e+03  1.3623356746728455e+03  1.4574850583552688e+03  1.3891436966117762e+03  1.4887600661758036e+03  1.4098938390820854e+03  1.5121107426848034e+03  1.5879167259674234e+03  1.6081239031671671e+03  1.5239214591961379e+03  1.6179133501516035e+03  1.5254663959078509e+03  1.6150592339814625e+03  1.1415478599285141e+03  2.5901409455274262e+02  1.8153509484061290e+03  4.0072248249741295e+02  5.7848138849327859e+02  2.9779414675465995e+02  1.5151906976575267e+03  1.5981835105399655e+03  1.6246676728230761e+02  1.7829777957410411e+02  3.1993341493168725e+02  2.4220114460929676e+02  8.9942156728435168e+02  8.5179854967139011e+02  8.2614553085792784e+02  5.8831644321114720e+02  5.7104843248310056e+02  6.2184495540506646e+02  6.0635488828264079e+02  5.5901548273495882e+02  6.5582069732776483e+02  1.9818493804038433e+03  1.1406613520694617e+02  1.3458825030102400e+02  1.3111886872635059e+03  1.6620719411316661e+03  1.1738708181531504e+03  7.8933208119371079e+02  8.8499949307509883e+02  6.1692992055274033e+02  1.2800222070887621e+03  8.3740254845970264e+02  5.6282375693659412e+02  4.2754727200585612e+03  4.2761785404752227e+03  4.4360413987506035e+03  4.2691976653033980e+03  4.0635578678353959e+03  4.0964785024804351e+03  4.2589693219217206e+03  4.1190058202685213e+03  3.9266469907802984e+03  3.9733090915406310e+03  4.1423736275552910e+03  4.0167916284607559e+03  3.8245416110253495e+03  3.8916137091861415e+03  3.6773916158217812e+03  3.7693111551934117e+03  3.5428275656916221e+03  3.6538923719926561e+03  3.4196466688086539e+03  3.5463916741033354e+03  3.7547362689073766e+03  3.6608101544371439e+03  3.4408728624773894e+03  3.5707254325504200e+03  3.3440137395522115e+03  3.4874471184354238e+03  3.2562505365514808e+03  3.4072523336745112e+03  3.1433680709575706e+03  3.3450499929279758e+03  3.5991803853428269e+03  3.1062736852936378e+03  3.2793811268525587e+03  3.8461348987280321e+03  3.0575142456353233e+03  3.2317215408095217e+03  3.4702071399707461e+03  3.4034379954457468e+03  3.1826705607163913e+03  3.3645683028003891e+03  3.1491542038486082e+03  3.3336153206224735e+03  3.5559195825416600e+03  3.1029547705961245e+03  3.3169246478404193e+03  4.1605256359047380e+03  4.2575047664467720e+03  3.9699140600084415e+03  5.6955338912237046e+01  1.4955825244632574e+03  1.5716907449801197e+03  1.5880717027487392e+03  1.5077778249227592e+02  1.2374069756613426e+03  1.9191588944544384e+02  3.5653685580597098e+03  3.5153993627847544e+03  3.5060560951286720e+03  3.2918804719161199e+03  3.4949352177994720e+03  3.2866065700824538e+03  3.4963539883448648e+03  3.2751069632307390e+03  3.5013246141863797e+03  3.0589032079229091e+03  3.0987409038435071e+03  1.9002630171810349e+03  1.3430435384852575e+02  1.3078375373680666e+02  1.9114525491914576e+03  8.7872956918448199e+02  8.3433080356840571e+02  7.9870581282528462e+02  8.2200434107319370e+02  1.2527134964381459e+02  1.2247541551410822e+02  1.1808497651609694e+02  1.1910371304582489e+02  1.1593260965421783e+02  1.1486597754541295e+02  1.1273151949383669e+02  1.0961412338706833e+02  1.0842716338205943e+02  1.0317496912967432e+02  1.0260271564853281e+02  1.0507978976041450e+02  9.8571850893051945e+01  2.6705245396683972e+02  4.1654890881557903e+03  4.2476214959159852e+03  1.0299036043592414e+03  1.0230136740759509e+03  8.5962592591755367e+02  7.9424193538344491e+02  1.9807249054398794e+03  1.6018524565204652e+03  1.5115347431889213e+03  1.5414495138127365e+03  1.4035676215131405e+03  1.4136273888191922e+03  1.2721895687260708e+03  1.2495541470012924e+03  1.1238503577957163e+03  2.6953992615773323e+03  3.0950388758784982e+02  8.3019458720761861e+02  6.6400735191392369e+02  1.0892137857357045e+03  1.8179453459227602e+03  2.6577107148578611e+03  5.5113152051140094e+02  5.9827013421380207e+02  1.2682803848128117e+03  5.2266820077327247e+02  3.5521728097035862e+02  1.3033934391850238e+02  3.6306116516693151e+03  1.4339659909982754e+03  1.5214109722102134e+02  3.7294198727832105e+02  4.0707901328921088e+02  1.9029431922750152e+03  1.4151334328265042e+02  1.3995249064832210e+03  2.2547007234413874e+02  1.5650755329499932e+03  7.7500766733293665e+02  8.0529901984877313e+02  2.6809345410083114e+02  9.5579174582040508e+01  2.0763527865982761e+02  1.3236453828539363e+03  8.3941363008354665e+02  8.4730965130895129e+02  3.1962460661762507e+03  1.2558718982529524e+03  1.3297345013207205e+03  1.4146387106683021e+03  1.4039156431178594e+03  5.9766398458022388e+02  5.5094030245862803e+02  3.0851177491581175e+03  6.6485544795414683e+02  5.7976918509723419e+02  1.1012517522710284e+03  1.0898831241388370e+03  1.0303755458425312e+03  1.2994141150863745e+03  3.1199858574082523e+03  3.6169295090679941e+02  4.1001479317168128e+02  1.0280098060115852e+03  9.8760985919042056e+01  1.2669017490643992e+02  3.3200292419277213e+02  3.0472747876447596e+02  2.9191732314314636e+03  3.4511213184942053e+03  2.9465123917990954e+03  3.7765987558686356e+03  4.5205543822612417e+03  4.6360761426491354e+03  5.5095711262239547e+03  5.2998895865819431e+03  6.0856681067020463e+03  5.5142970587180962e+03  5.4796710456285273e+03  5.2411804170808082e+03  5.0826762140034798e+03  4.9850275085348285e+03  4.7388573602133574e+03  4.7550058406564658e+03  4.5208410638589994e+03  4.5541568782291433e+03  4.3064888718501024e+03  4.3816600644271484e+03  4.1136714277228730e+03  4.2338257466117166e+03  3.9463850500952099e+03  4.0857944724121635e+03  3.8169640736158922e+03  3.9641300537182988e+03  3.7005998227378514e+03  3.7944145962391681e+03  2.1994679817768318e+02  1.6690824605037062e+02  9.6773756573507239e+02  9.0580852500064975e+02  3.2614392928561615e+03  4.4549472468706399e+03  9.9163263884451808e+01  1.2792144381900768e+02  1.6678149106582441e+02  1.6354705898558313e+02  8.9595406995550931e+01  1.6404467472477174e+02  1.0884098189398246e+03  1.0805844920640243e+03  1.4471948746062969e+03  1.7324946074036234e+03  2.1297149230763117e+02  3.6894342850286007e+03  9.7921005122610310e+01  9.9318073024780389e+01  1.1819242148778758e+03  4.0114083596599021e+03  3.9861231592268155e+03  1.4951071038027078e+03  1.4759665303611366e+03  3.9892264952459600e+03  9.5744005385060927e+02  8.8042655932972264e+02  1.4871805417949545e+03  2.2370326703556066e+02  2.2090620811514702e+02  1.9146480863076811e+03  1.8308974993891068e+03  1.7744602833711619e+03  1.7376702546476786e+03  2.0098204190448698e+03  1.6679682875442222e+03  1.6169324332638446e+03  1.5420572843452105e+03  1.4583588973309661e+03  1.4050225918551728e+03  1.3790506142097083e+03  3.2797063421959706e+03  1.5098908526552634e+03  1.4396745116593211e+03  1.3144802809000150e+03  2.9811975282224612e+03  1.7758928164277438e+03  8.1861887074391529e+02  8.3218305668708138e+02  1.7115747746345096e+03  1.4632965006316811e+03  4.9476996133228240e+03  1.3132262148508795e+02  7.6499483267826884e+02  1.2745769348444098e+03  1.1697428748913242e+03  4.2158171251697395e+03  1.9501890528947746e+02  6.5808556461242188e+02  6.3951778689591151e+02  5.9258741288665908e+02  6.2954261369764765e+02  5.9415191252529689e+02  6.3085462417132396e+02  4.9073329248215776e+02  5.4811340074172927e+02  5.8189733784956468e+02  6.0609416974500948e+02  6.4000311753928463e+02  6.6748050518795264e+02  7.0246524144145326e+02  7.3297755430315840e+02  7.7022238082072681e+02  7.3839605571383561e+02  1.5049304905247459e+03  1.6458208060833783e+03  2.9303373674773402e+03  1.6738608254021383e+03  1.6403186301561475e+03  4.0925329468125722e+02  1.0583014108295906e+03  2.3321230850905481e+03  2.4621015801250655e+03  3.2988933787347305e+03  3.2915741038857636e+03  3.8607319093401961e+03  2.8723411566867424e+02  1.0208289713216843e+03  1.2939266356703133e+03  4.2527560956436000e+03  7.9826026314285491e+02  1.4313156094758424e+03  1.5590349303393191e+03  7.6695884655010002e+02  4.3601080572509676e+02  4.3050447532741305e+02  3.7721610162997570e+02  3.7160789202652194e+02  3.1836063503935117e+02  4.3139999538593287e+02  3.7735455926946310e+02  4.4326690187039964e+02  1.5756579660367327e+03  1.8059917554414656e+03  2.9730517600302555e+03  1.3915877500313650e+03  1.4888873454453730e+02  1.6030847673782403e+03  1.6954162344698598e+03  4.0622654204804155e+02  4.5410725856888604e+02  4.6968190420200208e+03  5.5654250264590883e+02  5.0115891537187764e+02  2.1601048686578511e+03  7.9145830084859256e+02  2.8408659337878935e+03  2.8126176104562223e+03  3.6975511928592700e+03  2.5569140568443095e+03  2.4113642518148486e+03  4.4417800446645259e+02  1.7209759887517928e+03  1.4586648199667809e+03  3.1432329238262037e+02  4.0137810609681009e+02  3.6693965485814425e+02  4.1606596536994181e+02  3.0978468901647432e+02  2.1501256705548362e+03  2.4088918349318365e+03  2.5361276526568267e+03  2.4622404536547738e+03  2.5942856622836684e+03  2.5238085369512805e+03  2.6436388889547243e+03  2.5959715501548021e+03  5.0746755433420440e+03  1.4754596363892913e+03  1.2436911911450431e+02  2.4104187044638416e+03  6.5482017894335354e+02  3.2623811344015712e+02  9.3494438118899996e+02  1.0458972428177304e+02  2.5592695701482967e+03  2.6731887837320619e+03  2.5799640315803827e+03  2.6830072228931294e+03  2.5849652685564397e+03  2.6833310290362874e+03  2.5751508371667815e+03  2.6581624327506006e+03  4.3126908463225354e+03  1.3420800996161773e+02  1.1818288356193055e+02  3.0487491466542770e+03  9.1045413644017131e+01  6.7574529942918502e+02  7.0707028143780110e+02  3.4104352530283444e+02  3.7524967687237461e+02  4.7111090712864316e+03  6.2370893411958002e+02  5.3081579612929920e+02  2.6688701329997787e+02  7.1996730283269317e+03  9.1428926731008914e+02  8.5794804620698085e+02  3.3934027014129407e+02  1.4404338572151901e+03  8.0125665793629162e+02  4.2976989619973909e+02  3.8738952673526904e+02  4.1844315138612694e+02  1.3014895084755228e+03  1.1365736178313275e+03  1.0678251164953990e+03  2.6650931907612267e+03  2.8162012512377197e+02  1.1467432479801015e+02  7.3244285730365277e+02  1.0501373637678061e+02  9.9798270789237847e+01  9.0313884051306545e+01  9.5056338292640433e+01  1.1077545676880187e+02  1.1184381504755797e+02  1.3278160982907548e+02  1.3837542807215098e+02  1.1648372462008385e+02  1.4627249002224804e+02  1.6898009405066404e+02  1.7819064422688189e+02  1.9993304925801255e+02  1.5594769538741477e+02  1.9168348741448037e+02  2.2250790095591140e+02  2.3003465248047650e+02  2.5322739107588072e+02  7.2926569094777665e+02  7.5883063013022490e+02  1.7187061450311012e+03  1.9909833669824074e+01  2.1854447092224991e+03  1.8402159153935906e+03  1.1547141565280224e+03  1.1470695098014698e+03  1.1273621213003914e+03  1.0427984903346761e+02  9.5332943386446473e+01  1.9038009428817747e+02  1.4166313153584417e+02  6.3073460776991851e+02  5.5457063778430575e+02  4.7513086623432588e+02  1.0870679977389527e+02  1.0987013928371361e+02  1.5740192996788321e+03  2.7848929221169709e+02  7.4401600455139067e+02  1.8083431003508872e+02  1.7451298895645837e+02  1.5725960150781223e+03  2.1368203181375420e+03  2.1031618852452798e+03  1.7889886390438212e+03  1.8010679498748125e+03  1.5130292990179694e+03  1.5466159109566706e+03  1.8120975557612537e+03  1.5713592732944035e+03  1.8146101806610641e+03  1.5889372883530179e+03  1.1620812113209652e+03  1.0375931728615760e+03  2.7914040027556939e+03  9.5215388979334273e+02  1.7340932307389812e+02  2.2616572633884647e+02  1.8796659562173502e+02  9.1925626389619379e+02  9.6909162716050378e+02  3.8182801226132113e+02  4.3409136313965348e+02  8.1158997312365068e+02  2.5510948916151187e+03  2.6201437885055225e+03  2.5103877111376505e+03  2.5675321311851485e+03  2.7381165069759495e+03  2.4266165229343775e+02  2.7510453691694096e+02  2.5861893212798685e+02  1.2626875713983495e+03  3.5980532477266465e+03  2.2532673729947203e+02  2.3174923423377959e+02  2.1780495495830121e+02  1.1950340404824542e+03  6.0947720517198479e+02  6.4673577485971543e+02  1.8056785560183932e+03  1.8581516676735507e+02  3.5403776794926239e+02  3.8631655495658850e+02  3.3565293334425104e+02  4.3965896317545975e+02  4.2572482012853504e+02  1.3789295618331955e+03  2.1686834109375465e+02  3.6946970429083268e+02  4.0427547691276521e+02  1.8671251124453549e+03  7.9963959223961024e+02  8.0127009117293539e+02  3.9487689911947814e+02  4.7165139900463339e+02  2.7262292276619351e+03  2.4574871652716479e+03  2.5036115280840991e+03  6.6747825645179262e+02  1.3559571013109249e+02  1.0085271725871669e+02  1.6676316671888853e+02  8.0238704654878245e+02  1.8342140699795111e+03  1.4093224411293906e+02  2.4207640391031717e+02  8.9966401318302289e+01  4.2602445493860214e+03  3.9664466269927939e+03  3.4765993032182837e+02  2.1058194187246349e+02  2.0100167456857830e+02  1.5997859841736690e+02  1.9778674622211776e+02  3.0991602078370619e+02  2.5674803099228632e+02  1.8980934941348517e+02  1.3007211527673387e+03  1.3406351121745749e+03  1.2700049768406368e+03  4.8391688499832799e+02  7.4763547683675336e+02  6.7754976984469670e+02  8.1813121802142336e+02  8.2871362566573362e+02  2.9422746255169222e+03  8.1753073135590023e+02  4.3142305081275390e+03  5.7139423548904529e+02  1.4103433595053866e+03  8.2904501618537765e+01  9.5155248111914148e+01  1.8682268878012853e+03  1.7662164499634839e+03  3.6202207963965429e+02  3.5325265674162443e+02  1.4962558484931906e+03  1.3404097747536885e+03  1.0425970018824989e+03  9.7924384929560915e+02  3.5523710170896384e+03  1.3039070489508572e+02  1.1048769642325256e+03  6.9176608522357651e+02  1.8131156565917529e+03  1.7707507851013688e+02  1.7888511028188353e+02  1.7612139433699872e+02  1.4530659376430203e+03  3.3929164481791031e+02  3.6887933723941143e+02  1.5981948609532983e+03  1.7955343112414846e+03  4.0629272335420160e+03  3.9580157902087312e+03  4.0362008447771864e+03  3.9295345080326706e+03  4.0019242589598853e+03  3.8928642031286990e+03  3.9594394149984128e+03  3.8500722958866245e+03  3.9108241270496610e+03  3.7872158960656343e+03  3.8042406734076558e+03  3.8555321269429110e+03  3.9622317539123674e+03  3.9008618705331105e+03  4.0008705294715401e+03  3.9346978377322835e+03  4.0273759788591915e+03  3.9571184497086797e+03  4.0439059003502471e+03  3.9690423222635231e+03  4.0510179562778321e+03  3.9710351243794844e+03  4.0496701297693985e+03  3.9635514316979697e+03  4.0396723478902650e+03  3.9456840719499291e+03  4.0215831308091761e+03  3.9175616404628436e+03  3.9917630168096193e+03  3.8772701818419850e+03  3.9471499043420017e+03  3.8235130488583432e+03  3.8911931963107718e+03  3.7543376553205776e+03  3.8203508290688005e+03  3.6679057084725368e+03  3.7277429361891445e+03  3.5605518114490410e+03  3.6149211360792665e+03  3.4308559736984371e+03  3.4802358022710628e+03  3.2795861261670079e+03  3.3419095232983605e+03  3.1067804480492118e+03  3.0999329962018828e+03  2.9021157807571904e+03  2.8647660840758417e+03  2.6809967731351821e+03  2.6192790943420637e+03  2.4494237946925973e+03  3.8369385961642474e+03  3.6065690990483099e+03  3.3940869576814757e+03  2.9192531067472219e+03  3.7468816498382380e+03  3.8820581176999340e+03  2.5128204076950501e+03  2.2892121194157471e+03  3.8637139839503143e+03  3.3066619658812783e+03  3.7903186628915023e+03  2.3654479814877950e+03  4.0985388116544618e+03  2.5370198908014117e+03  4.0431839599703376e+03  3.9717684229626093e+03  4.0863893517136094e+03  3.8405864614301845e+03  4.1173675081286638e+03  1.3777071425136273e+03  1.6749683242564258e+03  1.5150714482438823e+03  1.3959337491986694e+03  8.1564505534216630e+02  8.1915380419182179e+02  2.2582608577342994e+03  8.5676491794918616e+02  8.9683800298858353e+02  1.5674594171377581e+02  1.9269587828362231e+02  1.1696456318341166e+03  1.1868746216632505e+03  1.0200863596090045e+03  9.7381361538452370e+02  8.7541501242079300e+02  7.9716028487067842e+02  9.0874967704945118e+02  9.0773567035275778e+02  1.0185713739979406e+03  2.3903042968733475e+03  2.4270019609888727e+03  5.4961463320997161e+01  1.0145083950309132e+03  1.3490125103173017e+02  1.2091042720489047e+02  1.5441834384618860e+03  1.4443261313503358e+03  4.0772477565436020e+03  3.9850146906806649e+03  3.9572968073858360e+03  5.8744833712438719e+02  5.8114150038633909e+02  9.1015268146002100e+01  6.6494672244987655e+01  5.9460397285851479e+02  5.4938016378365387e+02  2.1922217961641936e+03  3.8878608562219542e+03  2.7142537660551156e+03  1.1436981880750541e+02  1.7478419248365726e+03  1.8390056204604662e+03  1.7776363190291256e+03  3.6062829157077630e+02  3.7193318185802406e+02  4.2020865434116295e+03  1.1115427999097334e+02  1.5289740447816376e+02  9.5276938957109209e+01  1.5514495579788049e+03  1.4144741377853752e+03  1.5252932099713198e+02  1.3222829336864356e+02  5.1583561216889018e+02  1.8003084992870095e+03  8.2297954874106574e+02  9.8714253804881750e+01  9.8625672993020800e+01  1.0390195039876664e+03  7.3885487381904795e+02  7.0528966493315647e+02  4.5070628438987040e+02  4.9872470612910081e+02  5.0301661110202036e+02  5.4774271470771885e+02  7.5051697052965960e+02  7.5365822882783436e+02  2.4988465917540677e+02  2.3662163460446504e+02  7.5895517845213601e+02  1.2970149981785626e+03  1.6279436809991475e+02  7.6532584020087575e+02  1.4302846385232992e+03  7.4728405435777449e+02  8.0148834117153399e+02  2.3599558070794887e+03  2.1480186961386617e+03  2.0576076733848690e+03  3.8032431585036484e+03  3.7127358109765637e+03  9.8575472778888695e+02  1.0391435186555916e+03  9.3510666744705009e+02  9.0468739849421581e+02  1.0114460253661432e+03  1.5958202800699271e+03  2.9809089078071702e+03  3.1446434915789728e+03  2.6073994301830936e+02  1.3234914994364797e+02  9.1908520498165728e+01  3.2299965402944434e+02  3.7522866138766250e+02  4.0874021493344776e+02  1.6436593455845368e+03  1.9754957117275057e+02  2.2870894238378010e+03  3.4526801081424128e+02  3.2388457484197767e+02  3.5021260558718166e+02  3.0010946354803281e+02  3.1782530043813489e+02  2.7871063314467165e+02  2.6132139889535972e+02  2.5481731986446201e+02  2.3596001876497013e+02  2.8886249836925225e+02  2.4788111993211126e+02  2.2559055019606552e+02  2.1299387228718757e+02  1.2105164075285377e+03  1.9555062023723362e+03  8.5478413291297022e+02  6.3862549770204339e+02  5.4532775408439477e+02  3.3401945590207703e+02  8.6366722741514224e+01  8.3643258235755809e+01  7.0428102143440242e+02  4.7215021815242915e+02  5.3638686245799022e+02  5.4469902299234207e+02  5.9594159627381134e+02  5.9875027571516387e+02  6.4843409977279941e+02  6.5360926803961809e+02  6.4523127472655415e+02  6.9889312335886564e+02  2.4720500272351842e+03  9.4650521429565367e+02  1.9631157944195294e+02  1.7669700502652148e+02  2.0560731092047181e+03  8.1198071456487625e+01  9.7177071459253705e+02  6.3179583861823153e+02  3.5482582721522390e+03  3.1440818288257042e+03  3.5619271299771472e+03  5.7776918134780146e+02  4.7251889254214291e+02  4.5478339019405541e+02  3.9114940383590624e+02  3.9429773816567615e+02  3.3022115662600362e+02  3.4771061937981432e+02  2.8571340548961552e+02  3.1301395151187126e+02  2.5403782734610792e+02  2.8725030063681697e+02  2.3106041211933368e+02  3.4438628763829541e+02  3.9479582753063954e+02  4.5577688340340200e+02  4.9164454828117601e+02  5.1894955163397913e+02  5.5465522842820644e+02  5.8577550397521907e+02  5.5004573624423188e+02  6.2038307582806158e+02  6.5800096162410068e+02  6.9665319621914159e+02  7.3490473172962481e+02  7.8086987070988027e+02  8.1764990834167452e+02  5.1782150783550551e+03  3.7928262025555287e+03  1.9911721586531723e+02  2.2847184229505586e+02  1.9825128656990333e+02  2.4006183564290060e+02  2.0702767158586818e+02  1.4293668349376408e+03  1.9295888560103604e+03  4.1567211751602736e+03  1.4683575746312820e+03  1.3743540718706984e+03  2.4924751145710854e+02  2.3976848547700021e+02  4.3577022394342657e+03  4.4240094801937848e+03  1.7415458536013714e+03  1.7730448049407992e+03  2.5600633822141822e+02  2.4483761047524231e+03  1.0953890540303946e+02  7.7700085993514705e+01  2.7669581238420875e+02  2.7889560545652597e+02  1.1322139241679871e+02  3.0077487999696100e+03  1.6840076319482828e+03  1.0871682530107591e+03  9.8152451934160968e+02  3.1844609253803083e+02  2.8833536754183041e+02  2.3168550466593010e+03  2.4584434621781952e+03  2.6530180183163662e+02  9.2537424193252193e+01  7.7615022951830369e+01  2.5879391060950144e+02  2.8337585601242085e+02  2.7727248827124725e+02  2.4681725637177158e+02  7.3799924431440559e+02  2.9090114494801037e+02  2.7468009988875707e+02  1.5533537928219143e+03  1.0062456699974289e+03  9.2636156631614097e+02  1.3885251055793174e+03  2.4324461958649304e+03  2.7349224164550001e+03  1.1083051553856704e+02  2.1448503777657663e+02  2.6914670707854339e+02  7.7650310389099423e+02  2.1023611051766349e+02  4.3467968771347597e+02  5.2092040926959532e+02  5.4454641398855256e+02  1.9340331262166928e+03  1.8263699399752288e+03  4.2440813734878784e+03  9.8115453192844228e+01  1.0659135674567105e+02  5.1360034121209935e+02  4.2411835256221848e+03  8.5396606200735562e+02  8.9658581175640813e+02  3.2547398145045065e+02  2.6908698440569827e+02  2.6060706993605044e+02  2.1431661984259239e+02  2.2709979344233619e+02  9.0837449647602227e+01  1.5091625104321563e+03  1.4059249669927974e+03  4.2107163629256038e+03  2.6891280321173995e+03  2.5926202977981147e+03  2.7758691721894652e+03  1.3761357083014803e+02  3.5743593337922761e+02  9.6860497623784170e+02  8.9415124264124074e+02  8.4235500361782397e+02  4.2951151886311582e+03  4.0107951251225518e+03  1.2195588976630181e+02  7.9673912687449126e+02  7.2424214591413397e+02  3.1900822825452042e+02  3.4584029550491533e+02  1.3290246210359248e+02  1.3378923593368600e+02  1.7489981429226597e+02  5.1962530754391662e+02  1.5265611279543834e+03  1.4233059675845411e+03  1.6721609332612897e+02  9.6544018716225685e+02  1.1456469435670845e+03  1.0600968335099608e+03  1.0917825044961423e+03  8.0085531385770821e+02  8.0835386776345206e+02  9.3329599675874249e+01  8.3458930701418836e+01  1.8251101547822295e+03  6.5546104320795121e+02  5.3732473322029944e+02  1.5700619396466509e+03  6.9115662428019345e+02  1.7359404012367609e+03  1.6994057654508101e+03  1.2763566822988230e+03  1.4087270594818795e+03  1.2882339014552585e+03  1.5244343197000870e+02  1.8633026749224635e+02  4.5452431744202408e+02  4.4778990258263480e+02  4.9654953547153787e+02  4.9322747560112998e+02  5.4524362962757368e+02  5.4494055486410389e+02  4.0024415940542957e+02  1.3869108979444613e+02  1.7562130394627366e+02  1.6192365986057766e+02  6.3689234729174530e+02  1.8381664344558153e+03  1.8886215550418965e+03  4.0580948087389124e+03  2.1260323524779174e+03  1.7138652125755980e+03  8.3334015829471934e+02  5.1242163897163437e+02  7.3001374576952958e+02  1.6481360415877689e+03  3.6050563454175208e+03  3.3993036893528483e+03  1.2745374385119575e+02  1.3548681641965121e+02  1.4099479021223129e+02  1.5128229749265606e+02  1.6078959791824926e+02  1.4692499107488635e+02  1.7058809305124902e+02  1.5326299189773576e+02  1.8053240522048432e+02  1.6034535764526899e+02  1.9065190519774526e+02  1.8440707370531459e+02  1.3607093576130382e+02  1.5738852932061647e+02  4.8157077759289962e+02  1.1386898829560607e+02  1.7984129613031973e+02  2.2186837269615540e+02  2.1311096741066737e+02  5.2928488391336089e+02  5.3211678096264222e+02  5.7812296980528197e+02  1.8404968284476056e+03  2.2011675137636485e+02  1.6975820030041908e+02  1.3362360781532566e+03  1.6268207911276234e+03  1.6983348170129574e+02  3.0911727268567449e+02  1.8433797394917693e+02  3.5349365032626338e+03  4.8767978465249962e+02  3.2802623816328230e+02  2.8992608749009099e+02  3.2845904054599708e+02  6.2886992591305750e+02  5.2643738078546369e+02  6.0810910453418035e+02  4.0380006947385164e+02  3.7609244413929457e+02  4.3599493816386221e+03  4.4265343951318264e+03  3.2705810799346550e+03  3.2912900904120897e+03  3.4133996272598329e+03  3.4378451547282448e+03  8.2031789968833323e+02  8.4631609813926866e+02  1.2118606961168764e+03  1.1998356382147479e+03  1.8676449952196901e+02  3.1574976651107559e+03  2.9928279404446885e+03  2.8727090670643611e+03  3.1232132849698223e+03  8.0614050571639984e+02  7.8687811846876605e+02  1.6649261283468654e+03  3.2483549249574480e+03  2.9431330654364465e+03  2.8567388585912477e+03  2.7081138665426242e+03  2.2034484894742656e+02  3.5523721210528679e+03  2.8301192652097643e+02  1.3254481336194453e+03  2.7586966415077804e+03  2.5587734829593664e+03  1.9966797313237777e+02  1.5732692247276685e+02  1.5810583551001793e+02  4.2768080972904244e+02  8.2447633677309364e+02  4.8372852789310474e+02  8.8133195240186774e+02  2.2838513024722343e+02  2.1672891246436646e+02  3.0147145578722694e+02  3.3769488683954131e+02  5.1003458302278028e+02  1.0687527338084280e+02  2.6811894993078607e+02  2.1461217817837269e+02  1.7785370999447284e+02  1.6376015181810368e+02  2.0264443915113256e+02  1.5441208542767720e+02  1.0900374004022713e+03  2.1326003338373848e+03  1.0339872406981847e+03  1.7296919558482482e+03  7.8473775358642456e+02  8.2160005654088786e+02  1.5012505505011404e+02  2.5410448101594670e+02  2.2039312176636915e+02  2.7661753482979555e+02  2.3718020023547365e+02  1.8868192367824642e+02  2.0478551399540723e+02  2.8139249513445088e+03  2.9385561203306424e+03  2.5551346172613353e+02  8.1284120736692657e+01  1.4208504087534186e+02  5.5681642899253134e+01  8.2463399656200511e+02  1.5595739225810300e+03  8.1154555194832517e+02  7.3497450375280857e+02  4.9718466625524030e+02  1.7970301084671439e+03  1.8162775010578480e+03  1.9479978956222474e+03  1.9702061233067316e+03  2.0936318922928194e+03  2.3544023287727055e+02  4.1130947094399753e+03  1.7852891599161351e+03  8.1956713844815715e+02  8.4013161561363461e+02  4.9095952350406839e+02  9.2724860322261566e+02  8.8174105044498253e+02  9.6913854112816853e+02  1.8755623689750641e+02  3.3442785020874652e+02  7.8781724241312293e+02  9.5627186235395882e+01  1.8246846698354896e+03  1.7457734799905807e+03  5.7379884253773378e+02  1.7472260396459964e+02  1.6390857341279855e+02  6.8576941620061348e+02  1.5086274614344413e+02  4.5229390180354567e+03  3.9052129389394245e+03  3.1820879321725274e+03  3.0145762715878245e+03  1.0144741101602604e+04  9.7816534079176350e+01  1.6821768208327035e+02  5.2436828589433537e+02  5.0586863671074133e+02  5.5877817582772389e+02  4.7100369075406900e+02  5.1849093717615824e+02  4.2054861720148466e+02  4.6133402324205480e+02  5.8699977614037880e+02  5.1478085333987133e+02  6.2043939423849235e+02  5.5826066627479895e+02  9.0642094795918899e+02  8.2217917230138630e+02  8.2456787802908832e+02  7.7695432325275488e+02  1.1708839048649161e+03  1.1103070136322203e+03  1.2628540751524715e+03  4.4269106022992291e+03  9.1540051768080593e+02  2.9545439260689795e+02  7.6423594674950630e+02  8.3258011014045348e+02  1.4062236986285552e+03  1.9377001895399547e+02  1.4723420663116895e+02  1.8682991812425462e+02  1.3171433637164827e+02  1.2152689950541346e+03  6.4108190836445226e+02  6.4203761887601604e+02  8.9183809549584453e+02  9.5443852038020088e+02  2.7509917297019376e+02  1.1665731774784501e+03  7.6797237354874119e+02  1.6388416957803781e+03  1.3681736799080950e+03  8.7156830836102995e+02  4.3232403988723818e+03  1.1995634871797326e+03  1.5367165467066221e+02  1.3803423863088659e+02  5.2063483813794971e+02  4.0986953415131262e+02  3.9098586744826434e+03  3.7651680891094425e+03  1.4259684297863154e+02  3.8768318925638982e+03  4.2147957506616722e+03  3.5716548181094308e+03  3.6998616824922601e+03  4.7892517063599695e+02  1.7529022951272866e+03  1.0818617497510259e+02  1.4264245716461440e+02  1.1083488550111787e+02  1.3202080639718403e+02  1.9484153893213047e+03  2.7477110275390754e+02  8.8134236058688799e+01  8.1429890770020208e+01  7.6092784754220736e+02  4.1818572429573869e+03  4.1111468185347921e+03  1.1323356637410006e+03  2.9427162958283031e+02  8.1756224785627444e+02  8.4776147631496212e+02  4.0832157479984426e+02  4.0158204366294194e+02  4.4404314388252482e+02  4.3693973280914429e+02  7.0377763445385472e+02  2.9554597157250186e+02  7.7394855646899271e+02  1.0202916128374781e+03  8.6625979334344862e+01  2.5387033416978625e+02  2.1827114817123126e+02  1.7224064962530247e+02  6.6713985350026928e+02  6.5663762482023901e+02  3.2287729803258310e+02  4.1638993290788139e+03  4.0829898021236750e+03  1.8556420847024998e+02  4.1762376561776691e+03  4.6287265703694135e+02  7.1245789588153130e+01  1.6860956019527413e+02  1.1842497351647914e+03  1.1822103638256187e+03  1.1192500703754763e+03  1.1113686760343735e+03  1.1669122189386001e+03  1.0620693440989814e+03  1.0589700127371377e+03  4.5766224493906293e+02  1.0156987747637222e+03  3.6084106755065631e+02  3.1793778682713395e+02  3.3403889792312572e+02  2.5066767449312733e+03  1.4165163824263877e+03  1.5680558552030884e+03  1.2920090734452760e+03  1.1754980496755502e+03  1.1684590662982580e+03  1.0648246186970352e+03  1.0491036550386243e+03  9.5928692112255032e+02  1.8007154350420017e+03  1.1880883980523574e+03  1.4874212089459731e+03  1.5025265023655103e+02  7.5338114871161633e+02  2.8889210174790942e+03  2.7558446264755021e+03  2.6615582721957871e+03  1.1130774824972038e+03  1.3571877484392669e+03  1.2393451837741979e+03  8.4149791794010468e+02  3.3821229821349914e+02  6.7744635920801284e+02  2.7411303304672879e+03  7.8219560089555216e+02  1.0607589113890067e+03  1.3434219026419887e+03  1.2871988274249818e+03  1.2320789851352640e+03  1.3481424991338113e+03  4.2533178120980865e+03  1.1130196905697910e+02  1.5909143408154710e+03  8.1823608293793609e+02  1.6980035424168714e+03  1.8679676824916908e+02  3.0784379083320287e+03  2.9956545317452433e+03  3.0134537343186403e+03  2.9604473129082335e+03  2.3551175731083745e+03  1.1846113505229749e+02  1.9419048313058565e+02  2.6608546055307119e+02  2.7959705648818806e+02  2.5600340039559310e+03  1.7851929551592579e+02  2.9024981070744871e+03  9.4617339100442553e+02  8.8639241452399335e+02  2.9761538473477714e+02  3.7485531513649416e+03  1.9351986788439926e+03  1.8445948528397621e+03  2.2828685733979796e+03  2.1037341548039490e+03  2.2339673971170073e+03  6.0490039191568349e+02  6.2837310608069640e+02  1.9189518898117690e+03  1.8497011920364473e+03  1.7171152853526344e+03  1.0401708255754329e+03  1.0765200224116761e+02  1.0248723783783385e+02  4.4918495415120316e+02  3.9140353784088643e+02  4.0511103145447572e+02  2.7384182194163753e+02  2.1376227397945495e+03  1.4789984032998261e+03  3.8692596022627868e+02  3.7245027795958786e+03  3.8782123179784203e+03  3.8577007576988972e+03  2.4466175123679389e+02  9.4963664161302674e+01  1.8476371102493936e+03  6.9894999666601393e+01  3.9350453094757000e+01  1.0479312242981093e+03  9.0449165228787740e+02  8.9314630496218990e+02  7.7464244437943341e+02  7.8854101518240600e+02  7.2176236995351019e+02  7.2686164730499104e+02  4.4954381556142234e+03  2.0959296084526540e+02  2.6002224237248060e+02  9.7807004940829643e+01  1.0947869556341157e+03  1.1560618578024910e+03  1.7854565528498995e+02  1.8077480316961112e+02  1.8728536660065124e+03  1.9350370668514861e+03  1.2519963616719504e+02  6.6379426548479148e+02  7.9890836214341277e+02  6.0228376059958293e+02  6.5598269905518839e+02  2.0827909645732436e+02  2.2402379698701952e+02  8.6400282485335697e+02  7.0957020702509783e+02  4.4789155782480174e+02  1.6005876429787370e+03  1.7822146120016416e+03  1.4195666328254231e+03  9.2120799164967900e+02  9.5804804312618216e+01  9.3677662186429370e+02  5.4687947649404168e+02  8.2728311232855322e+02  1.3869157178037210e+03  1.5940505020579050e+02  1.4693193851172256e+02  1.9113572586920660e+02  1.6147004184927102e+03  1.1830644346278559e+03  3.3181702247108710e+03  3.0737221304567101e+03  3.1457022393546686e+03  3.0154229624883446e+03  2.8094176296505075e+03  1.1601309841929850e+02  7.1291024237778544e+01  6.8783065333105668e+01  1.3135125020788360e+03  1.3999170367611302e+03  7.0157589084946721e+02  1.9831848315488510e+03  2.4880159752069831e+03  2.2951916325170924e+02  8.7137660372897290e+02  9.0442617192293108e+02  9.4302263774808580e+02  8.8146215061339802e+01  8.2016931799417890e+01  8.2923941919127913e+01  4.8504361192459106e+02  2.5188133200775605e+03  2.4028330882110781e+03  2.4149769361445137e+03  2.2834701797087732e+03  2.2670211030839450e+03  2.1706058570232003e+03  2.1754084752752715e+03  8.6393152984991247e+01  7.1990123924152869e+01  7.6674524183807549e+01  5.8538775200828844e+01  4.8132509504902725e+02  4.7465401894866790e+02  4.3084757945080054e+02  4.6835373472701485e+02  5.1413063241461305e+02  1.6529287449216476e+03  6.1796220235964199e+02  3.6891300206549676e+02  2.6832752859497930e+02  3.3020345414583730e+03  3.4587988087996737e+03  6.9443155849815480e+02  7.5008113984334898e+02  7.6137902185006260e+02  8.1216619917517664e+02  7.9943990047686998e+02  8.6807181928176885e+02  8.7420509676958875e+02  2.6072401633461682e+03  2.0346430212957559e+03  1.9551014002900370e+03  1.8625815519695116e+03  1.8105290737407654e+03  1.7100321236321834e+03  2.0894245696327448e+02  9.3666721398944776e+02  1.9865549657533240e+03  1.8326120254610969e+03  2.5660753101634640e+02  2.6519097994212740e+02  1.1005611472134717e+02  3.4587081317303767e+02  4.0233369228462419e+02  4.4281972996310873e+02  1.3787804446265548e+03  1.2683727166361832e+03  8.4135599456639989e+02  8.4452592570006368e+02  2.2429278362103305e+03  2.3757136254090142e+03  8.9465612571858799e+01  6.3275058472162918e+01  2.2409722508338855e+03  3.9989707749120262e+03  3.9858014975349706e+03  1.8173141385618607e+02  2.5960141357408628e+02  2.3234286195116417e+02  2.8757999728685462e+02  7.4656585021088745e+02  2.7181529575415459e+02  1.6571753290192987e+03  8.4646195487999398e+02  9.1043616761201781e+02  2.0821174586590223e+03  1.0070390948795661e+03  1.0591244386805195e+03  1.0386830931183695e+03  1.0962142974981989e+03  1.0604052263779670e+03  1.1247749174852920e+03  2.7808088748177255e+02  3.0169649295181409e+02  4.5836468016246630e+02  4.0066171081017427e+02  8.1735057351579928e+02  8.1202306619808610e+02  1.3712142446218597e+03  1.2242759315303985e+02  1.1795509638208987e+03  2.4882711371864855e+02  2.1955031009144545e+02  2.7792014829308141e+02  2.1173437892985527e+02  2.4910350412753985e+02  1.8689942472747978e+03  1.7935010189218353e+03  1.8805090549675501e+03  1.1219519137412774e+03  6.6866318302631805e+02  2.0667693539294856e+02  1.7755375337242737e+02  2.0846010925167010e+02  1.7946921613914407e+02  6.6419963667856359e+02  6.0730097000283422e+02  1.4191646066143669e+03  2.0249966160630458e+03  1.7939365587405985e+03  1.8605512632057482e+03  1.6514608480358927e+03  1.6746991200492419e+03  7.6800646223206442e+01  2.7794376973740390e+02  2.7533750607972047e+02  1.2267681220105426e+03  1.2853595628839259e+03  1.6637512952562095e+03  3.2119490351027977e+01  2.3536053382145610e+01  2.1811775094480890e+02  1.0232989497602738e+02  7.9485714309050778e+01  9.1727040858673533e+01  1.8604361301064971e+03  3.0731258885199272e+03  3.2456347019387949e+03  3.5854471378481558e+03  3.3990394096606929e+03  3.0516275873438499e+03  3.2214941678483542e+03  2.8792248245682981e+03  4.5873927985505088e+03  7.0576937081900655e+02  5.9938678879793292e+02  2.5724976629686244e+03  3.1055336871682334e+02  2.0836130716979910e+03  6.4064928512643837e+02  2.6700981192360509e+03  1.8648007029084481e+03  1.7607111555128893e+03  1.8030091226450488e+03  5.2657768814148312e+02  1.4818371557821304e+03  1.2484189227291452e+03  4.2270040417856512e+02  9.7289468853686856e+02  7.0579593927883238e+01  9.0912280537222074e+01  2.7249528531149360e+02  1.1181580203840961e+02  1.0936536669942748e+02  1.1822498703694616e+02  7.1209625649488510e+02  4.2358749503019071e+03  7.8746103251578973e+02  1.0471986064593782e+03  6.1542899656101861e+02  2.1465785115110432e+02  2.8510085150149043e+03  1.2671445426129480e+03  2.5177695199692907e+03  2.2805025914146831e+03  1.9802702030001481e+03  2.0558933753097040e+03  2.7149998614882597e+03  2.7650240140294177e+03  4.0652124891266872e+03  3.6808543444647544e+03  5.0244707256721031e+03  1.7166043184099831e+03  2.6972014952201575e+03  3.4018904174265899e+03  6.8616677336494831e+03  7.8712229844087460e+03  1.0013405538874072e+02  1.9883854252355968e+03  1.9536388226727406e+03  9.9466447504368489e+02  9.8085914027151262e+01  2.6182820537697580e+03  1.7280563446476999e+03  1.8323587336697060e+03  1.6112203130336341e+03  8.9838575857450758e+02  8.5715386601051841e+02  5.4593297612971776e+02  1.3623540157535402e+02  1.7733309010443023e+02  2.1648891884918959e+02  2.1305582509204933e+02  3.0518939522432197e+02  2.8735568348124190e+02  1.0156252384270929e+03  1.0033886504245729e+03  9.7328344573338006e+02  9.5308545291409644e+02  1.3290029618644942e+03  1.4230214346862801e+03  8.8262125906522306e+02  7.1753541157975508e+02  1.1472482206830259e+03  1.1196265456209067e+03  2.6359505835959612e+03  8.8621426749753334e+02  7.9412041178061054e+02  3.7824539593172863e+03  4.1622612327130655e+03  2.9389703116353326e+03  3.0142838483776013e+03  9.8069600068507441e+02  1.7213459369813331e+03  3.5474575316452274e+03  3.5161632668986322e+03  3.5729521334217925e+03  3.4511777362856028e+03  3.5977228409058598e+03  4.0565320281077152e+02  8.2212973755662460e+02  8.9803498343658862e+02  2.6400311425973869e+03  7.2637161006752763e+01  3.0807378250418765e+02  1.7827808841639019e+03  4.9202606467971049e+02  3.7998326293188929e+03  7.9320810838746127e+02  2.8477762994378151e+02  1.6827187381410977e+03  1.7429646242360952e+03  1.6403857635147408e+03  9.8380386644258897e+02  9.2577447858238372e+02  9.0868539944908412e+02  8.7506064792583231e+02  8.9170261982413183e+02  8.3800365299903035e+02  8.3031712079168528e+02  7.8971380357214571e+02  7.9045077386536082e+02  7.4424411077088610e+02  7.5421782183643120e+02  7.0486886354148749e+02  7.4852598590891353e+02  7.2061792752508143e+02  6.6965597458543675e+02  6.9027851983221808e+02  6.3744720865597446e+02  6.6280309925790209e+02  6.0773658481928021e+02  8.3295543614640792e+02  7.1310736008112360e+02  7.1719197578740000e+02  7.3578691409039095e+02  1.4069447429823177e+02  2.4874595578581400e+02  4.9108992946228136e+02  4.3316424809468645e+03  8.1363389375536428e+02  7.8986445206067071e+02  1.1441484600061049e+03  1.1267053824133700e+03  1.0998263580007915e+03  1.0008452775405514e+03  9.2349801820118205e+02  7.8559893504449337e+02  1.9856312105398958e+03  1.3473922803954051e+02  2.6569091661286475e+03  2.7322466570606580e+03  2.8461869094560011e+03  8.8517971315679506e+02  3.1605196195282474e+03  3.2489004476648711e+03  7.7052413672715250e+02  7.3703024913364658e+01  1.4229524829368611e+03  2.5678195784620812e+02  2.8877627168355895e+02  1.1000031138613216e+04  7.7889031195743228e+03  6.9748993557525482e+03  5.7346239177151037e+03  5.7809891711940172e+03  1.5221605113724186e+02  7.0104635451750607e+02  1.2153781243498420e+03  2.7096306839781228e+03  1.0005871141740191e+03  1.1037809916164640e+03  2.1986521064460638e+02  1.7402111014152763e+02  1.3025245410769696e+02  3.6129986199132954e+03  3.5678648635497661e+03  3.6527329930152964e+03  2.0742573675957083e+03  3.1266266557838367e+02  2.2130093983463348e+02  1.4699909952914916e+02  6.8937305735497500e+02  6.9210297716458979e+02  1.8253224143965101e+03  2.5784928753985190e+02  2.7218196147172966e+02  3.7863098424214587e+02  5.1872140351627581e+02  6.6670270952288001e+02  2.2321468222128078e+03  2.3639303223335478e+03  2.3809595869947075e+03  1.1390589531407832e+03  1.8787644578687895e+02  7.6745003367332822e+02  7.6383799540469477e+02  6.9084937355217176e+02  6.8393274786989309e+02  1.7491172943749182e+03  5.8224083916728023e+02  7.2394563939056823e+01  7.2656967699840391e+02  6.6335946254355599e+02  7.7978087502002961e+02  8.0776354089068604e+02  8.0463602001999482e+02  8.5792583405081848e+02  2.8610589948081798e+02  3.1301974904599359e+02  2.6309255665627944e+02  3.9154457958135295e+03  4.1219964455157651e+03  5.1843455342922798e+03  5.0304362589812763e+03  4.6508998389239086e+03  6.6076366075580222e+02  1.4332052980184383e+02  4.3886550460592758e+02  2.5843421905130947e+02  1.0622793507017752e+03  2.1551985384663885e+03  9.6539394624771751e+02  3.3732817168088236e+03  3.6446721072108458e+03  3.2853996396563621e+03  2.4860490595090446e+03  2.4781711926778135e+03  2.3757543271306722e+03  3.2986921255629790e+02  2.9685188933986086e+02  1.2264381163247474e+02  2.3656853508555887e+03  1.2678320776718288e+03  1.0866449313780633e+02  1.0617316554765473e+02  1.0950079206298160e+02  6.8181763468887061e+02  4.4414657829710059e+03  1.2769718655617053e+03  1.5596791957441192e+03  2.0869506752963574e+02  3.2130677351470632e+02  2.7269577992048499e+02  2.4092189264473606e+02  1.0003986238346770e+03  3.1036070299006752e+02  3.9550554815092328e+03  8.3387759075333224e+02  2.2620433303385785e+03  8.3627853645366102e+01  8.0144617344788003e+02  8.3418779935619375e+02  8.4215061044823483e+02  8.6072035204476492e+02  8.9869849490540616e+02  8.8494153937958242e+02  8.8913736852005820e+02  3.5259401774275175e+03  2.2061281686939810e+03  6.7666471954121471e+02  1.9252449656982906e+03  2.0776949880767265e+03  6.7180684456012500e+01  5.1608370872284148e+01  4.6602110651327060e+01  1.6579866911206946e+03  9.7159534075854162e+02  8.3552854087846481e+02  8.9439840424314502e+02  7.6120018069205150e+02  9.0285057674152057e+01  1.1987460136244536e+03  8.4522115202599514e+02  1.8889568256137864e+02  7.7530276048018629e+02  2.1692374369014933e+03  4.4145313091404478e+03  9.2813580043303602e+02  2.5627472829679590e+02  2.8143777807609922e+02  2.8487557016700140e+02  3.2401497424474252e+02  9.9516821105566112e+02  4.4037511818855810e+03  3.5275420930933205e+03  2.4231128705735713e+02  1.6771454152883484e+03  1.6507118799825153e+02  4.4144061739854692e+02  5.2957544056617380e+01  6.4783661941422963e+02  3.2768165833783919e+03  3.4904979588951865e+03  7.8566460653203990e+01  6.0611791549239612e+01  1.4706208474404829e+02  1.0247184983864176e+02  2.0166499582587869e+02  1.1899907092033895e+02  1.5879546617191090e+03  2.8563382468197592e+03  4.2149168817820510e+03  4.1512533124667279e+03  3.0931115980294607e+02  3.4311461829950741e+02  1.2749379677164993e+03  1.9380636390871189e+02  6.5580662282720971e+02  3.5148178753290296e+01  4.2726983306377790e+01  3.9974183676944872e+03  3.9104595993265452e+03  9.4396776253812254e+02  1.0718511891003895e+02  7.1610326356393116e+01  2.3748839078354260e+02  3.3089088938921759e+03  6.5274348327483074e+02  7.7902494823850857e+03  8.8126633594563486e+01  9.3946700289846729e+02  5.8066363280057794e+02  5.5464198465319009e+02  5.7951396342037810e+02  5.2868125493441335e+02  5.5370171530722416e+02  5.0401247663911556e+02  5.2712236805312352e+02  4.8030477235498859e+02  5.0237542386718911e+02  4.5682772116779870e+02  4.8021567645983828e+02  4.3290906063378503e+02  7.8212963763110224e+02  8.3174115851592967e+02  8.7436456754385165e+02  8.8580228035009725e+02  7.3957798639633972e+02  1.4900538026960371e+03  1.3845971598765530e+03  1.3236682889136500e+03  1.5996733623861451e+03  1.9997141187910449e+03  8.5573993232676355e+02  3.6391449714673395e+03  3.5878913834340324e+03  1.0856118189601423e+03  1.5189764635841111e+03  2.3325875072579856e+03  1.2662559873695620e+03  1.2717023450429508e+03  1.2618735745297358e+03  1.1780816351601648e+03  1.2180260062393356e+03  1.1425492480964731e+03  1.5786809177722791e+03  1.1530985239587349e+03  6.7541049495975051e+02  6.8425285623902880e+02  1.7347329464059469e+03  1.6877306745115252e+03  1.9518017116856802e+03  4.7325224265147062e+03  5.2459967971762753e+03  8.5418412050829575e+03  6.6735710511132147e+03  5.3110278543741297e+03  1.0225900531977768e+04  5.7301416873918461e+03  1.3504148157984579e+04  8.7636153489664994e+03  1.0196802485734863e+04  4.1995732548179603e+03  3.1905451607379446e+03  7.4368928236249185e+03  3.9770890600462567e+03  2.6939574796895913e+03  6.0302910357554047e+03  4.1744506012978691e+03  4.7065368765777430e+03  3.8200218961569449e+03  3.8966007767134060e+03  4.2622888080501880e+03  3.6142075504922518e+03  3.6856941832985358e+03  3.2780855330836512e+03  3.2468032440744773e+03  2.9923922117814400e+03  2.9466993563284568e+03  2.7672817724010629e+03  2.7058398238874447e+03  2.5685337959360209e+03  2.6146517074590215e+03  2.4390298908447530e+03  2.4005324305517561e+03  2.2980665002718879e+03  2.2569035894337248e+03  2.1769422848945433e+03  2.2095493145388136e+03  2.1362569501170383e+03  3.1871527424468322e+03  2.3520793321953197e+03  3.3633340812547171e+03  1.5931948102524530e+03  4.2926686905388915e+03  5.8461530590153620e+02  2.4451949898032888e+02  6.8665275489736234e+02  1.5947261897543599e+03  1.5447664587812180e+03  1.9131607702757706e+03  3.6915872287498621e+02  1.3289569162455984e+02  1.4027285852092933e+02  1.2728711536511153e+03  4.1442816624285879e+03  4.0686079496137959e+03  4.1710715868120451e+02  3.8064350327940696e+02  5.0270083832772633e+02  2.9091052905031484e+02  6.1138369937343850e+02  6.4048186555685234e+01  2.0116400215974504e+03  4.3721843503978125e+03  8.4854447732447341e+02  1.7813930525844908e+03  1.8733568761528809e+03  2.5589532329142085e+03  3.4292031723182899e+03  2.2742936883611017e+02  4.2577539822865965e+03  1.8137382182400864e+02  2.1085188555906541e+02  8.0038257649674179e+01  1.1268781121963764e+03  4.6289712686461752e+02  9.1832267573389311e+02  2.6782413192702029e+03  6.7044631883255349e+01  6.7782194619637878e+01  7.5439307523454531e+01  1.0450268469075809e+03  9.7806631149149359e+02  9.7057706516999895e+02  5.2666532728793709e+02  5.8968108104199132e+02  1.8010171004181773e+03  2.2341780661135313e+03  3.4642753325423024e+02  2.7631750756833685e+02  2.4899175595871748e+03  3.1634749607014089e+02  3.7783451075383059e+03  1.5647608673394045e+03  4.2848400053001214e+03  6.7669185531893618e+01  6.7989012142386997e+01  6.4320876245422824e+01  8.4027274931411611e+01  8.5423299109566287e+01  1.1765827995667358e+02  1.2956474964765803e+02  7.2748324431572189e+02  7.4268408423501648e+02  4.1111482604662092e+02  3.9032491374090102e+02  4.1081138259476916e+02  3.6842519759401927e+02  3.8809503413431258e+02  3.4822314869080571e+02  3.1041156269909561e+02  3.2851127047741699e+02  1.9348022789431113e+03  1.8786778421320407e+03  1.9437401444498053e+03  1.8315419585028440e+03  1.8314431498543304e+03  1.8086622776046479e+03  1.8013029016598434e+03  2.4929233716753943e+03  6.9590929678399607e+02  3.1599949761915428e+02  2.6108863693152540e+02  2.6937481214434712e+02  2.1878912711288760e+02  2.0316538423926033e+02  5.0215587600000629e+02  5.9668551391682622e+03  4.3834280043606468e+03  4.5782333214367218e+03  1.1597841433941776e+03  8.9228168828651712e+02  9.0462860695020515e+02  1.1086259677871719e+02  1.1746358103344396e+03  2.0751577038139067e+03  1.3604986687300279e+03  1.2482574177998154e+03  4.5208310096464993e+03  4.6094416827514357e+02  4.2624700238795003e+03  1.8701182349500186e+03  6.4718218952873985e+02  1.9046748648297398e+03  1.9368928565389751e+03  1.1149442834964354e+03  2.1471179338154921e+03  6.9569605066738950e+02  6.6010908315353379e+02  6.0042206210629513e+02  3.3747031580811981e+03  8.4231893810436702e+02  4.0142549226923943e+03  5.3509224993327518e+02  2.5548656884640877e+03  2.6286831622698928e+03  1.2850543691071864e+03  4.0236283259395287e+02  3.5858330829146223e+02  7.0266259427445232e+02  8.3889760261192919e+02  8.4491444790184698e+02  8.1752523604670989e+02  7.4382876376652985e+02  7.3784330693880406e+02  1.6863646519304703e+02  4.9725614415291938e+02  6.6690647457335751e+02  1.5606555157806040e+03  1.3826063481930964e+03  1.2007175183652341e+03  1.2172942837733087e+03  1.3860050665312776e+03  5.9445442366881515e+01  8.0574857224592776e+01  1.2780120586657874e+02  4.2764221220072113e+03  2.8755706582035336e+03  1.8492807466289416e+03  5.7401611248446386e+02  3.9241944175208255e+03  3.5877761960534503e+03  5.6551499114327989e+03  2.2703363515439258e+02  2.5310078800530695e+02  2.2831966758738636e+03  2.4226574195715280e+03  2.5741641840835232e+03  2.7511319088254259e+03  2.9831449002972699e+03  2.2077115256527259e+03  2.2659820728616833e+03  2.2668786393458336e+03  2.1622830629305972e+03  7.5687692296974228e+02  9.3572300989170901e+02  8.5718976558377665e+02  2.5107028036277766e+03  2.4772080446228147e+03  2.6244663876992536e+03  2.6169028378916046e+03  4.5549828595970064e+02  2.7558881209523219e+02  1.8091914705902414e+03  1.7922324762368914e+03  1.8196637259193778e+03  1.2959245368868028e+02  1.4445734037362601e+02  2.8047786696788768e+02  2.0724619409839229e+03  1.2335477380440429e+03  1.2635715611383323e+03  4.2772601072162106e+03  4.4856341053509254e+02  5.4048256483840419e+02  1.7850943579796658e+03  1.5830988003378768e+03  1.4158861287118017e+02  9.0103202985040696e+01  1.5584086122528224e+03  6.5196846246890971e+02  3.3428682609153575e+03  2.4899454032210116e+02  1.2010933038274138e+03  7.6880026889321982e+02  8.8622810277310947e+01  2.5117008031958962e+03  2.4455788672015119e+03  1.9290899225067574e+02  3.2941973436389326e+03  1.2737927328223029e+03  1.2513334253241414e+03  1.1606113245682950e+03  1.2150443297600034e+03  1.3013678816400216e+03  1.2394037423274324e+03  1.1574820839820188e+03  5.9899629867146677e+02  2.8516556570451853e+03  3.2312603880608021e+03  2.9018859850836770e+03  1.0287546261591417e+02  1.0496050787041709e+02  1.1605684379453082e+02  1.1464037552182825e+02  1.2641920294471285e+02  1.3199160969138256e+03  1.2428801709124839e+03  1.3832943117091959e+03  1.3387879419778128e+03  5.7728329812319555e+02  6.0479024061433086e+02  6.7515964723311606e+02  3.5645699331514097e+03  3.6808326107583857e+03  2.6859604286144514e+02  1.5335411676313508e+03  1.7444216729041250e+03  2.4887615460747033e+03  6.8926621418134900e+01  8.9144630982246724e+02  1.0088370584433121e+03  1.0036655188913946e+03  8.9702585394167625e+02  7.4595780292764528e+02  1.4481060883515619e+02  6.3581361454575870e+01  3.0152171703024455e+03  5.4116234031469548e+02  1.1990279978910967e+03  1.0054414114138231e+03  1.0259341093819494e+03  9.7018096640729516e+02  1.0354346126972557e+03  5.5475947739141759e+02  3.5027780721724271e+03  3.5303902811963030e+03  3.7092439768241711e+03  3.7176047405467589e+03  3.8902640154916635e+03  3.8734313085678737e+03  4.0589434575916898e+03  4.0268731309777418e+03  4.1500991282543591e+03  4.1176217666299553e+03  4.0023848037809607e+03  4.0956320326098403e+03  4.0819846177616478e+03  4.1626018589690702e+03  4.1455936839641672e+03  9.3121545719682683e+02  1.0094432871688231e+03  1.1180127253170469e+03  2.1210088489643721e+02  2.0548004244216763e+03  1.7478983307676672e+03  6.9392684402345867e+02  3.8155395724167516e+02  3.8557100851404135e+02  3.1537062876856373e+02  4.2998404936627958e+02  3.8398706372848653e+02  2.9333607577368514e+02  3.4317632589692130e+02  2.5325512472523889e+02  3.9182363482097730e+02  8.1417027794208104e+02  2.9420253943656235e+02  4.3268217467031704e+01  9.5512174539493321e+02  8.9985765477200562e+02  3.6177979054073426e+03  3.2520020834101269e+03  1.3407983521739538e+03  3.6829245601031226e+02  7.1417106957024669e+02  1.5633512115273231e+02  3.9263994621225925e+02  5.1318499365733737e+02  4.3854977918536235e+02  2.4340479295188695e+02  3.5029766260926209e+02  3.1486685960831448e+02  9.6128390340564033e+02  8.1817691870156352e+02  1.0157405680651092e+02  3.0710567493232343e+03  7.2838653441254723e+02  6.0046585769139381e+02  2.1883490142549863e+03  2.2608649974395124e+02  1.9395425324687990e+03  3.0580547723075329e+03  2.8520753268594594e+03  3.4069724831200056e+03  3.3050849646889164e+03  3.8737304652089083e+03  4.4931545580849843e+03  4.2756421262164768e+03  5.2809237340032075e+02  2.0953786189976922e+03  2.0255458824441459e+03  1.9966011829797426e+03  1.9079085806372811e+03  6.6671918064241152e+02  7.0044158218879056e+02  7.2008396834077575e+02  7.2972811249309405e+02  7.5493025722709399e+02  7.3206681373146262e+02  4.3550605901034014e+03  3.0820305950833676e+02  1.0491004960022974e+03  2.9116814083921404e+03  3.0179168610892425e+03  2.8950549542291833e+03  2.7705217830779652e+03  2.8572196773723995e+03  2.8027046329459727e+03  2.9416320242418815e+03  2.8769053959284106e+03  1.4501594995392708e+02  1.3395897049792504e+02  9.7978150688050607e+02  8.9511409888115884e+02  5.0789073368369884e+02  5.5482401405233736e+02  5.6477640175227236e+02  5.0184188181848123e+02  3.6764386744164972e+03  2.9772345022460570e+02  2.8051352811474788e+02  3.3361724436941165e+02  9.0824996353976724e+02  1.4172394766696419e+02  1.3958097527384280e+02  1.1569750696792148e+03  8.9167490585216137e+02  1.1217446154691067e+03  5.5152298297610905e+01  2.3190497875573705e+01  1.9339417621673309e+02  4.0708668791235255e+02  3.5906956298248065e+03  3.6007792312185952e+03  2.2441526566432076e+03  1.5707253204328993e+02  1.2361853299502646e+02  1.2988518253742907e+02  7.2412479755024629e+02  3.0440988739415279e+03  2.7621420837291462e+03  2.5724454168846059e+03  2.4811801490995344e+03  2.6561801083487144e+03  2.3889859223256067e+03  2.5622420716123365e+03  2.8326880552901466e+03  2.7419572751747182e+03  2.4748760689362957e+03  7.3878215262307242e+02  4.5778771722825496e+02  2.1224859886610483e+02  3.2002425520856610e+02  2.8286262696687646e+02  2.4496957803670915e+02  2.7461884262959495e+02  2.2568301339417727e+02  1.1906899590064086e+03  1.0939080703430043e+03  1.2151823532203941e+03  5.9130065697318412e+02  5.3796253417345645e+02  3.4919211406388126e+02  3.9216633067860153e+02  3.9513733578760383e+02  4.3557483150625745e+02  4.0240161552395944e+02  4.3787632383655051e+02  4.3636496850708966e+02  4.7776033624400202e+02  4.7899266024929943e+02  4.9703563606167154e+02  5.1630626213578751e+02  5.4338493109680780e+02  5.1944620089095213e+02  8.8477799837820521e+02  7.8269600891877133e+02  1.0865852101760877e+03  1.0680261729909673e+03  9.8351098600969556e+02  3.0771386263155141e+03  4.2553438630986020e+03  4.5548409715578046e+03  4.5878456578390278e+03  4.7393114885988944e+03  4.7587264613985044e+03  4.6799104978013165e+03  4.5561771858381617e+03  4.5650137820595110e+03  4.3931161963827926e+03  4.9511649642450120e+03  3.8023770833202133e+02  1.5610004709347184e+03  1.6046084309015112e+03  2.2770153383488018e+03  2.5246366075708320e+03  1.0774759552975208e+03  1.0491158736186146e+02  1.0525591903678396e+02  1.0959752798862876e+02  4.1975439765732599e+03  1.2875400551338926e+03  1.1180351756100842e+02  1.1268229113436752e+02  1.2475432650740569e+02  1.8052878674791268e+02  2.2100416558726256e+03  1.8010466221573940e+03  1.4292765916992792e+03  8.3746969932129815e+01  6.7934020760050430e+01  3.0942400563185083e+02  7.0242969951879320e+02  7.5901287969393434e+02  7.3133182883314817e+02  8.0528815089060060e+02  1.0440726075310536e+02  1.1647357537840458e+02  5.6453007346990535e+02  1.9170594483772919e+02  2.0395715527142395e+03  3.4664488522872584e+03  3.5730379692443839e+03  3.5556940107375090e+03  3.6742759948348244e+03  3.6527673655327399e+03  3.5253786590489358e+03  3.6169121272013181e+03  3.7732228895640001e+03  3.6876337371229743e+03  3.4740707693920162e+03  3.5630575638764662e+03  3.4120892347377526e+03  3.4961829574955150e+03  3.3444479103084477e+03  3.4123828271761158e+03  3.2589837351750089e+03  3.3122981151304039e+03  3.5778115805445696e+03  3.1601859467112158e+03  3.1934554362563072e+03  3.0243612295463677e+03  3.0531627004640000e+03  2.8838579381413906e+03  2.9009699511606987e+03  2.7265440761825548e+03  3.0763187937458301e+03  2.7346013481137520e+03  2.5384595923597121e+03  2.5627112045236017e+03  3.3538213394113836e+03  3.2104148991314173e+03  2.3206598337395767e+03  1.4498520441761087e+02  2.8745993766360300e+02  2.6778560722943921e+03  2.4051418741643611e+03  2.5716119570155174e+03  2.1966504690750007e+03  2.3196257749954007e+03  2.4898439552722143e+03  2.2181830180741918e+03  2.4379037637255092e+03  2.6625671075551136e+03  2.6172550566846362e+03  2.3728727191079156e+03  2.5516801840462927e+03  2.2603640815663616e+03  2.5037278793487981e+03  2.7297600143926220e+03  2.6952427800547048e+03  2.4517813266109633e+03  2.6598708741874734e+03  2.9009885262626876e+03  2.8759903967729820e+03  2.5968617050052640e+03  2.0550875823538827e+03  8.0726903528115656e+02  8.5374790006753528e+02  3.7055374043116299e+03  3.3248998894596957e+03  2.9952824836247596e+03  3.7485690911232086e+03  6.0443638707016462e+03  2.7664380018859953e+02  1.6646814631500824e+03  1.1787341180445905e+02  2.6377757150319883e+02  9.5726220953066559e+02  1.0563261772057831e+03  3.0609036125305643e+03  2.7654410920954950e+02  3.0717466215563212e+02  4.8600739204112830e+02  5.3315393429688186e+02  4.7118882900558066e+02  9.9712087309421213e+02  1.5945549579855729e+03  1.5610972721811193e+03  1.6762782578789272e+03  1.7219143518346380e+03  8.9440599260170154e+02  9.6987106906934071e+02  1.4152822269567262e+03  2.6655607714294651e+03  4.3006511912993974e+03  4.3650428013535602e+03  2.2117527704510172e+02  2.4816108038811493e+02  5.5883133030668023e+02  6.2533689620549058e+02  4.1064638217030470e+03  4.1545097334926022e+03  4.1347288238235351e+03  4.1902487665607750e+03  4.1668713172692660e+03  4.1740398375332161e+03  4.2116901345574961e+03  4.2162484199978699e+03  4.1785830485536117e+03  4.2109072001368477e+03  4.2255298382532765e+03  4.2017147652756657e+03  4.2220343646809606e+03  4.1867470723713705e+03  4.2114067838429264e+03  4.1611725184045272e+03  4.2291851536586746e+03  6.0491340620334211e+02  5.9969551631528054e+02  6.7156584004768899e+02  7.0018720046989404e+02  8.2023212862867570e+02  7.4143518788552126e+02  2.1974912037227372e+02  7.8544047581111727e+02  2.2108948428928152e+03  6.8221102063645935e+02  4.5028583653460046e+03  2.6669020155526841e+03  9.9686977456046850e+02  4.0940918363003300e+02  3.6641135288553130e+02  4.2436781040963325e+02  1.2942060848864560e+02  1.4392747950376980e+02  3.7216134992692041e+03  2.3046511313903338e+03  9.1395616941313506e+02  3.2410356426187400e+03  9.3738910070867610e+02  1.0635164744867097e+03  9.6947128655295501e+02  1.1316960851003937e+03  8.6596776444952553e+01  1.8289001984194675e+02  1.1200721596444455e+03  9.9261913011603909e+01  9.8403093384402169e+01  1.0787486792474833e+02  1.0324833871739045e+02  9.0572933442199840e+01  9.7967230743101766e+01  8.1668302768314646e+01  6.7313623132958014e+01  1.1688462181046638e+02  9.3622788381525112e+01  7.5366330057471785e+01  1.6952570607839721e+02  1.7312632607923720e+02  7.5993377131177078e+02  2.0882963050783951e+03  3.3832759078300677e+02  3.5931148506438831e+03  2.5057749364374954e+03  2.6540549515895564e+03  2.7370970813155513e+03  2.8011785057842731e+03  8.1046485428021606e+02  8.2801631026331415e+02  2.8847260828793842e+03  1.3936900243901339e+03  1.4302856665951379e+03  1.4974763394933682e+03  1.5436355645895760e+03  1.3461198366150161e+03  1.5055110524976137e+03  1.6456195976630031e+03  1.7704611179820865e+03  2.0913041306337030e+02  2.0791183487724306e+03  1.5564763902383122e+03  3.5970926933125720e+03  1.8953799096147372e+03  1.9510651617946521e+03  2.2764536646496043e+02  6.5757961043757163e+01  6.4772083904807729e+01  1.2105842706339544e+02  1.1341927437435501e+02  1.0948258520027127e+02  9.7261088315021951e+01  1.6740085250822360e+03  4.0975550351308959e+02  2.9240477466195802e+02  4.6008172534657217e+02  2.2858542003285320e+03  2.3662560696719843e+03  2.3122120617727719e+03  2.2985425037230752e+03  2.3913623287601436e+03  1.6704664171649501e+03  1.7440755193117220e+03  1.7063793130285555e+03  1.7760805409052030e+03  5.2238987009681273e+02  1.3836319939938025e+02  2.2785262988206778e+03  4.1751452442657792e+03  4.0898400420332032e+03  2.9003304801748413e+03  7.9564023204516116e+02  8.6157401286003585e+02  9.3009010668529402e+02  9.4807374519703458e+01  3.0183600754298977e+03  2.7715277292307342e+03  2.7350356313677880e+03  2.4719924461861242e+03  2.4550270284842895e+03  2.1680384884319319e+03  7.3103630948216471e+02  2.2470980711238972e+03  1.4942684409861997e+02  2.7444071866021450e+03  7.2492008985283144e+02  1.7258053270541379e+03  2.0120749907295988e+02  1.8314937919052747e+02  2.1876644775305894e+02  7.5211630966929761e+01  6.9376222438884341e+01  7.5256816644698091e+01  2.7694619547131574e+03  2.4312788795255597e+03  1.1252518866948384e+02  2.2432560514023086e+02  2.0128343163571569e+02  1.9923575849894789e+02  2.2106816614593617e+02  1.9982785360388377e+02  1.7869550525175200e+02  4.2603974845346556e+03  1.7077039069777663e+03  1.6286707648224951e+03  1.7198882857466920e+03  3.7049737397010546e+02  3.5943269354103256e+02  3.1340736463563547e+02  3.1268189498506467e+02  4.4313418671879583e+02  3.1237429687545691e+03  4.1206709516768688e+03  2.7976892546787790e+03  2.8026978096465309e+03  1.7748626488920857e+02  2.3651300430379158e+02  7.0980682159431126e+02  3.0198772338410067e+03  9.0448467394139993e+02  9.6815376042162382e+02  4.7314133169568286e+03  9.3678400974581143e+02  2.9916560494006621e+03  8.8805488775681155e+01  1.0037150620417755e+02  1.2916813226571198e+03  8.4815142600242837e+01  3.4411612239994574e+03  8.6770463901430287e+02  3.3779820894949530e+03  2.0204103015043499e+03  1.8907796273455549e+03  1.5639843097212952e+02  4.2021200333902534e+03  4.3956097977652007e+02  4.1565750652418201e+03  4.1053469628063176e+03  4.0746144344199938e+03  3.9991471525368097e+03  3.9570227312478351e+03  3.8620416445521487e+03  3.8133636853904809e+03  3.9238639082975583e+03  3.7813126550614397e+03  3.8956153061974928e+03  3.9106943259352201e+03  3.6326664035525455e+03  3.7304567183827030e+03  3.8747867330762365e+03  3.9999773031254572e+03  3.9877683852378145e+03  3.8636900498443547e+03  4.0037857975737643e+03  3.8630764505420316e+03  3.9848457767315704e+03  4.0830927315595786e+03  3.8544320580427420e+03  4.1358585345925603e+03  3.7053815986333448e+03  3.7069328972496428e+03  2.6470060793864604e+02  2.0993402478296575e+03  2.2028730073063934e+03  1.0769847852717403e+03  1.1536097277000499e+03  1.2102426843675421e+03  1.0158676213105381e+03  8.2419200283690969e+01  2.8139495126455569e+02  3.0972266838212357e+02  2.8894493279712337e+03  2.5095288615767151e+02  2.3917574927257715e+02  1.2510608365361820e+02  1.4111330472935083e+03  1.5094281348527559e+03  4.1352860512514671e+03  4.1570394725085589e+03  2.1888250239810486e+03  1.0740546950365722e+03  6.1691919896058255e+02  2.6898604392244692e+03  2.3804218418720384e+03  2.2571283075074425e+03  5.5137438319197156e+02  4.8881085016936623e+02  4.2578370776149387e+02  9.3302270961746814e+01  1.0278371477157534e+03  1.1229817868157113e+03  1.1427233666746868e+03  1.2267000507191462e+03  1.2527535749212054e+03  1.1571017980183965e+03  1.2709900206954883e+03  8.4385986986638318e+02  4.4206427591200936e+03  4.4815814432569287e+03  4.4518308651468169e+03  4.3768515755608678e+03  2.3481878155794237e+02  8.2981570747410615e+02  9.6406376292634820e+02  1.1399215337951122e+02  2.0137616042820296e+03  1.1131006035832138e+02  1.0288645299982597e+03  1.0995149530979413e+03  1.1231346786272995e+03  1.0883014164577926e+03  1.0160694563124041e+03  1.0014596572705785e+03  1.1884750516957954e+03  4.2143073429014466e+03  2.4651864226879402e+03  1.0332874938047810e+03  1.5216576977752716e+03  1.1478175769927632e+03  2.1757019887760953e+03  1.0424815720472109e+03  8.1507958293606043e+02  7.8952821300595781e+02  7.4491608127566428e+02  7.3789891748562854e+02  9.9186714436148793e+02  1.0363278116329789e+03  1.1756930658821059e+03  1.1753238055429351e+03  1.2970277162126677e+03  1.0392465404451423e+03  1.2878160636876378e+03  1.1686225766856151e+03  1.3051758712370226e+03  1.2502442920902270e+03  1.6272170818646049e+02  3.6346126083681600e+02  5.7406452689480830e+02  4.0577719071235679e+03  4.1057786683500453e+03  4.0149159440437506e+03  4.1468736974416661e+03  4.1112238901903847e+03  1.4044379694287935e+02  5.8252375126602396e+02  6.1995090860388848e+02  7.0473687595454351e+02  4.3806553997397714e+02  3.6201422404440513e+02  4.0879821274855417e+03  5.4655607060631849e+02  6.0547582740126722e+02  5.9463023622938226e+02  5.5325408377303188e+02  6.8704463602696296e+02  6.8944218714847227e+02  7.5977254127714480e+02  8.4053892126275741e+02  3.5538184630266471e+02  3.7694597812317601e+00  3.0840204999516967e+01  1.8020869610650020e+03  1.7305176333906761e+02  1.8977725868874757e+02  1.7444327850801269e+03  1.2793598862817844e+03  3.5084725907854126e+03  9.7526308793791952e+02  1.0749467189927880e+03  1.0948057799784992e+03  1.1351553151989449e+02  7.8347590559285857e+02  4.4664483373844769e+03  1.8054220691908940e+03  7.9821008992237410e+02  1.7115736219567691e+03  9.8770070666646021e+01  3.1087237703567290e+01  4.7385632408697671e+02  9.8183835025396519e+01  1.2121821744049198e+02  1.1913400257167886e+02  3.1484995041671539e+02  1.0805372511220028e+02  2.1314009138246138e+03  2.2185136503053659e+03  3.4997964408937486e+02  2.9544899617990177e+02  1.3925113539302549e+03  1.2614621373676546e+02  2.3027608411214173e+03  2.4788416450305351e+02  2.8022845657624994e+03  2.6120220667986819e+03  1.6760437897501171e+02  1.0151165133857512e+02  3.4447943668079338e+03  3.6659845263141897e+03  3.7047501596475909e+03  3.8854051766427801e+03  5.6360161225664456e+02  2.6425096531862266e+02  8.0470980554276957e+02  8.6170800420838395e+02  6.2167258310184911e+02  1.0764221261705345e+03  8.8477969015395195e+02  9.1424141031478996e+02  6.1682918660731488e+01  4.3093998501340866e+03  3.0029922465825543e+03  1.9643133001932833e+02  4.0101356703135315e+02  3.4710754964724133e+03  3.1425580605210678e+02  3.4931326589725591e+03  3.6479425334158776e+02  3.5388868886839754e+02  3.9525042236922104e+02  3.4606048833249764e+02  3.2097185250317966e+02  1.9221287724810343e+03  2.7284965915138582e+03  2.8728205155112528e+03  1.5120270138885392e+03  8.5340038910323130e+02  5.2238444627070317e+02  4.2235261887735242e+03  1.6815576932754104e+03  1.1735588216381896e+02  2.8692010558915609e+02  1.8244570574473556e+02  9.4122660570547922e+01  4.1730264664630577e+03  1.1813732501911934e+02  3.8785257312841536e+03  3.2271065299385288e+02  2.9155068315502041e+02  2.5270931873457315e+02  2.4801731213116574e+02  3.3844707388218916e+02  3.9762090868237379e+02  3.3811952386337879e+02  5.0774877393138775e+02  4.1207840127626587e+03  4.9496518508950243e+02  3.8843933967560798e+02  3.3585284006076654e+02  8.5405925577789799e+02  9.2573218621932358e+02  2.3840469122272052e+03  2.7390564771662389e+02  2.1747748136762370e+03  4.2903310675228158e+02  4.1975333752896595e+03  1.5014449855074672e+03  4.0677878352021116e+02  9.6025849337646559e+02  2.2972343188024234e+02  2.9058974582989129e+02  1.8065442565210892e+03  1.4120629229859808e+03  5.7350470237260208e+02  5.4157726310786529e+02  4.8409568131836943e+02  5.1175971269052542e+02  4.5864231135326560e+02  4.3548955467248243e+02  5.3778873283347548e+02  2.5266161133329765e+03  2.2788885940792429e+02  7.4480591507244014e+02  7.0568796533295085e+02  1.0342884910352122e+03  4.3932974321271365e+02  4.3445704999919724e+02  4.5768573683331115e+03  6.1493876642747830e+02  3.1885704753774344e+03  3.1193384070646783e+02  1.0028940026862739e+03  3.7507030229731970e+02  3.7372653123126145e+02  3.1586276752454427e+02  3.2334464480405802e+02  3.1347749429660553e+02  2.6711872000040017e+02  2.3232699849342418e+02  2.1362756628483439e+02  3.9508143269665180e+02  3.8632617465069251e+02  3.2831000817760253e+02  3.4430895972196718e+03  2.3623036525979619e+03  4.3200304530918423e+01  8.5773851863483628e+01  1.2389040339262750e+02  4.0444556494231065e+03  1.4993573724329283e+03  9.4787788717585681e+02  1.6631253373708817e+03  2.0632760854127805e+03  2.2508378352762864e+02  8.8328445040827921e+02  1.0791144037049157e+03  4.5483758042338383e+02  6.4310311191912447e+01  1.9348031949316912e+03  3.7380149108966344e+02  2.7320543309046883e+02  6.9833865209753696e+02  4.8925948374078354e+02  1.1480633332371294e+03  1.2889509555442401e+03  3.8344807279988862e+02  3.2611573033124267e+02  3.1116868687068302e+02  3.8324237636320339e+02  3.3900393185621226e+02  9.0957676505390069e+01  2.9012153809304436e+03  3.3620577643245969e+02  5.2395961321619222e+02  5.7691433720204100e+02  6.3044762654804504e+02  1.7228547809308907e+02  5.8345602819758165e+02  1.2968632421089278e+03  5.4661416667096387e+02  6.0197965422453365e+02  5.1022439934771944e+02  1.2071620532918014e+03  8.3523447612720247e+02  1.5596498247661100e+03  1.3943076486822727e+02  1.2425269981356222e+02  1.2134864624340088e+02  1.5443495183898023e+02  1.5772881870598707e+02  1.5221674887054553e+02  1.9233332260439275e+02  4.4213500330581832e+02  1.1686830866258877e+03  2.4661956746728680e+02  1.3833877841635324e+03  3.4762664781123004e+02  2.8286977967518550e+02  5.4596544977438009e+02  4.8230193432099708e+02  4.8444267377907710e+02  3.2843691234139857e+02  2.3328662367106966e+02  3.5694842861380670e+02  3.8311669902018548e+02  1.6088815731159557e+03  1.4729004325937808e+03  6.4325835228814424e+02  2.3803354454955011e+03  2.3092525011725984e+03  1.9090312853148957e+03  3.3097195755793941e+03  1.8042647980209640e+03  7.1366003338344785e+02  4.3349827495094746e+02  1.2992145466056013e+02  5.4150807819436920e+02  1.4317862952162272e+02  2.0708549216290744e+03  1.5513112701358559e+03  6.7632857437770701e+02  6.2152918175886566e+02  5.2171003538069021e+02  3.6969801263851314e+03  1.9887023554398684e+01  1.3269709447441303e+03  5.7488353356887535e+02  6.3735114290164358e+02  7.3370403497687357e+02  9.6338285847645602e+02  8.8694752409332375e+02  6.0432542108874702e+02  1.1243582618289771e+02  1.1337591559238699e+02  5.0717832407164115e+03  4.1718108492012298e+03  7.2351277352662032e+02  1.3147793461942413e+02  1.3773444953444107e+02  1.6485698457740963e+02  4.6327434694391559e+02  5.9919230489061977e+02  3.6863700261626286e+02  6.4616211966990988e+02  1.0341688808336703e+03  1.1489880938063691e+03  6.8883954837071030e+02  6.3630350444893065e+02  7.4192841266678863e+02  7.8750449458212984e+02  2.5718691891666970e+02  6.8850554633039064e+02  4.4279907543575985e+02  1.9647111380869217e+02  1.6877633880720387e+03  6.4060648602641970e+02  1.3301542126914082e+03  7.4975024170340544e+02  1.9181601058803739e+02  1.0230145309162712e+03  3.7626576847676239e+02  9.3841711888418126e+02  2.8176397395881594e+02  1.4969923618895623e+02  2.9228803285413193e+02  4.6071657018420037e+03  3.1891943826948154e+03  1.7096583078556714e+03  1.3031074209266879e+02  3.4137130610772469e+03  2.6844685413667474e+02  1.8081244406248592e+02  1.1328312537058321e+03  1.3599447288714100e+03  2.1195501518515536e+02  2.1471498420518216e+02  1.0128330969119600e+03  1.1740717125656411e+03  1.0962198052611236e+03  2.3970793875881532e+02  3.1268520217063342e+03  4.8793697136813142e+02  2.4456354366326395e+03  2.6330527581173146e+03  1.5426472672898117e+03  1.6239932088057396e+03  1.5980019580610715e+03  4.0800006526553705e+02  4.4972229903542654e+02  1.0487717582354589e+03  7.7603785759635613e+01  5.7392612121902282e+01  5.8483853826661850e+01  2.3078834025776109e+03  4.9303260132773795e+02  1.0960352959883160e+03  5.0703058342121983e+02  3.8053120366761021e+02  6.4078696496477119e+02  4.4540472253980652e+03  9.7664881519241237e+02  9.3497099198636829e+02  2.0688028862296296e+03  2.3286300785441276e+03  2.1549898039518771e+03  3.0890254032942062e+02  2.0299477896186528e+02  3.3432631221800932e+02  7.3067410229042139e+02  3.7469358758913431e+03  4.6218606002035663e+01  4.8045247251922930e+01  4.0302025490611450e+03  1.2267492131474810e+03  1.0498028194334876e+02  3.1423353256633453e+02  2.6588471336318469e+02  1.9905422085224880e+03  2.0241847614679330e+03  8.3258748756125669e+02  1.8255141501772812e+03  2.0100853612596015e+03  1.9855270357563268e+03  2.0342470643352931e+03  2.4996463079893947e+03  1.7399064673018670e+03  5.9664494436283019e+02  1.7030907406743026e+02  3.7492875071625785e+03  1.0279167360353108e+03  4.4705723865211729e+02  3.7590517090430885e+03  2.4959319944747294e+03  5.4663441031641787e+02  1.2978453051122815e+03  1.8297440799927068e+02  2.5381897737459207e+02  3.3118320177511288e+02  6.5671331081613732e+02  3.9252884456828116e+02  1.6757593149459158e+03  8.4877035508662163e+02  1.7644841254562098e+02  4.6880615725027076e+02  2.8596450194326262e+03  7.1687598428333820e+02  2.3702756036305396e+02  2.6624659006634420e+02  2.3681660839342003e+03  1.0864769664582809e+02  1.7781373147166785e+03  3.9707296278788504e+03  4.6157144084493001e+02  4.2540175138441182e+03  3.3360298224198203e+02  1.1337579427278010e+02  1.2566719776091406e+03  5.9127671381443906e+02  5.4089136682133267e+02  3.1043591765018289e+02  4.7980209775515068e+03  2.4001389606009191e+01  6.1702839325261925e+02  1.8132599920989853e+03  8.0333046475447759e+02  8.7813050869988001e+02  3.0571925254006720e+02  8.6892479503808147e+02  5.3362240391682315e+02  6.4377531589082741e+02  1.2378572990250630e+02  2.8123189164988898e+03  1.4712969859241946e+02  3.4565844893376646e+02  3.5488333285015324e+02  5.2651752127243391e+01  1.1484959125023865e+03  6.9328579437537860e+02  7.8049042381216236e+02  8.8309836518423072e+02  3.7191048435875359e+02  3.1003724626246549e+02  1.5681098321564815e+02  7.5521952603368845e+02  2.8213756853834087e+02  1.7989307600609644e+02  1.7878938393326052e+02  2.7151780865522056e+02  2.6820097678019675e+02  1.6825573001142768e+03  1.6014864093818055e+03  2.8611534303902881e+03  2.8036695784658230e+02  4.6814598816808694e+02  7.4212876191252496e+02  3.4862405946412906e+02  2.7585883183323404e+02  9.4305080474282008e+01  3.7710191545367461e+03  3.8892257206668569e+03  1.2478948817396986e+03  1.2292890750116690e+03  1.5575417782172071e+03  1.1756895100685890e+03  4.0372583669434466e+03  1.1684129520069769e+03  1.1969467296229918e+03  2.9342284028747108e+03  1.5180084268857099e+03  1.4889342919899459e+03  9.2119864400407906e+01  9.2639373912238071e+01  2.3850001743414390e+02  3.4123906856687006e+02  8.7696195590944069e+02  3.6617474536814404e+02  3.3474561210794428e+02  2.0406392539558367e+03  2.6120669357272791e+03  1.3552011056396339e+03  7.9346798202915704e+02  6.1318081989073448e+02  7.6038810396801955e+02  1.0840473249509441e+02  3.2996576220211446e+03  1.3808226362414218e+03  3.7108120397912933e+02  2.7689982856937939e+02  1.1030595961418705e+03  9.5046347124192232e+02  8.0269145098274851e+02  3.2557375785292752e+03  9.1885213812072004e+02  3.6981708253949535e+02  3.6234406521762440e+02  2.7414845981702706e+02  2.5595471974614381e+02  3.0259257097435911e+03  1.2099393111915033e+03  2.7232954217229167e+02  2.6997816267494363e+02  1.6972603592759619e+03  1.4299204703429912e+03  3.7983031260469315e+03  3.6870368291476352e+03  3.8620038964644650e+03  3.8775867372754487e+03  2.1319816599757388e+02  3.1569532611607901e+03  1.0316440973747015e+03  1.7676232127949995e+03  7.7404870767835007e+02  3.8791119309511728e+03  3.3791518091918947e+03  8.9829456694930923e+03  3.8342119462399332e+03  5.0733680777205564e+02  1.8681271109364645e+03  3.5392601167647754e+03  3.0797951365713448e+02  3.4231750697829921e+03  2.2820434812349076e+03  1.3000220577192025e+02  1.3383282378450986e+03  1.9966702629252234e+03  1.0019042609201895e+02  7.8143485356826823e+03  7.7351620906252456e+03  3.0099221015138319e+03  1.2476487561647546e+03  1.8003554769353823e+03  2.9275749077739869e+02  2.0920196200148675e+03  2.0973017489165613e+03  5.2030294656407059e+03  4.3317354355047524e+02  9.3728693428006022e+02  3.2846231273570487e+02  5.2419291491193076e+02  1.0141996610870023e+03  2.0406064310310019e+03  1.9622886398657008e+03  1.3151310700697222e+03  3.4938865007215445e+03  4.2754490533979106e+03  4.6837869607121838e+03  4.2618316247181465e+03  2.2336242945368846e+02  3.4532818698579290e+03  3.6785755812900757e+03  6.2047338495301915e+02  5.1469153050346802e+02  6.7006103859722612e+02  4.0567622554449881e+03  9.7509933482466579e+02  9.0205292079518256e+02  1.9231571872360783e+02  3.1359223372042134e+03  1.5136619479419727e+02  1.6976181806273232e+02  2.9716348069951380e+02  3.8486320720278113e+03  9.4232591264275243e+02  1.9836356977944484e+02  1.1512653710795460e+03  1.6425211922815520e+03  1.0608897145914227e+03  1.9688342363925588e+03  4.9619514848674834e+02  3.2115826793274364e+03  7.5902787662026378e+02  1.0061272557623774e+02  1.7570309288412686e+03  1.0841379825280314e+03  2.8138265652838086e+03  2.5041405539152520e+03  2.3761258246422544e+03  4.2243333474850524e+03  2.7703961339588602e+02  2.3273348423551479e+02  2.1518033447336111e+02  1.1246626423008553e+02  3.5492122663174923e+03  1.2662823402146882e+03  1.3332867105583171e+02  3.1051896701704077e+03  1.8984432059359995e+03  6.7855878598309539e+02  7.8998142488524775e+02  1.1775295773742268e+02  1.2076259593285191e+02  2.8162281368734079e+03  2.9713973413725057e+03  5.9559375703020805e+02  6.0888880525808747e+02  9.4001312570405162e+01  2.1638590295893214e+03  2.1590571729921162e+03  1.9965637361257484e+03  1.3738396659253517e+03  8.0370345603191890e+02  6.0660169712718800e+02  2.1130976601239881e+03  4.2511170570654685e+03  4.1612595381801549e+02  2.4002846022906469e+03  1.8721984501358975e+03  1.8732679365806177e+03  2.2080619615268993e+03  2.8120131130492177e+03  2.0782242108572518e+03  1.4303675843259766e+03  2.9654566272548254e+02  1.4651696434111243e+03  2.6820681053627236e+03  1.0773230685125029e+03  6.7761423271508852e+02  2.8062603390485137e+03  1.3677427097103478e+03  1.8684981072441440e+02  6.3225094214891089e+02  5.4176973138043661e+02  1.7915381836479442e+03  1.7926773416474093e+03  3.9695359338606195e+01  3.4805767210280555e+02  8.0075432579519520e+02  1.3754100371449415e+03  9.9652737055320824e+02  2.0508443889198743e+03  1.3442458047567147e+03  4.0502523809664717e+02  2.1995330249084350e+02  9.4240869860514476e+02  2.5750387536947169e+03  1.0240625350976891e+03  2.4719805722868355e+03  7.6427020093670848e+01  7.6484394745478482e+02  8.5868210139563462e+02  1.6544935272224479e+03  1.8436854148179418e+03  1.8513861959110322e+03  4.2105459130039098e+03  4.0926625960505658e+03  5.4756917093402149e+02  2.5213581673804383e+03  3.2857811796040542e+03  4.2135316888884636e+03  4.2527793366338628e+03  4.5820839303552302e+03  1.8368752028568299e+03  1.6691303866616743e+03  6.1832896054075775e+02  1.6116975429903326e+02  9.3412639002226683e+02  1.7554393598615775e+03  2.7656480343146254e+03  7.9959643235425938e+02  4.2496336499755453e+03  3.5981269448917051e+03  1.8232804832606339e+03  3.3709949806432391e+01  4.1938866051652931e+03  4.3190362420361581e+01  5.4219497638780837e+01  2.1265045812347989e+03  6.2949406164051754e+02  9.5693584590027524e+02  2.8894780953816548e+03  6.0300236177504360e+02  2.2111825505586912e+03  3.3922878586984027e+01  8.7536713142258031e+02  4.2196863653395421e+03  2.9949407355048147e+03  4.0567578421639828e+03  1.0588038784496459e+03  1.1258456583810246e+03  7.8448452658222607e+02  5.8032411155546640e+02  2.5315118640211767e+03  1.3926838541748582e+03  9.9537542274153327e+02  1.3246332901836438e+03  2.0115054250260055e+03  1.8491427868128221e+03  1.1565865019776157e+02  9.0646792601664757e+01  3.3707167297544206e+03  4.9032370449788124e+02  1.7130408777802728e+02  7.9433638248724685e+02  7.9470762856686827e+02  1.2878079310867327e+03  2.4936855493730300e+02  1.5743022528635379e+02  6.7154214441084548e+01  3.8601078512734166e+03  2.3071072228949079e+03  2.5464247407528663e+02  4.5843595127992612e+03  1.7134160181180650e+03  2.3085088850140000e+03  1.3889826580198238e+02  3.8028222037552141e+03  3.7461021645885539e+03  3.8698436710734245e+03  7.1556579380604148e+02  5.0328176923171350e+02  1.1680191296778110e+03  1.4659742697441043e+03  9.2458668454725762e+02  1.0736402176475569e+03  1.4759596250397958e+03  8.2157234292726662e+02  7.7931134502700229e+02  2.6315316168642227e+02  2.0358465623475577e+03  7.0649303895948390e+02  7.8252473524612731e+02  1.3148183014821466e+03  2.9692267500504959e+03  3.0340584093243865e+03  4.1870508246429545e+03  5.5633816967918692e+03  2.1476539402469989e+03  8.1382936114186577e+02  1.2328861427952961e+03  4.1462274833731017e+03  1.1660077490047233e+03  7.7934442518374021e+02  6.5921856672258104e+02  2.4218234712597433e+02  7.7605343362904966e+02  6.4257549970688288e+01  5.1334369195945747e+01  2.7215639165252187e+03  1.1160520955785785e+03  1.0553509180208969e+03  8.0879569885057504e+02  2.9477229164983373e+03  1.2329640779803441e+02  1.1491442929761351e+03  4.5451912392332406e+02  3.6387304668178572e+03  9.0278395353348731e+02  7.4347157181861598e+02  1.1977864772064203e+02  1.1039234071928713e+02  2.2466748514278868e+02  1.2106545650568105e+01  1.3858336769927634e+01  1.8534403326769007e+03  5.8752694577919169e+02  2.4852526017234018e+03  7.0528737939190034e+02  3.7978196871259279e+03  3.0942992872946852e+03  8.8786304485687367e+02  3.7998117806550881e+03  1.1141977112458778e+02  1.8691615059634208e+02  4.8569844229493663e+02  3.1798430345409148e+01  1.4254569534426093e+03  3.7823609185647042e+03  1.1701776839387065e+02  8.9241100613235301e+02  8.4074125574473305e+02  8.1976884057787800e+02  1.8447612840568547e+03  1.1697318810871889e+03  5.9616275715164147e+02  4.1580925488448634e+02  2.0189234943894353e+03  8.3843569533529035e+02  1.0920426426733557e+03  3.2603591740878989e+02  2.7915682567535000e+03  1.0343169444185999e+03  3.7129128609296305e+02  3.0756409711241486e+02  1.0387185293577429e+03  3.2531355628736299e+02  1.0031469118089552e+03  4.8449949044952791e+02  1.0754819810597671e+03  1.8424964297578526e+02  2.3010904283649888e+03  4.2217785527440390e+02  3.2517617510067439e+03  2.7241961078594081e+03  1.2450999560760556e+03  1.9141885447052518e+03  5.1014991961420759e+02  1.1254745101531647e+02  3.2231755152583510e+03  2.9069230675611334e+03  3.4694667863602899e+03  9.0515700235522195e+02  5.0331726978166243e+03  5.5339851757359838e+03  2.0788202416285362e+03  1.0890822921260644e+02  5.6691538798733882e+02  5.8024196527871908e+01  3.2504377230365867e+02  1.4874657417580122e+03  1.8500597823436854e+03  2.6582380070834902e+03  2.9047658610282110e+03  9.1155593699085250e+02  1.7979314531953827e+02  2.9837560100305376e+02  1.2715262819454074e+03  7.4370907596038398e+02  1.6348169115926564e+03  1.1069089761204118e+02  4.0829751458274736e+03  3.4401224302357804e+02  3.1241659917388222e+02  1.2095526995864232e+02  1.7957644798454037e+03  8.8368322554203689e+02  8.9428323291452648e+02  5.7953751964540072e+02  1.8143005843914589e+03  1.3617673220141742e+02  3.7572322831228830e+03  9.6517767574184893e+02  2.4935652644944832e+02  4.2416763377118659e+03  1.1274897186417894e+02  1.1859074555502532e+03  3.7047217725161199e+03  2.2583700610476599e+03  1.1141792388095964e+03  6.0707475133151843e+02  1.4543626089197217e+03  2.2403257380293880e+03  7.0954631443257927e+02  9.2851802142376698e+02  7.6782484407295021e+02  2.8172549686178587e+02  1.2962278927434880e+02  8.6238983319838849e+02  1.2504168786385776e+03  2.0455506217233227e+02  1.8324781198462190e+02  1.8291276652058414e+02  1.7148156252386801e+02  1.4332748784901699e+02  3.5114523914193915e+03  1.5949472507794278e+03  2.0532090311691481e+03  2.1698823495793090e+03  1.3135413559277811e+02  3.5356801986312912e+03  2.2920770923174814e+02  8.2656470237589099e+02  5.3156757691323764e+03  1.2015114363431894e+02  2.8122090139338816e+03  8.9379143174785986e+02  2.7769568874090817e+02  2.3851794031361624e+03  1.1007784218638299e+03  2.4584645828276550e+02  2.0696192934455897e+02  8.6397626973257115e+02  1.0738551593628745e+03  1.9017901761685661e+02  1.3489451123299227e+03  1.4522519499236515e+02  1.2834879061075126e+03  1.1879828933640486e+03  1.1157909494610133e+03  9.6270246501003885e+02  3.7257757476020206e+03  2.0091145769561373e+02  2.1153307435014631e+03  3.0909500624742183e+01  2.9188192062262225e+01  5.6095261478284613e+02  1.5403243743148992e+03  2.6235057217322719e+02  3.5194460986419369e+02  2.0046018079026044e+03  1.3837944075034288e+03  4.3983048898159532e+03  6.5614148228200861e+02  5.9254710381152245e+02  3.6356948951269337e+03  2.5337951879489023e+02  1.2557641310147653e+02  3.3556970911012195e+03  2.8486504583070105e+03  2.0961236007537968e+03  1.7068354983480403e+03  6.3089171546402861e+02  4.8335802560984371e+02  4.1856353500083378e+03  6.9650106942425475e+02  2.6535074747650771e+02  1.7805252691569410e+03  8.4900586939083053e+02  9.3680830605101221e+02  1.5210498546745069e+02  1.1933466126018504e+04  1.9745809065793171e+02  3.3254887340393464e+02  6.5648251837259323e+01  3.2472089157278092e+03  3.6879223091173458e+02  2.1785064113905028e+03  4.1857863665636396e+03  4.3430948604912637e+03  1.7574275936188292e+03  7.4087456575806470e+01  5.4444170326272570e+02  7.2370438884418866e+02  2.2443623260928789e+03  4.2054057075160481e+03  1.4464565869176624e+03  1.0008886879142997e+03  3.8778944510379201e+03  8.2092586045963674e+02  9.4306326425616794e+02  6.9130062742882899e+02  1.4755061278924925e+03  9.3371261086382503e+01  2.1726467111445382e+02  8.2889235333195245e+02  9.3046487788563286e+02  1.7355377109954279e+02  1.9535563403636829e+03  7.0148313846274732e+02  2.6804807366004934e+03  3.8420556364865774e+03  1.6635881110771234e+02  2.7910848966563310e+02  1.4143887300177673e+02  1.2125620286748277e+02  1.4196461463185294e+03  3.4081694085267472e+01  1.0239347474785900e+03  1.0610869890907923e+03  2.4877260596091898e+02  1.2265292157623228e+03  2.7341676091786744e+03  1.6106670764100052e+03  1.6825799699997392e+03  2.2593174779830733e+03  1.0943402469461187e+03  1.6477608804198069e+03  1.4832688962558939e+03  2.3762665807278918e+03  8.4061071321250847e+02  6.2317193556274766e+01  1.2616637427002759e+03  3.7923097921201647e+03  1.4846911951594137e+02  3.6770590137229992e+03  1.1257176539901727e+02  4.0869519083718666e+02  5.6045163965072550e+02  2.1684475367226409e+02  8.1869416357676778e+02  2.0850334056649362e+02  2.9224296486531734e+03  1.6929323608153970e+02  3.7193194049409071e+03  1.0081378167852572e+03  3.9358513775687373e+02  2.5729149420568075e+02  1.9941245950530445e+03  1.8188235049557506e+03  1.4472968442609524e+03  9.2517747635742899e+02  1.9427867260022003e+02  9.5029691721170593e+01  3.7268046676022745e+03  8.7350151036933812e+02  2.9713240797252439e+02  2.8215993517581438e+02  1.4213259337723175e+03  2.6835154799120295e+02  2.8680525456805653e+03  1.1930712540477905e+03  4.3895691603913938e+03  4.5044139676504174e+03  1.5776877088086833e+03  3.8994038214461455e+02  9.1538416313274320e+02  5.5358724268034985e+02  3.3956895401272948e+02  1.4105206231629857e+03  1.2603095911751000e+03  7.0661912304384589e+02  7.7991690771083722e+02  8.3187913540849564e+01  7.5376092446056305e+01  3.0306141326440465e+03  7.9486516649332361e+02  2.4308481205718940e+03  1.1596441680994419e+03  6.4289953300414686e+02  1.0967997247364436e+02  8.9950820543874568e+02  1.8333026856224240e+02  2.2509866334244725e+03  4.1416791206554699e+03  1.8388817420131611e+03  7.5640624991283255e+02  3.8027989942822393e+02  2.5211070747469748e+03  1.1642329672398450e+03  1.7725672096318178e+03  7.4316851451294190e+02  1.2781468409068186e+03  1.5508556249227847e+03  1.1132000184678681e+02  4.7298706573961560e+01  8.4821905441484762e+02  8.7100868500948138e+01  1.7542345437763565e+03  6.7865347575364353e+01  2.5996358639770483e+02  9.8708797235594875e+02  9.1362208768964456e+02  3.9838291442742816e+03  3.5459298988938366e+02  4.3145732769350690e+02  3.4868134662704706e+03  8.5306658898959677e+02  7.5206386659251439e+02  3.5983123525445677e+02  1.1937737220821913e+02  3.3086489043322185e+03  9.1631660944789542e+02  1.9989424857300037e+03  7.5626621486850331e+02  1.0297627954303018e+03  1.2302374387017378e+03  2.1070112278411611e+03  3.5060949370997810e+03  1.8112840657053841e+03  3.6838128529893760e+02  4.5563381891550011e+02  9.3136847629081842e+02  8.8615370346037287e+02  3.5655040414931714e+03  1.5955630509904945e+03  2.0415195301966837e+03  8.3229427761387274e+02  1.1545481475828581e+03  6.1198885472724101e+02  8.4930956414117861e+02  9.6138943232757697e+02  1.2085103967790634e+02  8.4160482858778224e+01  8.0765698589253063e+01  6.2690675440397126e+03  1.5929951309995135e+03  2.0268680958709550e+02  4.8128975335616752e+02  3.1489810520591323e+02  1.0681811809846201e+03  1.3366073247283750e+03  2.1796166527791675e+02  8.4023660392485596e+01  3.3756559374013244e+02  1.5963100130524456e+03  4.1351841691892105e+03  1.2874741145419582e+03  5.2172184115549044e+02  2.2855212295714486e+02  6.0903168721352597e+02  1.3290570192733035e+03  1.0362740952544016e+03  4.2771888209151058e+02  4.6937504775835555e+02  1.0670293805012266e+03  2.5687074409879534e+02  8.3914532338176400e+01  1.8247057684440423e+02  6.7342342349813271e+02  3.7621427170618094e+03  9.4935628867288881e+02  2.1036937015388830e+03  1.4683726138301296e+02  3.3316974143154204e+02  2.7452565407555039e+03  3.6880958557620861e+03  9.6655924666755777e+02  2.4612521363459014e+03  5.1524628772856283e+02  7.6217951554314925e+02  8.6410859356720482e+02  7.1259880590714931e+02  4.0188313606778970e+03  8.8642429460632786e+02  8.0748610546815303e+02  1.7253198523924507e+03  3.8226360429708609e+02  6.1076945644477064e+02  3.8389451606795319e+03  2.4858989695745814e+02  2.6188130843838953e+03  1.9739176808336022e+03  1.8058304858183483e+03  1.3612174385674158e+04  3.6353186451483958e+02  1.9401199927455700e+03  2.6169545538679322e+03  9.5966001692239479e+02  1.6039809342881699e+03  4.4080160210317536e+03  7.2736964884147437e+02  1.4367266450292945e+02  1.4520747700576177e+02  2.0284246940474861e+03  4.5976204969060831e+02  3.1600666652240366e+03  1.0289209072162948e+03  1.6058622844693450e+03  3.6114667709089008e+02  4.1002847880746967e+03  7.6878035888263724e+01  8.8455495709273362e+02  3.0695998273991069e+02  9.6180662783110074e+02  4.0847846691399280e+02  1.2894088560094992e+03  2.8659075107673357e+03  1.1648431966461601e+02  3.0184642351568700e+03  6.0679563218632609e+01  7.6517214973005650e+01  1.6639108329982580e+03  1.1917477497784760e+03  7.3305617211154313e+01  2.0353154422935206e+03  9.7399656267084561e+02  9.7955192076282481e+02  1.3644836906725601e+02  3.0999538049463390e+03  1.0280226602937461e+02  5.2986570249535525e+01  2.5049478195211856e+02  1.7390992580293916e+03  1.1214863790958336e+03  4.0238621931702019e+03  3.0083448698652114e+02  1.1173507256879451e+02  1.5868075172144122e+03  4.6852463340649223e+02  2.5165642400537599e+03  1.5487689329342072e+03  1.4175923611478772e+03  6.0591811892784585e+02  2.1494101455352251e+02  3.2275969734450160e+02  3.0272615071977702e+03  2.4131643222571629e+03  3.6530600767962478e+03  4.0746654015153490e+03  1.1110595132510559e+02  3.6841929295092368e+03  1.3939810747890194e+03  2.0052704244038453e+03  2.3873783588531087e+03  3.2660482016256788e+03  7.4861973685892667e+02  2.4223378400209512e+02  7.7708610044858938e+02  8.7972588383265872e+02  6.5922010364929349e+02  2.0452266432479676e+03  7.1653842461686338e+02  4.0227669831216422e+03  6.3497069390670504e+01  2.3163313941120481e+02  6.1561503261734686e+02  7.9493004183897426e+01  2.4700963782100271e+02  5.4535541636894732e+03  4.8706674023255055e+03  3.6646996461707907e+01  5.4463558856392001e+02  9.8291757052933758e+02  1.1004294964419291e+03  8.6716863068269993e+02  8.2445239387994241e+02  6.4811541953629046e+02  2.2651436312824599e+03  5.0993198025606677e+02  8.7310151965703835e+02  1.3512357633053575e+03  2.5408439853467709e+02  1.6085277984466353e+02  8.4232072837874546e+02  5.3776179538903548e+01  4.2312902134199021e+03  7.1232566900081486e+02  1.0242268126997267e+03  1.1044710955514261e+03  2.6268067792493753e+03  8.9595255416987379e+02  4.1784303599046352e+03  5.5532754263932964e+02  4.7560694753248214e+02  6.8320762883618318e+02  5.4150088784206519e+03  2.1578069123330127e+02  1.5701937487506175e+03  5.0822934665157862e+02  1.0144613088257375e+03  8.3102126783837127e+02  7.6514072394568916e+02  2.4223127362496589e+03  3.0104007630142110e+03  3.0705663904513549e+03  4.5607425302104284e+03  1.9316842217840158e+03  1.0262833458775300e+02  2.8981214191912477e+03  3.2581156763709515e+01  6.8874070988087908e+01  2.7421894553339048e+03  1.9696881861715914e+02  3.2372036586327181e+02  6.0359330898528299e+02  1.0226214170229655e+02  2.0929207237427968e+02  6.5640928406132798e+02  1.0902873976461463e+02  2.6972219688085620e+03  4.1851182155453298e+03  7.4664806650959395e+02  6.6252075440434476e+02  1.0346144870440826e+03  1.1521013933449444e+03  1.1534288273275215e+03  1.0336157469641043e+03  2.6485004986455340e+02  1.7322857225619159e+03  2.5435842185115434e+03  1.6574712429600208e+03  1.7142183380172473e+03  6.8537466564488568e+02  1.8082975188661757e+02  7.4773587659341888e+02  7.3211120760873780e+02  2.6855061894944072e+02  3.4525584553208414e+03  7.5375102471765240e+02  2.3194200409353020e+03  3.1929934342584698e+02  1.2647293597257321e+02  8.5309896772641525e+02  1.1660628650199276e+03  1.7770701895849193e+03  3.0970618639446701e+02  1.1047281835124434e+03  3.6648387232559816e+02  2.8269102719221132e+03  2.5764445156653496e+03  1.9561990157688679e+03  2.3762786873089490e+03  4.7344583796036459e+03  2.4812136934962734e+02  4.7508419124746661e+02  4.1011848379094918e+03  1.0523880954534882e+03  4.8759596062772590e+02  2.0378498195818290e+03  1.5858654161919112e+03  1.2423186657634603e+03  4.0034698110334998e+03  7.8360914035529277e+01  1.0460611146563970e+03  1.1274565912748749e+03  2.3616438026515316e+03  9.1973143929032847e+02  9.5800315135767835e+02  3.7846607368573350e+03  7.4724342527830015e+02  3.2885165936779340e+03  8.3786850661123685e+02  3.0511659296133968e+02  4.1670847822650267e+03  3.3405020311032780e+02  2.6261876230154044e+03  2.3373803899981558e+03  1.3767025064679639e+04  9.0510930510259084e+02  9.3528087287778646e+02  8.3231461741707733e+01  7.9542297302641259e+01  3.8771524212088673e+02  6.3869352388941472e+01  1.5532604603529265e+02  5.6065114946621156e+02  6.7114964595831111e+02  9.7124493863036696e+02  7.6095969538420843e+02  2.5540841408781903e+03  1.2915884676872966e+02  5.1214207011138096e+03  1.5891366558367653e+02  2.4906554881336083e+03  6.3208389813771373e+02  4.0606669213380483e+03  9.7968589843539633e+01  2.4467045471144482e+02  3.8337804946809538e+03  1.4232217520731924e+03  1.0602648089825109e+03  6.0362992162395926e+02  2.9579621352345032e+02  2.3764964634327529e+02  1.8206076253578433e+03  4.3738760936525625e+02  3.5255515869436217e+03  2.5261535911922493e+02  2.2824082845540858e+02  1.9497487933771349e+03  1.1513850068654115e+02  6.0048380176180615e+02  6.1561174389704809e+02  2.0880286538452547e+03  1.0201686048397424e+02  2.1306617782880958e+03  1.8761229382303575e+03  4.0235306636395985e+03  2.7782653673292725e+03  1.4444768043087592e+02  2.1336759828733426e+02  1.4572475297098049e+03  5.0542515693710996e+01  7.9407529892140167e+02  2.2883239309759776e+02  1.0231742028358752e+03  6.1364039399026260e+03  2.4571818676752741e+03  3.2142076017771893e+02  2.1820231694204344e+03  3.7740439943147953e+03  3.3943448974964872e+02  6.7633506631611522e+02  2.8716015223538597e+02  2.0589416489085897e+03  4.8010868007267175e+02  4.0754551399609007e+01  8.3116997388149161e+02  2.4991708854804665e+03  8.1921208245127173e+02  5.1744214332586421e+02  4.3546549497333799e+03  2.2438336920014146e+02  6.9970877716212226e+02  8.4162141770364076e+02  9.8094908275969851e+02  1.2381623623093185e+03  1.7118104398181850e+02  2.1010430356398110e+03  2.3477157008093837e+02  3.1986119429237618e+02  1.9137599906760107e+02  1.0487724311039528e+03  3.1013375115062727e+03  1.4765338724278420e+03  3.3486588777813454e+03  4.2895896755950815e+02  9.1293213036283191e+02  7.4629946349182160e+02  2.6399542167771494e+02  9.2009864574636515e+02  1.9954582370167186e+03  2.7030784317108232e+03  1.0866858194214340e+03  2.0030597874445220e+03  2.1872533909268273e+03  1.3633935392149972e+03  1.3972764327160417e+02  2.0860691586756698e+02  2.8755092716830296e+02  4.8438400127503728e+03  1.2085190760970791e+03  1.2681365645181447e+03  1.9946880786012955e+03  1.8965502880773356e+03  1.0021186172660882e+03  2.9007456919068852e+02  1.5487496461657606e+03  2.4610421125222047e+03  1.0903663531331788e+03  1.9227363675916606e+03  1.2627665353992763e+03  2.6416449891192856e+03  1.6865433596398123e+03  2.5285482329575643e+03  9.6625923124601613e+01  1.4821766914805170e+02  6.2904573593798705e+02  1.9860323419186991e+03  1.9795139222922060e+03  1.1839399245737700e+03  1.2250945662658778e+03  3.8586226503818540e+02  3.8028327989119327e+02  4.2205880030388806e+02  1.3124134318727772e+03  3.4573845779355287e+02  5.5618925470147610e+02  2.8026311143639236e+03  3.9690839570601970e+03  1.5589627972344676e+03  8.3506286961065107e+03  4.6938672099333980e+03  1.0297433632806259e+02  2.2240669487973341e+03  1.7710660586497889e+02  2.7881837940319351e+03  3.5545806197014861e+02  1.0096916300306874e+03  9.0737103268476267e+02  2.6067087691019685e+02  7.1462180272765090e+02  9.4292245726353337e+02  4.6074606637563456e+03  3.1210768489189800e+03  6.2085093572504024e+02  1.7638127929419120e+03  2.0289539952485104e+03  1.7632988136773724e+03  2.2711575268105148e+03  2.9802728687066889e+02  1.2826396578491945e+03  3.8371557409540060e+03  2.0021407987620384e+02  2.8882049722797183e+02  7.8824853670252253e+02  1.0023905620789627e+03  3.7239720492071569e+02  2.2464441131020865e+02  1.8054980517415534e+03  8.1523194582327426e+02  3.0661163101233495e+02  1.8776326159328332e+03  2.5096096871181203e+03  1.2720346346193352e+02  6.8828992423940372e+02  1.9095312841484915e+03  1.1647785698573937e+03  1.2079492557635933e+03  1.1862079783653583e+03  2.8417563275831658e+03  6.7986475953695970e+02  3.1251541290028508e+03  2.6078092208752452e+02  4.7865870350416017e+03  2.5464424805802009e+03  7.5272259603788575e+02  1.4184266731011385e+02  1.6615398172555672e+02  1.6618686993792978e+03  9.3254775253657272e+02  8.0663623266811128e+03  4.0697025076204886e+03  1.0758803807706308e+02  4.2103441144717845e+03  1.2718927512293622e+02  4.8797200817085677e+03  3.1607594140451852e+02  2.9323235121302810e+03  1.3544355516339790e+03  8.2394424388661594e+02  3.6486909928570164e+01  2.9092953271635329e+03  2.1195318187830212e+03  9.6861608003657386e+02  6.3870523796788041e+02  7.1273864317102095e+02  1.0075027244704911e+03  6.8937640677025843e+02  5.2881576624455806e+02  8.1293667287009293e+02  1.3257412605188306e+03  3.5390423115217055e+02  1.8038217484218908e+03  2.3855785367835356e+03  3.0700552838970107e+03  4.0903663151740575e+03  1.4881886667722936e+03  1.5958235196168894e+03  3.6647532013130017e+03  1.9582892929873180e+03  6.7921383637428661e+01  7.6089369678838705e+02  2.4419135531214588e+03  2.8765632996171286e+02  1.3937482025098070e+03  1.2777817108331543e+02  6.2635291422968612e+02  1.7378583617426684e+03  2.7503559011842153e+03  2.2493988336386865e+03  2.7289761290526377e+02  8.0127397919616533e+02  6.9453342105042316e+02  3.8366655823369774e+02  1.1233639227656808e+02  1.0214021216397397e+03  9.8829905721117177e+02  6.1572638570329752e+02  2.0234202141255230e+02  7.4936778421596944e+02  4.1002291312666885e+03  1.3937397263792641e+03  2.1986139845052065e+02  4.1588772937490512e+03  1.6755171516253151e+03  8.5040450923952744e+02  2.1687760537814779e+03  4.2174353987050026e+03  2.0017539641813503e+03  2.3261942145618495e+03  2.1634812019504775e+03  6.1325441399471970e+02  2.6166249852120092e+01  7.5905737794050253e+02  8.9145921008041387e+02  3.1829275159263771e+03  3.2266198954308998e+03  2.1607941572281104e+02  2.7739350855096609e+02  4.4135832753875839e+03  7.9460552900835103e+02  2.2084371244647110e+02  8.6466071331461092e+02  4.4182554923317014e+02  2.4473602586134757e+03  3.6562673771664214e+02  8.4422899998931780e+02  7.6264949584650026e+01  4.1954346653874645e+03  1.1525892077451369e+03  9.9165274757780807e+01  2.5922178404046672e+01  4.1963474400833948e+03  2.3224472538056389e+03  1.0010444571511624e+03  1.8866558493264048e+02  9.2611356598175917e+02  4.9738476699417970e+02  6.4029592138844606e+01  1.0896767994590407e+03  1.3172375648381619e+03  3.3740769530306704e+02  1.9715482324017503e+02  1.4134472022371980e+02  1.3138431637787560e+03  7.0898642092730472e+02  2.3334647936912006e+03  2.3601361720427326e+03  7.9223975414679808e+02  3.5024364498676850e+03  1.2418526591721384e+03  3.6396779053197192e+03  3.9197994484232440e+03  8.6056354837571291e+02  4.3138417501588691e+02  3.3256624255201186e+03  4.3517572207492441e+02  1.1832565375379254e+03  1.7499548729575245e+03  1.6264333256381412e+03  2.9690044744137804e+03  1.4728237398024157e+03  3.3305314788757903e+02  1.9616146022339613e+03  2.9979434666407224e+02  2.2329010595077571e+03  2.7551669286028095e+02  1.5164486364751367e+03  6.3020709682218876e+02  3.5093538345194270e+03  9.5880053559301199e+00  2.7783387911421073e+02  3.0222772967141691e+02  6.0104176674821716e+01  2.1518361844594801e+03  7.1798248581754638e+02  2.7328155158318582e+03  3.5257547337990349e+02  2.4768448834400806e+03  7.4625564652937157e+01  5.2564120051702457e+02  6.4763726354226299e+02  1.2921981566998770e+02  9.3176598582686745e+02  7.9174842625713595e+01  1.3643889888382641e+03  2.8800222773773417e+03  4.1066198260069323e+03  2.3415260848506475e+02  1.2629804893759322e+02  2.6950185059321825e+03  2.4176735384557668e+02  8.3011805925599003e+02  2.3064451863429457e+02  1.1454452104971016e+02  3.6686369496983257e+03  4.3912745130164030e+03  9.7877313554222303e+02  4.4219466068786833e+03  2.3566530903183539e+03  2.9874573957391935e+03  2.8510112679979937e+02  1.5620918004299230e+02  4.9540942717753404e+02  5.4019010880871258e+02  3.0175709825746486e+02  2.8783281243087245e+03  1.0667782414376097e+03  7.0924300552213694e+01  1.8549114393552071e+02  2.6505592790237615e+03  1.5129108785586252e+03  1.0526352677348882e+03  1.0309972379415417e+03  5.7460346340249862e+02  1.0059936239726598e+02  7.0204625268958139e+01  1.3551248016130953e+03  2.7126922960172732e+02  1.5675146324205807e+02  1.3718751720851938e+03  1.0231552550194399e+02  1.9314322422563087e+03  1.3797247079401359e+03  2.1221022259050548e+02  4.5428092442138455e+02  7.7210207848511720e+02  3.5568532698465492e+03  1.3339255907067411e+02  2.3116334449377050e+03  8.7042948738360238e+01  8.1885465500432895e+02  1.7454472178916837e+03  2.9115815587578031e+03  2.2494050658777400e+02  7.9477116388286731e+02  1.0641127188900651e+02  4.8305247034782451e+02  1.2101731511903156e+03  5.2722243725351731e+01  4.7253482348145826e+03  1.3132529674241832e+03  1.0421263527952701e+03  1.0578547153920965e+02  2.3025620631909470e+02  1.0005688182878474e+02  9.2077266184360246e+02  4.8887207765367693e+03  4.0787218551213550e+03  7.1582670571142864e+02  2.1909518896199356e+03  5.2955576134063649e+03  2.5780885485228896e+02  1.7556715111205483e+03  1.2210818058767086e+02  8.0244689796978901e+02  2.5924368387510672e+03  7.2989750924994325e+02  6.8608170784000538e+02  3.8244642665841462e+02  4.2231585220646230e+03  2.9037986020576786e+03  7.6414720491242394e+02  9.4413390118558596e+02  2.9012851005104808e+03  1.5936712888860632e+03  3.7494267029870343e+03  1.0488965091514549e+03  1.2269902721823460e+03  3.8882615915286956e+03  1.8492568880208214e+03  7.5614392532802174e+02  4.3538467411292104e+03  4.8620510649309244e+03  1.2842056749062242e+03  7.4232857107646532e+02  2.1400109760022074e+03  4.1421343770601688e+03  6.0417611008520919e+02  2.1933123289336137e+02  2.1850971826589912e+03  2.9877386177536687e+02  1.4804014654562632e+03  8.6685392621723065e+02  2.9054586013576892e+02  1.1622580376313235e+03  4.1236287860640887e+03  2.2794097247329460e+03  4.8427744006702787e+03  2.2518860600724588e+03  1.8505910276374411e+03  7.6718122431343147e+02  3.9684382787798754e+03  9.3610933117947627e+02  4.4292525234746455e+02  4.2452685826119796e+03  3.3400101833130714e+02  3.2039843975444246e+03  4.2230761503572767e+03  2.0482894163169426e+03  3.0840104844618681e+03  1.0784557646020260e+03  5.6293663533128586e+02  2.8561183474502923e+03  6.8986843361025899e+02  1.2507454996420709e+04  1.8544901786817045e+03  3.6989267882647155e+03  2.0042829827524797e+03  7.6075148978135803e+02  9.4328665977186199e+02  6.6720169995105522e+01  6.3519440001751195e+02  7.4082008529275356e+01  3.9756946413624719e+03  1.2602847997125593e+03  6.7392261432954956e+02  7.5293534428732630e+02  7.1981971527489645e+02  9.6357580554004903e+02  6.9227711672943497e+03  2.7049825525221549e+03  6.6569072335552028e+02  4.0484149199146952e+02  4.0443383048901796e+03  7.5308106389971908e+02  2.3819469221061354e+03  2.7295856915229632e+02  1.2435410598755184e+03  2.3221539365263982e+02  3.2654562023886186e+01  3.2634205781931364e+01  5.5785573358339855e+02  8.8988708702149472e+02  1.4053183294898795e+03  1.4032855953450586e+04  9.8071606591909827e+01  8.4506022084747951e+02  4.0678077903597314e+03  2.5485066194913631e+02  1.7431115825532736e+03  2.2909632183164246e+02  6.8894707853446414e+02  4.5380264283651632e+03  1.3985962713198086e+02  6.2488454327836041e+02  1.8696337350858497e+02  2.3412625069995474e+03  1.3620770773000797e+03  1.8872084225727269e+02  1.1184063247415418e+02  1.5304243003181898e+03  4.0814588606485895e+03  9.8973402992526007e+02  4.7139881238006610e+03  1.7577425421363337e+03  9.6987538532261624e+02  9.9372776877138404e+02  6.6929817073183676e+02  1.1288606361564871e+03  1.1444682676591863e+03  3.0365409301008408e+03  7.2595503376643705e+02  9.0248770771616046e+02  2.0701277625341650e+03  1.6620238298595668e+03  2.7492695884539057e+03  1.1248948385299924e+02  1.0720286172047290e+03  4.1313628885946382e+03  4.0341648897630796e+02  5.6458377360089855e+02  2.9134965453207355e+03  1.1082492853173916e+02  1.8749038416000685e+03  1.7668757494740130e+03  7.6044816024167199e+02  1.1248549841601334e+03  4.0827060933901266e+03  8.2269378306460499e+02  9.0459555727505858e+02  8.9255887462287512e+02  1.6069687788692397e+02  1.5449654002002455e+02  3.6554407863349761e+03  1.2444443492420970e+02  3.9263873978489019e+03  6.8065574477376640e+02  7.4236679233281166e+01  9.2287600833314968e+02  1.7277729769050251e+02  5.0463598034917345e+02  2.7879087582482236e+02  3.0968553122274448e+03  4.1874435124036399e+03  3.9422570513476035e+03  8.7462094359225688e+01  4.3208970301211701e+02  2.0559855051991858e+02  3.4369408339750197e+02  1.8808562297098015e+03  2.1873411798769953e+03  7.5002508464326382e+01  3.4396670967679523e+02  2.7519588164685647e+03  2.5738008999125777e+03  3.5002226962927722e+02  4.3116295423730941e+02  2.9385697490071580e+03  1.0609861005507950e+02  1.0306687988087156e+03  3.6812486828017618e+03  3.9851852205639608e+02  4.0249579619532319e+03  2.4309695329083779e+03  6.3764263398218463e+02  4.1505721045037672e+02  5.3541021105446782e+02  2.0194815577249155e+03  3.2813366741613754e+02  7.1050241069129456e+01  1.8145320175469315e+03  8.4404763593758514e+02  7.8046990792223824e+02  5.4476947294871650e+02  2.4540415218692448e+02  2.8682961113806198e+02  3.5434143125403934e+03  1.1262039964483527e+02  3.0301535128089113e+03  8.2015393579982614e+01  8.1396939445414841e+02  1.2039267584781817e+03  1.6605737985784924e+03  4.3341010762575161e+03  3.7101749560537787e+03  8.9723474766013325e+01  2.7571404132745338e+03  4.2609272714247783e+02  2.6515918046868308e+02  1.7282705794212393e+03  6.3324993083179299e+02  2.1821355768597441e+03  2.5697839551203288e+01  6.1736018189238173e+01  7.6261231929918040e+02  3.8274877836124797e+03  1.6487667517612240e+03  6.3514969304472146e+01  6.7600285973209168e+02  7.3504173618088672e+01  7.9810033796663947e+02  1.2612841739018152e+03  1.1808380852064038e+03  6.4721585436691021e+03  3.8948597529778694e+03  7.7727896863698777e+02  2.8093679074363563e+03  2.3528254723711325e+03  1.4851473812445408e+03  1.4145865767358103e+02  9.4964693099623662e+02  1.0662299011395611e+02  6.7077314578207108e+01  3.8420454543045133e+02  3.7563582017536687e+03  2.7894538773164004e+03  8.1406035194361039e+01  2.4596184798543231e+02  1.0979600111898155e+03  2.3363705183027847e+02  2.8847824940081779e+02  3.3346078421832146e+02  3.1413613443313106e+03  2.9753776252482288e+02  5.6689355119916982e+01  2.9454263742218551e+01  2.3469958093390358e+02  1.5723424071353973e+03  5.3669291831069802e+02  3.6405722722628257e+03  4.4552548681645311e+02  6.7610805169775418e+01  2.3320797981154826e+02  2.2928910832355882e+03  7.5557857179615610e+02  4.1221298410695535e+03  4.0486512278398158e+02  2.5718330857905594e+03  4.2252486805327962e+03  5.1512226275767625e+02  8.6435611733640371e+02  1.4406471142703224e+03  7.9730834494802650e+01  2.0267269679478884e+03  7.1254189340631046e+02  1.3439124802542499e+03  1.9691035009052798e+03  6.9423117248669882e+02  2.6937540534462373e+03  1.1399167900652828e+03  3.1741270984122275e+03  4.0277236470045245e+03  1.6444067874731206e+03  3.9691576591096958e+02  2.9788925610561034e+02  4.5488137036294610e+01  3.8185017037709764e+02  2.6089579365643596e+02  1.3700811188326256e+03  2.0543095132235337e+02  4.5635654683618341e+03  7.8843169744437532e+01  2.0498952639451971e+02  4.4167156312052321e+03  1.0751456725509895e+03  5.3411211889574497e+02  3.7731685219948002e+02  1.3730366743204841e+03  3.8751442867327164e+03  3.0444217421115496e+02  1.1228080294285812e+03  2.1966954949320429e+03  8.2350070841858440e+02  1.6966585133200144e+03  2.6326976185262579e+03  1.1318269372880927e+02  4.1362928199315229e+03  3.5048098816014535e+03  2.6525526529276777e+02  5.0119684002298146e+02  2.2333417043767063e+03  1.1378720118609640e+03  3.2811340361552146e+02  1.6536262993491944e+03  1.6651085536496576e+03  1.7644128961495448e+03  4.2412332593379497e+03  4.4349280137938706e+01  1.1014473943360667e+03  1.3107386284444165e+03  2.1518001792692844e+03  3.3671155748422675e+03  8.0036311217780565e+02  2.4873485589881175e+03  </DataArray> 
</PointData> 
</Piece>
</UnstructuredGrid>
</VTKFile>