<?xml version="1.0"?>
<VTKFile type="UnstructuredGrid"  version="0.1"  >
<UnstructuredGrid>
<Piece  NumberOfPoints="18082" NumberOfCells="35500">
<Points>
<DataArray  type="Float64"  NumberOfComponents="3"  format="ascii">0 0 0  30 0 0  30 -10 0  0 -10 0  0.02360821169319077 0 0  0.04721642338638154 0 0  0.07206717063563725 0 0  0.09691791788489297 0 0  0.1230766011355843 0 0  0.1492352843862757 0 0  0.1767707375239038 0 0  0.204306190661532 0 0  0.2332908770901271 0 0  0.2622755635187223 0 0  0.2927857633803451 0 0  0.323295963241968 0 0  0.3554119623832387 0 0  0.3875279615245094 0 0  0.4213342730081758 0 0  0.4551405844918422 0 0  0.4907261762804851 0 0  0.526311768069128 0 0  0.5637702848355051 0 0  0.6012288016018821 0 0  0.6406588220121138 0 0  0.6800888424223455 0 0  0.721594129780935 0 0  0.7630994171395246 0 0  0.8067891887833475 0 0  0.8504789604271704 0 0  0.8964681941825949 0 0  0.9424574279380195 0 0  0.9908671465681095 0 0  1.039276865198199 0 0  1.090234462786975 0 0  1.141192060375751 0 0  1.194831641933244 0 0  1.248471223490737 0 0  1.304933942963653 0 0  1.361396662436569 0 0  1.420831104471586 0 0  1.480265546506604 0 0  1.542828113436244 0 0  1.605390680365884 0 0  1.671246013469327 0 0  1.73710134657277 0 0  1.806422752814762 0 0  1.875744159056755 0 0  1.948714057431306 0 0  2.021683955805857 0 0  2.098494373901932 0 0  2.175304791998006 0 0  2.256157866653476 0 0  2.337010941308945 0 0  2.422119443935387 0 0  2.50722794656183 0 0  2.596815840700639 0 0  2.686403734839449 0 0  2.780706776094687 0 0  2.875009817349925 0 0  2.974276175689285 0 0  3.073542534028646 0 0  3.178033441002704 0 0  3.282524347976761 0 0  3.392514777963501 0 0  3.502505207950242 0 0  3.618284608533553 0 0  3.734064009116865 0 0  3.855937062816526 0 0  3.977810116516187 0 0  4.106097541496641 0 0  4.234384966477093 0 0  4.369424362562147 0 0  4.5044637586472 0 0  4.646610489729194 0 0  4.788757220811188 0 0  4.938385356669961 0 0  5.088013492528733 0 0  5.24551679218304 0 0  5.403020091837347 0 0  5.568813038399614 0 0  5.73460598496188 0 0  5.909124878408681 0 0  6.083643771855482 0 0  6.267347873338513 0 0  6.451051974821543 0 0  6.644424714363561 0 0  6.83779745390558 0 0  7.041347702348167 0 0  7.244897950790754 0 0  7.459161368238869 0 0  7.673424785686984 0 0  7.898965226038037 0 0  8.124505666389089 0 0  8.361916654054033 0 0  8.599327641718979 0 0  8.849233942517035 0 0  9.099140243315093 0 0  9.362199507946787 0 0  9.625258772578484 0 0  9.902163261537794 0 0  10.1790677504971 0 0  10.47054616023911 0 0  10.76202456998112 0 0  11.06884394887334 0 0  11.37566332776555 0 0  11.69863109504192 0 0  12.02159886231829 0 0  12.3615649378891 0 0  12.7015310134599 0 0  13.05939003847426 0 0  13.41724906348862 0 0  13.79394276982091 0 0  14.1706364761532 0 0  14.5671561683298 0 0  14.96367586050641 0 0  15.38106501332897 0 0  15.79845416615153 0 0  16.23781117165827 0 0  16.677168177165 0 0  17.13964923659526 0 0  17.60213029602552 0 0  18.0889524622663 0 0  18.57577462850707 0 0  19.08821901304263 0 0  19.60066339757818 0 0  20.14007853843172 0 0  20.67949367928525 0 0  21.24729908993883 0 0  21.8151045005924 0 0  22.41279440541421 0 0  23.01048431023601 0 0  23.63963157605829 0 0  24.26877884188056 0 0  24.93103912515648 0 0  25.59329940843241 0 0  26.29041549584691 0 0  26.98753158326142 0 0  27.72133799026916 0 0  28.45514439727691 0 0  29.22757219863846 0 0  30 -0.3571428571428571 0  30 -0.7142857142857142 0  30 -1.071428571428571 0  30 -1.428571428571428 0  30 -1.785714285714286 0  30 -2.142857142857143 0  30 -2.5 0  30 -2.857142857142857 0  30 -3.214285714285714 0  30 -3.571428571428571 0  30 -3.928571428571428 0  30 -4.285714285714286 0  30 -4.642857142857142 0  30 -5 0  30 -5.357142857142857 0  30 -5.714285714285714 0  30 -6.071428571428571 0  30 -6.428571428571428 0  30 -6.785714285714285 0  30 -7.142857142857142 0  30 -7.5 0  30 -7.857142857142857 0  30 -8.214285714285714 0  30 -8.571428571428571 0  30 -8.928571428571427 0  30 -9.285714285714285 0  30 -9.642857142857142 0  29.22757220128658 -10 0  28.45514440257316 -10 0  27.72133799277628 -10 0  26.98753158297939 -10 0  26.29041549304805 -10 0  25.5932994031167 -10 0  24.93103911757599 -10 0  24.26877883203527 -10 0  23.63963156418132 -10 0  23.01048429632737 -10 0  22.41279438968936 -10 0  21.81510448305136 -10 0  21.24729907078059 -10 0  20.67949365850982 -10 0  20.14007851622273 -10 0  19.60066337393564 -10 0  19.08821898813588 -10 0  18.57577460233611 -10 0  18.08895243498708 -10 0  17.60213026763805 -10 0  17.13964920724307 -10 0  16.6771681468481 -10 0  16.2378111405086 -10 0  15.79845413416909 -10 0  15.38106498063496 -10 0  14.96367582710082 -10 0  14.56715613432376 -10 0  14.17063644154669 -10 0  13.79394273471576 -10 0  13.41724902788484 -10 0  13.05939000246495 -10 0  12.70153097704506 -10 0  12.36156490115379 -10 0  12.02159882526251 -10 0  11.69863105774323 -10 0  11.37566329022395 -10 0  11.06884391115945 -10 0  10.76202453209494 -10 0  10.47054612224479 -10 0  10.17906771239465 -10 0  9.902163223385379 -10 0  9.625258734376107 -10 0  9.362199469747061 -10 0  9.099140205118012 -10 0  8.849233904370102 -10 0  8.599327603622193 -10 0  8.361916616050124 -10 0  8.124505628478055 -10 0  7.898965188258209 -10 0  7.673424748038361 -10 0  7.459161330755727 -10 0  7.244897913473093 -10 0  7.041347665226496 -10 0  6.837797416979896 -10 0  6.644424677660922 -10 0  6.451051938341948 -10 0  6.26734783710581 -10 0  6.083643735869675 -10 0  5.90912484269068 -10 0  5.734605949511682 -10 0  5.568813003235423 -10 0  5.403020056959164 -10 0  5.24551675760658 -10 0  5.088013458254 -10 0  4.938385322710374 -10 0  4.788757187166745 -10 0  4.646610456411224 -10 0  4.504463725655707 -10 0  4.369424329906533 -10 0  4.234384934157362 -10 0  4.106097509520442 -10 0  3.977810084883522 -10 0  3.85593703153344 -10 0  3.734063978183357 -10 0  3.618284577954206 -10 0  3.502505177725055 -10 0  3.392514748095728 -10 0  3.282524318466404 -10 0  3.1780334118518 -10 0  3.073542505237196 -10 0  2.97427614725823 -10 0  2.875009789279265 -10 0  2.780706748384375 -10 0  2.686403707489482 -10 0  2.596815813710069 -10 0  2.507227919930656 -10 0  2.422119417661861 -10 0  2.337010915393062 -10 0  2.256157841092762 -10 0  2.175304766792465 -10 0  2.098494349048437 -10 0  2.021683931304413 -10 0  1.948714033278215 -10 0  1.875744135252013 -10 0  1.806422729354161 -10 0  1.737101323456312 -10 0  1.671245990692352 -10 0  1.605390657928396 -10 0  1.542828091333185 -10 0  1.480265524737977 -10 0  1.420831083031992 -10 0  1.36139664132601 -10 0  1.304933922176438 -10 0  1.248471203026863 -10 0  1.194831621786765 -10 0  1.14119204054667 -10 0  1.09023444350921 -10 0  1.039276846471754 -10 0  0.9908671279064798 -10 0  0.942457409341209 -10 0  0.8964681758842019 -10 0  0.8504789424271948 -10 0  0.8067891710751951 -10 0  0.7630993997231954 -10 0  0.7215941126497469 -10 0  0.6800888255762949 -10 0  0.6406588054444597 -10 0  0.6012287853126246 -10 0  0.5637702688178621 -10 0  0.5263117523230996 -10 0  0.4907261607992695 -10 0  0.4551405692754429 -10 0  0.4213342580497894 -10 0  0.3875279468241395 -10 0  0.3554119479341011 -10 0  0.3232959490440663 -10 0  0.2927857494269297 -10 0  0.2622755498097931 -10 0  0.2332908636189828 -10 0  0.2043061774281725 -10 0  0.1767707245216883 -10 0  0.1492352716152006 -10 0  0.1230765885890825 -10 0  0.09691790556296098 -10 0  0.0720671585317838 -10 0  0.04721641150060663 -10 0  0.02360820575030331 -10 0  0 -9.972067039106145 0  0 -9.94413407821229 0  0 -9.916201117318435 0  0 -9.888268156424582 0  0 -9.860335195530727 0  0 -9.832402234636872 0  0 -9.804469273743017 0  0 -9.776536312849162 0  0 -9.748603351955307 0  0 -9.720670391061452 0  0 -9.692737430167599 0  0 -9.664804469273744 0  0 -9.636871508379889 0  0 -9.608938547486034 0  0 -9.581005586592179 0  0 -9.553072625698324 0  0 -9.525139664804469 0  0 -9.497206703910614 0  0 -9.46927374301676 0  0 -9.441340782122905 0  0 -9.41340782122905 0  0 -9.385474860335195 0  0 -9.35754189944134 0  0 -9.329608938547485 0  0 -9.30167597765363 0  0 -9.273743016759777 0  0 -9.245810055865922 0  0 -9.217877094972067 0  0 -9.189944134078212 0  0 -9.162011173184357 0  0 -9.134078212290502 0  0 -9.106145251396647 0  0 -9.078212290502794 0  0 -9.050279329608939 0  0 -9.022346368715084 0  0 -8.994413407821229 0  0 -8.966480446927374 0  0 -8.938547486033519 0  0 -8.910614525139664 0  0 -8.882681564245811 0  0 -8.854748603351956 0  0 -8.826815642458101 0  0 -8.798882681564246 0  0 -8.770949720670391 0  0 -8.743016759776536 0  0 -8.715083798882681 0  0 -8.687150837988828 0  0 -8.659217877094973 0  0 -8.631284916201118 0  0 -8.603351955307263 0  0 -8.575418994413408 0  0 -8.547486033519553 0  0 -8.519553072625698 0  0 -8.491620111731844 0  0 -8.463687150837989 0  0 -8.435754189944134 0  0 -8.407821229050279 0  0 -8.379888268156424 0  0 -8.351955307262569 0  0 -8.324022346368714 0  0 -8.296089385474861 0  0 -8.268156424581006 0  0 -8.240223463687151 0  0 -8.212290502793296 0  0 -8.184357541899441 0  0 -8.156424581005586 0  0 -8.128491620111731 0  0 -8.100558659217878 0  0 -8.072625698324023 0  0 -8.044692737430168 0  0 -8.016759776536313 0  0 -7.988826815642458 0  0 -7.960893854748603 0  0 -7.932960893854748 0  0 -7.905027932960894 0  0 -7.877094972067039 0  0 -7.849162011173184 0  0 -7.82122905027933 0  0 -7.793296089385475 0  0 -7.76536312849162 0  0 -7.737430167597765 0  0 -7.709497206703911 0  0 -7.681564245810056 0  0 -7.653631284916202 0  0 -7.625698324022347 0  0 -7.597765363128492 0  0 -7.569832402234637 0  0 -7.541899441340782 0  0 -7.513966480446927 0  0 -7.486033519553073 0  0 -7.458100558659218 0  0 -7.430167597765363 0  0 -7.402234636871508 0  0 -7.374301675977653 0  0 -7.346368715083798 0  0 -7.318435754189944 0  0 -7.290502793296089 0  0 -7.262569832402235 0  0 -7.23463687150838 0  0 -7.206703910614525 0  0 -7.17877094972067 0  0 -7.150837988826815 0  0 -7.12290502793296 0  0 -7.094972067039106 0  0 -7.067039106145251 0  0 -7.039106145251397 0  0 -7.011173184357542 0  0 -6.983240223463687 0  0 -6.955307262569832 0  0 -6.927374301675977 0  0 -6.899441340782123 0  0 -6.871508379888268 0  0 -6.843575418994414 0  0 -6.815642458100559 0  0 -6.787709497206704 0  0 -6.759776536312849 0  0 -6.731843575418995 0  0 -6.70391061452514 0  0 -6.675977653631285 0  0 -6.64804469273743 0  0 -6.620111731843576 0  0 -6.592178770949721 0  0 -6.564245810055866 0  0 -6.536312849162011 0  0 -6.508379888268156 0  0 -6.480446927374302 0  0 -6.452513966480447 0  0 -6.424581005586592 0  0 -6.396648044692737 0  0 -6.368715083798882 0  0 -6.340782122905027 0  0 -6.312849162011173 0  0 -6.284916201117318 0  0 -6.256983240223464 0  0 -6.229050279329609 0  0 -6.201117318435754 0  0 -6.173184357541899 0  0 -6.145251396648044 0  0 -6.117318435754189 0  0 -6.089385474860335 0  0 -6.06145251396648 0  0 -6.033519553072626 0  0 -6.005586592178771 0  0 -5.977653631284916 0  0 -5.949720670391061 0  0 -5.921787709497207 0  0 -5.893854748603352 0  0 -5.865921787709497 0  0 -5.837988826815643 0  0 -5.810055865921788 0  0 -5.782122905027933 0  0 -5.754189944134078 0  0 -5.726256983240223 0  0 -5.698324022346369 0  0 -5.670391061452514 0  0 -5.642458100558659 0  0 -5.614525139664805 0  0 -5.58659217877095 0  0 -5.558659217877095 0  0 -5.53072625698324 0  0 -5.502793296089385 0  0 -5.474860335195531 0  0 -5.446927374301676 0  0 -5.418994413407821 0  0 -5.391061452513966 0  0 -5.363128491620111 0  0 -5.335195530726256 0  0 -5.307262569832402 0  0 -5.279329608938548 0  0 -5.251396648044693 0  0 -5.223463687150838 0  0 -5.195530726256983 0  0 -5.167597765363128 0  0 -5.139664804469273 0  0 -5.111731843575418 0  0 -5.083798882681564 0  0 -5.055865921787709 0  0 -5.027932960893854 0  0 -5 0  0 -4.972067039106145 0  0 -4.94413407821229 0  0 -4.916201117318436 0  0 -4.888268156424581 0  0 -4.860335195530726 0  0 -4.832402234636871 0  0 -4.804469273743016 0  0 -4.776536312849162 0  0 -4.748603351955307 0  0 -4.720670391061452 0  0 -4.692737430167597 0  0 -4.664804469273743 0  0 -4.636871508379889 0  0 -4.608938547486034 0  0 -4.581005586592179 0  0 -4.553072625698324 0  0 -4.525139664804469 0  0 -4.497206703910615 0  0 -4.46927374301676 0  0 -4.441340782122905 0  0 -4.41340782122905 0  0 -4.385474860335195 0  0 -4.35754189944134 0  0 -4.329608938547485 0  0 -4.30167597765363 0  0 -4.273743016759776 0  0 -4.245810055865922 0  0 -4.217877094972067 0  0 -4.189944134078212 0  0 -4.162011173184357 0  0 -4.134078212290503 0  0 -4.106145251396648 0  0 -4.078212290502793 0  0 -4.050279329608939 0  0 -4.022346368715084 0  0 -3.994413407821229 0  0 -3.966480446927374 0  0 -3.938547486033519 0  0 -3.910614525139665 0  0 -3.88268156424581 0  0 -3.854748603351955 0  0 -3.8268156424581 0  0 -3.798882681564245 0  0 -3.770949720670391 0  0 -3.743016759776536 0  0 -3.715083798882681 0  0 -3.687150837988826 0  0 -3.659217877094972 0  0 -3.631284916201118 0  0 -3.603351955307263 0  0 -3.575418994413408 0  0 -3.547486033519553 0  0 -3.519553072625698 0  0 -3.491620111731844 0  0 -3.463687150837989 0  0 -3.435754189944134 0  0 -3.407821229050279 0  0 -3.379888268156424 0  0 -3.351955307262569 0  0 -3.324022346368714 0  0 -3.296089385474859 0  0 -3.268156424581005 0  0 -3.240223463687151 0  0 -3.212290502793296 0  0 -3.184357541899441 0  0 -3.156424581005586 0  0 -3.128491620111732 0  0 -3.100558659217877 0  0 -3.072625698324022 0  0 -3.044692737430168 0  0 -3.016759776536313 0  0 -2.988826815642458 0  0 -2.960893854748603 0  0 -2.932960893854748 0  0 -2.905027932960894 0  0 -2.877094972067039 0  0 -2.849162011173184 0  0 -2.821229050279329 0  0 -2.793296089385474 0  0 -2.76536312849162 0  0 -2.737430167597765 0  0 -2.70949720670391 0  0 -2.681564245810055 0  0 -2.653631284916201 0  0 -2.625698324022347 0  0 -2.597765363128492 0  0 -2.569832402234637 0  0 -2.541899441340782 0  0 -2.513966480446927 0  0 -2.486033519553073 0  0 -2.458100558659218 0  0 -2.430167597765363 0  0 -2.402234636871508 0  0 -2.374301675977653 0  0 -2.346368715083798 0  0 -2.318435754189943 0  0 -2.290502793296088 0  0 -2.262569832402234 0  0 -2.23463687150838 0  0 -2.206703910614525 0  0 -2.17877094972067 0  0 -2.150837988826815 0  0 -2.122905027932961 0  0 -2.094972067039106 0  0 -2.067039106145251 0  0 -2.039106145251397 0  0 -2.011173184357542 0  0 -1.983240223463687 0  0 -1.955307262569832 0  0 -1.927374301675979 0  0 -1.899441340782124 0  0 -1.871508379888269 0  0 -1.843575418994414 0  0 -1.815642458100559 0  0 -1.787709497206704 0  0 -1.759776536312849 0  0 -1.731843575418994 0  0 -1.703910614525139 0  0 -1.675977653631284 0  0 -1.648044692737429 0  0 -1.620111731843576 0  0 -1.592178770949721 0  0 -1.564245810055866 0  0 -1.536312849162011 0  0 -1.508379888268156 0  0 -1.480446927374301 0  0 -1.452513966480446 0  0 -1.424581005586592 0  0 -1.396648044692737 0  0 -1.368715083798882 0  0 -1.340782122905027 0  0 -1.312849162011172 0  0 -1.284916201117317 0  0 -1.256983240223462 0  0 -1.229050279329609 0  0 -1.201117318435754 0  0 -1.173184357541899 0  0 -1.145251396648044 0  0 -1.117318435754189 0  0 -1.089385474860334 0  0 -1.061452513966479 0  0 -1.033519553072626 0  0 -1.005586592178771 0  0 -0.977653631284916 0  0 -0.949720670391061 0  0 -0.921787709497206 0  0 -0.8938547486033528 0  0 -0.8659217877094978 0  0 -0.8379888268156428 0  0 -0.8100558659217878 0  0 -0.7821229050279328 0  0 -0.7541899441340778 0  0 -0.7262569832402228 0  0 -0.6983240223463678 0  0 -0.6703910614525128 0  0 -0.6424581005586596 0  0 -0.6145251396648046 0  0 -0.5865921787709496 0  0 -0.5586592178770946 0  0 -0.5307262569832396 0  0 -0.5027932960893864 0  0 -0.4748603351955314 0  0 -0.4469273743016764 0  0 -0.4189944134078214 0  0 -0.3910614525139664 0  0 -0.3631284916201114 0  0 -0.3351955307262564 0  0 -0.3072625698324014 0  0 -0.2793296089385464 0  0 -0.2513966480446932 0  0 -0.2234636871508382 0  0 -0.1955307262569832 0  0 -0.1675977653631282 0  0 -0.1396648044692732 0  0 -0.1117318435754182 0  0 -0.08379888268156321 0  0 -0.05586592178770822 0  0 -0.02793296089385322 0  0.05237405540650286 -5.108390529841531 0  0.05192986128597532 -5.717330910298426 0  0.04618601119923937 -4.497206703910615 0  0.04450348866373233 -6.284935946707517 0  0.0534793021431792 -3.932816285386422 0  0.04656001897174455 -3.382980336964203 0  0.0493599804672975 -2.874021476404383 0  0.04793712392407556 -6.789232751151792 0  0.04704127831970162 -7.290502793296131 0  0.04838130747399028 -7.737430167597765 0  0.04639563812408731 -2.430167597765378 0  0.04769639709301288 -8.128491620111733 0  0.04905106720977415 -2.037951011642517 0  0.0537024596187532 -1.638686957386761 0  4.947010439528565 -0.2518058366755866 0  4.642793181927798 -9.761468106952826 0  0.04838130747399028 -1.312849162011172 0  0.04580203583031306 -8.464675359504675 0  0.04283180214446602 -8.800836666718277 0  3.39343037430406 -9.811456389857929 0  3.392514777963504 -0.1857462864457009 0  2.426108946445767 -9.848313656257535 0  2.427607306567303 -0.1381698431270797 0  1.671919394547469 -9.887874723451919 0  1.667514793645422 -0.1337176795054624 0  6.260123870177283 -9.693413552675782 0  0.04274832697199926 -9.078048011704665 0  0.04649819844146563 -1.035410734154603 0  0.05202672125452423 -3.661803367047318 0  0.05261692520586259 -6.014905418243668 0  0.0478671472491925 -4.216932662339154 0  0.04332790939106523 -5.444819658184566 0  0.0501693289797025 -4.780815035165401 0  6.685844173340801 -0.3032602450527619 0  1.099901432014022 -9.907360491613169 0  1.090234462786981 -0.08605462015141896 0  8.378773910224588 -9.610571120942328 0  0.04838130747399028 -0.6983240223463669 0  8.375298473687645 -0.4190251668130891 0  0.04828698191783687 -9.359734909397639 0  0.04685585563956352 -7.512842021171138 0  0.04838130747399028 -2.653631284916201 0  0.04799182089357856 -7.067819777053193 0  0.04838130747399028 -3.100558659217877 0  0.04642924437282048 -6.562532002871896 0  0.7206348246237866 -9.928992703101759 0  0.7301629455185132 -0.07809372004318238 0  10.48663385164626 -9.409914788994637 0  10.46802974941352 -0.4466223504454288 0  0.04487138224902409 -0.4747804845901538 0  13.06803538751093 -9.431738262854052 0  0.04410928270875125 -9.579746686269875 0  13.08397713154426 -0.6032237593823204 0  0.4214366181357736 -0.05477968002226419 0  15.47150502926256 -9.17832817553159 0  15.44194292978219 -0.6556176140365881 0  4.116839344634505 -0.2409650737303055 0  0.4224362936261876 -9.944166833274185 0  0.04838130747399028 -0.8659217877095005 0  0.04820572508045551 -8.631926910523791 0  0.04353301599091708 -1.480481371172004 0  0.04838130747399028 -8.296089385474861 0  0.05363093396335472 -1.808498532109067 0  0.04591442476731444 -7.960893854748637 0  0.04168077027681782 -2.207658408564559 0  0.05078260882903152 -5.284503148655771 0  0.05520559501646538 -4.945798094540799 0  18.14044613178384 -9.177697919372253 0  29.3887802743377 -4.545380992013992 0  18.13378366572901 -0.8116856435912077 0  0.04749494025378276 -0.3092065380636981 0  21.22314623786882 -9.045221534090675 0  0.04672533128125878 -9.744308350899672 0  21.31870499801697 -0.8522395561869036 0  25.02353517890099 -8.866835437923655 0  24.93103912515648 -1.11839174415804 0  0.2337968768975003 -0.04884705181632576 0  0.2305181322823611 -9.959488604618407 0  29.39062500427165 -6.824607498961884 0  11.70672893364685 -9.451887980319722 0  11.70067206274678 -0.5410276226133242 0  9.363119333763073 -9.563124421958809 0  9.305838469038211 -0.4275540275159528 0  7.460650321869402 -0.3522030042916899 0  7.050776001878968 -9.65850259552113 0  5.570351771495408 -0.2605337216867945 0  5.243567261920365 -9.72926081190734 0  3.871567573338787 -9.799037845507181 0  2.781705784070203 -0.1516943305771044 0  2.790547168433966 -9.855499515193106 0  1.948252290657539 -0.1196970097124339 0  1.947615749168005 -9.882665874659775 0  1.300035518937777 -9.905605925885791 0  1.304933942963633 -0.0953513897074556 0  0.8923537054158288 -0.07669996015856473 0  0.8956067794873501 -9.922390234145562 0  0.5608074603766404 -0.06547533977480668 0  0.562853508184741 -9.940136092952033 0  29.41623254316639 -2.519185684235169 0  0.04645485209100819 -9.470633370338039 0  0.04705974738913632 -0.194375670112561 0  0.05198436288886654 -9.243474468337819 0  0.05082342386195293 -0.5866972790262919 0  0.04811374781297673 -8.969260757172098 0  0.05350967483189883 -1.147999173844483 0  0.04886692040744478 -1.932462028929332 0  0.05234358674537809 -7.849744660223791 0  0.04789726406903938 -2.319886806476443 0  0.05497160561287373 -7.621879340542969 0  0.04838130747399028 -7.402234636871508 0  0.04879686452330034 -2.766343564750172 0  0.04838130747399028 -2.54189944134078 0  0.05091785134778881 -7.179845867518044 0  0.04848429044953306 -6.956059083556447 0  0.04772563729508406 -3.212154217238129 0  0.04846526141958307 -2.988444512835669 0  0.04903076578033527 -3.493160807278159 0  0.04663246972012303 -6.679367308212397 0  0.04838130747399028 -6.452513966480447 0  0.051839198072134 -3.774213464686624 0  0.04838130747399028 -6.173184357541899 0  0.04838130747399028 -5.893854748603352 0  0.05513902999087428 -4.043632064578606 0  0.04847993202922218 -4.326744025189255 0  0.05295749417432027 -5.621046014268612 0  0.04494673041625319 -4.608938547486002 0  0.0472556933348951 -9.866254166876114 0  0.1232533513687653 -0.04941655948370727 0  29.36986263897892 -8.179604991396127 0  0.1264535210356623 -9.956102525136062 0  27.70717012887489 -1.175716879081967 0  27.67596550435232 -8.809096314720314 0  0.04162868801442521 -0.08188907323304484 0  29.29018026344017 -0.9126511880311803 0  26.28816325005443 -8.871924586335457 0  25.65930050038061 -7.812812054069056 0  24.46695542750065 -7.78976621993857 0  25.10912554644829 -6.811262873787826 0  23.95257330014169 -6.764888306643224 0  24.56859508732679 -5.820426269509804 0  23.43209866568524 -5.760852894426658 0  25.7096420981693 -5.880589675332755 0  25.17924216853739 -4.891708631728434 0  26.27046037371101 -4.950455976773714 0  26.77738053139987 -5.894377237967858 0  25.77794404843605 -3.99128455027953 0  24.65920356728315 -3.946689572541658 0  26.83430200154435 -4.042446323196946 0  22.81950904087001 -6.700041396935994 0  22.30960391937439 -5.701492742837821 0  21.71011523581191 -6.597665338663654 0  21.21514936026145 -5.652238244860057 0  20.62417878623896 -6.492714992799506 0  20.14888097406863 -5.591731992903551 0  20.66915920968052 -4.735143385762838 0  19.65717375045274 -4.696783752965453 0  19.12357799952112 -5.539672752504691 0  18.65605487619005 -4.631309899513136 0  18.13662908798239 -5.487839006994524 0  17.69482544266293 -4.63566536456819 0  17.20803936049028 -5.426743857948875 0  16.78214028948 -4.628233295213703 0  16.31640769292978 -5.320327246394791 0  15.91167355689554 -4.598040870131084 0  15.46621743947238 -5.254577396699452 0  15.08261839689291 -4.599271119493383 0  14.65369847643747 -5.249861851400695 0  14.2909321468803 -4.593356194450795 0  13.88498029574833 -5.215548197697134 0  13.53291971226988 -4.558187179235114 0  13.15129582139211 -5.167627478455284 0  12.81719776252236 -4.544394062708526 0  12.44273598730773 -5.123643120673744 0  12.13456737985894 -4.51910240464543 0  11.78876556659437 -5.077860288874687 0  11.49462686486403 -4.507421608004785 0  11.15938769238495 -5.025986369133769 0  10.8777836370971 -4.496480736973089 0  10.55176170924836 -5.000355529841244 0  10.2862723278776 -4.483609103869248 0  9.982739943404832 -4.953720678051837 0  9.730234300028258 -4.473922859027397 0  9.44711479950797 -4.925576094180045 0  9.206203052005364 -4.46379165200155 0  8.935565494630506 -4.904141265494739 0  8.700069844885517 -4.450566383656057 0  8.446282350519624 -4.87014381628595 0  8.223811561549356 -4.445109426693753 0  7.993420042392559 -4.827010660326091 0  7.775302309154114 -4.433740119811611 0  7.546400794346588 -4.789649965057428 0  7.343328595865295 -4.420492295895608 0  7.113032800911352 -4.763304936885436 0  6.933423538850278 -4.411621651714748 0  6.718888922530951 -4.748207382418334 0  6.544289383497849 -4.405891277056742 0  6.343280004326509 -4.724102280349291 0  6.18334435702673 -4.381082892337725 0  5.983556621983206 -4.693687546677086 0  5.828928735165292 -4.370222340099379 0  5.633832388766921 -4.680262967095231 0  5.480822849207243 -4.381917745212988 0  5.310375100675166 -4.658275763236197 0  5.16181763712016 -4.37534355785885 0  4.999815710752692 -4.646772620970729 0  4.855316281201665 -4.377201234807153 0  4.701183851260884 -4.620282050266574 0  4.569284171978294 -4.363103102495968 0  4.421575419706919 -4.601591192981298 0  4.297693080113467 -4.358643622442577 0  4.155281390993549 -4.582674392068157 0  4.03384559936497 -4.352361244683035 0  3.899047499342743 -4.565327894785144 0  3.786565754817367 -4.347498981874312 0  3.655621741971338 -4.549057324995863 0  3.546739493890739 -4.336333394310539 0  3.764873756419572 -4.764118506847633 0  3.52844953950547 -4.747110729921322 0  3.632280164697139 -4.956740365490197 0  3.404829923815077 -4.943242945563763 0  3.505064036916579 -5.144753872541536 0  3.284913566341267 -5.131068699796991 0  3.381676381942246 -5.327296279110061 0  3.164579113518451 -5.315397306012717 0  3.069563612720192 -5.125202962513883 0  3.26043050186547 -5.504655277260157 0  3.052191978035438 -5.495026746928207 0  3.144240518495959 -5.679326077711579 0  2.940885493394003 -5.665750644209691 0  3.025662739917017 -5.842650023604906 0  3.229638428831464 -5.856906575269202 0  2.832514634957192 -5.832687275853514 0  2.913236269789305 -6.004801714906806 0  2.725431952702152 -5.998042295187616 0  2.632254859392782 -5.822391966503028 0  2.810280392890204 -6.167446371295819 0  2.624515510407665 -6.158828803647385 0  2.706787316292118 -6.322771490345184 0  2.531175229969255 -6.316133269227164 0  2.604936959326221 -6.474303265399826 0  2.435176546138655 -6.467332795880292 0  2.506308756655711 -6.619729723570958 0  2.670188763242622 -6.650043255698712 0  2.331748684782649 -6.609113721567858 0  2.25875953563234 -6.441295923739343 0  2.408297944398331 -6.761018882347061 0  2.241405682707587 -6.753025199447184 0  2.314977265660477 -6.899873402543804 0  2.150487610143161 -6.89012572750695 0  2.223487424240375 -7.035011133889697 0  2.065023556924977 -7.02705263550763 0  2.134188260160965 -7.165276829319401 0  2.308672641018546 -7.154434178588135 0  1.980231662901691 -7.155661149974099 0  2.047503397845954 -7.292015754502767 0  1.901360317492838 -7.00998510834429 0  3.669685323553924 -4.141948772119322 0  3.4403261067238 -4.13448608369608 0  3.557842100986276 -3.944006530023995 0  3.334228449222531 -3.939054897390349 0  1.898350681043658 -7.282506057125556 0  1.963765875915108 -7.415883762003042 0  3.461431003513146 -3.743654049791635 0  3.229043389927059 -3.744277943402674 0  1.818360642889157 -7.406443530850482 0  1.88189543752495 -7.536242417638178 0  5.456025484270985 -4.944653910387844 0  1.740418257941283 -7.527002524530985 0  1.80217945706606 -7.653288484927264 0  1.936892908250064 -7.660253903452713 0  3.35312717210058 -3.554585037331676 0  3.131804668806339 -3.558105001892483 0  1.664562727967889 -7.644295168987176 0  1.724591187833537 -7.767098143030106 0  1.603392228487634 -7.519723645343885 0  1.590759999921451 -7.758308305975037 0  1.649129314883378 -7.8777738896786 0  3.239616668726097 -3.373879183488932 0  3.030921390758598 -3.373419205326685 0  2.92331584621493 -3.544781575515095 0  2.831233682869804 -3.374222222844081 0  2.729252924357045 -3.537685744548918 0  2.64001699940448 -3.372764087330204 0  2.543343589772732 -3.52753581472444 0  2.458714834073531 -3.369904557150719 0  2.365763662769965 -3.515223154065313 0  2.285707847750871 -3.364386182854257 0  2.383382545886482 -3.217239584097927 0  2.207349149734929 -3.216134075977803 0  2.288711717859842 -3.072750208234343 0  2.201950616908736 -3.510189410619822 0  2.127057410168927 -3.072178306029536 0  2.208826644566777 -2.938049772169015 0  2.050150490286063 -2.932710032866349 0  2.152023698477709 -2.784866466825969 0  1.9730163271593 -2.793825920637849 0  2.052229480037706 -2.661523354280391 0  1.901237526622822 -2.662257163924711 0  1.895962405493689 -2.928846113244833 0  1.977219905174792 -2.532366131407696 0  2.125460980884444 -2.533231371109135 0  1.83051482633631 -2.531192627470952 0  1.904117034168546 -2.405332264963904 0  1.761063638790672 -2.404047817253092 0  1.833360318210294 -2.281047601041102 0  1.692564228867498 -2.281084705052211 0  1.622882716387249 -2.396331950877331 0  1.557492192020357 -2.279860756162937 0  1.625088211652061 -2.165702581995923 0  1.494026248849712 -2.16561565725455 0  1.557978655740618 -2.054002987288491 0  1.521716721205705 -7.871773052838368 0  1.575856185675731 -7.986188901250445 0  1.490423050660453 -2.38884748349137 0  1.429600962176634 -2.053315722299158 0  1.493269213716761 -1.944422719398824 0  1.452356053884634 -7.980148156843949 0  1.504843749215642 -8.090690655760632 0  1.627311299609605 -8.098379830631155 0  1.369779693397431 -1.943401701465649 0  1.42796278767057 -1.840315817313209 0  1.538089489538768 -1.827290253364621 0  1.384608630501365 -8.08506395192795 0  1.434941391208969 -8.192722423463685 0  1.328503299374676 -7.965315329908175 0  3.4839744630774 -3.369431026589268 0  1.31015620119573 -1.838531786344058 0  1.366395960619093 -1.737506351186289 0  1.318324497145529 -8.187982879833761 0  1.367556171364775 -8.291364918475139 0  1.251533981342252 -1.735741887884513 0  1.309384114996064 -1.63538851552717 0  1.250891482506198 -1.943646528489249 0  1.25132155627119 -8.285403272631193 0  1.301370548326263 -8.387885603394098 0  1.195719732743214 -1.635426168859891 0  1.251868327321912 -1.53710375355471 0  1.188456270134196 -8.380560489302329 0  1.237590062400235 -8.480702599012435 0  1.366540046280758 -8.495145751795965 0  1.140830806222539 -8.287795601778885 0  1.140775709170084 -1.537336660023189 0  3.353290210060305 -3.187383275627979 0  3.589899311447194 -3.18958666433244 0  3.464722302267656 -2.99580974545194 0  3.683080515271879 -2.999036429367859 0  1.127145783870567 -8.473376901079382 0  1.175328089880075 -8.571584948802538 0  1.195408903460921 -1.441457350895154 0  1.298930276251745 -1.440310593833867 0  1.086862543862017 -1.442933032077066 0  1.090965621691716 -1.631031589026595 0  1.140212208954317 -1.348487747065466 0  1.068337251338569 -8.564146196415074 0  1.11213221385546 -8.657738986166713 0  1.034462404862019 -1.349363815749091 0  3.574400714383163 -2.799840916977027 0  3.798027065753484 -2.816984235287887 0  5.654302840543016 -4.100870763250807 0  6.899024222020877 -5.103062379204462 0  1.01347727255758 -8.654855382553725 0  1.053296786973391 -8.743623279653475 0  0.9680178883403734 -8.553279802648584 0  1.08395983621612 -1.25912859342662 0  0.9822370210225291 -1.257054898043168 0  0.9578346456890223 -8.742366330889404 0  0.9992688975641233 -8.828987437067758 0  1.101243139416843 -8.822240610247638 0  0.9379058788444166 -1.344432847463473 0  1.030915167121613 -1.170665372140231 0  0.9324565494991219 -1.168636695167653 0  2.275556449157712 -3.654266409823222 0  2.111987942003333 -3.64788561733757 0  2.184741748385795 -3.789249069023907 0  2.030082837381457 -3.788582217560645 0  2.098253133958192 -3.921823217491473 0  1.944550758461046 -3.919329270664855 0  2.01328994211061 -4.053610961551599 0  1.862878246641868 -4.043385644073776 0  1.79362442503119 -3.912277846655417 0  1.717687543200789 -4.032629648128757 0  1.651270088556537 -3.910850765142602 0  1.579505448241862 -4.024698083271039 0  1.642254449246023 -4.144916180760792 0  1.519096900503918 -3.906167678391757 0  1.509095917270123 -4.136948720852662 0  1.567563757104356 -4.254221627122278 0  1.444112631053933 -4.250486131629694 0  1.495342158478678 -4.361825681486735 0  1.376474092554314 -4.358076702428092 0  1.421983533677999 -4.462464370210048 0  1.304246076436513 -4.458345884846189 0  1.352338332929838 -4.562347698802308 0  1.252411613381074 -4.346782255815615 0  1.23725569200459 -4.559109791386734 0  1.29020701323963 -4.663906076721101 0  1.17526490196289 -4.656941187793642 0  1.226227266344521 -4.75965714905352 0  1.399423777359836 -4.655202376911905 0  1.112550473476974 -4.753494731740853 0  1.163159316627851 -4.853008916471965 0  1.064411057179134 -4.649543042642843 0  1.053660793614299 -4.847849881906734 0  1.102060789485474 -4.944513954979291 0  1.001469376307519 -4.934533022713932 0  1.042386688460326 -5.032821872166021 0  1.150165414219639 -5.040656923674212 0  1.089285224188448 -5.131035978739023 0  1.198942316059668 -5.138958654068158 0  1.136267192413658 -5.229161389044044 0  1.026125121293187 -5.229583962312952 0  1.072400474079313 -5.324412906271147 0  1.182032967913219 -5.328481593710058 0  1.119279514461947 -5.420008647847057 0  1.229148209941259 -5.428561783934688 0  1.16457045257374 -5.519104597253546 0  1.055916304310186 -5.508867181022932 0  1.09994892163779 -5.607427801464953 0  0.9937222218592545 -5.59687908248885 0  1.036418010585489 -5.694729743632263 0  0.90102366576129 -8.824618026438205 0  0.9462744353385055 -8.909903832671086 0  1.143702147569037 -5.705896632038097 0  1.078714894821424 -5.791691600031099 0  0.9738810107384879 -5.780193185610639 0  1.014583759674283 -5.876033944097712 0  0.9125097342108948 -5.862797737922571 0  0.9524012634183627 -5.957134167567603 0  1.054064711742665 -5.971168490549647 0  0.9913213158168297 -6.052909431032109 0  1.094610288542018 -6.067463473011118 0  1.029720464050691 -6.149643825823569 0  0.9283367217245413 -6.134801429802318 0  0.9653380105357421 -6.229892239768436 0  3.690059644775147 -2.601162389676669 0  3.925035004712267 -2.617655376189874 0  0.8522558520615995 -8.907113395616348 0  3.597948547478104 -5.341712047612727 0  0.9826749988872905 -1.082335516809331 0  1.075257284105433 -1.082473875882188 0  0.8851455787101283 -1.083679403648494 0  0.8033224514053323 -8.833316248115892 0  0.893026007439456 -8.989760366514419 0  0.866207406206625 -6.214144831941607 0  0.9024126359785498 -6.307503820095151 0  6.758023363179475 -4.065143304926523 0  1.001720641318938 -6.324277823957328 0  0.9380039751421414 -6.401987305977164 0  0.8014861743087618 -8.988130977503017 0  0.9333602746044392 -1.002757827191998 0  0.8376684438499975 -1.002393246908564 0  0.7908712585526736 -1.082375682929523 0  0.839677852130249 -6.382026750473602 0  0.8745588464707126 -6.478202569262952 0  8.209631639142582 -5.243311907968719 0  0.8340334299177865 -9.063934907702285 0  0.9310940170693947 -9.088828763348921 0  0.971109511590555 -6.495257951465496 0  0.9072552910705607 -6.57142130817436 0  0.8135699739605542 -6.553425459741808 0  0.8445126493869211 -6.646008124527356 0  0.9400957218346058 -6.664512665015678 0  0.875592699794657 -6.737990342292679 0  0.7489067274921126 -1.003129718914914 0  0.796837925544045 -0.9236815502486273 0  0.7465626828224057 -9.06230823181604 0  3.810356733982097 -2.388943189589883 0  4.052357367650377 -2.386725282967403 0  0.7799843156797692 -6.718562835694552 0  0.8110259850271007 -6.808701950025911 0  0.7807582054325906 -9.137460457224449 0  0.973126229675735 -6.758931235236005 0  0.6960748908514596 -0.9304782444042834 0  0.7499426463598695 -0.8472534993175831 0  0.7016389988045724 -1.079600615056079 0  0.6964538126882314 -9.134845717382905 0  0.6577445525023471 -9.056484070000479 0  0.719212156597159 -6.792002689152019 0  0.7481174577334873 -6.877588596434054 0  0.66015929415458 -0.8457682681640524 0  0.7346869902948079 -9.212319882516097 0  0.649903165221339 -9.206881643409638 0  0.7005039661518193 -0.7719455351121116 0  0.7850681629084217 -0.7692431248788516 0  3.575141645494661 -2.395762659772036 0  3.68935522436699 -2.181692621854611 0  3.461887427183481 -2.193666889723013 0  3.574943729427877 -1.996782217588703 0  3.353886858256853 -1.998778134808163 0  7.998937177134762 -4.053076306580999 0  0.6174912952364604 -0.7740674985937401 0  0.6601046644026773 -6.859500054605992 0  0.684257459538955 -6.947288055550453 0  0.7751583799132558 -6.963942755530481 0  0.7084909382979241 -7.035086014113959 0  0.8026486563175723 -7.050829360158903 0  0.7387201884049688 -7.119877470967953 0  0.6321128071473368 -6.782212167566085 0  0.8317589726801096 -7.138289884118742 0  0.7685999211289598 -7.205871577176291 0  0.676727311596327 -7.188541184190722 0  0.7053680329523839 -7.273645243282472 0  0.7950779178680225 -7.293078651638591 0  0.7291026437994628 -7.355747759563656 0  9.682582924580062 -5.398573151364253 0  2.167110547468374 -4.059449789434256 0  2.081968168277765 -4.192605714540848 0  0.645071387754232 -7.337228480499605 0  0.6685765819547722 -7.423182014169425 0  0.7571574542990582 -7.443495847479944 0  0.692670384610933 -7.507682198229356 0  0.6869256640652921 -9.282960786753149 0  0.77025908142517 -9.289067838876008 0  0.6041393776003936 -9.277370475852605 0  4.168873467332919 -2.630728156250913 0  4.301432430285583 -2.398128561733622 0  0.6536913438359271 -0.7016758640176963 0  0.5891004744889266 -0.8510663818350857 0  0.5760124561622 -0.7015538208534462 0  0.6074347625056049 -7.488194797794519 0  0.6308203735114883 -7.570589126611937 0  0.7133242651315577 -7.592394199633572 0  0.6517286751205198 -7.653168663366777 0  0.6012119167445018 -6.925650330978893 0  0.6399064790925628 -9.351578574000996 0  3.46417480153198 -1.807056222850279 0  3.247513284208138 -1.807995345131795 0  3.699583628691443 -1.782109297166 0  0.5595822507663861 -9.346441600591231 0  2.233901332244297 -4.203266416000847 0  2.150917157501381 -4.336247667964834 0  0.529741275578413 -9.277860084416995 0  0.6106576975726039 -0.6319120632069346 0  0.5335517273011359 -0.629904141499102 0  0.5703341844101146 -7.630810865086017 0  0.5907154616579415 -7.712595134544132 0  0.6723039142043916 -7.736472027834763 0  0.6103642130458162 -7.795425809648377 0  4.426680691442055 -2.633991927291256 0  4.568008672537507 -2.393023115704068 0  1.585793955551784 -3.794284475057029 0  1.458089542430255 -3.790522652258424 0  9.46893510251221 -4.019754355429958 0  0.6918743984075029 -7.819630824157183 0  0.6291446533321263 -7.877915150308395 0  0.5492685695095929 -7.853016574613097 0  0.569072404283542 -7.934422383723223 0  2.370900002695764 -2.932024870419025 0  1.524146085351802 -3.680348110458806 0  1.397667904988708 -3.676489652931405 0  1.333419727564582 -3.784183286804321 0  1.275680513003051 -3.67035366651161 0  1.213912317095321 -3.774804975769315 0  1.157783175558762 -3.674620444577765 0  1.100081746597098 -3.769421697543339 0  1.050087152711738 -3.67500625625885 0  1.10281638675257 -3.5748672732453 0  0.9844004352052309 -3.582491724693451 0  0.9943503708894639 -3.769566335911933 0  1.04650837389819 -3.48714618917335 0  0.9461202103071482 -3.483170687209852 0  0.9980563857977511 -3.397647343636101 0  0.8963161027524933 -3.396700126129528 0  0.9435692892177254 -3.312470174441236 0  0.8471967713112267 -3.308896970354224 0  0.8938707516078601 -3.226796914248294 0  0.8546858339506453 -3.478800342813127 0  0.8003774861130122 -3.22457534455727 0  0.8481927141648349 -3.141783977654488 0  0.7552171997836705 -3.14043075618619 0  0.8013461354681848 -3.059883190661824 0  0.9465848461677915 -3.160328830676143 0  0.7105209933039696 -3.058604361880644 0  0.7564801841605142 -2.979402267556846 0  0.7066338892266515 -3.222983257956627 0  0.6665443123924231 -2.979167406913166 0  0.7115761320234313 -2.900971470553834 0  0.8025484590094845 -2.900480341733473 0  0.7564203795223801 -2.821952637706986 0  0.6667927598382573 -2.822868734853293 0  0.7103312036307514 -2.744944167059172 0  0.6229112785798705 -2.745895547504348 0  0.6653054810002299 -2.668749704258118 0  0.7529203658703292 -2.667276157714059 0  0.7070205251182671 -2.591581907185736 0  0.6193427896668169 -2.593068280949917 0  0.6603430296495354 -2.515754655006821 0  0.749131674220493 -2.513443923851891 0  0.7011494338973101 -2.438730451983977 0  0.6140976495554451 -2.441819371765216 0  0.6532828373803845 -2.366103566394828 0  1.092462034191504 -3.399047828712227 0  0.5686303746254904 -2.369973206348271 0  0.6064915808401423 -2.295016710992947 0  0.7905734763776344 -2.433626700519328 0  0.5239403762970536 -2.30040461149418 0  0.5609186876397114 -2.226461325849902 0  0.6394546894630082 -2.219639097634722 0  0.5938612306442153 -2.150045071575955 0  3.343349755282059 -1.62677679240878 0  3.139967572728899 -1.622793908459609 0  0.5144179166834473 -2.159324431798666 0  0.5504565004386919 -2.083861534466922 0  0.6282872354330404 -2.074454365457976 0  0.5862106082094769 -2.008248217138465 0  0.5943953966542921 -9.418069063750316 0  0.5151488065097869 -9.41310181262266 0  0.4870939111716606 -2.374360038281362 0  0.5041911070929288 -2.015845710333492 0  0.5385253345462502 -1.941032928252086 0  0.645435191970062 -7.964985886089437 0  0.5836271788437841 -8.016881052669493 0  0.5709674538528162 -0.562314581633153 0  0.6440638530625407 -0.5613669235815717 0  0.4934128926667078 -0.5629426894518392 0  0.5038156668345763 -7.98936808278089 0  0.5272212216195165 -8.069776950514477 0  0.6099571966655013 -8.103472187079234 0  0.5387291884996515 -8.150498236229559 0  4.697101245936828 -2.633302618076825 0  4.843438224555669 -2.396495054518163 0  4.706920438615711 -2.149023259807825 0  4.991007170320463 -2.151019382936113 0  5.132441982030967 -2.403913896407739 0  5.287871262057248 -2.148453330299926 0  5.439390952392843 -2.41175061509359 0  5.598906814676051 -2.143784834981558 0  11.43053944881787 -5.593419708088797 0  3.037001214743819 -1.810132836981188 0  2.937662117140871 -1.629477617867692 0  3.035194481038967 -1.449485096621197 0  2.838264390335503 -1.452882687141009 0  2.75495945379623 -1.621329607370384 0  2.657850527315432 -1.45292734381557 0  2.306351270034778 -4.347097319958985 0  2.222162800587164 -4.482486513495542 0  0.4467697330480274 -0.6338910355113017 0  2.738877819717786 -1.292663446291673 0  2.557425414218974 -1.298292697611127 0  2.470634451434194 -1.480252877929113 0  2.381438721262585 -1.302616799508602 0  4.564966950068357 -4.870544340325246 0  5.760279408332471 -2.426191898203137 0  5.924659651528023 -2.143505458639541 0  0.6207908889784619 -1.933914995626076 0  0.5719474566895002 -1.86753745361224 0  0.4916959420003089 -1.875003107515677 0  0.5237973442418333 -1.802359367782527 0  3.794852530533623 -3.198163564992186 0  0.4457815925763029 -1.812734723398304 0  0.4768485683541641 -1.740873943682913 0  0.5625484010105879 -1.721673945265948 0  0.5054279289612662 -1.664825333276203 0  0.55018975957835 -9.482870164113239 0  0.6281069408584425 -9.48953859685481 0  0.4737009251775799 -9.478774207789479 0  2.458701364297642 -1.154847700538477 0  2.293957612118955 -1.159082771586744 0  6.09397940030064 -2.436513799156868 0  6.267640126744929 -2.140003604288845 0  6.440641079865642 -2.442755806280552 0  6.630114086738182 -2.146229203654266 0  0.4622005574463195 -8.122534279828315 0  0.4776894197494865 -8.202502673008041 0  0.5515483542814827 -8.2289820827556 0  0.4915584809511451 -8.280985369819117 0  0.530814610389859 -0.4960396509567424 0  0.4553540507244573 -0.4970122830925447 0  4.845088734920358 -1.904406341471962 0  11.1940676578399 -3.999688499262302 0  2.217109462235902 -1.30250383268822 0  2.13376494172957 -1.160273219429913 0  2.2075565072481 -1.023441117613826 0  2.052188252777103 -1.025098220779538 0  0.4295781556653502 -1.676973170865551 0  0.4586421208691789 -1.603958142849354 0  0.5665664884247157 -8.306956849191554 0  0.5053455079416338 -8.357861285414035 0  0.4321502215723889 -8.331941644064303 0  0.4452741635423259 -8.40787829898008 0  0.518122140400596 -8.434813822484152 0  0.4576127673321686 -8.484402728128167 0  0.5327767169017328 -1.592834542854644 0  0.4886347193864466 -1.53296508157949 0  0.4119208551506404 -1.541699749555303 0  0.440297547736284 -1.472105037673287 0  0.5165089149636568 -1.46142144541391 0  0.4675298585869427 -1.401984424273915 0  1.462622148581209 -3.568844640114124 0  0.5073198979779434 -9.545894674595331 0  0.4324929020365005 -9.539935900359088 0  0.3999854507105596 -9.475563144926074 0  2.123566277661915 -0.8920816848150732 0  1.972490264887906 -0.9005132772472892 0  1.900715742562276 -1.030561543870921 0  1.825967598382036 -0.90779733011221 0  4.718858071849514 -4.120763051490902 0  6.809660351106785 -2.444115562775004 0  7.00884544375465 -2.141740484918788 0  2.382476104218176 -4.487358149997618 0  2.296598369556769 -4.62786505668141 0  0.393036814110669 -1.413233014924947 0  0.4191419181040192 -1.343767821504685 0  1.04187206791185 -3.8602910635684 0  0.93710869326015 -3.858192473137122 0  14.3128309699807 -5.911021649876118 0  0.9840814347202986 -3.947337441006117 0  0.8825361906891427 -3.940869187088348 0  0.835144079791462 -3.853306247499473 0  0.7842838298434884 -3.935013693238721 0  0.7397411664220179 -3.852912425784994 0  0.690617139082546 -3.927729550758974 0  0.733093085101407 -4.011143421331679 0  0.6486605400689065 -3.845626234865163 0  0.6305187477490595 -4.002835561824112 0  0.6769225793939153 -4.082492916842122 0  0.5943410406571328 -4.084269786891987 0  0.6292646823752257 -4.155346855478756 0  0.5484262868733474 -4.153219838415734 0  0.5852059034999311 -4.227117099542165 0  0.5058112280722398 -4.080644333896093 0  0.5036676969930109 -4.22372861550058 0  0.539518384097148 -4.295627879069229 0  0.6734687797668002 -4.223834035444978 0  0.4602794719119654 -4.293127585124975 0  0.4957962026410012 -4.362989314673151 0  0.4181136809386388 -4.35875275312309 0  0.4524376318308025 -4.428250591033036 0  0.5313829633560072 -4.433771558487999 0  0.4869001438406197 -4.500135283927965 0  0.567332746481874 -4.505940433818985 0  0.5215345003235115 -4.572166004276176 0  0.4423979037548804 -4.564980833847501 0  0.4758147851855909 -4.636987710426085 0  0.5551733192638384 -4.644754530364072 0  0.5090506095938974 -4.709853744956598 0  0.4365598008578555 -4.698596735255682 0  0.4661228649938458 -4.771289356534204 0  0.5401163834218643 -4.780785609154222 0  0.4943732983908369 -4.845653881999185 0  0.4099755117651487 -4.835859970399471 0  0.4448548247774298 -4.91242178649741 0  0.524390182374658 -4.919434399867462 0  0.4766774944144672 -4.983414639204399 0  0.5560281893059198 -4.993194038192202 0  0.5068426997725517 -5.056310972822241 0  0.4289281523968818 -5.045793237540244 0  0.4582543999586086 -5.118220429628738 0  0.5358792829101784 -5.130052546475448 0  0.4860546989940389 -5.193438120084332 0  0.5658471825261522 -5.204793267409848 0  0.5147026466879439 -5.269443888450728 0  0.5963128254806982 -5.280554885713061 0  0.5445526015000617 -5.343946056970839 0  0.4642620689644072 -5.333447621153073 0  0.4935071190954368 -5.40635683112342 0  0.4160720218814333 -5.39473766529102 0  0.4436160307039998 -5.467133182020238 0  0.5212862436111543 -5.47981639523243 0  0.4703772854699437 -5.540553504767002 0  0.5491661529165608 -5.554618326511298 0  0.4972763933742836 -5.615089053724926 0  0.4198717624249255 -5.601095603848726 0  0.4463663175708881 -5.675122421590411 0  0.3829124031241964 -4.290528823190966 0  2.133586032987701 -4.618465645352629 0  2.204897965514288 -4.761991649787857 0  0.4920593328121932 -0.431456519560987 0  0.4176717016569373 -0.4325428792708923 0  0.5224559136100311 -5.689901450839212 0  0.471103248451838 -5.748560044955513 0  0.3957291871177144 -5.733850095527631 0  0.4201463777436469 -5.805673571945231 0  0.495867558869417 -5.822200569454364 0  0.4439266261080661 -5.879288005772654 0  0.5202625785391177 -5.897100697159988 0  0.4668995097665132 -5.954482905003053 0  2.487761381400112 -4.338004228097624 0  0.3918570823194312 -5.9332465334064 0  0.4144681208580465 -6.010609286083201 0  0.4889712013582397 -6.02888615785225 0  0.4359887069098516 -6.084254062292188 0  0.3822067417409158 -5.106328029864703 0  0.5297182305400003 -8.511924799068934 0  0.4689579386220224 -8.5603570458589 0  0.3974235300226177 -8.532745242467282 0  0.409682287279443 -8.608072425455822 0  0.360454205843233 -9.534920748746371 0  0.3918420998667838 -9.598375869170066 0  2.039723500267986 -4.751523371212016 0  2.113310414708518 -4.891871734003782 0  1.955811126034217 -4.882991886435394 0  2.025488942825268 -5.022075694760288 0  2.180983086038172 -5.032519646825335 0  2.091790667034877 -5.160315711434571 0  1.939253514762665 -5.148952638988781 0  2.002906010204313 -5.285766059444967 0  13.91884374336128 -3.915218842298221 0  4.55219948069929 -2.874036515062465 0  0.353988509605383 -5.037078275153943 0  2.249812823757329 -5.174665212302822 0  5.760547347003817 -1.847656542988262 0  0.4793499790137972 -8.63599786150662 0  0.4196627070297758 -8.681653789008781 0  7.202147808963723 -2.459992838416786 0  7.407657847568975 -2.106402014911662 0  0.3631877198575069 -6.069221053910033 0  0.3837195211572855 -6.139642681401902 0  0.4571999543914167 -6.157551386317934 0  0.4039605367502439 -6.212548635250732 0  0.4776747318025087 -6.231198815805796 0  0.4241870852605967 -6.286542194181959 0  1.854898834427054 -5.273960652944869 0  1.916530686530448 -5.406436790719197 0  0.3428059484151262 -4.35357460967327 0  3.242214866250555 -2.189757177512313 0  2.442292841171591 -6.158954529728574 0  2.078578187119112 -6.745614398411293 0  1.756713723224561 -7.280344231799191 0  7.611598282248714 -2.478699992205935 0  7.825458255647706 -2.097259911369041 0  1.45972765009974 -7.754284414395254 0  1.362816591998964 -2.152489200104208 0  0.8958399574491551 -7.068574034036193 0  1.75827918717604 -1.029695921671661 0  1.687553891991161 -0.9126844330991251 0  1.750948599034173 -0.7928437494823628 0  1.616992929142075 -0.7984645932013006 0  0.3285258790301544 -9.47149793130056 0  2.048661810158251 -3.208731163306124 0  1.75467598359948 -2.655087605064076 0  0.6217036132637936 -3.055479102479485 0  12.76728386233296 -5.710124617632888 0  6.146036734749256 -5.022745921427567 0  12.48460362651863 -3.946810666600084 0  8.039363255140207 -2.492920788746765 0  0.3820558882642935 -0.495778726464029 0  0.3465276439000569 -0.4310049519508787 0  0.3809171897062669 -0.372051630038456 0  2.056785003763016 -1.290177063947799 0  0.3455128488700723 -5.791003352821388 0  8.262438517308848 -2.109737212484086 0  0.3221477770279417 -9.593167206220615 0  0.4981032336431124 -6.305147238193864 0  0.4441369165029183 -6.360050230687347 0  0.3734829275969282 -6.340736965458275 0  0.391612819440148 -6.414776556031958 0  0.4641478571987587 -6.434008248203341 0  0.4092566425418251 -6.486776393453393 0  0.5801639526035327 -2.821733148237191 0  1.135016915833873 -6.165270805888691 0  1.20190401101299 -6.082737506176359 0  1.244536954813253 -6.181944550851048 0  1.314234824297635 -6.092549322304024 0  1.360122466667782 -6.202347664989014 0  1.433014799071341 -6.109186918837982 0  1.479340956114454 -6.217863863320548 0  1.554479356318534 -6.125446928965763 0  1.404426326673542 -6.316236310542374 0  1.507762664323222 -6.008186502662769 0  1.634727065048438 -6.024506730652652 0  1.524519555706394 -6.333822296754043 0  1.451804642098557 -6.435336217817586 0  1.584566378585322 -5.898427469389272 0  1.715992166169505 -5.913571088506217 0  0.9436430170938586 -4.839074313279806 0  0.6547002803143176 -1.858433919534169 0  0.3515102827126348 -8.654361986822186 0  0.3605785367861056 -8.727291110668173 0  0.4287859905952907 -8.755157604883308 0  0.3695364065495461 -8.800113670900313 0  0.4141592008381263 -1.881301225823847 0  0.3692803712490562 -1.820472418003903 0  0.3396874500738818 -1.887506035313274 0  0.5443648208202365 -1.389078175374945 0  0.3466406875603454 -1.356280818639828 0  0.3721021015718797 -1.287479209416485 0  0.3229060428585129 -5.72113410491103 0  3.300112809637412 -4.751977818849908 0  0.8493161355173271 -2.820333655382825 0  0.4444013408512753 -2.304788090735408 0  0.4088962802990093 -2.375802031217405 0  0.3682588514629028 -2.309489960402118 0  0.3357073863186884 -2.374876115499703 0  0.3759091400879733 -2.44031955444115 0  0.3515938259948967 -9.654815466460915 0  0.320914688175133 -1.423098869091946 0  0.5382247273507943 -2.7477741302722 0  0.497417677072832 -2.82253567584191 0  0.457039626420066 -2.751421906101478 0  0.4172797169578004 -2.818442318230218 0  0.3797034454561565 -2.753173917310492 0  0.3429790875717913 -2.817132873073848 0  0.3781888967432288 -2.885779994592316 0  1.798898930197053 -5.161467747511402 0  2.936095608946857 -3.216055104504334 0  2.136286726711209 -1.43703124010804 0  2.040685008990053 -0.7708631284663463 0  2.193062946543915 -0.7575677141432484 0  0.3746543039785699 -8.38034067027246 0  0.3621949050770645 -8.305764334659576 0  0.5115665698332403 -7.689245202851757 0  0.4909394788366779 -7.610586706604813 0  0.4352197232674406 -7.665832269583991 0  0.4152647914405048 -7.59110494288675 0  0.3622351076837482 -7.64441941860221 0  0.343667542644674 -7.57227159532391 0  0.3789874356192175 -7.716307941366777 0  0.3949261743465726 -7.519315919831446 0  0.3245055226362936 -7.501176112522428 0  0.3749793586871135 -7.4489026186089 0  0.3055659331922165 -7.431204119211248 0  0.3555176489162957 -7.379753311263208 0  1.767631676919976 -6.044296612276581 0  1.853144986780393 -5.928276728899743 0  0.6250533313034623 -5.360213701554997 0  0.4202763133074754 -9.661486484501811 0  2.064404883544436 -5.422130345480641 0  0.3387176633478681 -6.467748793344005 0  0.3551886645823163 -6.538369202714227 0  1.677359680937535 -0.6817034465416301 0  1.547041685993721 -0.6893601058230532 0  0.3046148627204328 -0.4926792357890877 0  0.9251651099333813 -7.159652297560321 0  0.993812959454683 -7.082231071283272 0  1.023237742869696 -7.183948853136088 0  1.094919461063519 -7.101402336499444 0  1.125786475518296 -7.206460081166191 0  1.197757507609378 -7.128308606813706 0  1.204983191219247 -8.673263667230588 0  0.3684878290640725 -5.453399703846824 0  0.341529963080248 -5.384976464644823 0  0.6476812274787331 -5.217369485960413 0  0.3351484638498672 -6.197683050388255 0  1.483262814511992 -8.307017294792573 0  1.782953721622253 -7.889330651909694 0  0.9270476059764086 -4.026598895148701 0  2.1230980925708 -7.427479012640212 0  2.502579604420056 -6.929708620070508 0  1.179259944761082 -1.251757583539582 0  2.898736940344225 -6.331245084915691 0  1.431987121961406 -1.65365991025994 0  1.524593945481817 -4.48060664246596 0  0.3115939645433325 -0.3703783133533092 0  1.685837506046376 -2.051274072510252 0  5.586749032008171 -2.678058871204996 0  0.5678647392965654 -0.4295064739681873 0  6.264616768883549 -2.759264233607717 0  1.571628546902792 -6.452123353215232 0  1.500978393247728 -6.55664657457429 0  2.454925689721129 -4.619847052429487 0  6.443120192632485 -1.818493247108627 0  0.5920940657669345 -8.463030006844722 0  4.172592068765582 -4.151680135199733 0  0.6266758236355283 -8.259887201003327 0  0.7556820410621263 -7.760347043958961 0  0.7765521203633252 -7.846789937326413 0  0.8438470658949608 -7.783178236463818 0  0.865103706844506 -7.87662783896694 0  0.9352469529921024 -7.81049759575812 0  1.771971098059446 -5.409874804129081 0  0.5943588967987505 -1.449519887242245 0  1.295569881485225 -5.337874901096141 0  0.7043698111582586 -1.92699178213443 0  0.7407969483003995 -1.846781234862884 0  0.7930466406721486 -1.921631796632131 0  0.5296179683708129 -6.169574043447338 0  1.039222357366006 -6.681281418592244 0  0.5743207154581498 -5.837629576182589 0  0.5995503141586802 -5.915606330844657 0  0.8406218623228305 -2.511878477248255 0  0.8842031109752391 -2.427243296047794 0  0.936195204800816 -2.510704331774567 0  0.9818112883582693 -2.423465480096698 0  1.036079371506387 -2.508271647423379 0  0.927950602851686 -2.339709350901471 0  0.6043563613446494 -4.929637022192266 0  1.590090163316303 -3.570221904868497 0  1.527277114214824 -3.455871132001545 0  1.977501166123814 -2.280250838506904 0  0.9574623845752637 -7.905144712008651 0  0.8854686696669738 -7.971519552928835 0  0.3064620000511677 -2.880921783808587 0  0.3406817066374366 -2.943826267000936 0  1.275999631502536 -4.86204917352281 0  1.052825415485749 -7.285141388245457 0  1.157368917128391 -7.309382162772371 0  1.085738430818864 -7.39006801582474 0  1.489364028195984 -0.8034283721234656 0  1.423485123186714 -0.6966676711351987 0  1.478821658576193 -0.5871738795647525 0  1.358312292783896 -0.5957873449190991 0  1.305134459037943 -0.7000868462644192 0  1.243039293611993 -0.6036626971781471 0  2.817735526311184 -3.71403628596533 0  0.3067396016667914 -2.753985463017196 0  0.3059592174129051 -8.353916724496774 0  0.292933038164362 -8.284060874837092 0  1.968715617420502 -1.428466617941972 0  2.05650408811918 -1.566559790850665 0  16.56188099722134 -6.183010840812102 0  0.3086279281197672 -4.288336001691288 0  0.3020432872704006 -2.4400389349797 0  0.4373818421000362 -8.828274927091188 0  0.3784987083351723 -8.871649930398309 0  0.3121615558130806 -8.843921798411829 0  0.321147404880648 -8.913867505680635 0  0.3857869128726961 -8.943395257937727 0  0.3288136443308272 -8.984573656901219 0  0.4445275304373268 -1.272882265121271 0  0.3962151299514751 -1.218482389591851 0  0.3250967038680805 -1.228888063567013 0  0.3488933128381753 -1.162389320335534 0  0.3442064984851818 -0.3135176237536808 0  0.4127600621344953 -0.3114964478851991 0  16.22738886710273 -3.905488734307954 0  0.8728083479356741 -5.766805211565667 0  0.2940654150766022 -8.700556519592112 0  0.2853989496809586 -8.629608277505298 0  1.087305719049963 -3.953595448231189 0  0.2864010140232303 -7.362834679860109 0  0.3361453823489704 -7.311477656401479 0  1.288951222445064 -5.530540463260206 0  0.2848803793858607 -9.650302789591187 0  0.3130466718609313 -9.709720262095354 0  8.486138050911979 -2.509770892539547 0  8.724099351064819 -2.105195179522426 0  0.3092525604024914 -5.09605960528608 0  0.6047488340308576 -8.542738137368813 0  0.2973285131575167 -2.312911451203991 0  0.3277553843029377 -2.248886459995386 0  0.3936649479540719 -9.01434367153089 0  0.3356067048715872 -9.05514243652118 0  0.4200520754997967 -1.14983490491981 0  0.37200075892118 -1.095870043016014 0  0.3023933370986551 -1.108698083693309 0  0.3245285078032047 -1.043027268386922 0  0.3094484700791273 -7.695711301156946 0  0.3259306438989995 -7.76523724605769 0  0.2972181071667741 -1.830328195796674 0  0.6240609310663707 -1.374825246050065 0  1.623955679285892 -1.031943184847805 0  0.2673125278024457 -7.294379720559746 0  0.3162623198395664 -7.243023804050862 0  3.232050650336042 -4.119631966719529 0  0.4827581032459189 -6.508629348587714 0  0.2776748039586732 -0.3143341387508407 0  0.3858800838797336 -7.260552627122554 0  0.3693029284470466 -7.19349932978224 0  0.2969851754758075 -7.174761913891077 0  0.3463069110474812 -7.12319903699165 0  0.277306261255525 -7.106746820206656 0  0.3252415795328698 -7.055035364529058 0  0.2819436946151122 -5.029361647915866 0  0.4983423037342192 -8.783426357943304 0  0.2961171043686797 -5.4404924024215 0  1.191931361999391 -0.7019010624008111 0  1.131670482310895 -0.6085836244758225 0  1.181290449259675 -0.5130231414919262 0  1.075248544314022 -0.5175923148600647 0  0.274919926952478 -5.774573345299031 0  1.189827388583794 -7.414065832971543 0  1.265239566041181 -7.334700730868112 0  1.073732062249722 -6.780620065039868 0  0.695697144347923 -3.773522191189981 0  0.6081029872927921 -3.769720632151215 0  0.2704177886834422 -5.375576189660162 0  8.943406309841762 -2.511731690641435 0  9.203316554034441 -2.113761740884851 0  9.454860142468238 -2.603988382440713 0  9.712598233245107 -2.122784319472497 0  0.9122827274140164 -7.715448305015258 0  1.00622178832689 -7.742089470070609 0  0.9511365597310952 -5.500800619332814 0  0.6528602930127789 -3.697148672177674 0  0.5668718129179595 -3.696627406865473 0  0.5237246036758307 -3.766324477338404 0  0.4849246806539043 -3.694799877770095 0  0.4433206250113866 -3.763428259645377 0  0.5259566265032145 -3.625680247404795 0  0.4464920988760195 -3.624435312712107 0  0.4862245805471126 -3.556482396580053 0  0.4087733052398956 -3.556091539700899 0  0.4469793663098045 -3.490028219856645 0  0.371834311767067 -3.48914027712366 0  0.4088705252465896 -3.424720699054368 0  0.3570996175121444 -3.620452906298651 0  0.3357770297081224 -3.423644277631484 0  0.3727726873191486 -3.360245032023757 0  0.3001565594810849 -3.361950505386612 0  0.3363344886457025 -3.298701325367743 0  0.5248714273154693 -3.488370969573372 0  0.298853463294428 -3.483998478710977 0  0.4094193193226783 -3.296870858519722 0  0.3731035524761488 -3.234823088980398 0  0.3010477951497563 -3.240596159098196 0  0.2697879645877332 -4.347952800198728 0  2.858112362229468 -5.494845871054177 0  0.4437391013600074 -1.081121254577123 0  0.289083840785251 -6.521375663450236 0  0.3029608807083211 -6.588162381488658 0  0.2678287893826958 -6.449122893948722 0  0.3718759515989074 -6.608181531437111 0  0.318735491300508 -6.65830010226133 0  0.2687384420781616 -1.894260260087175 0  0.3094153142208764 -1.951133785520166 0  2.109680459972743 -0.6334313534130471 0  0.3091038061742424 -0.2567823611012345 0  2.264621835675744 -0.6210090597372631 0  0.4245956892987799 -7.143769676116748 0  0.2768658002455275 -1.368632664019779 0  0.2744972835938135 -7.555279128485951 0  1.621234714133465 -6.569315653566077 0  1.545302698775954 -6.674747193046223 0  1.70406286036836 -6.464811787116577 0  0.2576029851162556 -7.039285288284335 0  0.3065025096396319 -6.988959632699488 0  0.5396750401066157 -6.453570697863349 0  0.3415073448844979 -2.690939601520131 0  0.2455660527849552 -9.589185608674413 0  0.9389236814909534 -5.015470042190356 0  1.411032903036485 -0.4888369495540577 0  0.6760255567723732 -1.438448823313855 0  1.532288781836627 -0.4785122691309276 0  0.2723018656655025 -9.024668701896253 0  0.2788564667265483 -9.096065305238632 0  0.2705257010337299 -2.942179434484022 0  7.131027749337608 -1.81099626173201 0  1.907739605903263 -6.061350547723901 0  1.996461122056036 -5.943162580313698 0  0.3886577866528818 -6.678388057794571 0  0.3355794547019979 -6.727237001324371 0  3.313560925272018 -2.799104918797256 0  0.244144470149223 -0.3731449645373015 0  0.6692133138207694 -8.491293387863289 0  0.3480290688443688 -4.2263568972844 0  0.2755578351225019 -4.224571157327882 0  0.3133732040535957 -4.163906144893473 0  0.2526287115801154 -5.709180134412114 0  0.2705139322186962 -2.69252915483815 0  1.691445564857025 -1.146515203665702 0  0.2571990149171661 -8.885699953708315 0  2.337496249483099 -4.081036662194003 0  1.028610609843295 -2.334513478591756 0  0.9723371825983484 -2.250354369940676 0  4.566111033520368 -1.903571189994015 0  4.699737071336317 -1.660684442979022 0  0.2673448396230622 -6.706554883327264 0  9.971963253437217 -2.551839799986547 0  10.23805518906248 -2.092231435038496 0  0.3670875276367056 -9.412917696001186 0  0.2976135072313966 -9.408672317006197 0  0.3346995964198456 -9.35150688256315 0  0.2664666651408023 -9.352776706988667 0  0.3019530534902017 -4.41254578332479 0  0.2317960281549016 -4.159016782089593 0  0.2781263002423167 -4.102377594464467 0  0.2519590742848372 -1.432643101727576 0  7.412673460217549 -2.830338840253857 0  19.14758908731194 -3.733789334907407 0  0.244325463213876 -0.2581749714892068 0  0.8297837759105278 -6.122718845114603 0  0.8309243268524753 -1.837838126101439 0  0.7764531962970178 -1.763759766758451 0  0.8857232872169902 -1.913206540829893 0  0.2485002253783133 -9.705342462604278 0  0.257246700610132 -2.254670912465001 0  0.2877008421068208 -2.192631968012476 0  0.4059934265782186 -6.747869944820872 0  1.142998267237324 -6.698516151673862 0  1.177450146494131 -6.802232838018297 0  1.250490216878397 -0.7785574014410201 0  1.121658566048181 -0.4258760677583533 0  1.018915640220182 -0.4336357118447394 0  0.9741813009669897 -0.5212093490493404 0  0.9210307816580219 -0.4397869299214401 0  0.2385294524142125 -6.962428579633757 0  0.3416743841671455 -9.12472219981292 0  4.423546816649196 -1.664428916616451 0  4.55760472696138 -1.426095070060217 0  4.834704554904835 -1.418438756974034 0  4.289368920819804 -1.432964637711528 0  4.419062189969472 -1.197026465229468 0  4.157849172358258 -1.202026626331941 0  0.2569388205526675 -1.056718472029837 0  0.2782019325762572 -0.9912606567603115 0  0.3458360712222426 -0.9751719319716736 0  0.2985224264279225 -0.9261668711726241 0  0.2586749956504093 -7.745613365930259 0  0.2746628029173372 -7.813804818598192 0  0.3044379874391439 -3.003440393291668 0  0.3719854721462461 -3.00421417094964 0  0.5593178783781418 -6.531607387827306 0  3.879173048021986 -4.972982212028654 0  0.2411403809488775 -1.956299572701934 0  1.65869796469981 -3.458100343624357 0  1.593437831639987 -3.344429395438371 0  1.463993268549771 -3.342550367727924 0  1.527287769124896 -3.233434793612227 0  1.40017945178295 -3.232653464967969 0  1.462897484877862 -3.124950082557249 0  1.340343161165663 -3.125616968356321 0  1.401272567119346 -3.018677520659501 0  1.281228603334537 -3.01878761906423 0  1.340462021849794 -2.915010811173309 0  1.224085509059718 -2.914686720118481 0  1.281602487038764 -2.813005233462756 0  1.699675488290698 -4.266380725028037 0  0.2350716688359391 -1.120836465266611 0  0.447862181694493 -3.235612557098145 0  1.163545004149935 -2.819755780575997 0  1.32567678955666 -6.411472648287851 0  1.08362936402396 -0.6993616966174123 0  1.56011688140859 -1.148231178333855 0  1.626636933037172 -1.261523082574937 0  0.2356130284148925 -3.002290185554395 0  1.911851747058389 -1.572831073409827 0  1.984035182229871 -1.698092036450008 0  2.133464271237921 -1.699061915886161 0  0.2324649857083667 -4.406788912236729 0  0.2622128319060604 -4.46812371277074 0  0.6824650283144535 -8.574371537217546 0  0.9787773703179408 -8.00089841692183 0  0.9057367229091184 -8.066379038650954 0  0.3395714560594243 -5.163011471069352 0  0.2642815663185818 -5.152642236635267 0  0.3746240503789906 -7.003961856410534 0  0.2327404834040774 -0.9405641435528382 0  0.2524080186448412 -0.8760687792511268 0  0.3185001473952731 -0.8612269532867955 0  0.2718507769126255 -0.8110998106042064 0  0.2758867900640976 -9.763676195687097 0  0.3406652081090851 -9.768749820158554 0  0.4802083806272091 -3.833493978760973 0  0.4041502673539554 -3.828922435725215 0  0.2398621965874987 -8.329672077723194 0  0.2523500733991781 -8.396854904736493 0  0.2281426031810661 -8.263108531882967 0  0.2798779655184784 -8.214876239383937 0  0.506535438754133 -8.857863883889427 0  0.2366496519105592 -2.881089828893502 0  0.2298446260236755 -9.40528546772644 0  2.180095912613659 -0.4918324972254036 0  2.025664449279713 -0.5126378371193558 0  4.831712399644656 -2.878248599765208 0  4.682701707329819 -3.118634884157228 0  4.967666969246551 -3.127224068290026 0  0.3419059905795176 -7.833537958487864 0  0.2914920144006423 -7.877579220866998 0  8.032494069462384 -1.699050731749191 0  1.399619450654544 -2.811750582058891 0  4.283552565944621 -0.9702385654138439 0  4.02649760720168 -0.9784091238172223 0  4.548582823346319 -0.9647776974302236 0  1.974989276602251 -4.60904454824842 0  8.686857033529993 -2.893185558376371 0  2.057890767350589 -1.830091333054147 0  2.21143934208769 -1.83202805784664 0  0.7424881024688261 -1.159159286315447 0  0.9636768502208835 -0.3538379769334163 0  0.8689504855851276 -0.3602531385250174 0  2.341860293084599 -5.042356825487994 0  1.34298792314795 -2.705973376762651 0  0.2309129165839234 -8.673245113647262 0  0.2215622132863366 -8.605955176187656 0  0.6383211098832469 -5.00539154513927 0  1.668006582374693 -6.692684926914723 0  1.588676021421691 -6.794402113416648 0  1.662139392620304 -5.790434872688476 0  2.351762398422991 -0.7503824380418536 0  2.426965327672212 -0.6093870478371368 0  2.51716267541341 -0.7468491765212049 0  0.2154467399284066 -8.195952813037968 0  0.2658285952427342 -8.151681936761701 0  0.8456796057605054 -1.999373040862602 0  0.9404130938990782 -1.990731265619357 0  0.9820037461785613 -1.902476457120069 0  0.2375555581531792 -7.414629624569397 0  18.59286967600027 -6.360797007484994 0  0.2270209550093298 -2.31386059821394 0  0.6131791159950986 -4.437802929555662 0  0.6501757770574059 -4.513708282033364 0  0.6975905311417563 -4.441800377338259 0  0.7370418727329486 -4.521958583129762 0  0.7882398051468371 -4.443988160827821 0  10.50402497638376 -2.560314036727016 0  10.80243093965785 -2.069518418806716 0  11.07547679526797 -2.572850225281022 0  11.3837432800105 -2.07863325999768 0  1.187079310850176 -5.805746538211088 0  0.8972853111302932 -2.902426220959969 0  0.4858602785571247 -3.299050386810458 0  3.90488341206709 -1.198059841919851 0  3.778785513970393 -0.9791040906586801 0  2.593957400063456 -0.5991375585837186 0  2.690734732288337 -0.7528788607411183 0  2.772898282078994 -0.5915887766659722 0  2.872754481188664 -0.7507508323799374 0  0.4931232764069335 -1.134970332156111 0  3.711376921391745 -3.748269575649745 0  0.6896338310057679 -4.937453233093877 0  0.2400216901757837 -6.578616729529889 0  2.413935453056935 -5.190672888171347 0  2.511691610680087 -5.053791184302113 0  0.2834062322702842 -6.774705795610523 0  2.958004661944925 -0.5773679845013469 0  3.060266379860586 -0.7346088038363447 0  1.463700185016453 -0.3795121347681363 0  1.663042454099479 -3.24578761643571 0  1.376777065917683 -4.140623928505021 0  1.533832746339915 -3.021321358709816 0  0.2029851860038896 -8.130592009982518 0  0.2526024630964248 -8.086348208080288 0  0.229041267682538 -1.838038890133144 0  0.2556099799785443 -1.775816676121262 0  0.2123153639574511 -9.757762747525646 0  0.1853498148615884 -9.70189784303518 0  0.3382674907919299 -0.7962426743175088 0  0.2911723296823876 -0.746920777117694 0  0.2260009826612084 -0.761659830789271 0  0.2447882193861712 -0.6981609667175546 0  0.4259559463283846 -7.396949503720243 0  0.2199372825216521 -2.197236544635336 0  0.7417298072912413 -3.698097938541614 0  0.987946075160961 -2.593498941659664 0  0.2170879668869485 -7.157311895967011 0  0.1897475569190998 -8.066052554190794 0  0.2264627134765504 -5.429198211452901 0  0.2515070066362171 -5.49303038643718 0  0.7706110048431114 -6.198192032544135 0  0.5692493862797257 -8.812982072283724 0  0.2249493008323036 -7.860554633275678 0  1.075787265404866 -2.243002507170417 0  1.13250476017301 -2.330829382325176 0  0.2846810020042252 -9.16342009350873 0  0.2238564197062018 -9.136048548246967 0  1.531882183563113 -5.7740433916332 0  0.2024931577965638 -5.366234615553601 0  0.208822706411171 -1.380797215982621 0  1.295938310784255 -7.438646423692521 0  1.222318976742576 -7.521317728541348 0  1.377102643140208 -7.356932916074066 0  0.1892668346675119 -8.374163814693716 0  0.7359913178725854 -6.113158295304045 0  0.207696364801059 -5.761039563711142 0  0.2286032917613792 -5.824807129885986 0  1.939704631167402 -5.807034579346954 0  2.086880674783846 -5.823253699654947 0  0.2095724822759486 -4.094197918388644 0  0.2467024184973994 -4.040646486967485 0  0.3158850006887679 -4.044089872266227 0  0.2808921462962299 -3.984483989026277 0  0.2144684423155887 -3.981760486635782 0  0.2484724533361042 -3.924933488177921 0  0.3039654260550346 -2.630786589667642 0  0.375938670032486 -2.627610209967313 0  0.2347426012159666 -2.633466266607245 0  0.3529967390358664 -6.935219208310775 0  0.1987514261068934 -8.436374831948866 0  0.7053177039850294 -1.361904753341471 0  0.201477412683932 -9.35195282895971 0  0.2181162480966563 -6.754728933024267 0  0.8285804172698654 -4.527938601924485 0  0.881646051679418 -4.449824945077763 0  0.7758081454425927 -4.605190613480136 0  0.8391555181116352 -4.363584995196494 0  0.9352194443426978 -4.369220749176112 0  0.202235741838507 -2.692478496048905 0  0.9827105265385025 -7.646152339050598 0  0.2495742288464413 -2.136904998919032 0  0.3158539998402432 -2.126357798325555 0  0.183626003444207 -2.141052889082236 0  0.877986663300149 -0.5255942378393623 0  8.93521484254315 -1.711129838231357 0  0.6157223182350418 -6.471759765107719 0  4.815491072318455 -3.368510830189073 0  4.531561106774035 -3.352761040470863 0  5.10679821751385 -3.381368546342212 0  0.2011970386113688 -4.22841786762655 0  0.2749954358331674 -0.201977953373353 0  0.2116523862070405 -0.2042767735017748 0  0.339612008958488 -0.2004326546152804 0  1.053679784273541 -7.933514028318974 0  11.68340188597989 -2.60005138100932 0  12.00284751070205 -2.070511779830481 0  0.5183178876866315 -1.064916767855592 0  2.054497587764381 -6.079438968234795 0  1.962480602617205 -6.198595412916786 0  1.221683195136114 -3.122816039310273 0  0.4599243918673608 -6.700148235808903 0  0.4394930957308212 -3.897993185594678 0  0.6545314884120437 -5.855770809107238 0  0.1880990771297189 -5.700817556967349 0  1.723788213659097 -3.574826690358829 0  0.3447358494310784 -9.190952300787513 0  0.404840125701817 -9.154070610777371 0  0.8907037431183191 -4.282196418490166 0  0.9899816352396353 -4.286785274392067 0  0.3860451839805386 -0.8446033377510505 0  1.076182478235197 -8.032903218390688 0  0.268702628609379 -3.06228935687011 0  2.969377374022296 -0.9056087275044806 0  3.156681516312979 -0.9084092525314889 0  3.260678635890454 -0.7234748220544445 0  0.8724981524836757 -2.258054988141053 0  0.2015053269116507 -3.06155613529653 0  0.6976446580204776 -3.620789822454698 0  0.8689424869972164 -1.753269242033405 0  0.8130821652530535 -1.678847479474548 0  0.189738512221691 -1.783687721099294 0  0.2157590658559627 -1.723199385935471 0  0.7206497708297839 -5.014866506689534 0  3.900659761583203 -0.742888470253539 0  10.22287231210675 -3.038677794481492 0  1.25044123317808 -6.719535351465507 0  1.2875283945686 -6.826070786959201 0  1.794862040629695 -3.458176217668682 0  0.3032169834471716 -9.821565741645223 0  12.32297327977678 -2.625515010081064 0  12.65464936356229 -2.089652107316194 0  1.607617727260992 -5.669270958366655 0  4.409920070043821 -0.737794455446017 0  1.089403904969121 -2.594364354550549 0  3.66056309258933 -1.188511084906057 0  0.7496483829706833 -8.520402099722974 0  0.7351014666753315 -8.437462890995038 0  0.7633899558597328 -8.606783857951939 0  0.1848501225568668 -5.482378276827956 0  0.1949296396328091 -4.464539328094544 0  0.2239889319859181 -4.524665885984845 0  1.58533367820695 -0.369719503989173 0  2.110375644355372 -1.990694885125896 0  2.287216033774532 -1.975789475640834 0  2.371570383991763 -1.830752916603232 0  2.454525138499612 -1.973169519196448 0  2.369518178502613 -2.11828891326288 0  2.539147333749872 -2.119422228961342 0  2.450670676845851 -2.267507507303122 0  2.6231604031511 -2.268938364261287 0  2.53367544196645 -2.420018965213295 0  2.715742882985147 -2.411948918447673 0  2.630290365371819 -2.571571638179992 0  2.801377827645849 -2.581871788530645 0  2.719186854740851 -2.734486341419686 0  2.702636078885075 -2.122895857130741 0  1.460315497147175 -2.706671344700847 0  0.1817340333971913 -0.2581760446009715 0  0.1909842986277539 -7.021883383401345 0  0.2441666655591614 -5.312812902365239 0  0.1915531022060151 -1.070718119688281 0  0.7578065818606028 -1.425825672036546 0  2.89363895072826 -2.743995088554255 0  3.01247301651714 -2.55978850894259 0  0.1854881461926183 -1.443695433439824 0  0.2267493799032536 -1.494396872043216 0  0.6935273795432622 -8.658089666119281 0  0.2085370377112774 -5.541779695085798 0  0.3572404151723134 -7.902065806253884 0  12.98507390861804 -2.647519054855705 0  13.37328787523847 -1.979363750726383 0  0.9604923730915438 -6.992607324373861 0  0.1826769890782423 -3.92389934115361 0  0.2157423445852285 -3.867376626808638 0  1.494976102727975 -1.033118126032064 0  0.2423513982667025 -7.6780135881598 0  0.3656877581552234 -3.762510057681342 0  0.2009075890940686 -4.346923302190004 0  0.2480609210791087 -8.817185305819313 0  0.1979031967392793 -8.862217454971365 0  0.1804138271440916 -8.793271030582428 0  9.943461365267606 -1.648006062029395 0  0.1937276668440084 -7.725987719035057 0  0.1643510091665714 -5.811191899574246 0  0.1843537645998339 -5.874095209781319 0  0.2011095494971045 -6.690000296648022 0  0.2331283173856047 -6.8206145748672 0  26.31425154744345 -3.099144789252835 0  0.229285556394224 -9.201224124047659 0  0.1704526057541571 -9.173652612743336 0  0.8913943341918618 -5.585332343703085 0  0.8522238595288094 -5.492038169224145 0  0.7974059286870254 -5.574466954140682 0  0.5795790516770332 -2.97651226639005 0  0.5359722008424797 -3.051215362397586 0  0.5757577376778471 -3.1109085153882 0  0.1880419139279184 -0.8913995140219653 0  0.1687159755922849 -0.9554815474207281 0  0.9074621379445524 -5.410269664632462 0  0.4220292082713595 -6.948738389728712 0  0.3238044414300632 -4.97181497778436 0  0.2534555993250205 -4.965161940626914 0  0.2132704776193144 -5.020030345508112 0  0.1868572782144167 -4.95745624249574 0  0.2255292039897725 -4.903814339153382 0  0.1604453063163103 -4.897701054870237 0  0.1981781249382149 -4.844139317039489 0  0.1479675620860501 -5.010294618726711 0  1.838089918908981 -1.696284093923278 0  1.78225732335444 -1.579831051976479 0  0.7963542996195088 -6.03367685682045 0  0.3099306307870648 -0.6821954537629882 0  0.264730974803804 -0.6326784557449834 0  0.1995740236629047 -0.6503649993549674 0  0.2170553334685916 -0.5872482409403359 0  0.2588744712768385 -8.460953556224752 0  0.150752061003379 -3.867932310188348 0  0.1833985755932268 -3.81104115824018 0  0.1721863559602355 -5.070602507982843 0  0.1776971837309418 -7.661078754916408 0  4.297239783487871 -1.908770208790571 0  0.22366787353101 -1.323089780322462 0  0.4073504968505368 -0.7793517479585983 0  0.2040415397250932 -8.924909583955875 0  0.928997633022977 -0.6058539075268889 0  0.5788674508829033 -8.891036682640426 0  1.434776808624363 -1.147126782338637 0  1.371843246546851 -1.038754898227885 0  0.4182916409616695 -3.168905823867006 0  1.828308241557686 -5.543364071641096 0  0.3004970624225933 -5.655281523544222 0  0.2487756657821123 -5.888188145121217 0  0.2039349510203614 -5.937290176470236 0  0.2815890268023189 -1.713956263814544 0  0.2332581231075928 -1.662939214073041 0  27.38079864938872 -3.168912229794139 0  0.1653274552018349 -9.401044239083269 0  0.1944366669426127 -9.457666912148616 0  0.2440728480085603 -7.925762096107474 0  0.177945330653996 -7.902808002905283 0  0.9437829940238398 -2.820518130136773 0  0.9982899302004995 -2.905466530481426 0  0.9774794812745142 -4.458174131511749 0  0.6366564180836658 -6.544525891365986 0  0.2638247955557809 -4.849806721083928 0  0.2362496594383714 -4.790965042261073 0  0.1684549054853619 -6.957791265023842 0  0.2912486949914168 -4.533966780374358 0  0.2521991550768448 -4.585647812750141 0  0.1861886869795537 -4.579961356912711 0  0.2132772529917428 -4.638031586988172 0  0.2776081810658724 -4.641408537090571 0  0.1781130166469893 -5.304007052892143 0  1.994362941589506 -4.326660519159703 0  0.1634515558340066 -1.844842626301673 0  1.344689204989812 -0.3940646994982329 0  1.03913676011344 -1.978236153992998 0  0.9087170340191939 -0.27612249690032 0  0.8171117924795759 -0.284727949083238 0  0.7776211968113174 -0.3658618034400636 0  0.7288825011831612 -0.2896621024848081 0  1.005118241156488 -0.2674820523398331 0  0.150508296236886 -1.730422296653257 0  0.8145055674974522 -8.037762845835069 0  0.8340124479641187 -8.1312139918666 0  0.9253717114812172 -8.16127715829543 0  0.855196283062039 -8.223850487622185 0  1.266811889418749 -3.881562097567779 0  22.91667930488988 -4.761430024941071 0  0.1380764519894591 -5.355969193376151 0  0.4778152419523369 -6.768499994137827 0  0.1542659260118686 -9.104797391469273 0  0.1617929322807754 -1.505102805755845 0  0.4954579634072793 -2.678785532716245 0  0.5280504069604675 -0.3643328780077146 0  0.1708840834797236 -1.13294590469475 0  0.9876797841357181 -7.368260284607817 0  0.1660356168674149 -8.240762062581844 0  0.7185042569893945 -1.690859279673507 0  0.9478051744515081 -8.257986305363609 0  1.952149940079934 -1.953389098979099 0  0.7710909387688041 -4.102690608752385 0  1.338906817649431 -3.341896926056905 0  2.588131516994927 -5.202558475667468 0  2.478612101924394 -5.332841138094634 0  2.688157934930551 -5.061787949151983 0  0.6525851335920194 -1.294634087346856 0  0.3048205641671995 -0.1470648855554852 0  0.1685777480116482 -2.63450055409827 0  0.1994825269885006 -2.577373076815292 0  0.2127940023693 -1.182451074006485 0  0.1498399747565458 -1.193771086037408 0  0.1610303881292747 -7.842129674148282 0  0.1440630720418561 -1.393608894087311 0  0.7746585142022546 -4.943709894539613 0  0.7295768759059822 -4.864754594695224 0  0.8114036847092763 -5.40249869909041 0  0.8637041637818541 -5.32384886638604 0  0.467365868082144 -1.008714876165894 0  0.1439759625200026 -5.532005118702653 0  0.3167103616159679 -8.107375843082483 0  0.3028388604764984 -8.040867335819142 0  1.17510146705397 -6.270002211245154 0  0.170293153002067 -4.787790943262197 0  0.7194981185354248 -1.50919751309999 0  0.8177857239290756 -1.496551347426817 0  0.5426166131203285 -0.9920358318046976 0  11.08416847477587 -1.563309767219244 0  0.8186684787677727 -8.464806748929114 0  1.347903849719378 -7.546617636383788 0  1.252015683415184 -7.631529089287842 0  1.21339211282527 -6.613386564433544 0  1.757912639807701 -1.261153319920093 0  4.681488644192234 -0.7295156746843219 0  0.2340019095489634 -3.119781813264542 0  0.1686040062487759 -3.119300262107456 0  0.2003543106716599 -3.178483855230287 0  0.3681544458820873 -9.827626748842354 0  0.8682338730383332 -4.613412584536002 0  0.8157645364501587 -4.690801030748202 0  0.7213626314781116 -4.671970746791262 0  1.720398365260948 -6.814630240877161 0  1.63666191689968 -6.918041154033969 0  1.158114390744927 -7.007991502042619 0  1.272527126505482 -7.046147422922181 0  0.3853272097721554 -4.1636460625936 0  13.68003666771878 -2.645208995146075 0  14.07400423057801 -2.042775039487454 0  14.40870090482186 -2.675321299743734 0  2.454616373121757 -2.588468013071471 0  0.1693625376014545 -3.003397978821969 0  0.1701415843949317 -8.647174162159455 0  0.1596100795244837 -8.585458387196011 0  0.5161117313073973 -3.903638422701529 0  1.791527806534663 -6.705960338563186 0  14.78849433145311 -2.038192933198598 0  15.1788817349346 -2.678165730531886 0  15.57650441350745 -2.025321708894414 0  0.1489585562843665 -8.903903477929941 0  0.1524379122972661 -8.965296338102513 0  1.516086923079627 -0.2718769924015554 0  2.095678742497508 -0.3672307026788921 0  1.945496899140592 -0.3730694326705661 0  0.4526802319601071 -8.972650235614323 0  0.4597424696869012 -9.044291786305692 0  0.1496269833951285 -3.981270651196617 0  0.26913008119576 -5.956803271379025 0  0.2223868144854571 -6.001489848842651 0  0.1689716409273299 -6.800820355647517 0  1.512833287722918 -6.891763991913245 0  1.560895848634669 -7.013032208857306 0  0.3087816429979835 -1.650037827008613 0  1.811231548000638 -0.6725002061558012 0  1.740331290671476 -0.5634140803677941 0  0.8382588818598649 -0.6073405847212587 0  0.327783222877942 -0.6171854085783064 0  0.4066016035846935 -9.774484640200429 0  2.283017167232003 -2.268298997690194 0  0.6004361660737612 -5.493173053910694 0  0.6285000955686666 -5.569531291155804 0  1.256174934332085 -5.718262943210116 0  1.299181959142912 -5.819917021287497 0  0.8859781982410109 -7.620020637256256 0  0.2099945017326217 -2.079796992975589 0  0.4077404887468496 -9.349419050405945 0  0.6299915661716504 -5.781671989383805 0  0.4335225639482481 -9.833512928713052 0  0.4746891948860856 -9.77899161566323 0  0.5965257917835132 -6.395870268008256 0  0.6626063510424842 -1.160354401043319 0  0.5587569040967004 -8.738559952213119 0  2.346483263047604 -3.803654740615627 0  1.308337454161792 -7.15174087434493 0  0.5796514032164435 -6.609017124560426 0  4.947893090558503 -3.622054372885958 0  5.250010763823258 -3.633327595477932 0  5.410387746349873 -3.383373726927196 0  1.140727241332817 -2.504876354484604 0  1.261619506193462 -5.048361895505001 0  1.312726286386114 -5.147196659797258 0  1.378257298631571 -5.052960172610367 0  1.431671830160475 -5.158248250539423 0  1.499370339195508 -5.057727952674213 0  1.554138346444716 -5.170460996806622 0  1.482917855500336 -5.259272382036511 0  2.506161732991405 -0.4532763837771547 0  1.478510651488111 -5.653697777346439 0  1.55368524351853 -5.55078100989887 0  1.525680022292924 -2.809128649632315 0  3.370620149714366 -0.8982790840301851 0  3.255002355574579 -1.086709417866778 0  3.47082322841165 -0.7111107792490241 0  4.824440622541911 -0.9598812036986022 0  4.959587725844155 -0.7230288996969865 0  5.112191852720667 -0.963615601482438 0  0.456754928433595 -7.013326162410348 0  0.3302723404708274 -9.881162473537499 0  1.396639890785336 -2.594695067514109 0  0.3357273089932811 -2.569146125649654 0  0.4052509231442301 -2.565750362507808 0  0.9561400019111765 -7.550337618220995 0  0.6567249472251238 -8.832586552779659 0  0.1754684233336103 -9.236444500525396 0  1.44347941261373 -4.954264916923675 0  1.568766839724406 -4.953036885179096 0  0.9065808589172129 -1.667297894299115 0  0.9603756930619198 -1.734173698578303 0  1.509907616275786 -2.600017424210392 0  0.8994390101628511 -2.078533095988822 0  0.792076208256951 -2.079003131305933 0  27.95178225851755 -4.17877236987209 0  0.5202626866778992 -9.004513972913056 0  0.5283187308100565 -9.078087352786607 0  0.3030607787781943 -4.794721248663564 0  12.34628941037174 -1.597154180380822 0  4.538609904092283 -0.4995407319055154 0  1.678297864381022 -7.037686345451355 0  1.083477778587786 -1.8913777513947 0  0.1598523272771075 -5.985571199921723 0  0.1781039135852662 -6.048436170227394 0  0.2379510110589447 -6.063017710014391 0  0.1942381408095937 -6.110860466586842 0  0.1337088888651472 -6.093641714605284 0  0.1506898839447057 -6.15529833638071 0  0.2114257122229368 -6.173312627831839 0  0.1672798391868682 -6.218979870044453 0  0.2283967700043057 -6.236121042167991 0  0.1839051567515337 -6.282287969752708 0  0.2460696927078398 -6.299365568991766 0  0.2004198544372269 -6.344970819342578 0  0.6775135124121281 -6.415247550841124 0  0.6548927231246537 -6.334951228126325 0  0.2528881405652648 -3.81257758304105 0  0.2191350269854464 -3.753332368276724 0  3.77664696035545 -1.358971576409076 0  0.4100784579783188 -7.853691914903768 0  0.1531955360144277 -3.753556574120969 0  0.1839828307788434 -3.696986480666498 0  0.2484792412085604 -3.696082578861001 0  0.2147528299808297 -3.639836249474488 0  0.7704999358678961 -0.2141238186865451 0  0.6864824614073068 -0.213174638907784 0  2.111481626668056 -6.218153908424677 0  2.016080079022068 -6.336358677694157 0  0.1525179683225542 -9.754420311876633 0  0.1773094055217861 -9.808163190296073 0  0.1291234087367705 -9.70342263886641 0  0.1581927675759385 -9.651561230110952 0  0.1477632968191642 -2.086550442401181 0  0.15195490823643 -0.2060699774851944 0  0.1797415883037665 -0.1528626518332334 0  0.1534656585331362 -2.199348877732823 0  0.6059998463063501 -0.3623100898248532 0  0.5610046106445576 -0.2843612878912536 0  0.6465464324152705 -0.4315120365652447 0  0.1504014371271687 -4.634575122840784 0  0.1554296905792452 -0.6033409934907832 0  0.1714030397070498 -0.5428079099885847 0  0.4026022551233801 -6.880482895054179 0  0.1518012044770369 -3.640309690250351 0  0.1795918600000199 -3.58549765624563 0  0.1093962755898676 -3.580838074551411 0  0.146671282379641 -3.531075293751995 0  2.608923176821015 -4.911494715155405 0  2.789816598652251 -4.911647937618679 0  2.709838301094418 -4.7520539593483 0  2.895294555825403 -4.756811860075417 0  2.813610784754371 -4.585251351514355 0  3.00191564521907 -4.595125348313665 0  2.917979960048809 -4.427985982692307 0  1.181791356911098 -2.236620572662714 0  1.232685483555391 -2.323101813124841 0  0.8080781347570412 -5.850647724563689 0  0.6833885588226813 -6.183617199985323 0  0.6414503832149254 -6.092703888278073 0  0.1400420250994898 -2.689120955286397 0  0.1706233854720658 -2.748103921891205 0  0.7761482052695747 -5.742770036365962 0  1.126687479386559 -2.147639464090227 0  5.254735787835303 -0.7187549824673081 0  5.416061919583589 -0.9660392817794845 0  5.261138302395061 -1.214694973386055 0  5.570080987451993 -1.235186068368633 0  5.73251659620505 -0.9573962554923945 0  5.90026993166228 -1.242721797548165 0  6.062411193911091 -0.9512397261533749 0  6.236976959293349 -1.24481650994816 0  6.407928793943777 -0.9465080491242936 0  6.597938994367215 -1.245072740143009 0  6.778338043021071 -0.9324401275238694 0  0.4902027466187526 -0.9398405471733895 0  0.1130385400796676 -9.146474462455206 0  1.843054525401548 -3.569505746074694 0  1.931772466392736 -3.463970573039194 0  1.598767453916309 -7.143939040831445 0  0.2017945655257876 -1.553846618881175 0  0.1386904827195217 -1.564076525850513 0  0.2662697965688441 -1.546191690405422 0  3.095438707806604 -4.44248645007637 0  0.1407134968494184 -6.328274073248439 0  0.1548301999859412 -6.389520265926225 0  2.605785531938414 -0.899543943843387 0  2.03120973031842 -5.681207365806091 0  2.181761187263593 -5.698253255250168 0  2.240565303630648 -5.844307188779151 0  2.338844697452769 -5.715589957590828 0  2.275744795810581 -5.575173286193228 0  0.8911571727841245 -2.74283018231279 0  0.7701757564058269 -5.312999399403521 0  0.8240489906946404 -5.239336936863069 0  2.257244703337182 -0.3701407109277177 0  0.1400857966583402 -8.412784658018897 0  14.40619688442779 -1.38045688139388 0  2.794647987870389 -2.901256178716114 0  2.983650580339196 -2.907787524648719 0  0.3972822418825359 -9.225314155190915 0  0.4856364009896375 -2.974295093691979 0  0.1454843993269357 -8.467404119043117 0  0.7885270894653189 -3.62374933759151 0  0.8393685899878687 -3.695789799485327 0  0.319484712346739 -3.936989724659502 0  0.8045850963845069 -8.378177422711886 0  0.8905987202130277 -8.407133828292185 0  0.1312669361317216 -7.003727781982997 0  0.1464822029929067 -7.064958460970978 0  0.1642976726033876 -5.58841635744082 0  0.7900618035324101 -0.5321550722498012 0  0.2421771681816693 -3.583916387112149 0  0.7566291176119293 -8.202007223274535 0  1.037626786152476 -2.675342881442771 0  0.4656678650409773 -6.891175128164836 0  0.6801898744584598 -5.937969031541073 0  5.111427978627875 -3.867180153600642 0  0.9349012121352072 -4.197283455564873 0  1.040885767991675 -4.201007592771311 0  0.6514231718580739 -8.925278012866098 0  0.6632446053925349 -6.625888888917288 0  0.3010706472963491 -3.120525778029001 0  0.1318823463824295 -8.349481404764019 0  0.3695246175261442 -8.061848637169666 0  0.2180881485978219 -5.253198682581953 0  0.1538101823067404 -5.243421414274915 0  0.2935520926684276 -5.261014767456951 0  0.4015283915842076 -8.183320008776311 0  2.532046516764883 -1.810078728156211 0  1.85959807616217 -3.336687263978201 0  0.4587714680394974 -9.189274575256661 0  3.355610355273026 -0.5361563075402627 0  3.570624064127239 -0.5299924019324358 0  0.1257405458781946 -0.1576025680542159 0  5.412476451215841 -1.495705450159117 0  5.116024475189292 -2.887098420818399 0  0.09816326960001476 -6.366887026659378 0  1.509051153223545 -4.852378087202399 0  1.648369465683087 -4.852490083957608 0  1.581465662530427 -4.739465204742783 0  1.723641667801868 -4.742920525446427 0  0.1402466336811994 -0.6630624841674813 0  0.9088848925605717 -4.701162337263801 0  1.051422888107076 -7.573805353002099 0  22.201482566263 -7.62792250338519 0  0.132379376435626 -1.089813669511947 0  1.875556829188531 -6.31299217920616 0  1.930966437263995 -6.451816388322976 0  1.189299680313189 -2.596327607007132 0  1.238559835760253 -2.499281117550029 0  0.6815697054114622 -5.499765365637561 0  0.2951186742637706 -9.293697000076602 0  5.887986465049591 -0.6612442412700084 0  0.143432811905452 -9.341409022840965 0  0.3680354652234001 -0.1450513504763222 0  0.4045900203857542 -0.1989503466385294 0  0.5041243780516229 -9.842279052834826 0  0.5432263576301075 -9.781657476576072 0  0.5143415357843235 -9.718009831997506 0  0.5883489958510264 -9.725091589586619 0  0.6187774007323661 -9.798151292914181 0  0.6654844901218517 -9.728336329774667 0  0.6321478233686406 -9.664664482451354 0  0.7111658595715298 -9.662759437286883 0  0.746695929084682 -9.736209401456415 0  0.7926259007660406 -9.672739790923027 0  0.7558917179046674 -9.590944556584002 0  0.8428109025065851 -9.594987278177204 0  0.8737241620185383 -9.681128866495788 0  0.9314197704355518 -9.601489645943161 0  0.8901444991246024 -9.514614714375593 0  0.9849523618463589 -9.522167842338559 0  1.037076261986092 -9.615927116362508 0  1.082661409642714 -9.529389496420666 0  1.037307295589489 -9.438895841285387 0  1.13874766622383 -9.444897597925102 0  1.184908598462368 -9.53747252823926 0  1.243681295484556 -9.450348546107953 0  1.194958335068367 -9.356697466773372 0  1.304032753412832 -9.360798057372811 0  1.349842161705727 -9.45659324319158 0  1.414181144471193 -9.362140456036592 0  1.363188868354127 -9.264428141918316 0  1.480382644344619 -9.269089699441846 0  1.525476409728473 -9.366557827177211 0  1.596229215633477 -9.265696554122254 0  1.551947179980949 -9.149610288501979 0  1.674597313305501 -9.16271218202249 0  1.724536739753773 -9.301689994042427 0  1.803295807771788 -9.171872010313221 0  1.737596491016234 -9.047992766019906 0  1.868325394661751 -9.047004659824371 0  1.946651951625885 -9.17194979675928 0  2.016960382964186 -9.050033154598344 0  1.935891577720785 -8.92315233184231 0  2.091785106713292 -8.925189730265114 0  2.175655299829696 -9.036892537243155 0  2.248283561705525 -8.916589375673791 0  2.17057895952339 -8.795859090928374 0  2.326037199302442 -8.793647267694372 0  2.405381482395223 -8.933552170376206 0  2.490670362361955 -8.792730560939743 0  2.412471892725868 -8.630192840277248 0  2.580878462157395 -8.645789349113937 0  2.659670201626128 -8.79264872320902 0  2.750819672958691 -8.640764126193664 0  2.664404120233337 -8.468650121752079 0  2.845553806237183 -8.486612564428903 0  2.935160517987716 -8.643583247020267 0  3.028277496469084 -8.476669702675284 0  2.941675522419864 -8.318231474506323 0  3.132872574889809 -8.311516159593978 0  3.239547880262982 -8.509336136898476 0  3.352368224265332 -8.311201863536363 0  3.217412506059402 -8.102984290572861 0  3.443908150800135 -8.11766279046395 0  3.583453897952493 -8.289143224904922 0  3.667514692152897 -8.10091845699554 0  3.549574691107626 -7.922366289628837 0  3.770825843088907 -7.905676963008109 0  3.890885943565369 -8.107625783480465 0  4.007284945009985 -7.90514854319361 0  3.87674514458136 -7.695448110349619 0  4.117324439929254 -7.685105141236467 0  4.255353479482682 -7.901539548877193 0  4.374099920516088 -7.663888259287323 0  4.513503843361812 -7.888267985257993 0  4.638655149886741 -7.651356167033639 0  4.492722595994053 -7.421665381221027 0  4.765489254763338 -7.406823899339777 0  4.91803879537245 -7.642314584427605 0  5.050600999518728 -7.386785320352364 0  4.611363749175963 -7.178507278803689 0  5.213287567104301 -7.635413389342551 0  5.349945606018991 -7.363032361315332 0  5.52105692166441 -7.625678326321627 0  5.664023529049274 -7.340719329517762 0  5.843853264317048 -7.615503302228906 0  5.993804390376475 -7.316341902778641 0  6.182514827571705 -7.605307177880773 0  6.340136679591208 -7.289334252479774 0  6.536606812002354 -7.594019254847658 0  5.483786076024948 -7.080202060782098 0  6.702217181098572 -7.239490588454422 0  6.908796958167736 -7.562733479361167 0  7.083306720201319 -7.204011138367539 0  7.300307160351437 -7.54579892962993 0  5.69044530801151 -7.87917370449375 0  7.486489033640441 -7.194733431052988 0  7.708965612899594 -7.550796243607971 0  7.906960176432821 -7.169813123179207 0  8.145592953072192 -7.540291316738325 0  6.491620710129386 -6.945620954885396 0  8.34939868520236 -7.13848708374312 0  8.598049144304422 -7.523257385078367 0  6.728916793091825 -7.913206642445144 0  4.343211609072386 -7.194546858734461 0  4.457580213122474 -6.955288291628699 0  4.194392430428874 -6.974696636022732 0  4.306848588916514 -6.737776770704185 0  4.050724112171919 -6.757347001590245 0  4.159946364554509 -6.524540918346941 0  4.418281544607535 -6.502641121169057 0  4.269929060474453 -6.288938928770687 0  4.534000372898284 -6.265173805343039 0  4.381140068741583 -6.048563526455657 0  4.650100429053264 -6.023093942729241 0  5.070809389626556 -7.891885997782283 0  4.390528983100598 -8.126700949695344 0  7.238928251924047 -6.815676899264521 0  7.456833383899662 -7.872732907528669 0  8.81292417472282 -7.103742533266378 0  9.069262380112477 -7.516949636283949 0  3.908310755953861 -6.546233928553793 0  3.801995777945386 -6.768911474567787 0  9.283515711310072 -7.081841529445409 0  9.565724375149971 -7.508584577484712 0  9.763855915445598 -7.058387821195522 0  10.09203935350954 -7.47533784225185 0  4.808593270039534 -6.249324044455438 0  4.930677654216817 -5.995625121550306 0  4.121191953334622 -6.073678105161438 0  4.228840746948606 -5.836535773675767 0  3.633048390953128 -6.557627500114247 0  3.559649982915275 -6.789803020659832 0  8.376193864578727 -7.946457385192287 0  5.095493100112105 -6.233201931985625 0  5.225914879107322 -5.966272152568969 0  5.398626545387877 -6.215582331147438 0  5.53615367001697 -5.933133448638904 0  8.064495681645839 -6.779553420610686 0  4.751984002299796 -5.763086304576899 0  5.716755539594471 -6.197348659274523 0  9.843682367199904 -7.958090717468883 0  10.39032998859231 -7.933087084704464 0  10.65080556750091 -7.434448755731283 0  3.686411642088641 -6.982443042811562 0  3.457878950840545 -6.982346499564623 0  10.95816834685741 -7.91694578653825 0  11.23137351676863 -7.395349277917609 0  11.53946170030154 -7.895207593873063 0  3.33212245801977 -6.821074498189775 0  3.234137403835348 -6.995268615861209 0  3.353372948253721 -7.172594175699214 0  3.141220037596263 -7.179480579598259 0  11.83142423779595 -7.360837730808429 0  5.860080462380392 -5.900703615562468 0  3.252538771292201 -7.35742081518212 0  3.04606500892805 -7.363976584150611 0  8.990704719093994 -6.694827862992537 0  4.728646061018797 -6.93154698866441 0  12.16001196574073 -7.880718261777705 0  12.47205199944985 -7.315963318805439 0  3.153905713866147 -7.538947344494263 0  2.951901588474668 -7.543528306723942 0  2.844087275074521 -7.376860137578714 0  2.754651589345411 -7.550263798201428 0  2.85782973145565 -7.71419443983094 0  2.666741558250852 -7.716115996487619 0  12.83091734457489 -7.876783194248516 0  6.048675268324631 -6.166494858029505 0  6.200122221629256 -5.886221975559688 0  6.397348684711925 -6.147946000503144 0  2.567528524456597 -7.563387187385488 0  2.485986817941885 -7.721474854817783 0  2.578585088139533 -7.871632694547081 0  2.400291031345024 -7.874270206856001 0  2.490758070595181 -8.022765305605464 0  2.319997584517123 -8.022882137599801 0  3.975959299795143 -5.860121658941603 0  4.080380391481174 -5.626867725567 0  3.019471038957212 -7.009158900721282 0  2.406594130412856 -8.169767515684814 0  2.239271821075116 -8.16970708513464 0  2.156216698354523 -8.028335789562753 0  2.080107594191396 -8.170210218873695 0  2.159635023939231 -8.30641242928645 0  2.004765130166382 -8.306447487998767 0  13.14711738928926 -7.271265816642229 0  13.5222550021862 -7.863064930556591 0  10.89954454760273 -6.910063697082398 0  5.908528969195144 -6.490896096987203 0  2.080847150547935 -8.439278709716344 0  1.930002200905056 -8.436935456058857 0  3.46026442814026 -7.350947297252493 0  5.335074959432859 -5.692720399525506 0  6.556189815509157 -5.854444132527135 0  6.760650295721179 -6.137112860293582 0  2.313955554741886 -7.724798520718128 0  3.871266546557301 -6.097814948324846 0  4.049204059973226 -7.231691461719429 0  3.731648634767755 -5.886792596879151 0  3.631404297048618 -6.10956660280342 0  1.856236860911789 -8.310224373915226 0  1.783410588710037 -8.438982515375526 0  1.855725011245323 -8.560817423061849 0  1.713383240736565 -8.560295198987594 0  1.782970194537338 -8.680090152631479 0  1.646299687978155 -8.677283676511877 0  6.923083222317981 -5.799919613517893 0  7.145987709803881 -6.114169054685567 0  7.319626849614741 -5.757355074880026 0  2.668764655777551 -8.023306931071309 0  7.548140719562776 -6.091754392843692 0  13.8401856824681 -7.233697405681122 0  14.30664882266991 -7.999832702565092 0  14.59620604232727 -7.236864643554419 0  15.09259552249222 -7.871637306904063 0  10.13055249064404 -8.413632896159124 0  9.59111763970856 -8.433768267125211 0  4.334276915965667 -5.600694676331763 0  4.183899527127172 -5.392535164043142 0  4.480745050996539 -5.342162454069038 0  5.261201021420476 -6.481328332959155 0  15.38087742666458 -7.169915078630285 0  15.84129759041177 -7.811832937182142 0  12.112010035068 -6.779483848640156 0  4.654427374856207 -8.114191017324341 0  4.526933300427206 -8.35513761282292 0  4.801140015141367 -8.348020359863446 0  4.66844623872214 -8.589677233625927 0  4.950666662603494 -8.584690793029548 0  4.392885434668816 -8.595177771532622 0  4.533920388309257 -8.828042761244827 0  4.26674298503451 -8.836835992584135 0  4.401269020637171 -9.059774684657437 0  4.141098370220181 -9.059828468135601 0  4.682741995625367 -9.044320172528817 0  4.009563814498938 -8.847326778412619 0  3.889746339961873 -9.059947521639589 0  3.765041667076778 -8.852630655413655 0  3.651373289050914 -9.061958214895045 0  4.273702570482667 -9.293216564175172 0  3.770001914878355 -9.264920786377758 0  3.538126932514484 -9.265420001331327 0  3.42402205339055 -9.069066703837541 0  3.31610446047265 -9.262176589491803 0  3.206898257241901 -9.079135541470842 0  3.104369669953037 -9.258330223362147 0  3.001583901684425 -9.083138193089619 0  2.904425641318481 -9.257849320728788 0  3.001875003926397 -9.428981810163624 0  2.8070823741933 -9.427558928782673 0  2.713796557836986 -9.261877571027531 0  2.622083367939418 -9.423622434168086 0  2.532631892739728 -9.266074011851215 0  2.445451608610441 -9.419476370404309 0  3.87814754363524 -8.641989306214924 0  3.306117798671524 -8.890681535430309 0  1.578114140469168 -8.565275896990183 0  1.515682563311696 -8.677456013557498 0  1.578938883940367 -8.787770296234182 0  1.451719235523134 -8.785391859298684 0  1.512361196650758 -8.894527548962115 0  1.38965503726596 -8.891631277655355 0  13.77139792031687 -8.570347743034045 0  11.21129357734126 -8.401477453865294 0  1.930387698717077 -8.680762912337714 0  2.529836078427593 -9.573241680068104 0  2.358425765013685 -9.563786667047784 0  2.277557702794006 -9.420371883975807 0  2.194696446997332 -9.560392116578431 0  2.117338016601009 -9.424784651566501 0  2.039571993343255 -9.557237169785839 0  1.962256998960019 -9.425772242727049 0  1.891188727606625 -9.552663856374203 0  1.999163009925219 -8.04040835459976 0  2.075906400456502 -7.894128366151394 0  2.109486341441492 -9.684002478124809 0  1.716201345368328 -8.319371552803926 0  2.625256603260176 -9.106033468697866 0  3.641348238175352 -9.458204508394042 0  5.088490582543448 -8.337134438948919 0  5.249136772698492 -8.579036125095966 0  5.101207176751293 -8.843086663083259 0  5.400691599754847 -8.856843711070439 0  5.558294330910066 -8.567388531140075 0  5.721122991278108 -8.837749578946831 0  5.880510973796909 -8.55197245767169 0  6.056937565208376 -8.83175041536775 0  5.553538769165154 -9.144933145583916 0  6.219432919116155 -8.538875265171677 0  6.406635394494788 -8.833057406482332 0  6.577838547878011 -8.533283441600272 0  6.773703051022649 -8.820508182171871 0  6.956684625104163 -8.511615298083397 0  7.188401193468283 -8.876673445596087 0  6.614664554069927 -9.174271811654275 0  6.055810731291245 -5.62773623737268 0  9.868780546114145 -8.885416687547055 0  3.638378797811171 -8.654003782601499 0  2.233947672270839 -8.442094116694332 0  12.44799256027308 -8.406516703471716 0  3.886473292193507 -9.43906813048233 0  4.260650795689548 -5.133696833022826 0  1.444128797639177 -8.995712202571262 0  1.327937008272855 -8.994020697463471 0  1.27023401819994 -8.893078813818214 0  1.213434975731996 -8.995428002856141 0  1.265828899530836 -9.090578656738398 0  1.156370975924258 -9.088551002780001 0  1.103073957468865 -8.997374263112823 0  1.2038673121804 -9.180992229633398 0  1.09863970640844 -9.178458820383181 0  13.43465274208961 -6.638987744378844 0  0.170926553536253 -2.022646911283799 0  0.1440605222486759 -8.112568265126445 0  0.128885243309222 -8.045668654082256 0  0.11742301975106 -9.803714543768519 0  0.1431766767511871 -9.856969438886011 0  0.2014193942025244 -9.86166473078505 0  0.2734816373021047 -5.554327593161391 0  1.321207655444649 -6.635378451202824 0  1.691925065577028 -1.376883557963612 0  1.558346893422286 -1.366659555963372 0  0.1387092607777287 -3.180222963186238 0  0.1667281006314951 -3.240505007221484 0  0.1738281600465541 -8.000877471726483 0  1.151150802603629 -7.963994107276174 0  1.128952983579978 -7.863019015496517 0  1.174016643075623 -8.067252549309279 0  0.2933517303898583 -6.845652352933975 0  0.7746922279834472 -1.342084160082213 0  1.016960773219321 -8.191119724119956 0  0.6437193222718331 -8.336541518628248 0  0.1383633831728304 -2.576840095363733 0  0.1647535778583809 -2.522510101731583 0  0.2285074888796199 -2.520011293719568 0  0.1923001141540261 -2.466557780712117 0  0.2896407423986851 -2.011712065097588 0  0.3483973610829185 -2.000645547823289 0  0.2737543969402054 -8.563165344055253 0  6.044366882204525 -8.234502561488167 0  2.430894988401473 -5.596090467877477 0  2.201762186389699 -6.097240302827402 0  7.357023597802665 -8.513398696822415 0  7.581788366655086 -8.836354406614298 0  7.760591050235195 -8.470922212023474 0  7.97706127015963 -8.809854384338568 0  7.772502186049541 -9.207996610984786 0  0.885690084345768 -0.6877991940309531 0  2.766320268235333 -5.225323217130737 0  0.4581467777387296 -0.8278049187524044 0  0.5245753773370865 -3.231838402476162 0  0.5679084796606055 -3.299844210431991 0  1.704711642319559 -1.693257177540813 0  1.767486915434135 -1.814856097929137 0  1.658462791527256 -1.578463613559257 0  7.708147891684128 -5.694343506764429 0  7.991255805855769 -5.999922647281773 0  15.97589545153234 -2.727111758231668 0  16.40467997823921 -2.012075643109113 0  16.82369153605636 -2.72885286512376 0  17.24802976094052 -2.016048649795432 0  17.71344818350272 -2.73117257554368 0  5.557025633658206 -3.65730202728794 0  5.72821144346149 -3.385307727860439 0  5.886004856412491 -3.660714636607131 0  6.063331833789359 -3.387540045664523 0  6.226648616929353 -3.702819471593518 0  6.413568325274642 -3.394639326570289 0  5.896456212818263 -3.105089028266283 0  6.975628745963144 -1.237965262166797 0  7.155642665019002 -0.9256116097484295 0  7.376880671175729 -1.247278236425573 0  7.538704910462473 -0.9292080676002703 0  0.1201677806273409 -0.2545390660720752 0  0.1514073817106585 -0.3128578660015533 0  1.228673214698571 -5.905051905018201 0  26.80883798298935 -7.718685551564596 0  27.9061813866692 -7.60899919701388 0  1.089786923210852 -4.292405685286286 0  1.148188455327206 -4.203593675669334 0  2.193361532658631 -9.287702876372755 0  1.39026022197919 -8.676997410450307 0  2.90203816663302 -9.585971300135419 0  3.094304992291868 -9.59929590546718 0  0.1336624203690473 -2.464065771820201 0  0.1585801163411471 -2.412160081151565 0  0.6694041404850672 -5.082893314386372 0  0.7515172395726069 -5.082098410149486 0  0.6583818231770842 -4.36434874342456 0  1.791620249809057 -3.690114124085512 0  0.4728658014360327 -3.964923795498637 0  0.9499622790598448 -2.987406556171281 0  1.058711049116575 -3.003524565451961 0  0.5231444200194417 -3.364223204336756 0  0.6015198626092015 -3.372236073707996 0  2.424911139399285 -5.874111649474568 0  0.1839633305057546 -6.864845332407044 0  0.1298525204452741 -6.840150812915057 0  0.1275127065909452 -0.9106934752698477 0  0.1409401998804007 -0.8453235994165205 0  0.1096833791049363 -0.9679311250872251 0  0.1306987294107778 -7.706245690557117 0  11.9456720545356 -3.124888599644113 0  2.177934410843397 -0.249130115318426 0  1.339234152620264 -5.915249384671382 0  1.7003157792454 -4.963050352748667 0  0.1271688072806239 -4.579964331353488 0  1.088874688468138 -4.116073135048984 0  1.188742481470538 -4.108767404271656 0  0.7740212016178241 -8.692359477795067 0  0.8409961797296965 -8.639734268390173 0  28.36474334704739 -3.239792392528065 0  0.46995918763362 -0.7591769222511262 0  0.1762060771985112 -4.689741420773828 0  0.1067596639715021 -4.688981189940925 0  2.833297157903118 -0.437187626929548 0  3.029366454785482 -0.3700042289705721 0  14.74700807378411 -3.380830513403407 0  1.10024537927389 -6.895753851922549 0  0.3326151819739991 -0.09203280494718236 0  1.319186730280126 -1.143754202251526 0  1.376225043831102 -1.249165785805006 0  1.260081857406149 -1.04856457938527 0  1.311740971204365 -0.940198065109568 0  1.207918221225029 -0.9705013453485671 0  0.1343050020644689 -9.45223944252432 0  0.1620413976631578 -9.508312740016642 0  0.08691347040567621 -8.384891185169188 0  16.76073008949054 -1.305121448186492 0  0.5206031537858102 -6.721465807854878 0  0.7926403499482699 -4.278738976956243 0  1.610564577620345 -5.285161386987793 0  0.4321903579751307 -0.1446157898901888 0  0.4726823726819447 -0.1963610334641954 0  3.930916567590264 -5.452695748060557 0  1.789561305581662 -8.193658715584242 0  18.17338513328076 -1.844688158570593 0  1.904539389692093 -2.161546012295637 0  0.8566546186124011 -7.523358541723411 0  1.386449847174301 -7.068064189672089 0  1.423908780737365 -7.180659631345698 0  2.692011679305407 -4.413568591990756 0  2.842954007805581 -4.255505854455025 0  1.646232936857036 -8.929483513737811 0  2.051033706893646 -2.15351701464508 0  2.160581727173707 -8.555318748032342 0  0.09698276977407616 -9.653338198444983 0  0.1344679115431475 -9.599541379089333 0  2.609514672760081 -2.893552354179516 0  2.68315682865434 -3.060887611546872 0  9.33696408671411 -8.885184630297337 0  9.078244343118593 -8.434693975751792 0  8.840847035921435 -8.855599441653089 0  7.435655556624756 -5.434207861690714 0  1.856605507428348 -6.836339561695188 0  1.663352684869015 -4.622851592304013 0  3.589009814958345 -1.410022224351063 0  0.9486109936103517 -0.1968295790142669 0  0.7403897860154132 -3.547347991393351 0  0.6530442082513837 -3.546580510465817 0  0.6979004617494518 -3.46448417557087 0  6.581934679568739 -6.486080335072248 0  0.7572445269385071 -0.6156147227066224 0  1.741264047415203 -5.677858336241854 0  0.2239790148876999 -9.519954282880079 0  0.2247757721741124 -2.414455088547927 0  0.1901781699836924 -1.242993392523107 0  0.1244980770016397 -1.248960204281915 0  0.1110543079431459 -5.865892137074652 0  0.1014375020108922 -5.800161171015489 0  0.4254315002690987 -7.9380696393156 0  6.066753579034154 -1.552964468161574 0  0.2636477051613166 -6.364512226968523 0  0.7006191519874161 -8.746024453984948 0  0.1781758927347035 -8.711051948766723 0  0.1234724062090073 -8.685738100223855 0  0.1278059174452668 -8.748513429250647 0  0.1250266667944082 -8.798257182318974 0  0.1039393106754627 -5.071754334715985 0  0.1344920944476105 -5.11866986777022 0  4.268062815244662 -0.5024962358862055 0  2.452754450733311 -1.679078562666119 0  0.2332905092775093 -0.5251839835490228 0  0.1872105471570862 -0.4819927835490914 0  0.1307170122375254 -0.4953563057019172 0  0.1435950891158964 -0.4372829597288526 0  2.269346611509958 -6.242437918223808 0  1.819355919537562 -9.427389614881058 0  1.75033781133471 -9.550098418681168 0  1.814421637986108 -9.669379565037056 0  1.679023761757946 -9.66330572706052 0  1.616855356561224 -9.554991260852647 0  1.550348067892493 -9.659516474550015 0  1.49341271229795 -9.5545666319986 0  1.431386597983701 -9.65836527778086 0  1.485963839155175 -9.766358131858667 0  1.366129141362668 -9.751744815015316 0  1.308469715010277 -9.654054019800451 0  1.250940353040789 -9.744074011039338 0  0.109784481024926 -7.885435293476414 0  1.263217489403448 -4.213462670262756 0  0.2024849954104777 -5.194773821139684 0  1.768992372474738 -4.633558381073159 0  1.744783015029274 -4.504972772839603 0  0.5078712863665853 -0.126786656937754 0  0.5566142377876346 -0.1983311265196743 0  0.124348311148875 -5.47319649736084 0  0.08851288252934175 -5.520831257474088 0  5.981599308832273 -4.021958958753045 0  0.5943837731409953 -1.043541572027848 0  26.2973612724954 -1.105066995273468 0  2.959240092116076 -9.736120374392444 0  13.30702507495219 -3.263554691153468 0  23.76849634927827 -8.832936410668003 0  16.19380495947083 -7.0533858551461 0  16.6459267732904 -7.771202896874122 0  16.21871691397687 -8.533486393861123 0  15.65354415505742 -6.466380062686999 0  17.02426075175095 -8.515741137816596 0  17.49721581421504 -7.739315773053351 0  8.591843358230616 -8.428752066831253 0  0.08772671519622754 -1.204500421550215 0  0.1774441185347442 -1.613447254025253 0  0.353799022374508 -7.980333633520948 0  0.2733442960031311 -4.738842569159638 0  0.3396968627775756 -4.742879270138356 0  0.07162640989126956 -8.720484329276802 0  1.332946942102032 -6.948179808935162 0  1.424295839085985 -5.538416908568217 0  1.4834771214806 -5.444885011792982 0  0.6231118199973604 -5.997887845173645 0  0.3758035876275265 -0.6658536420148931 0  1.638914050890079 -0.2597124101993282 0  1.718111543162685 -0.3497622828799418 0  1.765609182513451 -0.2454666648624748 0  0.4592239230802679 -3.05099323822925 0  0.5368156502522936 -2.900933900972453 0  0.1392166998910653 -7.9442487074156 0  7.782285186185395 -1.267733733870978 0  7.989134709317057 -0.852854747723562 0  8.227144568818835 -1.278522345714011 0  1.234246043728234 -2.140613375495245 0  3.458515525898981 -5.911001785354855 0  3.39642853518164 -6.13254497312025 0  3.589368693589186 -5.699821392584052 0  3.525533137845304 -6.312561307129065 0  3.306247873961054 -6.323675183802208 0  3.194183685229266 -6.166377743678268 0  0.8341840033529593 -5.667748225300216 0  0.7445138841858405 -5.657568390741559 0  2.084283354890541 -6.464791755032516 0  0.3329736382543551 -4.850945675089664 0  0.7086509374011882 -8.282713403423884 0  2.005613359222586 -6.594870274900225 0  0.1479759990409857 -7.775422257564091 0  0.3929567463320129 -3.965632476887222 0  0.4447780219009623 -4.031041505991465 0  0.3190252660635977 -5.911781585101824 0  0.1206323721315439 -1.624585915744269 0  0.08230681648619509 -1.578021574983912 0  0.8814971588840343 -3.620910484630186 0  0.349637834974855 -1.706192361794535 0  0.2375097592274997 -8.746636548493983 0  18.65303315345416 -2.789764243643531 0  19.13820990987545 -1.977903762413827 0  18.04852571684319 -3.66062198872221 0  0.2258138938074907 -7.608647962613244 0  0.160405359301631 -7.597631512508465 0  0.8376112358966203 -4.866508738340675 0  1.192599780284644 -2.048821419390782 0  27.31011997091682 -5.009653727816928 0  27.76012573304859 -5.897627183601609 0  28.30351143185708 -5.169443958496837 0  28.64428107678204 -5.944195040470992 0  0.142239023954124 -1.023559016766491 0  22.41074989535078 -8.774253646835758 0  0.08496361101128258 -5.003567923774618 0  0.165996385793914 -9.909277018910238 0  0.1048966969765814 -1.683190046502214 0  10.39085524310288 -8.866199729561473 0  19.61068410886539 -2.831937877437703 0  20.0917328209626 -1.925057426940778 0  20.73436049509305 -2.963354094977239 0  0.6152292926769007 -3.229554115476303 0  1.879718844720299 -4.722880165478217 0  0.1513180298539449 -0.1022136945117493 0  3.422835697872912 -6.474903575921506 0  3.208861551254484 -6.515532235602928 0  1.826809216560575 -1.377114733072104 0  1.895633088676547 -1.257776561642901 0  0.5483640564817573 -3.971455531005262 0  3.325587695992411 -4.316724699599191 0  3.404792197168902 -4.534029441772467 0  1.883432444451255 -0.5352426688459522 0  0.3284146696566719 -3.81849950934807 0  4.174807031110902 -2.152592301100197 0  0.1143538866636238 -5.294808088506976 0  0.08013641173748098 -5.344003620022554 0  0.09561858410068602 -5.415647422923675 0  0.744554640615835 -6.358050783776112 0  2.944289493807545 -5.304221069390267 0  0.2101701922357222 -7.793918744758593 0  3.985133302271027 -7.477953815426973 0  3.759382821161395 -7.515871472215903 0  1.561104098541042 -1.693524753743955 0  25.6406316375766 -2.114986673505699 0  24.45768256216914 -2.206348078586251 0  23.75852238153593 -1.175367600197881 0  23.27389672461924 -2.303479502137437 0  22.67449722989531 -1.377150324859487 0  22.14258166071517 -2.453172144203457 0  22.80356056813747 -3.262672945399508 0  21.70033244517835 -3.485427198161557 0  1.18731739604177 -1.842014379917805 0  0.7211760944039529 -8.875204236569179 0  2.502802014992195 -3.051834519258022 0  2.470411999663131 -2.766208453645782 0  2.307566067611534 -2.69227551880136 0  0.7572634957991813 -1.605701737448254 0  0.6687440233416844 -1.578672732336384 0  0.6273293260212469 -1.666109156616104 0  2.061486127210159 -4.474666876768355 0  1.90427676800217 -4.450905292835492 0  1.167636288395677 -3.014350969653862 0  1.113263445789354 -3.108576108281 0  1.169642850116091 -3.221360128877659 0  1.058320165252692 -3.203350517714315 0  6.667113237574085 -5.477473245320435 0  8.441860626374076 -0.8875877460183172 0  8.812666671348007 -0.6105111575151847 0  9.189275254172403 -0.9200901352081772 0  9.704377334929676 -0.8167520410979989 0  0.2330290103298935 -9.261370315287149 0  2.544758020563599 -6.005424233194168 0  0.211323188599323 -8.994082005392837 0  0.157200884929189 -9.036386297369312 0  0.6195552564930153 -0.9725418413966738 0  0.2635637687919861 -9.869434972378562 0  27.94024296445341 -2.335593683523836 0  1.228525301111187 -7.898386541056023 0  1.207521968088308 -7.787251707662543 0  1.308208560304385 -7.828134544052618 0  3.765362756199417 -6.332609284748348 0  6.785221883852522 -1.577686030083345 0  2.934080735888342 -7.195132125161543 0  2.735924453107277 -7.213970545936564 0  2.820075211029744 -7.032651951828285 0  2.903172930049127 -6.851145744629102 0  2.703013423137595 -6.862109109969805 0  3.109595762280822 -6.837482120887454 0  2.984122666805579 -6.658199276256582 0  2.636537787401274 -7.060882227948321 0  2.55980346128856 -7.2352079748953 0  3.140811400165516 -1.998692417703659 0  3.034651596381911 -2.179330024809672 0  3.127256290996312 -2.37540856552851 0  2.94767870786473 -1.987191274959943 0  2.856893977435824 -1.798206219356582 0  2.912371417315452 -2.358103917233114 0  3.227147661024745 -2.579542526256417 0  0.2559195781792454 -7.483499592678052 0  0.1905893210453655 -7.463417303014612 0  0.172452509998049 -7.398639742304215 0  0.1324388911785235 -7.444724411279884 0  0.1422975734191425 -7.50281792164772 0  0.2192660678010068 -7.348062838100079 0  0.1988884660728498 -7.283267418235087 0  0.1555080360278094 -7.334129331196723 0  0.1377452386181375 -7.272405972515125 0  0.1771120211664474 -7.219440579473452 0  0.1071055812274579 -7.212028052029845 0  0.1521820141214523 -7.169032640521767 0  0.2453570153031048 -7.226045520760106 0  0.1027743406043378 -5.576696529376961 0  0.1146099978325221 -5.632914373184279 0  0.3321719692370291 -3.544616431121136 0  1.96954858520877 -3.064262833900578 0  1.821184651398454 -3.052819364802526 0  1.748744171280094 -2.925791437421709 0  1.678093996244343 -3.031097017486447 0  3.187260234863626 -4.941403870791825 0  0.2027112094375525 -2.942845226732783 0  0.1688156762066875 -2.882292560345213 0  0.1939089800531075 -2.81273223457323 0  0.1352136303041753 -2.828137203746701 0  0.1407442836951844 -2.948042074391112 0  1.399753722916872 -3.451497973046881 0  1.262486321815159 -3.448497063897226 0  1.225037364954019 -3.33163573376723 0  1.335444917528726 -3.560225063458468 0  1.453748723642672 -8.575852987969196 0  1.506800133100686 -8.454054495103904 0  1.638325113632783 -8.447912962174147 0  2.75070807265319 -5.650847102375005 0  2.696435879278743 -5.487699120301945 0  0.155487803647187 -8.175767540285142 0  0.1057185531575122 -8.21285790582548 0  0.1131908205088941 -8.281014075623546 0  1.690645553213427 -2.514789437366038 0  1.336486145448092 -8.789276549160572 0  1.216776416367026 -8.790163297356294 0  0.2117315563809026 -1.006383659369748 0  0.9168169387218281 -5.244509607771343 0  0.874410328170514 -5.157153253956384 0  0.4635644553712019 -4.159128077816917 0  7.129128539525704 -8.160004353652404 0  1.837311107233882 -7.153231497419647 0  1.67695167282317 -7.403398537975966 0  1.515409909336267 -7.403710458341333 0  1.470779120518435 -7.513693095621474 0  1.142379771360446 -1.73266951599718 0  2.444735537651201 -9.093963371381903 0  0.1902645934356109 -2.258063965904243 0  0.1515038052144231 -2.316601330050733 0  0.1237205952031459 -2.261455609680866 0  1.048410406289133 -2.824582664564057 0  4.158969350919731 -1.669035518125388 0  4.025956787788095 -1.896624169660435 0  1.409385801815743 -9.871783596935426 0  1.543714032586127 -9.883036536687193 0  1.201621196201513 -9.639678070003761 0  1.144012198795128 -9.744335025857058 0  1.200711153045313 -9.838658800529693 0  0.4242103154398258 -8.014749935814304 0  0.1079598403324713 -6.433067896539269 0  0.1676427667689406 -6.450856310618358 0  0.1288417349062012 -6.49450571390607 0  0.1789798002779488 -6.510821722075658 0  0.1347026743820532 -6.553121434101432 0  1.231035123226588 -0.409821704119854 0  1.165486470359827 -0.3254295642786218 0  0.3036520990886569 -8.772617492314287 0  0.4535568085372983 -2.891691041010089 0  1.186600068121734 -4.459948524340615 0  1.126279850973429 -4.557637231368719 0  0.1056558865220101 -7.382100026955879 0  1.361850475664827 -7.663595424675741 0  0.5778286279068681 -6.846716218021029 0  3.121700378926874 -3.935929719234819 0  3.012116988717857 -4.121469545764751 0  2.908889403193509 -3.910315635628598 0  0.1187102290369975 -3.926275457015551 0  0.08812334066584171 -3.875067093593115 0  0.1104165962152663 -3.808032406637294 0  0.1549450328092128 -6.735868981775394 0  0.1414281734892668 -6.673260443917989 0  0.1894163093032368 -6.628882011591754 0  0.2511846224878234 -6.641500238754538 0  2.132446380566014 -3.360192362491321 0  0.1657099060332676 -4.40409615182812 0  0.1386255604458508 -4.346856534694506 0  0.1003402902571189 -4.409009761107593 0  0.1688635018916287 -4.289546243460723 0  0.103688014459145 -4.29362548781613 0  0.1373454605477544 -4.235817674191939 0  0.1567118740345617 -4.178960784091244 0  0.2374903095711822 -4.287624562082529 0  0.7868504273758159 -3.401922431719651 0  0.7500414050331372 -3.309964430910398 0  1.047267002488276 -9.087935898716227 0  0.9935984139622658 -9.176621973416163 0  1.043123026960682 -9.265493835067893 0  0.9437465117943216 -9.267026121694757 0  0.8977010317360961 -9.195276087138204 0  0.9939736074370664 -8.997945033795457 0  1.449607235007049 -4.022102475005374 0  1.326574084983243 -4.013401173531234 0  0.2645802557889141 -3.422572749138193 0  0.2301517294905295 -3.363209170804505 0  0.1961899885170837 -3.420348641692506 0  0.1644462356622522 -3.362258680431757 0  0.1356082043385864 -3.41523087833591 0  0.1979223234915022 -3.304376565210609 0  0.1320072873406115 -3.304900818035162 0  0.09784155968999464 -3.240125506604193 0  0.06980609927855674 -3.299174290146229 0  0.1400850649276109 -3.064303254462217 0  1.623945017788692 -5.412783264711822 0  1.411774794652525 -2.273979081403301 0  1.373538005870753 -2.391210567027347 0  4.387766452659221 -0.2504667287207312 0  4.00324486337669 -0.4862531927133338 0  3.844937984123497 -0.260311825786542 0  2.037883712229235 -9.296098656145841 0  0.2429732259593678 -0.4669384884528869 0  0.1216024587862563 -2.1469427310835 0  0.08790549547327053 -2.090947776655803 0  0.1124975386446962 -2.03276903744365 0  0.1355247158414059 -1.974276291317802 0  0.07947937783294989 -1.983225509557398 0  1.081959510146401 -8.377212767833207 0  1.029425797606493 -8.463618012422145 0  1.03625943580855 -1.535814262943029 0  0.9850243350507011 -1.439483968583643 0  0.9242310365418369 -1.540711632074441 0  0.1193169127615228 -1.785691838693695 0  1.823377897404956 -2.796264611713972 0  1.668164647321328 -2.771703369756886 0  0.1459344348689022 -5.753184594823968 0  0.2307634310983442 -3.476693725670801 0  0.8877816235443667 -1.252235683086886 0  0.1025784715596156 -7.816389415510529 0  1.851586124882116 -5.017447914420296 0  1.193638956207444 -8.180068062098755 0  0.1595645704977358 -4.522881816744104 0  0.1334829764447303 -4.465823410932598 0  9.331759186892633 -7.960930660543157 0  1.044013765626346 -0.1792579461243013 0  0.4592050255201396 -1.947662339970307 0  0.5999390414131138 -9.121959084376812 0  0.5680336765476302 -9.204405635898009 0  0.1793919901869891 -4.037268623456724 0  0.144483035772538 -4.085979525245362 0  0.1184557620170619 -4.035835933204124 0  0.1619748901781701 -5.420437369582521 0  1.001065525568123 -4.751394801600084 0  1.855823419419039 -8.799548062701938 0  0.3650184103661847 -1.48085149245277 0  0.7565035374193823 -4.770245096226197 0  0.6781781437055727 -4.800487946937124 0  3.348912351532704 -2.388310227001217 0  0.4801136718782892 -2.232274565993336 0  0.4346931329741714 -2.167593857788526 0  0.4698098029482125 -2.09152884851497 0  0.4126789892928393 -2.023504367493036 0  0.3873834714977402 -2.110689181522367 0  1.841532278890202 -4.294415555842473 0  1.929366861277177 -4.177560647844659 0  0.8543894154860663 -5.949148670559802 0  0.3558850965733775 -6.267815022650145 0  1.606334216843921 -7.277851821509538 0  0.1220627378940264 -4.951018699375648 0  0.09781228737355363 -4.893070543399507 0  0.4193333095017593 -0.5588123240614076 0  0.1980998196217723 -7.537939630271904 0  3.022081535563316 -3.734574360273166 0  2.70885295435189 -3.880044728315636 0  2.626744479677308 -3.701913436478151 0  2.523561144923971 -3.86802489450092 0  2.602946435790857 -4.032804323948736 0  3.413007861959739 -9.445562571517172 0  6.928992209790847 -0.6069713561273336 0  0.713837920353555 -5.394461132428503 0  0.1114319074561578 -9.218499172912889 0  0.1295761799883266 -9.282396600839469 0  0.06111585290520694 -9.184089929301349 0  0.2042508575302371 -1.89811711885734 0  0.1355407309796117 -1.903214284161469 0  1.538026815306527 -7.63238517289404 0  0.9337346547772878 -5.681947965383453 0  0.1010507028114151 -6.204758951437021 0  0.1272276994770731 -6.267375290043074 0  27.31060003042588 -6.802838323278668 0  0.5478807249168689 -7.551554939066218 0  0.5249544557432149 -7.470041590299288 0  0.5848416770580798 -7.403615339638225 0  0.5597717976397885 -7.321271082133451 0  0.6172106038491378 -7.256434627172962 0  0.5893301187081441 -7.173951735452316 0  0.5344714160389401 -7.239986251511924 0  0.4726330264165632 -7.306210197467708 0  0.5062535757472855 -7.161205421088024 0  0.556308169407199 -7.100475751775814 0  0.6459622398013831 -7.107600119170956 0  0.6065133060475958 -7.022214004635064 0  0.53428804222278 -6.976470029633989 0  0.4045811070912713 -3.692072117275201 0  0.3283204019000632 -3.68908292055929 0  0.8918154759184844 -6.03999385586049 0  0.1345574012588564 -4.840364659085452 0  1.556929381875761 -0.9153460947607224 0  1.430465344141645 -0.9180378732742032 0  0.2097662019488542 -7.091598219852868 0  0.3862168223762321 -5.330358124806439 0  0.4248330203037796 -5.260445368442278 0  0.3870301596395826 -8.455524043326573 0  0.3188628356436851 -8.504600935272546 0  0.5305711598008997 -2.445668038938272 0  0.5746821324087019 -2.518001310346896 0  0.524719782143471 -2.596376541943882 0  0.4946072530507841 -2.514697490088929 0  0.2323765066344947 -3.241266088184139 0  1.282632140134046 -3.229329876889393 0  0.4194451092554949 -8.255004758452486 0  0.290651811764242 -9.529690698299557 0  0.181294933695888 -9.563657971858971 0  7.899745374355876 -0.4305020250351568 0  0.2829813850819107 -9.93752994870402 0  14.56715613432376 -9.33037755339295 0  20.1420313419689 -9.077930907637167 0  20.61437416512655 -8.174559483766089 0  19.57990299116099 -8.203418418135294 0  6.318796712892532 -0.3191343290310602 0  5.906238325819462 -9.702025636381496 0  6.066581424418446 -9.403219412948658 0  0.8286127375988954 -0.4464118778815482 0  0.7341867214786397 -0.4545244202145895 0  0.5324779838006322 -7.770315546542109 0  4.371857480873578 -9.769512426917414 0  4.497881028709452 -9.531861715229377 0  4.759858428113684 -9.507621134331632 0  6.585670782223955 -3.728363933700806 0  6.781505169000685 -3.401752924172586 0  6.543066208286099 -3.078558529480454 0  6.915542088637139 -3.0806462650805 0  7.157547109367602 -3.408938256715006 0  0.07773778633816519 -4.836547634497888 0  0.1025116536644113 -9.39336299305611 0  3.169742843138732 -0.1850300832452136 0  2.256157841092728 -9.86345941064025 0  0.09564517582983534 -1.509490025585662 0  0.1244843180188298 -1.451120571714558 0  0.08862221832205108 -1.40575126764663 0  0.09753257607507138 -1.351727329574721 0  0.1561617244717475 -1.338365089157104 0  1.53275420743865 -0.1062028338547627 0  2.646198119031892 -4.208941950054074 0  9.167075922803836 -5.369287598117577 0  9.3952537607351 -5.825281650946203 0  9.912872908631964 -5.870659277984281 0  8.835189360338585 -5.853517043071309 0  9.643036264299798 -6.260641530416266 0  10.14287703350918 -6.331878693462631 0  10.45234413842671 -5.899457283768308 0  0.4551338524291477 -7.742183166755977 0  0.1091376664135169 -8.623415268093577 0  0.1008054168483437 -8.554481367903861 0  4.287151007052659 -4.859366452310212 0  5.136134958540602 -4.926368907547351 0  5.279608896855814 -5.195109829378687 0  4.972667189044969 -5.187550018273297 0  5.590958487739654 -5.228994932281311 0  5.143789727159641 -5.44632692474076 0  4.806888375912472 -5.438770129541484 0  4.690762085374326 -5.138672055293031 0  4.844255124173639 -4.898364998779371 0  0.1046257433633428 -6.941564913527239 0  0.982044710507946 -0.6939927712022538 0  0.9320523397547884 -0.7734116386469481 0  0.1819929410759524 -0.712470930412854 0  0.1099672293678182 -0.7228210508569957 0  0.1621204005506449 -0.7755497618547507 0  0.1003725760900345 -0.7894941682039986 0  0.1414045852025438 -5.925507902164597 0  0.1780634030324713 -8.306366994544881 0  19.61254761512922 -1.096887363326045 0  0.4840182109163038 -0.3045989484263334 0  0.2162037201813085 -9.067160932559919 0  0.1124207344030737 -9.071336953340804 0  0.09679650747847823 -9.011095269289589 0  1.681846870480873 -9.444138897371182 0  2.389881704266264 -7.572721245285379 0  2.46638532837115 -7.418549986650813 0  2.191193369448534 -7.583130419938263 0  2.14413173231706 -7.7526193060826 0  2.65473010527392 -7.393039938441384 0  2.235083166955354 -7.882839054495112 0  1.306655759015353 -2.047047991207382 0  0.7960079952657786 -7.941499652848699 0  0.2893871035519542 -1.295414006366893 0  1.213443127573838 -3.568687433132453 0  3.098232224672511 -8.912980316918299 0  2.907798419705321 -8.932466848343807 0  3.187396701086207 -8.720021331331754 0  3.403882429776164 -8.687174098480551 0  0.1012893843186617 -1.85139457358535 0  0.07125588352007384 -1.754240609813021 0  0.1152595785870485 -7.642048349147812 0  0.1011678374268783 -7.586804713512485 0  0.4952385699856876 -3.122526038541938 0  26.22914778163555 -6.820094286000126 0  2.367748908826439 -2.416595694640487 0  8.956212455946744 -4.025330271102598 0  9.207079504343016 -3.598476722551439 0  8.69796323188992 -3.631110285492571 0  9.77684298462982 -3.470030509061548 0  9.430137505058299 -3.126384826490421 0  7.566391158489729 -4.062920157078435 0  7.773021048178686 -3.677834932840829 0  8.215833171784627 -3.662763369440485 0  8.002189771525746 -3.284890175070467 0  1.47075764799369 -6.770399711146187 0  10.58484403248251 -4.003478527414315 0  10.93827119468692 -3.547555566399783 0  26.88007603337208 -2.166570208405324 0  0.3947903600913065 -5.525706763370109 0  0.3376861700259468 -5.587296456826008 0  0.6467027597634054 -0.2899054942012356 0  15.36931833142562 -3.957720838171118 0  8.653796553969482 -5.321804011566253 0  8.356783185453946 -5.685239461470468 0  8.43721130027614 -6.17261686538742 0  1.342637007329287 -5.635271329402507 0  3.730142076894698 -8.46125507384347 0  3.983522743660517 -8.430051745287965 0  0.484155303306272 -9.346982792691023 0  0.9530489295485296 -7.261066898593258 0  3.990673646043032 -1.442423897025288 0  3.90424910505822 -1.672789817312529 0  2.474866079460186 -4.16907513319266 0  0.6235786431311645 -2.900364487986664 0  0.8526942973035663 -0.2043744452531362 0  0.8122948238171031 -0.1333265037513103 0  0.206893715429608 -0.8268502159896407 0  4.40575229390986 -3.110363390514693 0  4.257041526732008 -3.338256678164469 0  4.380781535540104 -3.576436750378827 0  4.11646331319751 -3.563789021970477 0  4.129040693642532 -3.10253858535151 0  4.217780071299813 -3.780687468768705 0  4.49832252310399 -3.860125807399743 0  3.955716088601381 -3.760393619425052 0  3.862459629344363 -3.554465840840305 0  4.282666706579167 -2.873778499295709 0  0.408699266065204 -4.491801234429348 0  0.3637669704613113 -4.547537438097245 0  0.3968542627904874 -4.62698811176313 0  3.831431884504354 -5.675340934115291 0  3.237782845341036 -3.023504777777148 0  4.222296810895031 -8.361329160559512 0  3.600031678618251 -0.1983446928703323 0  0.6123175853364913 -3.46229403701844 0  0.2389578539820061 -5.082606876214033 0  0.453331249163659 -2.442775173801421 0  0.3755295110418526 -4.419741313646218 0  1.139363300252541 -0.7988790710937845 0  1.026068906133062 -0.7877049614803102 0  0.958042962581068 -0.8607569359429208 0  1.056914010812214 -0.894914859959175 0  0.8564486114620831 -0.8387835299416624 0  0.09930808205334074 -9.499697354546592 0  0.4086065271615222 -5.17912644553646 0  5.29682998395956 -4.119862372784599 0  3.45487049041374 -2.59395393974677 0  0.9761265092177815 -5.126296893406128 0  1.392021772560707 -3.900763202761172 0  1.206833881295351 -3.993808418394151 0  1.818558050648758 -6.178643298751624 0  1.731199965734447 -6.305284100622162 0  0.6499278695613668 -3.143330075730581 0  5.924262163845263 -0.3214351925084342 0  1.37464161725392 -9.089698208940513 0  3.237799980405553 -1.443664301341756 0  3.132593387639886 -1.269341942182784 0  4.148656280565781 -0.7363466739216946 0  2.364417735904151 -1.019278902841684 0  2.626765460950761 -1.150566032560052 0  2.814625671901361 -1.124300303108058 0  4.016001239512361 -6.310636018984342 0  0.2410800125212145 -0.1507429481172951 0  2.927753145406179 -1.28305871254956 0  3.012477401423974 -1.100835332676125 0  0.687613106280569 -1.781073272913425 0  0.8355774931078965 -1.164758956996307 0  0.7890560849029615 -1.251247986112499 0  0.09809278891183837 -6.70867326997544 0  0.2384761774966915 -5.651650261306497 0  0.4017025175414517 -2.241765388554155 0  0.271075508198571 -2.815987538357422 0  1.396444633274076 -0.2874510761369766 0  1.272625152348592 -0.284871928884562 0  1.183260561294391 -0.2377108412387487 0  2.165538622940529 -6.606294103204396 0  3.056700121139173 -7.714698373257555 0  2.957077982963384 -7.869025730000725 0  3.255038309935085 -7.729980510409632 0  3.162602463393553 -7.893309452100266 0  0.3357403218151713 -1.543084835894309 0  0.3795565787481365 -1.609711952581527 0  1.927310348083182 -8.180224876833043 0  1.836679472037508 -8.048419347220316 0  3.138000354748971 -3.207058231750217 0  19.10238341291079 -9.114536572555568 0  18.49563210256064 -8.173410413570325 0  19.04846939819038 -7.258789260928965 0  2.979861480593756 -0.1765992859861178 0  0.6101700409336708 -3.623970131191471 0  0.990717161087737 -9.350526611011841 0  0.893211885965254 -9.354587482505501 0  0.9392824165580969 -9.43345936530924 0  0.8456393967650122 -9.434621878270455 0  0.8000350830646195 -9.512508736868682 0  0.7584951714772465 -9.434733135633419 0  0.7152895591854467 -9.506799679292925 0  2.711599751149194 -9.574281147769391 0  2.611163751176287 -9.733912859206448 0  3.931950766155879 -6.987964652715798 0  3.789961259349951 -7.176138992158414 0  1.905098546676609 -1.82246975392429 0  1.835136560002933 -1.914151684040393 0  0.5790092141856711 -2.67026189001129 0  0.2362146058326431 -2.754246620956717 0  0.6863366260437793 -4.590868413086308 0  3.981231854884015 -5.203680951069255 0  0.8320331229067346 -2.347157702734235 0  0.7784745729516089 -2.275456005513442 0  0.253872273186154 -1.232059935318531 0  13.81936806450083 -9.316378078725158 0  1.40939218164498 -0.1000395245133072 0  12.36788032929252 -9.453353901216696 0  12.37908277603298 -0.5580292464489442 0  11.1047817723638 -9.44768994572321 0  11.07181084028674 -0.5100701058680164 0  10.69297703141946 -0.9907959031421028 0  9.911800695186148 -9.524506869347588 0  8.854599839015265 -9.596424883962595 0  6.641543961246153 -9.609650879301878 0  1.878866368085273 -9.298111147463544 0  3.531469339296185 -8.8692524984431 0  1.80992246769603 -0.1195493090460182 0  1.010786960000145 -5.415874090477978 0  5.563984966421843 -9.715922436006283 0  5.393639496748122 -9.445287886349446 0  5.078913903909537 -9.471068095989423 0  5.194208870790133 -9.147479031080483 0  5.728700348435737 -9.421254511890194 0  1.957062754848707 -9.671959248320869 0  1.6110945413959 -9.773161939398051 0  0.7480447047000283 -8.107817444177828 0  0.6766821568457235 -8.162921341439196 0  0.7217341731841547 -8.014482770149037 0  5.248794347793577 -0.2563050057900123 0  13.8417525750663 -0.7698907820474048 0  13.32744871976755 -1.27966557506118 0  7.480006196709393 -9.559791786509315 0  7.193101180665807 -9.278469950026853 0  0.3563755807432969 -9.942585861826954 0  4.122920223353331 -9.784126606967558 0  12.08243217231373 -5.652458675141 0  11.67748013981779 -6.248751915082085 0  11.03137226141995 -6.020809971256297 0  0.398620316663969 -4.978001638830847 0  13.52153272285459 -5.898993422221641 0  2.814406931203816 -9.096950645743297 0  3.623008266938594 -9.810298653328939 0  2.276295254669037 -9.712259477400927 0  2.597261945211173 -0.1494206888787293 0  2.681025224299786 -0.3102901351647169 0  0.4154281542176044 -0.958783891502196 0  6.517572501138606 -5.080539071309215 0  6.276142852762764 -5.357524188433988 0  0.3167916054280298 -6.132791403034235 0  0.9313112786739932 -7.45469727267769 0  20.13702007160287 -3.817558247374106 0  2.098220815411246 -9.887059412858541 0  0.1160104830834889 -6.031817686061554 0  0.07785801166497031 -6.075466561277452 0  0.07418613706716393 -5.66741863491256 0  4.933650570215356 -9.744903024863536 0  2.364494161692047 -9.269878247655894 0  0.3337135024851303 -5.995649576169569 0  1.80603801194119 -9.888624134856739 0  0.4519510920648528 -7.219541762298853 0  1.497157149084924 -1.255513637217429 0  1.430590360540561 -1.358839833680493 0  1.481006747569488 -1.474903862072947 0  17.6161060467522 -6.267985477247329 0  0.05823189526737771 -2.146898446265826 0  0.0739975830078734 -9.957477086153377 0  0.09949615174345539 -9.901143835303774 0  15.14453832899171 -5.883634882072084 0  1.19335154301975 -0.08370935908344279 0  0.9785984207654455 -0.09804400218344167 0  10.02108933100406 -4.002190912701542 0  8.465471240531821 -4.044659340494411 0  19.58915926500702 -6.425420178413489 0  0.3720182701945127 -5.662027669469711 0  0.834245591145045 -4.191623872304307 0  0.7654071105272546 -6.457315713270245 0  0.9919900643022963 -9.918410649609269 0  0.9412038267655642 -9.841605348067006 0  0.8516504927694157 -9.847151866206113 0  7.382590493610715 -6.453651039527074 0  3.659634207443688 -7.719582694987517 0  2.294963244498801 -1.445115114374871 0  0.1052807714942823 -0.5537495972778368 0  0.356517042580716 -5.228678478188254 0  3.112092042972289 -2.746794284298824 0  3.922402529635811 -2.165498826107602 0  0.8062008869384503 -9.926058595027929 0  0.7597271205879768 -9.837204757078897 0  0.674152950218474 -9.859195726498394 0  1.351255610040353 -0.8170369275262752 0  0.7519557063466955 -6.629665966367551 0  0.2404146715437356 -8.024011936123397 0  0.208999797725415 -8.54845259355889 0  21.75612616303694 -4.644604905777919 0  3.915032000650584 -4.151885627981043 0  0.64165108970505 -0.06814200252887836 0  0.5968550169129117 -0.1283941075149917 0  7.151888495040602 -4.066318280236766 0  4.443199481860157 -4.117953757637179 0  11.83366948117052 -3.96324900764192 0  0.860135376389886 -4.777118338102816 0  0.6389450785710302 -9.934013861304717 0  3.995172869568538 -3.343627540116826 0  0.490726176280404 -0.05962662453657686 0  17.11016514484971 -3.878185661563061 0  0.4906733445693057 -9.94545722642791 0  0.7518102760488823 -1.999124130929502 0  0.2885520739298375 -0.5628125503175267 0  28.85239142069158 -3.983505996907537 0  29.22790414391618 -3.286979101186176 0  9.531747622614606 -1.309010448842992 0  14.94438254537604 -8.626216950468805 0  0.1118386824610837 -3.693027670106258 0  0.1012919314326943 -5.971348913809087 0  4.88930922457703 -9.251428825583172 0  0.1086188521899452 -6.777690002707089 0  0.2930022826792644 -7.625723832390343 0  0.9039506115379332 -6.829308257572686 0  0.8145204041968803 -2.17493779988342 0  0.7390080089942348 -2.134916469339323 0  0.1139216201953701 -1.145659514214162 0  0.5977408560633819 -9.872440465755485 0  17.04587410043361 -6.976532139005577 0  0.06891195733357414 -7.681564245810059 0  13.14845111519012 -3.940629323888833 0  15.92659470244961 -1.331973241452303 0  0.04410031692498606 -0.138235039921355 0  0.8480807076919223 -1.59341387231637 0  1.400822776456762 -5.751660783200681 0  0.1307112274910303 -5.180295845770093 0  0.09324814335711551 -5.233674729199744 0  0.05811489771756762 -5.173591457784316 0  0.342030012812458 -8.582805810906798 0  0.2085918405862124 -0.09972831782266134 0  0.2073487857443403 -0.4163097737672272 0  0.1496507349218881 -0.3760752410070332 0  0.09765726743299297 -0.396140450573256 0  1.286642812216853 -6.524977354324324 0  1.172725332098675 -6.511208045744734 0  1.106039329086922 -6.600705993508935 0  12.06943431074417 -8.93961490382145 0  0.1784169289590416 -0.0500342706057415 0  0.2376824431056583 -9.813434264535635 0  0.8820963638549753 -7.341023530085053 0  0.614439833165239 -8.620687832732834 0  0.2904875397452056 -3.755347502961246 0  0.1049835056643094 -2.741911935199064 0  1.090260755516573 -9.355126418422298 0  2.363596813492816 -4.76834573984436 0  0.4698215036466404 -7.534898316488625 0  1.020795547173938 -4.547639380735641 0  0.3469305990970319 -8.235330930917391 0  1.355544067661052 -5.439840251808127 0  0.8209815823617461 -7.694841918207903 0  11.3078244035637 -3.07465867541777 0  23.32322691865859 -7.708192325169366 0  0.1034039692875233 -3.011771444430579 0  1.214675791691192 -2.707309001896382 0  0.2185031432357434 -9.652519839350241 0  0.2164530919408669 -0.3125615670918718 0  1.891234612581405 -3.20448775616387 0  8.670297354680315 -1.289885857032139 0  0.7312176882132828 -0.695793084805854 0  0.1056118670118842 -2.89343308279952 0  7.531727517588298 -1.67285414309404 0  2.787753321203491 -0.9373177635269201 0  0.4998871331279666 -6.581863757101241 0  0.1028383620437623 -3.125398994314732 0  7.927131602962083 -9.605050191862281 0  0.8547188814374707 -8.736072036561445 0  3.618522236182269 -3.54206274018785 0  1.996730385466385 -6.879352451182823 0  0.2474305410502566 -6.88619197033897 0  0.1027302660410356 -2.629036414405368 0  2.982237436370767 -4.929836256508365 0  2.204559596724131 -2.131623435361565 0  0.05799613975410978 -9.80374213296643 0  0.8054484706016005 -6.287506520851821 0  1.03509090888986 -6.416845672333167 0  0.2657993747268019 -8.953670710935697 0  7.082625319338502 -5.446511560419616 0  3.100094908529336 -6.334297389840624 0  0.05760195056074302 -0.2517897408499978 0  0.5717439477867039 -1.312507872518985 0  0.6062262164501337 -1.228938005324321 0  1.526561419273364 -4.618308917532642 0  0.6552528798158885 -3.302227533612525 0  0.5841130890842443 -4.714975348576893 0  0.5837306186081719 -9.552757854001886 0  0.5374443389608636 -9.613731311968134 0  0.5204867440525103 -1.256028055165876 0  0.1106036425194894 -4.786953948211318 0  0.4619724951245043 -9.603993199428409 0  0.3184433947687904 -8.422837566627583 0  0.04543541773126591 -9.689280398761161 0  0.4525794840311104 -0.3694132171982645 0  0.2811015272443242 -3.637991509364118 0  0.04848332783749498 -0.3642989860018506 0  3.151318523305127 -9.808156763590787 0  14.62468045645983 -0.6846322967404621 0  0.2689483732544229 -0.09756098677029623 0  2.311724761917219 -5.315747887054258 0  28.21699581630117 -6.660107069225025 0  0.04838130747399028 -9.413407821229054 0  0.2854520117537689 -7.975309454293883 0  0.6778100276592589 -0.1347885247844403 0  6.140886780893631 -7.007806142170569 0  6.256699877701257 -6.674106568116252 0  6.851104456528704 -6.817795850481083 0  5.177073138647945 -7.113139646850565 0  5.30156165220534 -6.844453310569008 0  5.626402686688232 -6.772268752122895 0  4.239347665564605 -9.550058951529175 0  0.09564219120734663 -4.19515705888012 0  0.04838130747409863 -9.30167597765362 0  0.7404166321116765 -2.360253475942645 0  0.08887948926159694 -3.984608128175765 0  5.706407165994994 -8.285640876316775 0  8.242588486544072 -2.896562305238028 0  0.0475441705691324 -0.6424756172678823 0  0.04838130747399028 -0.53072625698326 0  1.062961563877954 -0.3439439902572907 0  24.04401568111679 -4.874081891460826 0  1.285716622736732 -6.293872061529402 0  1.20895884107361 -6.366173665556709 0  0.5408262318900761 -8.589022185527053 0  5.429439684262512 -1.899185551334964 0  0.05361832002520828 -0.9828496856888131 0  0.04801933411741999 -8.911077910180451 0  1.974469422861041 -5.544875742830168 0  0.04838130747399205 -0.8100558659217834 0  0.0657486302505994 -0.9216777308776223 0  0.04571362555203962 -1.088093366888732 0  0.05118373673430554 -0.7548458325995497 0  1.030960262516821 -0.9967024449574131 0  0.05439574214976872 -1.254800783769635 0  0.04436998545605064 -8.85515149838443 0  5.568477235070757 -3.126920681099709 0  0.04836132315805308 -8.520883663134182 0  0.260282273392562 -9.463509969032639 0  0.69018434968884 -3.378783113191834 0  0.6884369038763136 -0.3605668405496374 0  0.05261199810239958 -8.242460972699604 0  0.0460452142586405 -8.07262569832403 0  0.05009095822592968 -8.184691459999993 0  1.546174037189591 -9.021259832915934 0  0.04838130747410752 -7.905027932960898 0  0.04838130747399028 -7.793296089385478 0  0.04496054659237636 -8.016759776536318 0  0.3556174430304324 -6.809784275137971 0  0.04829180335286765 -2.374543518025405 0  0.09865951961033304 -2.346368715083709 0  0.05815010400679022 -2.261252219923885 0  0.8895298675930885 -2.589208221830122 0  0.04775524833191014 -2.598321711525626 0  0.04738654352417626 -2.487511018111109 0  0.04549105637206985 -7.457913148779922 0  0.04838130747399028 -7.346368715083795 0  6.364492044077327 -7.913160734911084 0  0.04662380453189741 -2.820165537553243 0  0.0484148599523877 -2.710407574013885 0  0.04879717547397888 -7.123214292717179 0  0.04838130747409508 -7.23463687150838 0  1.605626794994407 -0.5779542149603456 0  4.795722021273022 -3.85686888131974 0  0.04595858945725695 -7.012209270581215 0  0.04921800807664845 -6.904026168553916 0  0.0486827629456652 -2.93045245241628 0  0.04806339988343211 -3.043797631611461 0  0.04775383884959794 -3.155886429113559 0  0.04838130747399028 -6.620111731843572 0  0.0458252300176607 -6.846687854912707 0  0.9016925062100984 -9.76416767367286 0  0.9824051741784903 -9.765732651673725 0  0.05024971560390945 -3.549102603393126 0  0.04727327336460974 -3.437610405623279 0  0.04476465058935375 -6.508094253737497 0  0.0521551260785813 -3.717802117129881 0  0.04845831008161205 -3.832270969013174 0  0.04572351239414552 -6.22966050909488 0  0.05132162249888772 -3.605716855368108 0  0.04838130747410396 -4.106145251396649 0  0.05154240415033762 -5.836334769225452 0  0.04829821200400275 -4.271321676007942 0  0.04761397093046327 -4.162722588545853 0  0.04959014901156955 -5.77809320381864 0  0.04636778803136821 -4.440607772102662 0  0.04886183914172193 -4.664178429235927 0  0.04456882067648671 -4.553072625698318 0  0.04959108543584101 -4.719231555880839 0  0.04654033735003438 -5.049240771984592 0  4.96346085599102 -6.477151354943318 0  0.4265054056144315 -6.558731301422895 0  0.2121988847181395 -6.411554961404701 0  0.3948164102677332 -1.027114877603304 0  0.09748414486013957 -0.341595416662317 0  1.079053086997243 -7.672540195190613 0  1.926176540876128 -7.911611749781615 0  3.540102091728958 -1.610407903925663 0  0.3214131884455966 -5.505896542560511 0  0.4946324699646247 -1.329374768993281 0  1.713173289898574 -8.797562072223657 0  1.792840518262238 -8.92412390105833 0  1.110113031201925 -2.913727871807631 0  1.761339876788732 -2.167138118912475 0  1.21569533572101 -1.15146114880601 0  2.577285337752128 -8.171400703227894 0  2.507237054139555 -8.343720414666432 0  2.741435573265601 -8.178911806093538 0  0.7104067335873108 -7.904049814845316 0  2.125093171454083 -2.27426925087949 0  4.661628558261352 -3.606126280440701 0  1.294899877818075 -0.5008660894602199 0  0.2663734837667047 -2.57393119084512 0  0.2908966729467224 -2.512665491939167 0  5.807632935802683 -7.04937983283881 0  2.004674829793464 -8.558335489425911 0  0.813191839923519 -9.208950649252694 0  2.323701835136951 -8.314157506353087 0  0.8370521384163681 -6.89644279068548 0  0.8919759441018584 -1.425353515826317 0  1.02650024384041 -2.157293391190161 0  2.762740335895021 -7.870113127726345 0  2.619665506629365 -4.604580252605414 0  0.5027952239599358 -7.390312830782653 0  1.89231431256885 -0.7843808745757279 0  2.395525308984118 -8.453243476651856 0  0.6054862440041795 -1.794029863173726 0  1.799950471631423 -4.869065694408386 0  1.065673542026339 -6.245849794012313 0  0.4762510260392325 -7.091805395778687 0  0.3710654326602327 -9.293709195950971 0  3.030987739163761 -8.141140929209399 0  1.276319222063691 -8.585300405483538 0  1.119829865513204 -5.889089738873277 0  0.5622571152035913 -3.838039327173339 0  4.662878654475648 -0.2490683025126819 0  4.014344112803094 -4.786390002504965 0  0.8592177296390009 -7.226822049299794 0  1.03181377164602 -4.030524930114095 0  0.8275041942337573 -4.018243998441011 0  0.8743693538475767 -4.10687831352468 0  0.7510296718174398 -4.188307212106746 0  1.221468729948176 -6.921062701800002 0  1.066168352529287 -6.982175369215277 0  1.782192508437127 -4.156579044516245 0  1.552668522681335 -8.205594174335502 0  5.787682545208554 -4.970919888020763 0  2.155077573200215 -5.298860909677074 0  2.009161992044209 -8.800235302570632 0  0.6605704403637045 -9.582439007636431 0  1.703731888689806 -7.995205745451704 0  1.150940984704471 -3.866348650080296 0  2.445900884462294 -3.6638006114558 0  1.861183253339636 -7.778699637037001 0  4.126885939255537 -8.629202550532238 0  0.416425799826964 -2.687700542010908 0  1.238972591733997 -1.342038413279589 0  2.025804065495858 -7.546641277654579 0  2.296247305804947 -7.43002124185498 0  1.460037864135867 -5.879344502664134 0  4.489160317684105 -5.807730393358259 0  1.838850902654595 -6.567132470719274 0  0.5435775794142366 -5.973154952449145 0  1.120603910522224 -7.497148111554459 0  3.2019288703443 -9.433445994609858 0  2.370693120085519 -7.024223211460106 0  1.37846297888289 -1.536931736666669 0  2.81071069044819 -6.519766332928685 0  0.9966372269117123 -6.852407549931369 0  0.6900077333676204 -2.290557069589666 0  4.012432030201607 -9.255964587668963 0  3.35907796047228 -5.695324233262091 0  3.47813663419165 -5.515759285414745 0  3.728927240018946 -5.158359539277451 0  1.609304688294451 -1.932061987787526 0  0.2674465198110223 -3.179837432685362 0  0.7999147835952058 -2.744009258217476 0  1.629812091663496 -4.39548065818075 0  0.423963384336151 -4.226086010251906 0  1.335345890143952 -4.762269922404382 0  5.921646209672662 -5.307186521056834 0  4.566630182464317 -6.71726297514267 0  0.5746168238802412 -5.63177961153577 0  4.97941132771702 -1.657783807622367 0  1.768937689361552 -6.939671202705684 0  4.43575323159299 -2.150851439521716 0  0.4413030836812908 -9.412793117406061 0  4.127251129534249 -8.108992958674342 0  5.674049229699401 -5.5881590983699 0  0.334315768651237 -3.061934345204372 0  4.813190731106083 -8.818253752236016 0  1.683223832073685 -6.152860665391218 0  0.4463473460425966 -3.361049940834444 0  0.5687640781478898 -3.550563048705658 0  2.501582504241139 -0.2874793337913086 0  3.809048465786265 -3.952651108138225 0  0.3812179281985042 -1.945750408200882 0  0.5641296290454534 -1.116280360731368 0  1.652991347682937 -3.682844400101621 0  0.5865201882542959 -5.067655931703823 0  3.353837327992755 -7.542571550343524 0  7.650116926778395 -6.811156436522944 0  8.505741378624315 -6.666930009979735 0  12.77120721666572 -6.732094918759457 0  0.3468774679063369 -4.105254249850929 0  4.230769986525381 -7.438236146219373 0  11.36314715091237 -1.037453090110941 0  10.48889775970487 -1.578699610432885 0  10.08433100038995 -1.176319158633239 0  11.5059368423518 -6.846255242653357 0  2.21008058828702 -1.571199086587835 0  0.3996576915757775 -9.084439323880968 0  6.379929301948273 -4.05087663972806 0  0.2938364358357983 -1.485777492284843 0  1.027963227825026 -0.6054992753032451 0  0.2796868830327206 -1.172553823697914 0  0.7151409789988499 -6.269623049334821 0  0.7897612577051909 -3.774999785112531 0  0.3145940444366229 -5.32501769351703 0  0.0523594539876715 -1.710111097462822 0  2.340041308253102 -0.488274574305323 0  0.1390408470190234 -6.611240741229833 0  12.62247943415148 -3.307273125239051 0  3.567363966248209 -7.165966553978079 0  7.812397459276413 -2.883768019266049 0  0.3698388097250813 -5.858578991448384 0  0.4453295547243368 -8.900471020940627 0  10.29249041871627 -6.885649173800447 0  5.920823758024479 -2.714789787094331 0  1.687798562600094 -5.543988740831563 0  1.885154446600808 -5.676455435458493 0  0.7457486912938656 -4.36589240799355 0  0.6022901822077067 -4.579121059416883 0  0.3574713226157442 -0.7311736104978817 0  0.0483597387470045 -1.871508379888255 0  0.7190121978140649 -6.548684357799175 0  29.37309152244514 -6.129703857060654 0  29.20745580601498 -5.310452580070832 0  5.57013220799476 -0.6918941157258782 0  5.394067110897801 -8.315789375450402 0  1.830132285639433 -1.145271762478484 0  0.4887734100730512 -8.709537167030225 0  8.480384437018971 -1.701428499606725 0  0.1006283795547951 -2.517251341323007 0  4.888263073876232 -7.159568454210966 0  0.5795891828017581 -8.385478667118733 0  1.607701578147338 -2.907858537737306 0  0.2938426926524293 -4.909838428423829 0  6.96543691739056 -3.734695799998859 0  2.56673027968905 -8.941322463103472 0  0.04637871908794011 -6.340500483236981 0  0.8519424849025263 -4.9674161174375 0  0.843376492932002 -5.058028786773933 0  6.237271679158999 -3.099248190521798 0  5.126632727104255 -1.905449680753235 0  1.232351476063915 -7.231169587591416 0  1.287508623845271 -9.547562736521652 0  5.89267931010431 -9.12478390439532 0  0.9990908538676297 -8.096347873904795 0  0.4006290307884921 -7.071849582039504 0  6.025418681147992 -7.904641813706359 0  5.374512916222058 -7.8724730980443 0  1.725800675001301 -3.34487720840483 0  0.3952264175779892 -7.330988659195039 0  0.4449633965960018 -7.466785800243237 0  13.13884677775561 -8.450661627450332 0  7.878223129560287 -7.988556297454257 0  0.04693449831611929 -0.4199428364417095 0  8.840892046206244 -7.968506851613467 0  5.569893856517879 -6.471430469517863 0  7.554032454638866 -3.298308194095117 0  5.0498788543497 -5.737172637573985 0  0.562232489985993 -1.520964905120279 0  0.5190805195977575 -6.378554088240021 0  0.6663848517617037 -2.00143338676072 0  0.09887389879911979 -8.153613624402389 0  0.915579329842366 -2.169363575890983 0  0.5098845943875912 -6.101284605837525 0  0.9253381301779733 -1.826419523073993 0  0.7962406266490163 -2.589256362507452 0  0.5482485887624602 -5.76435284552738 0  10.66515119430084 -8.395406109474973 0  5.73786621210794 -1.523514487070182 0  0.5694718484612675 -4.854272106014993 0  0.09791068476454079 -8.940552552820067 0  0.09779646292844646 -0.6165031641237562 0  2.020226330779435 -0.2449622275531755 0  1.031347595866404 -9.83067171721931 0  0.3793456226299092 -9.715167531587841 0  1.084856246862081 -2.419458007357286 0  0.9221219344211669 -4.536122956060589 0  1.795970606285088 -5.804392516884797 0  5.004792162652333 -6.902716429304653 0  1.247509380026852 -5.238010424860404 0  0.7061085879113698 -6.024453030223505 0  1.741791110735964 -9.777445043008839 0  0.1690868586113776 -3.474465648043638 0  0.09651144319083116 -3.358246622978494 0  3.150181476959123 -0.5526811781590677 0  0.374962753826285 -0.2556941433680713 0  0.3940522881545352 -9.885547329763629 0  4.810909047203458 -0.4907228813486659 0  8.160619738449984 -8.381796398061994 0  3.449704553988854 -1.064489417978229 0  4.97594303333433 -2.640602004482379 0  0.676214591749396 -9.426383538805339 0  0.3997953399824805 -1.756399369194014 0  11.67172903524883 -1.566479315330323 0  0.8453326675679911 -7.419924103608124 0  0.6062970460921999 -0.4958360211002155 0  4.031211620152256 -2.843180937678546 0  2.61540290649479 -1.961112052067505 0  1.620624712683213 -5.064554819988087 0  4.785514202592093 -7.883113870167729 0  2.867831110918942 -5.075209389121542 0  14.15571992872169 -6.599937498977685 0  0.7347069128283774 -7.674839762568924 0  0.3255217766923391 -1.767194214120822 0  3.581543838479368 -0.8902790222699153 0  3.684965347333552 -0.7084685595972458 0  2.142289019489597 -5.9598675529601 0  0.3935058878363655 -7.785232359272188 0  2.481985154305955 -5.723542951394757 0  0.04741787203461101 -4.383386200251833 0  0.8282600461271965 -8.552312870361652 0  1.477019464484799 -7.290333149916182 0  0.09216985173267744 -6.136611392832759 0  0.8497799345999866 -2.981902766437783 0  0.7210940032283748 -9.357582183299577 0  1.030141619794865 -7.837109587032137 0  1.004649878435792 -6.58699753047866 0  0.5719456546692605 -5.419136057859443 0  1.215997447647835 -5.619417294438238 0  1.468094731067314 -2.91395790999519 0  0.5759958159065164 -4.365596421018497 0  1.212663889468612 -4.951236602175915 0  0.2977793015257895 -5.841488758279638 0  2.252456760776276 -3.929806964992599 0  2.048733191965168 -2.405393270327575 0  2.273035856721233 -4.902665621518846 0  0.5525125769367953 -6.24172093137974 0  2.278452112559663 -0.88667290443823 0  0.323315476941751 -6.397483521186654 0  4.69142973365382 -1.192302779307567 0  0.8785871688871687 -8.320203390349416 0  10.23384118176506 -5.434651923505288 0  0.2875856274584088 -9.227328208749935 0  8.180427060699436 -9.218574147317597 0  0.6811193361563852 -5.298721654860302 0  0.7343634814966329 -5.231100748731952 0  0.0461038609708595 -9.525407917395883 0  0.2748469317305577 -2.075731312244476 0  0.0487794726759283 -5.950020171251691 0  0.1717747631472655 -1.673890658143329 0  0.04834496355556794 -8.576678505728211 0  2.659456027491236 -8.313376185146968 0  0.4432033069413315 -6.630342676387819 0  1.032107265780887 -4.375042234959734 0  3.25244257777484 -0.3685563249059793 0  0.8647435052941539 -6.981799484637399 0  0.07206717063581358 -0.0415620888409034 0  5.252726947265609 -3.134943683364625 0  0.09778484858759562 -7.317066836934751 0  3.389041052886716 -1.27527154030236 0  6.221857956073876 -0.6578829453128687 0  0.2663315671488444 -3.301683302341967 0  1.100599815726222 -6.340159928140142 0  1.161040645468082 -5.986643673883327 0  10.80987440534382 -5.495780130932284 0  1.034070393857297 -3.308617715948651 0  7.765384593166491 -6.429349642449845 0  21.14490705693862 -1.976144368579948 0  0.9662159659701484 -5.324749849641987 0  20.09429801096103 -7.315402527647443 0  0.7114057571118408 -8.978610922669043 0  4.588619743095702 -5.574408136380232 0  1.146075155205031 -9.268963202214763 0  0.564920585002481 -0.9234313900671367 0  4.676888655836519 -6.481795582990717 0  0.1039538785335363 -3.468808139752297 0  28.5960752559687 -1.598286539691848 0  2.284359708723803 -1.699965621100203 0  1.796505765048238 -0.4356475389585377 0  1.043807562831898 -8.282300039034707 0  0.9774010988692297 -8.366506545611323 0  0.8915578588080901 -3.77205353736574 0  1.098758323070676 -8.131820969037836 0  0.4277787440525973 -0.7123570951923019 0  4.540361363565564 -9.281280699876966 0  0.3339017213260078 -4.47895271044045 0  2.561996504172857 -3.218601904788418 0  0.1015467790308975 -2.407702677779834 0  3.000230206250425 -6.167929129089711 0  1.958233223565138 -0.6544402622563208 0  0.4692532487056198 -1.203091055987173 0  1.442961461936902 -2.490658570727062 0  1.098235615322691 -0.2530216970817829 0  1.412102731171352 -8.392760315426347 0  1.976807490756997 -1.14592802409962 0  0.366128120103502 -0.9092954211847193 0  2.219966085107114 -7.290951547141781 0  0.3591815580438968 -2.181320775699744 0  0.04329307868233023 -8.3530561461505 0  0.5807024981941105 -8.963728160168836 0  0.0492833405244042 -7.566057260896934 0  1.346121115476389 -0.187402576500622 0  10.34840156767597 -3.526541415052079 0  2.123341724780113 -5.558214172093892 0  1.931406588933331 -6.723325477030352 0  0.5994215549822108 -3.91488743805473 0  0.09968215248638046 -7.094218692282206 0  0.103777310112541 -7.148838501415844 0  0.6887163630752866 -5.724571094354556 0  0.6559326632651619 -5.647825934643233 0  0.4489077487612825 -2.624272084449782 0  0.4790455142179866 -7.82616568091904 0  0.4620283382941075 -9.114814035948084 0  0.5637274880084551 -6.046646932938304 0  0.3575067784578607 -2.505433731998559 0  18.05078084300366 -7.059128406943701 0  1.14978923050003 -7.598562517127952 0  0.7703027038340107 -7.525524051482277 0  0.04291607199463598 -9.918589393686437 0  0.09351328781671953 -0.1059924137236248 0  0.4958195568110266 -0.6919071414116065 0  0.04716684931935156 -9.131974709062852 0  0.1905190156016587 -5.133265192585356 0  0.6927533614278936 -6.707870841894884 0  0.09641608970812854 -4.524647723450006 0  0.5140629768655849 -8.931710659361116 0  2.558077698370862 -6.764521918331409 0  1.557464040918344 -2.699940452619229 0  0.6304469088724662 -8.765647015566399 0  3.089749636390664 -4.764624485246932 0  0.2960573202116237 -0.04650544484716512 0  1.050284342857145 -8.911706520128353 0  0.04209216139641647 -5.386964856147498 0  0.6174427100200504 -5.143441501799003 0  9.174252898112616 -6.282376290196897 0  6.092544179388684 -1.90052466423737 0  0.891968926805113 -8.501344575922444 0  16.34529772862753 -9.280045185634094 0  0.7632852121882046 -5.944699789223058 0  23.96310093345217 -3.166835323746668 0  0.6319504759851995 -6.255420530725209 0  1.07804928797778 -4.463430631735283 0  0.05014718941573726 -6.397710910383591 0  2.872984696996642 -8.0368718675685 0  12.41115398228687 -6.222916929608061 0  2.440365959146474 -9.686302867996162 0  0.09631621807740487 -8.496758387482149 0  0.6561724824703941 -8.412175169223062 0  15.12740228634666 -1.352699112619374 0  0.3358279495649068 -3.178370902306011 0  1.362436617979425 -5.247730475812123 0  6.986300940927624 -6.460218015428007 0  6.407754453799722 -8.23610473450236 0  1.663032975653399 -0.4625016483811208 0  2.786992984815267 -4.06818033969447 0  3.291597781443723 -9.62424820250229 0  0.9901746971237539 -1.623010324947342 0  0.6114994112024945 -0.2301818036706402 0  7.357986585531039 -3.737658100241469 0  0.04443841828995332 -9.024422735946811 0  0.9917329171351454 -2.06814196632047 0  0.0455088375880166 -1.372056488736147 0  0.4920402883202843 -7.901609190034597 0  28.7540800887882 -7.315782700395749 0  0.3634684773595716 -4.917486916804724 0  0.04549072594739201 -9.633079217979075 0  0.289579191276669 -3.874909200504731 0  0.5499874299199661 -8.665138094895148 0  8.445879392745191 -3.276250756879446 0  1.017811796592294 -1.813753523105873 0  1.604100656388908 -3.136641003469311 0  11.46537637523904 -8.909507548408961 0  1.287851574030492 -2.232648434970402 0  0.451779100439218 -9.271730385368087 0  0.575510886845171 -6.318610714112236 0  0.4462856147983256 -9.718779176654472 0  3.784919019882155 -0.5113281793861937 0  0.443026686561403 -0.2518693994104222 0  5.10296396123373 -0.488967276705905 0  0.1203666174391422 -5.695382584815857 0  0.3086092400616227 -6.316330883688662 0  0.5919472698107882 -6.698034733778487 0  6.237589387416772 -9.128020113719929 0  14.01232289292764 -3.176026868348981 0  1.870426708604629 -3.802792354658294 0  2.293105452735322 -5.982916884621744 0  0.8444324681450581 -2.665962108540611 0  0.1437415507604278 -4.73893417485549 0  0.0470603965751728 -5.556447588827206 0  0.04353140794450283 -4.880725803320704 0  5.276999083582206 -2.646737526752748 0  0.7639052673359306 -5.481037784116719 0  0.6965564291569084 -1.224643586164349 0  2.21581417888147 -5.43867111829233 0  2.000378257417514 -7.775695185460064 0  4.931504095008098 -8.11291750527133 0  0.8939225897040526 -0.9279999488661215 0  1.022149382361508 -7.472386109314634 0  0.9027180566147983 -3.068994515000898 0  0.4840455376297967 -3.426167053749068 0  0.9487293579588147 -3.682472088396522 0  9.904516160810077 -0.4009298842189066 0  2.256157866653551 -0.1173898387470356 0  0.6218424711141814 -4.296569562119558 0  1.724287795872689 -3.798860660950079 0  1.184610820043442 -2.415181120416745 0  1.358530185904732 -6.745095145662388 0  1.104202047333857 -7.766174100107295 0  0.04846239814617803 -6.735127983796463 0  0.1861638424246816 -9.297825731518483 0  1.347326564104879 -7.257589481690067 0  0.1786789575310515 -9.957382553251556 0  0.7886345185399684 -8.291928342279151 0  25.13546904939342 -3.087548164652107 0  1.325361504097508 -4.955456679574275 0  0.7230386821125521 -5.877989466660891 0  1.25301856788043 -9.268927154228052 0  2.264263334560473 -9.145749221687048 0  17.20669939034071 -9.278923139315493 0  0.2907875547838046 -6.251349133634535 0  4.967691551846009 -1.193603752898143 0  29.38141042586826 -1.785714285714286 0  0.3520447926862644 -0.5553776278835549 0  2.438611059384172 -0.886066528867687 0  1.672417918232156 -5.171466918329125 0  0.2716749277864512 -6.017460561831693 0  0.24230056414026 -1.601253880472489 0  0.1088505116858691 -4.134550743804073 0  29.50291354640775 -7.463999038150752 0  2.743756697456607 -3.221997780664088 0  0.4294624059392351 -6.818725492123467 0  0.1001873818091958 -7.992300299399214 0  2.147990241544592 -6.340607636622901 0  6.640452283589539 -2.752549182864069 0  0.5985129004390153 -5.70634672904651 0  2.099926607789632 -0.1218631985551797 0  6.556959648177152 -0.6276995086953647 0  4.98740759050334 -4.124509823057813 0  0.6349966095112105 -4.653296927973814 0  29.27189055699824 -9.077173377382493 0  2.105796035644685 -9.164737707134403 0  3.000505351476361 -6.471808063908902 0  3.348084108820263 -7.938012620231766 0  12.04501876007414 -1.075171954181624 0  1.157872019917463 -8.913787943875359 0  1.111770178125216 -9.662914181439122 0  1.597689104534451 -8.33778378283904 0  2.436856691556045 -4.909295086468935 0  1.407185590222644 -7.858063451123391 0  0.6385391962936566 -1.510954091382929 0  0.9804090397889986 -4.112450642492384 0  0.09065637048099973 -7.480602964388247 0  1.87740311153533 -9.780214300242243 0  0.04286863482104053 -1.538799573502556 0  1.430942441405431 -6.655407687826008 0  1.955579984741707 -3.64472273432026 0  6.892615029969273 -9.355440036753819 0  1.559956402178329 -2.497449368860961 0  0.09784161424630966 -0.2086716491110598 0  3.516872795609956 -9.631401627972561 0  0.9653090495239631 -9.684004843262619 0  2.41008681324147 -7.276482265945193 0  0.6486363010618703 -8.04011464628983 0  0.09299548541634906 -4.626273867908218 0  0.2717500378725131 -2.371375772314242 0  0.09414336743909146 -8.882210098392196 0  0.6385685555623013 -5.43334986227824 0  0.0994525425678745 -2.212425029230753 0  0.2711253301240593 -6.189723330536667 0  0.09722615468374052 -3.747600603173723 0  1.27711790688387 -8.088773623479952 0  0.3677304721991526 -3.117500347729059 0  0.7961998427172556 -7.607063624364299 0  7.251248827878566 -5.107051187904165 0  8.389700109841625 -8.82853787889599 0  2.763402368715084 -2.259531844911075 0  0.3310664675299702 -8.169131564286038 0  1.40191141761305 -6.861063400320989 0  1.01478798784672 -3.084861141756177 0  1.069447999737431 -6.506007034668148 0  0.2544541715584216 -6.123341323459467 0  0.4613499805289489 -9.891200415322325 0  0.4199720940916389 -4.098594481461911 0  1.601282090317234 -6.248731896645859 0  0.09262249209325013 -0.8379888268156739 0  0.3142342096547459 -4.593964757875356 0  0.1435687439411044 -6.899181226185723 0  0.8166998361981435 -9.768940435925698 0  2.059064972879057 -3.518574932119754 0  1.146447450784752 -3.483561087104348 0  2.208142169061492 -2.407756220077683 0  3.188070881763513 -4.600166793859537 0  2.733580463417487 -8.940338472572169 0  3.45911852462876 -0.3670900373543837 0  0.7228106372905359 -8.356499791210211 0  0.9642521383235447 -4.633212517139826 0  3.781582032916392 -1.98641539147308 0  4.835171295221834 -6.696959765574767 0  28.59257229076308 -8.360049163962422 0  0.2068310873488688 -4.740063648124793 0  0.6120410494733051 -8.185766663638642 0  0.7119712574090151 -5.57169928673926 0  0.09919542232762701 -9.755747223069584 0  0.5381565584157428 -0.7823512819612821 0  0.3673063067343563 -3.888098416125874 0  0.8057595177916532 -9.35993566186208 0  5.4133295588544 -2.896582088394275 0  5.948030250056188 -6.798891478447145 0  1.890175544982634 -0.2323237209309097 0  0.4060025092079922 -2.94815926273166 0  0.09625702254501789 -3.63585317660227 0  0.09104587887112814 -0.4543827221875478 0  4.091306278884318 -4.988743642349333 0  1.310137757943167 -9.181007426809453 0  0.04192880179718372 -6.113558616187828 0  2.589267132870877 -1.612355646653323 0  0.09238849669400295 -7.763510412031769 0  0.2939294202899205 -6.923757920137893 0  3.451533860234257 -7.74021470304643 0  0.04057271427413944 -8.677092513020217 0  0.04157104781133647 -5.223463687150838 0  0.5419999971936118 -1.185570756276847 0  1.12477959806059 -2.664660185523763 0  0.603279865780344 -6.172883770589777 0  2.248565664397821 -8.665727602530854 0  16.25710613471005 -0.615556769050766 0  3.491295551160475 -8.485352363377546 0  1.386208788994981 -6.53653648900548 0  0.9262780887844251 -6.914946944496198 0  0.6929675781490676 -9.791819501544511 0  1.136799092299906 -4.371279205839826 0  0.09324629110487592 -3.523468362898418 0  12.75038744941669 -1.139006712155427 0  1.174957027264965 -7.695458098763233 0  1.750275240594732 -4.380219499983304 0  7.737684331925042 -5.234065292239656 0  6.364100639465718 -9.401715154060104 0  0.69932423846587 -5.157884464858114 0  29.47110515604329 -3.930141180986746 0  2.087325145274944 -8.676039857637637 0  0.3571855919297828 -4.795199390046975 0  1.270061924705873 -6.001414605838363 0  0.1000863483122938 -1.296750175269544 0  1.420112836163735 -5.346408754391441 0  0.2049256120127545 -3.530007071227563 0  1.29482734651411 -2.589541244417698 0  3.554392262223411 -7.531744656309488 0  6.760064591879885 -8.270842894056715 0  1.746260825309083 -3.157757765269945 0  1.049715895439542 -1.715614770932069 0  0.8096779704636266 -0.05762403679061023 0  2.67746795946735 -0.4782960962242218 0  1.388217659637219 -4.859226036856103 0  10.66433799820061 -6.431693396834865 0  5.113733395237784 -1.442012735315632 0  0.4389619217192262 -0.8929070150726393 0  0.08792374459876839 -6.530099376639458 0  0.1519435271084077 -8.523849025406024 0  1.149505941106824 -1.956095233440643 0  2.532301029885801 -4.76093613430865 0  14.68174413846884 -4.089279501563385 0  0.04047900956708617 -3.99441340782123 0  0.09843630477818088 -1.938654464547394 0  0.4872487401327597 -9.664818244312947 0  1.132233104944763 -0.1647597696901109 0  0.5123691727864319 -6.654743174762197 0  6.426002321835945 -1.487806599088943 0  10.73281187494751 -3.053432952226527 0  2.686259358452034 -1.777275213866133 0  3.008704122595503 -4.303906733538588 0  0.03801219057812588 -3.881103495296866 0  0.08742458101848349 -1.014240615132721 0  7.043776226030438 -2.7820009288936 0  1.518790791961257 -1.575708530290271 0  1.714361930303983 -7.166471781695158 0  21.12962619673491 -7.402294600133159 0  11.81559508160664 -8.405507077536365 0  0.6698480571077194 -0.4984278765831309 0  0.09155907136230823 -8.092943433246177 0  0.6459098436279653 -4.864412837286329 0  2.523949350465299 -1.018824392401625 0  5.231495193632046 -8.104054691943933 0  0.09216431396984781 -2.795157235140493 0  1.087693853644502 -2.059371271404214 0  2.397011629723924 -3.938420354738073 0  2.289921686985089 -2.548516036236786 0  1.991943885964229 -3.343138410070168 0  2.337614188145164 -0.2577185980398049 0  0.1956759710912745 -2.36616089537196 0  0.09340749307963492 -7.040680747411619 0  0.7091087007470165 -5.800859978869399 0  10.88734866899902 -8.905032596004759 0  0.3041078268071047 -1.5913557990354 0  0.09419801397321947 -9.846789611366665 0  1.38907287439142 -9.559443895889153 0  0.5215416352427837 -9.151175736133537 0  1.113105779801604 -0.9828545131875472 0  0.7068428858868803 -2.068465200285595 0  0.4269125955133575 -3.103982417989518 0  0.03912642643557795 -1.201907003207168 0  1.615120941074283 -1.470540359423266 0  0.2408700151672711 -4.690361268518731 0  1.446746944959905 -6.979960409939849 0  1.669785777223552 -8.208289542786417 0  0.9256609103473679 -8.658546245241222 0  1.19806226951413 -9.93032504360573 0  1.834390163415211 -2.033954009271076 0  8.941348526052041 -3.251248524790494 0  0.09506192938808766 -4.081228703645762 0  0.09192531119437675 -8.439055823044718 0  0.5860088610508392 -9.03610880913012 0  0.6246296012641785 -8.699024502585289 0  2.860486019525737 -3.058782476668684 0  2.604290298695233 -9.887545206131417 0  0.090823376563268 -9.327454932532435 0  3.695051267023294 -5.509215327749075 0  0.2772192559952398 -0.4175338573482437 0  8.137257126777975 -6.400707391520468 0  1.283040970221919 -7.724593001519566 0  0.3372218752991145 -2.062751989725644 0  2.583020086883471 -5.609530715527883 0  1.626538603805846 -6.360954686870775 0  3.763637294593057 -9.620693530589438 0  0.08956537484898597 -6.307492676686502 0  1.725671758561138 -5.28621402174324 0  0.2477046670849745 -2.470745717979695 0  2.342558488735426 -1.575122252531628 0  7.072915102538621 -0.3144995645968534 0  1.453107565572429 -9.456157754927908 0  8.61166059763265 -9.23706743776043 0  0.2565615791165481 -5.209214455362655 0  3.900645532552897 -3.021792449967675 0  2.778662015061851 -1.963742130810578 0  0.3405707800174227 -4.647938037038774 0  2.372583260568815 -5.456449981326468 0  0.384860548963422 -8.119801918525814 0  14.89044074136171 -6.568553126125767 0  0.719490855032582 -2.211540366020474 0  0.1751756872674939 -5.6455254612078 0  0.03851692365697446 -1.424581005586593 0  0.0938517129232963 -5.748830492954476 0  1.465107891666175 -1.750459417173602 0  2.387350152884359 -6.325230887359837 0  9.423068703407633 -1.726857561223937 0  18.82922906741141 -1.254707036712646 0  0.9378140518271252 -2.666862935873322 0  0.08871403866444894 -9.555691144706852 0  1.489447452223459 -7.098133467646521 0  0.08751374734672268 -8.325624462683532 0  2.18309720332957 -2.650334431290029 0  5.404696260177474 -5.430262236859233 0  1.382245044314065 -6.019208665777695 0  0.03811766214302104 -5.502793296089385 0  0.08878716080411664 -0.668637267752497 0  17.1644694643446 -0.6772882685502015 0  5.406511982145823 -0.4858914383715316 0  1.123930519287445 -1.167657062085661 0  0.09457278424945059 -7.533901478761967 0  1.816127399041985 -6.42040738519743 0  0.08865946877522468 -2.960893854748609 0  0.09018232094565981 -5.921324774580675 0  0.6984841202376053 -4.302893194217921 0  0.03734190867555753 -4.999721358060001 0  0.3365385574381339 -3.996609744292337 0  17.7533005680443 -8.501688361247652 0  0.3572321942581596 -0.04593437499921382 0  9.097357040337348 -9.223316770166285 0  0.03843345009362409 -2.094041560247967 0  0.78718060644578 -5.158984834318628 0  5.429941922143325 -3.872455991982973 0  1.454589897696737 -0.1958835485824491 0  9.099462963622777 -2.886575865026286 0  0.04307465925272602 -3.257553372630112 0  1.129529820030342 -3.309828777461969 0  0.2656108407095843 -3.532976033558676 0  0.9919472063756132 -2.746682312841949 0  0.08832748205272445 -2.681564245810053 0  3.107068564388531 -6.008731237424826 0  0.5499087027025418 -6.775306329946316 0  0.5069562040261779 -6.833437110330719 0  2.816759596585221 -6.715405489268287 0  4.056594112536164 -3.96497946370543 0  2.829811432157589 -8.790340641790269 0  9.442926078932572 -6.674886701764741 0  0.2168320723277546 -9.909345832158968 0  8.777070797392541 -6.346773985186139 0  1.654342705106817 -1.803208655103342 0  0.09399923634751239 -6.645758237170826 0  0.0881298611194925 -3.072625698324306 0  1.054883963178717 -9.732118894405662 0  13.03689771182824 -6.221364967065677 0  1.134688512207827 -6.430591346529722 0  3.039579973967037 -3.059377508632414 0  0.6630061307102117 -4.728229643997041 0  3.660174970095612 -7.344569435904827 0  1.231862790609798 -7.99674443020592 0  0.809785409001293 -0.6865348685059232 0  1.566457541148182 -9.455929074796181 0  4.942161924624939 -9.019704889903718 0  5.249765775989168 -1.676153459738601 0  0.2121318703654502 -6.468048804925721 0  0.6291174563316257 -0.9071222768896803 0  0.5491797665820783 -3.422658267677126 0  2.289279676353017 -2.825346237736794 0  3.215037994742246 -6.699481956779164 0  0.6842046060001579 -0.6288781122793266 0  2.519352861030001 -8.512678750115478 0  0.04245402007082077 -8.40905856210599 0  0.5994817324678117 -1.586438451162752 0  1.426680976186631 -9.173750588891744 0  12.72803108890014 -8.958375568695605 0  0.08579471925702009 -2.842182907128868 0  0.7181462324899535 -0.548899981454035 0  0.1981662900111711 -6.914186261454226 0  0.08697373173123424 -3.18275762209137 0  0.1875927676582219 -1.952047079758645 0  0.7235225102164318 -1.293170668209353 0  23.46789375888576 -4.025056066157028 0  0.2030895842649656 -8.491868184913537 0  0.853978311439338 -9.27914064022154 0  0.3396995175738908 -6.878979330314959 0  0.223616520280256 -5.598073145004949 0  1.724736573213155 -6.599981035375968 0  17.53409856865068 -1.33122022688165 0  1.401426766699707 -7.451920106022637 0  1.456677593694724 -4.747808424275036 0  3.764637044489943 -3.386862975584197 0  1.137686349566394 -8.737405968130942 0  9.617251243340213 -9.211852907998281 0  7.104796567007273 -7.810895262523463 0  0.1947312290715075 -7.951068629222947 0  21.53330841600802 -8.20550275453707 0  0.08735383402412467 -7.263575033880025 0  0.4252190607885176 -2.506555648398761 0  0.8270042629265291 -3.552312621953719 0  4.476760790897705 -5.064343862936592 0  0.1615974105201321 -7.116331822931375 0  0.8590999289654775 -0.759345458592219 0  28.70452148866609 -2.537128210306409 0  1.281725800573883 -1.234427013396901 0  0.5091466994236367 -0.2441154766801956 0  0.08703860900244287 -2.569832402234424 0  4.011862426862077 -9.597446681324143 0  0.5260230944300801 -7.04085826884678 0  2.648440674469667 -5.343428484176153 0  0.226791680921071 -2.010756715023774 0  0.08656820509348684 -4.242570911847057 0  0.5178205476562336 -0.8771139740720741 0  0.7763519461829702 -3.481330035045968 0  1.149700618313918 -0.8994441662638835 0  3.808779328229633 -8.273434675125383 0  0.08544136082420373 -9.441340782122886 0  1.178080714724498 -4.285504698574764 0  0.674189819449218 -1.015078542533421 0  0.4230100163915633 -8.072091811971202 0  15.60359656877906 -3.271850353555406 0  1.724297791559916 -1.917869728789716 0  0.5277564907121555 -6.904497236052555 0  0.3841948678134024 -0.6072812859714425 0  6.799665871263089 -1.899029045499407 0  9.084432595595022 -1.313415413444693 0  1.749185707230012 -1.469845859029407 0  15.51369952030389 -8.404300352789544 0  0.03572680061928146 -1.592178770949732 0  0.08281311311548478 -8.773582900363138 0  0.3391575651392049 -9.246200172151188 0  0.6097248698980469 -4.784762214598239 0  20.41005364009089 -0.8678696390704177 0  11.52867869198183 -3.571218636989335 0  0.09196144985579657 -2.299209107015173 0  0.1393086748037771 -7.551819051340508 0  0.3761679813929781 -4.040203721791682 0  0.557148904821414 -9.669710763819296 0  6.231913179206922 -6.390198353276393 0  0.5273280123437019 -9.890282417808166 0  0.6402962668611956 -1.730749103528542 0  0.09284496446270651 -6.874542239032533 0  2.026482144097839 -9.782664042283816 0  2.863101061238643 -2.135772167482562 0  0.09057411697899198 -1.05934070535011 0  0.1858575563350655 -6.569479946208679 0  1.471878312390899 -9.086767236756881 0  1.623252421554517 -2.612181474795706 0  3.006870076007862 -8.76980740424929 0  21.00315377821357 -3.944341038193993 0  7.286830132298059 -0.6240537420959953 0  0.4900800261951321 -3.188846648545972 0  1.166164593845375 -1.068204206666043 0  1.244634965603064 -0.1615136281675102 0  1.110680441002975 -9.818482840419849 0  2.526855533428987 -4.488949504401469 0  0.09217305433339362 -4.742983180810795 0  1.337711506264874 -1.34045558380923 0  0.3887925742288108 -0.09535789567962727 0  0.2951932297069622 -6.070342402752829 0  0.08496805632269044 -6.987121925478 0  1.120714108386004 -4.040553867212015 0  1.343912961676747 -4.262738965640289 0  0.6654975095425151 -2.138479403123894 0  0.08817001614368891 -4.35223340770593 0  0.04257551228822543 -3.337689188565271 0  0.08531682048092648 -3.407821229050279 0  0.5720583748667316 -6.113401354288476 0  0.3956715387521328 -3.058579698534901 0  1.519915837918212 -7.203145325232744 0  0.3045759329756628 -5.205502156158144 0  2.298940127276156 -8.547167144960236 0  0.2535820131906661 -8.513987809577852 0  1.238801290981474 -0.8716779058082889 0  0.7403219690481713 -0.1529800049767944 0  0.1331652727239963 -9.545380118043678 0  1.103403567630345 -1.808977849118107 0  0.4002211680736369 -4.75159078594382 0  9.784763021683865 -2.952695642740021 0  0.08560648450976416 -2.460414217731138 0  0.1667628239237384 -1.285398087166938 0  0.09146049042004734 -5.132815408541794 0  5.541882389402929 -8.089664768046813 0  0.08869685899332147 -7.937581217600153 0  7.282181363667888 -3.124362883971382 0  1.302989662966958 -9.818710169767062 0  1.438939164844015 -7.604006407041416 0  1.787531004652418 -7.049243844137534 0  0.9752830892206745 -3.242312830605728 0  0.7779292658582975 -8.916475156094695 0  1.092891827176976 -2.749957082721979 0  0.5655128210725309 -1.64637628583513 0  1.73528308556593 -8.094949200524642 0  1.281900044721421 -2.403040181902193 0  2.865982185052337 -0.2813230165327827 0  0.09483123960253259 -0.2939977255299286 0  3.657734765902054 -0.3742938233510618 0  3.748854538392639 -1.553606416676289 0  0.9778419629689257 -0.9380958888918176 0  12.94849107048175 -1.639460801338078 0  0.08672946348687205 -9.109119490003975 0  0.08450821301165945 -6.820753822408353 0  0.8941967235849919 -0.1460053174356535 0  2.794917785901708 -9.697157039339363 0  0.08424761341826148 -7.431038963833907 0  13.3785667652825 -8.966485153319862 0  8.019285571406108 -5.542881955966046 0  5.127841313433706 -6.673002298234625 0  0.7371876901495611 -8.809271783314781 0  0.3078247518875123 -4.69225970178424 0  0.03347006314925238 -5.335195530726256 0  22.39860679890625 -4.042703306166546 0  1.833858765815329 -0.325382809160125 0  0.08676656378340653 -1.898065327403954 0  1.300610004366773 -8.688395363290098 0  0.08232749146634966 -8.044059572317598 0  2.534997831921094 -5.471006651217427 0  0.03316363991147142 -6.06145251396648 0  0.08414492257304218 -4.468612420598369 0  0.09174617569902921 -6.587143920642836 0  0.8909807902699498 -8.581043552512815 0  0.8026801176040195 -7.365225729299881 0  5.737863605249702 -2.90778646185178 0  0.3725265198857812 -4.692764708127378 0  8.820200298253447 -0.9732769378618649 0  5.707037050932371 -3.858549976843023 0  4.298089787319293 -3.981963478900381 0  5.715531167598595 -0.4813864497284772 0  0.5074582910310639 -4.015685150079395 0  0.2321777746278446 -6.517289068350598 0  0.8987415802547147 -3.543537172260067 0  9.857037142180683 -6.642288784127921 0  2.797037866569807 -8.344812307717968 0  28.74078423828378 -4.637511179472257 0  11.16144794072768 -6.516389971303747 0  0.03945426503024407 -8.756187483182257 0  2.059193964494343 -7.661722341871193 0  14.33267012337631 -8.774214374022076 0  7.516359940204704 -8.201122893496244 0  2.489528635746948 -7.106243614437325 0  0.6829700431742154 -6.485728818949799 0  1.096450017461862 -8.212604003851299 0  0.3098968304292455 -7.930439719357883 0  0.6363759995822953 -0.1768409945443938 0  0.1407050591494876 -2.368981247556199 0  0.08405927046518968 -0.5017990733481428 0  0.03327537426390137 -1.983444194712033 0  0.08187867400171456 -8.661087679025254 0  19.01790302417954 -0.5884344153883054 0  0.03358209377573296 -0.03636262649587252 0  0.5964024953287357 -9.612178504196089 0  3.413790152194647 -1.470638221329903 0  2.362371114795982 -4.226592538845801 0  6.941209130452421 -9.088281902961832 0  1.444980201744572 -4.555786001184573 0  1.861293917443334 -4.576613852174177 0  0.8543015887447076 -1.333772109209937 0  0.08038379578090549 -0.1656264991527685 0  0.1973801009931968 -0.3585022864532927 0  1.393553902988927 -1.441040632647731 0  16.465905664432 -3.27093748255676 0  3.786815095398925 -5.333132722753813 0  3.417411928518467 -6.65387104662515 0  0.0336183189965773 -9.963606753997098 0  0.08223072587768776 -8.826815642458135 0  0.2817309093005758 -5.60673950182739 0  1.634531514840361 -9.064309990738039 0  0.08195294572756495 -9.604279325298023 0  3.277166947905975 -6.01511246296948 0  2.169104092182254 -9.790082939496656 0  3.851998437547298 -7.352878775698343 0  0.08323427737763467 -6.482739294578716 0  15.84387419562965 -5.799403020615488 0  13.82458136787846 -1.499527176929663 0  28.84175962263546 -6.533275788897454 0  3.051990950562486 -7.999714599909791 0  0.0920090677414116 -0.8794725920424558 0  1.320029885456357 -2.320620222606901 0  1.337415491260586 -2.490322917769076 0  1.857284878840346 -1.478815389559601 0  0.9055624354174725 -5.091494731350874 0  0.9299345162315475 -4.769360546965234 0  0.5613893939434682 -3.178114134324799 0  0.425654807660365 -3.004643471756806 0  2.67274586891933 -1.017899140648685 0  0.08910544048668001 -7.720690777021723 0  2.325129782422936 -6.100353158005072 0  0.1412695290274506 -8.846902400391079 0  0.08918989647220243 -1.104926829646169 0  7.163129899782717 -1.495593762161317 0  0.4698522661279991 -8.050224233992147 0  1.973893186446059 -2.065325091560471 0  0.1386415080810863 -2.783786468628091 0  10.14432313124891 -9.179645638832259 0  0.6373819777262195 -1.094926875066195 0  1.284887596401578 -4.099082787230891 0  0.08493803986468507 -9.274426740827952 0  3.259158049908596 -4.459936874175946 0  28.53551677447478 -0.8915020604441644 0  1.628046332248129 -9.35916207644954 0  1.728768693047988 -5.075597550599515 0  1.007989784586933 -6.933291149281276 0  1.788255791530997 -3.262520105075078 0  1.127279924946031 -9.591994753656866 0  1.534708152480349 -5.349160238562727 0  2.471993900704096 -4.032346179976338 0  1.569841298047825 -0.1966101476431481 0  3.856010110359392 -1.832335292800997 0  0.08439395041195041 -9.715689474507213 0  0.1045684177418273 -1.728537957758753 0  0.46341579215912 -2.568059797443057 0  2.895729429853764 -8.181022892764597 0  5.840658146160724 -8.080301854425169 0  0.2339992163068647 -9.313381120658203 0  1.234539082865059 -6.4537298798161 0  0.6374569681434412 -8.992041994966915 0  0.6006624837002761 -1.165492927986116 0  1.36859901617194 -8.593666711848401 0  2.795007944458597 -5.361678718135328 0  0.9513184044832101 -8.454684426432216 0  12.1425927141115 -3.596968884045679 0  4.103071844926344 -9.421847209661284 0  0.3529424758779296 -5.283813475402397 0  22.04747220402133 -0.7851522131346025 0  1.364002649302705 -7.765734167153314 0  3.082821160437822 -8.619452040091348 0  28.52133901156311 -9.092453625116212 0  21.4305454144813 -2.719524451480551 0  3.997156615151821 -8.251613766239936 0  0.2955110306415882 -3.585599514879665 0  0.03036799840483084 -1.759776536312852 0  0.03239957777231695 -4.83249221107293 0  0.1754534469804536 -4.12948842138581 0  0.6975894584952727 -4.148861424038548 0  7.640759604987416 -0.6175987938910197 0  0.07799806124850406 -1.45272120216496 0  0.681855417862165 -8.223471752279092 0  0.6929602755378763 -1.635335726518562 0  2.316923889537964 -9.020228822359272 0  0.481299306936176 -6.946841389198088 0  0.07790771687609954 -5.473533774731649 0  0.7787912434020292 -8.759224040818946 0  0.4547292906607598 -0.09395241355588091 0  3.167916670401695 -4.28008153815732 0  3.135565617690347 -2.896570817432542 0  2.58322640597841 -2.702590118178781 0  3.95856586754274 -3.167764938541624 0  0.03298715763424731 -5.66984232422007 0  5.555106138503218 -1.683361607178739 0  0.9180179683394059 -4.92118346889497 0  0.5116868562272412 -9.219380113486711 0  0.7289057304425306 -4.248443354681472 0  0.3789414490943273 -1.662400331812155 0  0.8224093987980581 -1.404410149118608 0  1.175997230335366 -3.40296687256599 0  0.7884289004878315 -5.013223943118013 0  7.462332066284551 -9.138675403035684 0  0.08040557541573001 -6.256983240223628 0  2.388528887393598 -0.3713779201682614 0  6.351781109894562 -5.648040621740066 0  0.2261792914070746 -1.273589756605676 0  17.25075552157969 -3.2301521740639 0  0.1878691496701848 -9.612874890464965 0  10.15411722331202 -0.7334675703843336 0  2.971172910412573 -9.886795466956832 0  0.85042298129577 -9.133594618777176 0  0.5569148007120077 -9.835885166087159 0  0.6817048778323826 -8.093103550954334 0  0.807570827698024 -7.47627473648603 0  0.07757187592119408 -9.048422921440498 0  1.374819188088949 -5.841542922955924 0  1.622537557017109 -4.52357600356543 0  2.897690736254752 -1.019203408160927 0  5.425370173642575 -6.642219732111057 0  0.5633446727365108 -4.030521321389382 0  21.82745970186591 -1.530903654807714 0  2.412456936099147 -6.022326326246789 0  0.2306481249091767 -7.975180396104822 0  8.846427913077365 -0.251697501402333 0  0.08054094075405693 -4.579767746075357 0  2.486544246997104 -2.888658409741039 0  6.068774917217588 -2.920878368690721 0  1.385391221570877 -9.935891798467713 0  1.444825663276859 -9.935891798467713 0  6.776660818813639 -7.028643219467753 0  6.967205588365012 -7.010903494424311 0  6.892761950649945 -7.22175086341098 0  0.04996185581216395 -5.865094758914402 0  0.08129835604674085 -5.851113453150051 0  0.07971780770856896 -5.879873442839002 0  2.992314009140969 -6.565003670082742 0  3.104683451365423 -6.493670149755914 0  3.096492109030031 -6.586865755929754 0  0.02905744885878292 -5.156628131126794 0  0.02905744885878292 -5.184561092020649 0  1.112141371637108 -6.995083435628947 0  1.083206865901587 -6.938964610568913 0  1.129179885009409 -6.951872676982584 0  0.4640129911372011 -8.002059009297597 0  0.4248209078544622 -7.976409787564952 0  0.4646235835518375 -7.963718861048246 0  3.133739878499277 -1.093772375271452 0  3.084579458868475 -1.004622292603807 0  3.205841935943779 -0.9975593351991332 0  5.905264021998782 -4.196090649426212 0  6.082471832929501 -4.201520925545385 0  6.006136546096011 -4.375652616218552 0  0.8031956289109772 -0.8430185146296232 0  0.826643268503064 -0.8812325400951444 0  0.7733902859519581 -0.8854675247831052 0  0.03445597866678796 -7.66759776536313 0  0.03445597866678796 -7.695530726256985 0  0.8207583871852524 -0.8040133274102566 0  0.7675054046341465 -0.8082483120982173 0  0.6575021221727599 -7.028650009374511 0  0.6453853827932754 -6.984751030092759 0  0.6963741989184395 -6.991187034832206 0  0.6038626113960497 -6.973932167806979 0  0.6427346881417293 -6.936469193264672 0  17.77399832860935 -7.399222089998526 0  18.27320647278215 -7.616269410257013 0  17.99642395838784 -7.956363093311838 0  1.72988483032977 -5.476931772480322 0  1.655871790194393 -5.478386002771693 0  1.697958057924069 -5.411329034420452 0  0.6443386906110735 -9.535988802245621 0  0.6221505294859391 -9.56759843081916 0  0.6059187797333081 -9.521148225428348 0  0.06800463805247503 -1.608354266185336 0  0.1014695943088704 -1.60130374536409 0  0.08716741587514854 -1.631636436565515 0  0.0328743151252997 -0.9077662397404875 0  0.0328743151252997 -0.9356992006343416 0  3.485824704141425 -3.548323888759763 0  3.539976619847707 -3.642858394989743 0  3.407279087806863 -3.649119543561655 0  1.519071628112576 -4.743636814508909 0  1.491619506484044 -4.683058670903839 0  1.554013540901895 -4.678887061137712 0  0.04471463011901733 -1.615432864168246 0  0.05901680855273739 -1.585100172966822 0  0.815278549688891 -5.108506810546281 0  0.7693489230091934 -5.120541622234057 0  0.7974468662523044 -5.07006359846171 0  1.160857054611032 -6.908408276861276 0  1.189791560346553 -6.96452710192131 0  3.677268177968568 -3.288224819958319 0  3.624305753783672 -3.378147001086733 0  3.536936887262296 -3.279508845460854 0  0.1649648054160568 -3.304638691622885 0  0.1493676939860542 -3.272702912628323 0  0.1823252120614995 -3.272440786216046 0  2.609433606367197 -4.451259048196112 0  2.507308457414549 -4.413476866249546 0  2.589886530352761 -4.37578641004419 0  0.5279885530359891 -0.8297326280166786 0  0.4879836626974807 -0.8524594464122393 0  0.4981516680772362 -0.8050781003568428 0  13.83862632578814 -6.249465460599662 0  13.79518633540565 -6.619462621678264 0  13.4780927324721 -6.268990583300242 0  0.07080132140450957 -3.903941689489768 0  0.1034167848514187 -3.900671275304333 0  0.08609476559008833 -3.929545871200987 0  0.08199690426983253 -3.70541489361807 0  0.05209092366655277 -3.689802742088599 0  0.08193270185780399 -3.677415518576788 0  2.58850643997819 -5.913908099848598 0  2.484834579981442 -5.939767941334368 0  2.528582999396033 -5.848251807988799 0  0.3263693842743649 -5.953715580635697 0  0.3014217918404452 -5.976226423774297 0  0.2940776736296797 -5.934292428240425 0  5.817951074687645 -4.061414861001926 0  5.741615787854155 -4.235546551675093 0  2.395756866426019 -3.062292363746183 0  2.443092280439338 -3.134537051677974 0  2.336047131873162 -3.144994896166135 0  4.075950571971235 -0.6112999333175146 0  4.024658021074492 -0.7396175720876172 0  3.951952312479946 -0.6145708314834364 0  28.75548361893603 -5.239948269283834 0  28.92586844139851 -5.627323810270911 0  28.47389625431956 -5.556819499483914 0  0.1327462687686847 -9.905210427107006 0  0.1213364142473203 -9.879056637094893 0  0.1545865312725496 -9.883123228898125 0  0.1105275006770654 -2.179683880157126 0  0.07884221891762522 -2.179661737748289 0  0.08991717702681612 -2.146920588674663 0  2.566979750216003 -4.273473089075849 0  2.66910489916865 -4.311255271022414 0  1.861221152618562 -1.317445647357502 0  1.932174353048524 -1.343121589792436 0  1.897762416990538 -1.402790675507037 0  0.6778343079488653 -6.54660512458258 0  0.6911284016033008 -6.587286623358231 0  0.6499505117381013 -6.585207390141637 0  2.149578784151657 -9.226220291753579 0  2.185029685102579 -9.155243464410725 0  2.228812433609551 -9.216726049029901 0  4.581028776854836 -4.119358404564041 0  4.470761002482075 -3.989039782518461 0  4.608590297476752 -3.990444429445323 0  0.7430402066626822 -4.81749984546071 0  0.7970573866580004 -4.818376917283436 0  0.7835940559013004 -4.86563166651795 0  1.761796069716645 -4.805993109927407 0  1.724159968657254 -4.860777889182996 0  1.686005566742477 -4.797705304702017 0  0.7354839520803793 -6.589175162083363 0  0.7076001558696152 -6.627777427642419 0  0.7263473493685222 -9.814512129311703 0  0.7198317536168748 -9.764014451500463 0  0.7532115248363294 -9.786707079267655 0  0.1462035676394038 -1.649238286943799 0  0.1383357300619235 -1.678540352322772 0  0.1127645345540635 -1.653887981123241 0  0.3896152613218042 -7.959201636418274 0  0.3555197187734116 -7.941199719887416 0  0.3913359577207061 -7.920067722784742 0  0.3969373455090341 -2.174457316744135 0  0.3732825147708176 -2.146004978611055 0  0.4110383022359549 -2.139141519655446 0  1.668118168090741 -5.285687704365516 0  1.674808388174915 -5.349498643227531 0  1.617254797704518 -5.348972325849807 0  0.06244340874171428 -1.781369570961044 0  0.09528639814079831 -1.769966224253358 0  0.08647392336243875 -1.797095185401381 0  1.75805340207889 -5.54367640623633 0  1.800139669808566 -5.476619437885089 0  5.797847719686033 -5.447672809713367 0  5.632503858719527 -5.408577015325605 0  5.756302348706157 -5.268090726669072 0  1.246997928226829 -6.983605062361091 0  1.277207836025104 -6.934621255367581 0  1.302737034303757 -6.997163615928671 0  0.08057548305106188 -0.7388334417282731 0  0.0497825221041488 -0.7265849274729579 0  0.07917426842090336 -0.7105725366016813 0  3.211949772998366 -6.607507096191046 0  3.099580330773913 -6.678840616517872 0  2.814057150150299 -2.385026417840394 0  2.85687462248065 -2.469987852881879 0  2.758560355315499 -2.496910353489159 0  0.07943745314844008 -3.820151687825234 0  0.05014875407687214 -3.803242216849899 0  0.08112789714370017 -3.791122935661959 0  1.750601395009218 -9.43576425612612 0  1.703191805117324 -9.372914445706805 0  1.771946329645669 -9.364539804461742 0  10.63910195605095 -8.885616162783116 0  10.68699126032264 -9.157473692499698 0  10.43874454737457 -9.138057259278055 0  1.954548446865484 -0.523940252982654 0  1.914464671795923 -0.4541560507582592 0  1.985580674210151 -0.442853634894961 0  0.7875246098641284 -1.551126542437536 0  0.738380807167303 -1.557449625274122 0  0.7686419212322502 -1.502874430263404 0  10.99606522068141 -9.176361270863984 0  10.79570781200503 -9.428802367358923 0  0.8773307833045685 -1.630355883307742 0  0.8861558721168805 -1.567062752195405 0  0.9154059477295249 -1.604004763186778 0  0.84521199910834 -9.725034651210743 0  0.804662868482092 -9.720840113424362 0  0.8331750313922903 -9.676934328709407 0  0.9252684186941487 -5.141725073681256 0  0.9464717239698039 -5.185403250588736 0  0.8956136334461711 -5.200831430863864 0  0.09693424737422873 -6.053642123669503 0  0.06523746843541645 -6.04518598976056 0  0.08431370414467665 -6.023361552152611 0  1.686064002928298 -9.056151378378972 0  1.640382225848699 -8.996896752237925 0  1.691914713936635 -8.988738139878858 0  0.04574574636065165 -3.906959890341644 0  0.0630677656219838 -3.878085294444991 0  1.976209046219783 -1.27397681279535 0  2.012750310591759 -1.359321840944886 0  0.3627852924022807 -5.964448054787985 0  0.3554411741915153 -5.922514059254112 0  14.63852633437618 -8.700215662245441 0  14.31965947302311 -8.387023538293583 0  14.62551568402298 -8.313024826516948 0  0.9826588319458338 -4.692303659369956 0  1.01433159775134 -4.641377779891335 0  1.032738291373629 -4.700468922121463 0  0.2236751023050587 -9.934417218388688 0  0.2499067287048327 -9.923437890431494 0  0.2567497586821368 -9.948509276661213 0  1.839969104749747 -0.4854451039022454 0  1.871001332094416 -0.4043584858145515 0  0.1867023025552488 -9.051773614964615 0  0.1852348230965895 -9.085979162014596 0  0.1557334054705279 -9.070591844419292 0  0.05049665278819404 -8.269275179087233 0  0.08290140930564682 -8.261737524161575 0  0.08078606399144306 -8.288551730549202 0  0.4105911819531869 -7.363969081457641 0  0.4339297219972771 -7.318599428331373 0  0.449294486372473 -7.351579850593975 0  7.944440041836467 -0.6416783863793594 0  8.13752192402176 -0.4247635959241229 0  8.18221659150235 -0.6359399572683255 0  0.6458521061490217 -3.375509593449915 0  0.6512509675126665 -3.420538575105137 0  0.6069187239728464 -3.417265055363218 0  8.608542955392487 -7.957482118402877 0  8.716367702218431 -8.19862945922236 0  8.484018611404672 -8.18760472601177 0  0.4189155879722932 -7.240047194710703 0  0.462292059240708 -7.26287597988328 0  0.4292565551481484 -7.283381412295131 0  1.458418338017987 -7.427815282181985 0  1.389264704919958 -7.404426511048351 0  1.446256276238238 -7.380321687207699 0  1.959721172494142 -4.737201768345116 0  1.927354060661276 -4.665962356863319 0  2.007356388435118 -4.680283959730218 0  0.1333433302074702 -9.088067172405038 0  0.1348108096661313 -9.053861625355058 0  0.2034189956523544 -2.751175271423961 0  0.2150617929428762 -2.783489427764974 0  0.1822661827625858 -2.780418078232218 0  0.8758396715877161 -9.237208363679873 0  0.8335850756814285 -9.244045644737117 0  0.8554464358298084 -9.202113368195448 0  0.8307954673081461 -5.158069044137505 0  0.8588934105512571 -5.107591020365159 0  0.578831238644776 -0.09693472364489963 0  0.5523631516397494 -0.1275903822263729 0  0.534339373371612 -0.09613099835627992 0  2.962422216916295 -2.458946213087852 0  2.906925422081494 -2.570830148736617 0  4.650109895839623 -9.394450917104299 0  4.714835294071296 -9.266354762730069 0  4.824583826345357 -9.379524979957402 0  27.35750968482927 -7.663842374289238 0  27.79107344551075 -8.209047755867097 0  27.24240174367083 -8.263890933142456 0  0.1083833195927433 -0.07770448660366647 0  0.08279022922626567 -0.07377725128226409 0  0.09766026100228942 -0.04548932416230578 0  0.07056665642234705 -2.210041718897656 0  0.04995633277209777 -2.177278427415192 0  3.421831887712903 -8.398277113456954 0  3.365421715711729 -8.497344250138012 0  3.295958052264158 -8.410269000217419 0  0.8083194569046341 -4.773681717164506 0  0.8488733061432541 -4.821813538221745 0  0.9365685154420582 -4.667187427201814 0  0.9549752090643473 -4.726278569431942 0  0.4849589261696075 -7.468413695271262 0  0.4738793102779688 -7.428549315512945 0  0.5138748398515744 -7.43017721054097 0  4.135653839310676 -0.4943747142997701 0  4.060042104005596 -0.3636091332218196 0  4.192451079939584 -0.3717306548082551 0  3.515624196234111 -0.9773842201240726 0  3.621053465534349 -1.039395053587986 0  3.555133823289092 -1.126500251442143 0  1.001125815255484 -5.177940427859539 0  0.9714710300075069 -5.237046785042148 0  0.33751777894207 -2.153839287012649 0  0.3516187356689926 -2.118523489923961 0  0.1646470176439507 -7.19423660999761 0  0.1846349905042004 -7.16317226824439 0  0.1970999940266971 -7.188376237720232 0  0.389004668907166 -7.997541784667626 0  14.2342754493512 -6.255479574426902 0  13.91718184641764 -5.905007536048879 0  1.701682133162437 -0.5129578643744575 0  1.729769370350819 -0.4490745936698293 0  1.768418527859858 -0.4995308096631659 0  5.297450235272489 -9.002161371075459 0  5.147708023770713 -8.995282847081871 0  5.250949388253069 -8.849965187076849 0  0.1541098722946792 -8.770892229916537 0  0.152990905089986 -8.729782689008683 0  0.1792948599393966 -8.752161489674576 0  28.52214783507043 -4.903477568984547 0  28.97412002214938 -4.973981879771545 0  1.268366930707785 -7.86326054255432 0  1.31835592983953 -7.896724936980396 0  1.278514300242932 -7.931850935482099 0  0.05655010789703674 -9.213782198819583 0  0.08627388018068238 -9.201294551107118 0  0.08170813517251219 -9.230986820625354 0  2.591878490631668 -8.490664435933779 0  2.513294957584778 -8.428199582390956 0  2.585820587186447 -8.406185268209256 0  0.05524447656203435 -5.140990993812923 0  0.02618702770325143 -5.124027667155402 0  0.694042405719145 -3.421633644381352 0  0.738517388532328 -3.390352772455743 0  0.7423754445626329 -3.43320330364526 0  0.1103031485400923 -1.818543206139522 0  0.07746015914100823 -1.829946552847209 0  0.7816978826414136 -9.752574918691057 0  0.788213478393061 -9.803072596502297 0  0.2401979205598703 -9.889390402268765 0  0.2732725769369484 -9.903482460541291 0  8.959568194662419 -8.20160041368263 0  8.835043850674605 -8.431723021291521 0  0.832933215810499 -1.544982609871593 0  0.8026721017455518 -1.599557804882312 0  1.830582956461996 -8.98556428044135 0  1.864366047991512 -8.92363811645032 0  1.902108486191267 -8.985078495833339 0  0.07746102915249686 -7.83306703786716 0  0.1061814762922708 -7.850912354493472 0  0.08106403388515204 -7.867589976850102 0  2.108498717472196 -7.564885848796421 0  2.074451079033329 -7.487060145147395 0  2.157145731009667 -7.505304716289237 0  0.8569797071798657 -2.126735447936121 0  0.8032983062269157 -2.126970465594677 0  0.8457576092099011 -2.078768113647377 0  0.1149244235153031 -3.272513162319678 0  0.1322848301607458 -3.240315256912838 0  0.4877141251882495 -7.348261514125181 0  0.4643755851441611 -7.393631167251447 0  0.1145363125592098 -8.018984476740734 0  0.137007770927875 -7.996588885562849 0  0.1513567016778872 -8.023273062904369 0  0.9572028668327945 -1.581860978510892 0  0.9483777780204825 -1.645154109623228 0  1.215320758625204 -7.0270694624824 0  0.07453267637793815 -3.760907033930173 0  0.1038213754495025 -3.777816504905509 0  15.49260227478322 -8.791314264160567 0  15.86620821714038 -8.468893373325333 0  15.84511097161971 -8.855907284696357 0  4.585753568185432 -5.240417254681034 0  4.748825230643398 -5.288721092417258 0  4.643816713454505 -5.390466291805261 0  0.04827534431801084 -8.604302708126001 0  0.0787413149845424 -8.600046886910894 0  0.07867169574698707 -8.627671089308684 0  1.873600117275382 -3.667418429202886 0  1.913003346673168 -3.723757544489277 0  1.831023479206843 -3.746453239371903 0  3.341009075719242 -2.586748233001594 0  3.384215707842879 -2.696529429272013 0  3.270354293148381 -2.689323722526836 0  3.004613967689618 -0.273301757478345 0  3.074802161866245 -0.1808146846156653 0  3.099554648962107 -0.2775171561078924 0  15.01848903393413 -8.248927128686434 0  14.69962217258106 -7.935735004734577 0  1.85456513124919 -7.900471200845654 0  1.881428006456819 -7.980015548500965 0  1.809816596829879 -7.968874999565005 0  0.475487242805066 -2.857113358426 0  0.4354182627475502 -2.855066679620154 0  0.4573486970153162 -2.820488997036064 0  0.7926376314812416 -4.189965542205527 0  0.7610603052931211 -4.145498910429566 0  0.8026682649569246 -4.147157240528346 0  0.08035894904437768 -3.59327746495976 0  0.05078566905139859 -3.577409729380617 0  0.07982299559688855 -3.564970338972269 0  8.40857955003086 -0.6533064564157032 0  8.215497667845566 -0.8702212468709396 0  0.2726284674458519 -9.968764974352009 0  0.3031386670629885 -9.968764974352009 0  2.453448146852619 -5.798827300434663 0  2.557120006849368 -5.772967458948893 0  0.3711508863486355 -6.879731112684569 0  0.3476584803021616 -6.844381802726465 0  0.3791098490769063 -6.845133585096075 0  0.1197020408501306 -7.968274503407407 0  0.1565224299688097 -7.972563089571041 0  0.08944690957570423 -1.251880494025775 0  0.07106122867299902 -1.229650602659925 0  0.1061123960989327 -1.226730312916065 0  0.5350756550340972 -0.2642383822857246 0  0.5328804686056365 -0.2212233015999345 0  0.558809424216097 -0.2413462072054635 0  0.1792525894617008 -7.567785571390184 0  0.2119568567146324 -7.573293796442574 0  0.1931096265545609 -7.603139737560854 0  3.691579640336105 -3.464462857886024 0  3.551248349629834 -3.455746883388559 0  6.716519568048721 -6.651938092776666 0  6.671362583329046 -6.881708402683239 0  6.536777694849063 -6.715850644978822 0  0.2137634543903157 -9.030621468976378 0  0.184262036764256 -9.015234151381074 0  1.943676225567222 -3.554346653679727 0  1.899317255071628 -3.607114240197477 0  1.887413495897142 -3.516738159556944 0  2.906060302363244 -5.189715229255905 0  2.968697361819567 -5.100206175817712 0  3.006926553263868 -5.214712015952075 0  6.596918945613979 -7.092555771669909 0  2.14072566773719 -9.100815122188779 0  2.219959317195084 -9.091320879465101 0  1.748821428310292 -5.348044412936161 0  4.647022272188506 -3.858497344359741 0  4.757290046561268 -3.988815966405321 0  0.112974836389558 -9.928623180219919 0  0.1462249534147873 -9.932689772023151 0  0.7549808755715439 -6.407683248523178 0  0.7214603114696914 -6.436281632055684 0  0.7110340765139824 -6.386649167308618 0  3.019813854155881 -2.366756241380812 0  3.069864653756726 -2.46759853723555 0  0.8988624116168289 -9.273083380958148 0  0.9207237717652088 -9.23115110441648 0  4.208359547905221 -0.6194214549039501 0  6.502822300355936 -9.50568301668099 0  6.489382596767822 -9.287993482857191 0  6.628104257658041 -9.391961345478077 0  2.8088711787727 -3.895180181972117 0  2.763294240331536 -3.797040507140483 0  2.863312464752347 -3.812175960796964 0  0.3905532507288605 -7.295770643158797 0  2.436851008843981 -2.991929694838523 0  2.329805860277803 -3.002387539326684 0  6.37416029391532 -6.809863761500823 0  6.419317278634999 -6.58009345159425 0  8.275159924145804 -8.605167138478992 0  8.183380690000627 -8.819196131617279 0  8.068840504304806 -8.595825391200279 0  23.21650980571562 -1.276258962528684 0  22.84249077006566 -0.6885751624297436 0  23.38450334588597 -0.5876838000989402 0  9.780803003156842 -3.211363075900785 0  10.00381766689531 -2.995686718610757 0  9.999857648368284 -3.25435415177152 0  3.112430514271161 -9.904078381795394 0  3.216921420885765 -9.904078381795394 0  1.020432708225272 -9.132278936066195 0  0.9623462155158293 -9.132725368382541 0  0.9891805097788353 -9.088382331032573 0  0.4510593731493024 -7.877650552469182 0  0.4587358942946906 -7.919839414675098 0  0.4177549791237087 -7.895880777109684 0  0.4628916610819402 -4.089619407679002 0  0.4323750579962997 -4.064817993726688 0  0.475294624986601 -4.055842919943779 0  3.072535394531929 -1.185088637429454 0  3.193797871607233 -1.178025680024781 0  0.4855429012691346 -7.863887435476818 0  0.4445619860981527 -7.839928797911404 0  1.835149003427194 -6.974828155524987 0  1.812771598394949 -6.888005382200436 0  1.878982912460593 -6.92316233501974 0  2.814973496310424 -4.161843097074748 0  2.899554986766562 -4.094824942729611 0  2.927535498261719 -4.188487700109889 0  4.928383615131086 -5.587971383557734 0  4.900931428324748 -5.750129471075442 0  4.779436189106134 -5.600928217059192 0  18.54962512059702 -7.158958833936333 0  18.77205075037551 -7.716099837249645 0  0.4354596714621941 -7.431867651981739 0  0.0976999005477559 -5.102284871628889 0  0.0719172729132751 -5.120602969191662 0  0.07815668304098367 -5.090072432278758 0  0.7603310447277067 -5.70016921355376 0  0.7893489437694008 -5.662658308020887 0  0.805166104311267 -5.705259130833089 0  1.917764985377257 -4.802936025956805 0  1.997767313151101 -4.817257628823705 0  1.436670089690722 -8.474600123449935 0  1.480274428371679 -8.514953741536548 0  1.410144384961715 -8.535499369882579 0  2.669775605269434 -6.961495668959063 0  2.569558695910665 -6.995295424009415 0  2.602796513778825 -6.895908865020157 0  0.07414187189977106 -3.648828271824794 0  0.1040478525030508 -3.664440423354264 0  2.583346540815395 -8.3285482999067 0  2.661930073862287 -8.391013153449524 0  0.6879299997745747 -9.544619343464678 0  0.6716982500219437 -9.498169138073868 0  2.012463446669852 -2.109421053102775 0  2.042134415400715 -2.028009988343183 0  2.08070467562451 -2.072105949885488 0  0.2442527929234046 -9.045914817228086 0  0.2418125271324136 -9.009375353644545 0  2.315026449174292 -7.283716906543487 0  2.353167059523209 -7.353251753900086 0  2.25810669545603 -7.36048639449838 0  1.719536727559637 -8.92680370739807 0  1.765218504639236 -8.986058333539118 0  7.642042563135815 -5.011857628648542 0  7.494466579901804 -5.170558240071911 0  7.398824811112577 -4.948350576480797 0  0.09818497366042145 -9.24646295687042 0  0.0684612013767758 -9.258950604582886 0  16.68477924018924 -8.897893161725346 0  16.2820073213022 -8.90676578974761 0  16.62148883286391 -8.524613765838859 0  4.252302898646864 -0.2457159012255179 0  4.327914633951941 -0.3764814823034683 0  1.570767162243627 -2.964589948223561 0  1.642897787195841 -2.969477777611877 0  1.605963371292129 -3.026209188098132 0  0.0886341664552468 -4.948408396958223 0  0.1035131744526545 -4.977293311575132 0  0.07008460301387487 -4.974683009157708 0  12.55354153033505 -3.627041895919568 0  12.8854652746708 -3.623951224563942 0  12.81652737085437 -3.943719995244459 0  1.747529127812003 -4.442596136411453 0  1.827276004298451 -4.415562396409397 0  1.824529891515722 -4.477939032837547 0  2.266226547880883 -9.787859444020588 0  2.351202100557401 -9.780286566829231 0  2.341133393769248 -9.855886533448892 0  2.817075689577138 -5.15026630312614 0  2.855304881021439 -5.264772143260502 0  0.07200925962623472 -4.014120096377185 0  0.1036676256393285 -4.010222030689945 0  0.08679739600396807 -4.039733998891365 0  3.212826484122154 -2.77294960154804 0  3.169619851998517 -2.663168405277621 0  1.427061053812505 -7.323633032995124 0  1.496214686910534 -7.347021804128757 0  2.296886027399356 -0.1875542183934202 0  2.25777429949428 -0.2534243566791154 0  2.217046138748474 -0.1832599770327308 0  2.399100638382748 -7.13033889651273 0  2.44980772449421 -7.191362940191259 0  2.359379727130008 -7.215458222266664 0  15.90840137894504 -9.229186680582842 0  1.590358231236429 -2.656060963707467 0  1.645708534437922 -2.691942422276296 0  1.612814344119837 -2.735821911188057 0  0.6551090235429715 -3.463389106294655 0  0.1662752440670978 -2.79825935160066 0  0.1546324467765761 -2.765945195259648 0  2.694969710303063 -4.050492331821603 0  2.716595551923579 -4.138561144874272 0  2.624572277411374 -4.120873137001405 0  0.03055792645260347 -9.173050551242852 0  0.03055792645260347 -9.200983512136709 0  0.0791652756299559 -8.227659439262542 0  0.1094546868332031 -8.246935990724513 0  0.1625055550246337 -5.125967530177788 0  0.1606151215463445 -5.156780519177725 0  0.1326016609693212 -5.149482856770157 0  0.0481997610351268 -6.762180367474128 0  0.0785406251680616 -6.756408993251776 0  0.07827798805701036 -6.783461376929441 0  3.68016467622488 -0.9346915564642977 0  3.719674303279861 -1.083807587782369 0  25.3414178396408 -8.339823745996355 0  25.97373187521752 -8.342368320202256 0  25.65584921447771 -8.869380012129556 0  1.716561988079437 -0.1895921721839686 0  1.702261616701765 -0.252589537530902 0  1.653214422267752 -0.1967150448523949 0  1.140449867092515 -3.061463538967431 0  1.085987247452964 -3.05605033686648 0  1.113173668756126 -3.008937767552911 0  0.07457519020195491 -8.565579936816036 0  0.1049715416309311 -8.588948317998719 0  3.467675884536174 -8.778213298461825 0  3.418793568983855 -8.879967016936703 0  3.355000114223845 -8.788927816955429 0  0.3749504322959769 -2.04312817860934 0  0.3428096181910156 -2.031698768774467 0  0.3805381751878798 -2.012074957658163 0  0.07650894119500862 -4.919434318970152 0  0.10993751263379 -4.922044621387577 0  7.68321495695764 -3.091038106680583 0  7.483352957428208 -3.064323517174487 0  7.612535459746981 -2.857053429759953 0  7.586669944274899 -5.334136576965185 0  7.343452192251661 -5.27062952479744 0  0.9806864170072558 -3.12259498621616 0  1.036554076549706 -3.144105829735246 0  1.002452505710242 -3.181839674195229 0  0.257315413325971 -9.524822490589818 0  0.2681089322745986 -9.559438153486985 0  0.2347725338363276 -9.554569945777246 0  0.1006183144444037 -5.893608455827664 0  0.06928181420982504 -5.907589761592014 0  2.157467620539752 -2.06115916024373 0  2.12779665180889 -2.142570225003322 0  1.23620861115382 -9.542517632380456 0  1.244564910023392 -9.593620403262706 0  1.19326489733194 -9.588575299121512 0  14.60163585567121 -6.239787388000943 0  14.5230803350417 -6.584245312551726 0  4.697754059504087 -5.506589132960857 0  4.534682397046121 -5.458285295224634 0  2.503872118616272 -0.3703778587842317 0  2.591303864270461 -0.2988847344780128 0  2.593593478645595 -0.3817832594709358 0  2.9004411316954 -6.686802382762434 0  2.813735143516706 -6.617585911098486 0  2.897416678626884 -6.588982804592633 0  1.35471066037676 -9.888694761410608 0  1.330716080131893 -9.952802962942895 0  0.3925399244848329 -6.814254883630719 0  0.4160323305313085 -6.849604193588823 0  6.591759245937819 -2.915553856172262 0  6.777997186113339 -2.916597723972285 0  6.729304148461619 -3.079602397280477 0  0.2312224910950267 -7.191678708363559 0  0.2112345182347752 -7.22274305011678 0  2.744576063418737 -4.23222390225455 0  0.1086921692184291 -5.60480545128062 0  0.0837837460034212 -5.626980193726446 0  0.07786591738932813 -5.598871271822786 0  13.96558331814446 -3.545622855323601 0  14.37966548335588 -3.278428690876194 0  14.3329259085727 -3.648024677850814 0  2.430110877916235 -7.065233412948716 0  2.339682880552033 -7.08932869502412 0  1.357697075263514 -7.843098997588005 0  1.36784444479866 -7.911689390515783 0  0.236298551607792 -7.546609379378928 0  0.2501555887006521 -7.581963545549598 0  5.373873819977643 -9.1462060883322 0  5.477115184460001 -9.000888428327178 0  7.63847549521995 -8.336022552759859 0  7.697291534882496 -8.09483959547525 0  7.819407089897741 -8.229739254738865 0  26.54850061652189 -8.295305068950025 0  26.98206437720338 -8.840510450527885 0  1.590352776014976 -9.042784911826987 0  1.596203487023313 -8.975371673326872 0  0.716290925757896 -8.92690757961911 0  0.6814144644849573 -8.951944467767571 0  0.6862996331310143 -8.900241124717638 0  1.254498562258387 -6.873566744379602 0  1.310237668335315 -6.887125297947182 0  0.347860488195515 -3.853298962736972 0  0.3284427490055126 -3.881503808315303 0  0.3089969304666695 -3.846704354926401 0  6.07306005995957 -0.489659068910651 0  6.054922210561735 -0.6595635932914385 0  5.906124314447428 -0.4913397168892217 0  10.28563693989136 -3.282609604766785 0  10.06262227615289 -3.498285962056813 0  1.690572259408043 -0.4061319656305313 0  1.757308654105461 -0.3927049109192398 0  1.185613151566301 -3.621653938855109 0  1.244561820288444 -3.619520549822031 0  1.216731844280908 -3.672487055544687 0  0.5840568244950646 -0.2142564650951577 0  0.586252010923527 -0.2572715457809469 0  0.8227301463081904 -4.104784461138533 0  0.8543074724963109 -4.149251092914493 0  0.7113118126774758 -0.4075456303821134 0  0.7330290503438164 -0.3632143219948505 0  0.7559039591449785 -0.4101931118273265 0  1.329416830989729 -3.891162650164476 0  1.359297928771975 -3.957082188146203 0  1.296692987200995 -3.947481635549506 0  6.098894531217713 -5.332355354745411 0  6.033841472210959 -5.1649662212422 0  6.21108979375601 -5.190135054930777 0  0.2078428259811016 -8.728844248630352 0  0.2089617931857966 -8.769953789538206 0  0.6262377729244903 -7.064907061903011 0  0.6772265890496527 -7.071343066642457 0  0.9075091700026086 -2.123948335939903 0  0.8650498670196232 -2.172150687887202 0  0.4382733906818164 -7.1816557192078 0  0.4106270102559506 -7.206520546040546 0  0.3969493088729124 -7.168634502949494 0  3.786918275368054 -3.651367708245025 0  3.909087858972871 -3.657429730132678 0  3.833546504996562 -3.754331597537399 0  1.995418719635897 -3.491272752579474 0  2.007322478810382 -3.581648833220007 0  0.05551082578822175 -6.068459537621966 0  0.04289028255866612 -6.038178966105074 0  0.643585928048795 -8.79911678417303 0  0.6655330304299412 -8.755835734775674 0  0.6786720496062699 -8.789305503382304 0  28.12764684518732 -4.674108164184464 0  27.80681570138695 -5.089548843156882 0  27.63095111471719 -4.594213048844509 0  15.92367455726412 -6.759882958916549 0  16.10771257613938 -6.32469545174955 0  16.37784297834608 -6.618198347979101 0  17.87167557975306 -4.1481436766452 0  18.35229029651661 -4.145965944117673 0  18.17544015942649 -4.633487632040663 0  3.52794204441302 -6.516265538017876 0  3.474184417859108 -6.393732441525286 0  3.579290764399216 -6.435094403621656 0  0.570927986256665 -6.736670531862401 0  0.535255928244176 -6.748386068900597 0  0.5562752117982992 -6.709750270816683 0  2.990927387723135 -1.003222030090303 0  3.063029445167636 -0.9070089900179852 0  0.386721994562361 -4.876673443602098 0  0.3482210578069633 -4.884216295947194 0  0.3714745750097528 -4.843402822744568 0  0.3433955095405476 -3.912544070392688 0  0.304531951811704 -3.905949462582117 0  3.84278939073268 -0.6271083248198668 0  3.894081941629423 -0.4987906860497642 0  0.4979279775774295 -7.945488636407743 0  0.9823751334532815 -3.036133848963729 0  0.9587530222307592 -3.076927828378538 0  0.9263401678373206 -3.02820053558609 0  0.04945719637826862 -5.078815650913061 0  0.07523982401274765 -5.060497553350289 0  1.815143144959036 -4.605086116623667 0  1.870506381081817 -4.649747008826196 0  1.824355608597518 -4.678219273275688 0  0.1965020055060691 -5.16401950686252 0  0.1665981114507531 -5.187534833454889 0  20.25089323052675 -1.396463533005598 0  20.77748034851476 -1.422007003825183 0  20.61831993895061 -1.950600897760363 0  0.07908289424951676 -7.895231613218656 0  0.0503624471097428 -7.877386296592345 0  0.7816011867793939 -3.441626233382809 0  0.737126203966211 -3.472907105308419 0  25.94073132658557 -9.435962293167728 0  25.30841729100884 -9.433417718961827 0  25.9453303404639 -0.552533497636734 0  25.61420019882594 -1.111729369715754 0  25.26216926679444 -0.5591958720790196 0  0.04780901977898111 -4.019022736199918 0  0.06467924941434156 -3.989510767998497 0  1.008937642981824 -0.04902200109172128 0  0.9605279243517337 -0.04902200109172128 0  7.471169131496972 -9.3492335947725 0  7.617417126167046 -9.173336007010235 0  7.626254191379467 -9.383894198747051 0  2.62106966549011 -4.756495046828475 0  2.575983268257584 -4.682758193457032 0  2.664751903861891 -4.678317105976856 0  0.09727637725315219 -5.681400609864208 0  0.08614823936255789 -5.706356747557141 0  0.06305799917656962 -5.692374772605493 0  0.5570845072889714 -0.7419525514073637 0  0.5169880576133856 -0.7371292116864439 0  0.5359160064866124 -0.6967304811325263 0  0.1206563879852176 -0.8174088838102591 0  0.1312464883203397 -0.7825219650293747 0  0.1515303002155228 -0.810436680635636 0  1.500963738703614 -2.967639634352503 0  1.537898154607326 -2.910908223866248 0  0.3623026733984283 -2.086720585624005 0  0.4000312303952889 -2.067096774507701 0  0.1122922126569676 -1.27285518977573 0  0.07724104523103037 -1.27577547951959 0  0.4992987313234956 -0.093206640737165 0  0.5257668183285222 -0.06255098215569177 0  0.2134304932404216 -9.576421790266691 0  0.2026369742917939 -9.541806127369526 0  2.397656469734368 -1.627100407598873 0  2.406596470084811 -1.52768756523037 0  2.461694451083751 -1.579665720297616 0  0.5883093433101845 -3.203834124900551 0  0.6056586317524175 -3.16072210502769 0  0.6325785811191338 -3.186442095603442 0  17.11548007104583 -8.897332138566044 0  16.77599855948412 -9.279484162474795 0  1.688964202576997 -2.633634539929891 0  1.711420315460405 -2.713395487410481 0  1.918141597022792 -4.592829200211298 0  0.6782808793940092 -3.183156666843604 0  0.6609315909517761 -3.226268686716465 0  1.27527113109292 -0.9059379854589285 0  1.295028450510912 -0.8443574166672825 0  1.33149829062236 -0.8786174963179221 0  3.022357707824884 -9.943397733478417 0  3.061245716858849 -9.84747611527381 0  6.7536397920196 -9.264855924204047 0  6.767079495607714 -9.482545458027847 0  0.1421519793331605 -4.132019582594942 0  0.1660826605075076 -4.154224602738528 0  0.1327811928602145 -4.156755763947658 0  1.389321388726055 -8.443953033611155 0  1.459451432136019 -8.423407405265124 0  0.08676315048839278 -5.444590598827662 0  0.06061781313358239 -5.459176716458108 0  0.06947324674587563 -5.43023354055412 0  1.029990655991984 -7.032203220249274 0  1.080543906796404 -7.04178885285736 0  1.044366210259101 -7.091816703891357 0  0.7495526801311243 -8.895839696331937 0  0.7446675114850692 -8.94754303938187 0  0.8548808340154679 -1.460952431626567 0  0.9081034903218477 -1.483032573950379 0  0.8710083802354553 -1.518631489750629 0  4.100381909449499 -2.024608235380316 0  4.161598285637982 -1.902697189225503 0  4.236023407299387 -2.030681254945384 0  6.034892781676259 -8.069572187597263 0  6.19495536261266 -7.908901274308722 0  6.204429463140926 -8.073831648199626 0  29.12849681759798 -7.389890869273251 0  29.43638809269333 -7.82180201477344 0  29.06197136388356 -7.747693845895938 0  0.4041616510685007 -4.914954351651067 0  0.4274151682712883 -4.874140878448441 0  3.645447947022362 -6.322585295938707 0  3.699205573576272 -6.445118392431298 0  1.714531305007648 -5.610923538536708 0  1.784786144486445 -5.610611203941475 0  0.09439806744984303 -5.65016650404842 0  0.0635718156207421 -5.644232324590586 0  28.91284851895747 -0.9020766242376723 0  28.49533058587584 -0.4457510302220822 0  28.87266233035854 -0.4563255940155901 0  6.568335623445773 -8.074655688473753 0  6.386123248938524 -8.074632734706721 0  6.546704418584575 -7.913183688678115 0  2.085575991081559 -6.600582189052311 0  2.12205840502982 -6.675954250807845 0  2.04209577317085 -6.670242336655759 0  0.07174800335439357 -3.536285483145772 0  0.1013212833473709 -3.552153218724914 0  0.3488343458936605 -4.513245074268847 0  0.3713004936956068 -4.485376972434899 0  0.3862331182632577 -4.519669336263297 0  1.476549917200934 -9.87741006681131 0  1.511989778662052 -9.941518268343597 0  6.267832186010583 -1.859508955672998 0  6.079648879211419 -1.726744566199472 0  6.25493688583332 -1.685728857635101 0  0.2528037036992146 -0.5750303956289313 0  0.2766415243668199 -0.5977455030312555 0  0.2408931541361987 -0.6099633483426601 0  1.885128745793963 -6.645228973874813 0  1.861467197733997 -6.714642907796769 0  1.815189354594629 -6.63654640464123 0  1.712177410776713 -3.094427391378196 0  1.675180740848996 -3.147199384369628 0  1.641097326316626 -3.083869010477879 0  0.0732775935290082 -6.721900626885953 0  0.1033558205508918 -6.743181636341266 0  2.521010791802095 -1.645717104659721 0  2.56065682481788 -1.711217187404767 0  2.492400483749098 -1.744578645411165 0  0.3969484587456726 -1.984627387846959 0  0.4202114768593219 -1.946706374085595 0  0.4359420074064886 -1.985583353731672 0  1.266703983139298 -4.003604795962692 0  1.23682288535705 -3.937685257980965 0  0.55215822129861 -6.676388954270342 0  0.5460102880014368 -6.631880149661312 0  0.5857993365136167 -6.653525929169456 0  0.5571637959304478 -9.057098080958363 0  0.5929739512319756 -9.079033946753466 0  0.5641288861115861 -9.100023218581709 0  4.583761438136015 -5.101507959114811 0  4.52086387048303 -4.967444101630918 0  4.627864517721342 -5.004608197809138 0  3.866379631808954 -2.277221007848742 0  3.987379948643094 -2.276112054537503 0  3.931357050816237 -2.387834236278643 0  0.07648995308061401 -5.818247970120471 0  0.106245904977019 -5.833026654045071 0  0.5040578730246814 -0.7707641021062042 0  0.4828893722223242 -0.7255420318313668 0  0.667491668145793 -0.3960394385574411 0  0.6903665769469551 -0.4430182283899171 0  1.540475959523221 -8.322400538815806 0  1.552244618817568 -8.395919138971472 0  1.495031473806339 -8.380535894948238 0  3.911374050319843 -0.1301559128932706 0  3.78950099662018 -0.1301559128932706 0  0.8216788368238355 -1.292510047661218 0  0.8144969083640774 -1.337928134646075 0  0.7818741564432052 -1.296666073097356 0  0.07880132328733325 -2.236838624577318 0  0.1115865688855102 -2.236940319455809 0  0.09093534960496896 -2.261353914802375 0  22.71061709583907 -9.38712682341788 0  23.08962312231452 -8.80359502875188 0  23.38949032280282 -9.416468205334002 0  2.486055881042137 -8.937437316739839 0  2.505732908670126 -9.017642917242689 0  2.425058510023213 -9.013757770879055 0  1.704651639704281 -3.201772690852827 0  1.633571555244194 -3.19121430995251 0  0.5767346273502731 -0.1633626170173326 0  0.5322427620771109 -0.1625588917287146 0  0.9456497228491809 -9.185949030277182 0  0.9143975244027445 -9.142052425243563 0  3.177201976010529 -2.477475545892464 0  3.119810338770943 -2.569665517599503 0  0.2183930913268455 -2.045276853999682 0  0.2508193063258144 -2.043244013634125 0  0.2424207167315906 -2.077764152610032 0  2.125193666971438 -7.622426380904728 0  2.042499014995101 -7.604181809762886 0  0.1011280140124882 -5.473365136046245 0  0.1099834476247814 -5.444421960142257 0  0.8534961756443167 -5.717276718432942 0  0.8244782766026244 -5.754787623965814 0  0.04885114926308987 -6.930042626055181 0  0.07692187571999654 -6.922795541040578 0  0.07655501690643796 -6.948811998541844 0  2.358330606907757 -9.699281172698544 0  2.433237452796121 -9.767308262126848 0  6.842114254809989 -2.767275055878835 0  6.979659157333788 -2.93132359698705 0  25.968996455036 -1.610026834389583 0  25.28583538136654 -1.616689208831869 0  2.493613359803465 -4.690391593369069 0  2.537295598175248 -4.61221365251745 0  0.47910233390607 -7.190373591693438 0  0.4654246325230318 -7.152487548602386 0  7.849816894505812 -9.406523401423533 0  7.703568899835738 -9.582420989185797 0  8.636200330307362 -6.013066954229364 0  8.396997242865041 -5.928928163428944 0  8.595986272896265 -5.769378252270888 0  0.7189034210684895 -8.777648118649864 0  0.6969563186873415 -8.82092916804722 0  0.5738928057319832 -3.943171484529996 0  0.614970151365636 -3.958861499939421 0  0.5894414021154084 -3.987145546414687 0  0.1071091651812193 -5.722106538885166 0  0.0728907871046367 -5.733080701626451 0  0.8025424813287518 -6.419671231871924 0  0.7921162463730411 -6.370038767124857 0  0.5112260256209655 -2.937614497332216 0  0.5581973509646634 -2.938723083681251 0  0.5326077263333353 -2.975403680041014 0  2.203374888588467 -6.390951780181121 0  2.208668426527275 -6.291522777423355 0  2.264053073571148 -6.341866920981575 0  0.8940489739733408 -3.689130943940925 0  0.9201436083834516 -3.727262812881131 0  0.8654632243979794 -3.733921668425534 0  1.064025716818037 -3.096718625018588 0  1.036749518481647 -3.044192853604069 0  6.918702698728165 -6.639006932954545 0  7.112614596425836 -6.637947457346264 0  7.045016354226375 -6.816736374872802 0  0.3125752081587123 -4.506459745407404 0  0.327507832726365 -4.540752109235801 0  14.71437610612648 -3.735055007483396 0  14.30029394091506 -4.002249171930803 0  0.02599218144443327 -9.230675781654943 0  0.07577815641217001 -0.7721700004017737 0  0.1051699027289263 -0.7561576095304972 0  9.894354167659811 -0.9965355998656191 0  9.808039311502277 -1.242664803738116 0  9.61806247877214 -1.062881244970495 0  3.41855081758899 -3.462008031960472 0  15.01748953517671 -6.226094004098925 0  14.7286846494862 -5.8973282659741 0  0.9455859636489983 -2.073337531154646 0  0.9536561234887557 -2.118752771105727 0  0.4640529826861748 -0.7934909205017657 0  1.254751569102652 -2.64842512315704 0  1.31890763483103 -2.647757310590175 0  1.278831857419572 -2.706641189329517 0  0.2716878401552343 -3.783962543001148 0  0.3094511047009387 -3.786923506154658 0  0.2906514051109674 -3.81553854619456 0  10.01389618282878 -1.412162610331317 0  9.737604493941106 -1.478508255436194 0  0.6450193470323775 -3.921308494406852 0  0.6605679434158027 -3.965282556291543 0  14.11538912615312 -1.439992029161771 0  13.83316697147238 -1.134708979488534 0  14.12397472974705 -1.075173831720643 0  1.926667946447367 -6.857846006439005 0  1.949045351479612 -6.944668779763557 0  0.4158728526402626 -2.888735517801203 0  0.3977343068505146 -2.852111156411267 0  4.611551679595465 -9.162800436202891 0  4.786025610101198 -9.147874499055995 0  4.100042543742587 -2.736954546964729 0  3.978123312432261 -2.73041815693421 0  4.046954236022593 -2.624191766220394 0  1.817337387605303 -3.629809935080103 0  3.294358194651872 -5.776115404265646 0  3.408796743185631 -5.803163009308473 0  3.344076977365223 -5.883954180312029 0  2.630545560754229 -6.813315514150608 0  2.614133230806743 -6.707282587015061 0  2.686601093190109 -6.756076182834258 0  6.270327334483204 -0.4885086371719645 0  6.121529438368897 -0.3202847607697468 0  1.390860477091 -0.8675374004002396 0  1.371103157673005 -0.9291179691918856 0  1.297989169427774 -9.600808378161052 0  1.255045455605895 -9.646866044902106 0  2.679246591883569 -0.3942931156944693 0  2.591814846229378 -0.4657862400006882 0  0.2381318676184385 -0.4960612360009549 0  0.2737940443399012 -0.4798088621209873 0  0.2689526859989719 -0.5089316096690553 0  0.1789544563229661 -4.203689325858897 0  0.1942539510947316 -4.168988783090419 0  0.2164965333831361 -4.193717324858071 0  2.02030284806124 -3.275934786688146 0  1.941589249272816 -3.273813083117019 0  1.969948211369829 -3.206609459734997 0  3.447588990468319 -8.586263230929049 0  3.321715155019573 -8.598255117689513 0  1.750133125438412 -4.916058023578526 0  1.674342622464245 -4.907770218353137 0  0.8710416061445372 -1.293003896148412 0  0.838418854223665 -1.251741834599692 0  1.445003854318642 -6.013697584220232 0  1.421141454224966 -5.949276584220915 0  1.483900264229543 -5.943765502663451 0  2.529950792152535 -1.546304262291218 0  1.01930822002473 -5.324581377956567 0  0.996170543631667 -5.277166905977469 0  1.04926279768625 -5.276998434292049 0  0.08371564751363536 -1.146829344029323 0  0.1008241676957979 -1.175079967882188 0  0.07061819501406319 -1.176249797697349 0  2.905608020962276 -6.495787198418793 0  2.897278047288347 -1.713841918612137 0  2.805926715616028 -1.709767913363483 0  2.84631078546855 -1.625403612619038 0  1.21905581135421 -0.3051507465815924 0  1.251830137787589 -0.347346816502208 0  1.198260796793207 -0.3676256341992374 0  0.5910107549249393 -6.778759248756201 0  0.6120300384790625 -6.740123450672286 0  0.8883219731209913 -7.437310688142906 0  0.8637145157114823 -7.380473816846589 0  0.9067038212644842 -7.397860401381371 0  7.18444571726917 -6.45693452747754 0  7.310759372767381 -6.634663969395797 0  3.887749860727567 -9.609070105956791 0  3.941715000100432 -9.698242263415661 0  3.817602433965922 -9.709865688048311 0  2.830253901196077 -0.8440342979534288 0  2.739244026745915 -0.8450983121340192 0  2.781744606738501 -0.7518148465605279 0  24.01863759065677 -9.416468205334002 0  0.8591961712041218 -9.766554054799279 0  0.8877083341143184 -9.722648270084324 0  1.009116580487778 -2.112717678755316 0  0.9710397868413878 -2.163328483540572 0  0.9348880739953458 -7.354641907346435 0  0.9594955314048548 -7.411478778642753 0  0.1599682413764967 -4.107733973315586 0  0.1266667737292035 -4.110265134524718 0  8.019421434005135 -8.185176347758125 0  7.96060539434259 -8.426359305042734 0  2.919908530937249 -3.724305323119248 0  2.965485469378413 -3.822444997950882 0  1.682153324152146 -1.470193109226337 0  1.703824249378634 -1.524154736294332 0  1.636791866300769 -1.524501986491261 0  5.096834290754671 -5.591749781157372 0  4.975339051536057 -5.442548527141121 0  0.1182754102338617 -3.210174234895215 0  0.1527186807046128 -3.210363985203861 0  1.371729891893025 -5.693466056301594 0  1.328498855394423 -5.734961863205399 0  1.299405970830687 -5.676767136306312 0  1.419006715546768 -6.485936353411533 0  1.35594278927582 -6.474004568646666 0  1.388740715827609 -6.423404433052719 0  2.637763245661455 -1.694815430259728 0  2.609152937608458 -1.793676971011172 0  1.770205680363656 -8.02181254633601 0  1.743342805156029 -7.942268198680699 0  0.9626031366603698 -8.312246425487466 0  0.9279941338781992 -8.343354967980371 0  0.9131961716693375 -8.289094847856513 0  1.801701553919523 -9.299900570752985 0  1.849111143811417 -9.362750381172301 0  0.4552752842393577 -9.230502480312374 0  0.4245306711608769 -9.248522270279501 0  0.4280268549610167 -9.207294365223788 0  1.278773620760775 -1.995347259848316 0  1.249627769649997 -2.047934705299082 0  1.221745631395422 -1.996233973940016 0  0.05864663240378221 -7.709497206703912 0  0.02419065373699425 -7.723463687150838 0  0.06194178147322305 -7.651721793176514 0  0.02748580280643687 -7.637755312729585 0  2.297429445741173 -0.3139296544837613 0  2.217589557090289 -0.3096354131230719 0  7.469692682578637 -1.889628079002851 0  7.678592886618002 -1.88505702723154 0  7.61655805160834 -2.101830963140351 0  1.279317227488562 -5.627344311920372 0  1.25247433504645 -5.574978878849222 0  1.315794114887176 -5.582905896331356 0  0.05968347513790384 -0.9522637082832173 0  0.02680916001260414 -0.9662851780399375 0  0.5164861632861211 -6.688104491308538 0  7.161117486062683 -7.009844018816031 0  0.2965834683251352 -0.5277458930533072 0  0.2609212916036725 -0.5439982669332748 0  1.705067648803146 -1.984571900649984 0  1.779343977487564 -1.975911869030396 0  1.760113834730793 -2.042614040890665 0  6.744490692485854 -8.09202476825093 0  6.583909522839804 -8.253473814279538 0  12.56473511272483 -0.8485179793021853 0  12.39770310474541 -1.107089333168525 0  12.21205076805356 -0.8166006003152839 0  2.39619207375495 -3.733727676035714 0  2.484731014693132 -3.76591275297836 0  2.435022203985788 -3.835839817558274 0  1.499898769765373 -1.525306196181609 0  1.448626885422073 -1.55632013347847 0  1.429734863226189 -1.505917799369808 0  3.489025433922532 -1.342646882326711 0  3.524802072738023 -1.231891312604209 0  3.624786453773837 -1.29926665462856 0  1.308657178669202 -0.3394683141913974 0  1.287862164108201 -0.4019432018090434 0  12.96475225455183 -3.28541390819626 0  13.22773809507115 -3.602092007521151 0  0.4114222665497245 -9.282719790659529 0  0.4297597945930338 -9.310574717887015 0  0.3894029607035421 -9.321564123178458 0  1.383466423207636 -5.586844118985362 0  1.356623530765525 -5.534478685914211 0  0.9415164523459882 -5.284629728706665 0  4.311075709568158 -0.1252333643603656 0  4.1756121555558 -0.1204825368651523 0  1.360739598467164 -5.967229025224539 0  1.399636008378065 -5.897296943667758 0  0.1224156588353331 -0.1041030541176866 0  0.1372856906113551 -0.0758151269977283 0  1.475388956961332 -1.614684220275105 0  1.405225050422148 -1.595295823463304 0  1.245860738848464 -4.046445602812521 0  1.236815038936058 -4.103925095751274 0  1.197788181382943 -4.051287911332904 0  0.5704006741351879 -6.999342017134526 0  0.56774997948364 -6.951060180306441 0  0.09724514920055327 -5.319405854264764 0  0.06545951028325625 -5.314253384339162 0  0.08256824774632676 -5.289655618581373 0  1.401154295344249 -0.9783963857510445 0  1.46272072343481 -0.975577999653134 0  1.433409674637414 -1.035936512129975 0  0.09735359612150951 -8.975823911054828 0  0.1251742985309043 -8.95292444546129 0  0.1246172098878731 -8.988195803696051 0  6.226060668002123 -8.235303647995263 0  1.045980112582406 -9.674023005384086 0  1.01009650635134 -9.708061868834141 0  1.001192655755027 -9.649965979812563 0  1.242063513413649 -2.592934425712415 0  1.201987736002192 -2.651818304451757 0  0.1746094408410048 -1.643668956084291 0  0.1490382453331449 -1.619016584884761 0  0.1554774997732054 -0.9895202820936095 0  0.1259612015295311 -0.9957450709268585 0  0.1391996773486106 -0.9617063362539771 0  1.925770981063199 -3.339912837024185 0  1.875416344371788 -3.270587510071036 0  0.05706496886229573 -0.8937997592935609 0  0.02419065373699425 -0.8798882681564262 0  0.6025889356116902 -6.069675410608188 0  0.5934196540029077 -6.022267389055974 0  0.6322811016061429 -6.045295866725859 0  0.2274002909601194 -5.142953714610312 0  0.2333832808645298 -5.173708028887475 0  2.26431936306283 -7.222692862864958 0  29.61395207195809 -3.429203836307373 0  29.61395207195809 -3.072060979164516 0  3.313136739886476 -6.584701641114039 0  3.316224961630358 -6.676676501702158 0  6.246377950435051 -1.520385533625259 0  6.434561257234215 -1.653149923098785 0  3.855079547451481 -5.181020245173353 0  3.804050144020465 -5.065670875653053 0  3.930202451453001 -5.088331581548954 0  0.5518644981645711 -2.633319215977586 0  0.5372335887964752 -2.674523711363768 0  0.5100888727753752 -2.637581037330063 0  2.328348382197159 -6.283834402791822 0  2.323054844258349 -6.38326340554959 0  0.246396841046078 -9.979744302309204 0  3.076943102184828 -3.646339681082825 0  2.972698690889123 -3.63967796789413 0  3.027560257510634 -3.551443288703789 0  0.1531044812196924 -4.262681958826331 0  0.1692712495795625 -4.232117770909245 0  0.1850302702514988 -4.258982055543637 0  1.004056808320504 -0.740848866341282 0  0.9790606229439263 -0.7805583000636291 0  0.9570485251313663 -0.7337022049246009 0  0.7546885930480194 -5.573083120439971 0  0.7379382623724737 -5.52636853542799 0  0.780655598011478 -5.5277523691287 0  1.968509974077959 -6.659097875965289 0  1.922232130938591 -6.58100137280975 0  24.01365061170824 -0.5876838000989402 0  1.054849135078511 -0.7435333290488613 0  1.032837037265953 -0.696677233909833 0  0.07695442831927934 -5.993127166026378 0  0.1086512072580916 -6.001583299935321 0  0.6923412141031768 -7.113738795069455 0  0.7236055633514464 -7.077481742540956 0  1.824331968840639 -8.861835981880134 0  1.895857498569912 -8.861350197272124 0  3.419372803437785 -1.169880479140295 0  5.864929980495322 -5.60794766787129 0  5.988728470481954 -5.467461379214757 0  0.2909170593578363 -0.4551065465686657 0  0.3118734499476474 -0.4242694046495608 0  0.3255712533102439 -0.4618420938699828 0  1.738718630670725 -0.1266334942757403 0  1.78776582510474 -0.1825079869542465 0  1.856731344079247 -5.609909753549795 0  1.813209247008006 -5.677156885850173 0  4.704611037120998 -4.884454669552309 0  4.767508604773983 -5.018518527036201 0  0.3297750328641307 -2.472736333489129 0  0.3242017257022916 -2.509049611968863 0  0.2964699801085615 -2.476352213459434 0  1.665300732087104 -6.412883236993676 0  1.678869284770148 -6.333119393746468 0  1.717631413051404 -6.38504794386937 0  0.2183478712126927 -6.938307420543992 0  0.2227984155307148 -6.900189115896598 0  0.2429799967322346 -6.924310274986363 0  5.749206779555879 -1.685585515029222 0  5.902309895571047 -1.538239477615878 0  5.913650463018985 -1.700310505574918 0  1.991948836422425 -0.5835390496878379 0  1.920832834008197 -0.594841465551136 0  0.7388715938447419 -5.437749458272611 0  0.7227374863736955 -5.49040157487714 0  0.6977038128825086 -5.447113249033032 0  0.3648076446407114 -1.973197978012086 0  6.39016894372255 -3.088903360001126 0  6.250944224021275 -2.929256212064757 0  6.403841488584824 -2.918911381544086 0  0.2036247375676776 -4.144252601737702 0  2.595993441474613 -9.023677965900669 0  2.534996070455689 -9.099998420039885 0  0.2337130044818938 -2.368768333843101 0  0.2113484630503031 -2.34001074679295 0  0.2493854964409223 -2.342618185264091 0  1.825768298256769 -4.94325680441434 0  1.775950952063759 -4.990249133584481 0  1.350002367799837 -5.785788902244089 0  1.277678446737498 -5.769089982248806 0  0.4372742385503123 -0.6731240653518018 0  0.4017911658400628 -0.6891053686035971 0  0.4112866603377761 -0.6498723387630978 0  0.1995523036329949 -3.240885547702811 0  0.2151494150629993 -3.272821326697374 0  0.1611415296920757 -1.702156477398293 0  0.1277024966067337 -1.706806171577735 0  0.6967704814102387 -5.53573232618841 0  12.54833842989422 -1.368080446268125 0  12.19565408522294 -1.336163067281223 0  0.2193436740912755 -4.25802121485454 0  0.2031769057314055 -4.288585402771626 0  0.9246514513912949 -3.11466167283852 0  22.7623547424608 -7.668057414277278 0  22.86698840700468 -8.241222986002562 0  22.30611623080689 -8.201088075110473 0  0.09713566789355355 -2.927163468774065 0  0.06867111586044494 -2.945673153582445 0  0.07714731497877381 -2.9119427676079 0  2.732460686756943 -1.870508672338356 0  2.69703246077832 -1.962427091439041 0  2.650831132473412 -1.869193632966819 0  28.34628324840067 -4.408141774672174 0  6.592342869356346 -5.279006158314825 0  6.708298361579741 -5.091800725256839 0  6.783068729797481 -5.290267812262448 0  3.869764092217835 -1.498015156850788 0  3.762750749374044 -1.456288996542682 0  3.883660303199241 -1.400697736717182 0  0.07859578104086751 -9.779744678018007 0  0.1083092210393435 -9.779730883419051 0  0.08770957975258398 -9.803728338367476 0  0.07817537470367242 -4.704106372910882 0  0.04922646228878236 -4.691704992558384 0  0.07781075155661199 -4.676579809588426 0  0.09240764571061533 -3.211441564347782 0  0.1128414962544824 -3.181490292638804 0  1.962669775400673 -7.976010052190688 0  1.917921240981364 -8.044413850910038 0  0.09684708285833743 -9.873966723335219 0  0.1186873453622042 -9.851879525126337 0  0.5685735658106577 -3.1445113248565 0  0.612842803619607 -3.12711929555939 0  0.1235674398910138 -0.3588353288346751 0  0.124445763285399 -0.3272266413319347 0  0.1505290583162733 -0.3444665535042937 0  14.23321651576306 -0.7272615393939335 0  14.51543867044381 -1.032544589067171 0  4.048604780373356 -2.159045563603899 0  3.974179658711954 -2.031061497884019 0  0.2934815910515347 -6.380997874077589 0  0.2955721331622243 -6.423303207567688 0  0.2657382472720062 -6.406817560458623 0  4.922035417463166 -4.77256880987505 0  4.772719487717261 -4.759323524522973 0  4.850499781006789 -4.633527335618652 0  0.2400138370504177 -6.430338927676711 0  0.2379232949397281 -6.388033594186613 0  1.802960942838993 -9.047498712922138 0  24.79657580578128 -2.646948121619179 0  24.54928499142279 -3.127191744199387 0  24.21039174781065 -2.68659170116646 0  3.664949578787006 -3.645166157918798 0  3.586403962452446 -3.74596181272069 0  0.2886589330228144 -8.441895561426167 0  0.3186531152062386 -8.463719250950064 0  0.2888686534602627 -8.482777245748647 0  2.52576485516138 -9.710107863601305 0  2.518636348811027 -9.791113257731991 0  3.88402347514147 -5.268406836911534 0  3.757871167708934 -5.245746131015633 0  8.806130078865564 -6.100145514128724 0  8.60714104883434 -6.259695425286779 0  0.1306397815032554 -7.105275257606791 0  0.1326873603163357 -7.13258516217361 0  0.1017297312994607 -7.121528596849026 0  0.6600691304868818 -5.4665576139579 0  0.6762032379579281 -5.413905497353372 0  7.722916111804585 -5.464204399502042 0  7.571901724154442 -5.564275684227571 0  3.818314651378358 -6.215212116536597 0  3.698383526624017 -6.221087943775884 0  3.75133542180296 -6.103690775564133 0  4.368614347137029 -9.540960333379276 0  4.256525118023635 -9.421637757852173 0  4.38579179959606 -9.412539139702274 0  3.882382277193823 -3.856522363781639 0  3.760212693589004 -3.850460341893986 0  0.2339004152413402 -3.179160643957824 0  0.2499115132227594 -3.21055176043475 0  0.2163654086530773 -3.209874971707213 0  2.536322682069802 -3.682857023966976 0  2.57515281230064 -3.784969165489536 0  1.270450901371794 -2.093830683351313 0  1.334736175507159 -2.099768595655795 0  1.298531317863599 -2.146551287799726 0  0.467089683323568 -7.784174423837508 0  0.4362757010271761 -7.805699020095615 0  0.4243198701327557 -7.763707763014082 0  0.07774344435077651 -7.223332461769113 0  0.04964957941094283 -7.207241369513212 0  0.07901171628762427 -7.195936959773945 0  1.158129757163204 -3.571777353188876 0  1.130299781155667 -3.624743858911532 0  13.5336474292757 -3.927924083093527 0  13.61293440915673 -3.589386766725844 0  1.010647403890337 -4.156729117631848 0  1.034641864128568 -4.114261888770684 0  1.064880228229907 -4.158540363910148 0  2.743474179913921 -6.682724372483499 0  2.759886509861408 -6.788757299619046 0  1.447682772841672 -8.34988880510946 0  1.187324218142244 -8.851975620615827 0  1.129557579667154 -8.868014277061498 0  1.159009777891935 -8.806201953801967 0  27.29362308112349 -1.671143543743645 0  26.58871865293374 -1.635818601839396 0  27.00226570068515 -1.140391937177717 0  2.033956841768941 -0.6439358078346835 0  2.067672454626228 -0.5730345952662015 0  0.377591506163391 -7.227025978452397 0  1.214053019058701 -8.903433378846788 0  1.243505217283483 -8.841621055587254 0  0.07301221628875965 -8.954906654996083 0  0.07245512764572837 -8.990178013230842 0  0.04926424844486377 -6.425112438432018 0  0.07905351487410428 -6.415389403461431 0  0.07817057390323079 -6.442790931509858 0  4.446115105653211 -0.1252333643603656 0  1.773663682388216 -6.362845742909796 0  1.760095129705173 -6.442609586157004 0  0.6218767067765931 -9.0462964395653 0  0.6288417969577296 -9.089221577188646 0  0.07103148626967837 -6.889284203793225 0  0.09873535391302468 -6.908053576279887 0  6.165976792027005 -5.492630212903334 0  0.06858423413905257 -0.683480645049432 0  0.09937719508596743 -0.6957291593047463 0  1.213947763448727 -0.1996122347031299 0  1.258630058975829 -0.2231927785260357 0  1.227942856821493 -0.2612913850616554 0  1.765721515292226 -1.524838455502943 0  1.720360057440848 -1.579147332767868 0  0.283749783136539 -7.590501480438147 0  0.2594080882433776 -7.617185897501793 0  0.4721828560842809 -2.651528808583014 0  0.4868137654523768 -2.610324313196832 0  5.598148271603055 -6.621849610820379 0  5.739211412856513 -6.481163283252533 0  5.767465827941688 -6.631582424555049 0  3.295639565431186 -8.703597714906152 0  3.246757249878865 -8.805351433381032 0  27.07221098623059 -4.526050025506937 0  27.39304213003095 -4.110609346534518 0  3.949167859527792 -9.518257405903237 0  3.825055293393282 -9.529880830535884 0  1.779717175781425 -1.916010706415054 0  1.834763361709072 -1.974052846655734 0  1.83983465817586 -4.795972929943301 0  1.801680256261083 -4.732900345462322 0  1.23608619098996 -5.668840118824177 0  0.4852291621333684 -9.204327344371686 0  0.4817329783332305 -9.245555249427399 0  21.8169480666098 -8.909737590463216 0  22.11292718920107 -9.38712682341788 0  21.51912536046009 -9.522610767045338 0  18.59805740207756 -3.697205661814809 0  18.901821981751 -4.182549617210272 0  18.12446633530247 -8.337549387408988 0  17.62525819112967 -8.1205020671505 0  2.965206501264325 -9.811457920674638 0  3.055279307710602 -9.772138568991616 0  0.9018891967418732 -4.808096325691311 0  0.8906271264952395 -4.852791525810241 0  0.3047109645721946 -3.663537214961704 0  0.3191005723782343 -3.629222207831384 0  0.3427100097061029 -3.65476791342897 0  0.07772178240352545 -0.2302306949805288 0  0.1090046974368253 -0.2316053575915671 0  0.08888486559404285 -0.253164403461037 0  1.053943906590186 -7.431227062569687 0  1.004914583248613 -7.420323196961225 0  1.036709107477291 -7.379164150216279 0  0.3199318186306961 -8.25969590287724 0  0.3545627520870482 -8.270547632788483 0  0.3275639716207124 -8.294912604748333 0  6.471628045168424 -5.417498716877211 0  6.396857676950685 -5.219031629871601 0  0.7160704533857327 -7.959266292497177 0  0.7532073644265438 -7.922774733847008 0  0.7588710842249675 -7.977991211498868 0  2.128952052399168 -8.735949474283007 0  2.167945404836383 -8.670883730084245 0  2.209572311960606 -8.730793346729616 0  0.3548522201102298 -5.624662063147859 0  0.336257666308553 -5.658654596506966 0  0.3190916162242701 -5.621288990185115 0  7.418106909153376 -3.21133553903325 0  7.347427411942719 -2.977350862112619 0  0.2706799806700886 -6.904974945238431 0  0.2662294363520665 -6.943093249885825 0  3.826551821725429 -1.613198116994409 0  3.947461375550626 -1.557606857168908 0  1.30573084069241 -4.056241980381063 0  1.790177408965052 -5.046522732509906 0  1.714542236146695 -5.019323951674091 0  1.882785342722752 -4.513759572504834 0  1.803038466236304 -4.54079331250689 0  1.274444022551283 -3.56445624829546 0  1.305562715265889 -3.615289364985039 0  8.321499252701145 -6.533818700750102 0  8.287234213527057 -6.286662128453944 0  8.471476339450227 -6.419773437683578 0  6.180764305390273 -4.036417799240552 0  6.281636829487502 -4.215979766032892 0  2.212149079286434 -6.52379501347187 0  2.124910988915534 -6.535542929118456 0  2.17152144526144 -6.45304383938593 0  1.336425800605916 -6.530756921664902 0  1.306159800886757 -6.468225001306088 0  0.4417682747314196 -4.128861279639414 0  0.4846878417217209 -4.119886205856505 0  0.152720246969249 -8.795764106450701 0  0.1264162921198384 -8.77338530578481 0  26.63784741651691 -9.435962293167728 0  27.33174854366585 -9.404548157360157 0  8.012125520372482 -0.2152510125175784 0  7.78658508002143 -0.2152510125175784 0  2.189607449636206 -7.817729180288856 0  2.155494783705928 -7.888483710323253 0  2.11001906638678 -7.823373836116997 0  2.16756045090364 -2.717600449057999 0  2.245331635470553 -2.671304975045695 0  2.229794883044622 -2.738570992813665 0  23.54586163396843 -8.270564367918684 0  0.6779209627786855 -7.934517850467377 0  0.6835846825771092 -7.989734328119238 0  26.64244642787841 -0.552533497636734 0  27.34735085606815 -0.5878584395409838 0  3.211092710456786 -0.2767932040755969 0  3.140904516280161 -0.3692802769382757 0  6.331804617943931 -5.051642496368391 0  0.6795813900996954 -1.192498993603834 0  0.6513913228035211 -1.226790795744335 0  0.6344162837463081 -1.19464620318382 0  5.293924183769128 -9.296383458714963 0  5.473589132956638 -9.29511051596668 0  3.584924068553679 -8.7616281405223 0  3.521130613793668 -8.670588940541023 0  1.226137495125069 -3.225345002883526 0  1.253834752544034 -3.280482805328312 0  1.197340107535055 -3.276497931322444 0  1.496887376680119 -2.861543279813753 0  1.566690800220131 -2.85849359368481 0  0.6646102039543642 -6.011170437698574 0  0.6737794855631485 -6.058578459250788 0  2.749408690174221 -7.384950038010049 0  2.695327279190598 -7.303505242188974 0  2.790005864090899 -7.295415341757639 0  0.469596604763467 -2.932993067351034 0  0.4951862293947968 -2.896312470991271 0  3.805878877001401 -2.173595723981107 0  3.749855979174544 -2.285317905722247 0  3.352452503403157 -4.643003630311187 0  3.466620868337186 -4.640570085846894 0  3.414281174571441 -4.749544274385615 0  0.6109041431996367 -3.548571779585737 0  0.5905408317421905 -3.506428542862049 0  0.6326808967939375 -3.504437273742128 0  0.4702125801676598 -2.408567606041391 0  0.4311137647313341 -2.409288602509413 0  0.4479950957353349 -2.375081034749384 0  2.60726678328124 -7.314123956668341 0  2.560557716822535 -7.405794962546098 0  2.513094394829855 -7.326878980773056 0  0.9625338122532305 -9.043386898572189 0  1.020620304962671 -9.042940466255843 0  0.2600962409773047 -0.4422361729005653 0  0.2456031563318035 -6.610058484142213 0  0.2203004658955301 -6.635191125173145 0  0.2147189997395103 -6.603749370560822 0  0.1037948591492963 -3.955441792595658 0  0.07117939570238718 -3.958712206781093 0  5.539372744938436 -5.509210667614567 0  5.497827373958565 -5.329628584570272 0  0.06757098791557326 -0.09394074347833481 0  0.0568479293251194 -0.06172558103697412 0  7.32771662347518 -9.208572676531269 0  7.3365536886876 -9.419130868268084 0  0.07806972151987601 -7.604342027027727 0  0.1082137080069643 -7.614426531330148 0  0.08511559209996022 -7.631963844845391 0  0.366707959272917 -2.472876643219855 0  0.338976213679187 -2.440179244710425 0  6.482800042086115 -3.889620286714433 0  6.303288959438813 -3.876848055660789 0  6.406159699576655 -3.715591702647162 0  1.013330362810414 -6.987391346794569 0  0.9771526662731134 -7.037419197828566 0  3.322021704230647 -1.180990479084569 0  3.260817220263302 -1.272306741242572 0  10.4036075158549 -6.381786045148749 0  10.47841420845844 -6.658671285317656 0  10.21768372611272 -6.60876393363154 0  2.607637473138126 -5.715961341015456 0  2.666864079768331 -5.630188908951444 0  2.691481466022985 -5.736619534439017 0  0.04838130747399028 -7.374301675977652 0  0.07701859699800018 -7.364234371019837 0  0.07701859699800018 -7.392167331913694 0  0.07929957829766821 -1.660938501944488 0  0.4167197737326518 -5.219785906989369 0  0.4473306130777814 -5.186282282810396 0  0.4554438596489092 -5.226941744263305 0  0.07308307803079295 -7.331717776009273 0  0.1017203675548028 -7.349583431945315 0  28.48824170706814 -9.546226812558107 0  28.89661478428067 -9.084813501249354 0  28.8635174797857 -9.538586688691247 0  0.04960236566797249 -0.558711768004776 0  0.07683103948413716 -0.5422379271305484 0  0.0780520976781176 -0.5702234381520643 0  0.7324322841724307 -5.733670565360259 0  0.7166151236305645 -5.691069742548057 0  0.09757070614656627 -0.3688679336177865 0  0.1236540011774405 -0.3861078457901446 0  0.1204976947493712 -9.106958440736625 0  0.09957509894497285 -9.09022822167239 0  0.5607403383279497 -9.136567410255175 0  0.5249301830264201 -9.114631544460071 0  0.1568897123207922 -7.142682231726571 0  0.1893426887035403 -7.136821859449193 0  7.868826160197413 -8.640388298181019 0  1.118599897375663 -2.007733252422429 0  1.063415306878971 -2.018803712698606 0  1.094321350610132 -1.96716569371682 0  20.86437931905393 -0.8600545976286611 0  21.23180602747779 -1.414191962383426 0  0.5468177527316804 -3.519467009139515 0  0.5685945063259794 -3.475332503295906 0  2.607727024935759 -9.810729032668933 0  2.515199622570499 -9.867929431194476 0  0.1498570170527032 -7.574725281924486 0  0.1687042472127747 -7.544879340806206 0  0.09988400178326984 -9.127796976229591 0  0.133652233045769 -9.125635926962239 0  0.1318044298444452 -7.829259544829405 0  0.1252772353003007 -7.79590583653731 0  0.1545031935851302 -7.808775965856187 0  8.49077173403612 -8.628644972863622 0  8.3762315483403 -8.405274232446622 0  0.6530863337299238 -5.329467678207649 0  0.6974786282549701 -5.346591393644403 0  0.6694456258285086 -5.37733741699175 0  1.341792108875609 -0.9894764816687269 0  0.1078410225294704 -2.280332358348019 0  0.07505577693129339 -2.280230663469529 0  2.038142328937008 -7.834911775805729 0  2.072254994867286 -7.764157245771332 0  3.633254592906461 -0.799373790933581 0  3.731875430651971 -0.8437863251279634 0  0.6705921372078922 -4.764358795467083 0  0.7097548340647961 -4.749237370111619 0  0.7173408405624784 -4.78536652158166 0  16.80387754882748 -6.57977148990884 0  16.61983952995222 -7.014958997075839 0  0.3304464242280716 -8.543703373089672 0  0.3078922048763317 -8.572985577481026 0  0.2963086162919453 -8.533883139663899 0  0.07233877061772986 -8.508821025308166 0  0.09856081746287515 -8.525619877693005 0  0.07458337000319837 -8.537682515519021 0  3.171866583058085 -6.916375368374331 0  3.220859110150297 -6.829278309538615 0  3.283129930927558 -6.908171557025492 0  1.936220289716772 -1.201852292871261 0  2.016796247260007 -1.21805254402371 0  3.420123813195691 -6.564387311273329 0  3.315848624563699 -6.495217905762217 0  0.4437639198536765 -4.192607044034412 0  0.4046452970541523 -4.194866036422754 0  0.4244458325716778 -4.161387070205259 0  1.349813184341508 -2.253313758186851 0  1.325334083014727 -2.192568817537305 0  1.387295693325743 -2.213234140753754 0  0.2716296883690532 -1.263736970842712 0  0.2894844885271173 -1.230473999442772 0  0.3072419037100182 -1.262151034966953 0  1.920561683522646 -9.361941695095297 0  1.958375040157254 -9.297104901804692 0  2.000070355594627 -9.360935449436445 0  4.381955898975182 -4.961855157623401 0  4.368705793293627 -5.099020347979708 0  4.273900901371103 -4.996531642666519 0  0.7256475462811061 -5.305860527131912 0  0.7420068383796909 -5.353730265916012 0  0.5171166636625628 -2.861734788407182 0  0.1287967371394281 -5.418042396253098 0  0.1431616006635217 -5.44681693347168 0  0.1456271117706827 -8.293690535084213 0  0.1549728747074504 -8.327924199654451 0  0.1225365834456618 -8.315247740193783 0  5.92654576319625 -1.874090603612816 0  0.4475651354901053 -6.854950310144151 0  0.4341350600821787 -6.885829011609507 0  1.189082295617007 -0.8352784884510367 0  1.194250954647696 -0.8855610360360862 0  1.144531959283229 -0.849161618678834 0  0.07201537609307351 -5.259088938927757 0  0.1038010150103688 -5.26424140885336 0  0.2102258716326943 -2.390307991959943 0  0.2482629050233136 -2.392915430431084 0  3.313420516646135 -1.359467920822058 0  3.185196684022721 -1.35650312176227 0  27.41015949891275 -2.25108194596458 0  27.82370654666415 -1.755655281302901 0  0.4638155406645801 -4.224907312876243 0  0.4836160761821056 -4.191428346658749 0  0.07072685365405817 -9.856521889121389 0  0.07337592253917435 -9.883699001089944 0  2.530328651395459 -6.847115269200959 0  1.710867851171411 -8.443447738774836 0  1.677263229500555 -8.383642257489036 0  1.749805967039183 -8.379177034089725 0  0.04902137170648047 -2.902236964410332 0  0.07748592373959085 -2.883727279601952 0  0.9046352829913928 -4.152080884544777 0  0.8845734016401252 -4.194453663934589 0  0.1790730956383548 -7.784670501161342 0  0.1856002901824994 -7.818024209453437 0  0.1508351401639025 -0.04972541504472439 0  0.1648674794064924 -0.07612398255874542 0  2.044948357056564 -6.529831014966371 0  1.511912746185924 -9.11818876262943 0  1.509026174790245 -9.054013534836407 0  1.54906060858527 -9.085435060708956 0  2.209672699187873 -7.428750127247596 0  2.243720337626741 -7.506575830896622 0  8.004714877502115 -1.273128039792494 0  8.129819319140609 -1.488786538731601 0  7.907389627823889 -1.483392232810084 0  3.792812554458378 -0.7256785149253924 0  3.839722637776799 -0.86099628045611 0  1.862307712013889 -2.729260887819342 0  1.789026940502218 -2.725676108389024 0  1.827956755111151 -2.658672384494394 0  0.256524072346842 -4.256097859705206 0  0.2383774368669354 -4.226494512477216 0  2.696769426570953 -0.9184308536851535 0  2.648260132113375 -0.8262114022922527 0  3.474223327030733 -5.697572812923071 0  3.523942109744084 -5.805411588969453 0  1.085791805521023 -3.155963312997657 0  0.4146867478239145 -1.716686270029783 0  0.3747165874786678 -1.731295865494275 0  0.3896079953201017 -1.691582766330043 0  7.331377633462953 -1.741925202413025 0  7.269342798453292 -1.958699138321836 0  0.06955517924055243 -9.343594920965037 0  0.09666751511383964 -9.360408962794272 0  0.07539931779112408 -9.376548951226875 0  0.2582162116598781 -2.011234390060681 0  0.2822438370646214 -2.043721688671032 0  0.09068836009301329 -9.684513836476098 0  0.06491468407160816 -9.702484936634187 0  0.07120909375267104 -9.671309298603072 0  2.298422871982275 -2.758810878269077 0  2.220651687415362 -2.805106352281382 0  2.647863957197918 -7.224589260415932 0  0.2251729213730513 -0.5562161122446794 0  1.6549466013645 -9.401650486910363 0  1.676291536000951 -9.330426035245983 0  0.254811283365326 -3.754339935618985 0  0.2360115837753547 -3.782954975658887 0  3.722484831370874 -0.2293282593284367 0  3.667047843867557 -0.09917234643516615 0  0.2883062789429562 -3.611795512121891 0  0.3263053240768663 -3.603026210589158 0  0.1835412056515775 -3.209494431225885 0  1.119123351877217 -3.909972049155742 0  1.178887432999911 -3.930078534237223 0  1.147069800172657 -3.97370193331267 0  14.05203402184659 -8.672281058528061 0  14.03902337149339 -8.285090222799568 0  0.8088373138371345 -5.94692422989143 0  0.7856816734726237 -5.897673756893373 0  0.8312337751215537 -5.899898197561745 0  6.452534526236544 -2.755906708235893 0  0.3444320378943395 -5.885180288275104 0  0.3808479460222571 -5.895912762427392 0  1.932492705731624 -8.799891682636286 0  1.972526784882497 -8.861693817206472 0  0.9354760630906362 -0.0873719811710032 0  0.9174055666769245 -0.03834998007928192 0  0.3144533660960462 -6.032995989461199 0  0.2834340787467067 -6.043901482292261 0  0.3026942151357908 -6.006555069000632 0  4.074261409200645 -1.322225261678614 0  3.947778529055061 -1.32024186947257 0  4.031366292212674 -1.200043234125896 0  2.195649932654938 -7.955587422028933 0  2.277540375736239 -7.952860596047456 0  2.238107141435822 -8.025608963581277 0  1.034416441776212 -0.09204931116743076 0  1.064755663992591 -0.04302731007570948 0  17.40249529375632 -4.256925513065625 0  17.57934543084644 -3.769403825142636 0  0.2974474128738507 -5.530112067860951 0  0.3295496792357717 -5.54659649969326 0  0.3055839036640258 -5.5708120249937 0  0.02911594763368797 -2.134901737099394 0  0.02911594763368797 -2.162834697993248 0  0.4017921729073421 -7.819462137087978 0  4.174591375075284 -8.495265855545874 0  4.055204341458026 -8.529627147910102 0  4.102909777277773 -8.395690452923739 0  0.0807743029272352 -2.035360024543083 0  0.1002015170589843 -2.061858407049726 0  0.06847828134152323 -2.06444939414916 0  1.311487650649855 -3.177473422622857 0  1.25215766763508 -3.176072958099833 0  1.281013178150889 -3.124216503833297 0  29.32206834354129 -2.903082392710672 0  29.70811627158319 -2.688164270689013 0  0.603444350075204 -1.197215466655218 0  0.6316344173713802 -1.162923664514717 0  0.5534605110725792 -0.8640901779535799 0  0.5636285164523347 -0.8167088318981843 0  28.06555495346274 -9.404548157360157 0  3.044245054015123 -1.992941846331801 0  2.992339961304275 -1.898662055970565 0  3.088906307454668 -1.904412627342424 0  1.322247645053057 -5.485190357534167 0  1.389919953373518 -5.489128580188172 0  7.878484951665575 -5.388473624102851 0  7.863716731545118 -5.618612731365237 0  1.740933998363912 -4.211479884772141 0  1.811862393663665 -4.225497300179359 0  1.77060388359045 -4.280398140435254 0  2.902286342650278 -1.892698747158263 0  2.946947596089821 -1.804169528168885 0  0.3291904747822336 -6.069781728331431 0  0.3484506111713195 -6.032435315039801 0  28.0811572630759 -0.5878584395409838 0  1.295378040539727 -0.1744581023340661 0  1.309373133912491 -0.2361372526925916 0  0.9767303305177499 -7.463541690996162 0  4.156939163365712 -2.858479718487128 0  4.225770086956043 -2.752253327773311 0  3.578468717446961 -6.211063954966242 0  0.9273891968182877 -4.109664478008532 0  0.957655125962102 -4.154867049028628 0  0.1495964412389981 -4.434959781380359 0  0.1169116333509237 -4.437416586020095 0  0.1330250981451933 -4.406552956467856 0  0.2868966625714577 -2.405707353646971 0  0.2634095297222565 -2.427247011763813 0  2.987331665942346 -1.71980522742444 0  0.3470040800276433 -3.725796489120316 0  0.3664507544956663 -3.690577518917245 0  0.3851344326232464 -3.727291087478271 0  0.6115806797382461 -3.301035872022258 0  0.6283863712125459 -3.33723180366026 0  0.5847141711349035 -3.336040142069993 0  1.893270051747573 -1.993671554125088 0  1.893643250041434 -1.933770391509746 0  0.3318479264018777 -7.955386676439415 0  0.3335686228007795 -7.916252762805883 0  2.532399259582526 -3.135218212023219 0  2.472689525029669 -3.217920744443172 0  0.9339999095411287 -8.386820186951756 0  0.8845929445500982 -8.363668609320801 0  18.35077943514867 -3.22519311618287 0  18.90031112038305 -3.261776789275469 0  8.268406801514356 -8.16412689162714 0  2.870525686263058 -3.629408930740212 0  2.847941194004388 -3.989247987661534 0  2.960503195955683 -4.015892590696675 0  0.1176045996999733 -2.435884224800017 0  0.1300634476860232 -2.409931379465699 0  0.1461212683550972 -2.438112926485883 0  5.049417784565607 -3.995844988329227 0  4.89156480588818 -3.990689352188777 0  4.953574999950447 -3.862024517460191 0  1.70845440930071 -2.848747403589297 0  1.745771272363143 -2.783983990735429 0  1.786061034342525 -2.86102802456784 0  1.493697363008703 -0.9166919840174632 0  1.525952742301868 -0.9742321103963931 0  1.548529190275538 -9.769760035628359 0  1.577404286991014 -9.828099238042622 0  1.514838935870651 -9.82469733427293 0  0.5778962213585697 -6.207302350984758 0  0.6176151708827717 -6.214152150657492 0  0.5922315264609974 -6.248570731052475 0  1.964068487199858 -6.801338964106588 0  2.004992388026221 -6.734469937720823 0  2.037654286292749 -6.812483424797058 0  1.21342291200644 -2.094717397443013 0  0.3527367772041856 -8.439180804977077 0  0.3529464976416339 -8.480062489299559 0  0.9752751950928378 -1.678592011762823 0  0.9334782759895663 -1.700735796438709 0  8.794681024299994 -5.112972638530496 0  8.550039452244551 -5.095973913926102 0  8.690923922575063 -4.887142540890345 0  28.981217464871 -8.269827077679274 0  28.67332618977564 -7.837915932179086 0  0.8109863971403648 -0.09547527027095981 0  0.8510158379397268 -0.06716199847458704 0  0.8523242646164668 -0.1050132319549375 0  0.3196784829126038 -9.940057905265487 0  0.3398357648936816 -9.971292930913478 0  3.943633893034832 -6.204225483654595 0  3.890681997855889 -6.321622651866345 0  0.9151132584214245 -3.651691286513354 0  0.8604328744359506 -3.658350142057757 0  0.1569925943193784 -2.259759787792555 0  0.1385931268681411 -2.230402243706845 0  0.1718651259843735 -2.228706421818533 0  0.4584350481928841 -2.019675038913264 0  0.4816980663065351 -1.9817540251519 0  22.36098471695831 -1.081151268997045 0  22.52897825712867 -0.3925761065673008 0  0.2936405753398894 -6.884705136535934 0  0.2703911357200575 -6.865922161636473 0  0.3013330278972735 -3.300192313854855 0  0.2836896811493013 -3.271139730720081 0  0.3186911418977303 -3.269648742232969 0  0.2377793436239273 -1.632096547272765 0  0.2755411035691218 -1.625645853740551 0  0.2710198830527872 -1.656488520540827 0  0.8839593290651244 -5.674848095341835 0  0.9032715013564818 -5.72437658847456 0  0.07734758073016579 -7.164342184466944 0  0.1054414456699995 -7.180433276722844 0  1.20887643706161 -3.873955373824038 0  1.548063844321884 -1.472722110748106 0  1.56695586651777 -1.523124444856768 0  0.8731024457022762 -5.994571263210146 0  0.8440848877689966 -6.03683535634047 0  0.8253718575527884 -5.991412763690126 0  1.098138655532377 -0.8468969655264793 0  1.041491458472638 -0.8413099107197421 0  1.082716103192801 -0.7932920162870474 0  0.2031030031067687 -8.284737763213924 0  0.1720495099499431 -8.273564528563362 0  0.1970891100242405 -8.251935297232405 0  0.6166155082476035 -0.1526175510296923 0  0.596495118684965 -0.1875860605320341 0  0.2770727515980731 -6.614831310121598 0  0.2714912854420533 -6.583389555509274 0  4.63307540066462 -4.74541319529591 0  0.2730591188454738 -4.287980281886909 0  0.2920928816211337 -4.256453579509586 0  2.532502620594713 -5.66653683346132 0  0.6521607663039184 -9.457961067830075 0  0.6957520754674213 -9.466591609049132 0  1.725427754496831 -6.098578638833899 0  1.658975448561062 -6.088683698021935 0  1.701179370984207 -6.034401671464616 0  1.177283592492181 -3.3207322556146 0  1.149586335073217 -3.265594453169814 0  26.26035383547434 -2.140778440955511 0  1.019945296281648 -1.669312547939706 0  1.00504579425073 -1.724894234755186 0  2.343064505035606 -7.501371243570179 0  2.381316317088048 -7.424285614252897 0  2.428133516318706 -7.495635615968096 0  0.7585934177520279 -5.825753851716544 0  0.7426284530082956 -5.771815007617681 0  0.7921131700133088 -5.796708880464825 0  3.980888664379002 -0.2506384497584238 0  4.047324730575346 -0.1204825368651523 0  2.123953436224326 -8.615679302834991 0  2.204573695785765 -8.6105231752816 0  0.2577831974795153 -1.284501881486285 0  0.2400257822966143 -1.252824845962103 0  0.07120611186904569 -9.909866614495105 0  0.04508588266476465 -9.892421780281275 0  1.400394820254421 -7.633800915858577 0  1.449333407471878 -7.679145410718335 0  1.410789062882284 -7.708939919535498 0  0.0741552295078769 -6.382298968521485 0  0.1030615549662421 -6.399977461599324 0  7.680197848112639 -0.3913525146634234 0  7.567037553778192 -0.176101502145845 0  0.1902237659865946 -0.9809326033952379 0  0.1769852901675133 -1.014971338068119 0  0.1269986962038345 -9.023740783329451 0  0.1548193986132276 -9.000841317735912 0  0.7241885768507359 -6.471522266110022 0  0.6802417777931709 -6.450488184895462 0  2.560532099246039 -4.189008541623367 0  2.538906257625522 -4.100939728570698 0  0.8603615359090124 -1.124219180322401 0  0.8132243758302842 -1.123567319962915 0  0.8380084186314001 -1.083027543289009 0  5.928279609625665 -6.644893787717175 0  5.787216468372211 -6.78558011528502 0  0.1065532681704404 -1.428435919680594 0  0.1163426451819536 -1.39968008086697 0  0.1342736950303429 -1.422364732900935 0  0.09224260641508053 -4.438811090852981 0  0.06525635530220519 -4.454610096350516 0  0.07335403914424354 -4.424808766605127 0  0.4679672018727459 -9.309356589029555 0  0.4459478960265599 -9.348200921548482 0  0.9665648965820228 -3.632481906544986 0  0.9329487970446326 -3.601701104661819 0  2.677998702017177 -3.619799590513535 0  2.585044034725019 -3.614724625601296 0  2.636298257064889 -3.532610779636679 0  0.1022463514466079 -4.164853901342097 0  0.126177032620955 -4.187058921485683 0  1.36590234005444 -2.297299652005101 0  1.303940729743424 -2.276634328788651 0  2.055286216243283 -1.153100621764766 0  2.095274972746292 -1.225225141688856 0  17.85374185096572 -1.587954192726122 0  17.83394111718984 -1.071452935236429 0  18.15358439950488 -1.3281869010809 0  4.407031967024116 -9.287248632026069 0  4.519121196137508 -9.406571207553171 0  0.253645057015607 -2.785117079657069 0  0.2324922441258401 -2.814359886465326 0  0.7201128773609895 -3.344373772051116 0  0.7684459162044774 -3.355943431315024 0  17.38878065989763 -8.508714749532123 0  17.4799999791925 -8.890305750281572 0  0.7752094455730756 -3.267269887733834 0  0.7283376471298943 -3.266473844433512 0  0.7535056876698327 -3.223779301256949 0  0.7813997295387676 -0.4504681490480689 0  0.8031169672051064 -0.4061368406608059 0  0.306444734902545 -1.620696813022007 0  0.3418322027776206 -1.600533875808464 0  0.3441691108730609 -1.62987488979507 0  0.7160736914297843 -5.839424722765145 0  0.7655584084347957 -5.86431859561229 0  15.28467260806443 -1.004158363327981 0  14.87604137140324 -1.018665704679918 0  15.03331169312101 -0.6701249553885251 0  2.388989033637333 -2.729241986223571 0  2.381091220366645 -2.640371765936416 0  2.462514186392443 -2.677338233358626 0  1.244645753929936 -0.8251176536246545 0  1.194926758565469 -0.7887182362674023 0  4.853132831176428 -4.122636437274357 0  3.53020696957012 -4.541543383384164 0  3.592035640738404 -4.648084027458592 0  4.628869728411569 -9.519741424780506 0  0.265787587152051 -8.723596534043049 0  0.2342113379057125 -8.709940831070623 0  0.2624891658302637 -8.686900816619687 0  0.5801971466917291 -2.900649194479558 0  0.6015788474040988 -2.938438377188357 0  0.4146201946258152 -2.441547364121285 0  0.3924027101934904 -2.408060792829278 0  3.91461934295287 -2.830082586483216 0  3.861531035232876 -2.717319805738881 0  0.1354074345771004 -7.863782483812348 0  4.068596596423491 -6.19215706207289 0  3.996229249945962 -6.085746526743142 0  0.6626243766257964 -8.722524478285118 0  0.6590784904037204 -8.678557084352285 0  0.69707326576534 -8.702057060052114 0  7.778111113082305 -3.291599184582792 0  7.90729361540108 -3.084329097168258 0  8.505289869711714 -5.50352173651836 0  8.744492957154034 -5.587660527318781 0  1.867837618726245 -5.805713548115876 0  1.840562526442948 -5.740423976171646 0  1.912429538884105 -5.741745007402724 0  0.2025164431274291 -1.668414936108185 0  0.2053511208211685 -1.638193234049147 0  1.656564692110146 -7.155205411263301 0  1.660348073573953 -7.222161801602348 0  1.602550835380114 -7.210895431170492 0  0.7431619471503783 -5.911344627941975 0  24.89733630833829 -3.517118868596882 0  24.31115225036766 -3.556762448144163 0  1.084412040159251 -2.958626218629796 0  1.138874659798802 -2.964039420730747 0  0.7696609149253604 -9.704474596189721 0  0.02028635713707061 -8.696088155951449 0  0.05609956208270361 -8.69878842114851 0  0.03581320494563478 -8.717784064079742 0  0.7363688385538314 -6.713216838794718 0  0.7223545338872945 -6.668768404131217 0  0.7659700110132324 -6.674114401031051 0  1.912759159855579 -9.235030472111413 0  1.99226783192756 -9.23402422645256 0  0.154986232105724 -1.447408002577191 0  0.1647756091172372 -1.418652163763568 0  0.7750015556087178 -6.322778652313967 0  0.8225631613659239 -6.334766635662712 0  9.247556861605306 -0.673822081362065 0  9.000970962760205 -0.7653006463616805 0  9.059252570193108 -0.5190325925155683 0  0.06342657081590275 -1.203203712378691 0  0.04631805063373839 -1.174953088525826 0  6.102365063878722 -6.736499023281699 0  6.0826144234482 -6.582501332551727 0  0.572306737348935 -7.362443210885838 0  0.6024215926970093 -7.329249781316528 0  0.6149565324061559 -7.370421910068916 0  2.622576666413599 -3.139744758167645 0  2.592979421823268 -3.056361065402447 0  0.4697678334958617 -5.264944628446504 0  0.5003786728409914 -5.231441004267531 0  1.795903759742467 -4.337317527912888 0  1.872904523446186 -4.372660424338982 0  3.401891420973222 -2.491132083373993 0  3.288030006278724 -2.483926376628817 0  19.13185863115978 -2.810851060540617 0  19.37913659808867 -3.282863606172556 0  0.2195509186540914 -9.837549497660342 0  0.2506231059488222 -9.841434618457098 0  0.2324915814972552 -9.865549851581806 0  14.76679958538723 -1.366577997006627 0  0.1845070579901265 -0.8011999889221961 0  0.1739169576550044 -0.8360869077030806 0  1.009743369956361 -1.394423892166367 0  0.9614651069475588 -1.391958408023558 0  0.9861841418532187 -1.346898331606281 0  5.068185397707536 -9.0835919604921 0  5.021684550688116 -8.931395776493488 0  1.44767482048546 -9.819070864397045 0  0.603270361278641 -7.215193181312639 0  0.6330287151522356 -7.181246459821519 0  0.6469689577227324 -7.222487905681842 0  0.2849600568941657 -6.649900170507934 0  0.3108481860044137 -6.623231241874993 0  4.99019504135712 -4.912366953163361 0  5.067975334646647 -4.78657076425904 0  1.855779684857152 -4.167069846180453 0  1.88544957008369 -4.235988101843566 0  0.5203624958931137 -7.200595836299974 0  0.5477918472277139 -7.16757857827017 0  0.5619007673735421 -7.20696899348212 0  0.4556456043250012 -2.989469282724392 0  0.4158286584341795 -2.976401367244232 0  0.4458194550988139 -2.961227178211819 0  0.3581017742684516 -5.51580165296531 0  0.3662382650586267 -5.556501610098059 0  7.782110793525341 -1.685952437421616 0  7.657006351886846 -1.470293938482508 0  0.4485672645024898 -8.228753715730264 0  0.4104867504198513 -8.2191623836144 0  0.439608905666848 -8.192911340892177 0  1.593239347410655 -9.106960139620009 0  0.3094039708226344 -3.722215211760268 0  0.2694833904768821 -3.725715040911123 0  0.2883998215543109 -3.692582749710145 0  0.2385612816630633 -8.973876358164269 0  0.2690506201961522 -8.989169706415975 0  0.11712809423436 -9.3344319776867 0  0.1101997782757973 -9.304925766685953 0  0.1365044959468893 -9.311902811840218 0  0.2344225939430657 -7.769766055344427 0  0.2019489295398653 -7.759953231896826 0  0.2262013312472089 -7.735800542482658 0  11.8089734387099 -6.812869545646757 0  11.5917084910848 -6.547503578867721 0  11.8947450874429 -6.514117881861121 0  0.1876369328191512 -6.599180978900216 0  0.2129396232554246 -6.574048337869284 0  17.94687334991407 -8.839693140309953 0  17.67357276106227 -9.228310529343872 0  0.1058105168621388 -9.825252077567592 0  0.07609707686366463 -9.825265872166549 0  0.4682093049827074 -6.826081301227093 0  0.4863120345335776 -6.862306119247777 0  0.07027557960333297 -6.154897875187329 0  0.09661027727204541 -6.17068517213489 0  0.07471600514270271 -6.18897165448946 0  0.7130037595704337 -1.592187234892319 0  0.6941210709385537 -1.543935122718187 0  3.84076518621127 -1.278515709164464 0  0.6613447756988542 -7.14807065168084 0  0.7077237500006479 -7.154209327579338 0  10.78194127290167 -6.670878546958631 0  10.5960174831595 -6.897856435441422 0  0.2090772669369283 -7.315665128167583 0  0.2331004969376487 -7.288823569397416 0  0.2432892978017271 -7.321221279329913 0  0.1214298678386925 -6.145954864606735 0  0.1258702933780604 -6.180028643908866 0  0.6267091295064269 -7.413398676903825 0  0.6568239848545012 -7.380205247334515 0  4.259885686962177 -8.61219016103243 0  4.307591122781924 -8.478253466046066 0  0.05554033746075682 -8.73833590622953 0  0.01972713251512204 -8.73563564103247 0  0.4297796588726452 -2.919925151870874 0  1.735537826764272 -7.223408006747174 0  1.681523970034242 -7.279098026654364 0  2.025504429421643 -3.430856671094961 0  2.062195133265121 -3.351665386280744 0  2.095755676722536 -3.439383647305537 0  1.300872913459376 -0.7977971644836472 0  0.3134042823077543 -8.225103585150663 0  0.2864055018414202 -8.249468557110514 0  26.59716379040777 -2.632857498829079 0  25.97744159251003 -2.607065731379266 0  2.106201642355771 -4.405457272366594 0  2.027924534399833 -4.400663697964029 0  2.072640049545443 -4.331454093562269 0  0.7173548816133213 -9.430558337219381 0  0.7368923653313466 -9.470766407463174 0  0.1074995101149376 -0.2742683958010019 0  0.07621659508163781 -0.2728937331899637 0  1.637933112734334 -2.839780953747096 0  1.596922334807125 -2.7904160096946 0  3.125562462745187 -3.73942615183792 0  3.180424029366698 -3.651191472647578 0  0.8678919479448073 -9.474618296323024 0  0.8924609066615545 -9.434040621789848 0  0.9147134578413496 -9.474037039842417 0  18.48150636657021 -1.033196340151927 0  18.50130710034609 -1.54969759764162 0  0.6612893184007618 -7.265039935227717 0  0.6910476722743546 -7.231093213736597 0  1.93963302230221 -4.529974920541956 0  1.982881447606164 -4.462786084801923 0  2.018237701906205 -4.541855712508387 0  4.113582199380639 -2.2696587920338 0  2.94767431991891 -0.3256636227516774 0  2.922921832823047 -0.2289611512594503 0  25.66913666404192 -6.815678579893977 0  25.94422414100808 -7.316453170034592 0  25.38421302341445 -7.312037463928442 0  4.366496507540431 -2.029810824156144 0  4.305280131351946 -2.151721870310956 0  1.683660286023191 -4.514274388202516 0  1.626174824340303 -4.45952833087309 0  1.687297553346385 -4.450226715510176 0  1.969774845380643 -8.740499107454173 0  1.893105559068058 -8.740155487519825 0  0.1822340239873661 -5.393335992568061 0  0.1500256710838137 -5.388203281479336 0  0.1702848048930115 -5.361101904464876 0  1.249048894225954 -9.917965484745761 0  1.199386711279722 -9.884491922067712 0  1.250373335991545 -9.872132363207742 0  0.1369275691926308 -2.805961836187396 0  0.1645613051786405 -2.820434719159966 0  0.8450897910946118 -9.513561725622138 0  0.8228372399148149 -9.473565307569569 0  8.431714096556032 -5.282557959767486 0  8.327956994831103 -5.056727862127334 0  0.3841738372713834 -9.259511675570943 0  0.1396132186881545 -8.260888069102695 0  0.6779989834102143 -6.666879865406086 0  10.47784209352713 -3.046055373354009 0  10.54060672131174 -3.289987183639303 0  3.272374448804594 -9.809806576724359 0  3.337977346385232 -9.905728194928965 0  1.319794541403944 -0.4474653944792264 0  1.262967500522333 -0.455343896790037 0  0.193504384772627 -0.07488129421420098 0  0.1799549352200778 -0.1009710061672049 0  0.4045673672067434 -1.643342561723539 0  0.4190993498086577 -1.606835047715441 0  0.4441101382672645 -1.640465656857453 0  2.43823607080631 -7.347516126298003 0  3.213472290674595 -8.614678734115115 0  4.139987023249304 -7.334963803969401 0  4.107951644398204 -7.458094980823174 0  4.017168681122126 -7.354822638573202 0  0.1117501274525701 -8.836859021424607 0  0.117706448233271 -8.864556249391638 0  0.0881870466583905 -8.854512870425166 0  29.06037701591624 -2.528156947270789 0  29.04296595726717 -2.161421248010347 0  29.39882148451732 -2.152449984974727 0  3.367841236902478 -5.963057124162168 0  3.25340268836872 -5.936009519119341 0  1.963021563262997 -2.009357095269785 0  2.031262792217653 -1.972041992052498 0  0.1167813459868263 -0.8416562131160976 0  0.09649753409164319 -0.8137414975098363 0  0.812316789005429 -1.208003471554403 0  0.8616795583261307 -1.208497320041597 0  3.924091423750093 -0.3732825092499379 0  1.41217301429484 -7.273961315803124 0  1.385617672421123 -7.219124556517882 0  1.450464122611082 -7.23549639063094 0  10.83554153481721 -3.300494259313155 0  10.64333638118144 -3.537048490725931 0  1.436102943609072 -7.482806600822055 0  1.49309451492735 -7.458701776981403 0  0.242130644140131 -9.491732125956359 0  0.275467042578402 -9.496600333666098 0  3.405399889358092 -2.290988558362115 0  3.29556360889163 -2.289033702256765 0  3.352051146717017 -2.191712033617663 0  0.6921843810941617 -4.700100195394151 0  0.7389330844487461 -4.721107921508729 0  0.1943445703335698 -7.500678466643258 0  0.1701986965204583 -7.520378775959812 0  0.166443447232254 -7.483117612331166 0  1.083327070651967 -9.697516537922393 0  1.074423220055653 -9.639420648900815 0  2.164826384089107 -2.202946343120527 0  2.088063439173865 -2.213893132762285 0  1.961858176178483 -3.403554491554681 0  4.354673699010611 -2.753885213293483 0  4.297777079387487 -2.632360041771085 0  1.949319854795839 -4.388782905997598 0  8.214233553065954 -6.086269756334596 0  8.174019495654857 -5.842581054376121 0  0.3165256239818746 -6.862315841624467 0  0.3168144689319057 -6.901368625226425 0  0.1708518329424962 -7.750704988299574 0  0.1088139495088853 -4.467217915765484 0  0.04984297276445204 -5.198527572467577 0  0.02078552390566912 -5.209497206703911 0  0.2016423292934597 -1.038550889529014 0  0.234335188466785 -1.031551065699793 0  0.2242459613793422 -1.063718295859059 0  0.1717277465663685 -2.945443650561947 0  0.154779979950936 -2.915167317368162 0  0.18576344282212 -2.912568893538998 0  1.488482990075271 -7.618195789967728 0  1.498877232703133 -7.693334793644647 0  26.23406924168498 -7.765748802816827 0  2.116061549405511 -7.961232077857074 0  8.353764502918903 -1.489975422660368 0  8.256439253240677 -1.700239615677958 0  0.07296037680444201 -9.750027786984628 0  0.05236073551768428 -9.774025241933051 0  0.3081676484038898 -0.5899989794479161 0  0.2962570988408721 -0.6249319321616449 0  1.126516925904223 -7.054696919271031 0  0.3280876489502145 -3.758928780321294 0  0.3470512139059476 -3.790504783514706 0  0.5101331516934522 -2.087695191490946 0  0.4870004550205707 -2.053687279424231 0  0.5273238037658103 -2.049853622400207 0  1.128218415663454 -2.784856431648988 0  1.153783809434085 -2.72863304230918 0  1.189110397920563 -2.763532391236189 0  2.740449726845405 -6.584904794313699 0  1.195663022626103 -3.172088084093966 0  0.4504233576690062 -7.117787535947718 0  0.4912523008932581 -7.126505408433355 0  0.3555442362226167 -4.610476434819243 0  0.3390005900580277 -4.5707510979863 0  0.3803106166258985 -4.587262774930188 0  3.9913374391639 -6.872655827153022 0  3.866973272050632 -6.878438063641792 0  3.926359945058653 -6.763129238079016 0  0.2045444046593126 -8.692148531206993 0  1.904141674930635 -2.049639550415773 0  0.7890327977883622 -1.161959121655877 0  0.7666796805107499 -1.120767484622485 0  0.112976292433828 -5.125742638156007 0  0.1192157025615366 -5.095212101243103 0  0.270449713276415 -9.81750000309043 0  0.2833903761195788 -9.845500357011893 0  0.6284864678462192 -9.597308755916261 0  0.5900665569684538 -9.582468179098989 0  1.992831411061582 -3.716652475940452 0  1.950254772993043 -3.795687286109469 0  0.09208576796031132 -7.661806297478936 0  1.768617326850146 -5.741125426563325 0  0.6809433845212709 -3.262605395784576 0  0.6352410862463955 -3.265890824544414 0  1.678222874713716 -2.916824987579508 0  1.713419083762219 -2.978444227454078 0  0.575841009944039 -7.248210439342443 0  1.055796295924493 -0.6524304859603287 0  1.079816855067961 -0.6070414498895342 0  1.107649923167427 -0.6539726605466178 0  1.387370366613533 -0.7568522993307365 0  1.328195034539148 -0.7585618868953468 0  1.364309791112328 -0.6983772586998089 0  0.3321153179373812 -8.749954301491231 0  0.2988587570826304 -8.736587005953201 0  0.3273219759313548 -8.713923815130144 0  1.005003969166486 -0.6497460232527494 0  8.005270688630938 -5.77140230162391 0  8.188034378430025 -5.614060708718258 0  0.2732041954736815 -1.596304839753945 0  1.366556411258717 -3.618357358194936 0  1.336674208995881 -3.673421659721507 0  0.674570781374463 -1.259638836755602 0  0.6294056750210757 -1.261786046335589 0  0.1334245861180161 -1.291074131218241 0  0.1614622741977421 -1.311881588162021 0  0.1281240363920197 -1.317557632213324 0  27.53536288173724 -6.350232753440139 0  27.04399028091287 -6.348607780623263 0  27.26875313222423 -5.896002210784734 0  6.104123962880813 -3.862389215173281 0  0.8607996259145061 -6.081356350487546 0  0.9100760988215129 -6.087397642831404 0  0.8790602488175345 -6.12876013745846 0  1.108835712618783 -2.707308634122871 0  1.169727694875892 -2.685984593710072 0  0.9385001395762806 -1.43241874220498 0  0.9546276857962681 -1.490097800329042 0  0.9195166057712498 -9.682566854879203 0  0.9335007778670317 -9.724086258467739 0  0.2338071340970025 -3.724707473568862 0  0.0208403851384098 -2.193214679142614 0  0.1615667493189168 -1.927630681960057 0  0.1615587417498148 -1.963161685538224 0  0.1355327234105097 -1.938745287739636 0  0.6802244314326682 -3.100967218805613 0  0.6358157414125802 -3.099404589105033 0  0.6661123032838816 -3.057041732180065 0  0.8751856005830678 -0.8833917394038924 0  0.8453802576240488 -0.9258407495573744 0  0.4383219541683232 -1.748636656438463 0  0.4532133620097571 -1.708923557274232 0  0.2232544496123055 -7.473458447846332 0  0.2140724395992724 -7.439023463792005 0  0.2467375681662123 -7.449064608623725 0  2.835002594497809 -7.204551335549054 0  2.889084005481433 -7.285996131370128 0  15.48645745010234 -3.614785595863262 0  15.9154927179409 -3.58866954393168 0  15.79835359926418 -3.931604786239536 0  10.63110927188526 -5.697618707350296 0  10.92062333338189 -5.75829505109429 0  10.74185819992333 -5.960133627512302 0  0.157870011206505 -9.290111166178976 0  0.1647983271650659 -9.319617377179723 0  8.641406088008427 -6.506851997582936 0  4.583671206561425 -0.1245341512563414 0  4.525322553567435 -0.249767515616707 0  0.2528335409121176 -7.355448758980094 0  0.276856770912838 -7.328607200209928 0  2.667798717014598 -3.790979082396894 0  2.722240002994246 -3.70797486122174 0  2.073608997804772 -6.884739089344887 0  2.114532898631136 -6.817870062959122 0  0.07006374158650885 -6.603627826243204 0  0.09287270602327169 -6.616451078906831 0  0.07119027191075133 -6.632934984507199 0  0.2270096989005097 -7.510719611474977 0  0.4919512044822802 -2.444221606369846 0  0.508832535486281 -2.410014038609817 0  4.175978537286934 -5.06122023768608 0  4.189228642968487 -4.924055047329773 0  1.895366618303612 -3.058541099351552 0  1.858573528446072 -2.99083273902368 0  1.93275549535123 -2.996554473572706 0  0.1253125804565887 -3.499941716752145 0  0.136520368572457 -3.471636893897967 0  0.1578790704955093 -3.502770470897816 0  1.971328401693894 -4.11558580469813 0  1.896122553959522 -4.110473145959218 0  1.93808409437624 -4.048498302812687 0  0.8271478237535117 -7.259950350469193 0  0.8706570467469881 -7.283922789692424 0  0.8385871408614989 -7.317051090861822 0  0.1469075859042466 -3.809536782438737 0  0.1318060661148479 -3.780794490379131 0  0.1682970558038264 -3.782298866180574 0  0.5915688861687531 -3.264699162954147 0  0.4226021182375135 -3.136444120928262 0  0.4610755827495225 -3.113254228265728 0  0.4567651054736785 -3.145715931204472 0  3.919582659661589 -7.203915226938921 0  3.860956012752915 -7.082051822437107 0  3.990577413064553 -7.109828057217614 0  0.1974678146787632 -0.8591248650058034 0  0.2296508670372255 -0.8514594976203842 0  0.2202249662863807 -0.883734146636546 0  0.3183349126619692 -7.598997713857127 0  0.3090824131192438 -7.563775361904931 0  0.1550534106483195 -2.97572002660654 0  0.1860368735195035 -2.973121602777376 0  0.64518570148471 -2.861616611419978 0  0.6018712978673477 -2.861048818111927 0  0.623478356220895 -2.822300941545242 0  0.8932752145004095 -0.1113526387971095 0  0.8532457737010475 -0.1396659105934823 0  3.462026998513682 -2.392036443386626 0  3.518514536339071 -2.294714774747525 0  0.7699204579910699 -0.06785887841689586 0  0.7712288846678081 -0.1057101118972463 0  0.0988094621936817 -1.324238752422133 0  0.1268471502734094 -1.345046209365912 0  1.360345013797215 -4.201681447072655 0  1.303565225540098 -4.238100817951523 0  1.319997277660566 -4.177043299383889 0  0.1192356863176087 -6.808920407811073 0  0.1387952465586366 -6.789255179177303 0  0.149412080686302 -6.820485584281287 0  0.4412443961205259 -2.057516608004002 0  1.276631280907559 -8.789719923258435 0  1.303360081824016 -8.841177681489395 0  0.9637284383182703 -5.639413523936152 0  0.9125644944845739 -5.633640154543269 0  0.9425582780255581 -5.591105713095968 0  18.31803911717224 -8.67555416647129 0  18.79900775773572 -8.643973493062948 0  18.62141477234731 -9.146117245963911 0  1.419510594570827 -5.442362631800555 0  1.453886480283293 -5.4916509601806 0  2.2905375368574 -7.577925832611821 0  0.2705809291580792 -8.759627020404135 0  3.194162342186827 -1.903343881417727 0  3.142257249475978 -1.809064091056491 0  0.3687125214039551 -4.637463074400952 0  0.3274024948360843 -4.620951397457064 0  0.2748739771776876 -2.455392326479697 0  0.2362402196295434 -2.442600403263811 0  1.17437351582711 -0.2815702027586848 0  13.65967398393992 -3.219790779751225 0  0.07573368458547769 -3.02778453802102 0  0.04826433065150759 -3.016121072223565 0  0.07593461535355317 -3.000107978633125 0  12.04431706105233 -6.235834422345073 0  12.26158200867743 -6.501200389124109 0  1.891773604497486 -8.245224625374135 0  1.966037739124783 -8.243336182415906 0  1.930500995539084 -8.308335930956996 0  2.990072872408195 -7.279554354656076 0  2.945076142001286 -7.370418360864663 0  2.287945538943966 -2.412175957359085 0  2.245579668146748 -2.338027608883938 0  2.325383038029221 -2.34244734616534 0  0.1045324185724112 -3.720314136639991 0  0.07469064038116002 -3.732701360151802 0  27.05971900670761 -7.260761937421632 0  27.60839070854754 -7.205918760146274 0  1.419800676361119 -2.542676819120585 0  1.476434539106343 -2.545337997468727 0  1.45327375353056 -2.59735624586225 0  3.128411923791909 -5.033303416652854 0  3.236086900602446 -5.036236285294407 0  3.177238589530729 -5.128135831155436 0  0.3906750314422478 -5.244561923315266 0  0.3825617848711182 -5.203902461862357 0  2.713456763055474 -3.14144269610548 0  2.652876600814732 -3.220299842726253 0  5.641119558800446 -9.283093828737055 0  5.56116992259193 -9.433271199119819 0  2.414821497027976 -6.242092708544206 0  2.355819726340775 -6.200696223976191 0  0.1466266373229743 -7.303267651855925 0  0.1683168523454945 -7.277836695375107 0  0.1771982510503296 -7.308698374715905 0  2.009849537747417 -2.998486433383464 0  1.973056447889876 -2.930778073055591 0  2.791611353805191 -5.74176718911426 0  2.732384747174986 -5.827539621178271 0  1.399033533054968 -3.564534851786296 0  1.367599320222798 -3.505861518252674 0  1.43118793574904 -3.510171306580502 0  1.377756648560684 -0.143721050506965 0  1.325527529220011 -0.1413769831040383 0  1.357163062304306 -0.09769545711038141 0  0.352003140502049 -3.516878354122398 0  0.3155127162657294 -3.514307454916056 0  0.3353438875307475 -3.486569377917319 0  2.321025932243026 -9.345125065815852 0  2.404972885151244 -9.344677309030102 0  2.361504655702223 -9.419924127190059 0  1.095345454076281 -4.603590137005781 0  1.15077237646816 -4.607289209581181 0  1.119837979571013 -4.653242115218243 0  19.09101447050364 -6.393108592949241 0  19.3188143315987 -6.842104719671227 0  18.82066953709533 -6.809793134206979 0  1.559401068911949 -7.461717051842609 0  1.596180791079718 -7.403554498158649 0  1.640171950655402 -7.461561091659926 0  0.5088511142817538 -7.543226627777422 0  0.4973879796949277 -7.502469953393956 0  0.5364175903300428 -7.510798264682753 0  3.477745696343367 -8.969159601140319 0  3.59142131417355 -8.965605356669073 0  3.537697671220732 -9.065512459366293 0  2.764101744520401 -9.179414108385414 0  2.859416286261148 -9.177399983236043 0  2.809111099577734 -9.25986344587816 0  0.3845623638624964 -4.002918099339452 0  0.3563532694155569 -4.01840673304201 0  0.3647476518850734 -3.98112111058978 0  1.363070591357026 -8.840453913407964 0  1.32994452773295 -8.892355045736785 0  0.04936850148048322 -4.913261948930752 0  0.07067184765902823 -4.886898173360105 0  3.244091845700463 -4.676072306354722 0  3.296431539466209 -4.567098117816002 0  1.898197112282128 -2.79504526617591 0  1.937126926891061 -2.72804154228128 0  0.2191621189262225 -2.972567706143589 0  0.2024877830081735 -3.002844082188182 0  19.87385209023413 -3.324748062405904 0  19.64230457945741 -3.775673791140757 0  2.878565347612893 -0.9214632455157004 0  2.921065927605479 -0.828179779942209 0  1.725854596002049 -2.459418627309566 0  1.656764134800337 -2.455560694121685 0  1.691973177588959 -2.400189884065211 0  0.315962358501686 -6.356907202437657 0  0.3410460838292764 -6.328533924573468 0  0.3483992022693396 -6.369110243322464 0  0.970124021387786 -8.953924433233272 0  0.9434998074382612 -8.993852700154939 0  0.9196502213889808 -8.949832099592752 0  0.06829082537372599 -3.853669031303145 0  0.09926996844055402 -3.841549750115205 0  1.35296639042728 -0.4948515195071383 0  1.377861054013149 -0.4414508245261448 0  7.928976162555045 -1.898155321559116 0  2.484945137265015 -7.255845120420246 0  13.576015043823 -1.389596375995422 0  13.58460064741693 -1.024778178554293 0  28.79658782948768 -4.310508588189897 0  28.40208683960456 -4.081139183389814 0  0.04860586223784402 -2.738375569382029 0  0.07669918280834764 -2.726159754606475 0  0.07689018509380574 -2.754127749974618 0  1.797012415229222 -7.216787864609419 0  1.86783089413877 -7.217868777272601 0  1.827532202134108 -7.281425144462373 0  7.516353710194555 -6.632403738025009 0  7.444522589351221 -6.813416667893733 0  0.2533642690256706 -2.723387887897434 0  0.219225173835575 -2.723362558502811 0  0.2363748370286025 -2.692503825443528 0  0.7726318180759488 -8.246967782776844 0  0.7486427279705783 -8.287320872851518 0  0.7326400275065588 -8.242360313349209 0  1.362214603622544 -7.307261198882067 0  0.1235291628319288 -5.23854807173733 0  0.1340820344851821 -5.269114751390946 0  0.2336845935325549 -7.065441754068601 0  0.2003752502883032 -7.056740801627106 0  0.2242936418720056 -7.030584335842839 0  1.103307314563066 -0.8971795131115297 0  1.131403199057761 -0.9411493397257154 0  1.085009895306909 -0.9388846865733615 0  1.708684965382226 -7.465200531253476 0  1.671905243214457 -7.523363084937435 0  26.79029017231392 -4.980054852295321 0  26.55238118762768 -4.49645114998533 0  1.425055657495481 -3.845642927509798 0  1.362720750062644 -3.842473244782747 0  1.395754634997418 -3.787352969531372 0  24.39601576408963 -8.84988592429583 0  24.64615700546813 -9.433417718961827 0  0.8410890204791333 -7.613542130810278 0  0.8264272306648284 -7.565211083043856 0  0.871316408426706 -7.571689589489834 0  0.1781242024708796 -7.078278340411923 0  0.1687332508103303 -7.043420922186161 0  0.3849806845021781 -2.275627674478136 0  0.4230519291963635 -2.273276739644781 0  0.4063300961570881 -2.307139025568762 0  1.420814503783877 -3.961432838883273 0  1.388090659995147 -4.017751824268304 0  0.253862580054566 -2.848538683625462 0  0.2887687541248702 -2.848454661083004 0  0.2715558259808635 -2.881005806351044 0  1.89400604818084 -6.77983251936277 0  3.809181204122261 -6.98520384776368 0  3.744203710017015 -6.875677258689675 0  1.564393407613988 -7.695346739434538 0  1.525243825010595 -7.756296360185146 0  1.016801627236683 -3.222831674160021 0  0.960933967694233 -3.201320830640935 0  0.1331480979109294 -8.822579791355025 0  0.1036286963360489 -8.812536412388553 0  0.04838907201661158 -4.299032850598598 0  0.07599311323157387 -4.282473581912035 0  0.07608397324418448 -4.310184756502693 0  0.3801315265331837 -3.926865446506548 0  0.3562207293393769 -3.951311100773362 0  0.2493540368916705 -3.271474695263053 0  0.2667121508921255 -3.240931123641167 0  1.16904975205183 -1.684047842428535 0  1.116672696526081 -1.681850552511887 0  1.143342677217465 -1.633228878943243 0  0.05680323744336668 -5.339599575374406 0  0.04212633598914195 -5.309849339691014 0  0.1668960630800704 -1.047138568227386 0  0.1716681656795238 -9.535985355937807 0  0.193010206275428 -9.51413351144836 0  0.04991543714180402 -2.234455314244221 0  0.2604507742985582 -5.05598426206495 0  0.2261141658006594 -5.051318610861072 0  0.2476070861172133 -5.02469599671199 0  0.2051009379786315 -2.22765025526979 0  0.1867014705273942 -2.19829271118408 0  1.57932658513452 -5.380971751637275 0  1.572636365050347 -5.31716081277526 0  0.7763083964326363 -0.1431532543640524 0  0.7352424572833414 -0.1155368625099884 0  6.568976332563874 -4.058009972327292 0  6.671847072701716 -3.896753619313665 0  1.351675575450463 -4.077012551018127 0  1.413192150462365 -4.081363201755198 0  0.2221227406879773 -7.254656469497597 0  0.2563347715527762 -7.260212620659926 0  0.1824922154414601 -1.359581152569862 0  0.1899147990013788 -1.330727434739782 0  0.2162452899710914 -1.351943498152542 0  0.1279903301029321 -4.523764770097055 0  0.1149495330764303 -4.495235567191303 0  0.1465237734712339 -4.494352613838351 0  0.2861284726114697 -6.340421555328593 0  0.2807427556857309 -7.457351855944649 0  0.2715607456726978 -7.422916871890322 0  0.5987306754708204 -3.083193808933843 0  11.12020692708084 -5.54459991951054 0  11.23095585511891 -5.807114839672547 0  4.126107198150272 -3.340942109140648 0  4.062106781605536 -3.223083062734168 0  4.19304111018727 -3.22039763175799 0  1.387828451912394 -5.393124503099784 0  1.451794978822168 -5.395646883092212 0  0.7621242625055249 -0.4933397462321949 0  0.8093372705656527 -0.4892834750656743 0  0.1880002436196477 -7.251353998854269 0  0.1199587867422593 -3.527271828325206 0  0.09860008481920701 -3.496138251325357 0  0.9120600122544253 -9.039294564931669 0  24.34478075334621 -1.146879672177961 0  24.59990898351852 -0.5591958720790196 0  3.054434303662998 -5.309809187701492 0  3.117071363119322 -5.2203001342633 0  0.2647903842264423 -3.667037044112559 0  0.1279796621169957 -7.158935570968806 0  0.6797899515974084 -9.931503282203238 0  0.6565490143947521 -9.896604793901556 0  0.6973938874211303 -9.894094214800077 0  1.006111405717508 -4.071487786303239 0  1.06034423005708 -4.07329903258154 0  0.998721842973433 -8.508448907535364 0  1.048881524472531 -8.513882104418609 0  1.018177569839471 -8.55871299953183 0  0.2944040762113573 -9.467503950166599 0  0.3095888453971973 -9.500594314800059 0  1.056807999522547 -4.752444766670468 0  1.088480765328054 -4.701518887191848 0  9.086325616549438 -7.964718756078312 0  9.205001765005612 -8.197812318147475 0  3.025900524545479 -5.027519609511123 0  3.084748835617196 -4.935620063650094 0  0.07544648056920167 -9.403385407142583 0  0.04833414469591446 -9.386571365313348 0  0.6239377053923949 -0.2035113991075175 0  0.2098723413375012 -1.607350567248871 0  2.635094986632875 -6.001733264190893 0  2.678843406047466 -5.910217130845323 0  6.944596565702795 -8.215423623854559 0  6.929022666308764 -8.036605498048774 0  0.1072571099265058 -9.278411670833711 0  0.1205040437222422 -9.250447886876179 0  7.976464623374488 -9.213285379151191 0  8.053779331830759 -9.411812169589938 0  0.1318807974759579 -1.169715300125785 0  0.1187833449763858 -1.199135753793811 0  1.881994910060346 -8.114322112026679 0  1.963236679004201 -8.110316615716402 0  0.147028667291158 -4.207389229141591 0  0.8130690377650183 -6.078197850967527 0  0.4627291934937823 -9.379887955048542 0  0.4245217862140702 -9.381106083906003 0  2.248643653861588 -6.607703912386127 0  2.295254110207495 -6.525204822653601 0  1.368128360595993 -2.05018185675327 0  1.3962087770878 -2.102902461201683 0  2.817777996248838 -1.88097417508358 0  2.771576667943929 -1.787740716611358 0  0.09576691520350877 -3.042198571377443 0  0.06809663050146142 -3.058211664967884 0  1.168411668574297 -1.899054806679224 0  1.116491859847304 -1.923736492417671 0  1.135397587314777 -1.866696065656252 0  3.740490932763315 -3.548264290514078 0  0.478225945095538 -9.41294746501436 0  0.4996520549080294 -9.380042302656841 0  0.1372137716092858 -2.887862821572367 0  0.1204127486580298 -2.860785143273111 0  0.1520146532554314 -2.855214882045957 0  8.710841848239282 -4.034994805798505 0  8.581717236210871 -3.837884812993491 0  8.827087843918331 -3.828220278297585 0  0.4285966372229773 -2.101109015018668 0  0.452251467961192 -2.129561353151748 0  4.279288175304801 -0.7370705646838562 0  4.338991442644241 -0.6201453456661117 0  0.1792364948255383 -8.153179775133829 0  0.1497741629479314 -8.144167902705792 0  0.1735228541262828 -8.121580137554481 0  0.1067586795743605 -9.709556056686811 0  0.1130530892554233 -9.678380418655696 0  0.8509038332129002 -9.924224414586746 0  0.8289256898539321 -9.886605230617022 0  0.8736286361283838 -9.884771050175837 0  3.301561209377674 -7.8339965653207 0  3.255343286106907 -7.915661036166016 0  3.208820386664318 -7.811644981254949 0  1.479351576138587 -4.079525597929019 0  1.442936491593903 -4.138786324678842 0  1.858435826832423 -8.186941796208641 0  1.822899083246725 -8.251941544749734 0  0.1873870519144081 -7.341096084648401 0  1.277812337958171 -0.7393221238527197 0  0.1642063080387697 -4.465181369513571 0  0.1803197728330375 -4.434317739961331 0  0.8539305532900752 -6.297505170473486 0  0.8710452440544003 -6.344765285284376 0  1.541572031605634 -2.754534551125772 0  9.448741781021301 -7.734757619013934 0  9.200510783502555 -7.738940148413554 0  9.317493377631223 -7.512767106884331 0  15.74870917534354 -6.132891541651244 0  16.20287759642549 -5.991206930713795 0  8.910436238386659 -5.345545804841914 0  9.051320708717171 -5.136714431806157 0  2.169897765150472 -3.288163219234562 0  2.090554095362133 -3.284461762898722 0  2.128005479946591 -3.212432619641963 0  0.1236859684398972 -5.776672882919728 0  0.1551427220177359 -5.782188247199107 0  0.1328942555887309 -5.805676535294868 0  3.322478677869171 -0.2771513056758401 0  3.281128810551117 -0.1853881848454577 0  1.590442530580827 -0.9736446398042631 0  1.559465891006933 -1.032530655439935 0  1.82748915084829 -6.493769927958352 0  1.771456881511478 -6.515972128917926 0  0.1096344524394048 -2.46223999477567 0  0.09357663177033082 -2.434058447755486 0  1.300115808491665 -3.83287269218605 0  5.07461261381175 -4.249926690458331 0  5.14211878723145 -4.122186097921205 0  5.22932381053986 -4.247602965321724 0  1.452900521751118 -2.219797369328925 0  1.428421420424339 -2.159052428679379 0  26.51899288231245 -7.269389918782361 0  1.89080645924879 -9.426580928804054 0  1.148981850764077 -9.918842767609449 0  1.150306292529667 -9.873009646071431 0  0.2704025044911056 -5.987131916605358 0  0.3697267714175378 -8.55777552668704 0  0.3581431828331514 -8.518673088869914 0  0.1939570964418209 -5.593244751222884 0  0.199396103773875 -5.621799303106375 0  0.1697366799354398 -5.616970909324309 0  0.2604215727175649 -5.180928345998961 0  0.2295232872635129 -5.20199413825117 0  1.251850408006135 -9.828684485148377 0  1.301512590952367 -9.862158047826426 0  2.887736239277046 -2.246938042357838 0  2.948876328810277 -2.157551096146117 0  2.973511506848681 -2.268716971021393 0  5.08860891606786 -9.737081918385439 0  5.006282237062447 -9.60798556042648 0  5.161240582914951 -9.600164453948382 0  4.417433093639229 -2.873907507179087 0  4.489440086070672 -2.754014221176861 0  0.492659298090409 -3.155686343543955 0  0.4541858335783999 -3.178876236206489 0  2.704690847309665 -7.471651868321406 0  2.799369432209966 -7.463561967890071 0  1.87788079883282 -4.87602879042189 0  0.2152793159818334 -2.846911031733366 0  1.675854177184675 -8.50410408058087 0  1.748396914723301 -8.49963885718156 0  0.8532997004495222 -0.4860030578604553 0  0.8340242334162795 -0.5288746550445822 0  0.1142593652657204 -3.331573720506828 0  0.08315877123469306 -3.328710456562361 0  0.1009066933095841 -3.302037554090695 0  0.7038775098057783 -4.832621270816174 0  0.1864295636552864 -2.720291208970055 0  0.1792596605972374 -1.987346995521222 0  0.1532256346888303 -1.998461601300801 0  0.7217375433233322 -5.941334410382066 0  0.7346969000497872 -5.984576409723281 0  0.6931492311849148 -5.981211030882289 0  3.365069926031037 -8.979874119633925 0  1.140146816964574 -2.054096345397498 0  1.171052860695735 -2.002458326415712 0  2.317687099150188 -7.878554630675557 0  2.360144307931073 -7.9485761722279 0  2.204055169343043 -2.271284124284842 0  2.243788381978067 -2.19996121652588 0  0.3365942528191006 -8.786365581607299 0  0.365057471667825 -8.763702390784243 0  0.2055721049711217 -5.076604692098438 0  0.1927284167897749 -5.045316426745478 0  1.341405795958497 -3.230991670928681 0  1.370261306474307 -3.179135216662145 0  6.070221074201033 -6.440547225131798 0  6.244306528454089 -6.532152460696322 0  0.1168475180450734 -5.385808308149913 0  2.861624070539435 -6.941898848228694 0  2.961321984503169 -6.930152322675192 0  2.919773124993478 -7.020905426274783 0  0.1772471050652733 -4.493710572419324 0  0.04806827790294932 -2.625976498220914 0  0.07524275718647289 -2.613679062965497 0  0.07555578675751207 -2.641333849660784 0  2.773494225334115 -3.625861015257124 0  2.719831767231996 -9.101492057220582 0  2.669526580548581 -9.1839555198627 0  0.3647289509221956 -2.24532592427477 0  0.3480071178829203 -2.279188210198752 0  0.423950866051328 -3.727750188460289 0  0.404504191583305 -3.76296915866336 0  2.278927847175339 -9.278790562014324 0  2.235459617726319 -9.354037380174281 0  0.3968215959902466 -4.389247033384654 0  0.3591677297284903 -4.386657961659744 0  0.3804598146768825 -4.35616368139818 0  0.1770277590242433 -4.090088721817003 0  0.1619375129797636 -4.061624074351043 0  0.1944822362314689 -4.065733270922684 0  0.5488874760630225 -9.241132860157503 0  0.5860865270740128 -9.240888055875306 0  0.5669403265894033 -9.2776152801348 0  11.02806209116591 -1.014124496626522 0  11.22365781284412 -1.300381428665093 0  10.88857275309766 -1.277052835180673 0  0.9738571118512276 -9.724868747468172 0  0.9420488401942944 -9.764950162673292 0  0.9061333295937644 -7.243944473946526 0  0.9175726467017533 -7.301045214339156 0  0.572031285905144 -2.5947224114469 0  0.5497009572760874 -2.557188926145389 0  0.5970124610377603 -2.555534795648406 0  0.1252108453490841 -3.750578588647346 0  1.618851594196109 -6.139153797178491 0  1.594603210683486 -6.074976829809208 0  4.725817937643418 -0.1245341512563414 0  0.2800531162023212 -1.515984591345132 0  0.3147883788254848 -1.514431164089576 0  0.3010050591920077 -1.544638263149865 0  0.468298847473708 -0.3370060828122989 0  0.4326697730828037 -0.3404548325417318 0  0.4483891365253996 -0.3080476981557663 0  0.4068827179165737 -5.868933498610519 0  0.4178918542137495 -5.906267269589527 0  4.142965149993408 -6.299787473877515 0  4.195560506904538 -6.181308516966062 0  3.245645282404638 -3.197220753689098 0  3.187891600045003 -3.115281504763682 0  3.295536527700669 -3.105444026702563 0  0.364289642034592 -1.684296346803345 0  0.4042598023798387 -1.669686751338853 0  0.09946635915244784 -4.71598218537586 0  0.0708820698846182 -4.731107368345817 0  0.6142522333053329 -5.744009359215157 0  0.6436146317571509 -5.715458911700534 0  0.6593539646234685 -5.753121541869181 0  0.4574034024262303 -2.199934211890931 0  0.4745555248288085 -2.163459144793596 0  0.4972657942808674 -2.195799498896001 0  0.2427853401533042 -8.781910927156648 0  0.214237374111601 -8.80522816820087 0  0.3387412822660281 -4.416143548485504 0  0.322379500952664 -4.38306019649903 0  16.34664726576737 -3.588213108432357 0  16.78803540464085 -3.574561572059911 0  16.66877700597622 -3.891837197935508 0  0.599176001926244 -2.631665085480604 0  24.74524530320082 -8.328300828931113 0  25.06312796394063 -7.801289137003813 0  0.566194609124409 -7.479118194046904 0  0.5776577437112369 -7.519874868430369 0  0.2071922242896456 -1.981401897391209 0  0.1988591172286611 -2.016701813153786 0  1.079261718745528 -2.869155268185844 0  1.054201480701213 -2.909597201144528 0  1.023350168244816 -2.865024597522741 0  1.072033021159212 -0.9897784790724806 0  1.043937136664518 -0.945808652458294 0  0.07529610044668011 -3.140642711714145 0  0.048067573161795 -3.128222544165718 0  0.07560983475887539 -3.112978826766304 0  1.29816228752891 -4.304760610727953 0  1.257814551392261 -4.280122463039186 0  0.06837117100255696 -2.695985909911969 0  0.09665549385851691 -2.711738090504559 0  0.1350151499900392 -4.980656659051179 0  0.1164655865486672 -5.006931271250664 0  0.09592901530141695 -4.32292944776103 0  0.06832497408645466 -4.339488716447592 0  8.249902070038367 -0.2095125834065446 0  0.6539073494770733 -3.622379976823085 0  0.6316071245925272 -3.585275320828644 0  0.6753444331359297 -3.583685166460258 0  0.7986190881721811 -3.309430700632311 0  0.8237871287121195 -3.266736157455747 0  0.3959450163097191 -5.631561636659218 0  0.3787789662254362 -5.594196030337367 0  25.96939493990243 -6.350341980666441 0  25.4093838223088 -6.34592627456029 0  0.5664489170755793 -6.171228907018557 0  0.5410652726538032 -6.205647487413539 0  1.298965619671943 -3.504361063677847 0  1.331120022366015 -3.449997518472053 0  5.8174693371276 -9.561640074135845 0  5.897640886427091 -9.412236962419426 0  5.986409875118955 -9.552622524665077 0  0.06954347773952918 -3.347967905771883 0  0.05619080578339108 -3.31843173935575 0  0.3621623143126804 -9.883354901650563 0  0.3752139344489152 -9.91406659579529 0  0.3433239606070622 -9.911874167682226 0  0.1096980468645761 -8.337552933723776 0  0.1003522839278084 -8.303319269153539 0  0.3023917934504006 -1.200720943632463 0  0.3142900979354479 -1.167471572016724 0  0.3369950083531279 -1.195638691951273 0  1.501458932057616 -2.494053969794011 0  1.534932009227058 -2.548733396535676 0  0.1301304177319302 -2.059659739922416 0  0.1178343961462183 -2.088749109528492 0  0.7636978668375214 -8.367338606961049 0  0.7557225779152521 -8.32421406674468 0  0.7966098074622376 -8.335052882495518 0  27.66629045395313 -3.673842299833114 0  27.10755032546653 -3.605679276495542 0  4.191302304508465 -8.005266253775769 0  4.067268037272118 -8.007070750933977 0  4.131319212246334 -7.903344046035402 0  3.353286085084671 -7.735097606728031 0  3.39980898452726 -7.839113661639098 0  0.5438184505090078 -7.396964085210439 0  0.5548980664006464 -7.436828464968757 0  0.4373436801131092 -0.5279123035769757 0  0.4006945988830264 -0.5272955252627183 0  0.4187049694943745 -0.4963955047782864 0  0.4104730016469702 -4.035622613891573 0  0.4188673841164885 -3.998336991439343 0  27.87277099821805 -3.204352311161102 0  28.15826280278247 -3.709282381200078 0  8.279600485462012 -9.414572634129962 0  8.152952756593335 -9.607810656402304 0  1.811881867561365 -0.5493283746068727 0  0.1698957942549235 -1.900665701509404 0  0.1494961434068092 -1.874028455231571 0  0.183851206682121 -1.871479872579506 0  1.167099270130821 -2.914207295963056 0  1.195860898727698 -2.964518844886172 0  2.314378748126259 -9.207813734671472 0  0.3294274231009915 -1.483314492368806 0  0.350379366090678 -1.511968164173539 0  1.035943439456359 -1.441208500330355 0  1.060662474362019 -1.396148423913079 0  0.09074696859034148 -7.742100594526746 0  0.1099020849487289 -7.71346823378942 0  0.1115436130523904 -7.734878051294443 0  0.1363832534444889 -3.007584711626274 0  0.1220741264913539 -2.979906759410846 0  1.49596002384949 -5.826693947148667 0  1.430430320296313 -5.815502642932407 0  1.466352480009938 -5.762852087416941 0  8.975661847752578 -6.314575137691517 0  9.004721129225601 -6.067946666634103 0  1.25279659779301 -8.680829515260342 0  1.2586932103669 -8.739279330323196 0  1.210879803793137 -8.73171348229344 0  1.179945289179294 -3.5261242601184 0  1.204466886299954 -3.466029075500787 0  1.237964724694498 -3.508592248514839 0  0.4932112540518965 -7.229764006905389 0  0.5035522212277517 -7.273098224489816 0  1.690043666129114 -4.387850079082027 0  0.2973065095288145 -8.969122183918458 0  0.3005577549981648 -9.004621179398736 0  0.9715398644241393 -3.726019212154227 0  0.9429541148487779 -3.770809936638837 0  28.20220340491532 -5.9209111120363 0  28.03181858245284 -5.533535571049223 0  1.611227149952445 -8.20694185856096 0  1.633737440879003 -8.273036662812729 0  1.575178813607893 -8.271688978587271 0  0.1942188018273612 -5.424817790517711 0  0.2144779356365571 -5.397716413503251 0  0.4167070318241706 -4.662792423509406 0  0.4363345239880392 -4.631987911094607 0  0.4561872930217241 -4.667792222840884 0  0.2166460626063866 -1.868078004495242 0  0.1962464117582723 -1.841440758217408 0  0.1231780753535343 -2.920737578595316 0  0.1264591005505054 -2.205886953481788 0  0.1375340586596963 -2.173145804408161 0  10.07476378044847 -6.763968978964185 0  9.999957087844932 -6.487083738795277 0  0.4451767878482933 -7.704007718169984 0  0.4170606440241826 -7.729245554061377 0  0.40710357944333 -7.691070105475384 0  3.282748307439832 -8.020498455402315 0  3.190007484726477 -7.998146871336564 0  0.6272227818520886 -5.677086331844872 0  0.6723245131702242 -5.686198514498894 0  0.1952153487273733 -1.3042439337447 0  3.537374724556484 -8.387247794141235 0  3.467911061108913 -8.300172544220644 0  27.53512285198271 -5.453640455709269 0  27.04375025115835 -5.452015482892393 0  9.587720777046268 -7.95951068900602 0  9.704703371174936 -7.733337647476797 0  0.1472537693319715 -6.243177580043764 0  0.1141392011442441 -6.236067120740048 0  0.1341652709991408 -6.211869410740738 0  0.208962799809985 -8.318019536134038 0  0.2340023998842824 -8.296390304803079 0  0.5447876558952061 -9.177790686015772 0  0.583986358980372 -9.16318236013741 0  0.7779634004846443 -9.551726646726342 0  0.8214229927856032 -9.553748007522941 0  0.7993513102056262 -9.592965917380603 0  3.5150060679542 -2.494858299759403 0  0.3799228166618107 -6.240181828950439 0  0.3455167802116215 -6.2327490365192 0  0.3695545003000547 -6.205115842819493 0  0.962117389202227 -9.4778136038239 0  0.9375484304854815 -9.518391278357075 0  0.06076553861971057 -1.466601286668483 0  0.08682161853916881 -1.481105613875311 0  0.0695890959103771 -1.494985698378834 0  4.140021283431418 -1.437694267368408 0  4.223609046589031 -1.317495632021734 0  0.2536391370794568 -4.317788681140629 0  0.2892079463537502 -4.318144400945008 0  0.05135147816416463 -8.213576216349798 0  0.07790475569172095 -8.198774682912736 0  0.4310911391749386 -1.017914876884599 0  0.4051222822426688 -0.9929493845527499 0  0.4413970111498742 -0.983749383834045 0  0.471294644929527 -0.6628990884614545 0  0.461799150431812 -0.7021321183019538 0  2.573724711629836 -1.885595390111858 0  0.7829640037632135 -9.881631676053413 0  0.8056888066786954 -9.842178311642504 0  0.679400261925295 -1.710804191601024 0  0.6338127964412212 -1.698429130072323 0  0.6729167915053207 -1.678484218144805 0  0.2808096675713365 -7.234534662405484 0  0.2711710953894553 -7.200403717325591 0  0.306623747657687 -7.20889285897097 0  0.06426522252136202 -2.010588260599957 0  0.09598845823882307 -2.007997273500524 0  0.7862248775092056 -2.35370558933844 0  0.7594456025316418 -2.317854740728044 0  0.8052538479291727 -2.311306854123838 0  1.010604330850564 -8.324403292323016 0  0.995806368641702 -8.270143172199159 0  2.877077973459043 -7.113892038494914 0  2.976775887422777 -7.102145512941412 0  0.3799992277204645 -0.6365674639931678 0  0.415482300430714 -0.6205861607413716 0  0.3831878541762634 -8.245167844684939 0  0.3908200071662797 -8.28038454655603 0  0.558489801427914 -2.861333524604822 0  2.494622237117513 -3.59566821309012 0  3.71040028904677 -5.687581163349671 0  3.781540259636055 -5.781066765497221 0  3.660508664178471 -5.793306994731601 0  1.105290936508499 -9.862921666016508 0  1.155695797024144 -9.82857082047477 0  2.330089839524391 -2.87868555407791 0  2.379845838008073 -2.795777345691288 0  2.420656001179449 -2.849116662032404 0  2.141824463898661 -4.478576695131948 0  2.186539979044273 -4.409367090730188 0  10.36347647438367 -1.83546552273569 0  10.64566434968136 -1.8241090146198 0  10.52024306436016 -2.080874926922606 0  0.370326240744987 -1.001143404787489 0  0.3806321127199226 -0.9669779117369348 0  0.08038648574959595 -4.78388449168836 0  0.0941707144288273 -4.811750791354603 0  0.06395355765893385 -4.808681334831645 0  0.6275382550683233 -8.732335759075845 0  0.1229722327849316 -9.367386007948538 0  18.32182525950196 -6.709962707214348 0  0.8901193695693745 -3.582223828445127 0  0.9415710077299728 -3.563014448476759 0  0.05414135111227836 -9.158032319182102 0  0.0801026946995087 -9.139224585759029 0  0.08707719649243728 -9.165282195878278 0  0.8627891687724105 -5.626540284501651 0  0.111476746707309 -1.074577187431029 0  0.1164065704665589 -1.041449861058301 0  0.1373092001948741 -1.056686343139219 0  1.463515418565848 -3.453684552524213 0  1.494949631398017 -3.512357886057834 0  2.72830649921551 -7.046767089888303 0  2.761544317083668 -6.947380530899045 0  0.8833285450385322 -8.649140256815697 0  0.8901898958924193 -8.697309140901332 0  0.8478575305835836 -8.687903152475808 0  1.136829017675929 -2.866741826191814 0  1.105977705219534 -2.822169222570027 0  0.3063997943960928 -9.561428952260087 0  0.2838569149064476 -9.591176407447513 0  1.641642944833546 -7.340625179742752 0  1.716832698023865 -7.341871384887579 0  0.07448242851252473 -8.169152542201189 0  0.102296225978316 -8.183235765113935 0  0.3808403623017078 -3.656262511786926 0  1.344719906090825 -6.843567093640095 0  1.367429179857542 -6.904621604628076 0  1.75089094136122 -6.165751982071421 0  1.793094863784367 -6.111469955514102 0  0.8170235993435213 -3.355409701036938 0  0.1194377008346095 -3.871499701890732 0  0.1347311450201882 -3.897103883601949 0  0.7026471424245138 -3.306095982261462 0  0.02358342465967667 -9.146992941123605 0  0.1047539771297643 -2.118945253869651 0  0.1346828778027103 -2.116746586742341 0  0.2473659926397218 -3.392890959971349 0  0.2651541444858072 -3.362579838095558 0  0.2823684076349995 -3.392261627262402 0  0.2667795781094373 -1.202306879508222 0  3.551268443284247 -0.09917234643516615 0  3.496273228290878 -0.1920454896580166 0  3.447509992956872 -0.09287314322285045 0  7.162978794849163 -2.953181906432491 0  7.098861726152514 -3.102504574525941 0  1.010641885429624 -1.487649115763336 0  1.061560989835282 -1.489373647510048 0  0.4161521615909543 -8.431701171153327 0  0.3808422318090763 -8.417932356799517 0  0.4099642337604479 -8.39410948462627 0  2.792732477167837 -9.776328277266234 0  2.877078939008893 -9.716638706865902 0  2.874893630275022 -9.795809944792776 0  8.340652206158223 -3.853711354967448 0  8.456898201837273 -3.646936827466528 0  26.52392045255544 -5.422416607370787 0  0.6443616031595134 -8.174344002538918 0  0.6109991230694032 -8.144619425358938 0  0.6433196767556133 -8.133196764259214 0  0.1521677332395583 -4.375476343261314 0  0.1697665747699588 -4.346889918442256 0  0.1833087475636681 -4.375509727009062 0  0.256527488541483 -1.309251893344677 0  0.2831264518987417 -1.332023335193336 0  0.2502668368882688 -1.345861222171121 0  1.225567274979745 -8.078013086394614 0  1.235378431545657 -8.134420842789353 0  1.183827799641534 -8.123660305704018 0  0.7798197559038567 -5.989188323021754 0  0.5205161797589994 -2.229367945921619 0  0.5376683021615793 -2.192892878824284 0  0.2570365711813771 -7.166036904929044 0  20.43569028334796 -3.390456171175673 0  20.17252230197922 -2.897645986207471 0  0.6877926304732824 -0.2897837983430218 0  0.6665926105853561 -0.2515400665545098 0  0.7076824812952331 -0.251418370696296 0  0.7576623211250322 -9.509654208080804 0  0.7792651272709321 -9.47362093625105 0  1.930391598895088 -3.134375295032224 0  2.00910519768351 -3.136496998603351 0  0.06739692866717562 -2.584077056880025 0  0.09488443752173836 -2.599434408319896 0  0.5586169707682327 -2.709018010141745 0  0.5168413453790368 -2.713279831494223 0  16.03475111660553 -3.271393918056083 0  0.988294856073793 -9.436177603297313 0  1.011129828717923 -9.480531841811974 0  1.641506967971685 -9.830518331424985 0  1.607816713566798 -9.885455630069556 0  0.5615967227292877 -7.74145534054312 0  0.5220222768169371 -7.729780374696933 0  0.5511410157455909 -7.700920168697944 0  1.43014502678496 -3.622667146522764 0  9.607450263371081 -3.039540234615221 0  9.60349024484406 -3.298207667775984 0  0.1122352237679127 -9.182486817684048 0  5.829434074403572 -0.1607175962542176 0  5.747306967670337 -0.2909844570976148 0  5.652478878228646 -0.1302668608433972 0  3.903695592149749 -5.767731296528448 0  3.853803967281449 -5.873457127910378 0  4.174047213227318 -7.56167064372792 0  4.302434953520734 -7.551062202753348 0  4.245712180222672 -7.674496700261895 0  1.938537533853692 -5.019761804590292 0  1.903698625458166 -4.950219900427845 0  1.990650034429741 -4.952533790597841 0  26.24351131478458 -5.887483456650306 0  25.99005123594016 -5.415522826053235 0  0.1856818062344932 -7.103965021392121 0  0.2134270844179014 -7.124455057909939 0  0.1917767512418269 -4.523773851364474 0  0.2094592858093627 -4.494602607039694 0  0.2592647310554419 -6.674027561040901 0  0.293040165461786 -6.682427492794297 0  5.680669945737694 -3.979710370046916 0  5.844318179882322 -3.940254467798034 0  1.790285296494096 -5.280087337344055 0  1.762285344379094 -5.223840884627322 0  1.826898882312054 -5.217714200228136 0  0.02153732962636212 -3.276821379052486 0  0.05644037926564138 -3.27836383138817 0  0.03490304963927926 -3.297631837810544 0  0.45550179510332 -8.267995064135802 0  0.4846239503503149 -8.241744021413579 0  0.06649651401697021 -2.473962617921123 0  0.09311743203227962 -2.488832779527073 0  0.07400746153948567 -2.502381179717058 0  0.08382382948427569 -3.269649898375211 0  0.4761181564660131 -4.02336332803543 0  0.5066347595516518 -4.048164741987744 0  0.2130472043421943 -4.038957555212105 0  0.228137450386674 -4.067422202678064 0  0.8840170213035101 -1.16669782608198 0  0.908801064104626 -1.126158049408073 0  3.734942183607853 -0.6098983694917202 0  0.2393722461711167 -0.8189750132969236 0  0.2621293977787325 -0.8435842949276662 0  0.6175125810291178 -2.516877982676859 0  0.6398429096581761 -2.554411467978369 0  0.3742294953406198 -8.209325469846851 0  7.347428708685507 -1.584223952627678 0  7.270005285479224 -1.371435999293445 0  7.454304094382014 -1.460066189759806 0  0.09980534337217506 -7.693904968183588 0  0.1229791539989122 -7.674147019852464 0  0.5893505492141777 -7.561072032839077 0  0.6191275680085475 -7.529391962203228 0  0.07450484351439357 -2.529575391331893 0  0.04788392549908238 -2.514705229725945 0  3.965102946423158 -1.784706993486482 0  4.031609227988977 -1.670912667718959 0  4.092463069353913 -1.782829843892912 0  1.322919544702257 -6.248109863259208 0  1.265126788774992 -6.237908306190225 0  1.302329710740517 -6.192146107920031 0  6.990824770679691 -5.274786969812038 0  6.874869278456295 -5.461992402870026 0  0.06575197418065848 -5.026404347879605 0  0.09445146084337352 -5.037661129245302 0  0.1628791749011889 -5.899801555972958 0  0.1262294465728449 -5.895700019619625 0  0.1477040362714899 -5.869993673427985 0  0.24767184344363 -3.449633237404496 0  0.2134767098077148 -3.448521183681653 0  0.2303851221529989 -3.421460695415349 0  0.9850763326813876 -5.688338854507858 0  1.015070116222372 -5.645804413060556 0  0.08899934899873685 -1.036790660241416 0  0.1148318024863038 -1.018899815949606 0  0.6009602463827708 -2.708078718757819 0  0.5805680029653324 -2.746834838888274 0  0.4988651800331958 -1.944347634111196 0  0.5213582208195895 -1.978439319292789 0  0.2424164975765297 -7.803861781678393 0  0.2666688992838733 -7.779709092264225 0  0.5894670595407803 -3.587266589948564 0  3.514635602398451 -2.696897428361899 0  3.443980819827591 -2.799472917887142 0  0.04546307183932896 -9.661179808370118 0  0.07123674786073408 -9.643208708212029 0  0.6675773875772979 -2.900667979270249 0  0.6891844459308452 -2.861920102703563 0  0.1644910569041595 -0.8683615567192433 0  4.368592830939287 -2.274490000627669 0  4.50188095206525 -2.271937277612892 0  4.434720551411544 -2.395575838718845 0  0.1241298725929063 -8.510303706444088 0  0.1263744719783766 -8.539165196654944 0  0.7718350108828549 -4.233523094531495 0  0.8134429705466566 -4.235181424630275 0  18.83907900762345 -9.557268286277784 0  18.35811036705998 -9.588848959686127 0  0.1075020468371779 -1.9787509004376 0  0.1240111272430511 -2.003522664380726 0  2.666841559544306 -9.498951790968739 0  2.620717914788393 -9.573761413918747 0  2.575959723183505 -9.498432057118096 0  2.927435648971841 -0.08829964299305892 0  2.88078363233198 -0.1641468082816111 0  2.828357800710064 -0.07584716528855218 0  1.011306093195895 -0.1386509741538715 0  1.067124114206663 -0.1326562831378606 0  0.07338710760278033 -6.21720973026595 0  0.0470524099340679 -6.20142243331839 0  3.668932176675492 -1.481814320513676 0  3.644478315060798 -1.582007160300976 0  3.564555953343651 -1.510215064138363 0  0.483350211131194 -7.715714184803867 0  0.4733931465503396 -7.677538736217874 0  1.570709521897079 -7.576054409118962 0  1.50440296791248 -7.573039134257757 0  1.537085674503034 -7.51670837048268 0  0.7152121827396485 -2.325405272766155 0  0.7342411531596156 -2.283006537551554 0  0.3884696327584116 -1.511275621004036 0  0.4026579790512343 -1.476478265063028 0  0.4261092014434631 -1.506902393614295 0  0.4690271176848846 -6.980083775804218 0  0.507793674579478 -6.961655709416038 0  0.4955214853281866 -6.994898096022168 0  2.813251714976865 -2.197652006196819 0  2.837886893015268 -2.308817881072095 0  4.84675449916452 -9.626262079597584 0  4.919386166011611 -9.489344615160528 0  0.02128775614411182 -3.316889287020065 0  0.1147018762352054 -2.954467964569861 0  3.134701728310944 -8.051349445241327 0  3.107296706978019 -7.946512026005029 0  8.829547292212686 -0.4311043294587584 0  9.076133191057787 -0.3396257644591429 0  2.739572625850116 -2.335740381679374 0  0.4192031953976532 -5.496419972695174 0  0.3816390945776895 -5.489553233608467 0  0.4060519298840362 -5.460266442933531 0  4.984111564243284 -9.361248460786298 0  5.041759047683581 -9.199453928331828 0  5.136561387349836 -9.309273563534953 0  1.459914686168815 -0.860733122698834 0  1.523146705035874 -0.859387233442094 0  0.3180138955561489 -1.325847412503361 0  0.3117532439029365 -1.362456741329804 0  0.7216696112178109 -4.403846392665905 0  0.7669942482203513 -4.404940284410685 0  0.7429151681442967 -4.44289426908304 0  1.618007109083617 -8.392848372506593 0  1.572562623366736 -8.450983728639024 0  0.1360438149592316 -0.7491854063558732 0  1.028500489658537 -2.954495547966693 0  0.8664777008155937 -9.554800996276398 0  7.849701848769948 -5.8471330770231 0  0.735590638545057 -9.548872117938464 0  0.1153935113590272 -6.599192330936335 0  0.1165200416832679 -6.628499489200329 0  1.042603302176536 -4.598591211689242 0  1.073537699073682 -4.55263830605218 0  0.1481866031492398 -6.704564712846691 0  0.1712688614931857 -6.681630370283005 0  0.1780272911531586 -6.712934639211708 0  0.6359469031409279 -9.86581809612694 0  0.608259128397874 -9.835295879334833 0  0.64646517547542 -9.828673509706288 0  0.2842471574803902 -3.210216795891779 0  0.7670056296147312 -2.193239082951947 0  0.7292494320134075 -2.173228417679899 0  0.7767642065955584 -2.154927134611372 0  0.2636682050654358 -8.538576576816553 0  0.2862224244171756 -8.509294372425199 0  0.09490604688749826 -3.154078308203051 0  0.06736378529041609 -3.169322025602464 0  0.1201822478674934 -7.769466334797929 0  0.1393373642258808 -7.740833974060604 0  0.3199240743111389 -1.567220317464854 0  0.3576484502816548 -1.576398394237918 0  0.8834495748484805 -5.905973204241186 0  0.860293934483968 -5.85672273124313 0  3.779744787511783 -3.292513270288191 0  3.692375920990408 -3.193875114662313 0  2.409209792836144 -2.342051600971804 0  2.366843922038928 -2.267903252496658 0  0.1663677630985347 -4.84225198806247 0  0.1524252771304617 -4.814077801173824 0  0.1842356389701401 -4.815965130150842 0  0.2917874238210061 -7.268701762305303 0  2.382610747356233 -0.1979442205834427 0  2.341882586610428 -0.1277798409370572 0  0.4938059181148908 -7.756249356649043 0  6.384924343857037 -0.1595671645155301 0  6.201220242374006 -0.1595671645155301 0  2.005667514777471 -4.185083181192754 0  2.047629055194188 -4.123108338046224 0  0.5301555683264301 -7.008664149240385 0  0.4913890114318384 -7.027092215628564 0  1.374665308209543 -7.499268871203212 0  1.409341485118906 -7.530155366002631 0  0.6516508472279092 -5.967928438357359 0  0.2449667444785799 -0.9988221580650301 0  0.2675703765644624 -1.023989564395074 0  4.291258083784463 -1.66673221737092 0  4.224169135869769 -1.551000077918458 0  4.3564578687345 -1.54869677716399 0  3.475567397237111 -9.35549128642425 0  3.364556161216194 -9.353869580504487 0  3.427115696493566 -9.263798295411565 0  0.4903149454957898 -0.36687304760299 0  0.5060343089383856 -0.3344659132170236 0  3.296045079339351 -4.942323408177794 0  3.344871745078173 -5.037155822680377 0  2.845796783023596 -5.658298873292348 0  2.886700064175598 -5.749218960031603 0  3.226133595557746 -0.09251504162260638 0  3.121642688583689 -0.09251504162260638 0  0.1768153998349806 -5.757112079267555 0  0.1860236869838161 -5.786115731642694 0  13.44370172600588 -9.374058170789606 0  13.61830854619283 -9.658189039362579 0  13.24264220769788 -9.715869131427027 0  2.61620704963793 -3.874034811408278 0  12.20034081917563 -0.2790146232244721 0  12.03987741938988 -0.5495284345311342 0  11.86113546253253 -0.2705138113066621 0  12.03730463146969 -9.45262094076821 0  12.19473957727752 -9.726676950608347 0  11.86416387945468 -9.725943990159861 0  10.91691770513393 -0.2550350529340086 0  10.76992029485013 -0.4783462281567221 0  10.61502715969732 -0.2233111752227144 0  10.93340315222937 -9.723844972861606 0  10.6243291918706 -9.704957394497319 0  9.637460014474609 -9.543815645653199 0  9.768529714781128 -9.762253434673795 0  9.49418903406959 -9.781562210979406 0  8.616686874619926 -9.603498002452461 0  8.726963721318729 -9.798212441981297 0  8.48905075692339 -9.805285560471164 0  6.450833915711719 -9.65153221598883 0  6.546297949794051 -9.804825439650939 0  6.355587904259615 -9.846706776337891 0  6.916856680049548 -7.862050952484303 0  7.116962553266488 -7.985449808087933 0  0.7681198703408043 -8.026122807992053 0  0.8052567813816154 -7.989631249341883 0  1.18176777148901 -4.558373511377726 0  1.206260296983739 -4.608025489590188 0  1.924125741227666 -9.612311552347535 0  1.885742196417407 -9.670669406678963 0  1.852805182796367 -9.611021710705629 0  19.35152339342321 -9.557268286277784 0  6.003952967850372 -0.1607175962542176 0  3.247349129211184 -1.998735276255911 0  3.300700071232495 -1.903386739969979 0  1.394102690485614 -8.787334204229628 0  1.420687136394548 -8.838511568477021 0  1.385394422040775 -0.05001976225665317 0  1.333165302700101 -0.04767569485372825 0  0.5059953711222747 -4.156173958116326 0  0.5260469919331783 -4.188474226958157 0  1.908771385067787 -7.154446323696873 0  1.939291171972673 -7.219083603549827 0  0.3465488493736792 -8.401589118450021 0  0.1305721293549009 -5.978460056865405 0  0.1379314051802982 -6.008694442991638 0  1.569072443902266 -0.05310141692738135 0  1.506509876972627 -0.05310141692738135 0  1.747656157856163 -7.404921034413224 0  1.77938945041522 -7.466723027690733 0  5.403776114171105 -9.722591623956811 0  5.483502511690503 -9.85796121800314 0  5.323293659439765 -9.864630405953669 0  0.4255366029836445 -3.658253714993653 0  0.401795858194081 -3.622444109505379 0  0.9591245489723477 -5.41307187755522 0  0.98096175986562 -5.458337354905396 0  0.9292993488378229 -5.455535141982638 0  1.601294771637207 -7.638340170940608 0  1.62766136394467 -7.701301737481106 0  1.417428526112408 -5.860443712810029 0  1.387820982272856 -5.796601853078302 0  1.604377674468953 -0.2281612789212382 0  1.618678045846623 -0.1651639135743057 0  1.784964411339274 -2.989305401112118 0  1.822353288386893 -2.927318775333271 0  0.2562282422337532 -8.4874706829013 0  5.168403920161156 -0.1281525028950057 0  5.097902393661071 -0.254055421232799 0  5.01751196602865 -0.1259029183377933 0  0.1707951959196308 -3.062929694879374 0  0.1547238012645327 -3.033850616642093 0  0.1854339322565526 -3.032477057059249 0  0.8220840459369505 -0.7642942917355349 0  0.8577742702137812 -0.7990644942669407 0  2.720609406124133 -1.699302410618259 0  1.245423072279124 -4.459147204593402 0  1.219505840751404 -4.403365390078116 0  1.278328844908794 -4.402564070330902 0  11.93559886945405 -5.365159482007844 0  11.7564858105658 -5.622939191614899 0  11.60965250770612 -5.335639998481742 0  1.586961155508918 -0.8569053439810119 0  1.553178478669029 -0.8009464826623827 0  1.224432445865107 -3.016569294359046 0  1.252657056197126 -2.966737169591355 0  0.1990874458708163 -4.405442532032424 0  0.2166862874012168 -4.376856107213366 0  2.048302997688848 -3.068220569965057 0  2.088603950227494 -3.002444169447942 0  9.307095361155902 -5.147431846148811 0  9.191340147069237 -4.914858679837392 0  0.1545277124916069 -1.784689779896494 0  0.1349126044992044 -1.758057067673476 0  0.1701234042292885 -1.757055008876275 0  0.2606818630722323 -0.395339410942773 0  0.2422840208697892 -0.4169218155577354 0  0.2257466279467817 -0.3947273691522639 0  13.33641427212335 -5.533310450338463 0  13.14440829259377 -5.804559019927265 0  12.95928984186254 -5.438876048044087 0  3.99724389834606 -9.79158222623737 0  4.050365154118428 -9.892063303483779 0  3.924688829111155 -9.89951892275359 0  3.227964414074702 -3.937492308312584 0  3.175371884426966 -3.840103831318746 0  3.281635919574795 -3.841666420396511 0  1.917947610239853 -4.310538037501089 0  1.07828579073853 -8.468497456750764 0  1.097741517604568 -8.518761548747229 0  1.261048808879362 -2.186630905232823 0  1.519676820495887 -1.420781709018159 0  1.455798554055026 -1.416871847876719 0  1.494468626981423 -1.362749694821932 0  3.037650386742303 -7.187306352379901 0  3.093642523262156 -7.271728581874434 0  0.2237556470228714 -2.256367439184622 0  0.2385919915658921 -2.225953728550169 0  0.1723376716624827 -9.933329786080897 0  0.152566239283356 -9.956742539193808 0  1.760580189774869 -2.522991032418495 0  1.795789232563491 -2.467620222362022 0  0.8415832650641555 -3.399311278924589 0  0.8717564370318591 -3.352798548241876 0  0.150693609057619 -3.92508739908458 0  0.1667145250408097 -3.895915825670979 0  0.1526142311152316 -2.143997810082868 0  0.1656946501316856 -2.113801665741708 0  1.048523782452966 -8.997659648454141 0  1.075170479978571 -9.042655080914525 0  0.3612123790470161 -4.974908308307604 0  0.376304413134676 -5.007539956992395 0  0.3388964755177231 -5.004446626469152 0  0.3704726372384624 -3.550353985411018 0  0.3903038085034822 -3.52261590841228 0  0.3001786427485182 -3.423108513384839 0  0.3179667945946036 -3.392797391509048 0  3.026702007311201 -0.08829964299305892 0  0.2366184552356412 -2.942512330608402 0  0.2530693647243112 -2.972234810019208 0  0.7169400354032263 -9.848200241788645 0  0.7401809726058808 -9.883098730090328 0  1.101818989206267 -9.088243450748113 0  1.129722466696562 -9.042962632946413 0  1.219104439273984 -1.892830454203527 0  1.248736798618751 -1.840273083130931 0  1.280523841850965 -1.891089157416654 0  1.009256598839054 -5.079559382786075 0  0.9575250953543666 -5.070883467798241 0  0.9906551849756404 -5.024145957178188 0  1.196956876351349 -1.734205701940847 0  1.223626857042733 -1.685584028372202 0  3.508219320621327 -9.810877521593433 0  3.562756722331825 -9.905149326664469 0  3.447967776014558 -9.905728194928965 0  0.2475300934539284 -9.081613118899275 0  0.2755791661960245 -9.060367003567443 0  0.6183429673172061 -9.903227163530101 0  0.549600767213196 -2.407820622643271 0  0.5278621428985755 -2.372166622314817 0  3.064533400619016 -6.923320510804368 0  3.126804221396281 -7.002213758291245 0  6.430426252732557 -4.902320675829253 0  6.244658369537882 -4.873424100888429 0  7.486596662052182 -8.036927900512456 0  7.667528256729975 -7.930644602491463 0  1.539947445251149 -1.634616642017114 0  1.496545610251225 -1.673592332001947 0  1.454859142681226 -7.558849751331445 0  1.393421507281698 -7.575312021712602 0  1.088517572489316 -1.536575461483109 0  1.11381912651605 -1.490134846050128 0  3.224563271481182 -2.847837868114899 0  3.123828830331318 -2.821682550865683 0  0.1669739644812864 -7.947658668319273 0  0.1842796945590308 -7.975973050474715 0  0.1544600080542224 -4.954237470935693 0  0.1674124201502334 -4.983875430611225 0  0.1409422566051575 -9.196075892828112 0  0.1417455729169124 -9.160063537599271 0  0.9350093222834488 -1.254645290565027 0  0.9101190865217443 -1.21043618912727 0  0.9573467852608246 -1.212845796605411 0  4.354363213379788 -4.730478822645756 0  4.221216199023104 -4.721020422189184 0  4.288428405350235 -4.592132792524728 0  2.703040768538997 -9.715534949272906 0  2.700855459805126 -9.794706187199777 0  5.223255029607884 -4.792322335391774 0  5.155095405713929 -4.652524192103463 0  0.4447528938725878 -3.693435997522648 0  0.4641226528326463 -3.729114068707736 0  0.9885014629851465 -5.370311970059983 0  1.041593717039728 -5.370143498374563 0  10.21617956248624 -1.613352836231139 0  10.09075827716504 -1.870118748533945 0  6.96534681030035 -1.855012653615708 0  6.792443877557805 -1.738357537791376 0  6.958124816595065 -1.694341145907677 0  0.05000894537474565 -5.588746801547909 0  0.07491736858975528 -5.566572059102083 0  0.5283139819645779 -3.150320086433369 0  0.5257347100693011 -3.183480391435386 0  1.465966978854643 -1.201320209778033 0  1.436691096458013 -1.252339711511217 0  1.405500926227733 -1.198146284071821 0  5.810689829270023 -9.273019208142756 0  5.979630367261379 -9.26400165867199 0  1.215246164052786 -4.316143477195189 0  1.220649102063973 -4.24948368441876 0  2.6974187335646 -9.871522360662262 0  0.1271808512231534 -8.164690582343765 0  0.1214672105238979 -8.133090944764415 0  1.514556341624456 -4.023400279138206 0  1.544300682755992 -4.080823402061851 0  1.230409044895351 -6.281937136387278 0  1.209819210933611 -6.225973381048101 0  0.06115275984342006 -5.00164464091731 0  0.04627375184601235 -4.9727597263004 0  0.3066268627763691 -9.909346211120759 0  0.2147384347918333 -5.107936034399694 0  0.2516197101502939 -5.11762455642465 0  0.1192532363283618 -3.982939389686191 0  0.134168606216063 -3.953773054106084 0  5.204128981293717 -3.99352126319262 0  1.622241636933461 -0.9140152639299242 0  1.655754785638527 -0.9723138089734649 0  16.85833059300584 -3.25054482831033 0  17.1804603332147 -3.554168917813481 0  1.135207890140299 -8.378886628567768 0  1.11139515818447 -8.332504184806046 0  1.164643538178368 -8.334178045540607 0  0.9149409114731384 -1.384893181644895 0  1.444828864075792 -0.05001976225665317 0  0.6089684208844837 -9.205643639653823 0  0.6270212714108663 -9.242126059631122 0  0.6189666461547727 -6.85310813631351 0  0.6049707175271024 -6.814464192793556 0  0.646108735775007 -6.820856111086038 0  0.3738305884829067 -1.542392292724806 0  3.162316878511534 -6.768482038833309 0  3.046859214543201 -6.747840698572018 0  6.775553849807258 -3.731529866849832 0  6.861730140285019 -3.899919552462691 0  0.5156053854140836 -3.086870700469762 0  0.4772312465329769 -3.086759638385594 0  0.4975980619613729 -3.051104300313418 0  1.484633493336441 -2.276919918783119 0  1.525759220435035 -2.222738206708744 0  1.781793737933874 -6.58355675304762 0  1.714399716790759 -6.532396411246273 0  0.5096635175971276 -2.555537016016405 0  0.5346446927297421 -2.516349400217913 0  4.074821498481381 -1.555729707575338 0  3.475765845529821 -4.435181418041503 0  3.601180617931039 -4.4426953596532 0  17.41207270362124 -5.847364667598102 0  17.08899352198677 -6.225498159029716 0  16.88496017885581 -5.804877349380488 0  0.1720566708132978 -0.7440103461338019 0  0.1459800852218862 -0.7176459906349244 0  0.9920559343570652 -0.824230948711616 0  0.9450476511679291 -0.817084287294934 0  2.209077114158443 -3.362289272672789 0  2.246528498742901 -3.29026012941603 0  0.8487816115920115 -0.4033325082032828 0  0.8232858411982225 -0.3630574709825405 0  0.2364946498042002 -1.896188689472257 0  0.2488898548803498 -1.86614957511016 0  0.1815209155217072 -7.431028522659414 0  0.2050040340756141 -7.406634683436806 0  0.1314693988948008 -4.060907729224743 0  0.1489238761020246 -4.036552278330424 0  0.457392450121322 -7.50084205836593 0  0.3474621565265128 -5.691580887190371 0  0.3117015526405531 -5.688207814227626 0  0.1340413727060952 -4.008553292200371 0  0.1645094867910579 -4.00926963732667 0  2.759341062671247 -9.500920038276032 0  2.714582871066359 -9.425590681475381 0  2.116136798217568 -6.402699695827708 0  0.1431386251498026 -1.478111688735201 0  0.1736405392366969 -1.474399119597834 0  0.1408031241114607 -7.527318486494114 0  8.283207412298264 -5.464275684719594 0  5.010832014234678 -9.872451512431768 0  5.165790360087183 -9.864630405953669 0  2.249031928023291 -2.478136128157234 0  2.207691333934767 -2.54087370367296 0  2.166801574972968 -2.470493795593409 0  0.1169805103097943 -1.956465377932598 0  0.1169885178788963 -1.920934374354431 0  4.05122887110014 -7.581529478331721 0  3.071890957245095 -3.835252039753993 0  0.7662910858873104 -6.551054908770491 0  0.7827628401536249 -6.59154571305468 0  0.1462334516553057 -5.299407570699559 0  0.1659615994768657 -5.273714233583529 0  0.4445475446340943 -5.296946494797676 0  0.4894823578261764 -5.301445754801901 0  0.1251069315245097 -0.692941767512238 0  0.1611197873785759 -0.6877667072901676 0  0.4050983399193928 -4.793725378171646 0  0.4331720165337423 -4.761440071239012 0  0.4380491883794981 -4.803574663466838 0  1.463873754812742 -1.307176735448961 0  1.527752021253605 -1.3110865965904 0  4.009068536549808 -8.108309371077404 0  3.949085444287677 -8.006387163337038 0  2.256036353367351 -1.373809473531546 0  2.215624985605004 -1.441073177241456 0  2.176698094473554 -1.36976753639813 0  0.6311409958016849 -7.296831553836284 0  0.6752197103533071 -7.305436861891039 0  0.1323704700763351 -1.848118599943511 0  0.1413842342977638 -1.815267232497684 0  4.063171598292376 -6.981330644369265 0  4.122558271300395 -6.866021818806489 0  2.803093176593361 -6.856627427299453 0  0.3338090556254354 -5.850033874864011 0  0.3216460751979309 -5.816246055550513 0  0.3576758292975768 -5.824791172134886 0  6.954955929110039 -4.065730792581645 0  7.04265601694544 -4.238969965975757 0  6.845723451014877 -4.238382478320636 0  0.1865306404529345 -6.745298957399831 0  0.2096128987968804 -6.722364614836144 0  13.99500225302376 -9.658189039362579 0  3.425816651296131 -0.2764181619000423 0  3.3557805512018 -0.3678231811301815 0  12.54030689474644 -0.2790146232244721 0  12.53470565316879 -9.726676950608347 0  11.22373708402615 -0.2550350529340086 0  11.24022253129388 -9.723844972861606 0  10.0454342037904 -9.762253434673795 0  0.4563731010842336 -0.5608775067566238 0  0.4743834716955817 -0.529977486272192 0  8.976870022066638 -9.798212441981297 0  6.739670689113025 -9.804825439650939 0  0.8748217596284587 -0.4430994039014937 0  0.8995087224790854 -0.4826905838804016 0  0.3931944702738157 -8.151560963651063 0  0.4235305532048699 -8.121168099177066 0  0.4318644745152636 -8.152927144302314 0  0.1015386172113644 -0.585126380700796 0  0.0743099433951997 -0.6016002215750245 0  11.51386856950521 -3.981468753452111 0  11.66414817301728 -4.235335307823353 0  11.34434726135197 -4.253555053633543 0  1.161222340560059 -3.443263979835169 0  1.219241776075261 -3.425731968231608 0  5.649295457966762 -9.85796121800314 0  2.481313730430148 -4.253539680645142 0  1.574552345257262 -9.941518268343597 0  5.325907219815463 -0.1281525028950057 0  0.1302077481864146 -8.569969877549937 0  0.1343738729690003 -8.604436827644793 0  0.3031368969869632 -6.193703190462461 0  0.2939584677760436 -6.161257366785451 0  0.3259700346389494 -6.165237226711245 0  0.7489827139920955 -2.243498185766958 0  0.7964974885742446 -2.225196902698431 0  0.5961382197818423 -7.445905068716373 0  0.6380056722301894 -7.455688405981972 0  4.178652578755347 -9.892063303483779 0  0.7025725346725196 -3.141880415958386 0  0.7328690965438192 -3.099517559033417 0  3.950601248760261 -7.292285118708886 0  3.820979848448625 -7.264508883928379 0  3.792358662102254 -4.146917200050182 0  3.850798877733975 -4.249692304927677 0  3.728125539185646 -4.244723876996817 0  0.5125892064258419 -2.4801827645136 0  0.5526266461048017 -2.481834674642584 0  4.307895775312868 -4.134816946418456 0  4.370446280986812 -4.238298690039878 0  4.235142574439525 -4.255161878821156 0  0.119482925351484 -4.37793314790105 0  2.679418533338833 -9.023185970635017 0  2.773993697310651 -9.018644559157734 0  1.420309819118168 -0.8102326498248704 0  1.456424575691349 -0.7500480216293326 0  4.238119730698243 -2.275360431416909 0  0.6481964270506726 -9.128402400879859 0  0.6770991825952883 -9.095664893691692 0  3.678536122560976 -9.905149326664469 0  0.6851323551503388 -0.9727783934688521 0  0.6468725379711167 -0.9938101919650473 0  0.6578150736722375 -0.9515100429004786 0  0.3079068274508678 -8.808269645363058 0  0.3408489811813133 -8.82201773465607 0  3.454114795108083 -7.537158103326506 0  3.502963061228833 -7.635979679677959 0  3.402685594113507 -7.641393126694977 0  2.880860039423268 -9.871147491074968 0  0.2131708590038066 -3.391778906248506 0  0.9439582562203572 -2.209858972915829 0  0.999418713219379 -2.203823880565419 0  3.238084321264509 -2.381859396264864 0  3.184735578623433 -2.282582871520412 0  1.033351632155165 -5.462370635750455 0  1.003526432020641 -5.504833900177873 0  0.09531048473306569 -2.322788911049441 0  0.1217326275351098 -2.307905218532953 0  0.1250816624123772 -2.331485022567221 0  7.579582928680562 -1.257505985148275 0  0.3255530088037375 -9.532305723522965 0  0.3413009914355882 -9.564043977483493 0  0.07152070683154399 -1.361891909155434 0  0.04694507253100255 -1.34245282537366 0  0.07295694177453171 -1.332288245792947 0  2.650155371553268 -8.94083046783782 0  0.2567846165848771 -9.788555230111365 0  0.2895518867556355 -9.79262096866616 0  0.2249235824690423 -1.298339768464069 0  1.004336664088211 -2.995465560811621 0  0.1028266490674419 -3.60834562557684 0  0.07378932252195369 -3.620785015985189 0  0.2741052071922496 -5.089333240750056 0  0.2955981275088018 -5.062710626600973 0  0.04689283003298961 -4.411996986177248 0  0.07387908114586494 -4.396197980679713 0  28.65029837231739 -2.067707374999128 0  28.98874284091848 -1.692000412703067 0  0.1046086209407768 -9.041216111315197 0  0.3810443970117703 -4.947744277817786 0  0.4217375707206994 -4.945211712664128 0  2.245887815249333 -2.053706455501199 0  2.198795839064953 -1.983242180383365 0  1.998317374095981 -9.614598209053355 0  1.96538036047494 -9.554950513080021 0  0.4137742345304254 -5.011897438185545 0  0.3914583310011324 -5.041435756347093 0  0.3280116348924373 -3.96679973447592 0  0.1743937413519276 -0.3356800762274226 0  0.1735154179575424 -0.3672887637301629 0  0.06794752741035737 -8.310856924079197 0  0.8305558510551414 -7.90906374590782 0  0.786280057814551 -7.894144795087556 0  0.8208279136039156 -7.861708888146676 0  0.7906258586318149 -8.874895702105293 0  0.7622492729046435 -8.854260242342535 0  0.2251610058518541 -0.441624131110057 0  1.11149633213825 -0.7491203838555984 0  6.621401910758976 -0.4654798768740633 0  6.437878180534842 -0.4734169188632125 0  6.502320443116666 -0.3111972870419111 0  0.2435362316021887 -7.099172520029762 0  0.2674546231858912 -7.073016054245494 0  0.9802452361751932 -1.538262947508735 0  3.002865496850275 -2.745394686426539 0  3.047871311655744 -2.827290904473772 0  2.938644765533727 -2.825891306601487 0  1.165647331125966 -0.7503900667472978 0  1.137780363011675 -0.7006313795091117 0  3.648255503186482 -8.860941576928377 0  3.708207478063846 -8.957294435154349 0  0.4739692511072207 -2.478736331945175 0  21.35174311169596 -3.714884118177776 0  20.86875713665331 -3.453847566585616 0  21.2173464701357 -3.224390646569399 0  12.26258407981073 -5.388050897907372 0  12.11575077695105 -5.100751704774216 0  0.9415683958676571 -6.046451643446299 0  0.9598290187706855 -6.093855430417213 0  0.1307865983642547 -7.592218113010475 0  0.1378324689443389 -7.619839930828139 0  0.9596681464117918 -8.503982114540399 0  0.9903721010448514 -8.459151219427181 0  7.228224843123994 -2.806169884573729 0  2.90799541644412 -9.090044419416458 0  2.953004771501453 -9.170493756909202 0  0.1615141061119445 -7.454070857147248 0  0.1524457005882862 -7.421682076792049 0  1.274052542902513 -4.156272728746823 0  1.33083233115963 -4.119853357867957 0  13.70325650930146 -5.557270809959387 0  13.51813805857022 -5.191587838076209 0  1.749639323821398 -3.041958191144487 0  3.062282529744714 -2.653291396620707 0  2.953055983622701 -2.651891798748422 0  2.448563027215886 -9.267976129753555 0  2.489041750675085 -9.342775191127762 0  1.16169958021082 -4.41561386509022 0  1.19460535284049 -4.359030730827721 0  11.0203181392556 -3.064045813822148 0  10.90414433510774 -2.813141588753775 0  11.19165059941583 -2.823754450349396 0  2.003708971137289 -8.175217547853368 0  2.04243636217889 -8.238328853436231 0  3.858865831494594 -5.392914235407185 0  3.956074211237141 -5.328188349564906 0  0.04835314335680962 -8.548781084431196 0  0.2868844687108112 -0.1223129361628903 0  0.3007817776142119 -0.09479689585873885 0  0.3187178730706002 -0.1195488452513338 0  12.13179382093985 -8.40601189050404 0  11.98780352367369 -8.143112669657036 0  12.3040022630069 -8.143617482624711 0  1.528637015246757 -1.201872407775642 0  1.497446845016476 -1.147678980336246 0  6.618230711834778 -4.914373226863774 0  6.53108446342873 -4.736154831383812 0  0.2911139858615854 -5.631010512685806 0  0.3097085396632622 -5.597017979326699 0  0.2902125504077695 -7.49233785260024 0  0.315035727914255 -7.466190115866838 0  0.9308304927166322 -4.880128891087388 0  0.8778146021180131 -4.893846103617823 0  1.455559336532312 -3.903465440576464 0  1.488593221467086 -3.848345165325091 0  0.7020652572354749 -4.365120575709055 0  0.6779861771594202 -4.403074560381409 0  0.5218687770363282 -9.346712196641127 0  0.5069482894423416 -9.312421438554008 0  0.5446617631723996 -9.312150842504114 0  0.2758565100838837 -8.7949013990668 0  0.3957387169493884 -1.575705851068415 0  0.4352814880099096 -1.572828946202328 0  0.6240410475255587 -3.880256836459946 0  0.6696388395757253 -3.886677892812068 0  0.3838737286561127 -5.697938882498671 0  0.3593176149881145 -5.727492100219331 0  0.715730787345862 -8.319606597317048 0  3.682828387656897 -1.384496900380069 0  4.426058978560508 -4.864955396317729 0  0.3070272978851811 -2.816560205715635 0  0.3247205438114804 -2.849027328441217 0  0.2714771037497172 -2.754116041986957 0  0.2886267669427447 -2.723257308927673 0  2.66138175116274 -9.654097003487919 0  2.570499914801939 -9.653577269637276 0  0.2178445215555485 -3.503350398449182 0  0.1870062353120652 -3.5022363596356 0  0.1999251448548609 -3.475579686857219 0  1.822535377539499 -4.099982344295011 0  0.988143336209113 -7.222507875864673 0  0.9391070197409555 -7.210359598076789 0  0.9742014264015388 -7.171800575348204 0  0.8143700415276474 -8.714215757178255 0  0.8075086906737603 -8.66604687309262 0  3.814928502002825 -0.3858200025863674 0  8.57317609770257 -4.660355099971003 0  8.817817669758011 -4.677353824575398 0  9.070884273317935 -4.683966458748144 0  9.326658925756668 -4.694683873090797 0  8.219851196456091 -4.848577238306021 0  8.108615801970958 -4.636060043509922 0  8.335046956034489 -4.657626621489851 0  7.769910418369573 -4.808330312691759 0  7.660851551750351 -4.61169504243452 0  7.884361175773337 -4.630375390068851 0  7.32971679762897 -4.776477450971432 0  7.228180698388323 -4.591898616390522 0  7.444864695105942 -4.605071130476518 0  9.714927371456401 -4.939648386115941 0  9.588674549768115 -4.699749476603722 0  9.856487121716544 -4.713821768539617 0  1.197476275917959 -9.744204518448198 0  1.17281669749832 -9.692006547930411 0  1.226280774621152 -9.691876040521549 0  6.915960861721151 -4.755756159651885 0  6.826156230690614 -4.579914517066541 0  7.023228169880815 -4.587463294300091 0  10.2672508263266 -4.977038103946541 0  10.13450613564121 -4.718664890960542 0  10.41901701856298 -4.741982316855246 0  10.85557470081666 -5.013170949487506 0  10.71477267317273 -4.748418133407166 0  11.01858566474102 -4.761233553053429 0  0.06622028896958909 -0.5162626651657014 0  0.09467002097973598 -0.5277743353129898 0  11.47407662948966 -5.051923329004228 0  11.32700727862449 -4.766703988569277 0  11.6416962157292 -4.792640948439736 0  0.4921138598158308 -2.125426640156817 0  0.5324372085610705 -2.121592983132794 0  1.490867332938098 -9.658940876165438 0  1.462399655140825 -9.60646595488973 0  1.521880390095221 -9.607041553274307 0  3.836836756076639 -6.43942160665107 0  3.770679573453496 -6.55193071433402 0  0.133919554433124 -9.397203616069691 0  0.1543801335536443 -9.371226630962118 0  11.96166647322666 -4.798481346760059 0  12.28865168358334 -4.821372762659587 0  1.926722863283322 -9.489218049550626 0  2.000914496151637 -9.491504706256444 0  28.09865225795771 -8.950774969918264 0  0.1012411896336669 -1.451920886939759 0  0.1100647469243334 -1.48030529865011 0  2.117134220170293 -9.558814643182135 0  2.078455004972131 -9.49101091067617 0  2.15601723179917 -9.492588384072466 0  8.716345197076025 -8.642175754242171 0  8.959545689520013 -8.645146708702441 0  1.820763269470667 -9.551381137527684 0  1.784846865436137 -9.488744016781114 0  1.855272323572095 -9.49002673562763 0  12.79701590434992 -5.145635299564514 0  12.62996687491504 -4.834018591691135 0  12.98424679195724 -4.856010770581905 0  1.813120388809585 -8.121039031402278 0  0.2061069029282709 -0.04944066121103319 0  0.2211943587418563 -0.07428768481949355 0  0.1184150576491376 -1.877304428873409 0  0.6134055292445293 -1.626273803889428 0  0.634112877904748 -1.582555591749568 0  0.6480366746814656 -1.622390944476244 0  0.1396396254042251 -8.635294715126516 0  0.1648758319597086 -8.616316274677734 0  1.625300977695879 -2.5061194031135 0  1.591419559282789 -2.446890659869146 0  13.342107766831 -4.862907328845199 0  13.7089500040091 -4.886867688466124 0  2.533767488274929 -9.421549402286198 0  2.577357630339574 -9.344848223009651 0  3.738186450719297 -7.079291017484989 0  0.1803181120896689 -3.391303661062132 0  0.1972989825763918 -3.362733925618131 0  17.8763675673673 -5.877912242120926 0  17.67233422423633 -5.4572914324717 0  3.210237065212844 -9.260253406426976 0  3.15563396359747 -9.168732882416496 0  3.261501358857275 -9.170656065481323 0  6.443784693912178 -4.564996778703017 0  6.631589153014399 -4.577049329737538 0  3.00439765563576 -9.258089772045468 0  3.052976785818732 -9.170734208225884 0  1.61468591482522 -9.661411100805267 0  1.583601712226859 -9.607253867701331 0  1.647939559159585 -9.609148493956583 0  1.30853474720173 -9.747909413027326 0  1.279705034025532 -9.699064015419895 0  1.337299428186473 -9.702899417407885 0  14.2693393860929 -5.232705024548915 0  14.08795622131431 -4.904452196073964 0  14.47231531165889 -4.921609022925745 0  8.461940703217437 -4.447837905174905 0  8.953136448445441 -4.457179017828803 0  1.722916539583601 -0.9711901773853935 0  1.756760745186599 -0.9102408816056675 0  1.792123392779038 -0.9687466258919359 0  7.999556935351735 -4.439424773252682 0  7.559315452509704 -4.42711620785361 0  9.468218676016811 -4.468857255514473 0  7.138376067357786 -4.416056973805178 0  10.00825331395293 -4.478765981448323 0  6.738856461174063 -4.408756464385745 0  10.11922411185098 -0.954893364508786 0  10.42354712736574 -0.8621317367632182 0  10.3886540159047 -1.083557530887671 0  10.58202798248735 -4.490044920421168 0  3.770559814506393 -9.060952868267318 0  3.827394003519325 -8.956289088526622 0  0.7657720936858929 -1.205203636213973 0  2.276561106005509 -9.562089391813107 0  2.23612707489567 -9.490382000277119 0  2.317991733903845 -9.492079275511797 0  3.5449599114738 -6.010284194079137 0  3.595082080333368 -5.898897191117003 0  3.681526465908187 -5.998179599841285 0  11.18620525098057 -4.501951172488937 0  0.1670167559993097 -5.727001075895659 0  0.1978977209653898 -5.730928560339246 0  0.2413081458767685 -5.767806454505086 0  0.2301625381905872 -5.735109849061628 0  0.2637743192662967 -5.741876739855573 0  11.81459712236149 -4.513262006325108 0  15.05995795795493 -5.252219624050074 0  14.86815843666519 -4.924566485447039 0  15.27441791818264 -4.926924258096418 0  3.887302740787858 -8.849978716913137 0  3.949655077230405 -8.953637150026104 0  0.2612899089226151 -5.434845306937201 0  0.2484402510799963 -5.402387200556531 0  0.283267446526061 -5.408034296040832 0  3.104241079463163 -9.081136867280231 0  7.456009520084953 -3.517983147168293 0  7.257766847449321 -3.573298178478237 0  7.355789782003233 -3.353623225405062 0  12.47588257119065 -4.531748233676978 0  1.403310027585608 -1.092940840283261 0  1.464876455676169 -1.090122454185351 0  6.163418313154857 -4.708894913513189 0  6.083450489504969 -4.537385219507405 0  6.263312180676619 -4.552592586343508 0  3.315460155316226 -9.074101122654191 0  3.3700632569316 -9.165621646664672 0  2.667939962888202 -9.342750002597809 0  2.760439466015143 -9.344718249905103 0  2.991165152123321 -2.083260649884807 0  3.087731498273714 -2.089011221256666 0  5.808694505375064 -4.686975256886159 0  5.731380561966105 -4.525242653597306 0  5.906242678574248 -4.531954943388232 0  0.1907834823694294 -0.6814179648839112 0  0.1699103286720529 -0.6567137417612248 0  5.472103744721043 -4.669269365165714 0  5.395598974941205 -4.520096754224592 0  5.557327618987081 -4.53109035615411 0  7.565503816854863 -3.707746516541149 0  7.663526751408776 -3.488071563467973 0  5.080816673936425 -4.511058089414789 0  5.236096368897663 -4.516809660547523 0  1.289634293843138 -1.096159390818398 0  1.315962551976501 -1.043659738806578 0  1.345514988413488 -1.091254550239706 0  13.17505873739612 -4.55129062097182 0  3.841834463018742 -1.088581966289266 0  3.902641560586037 -0.9787566072379512 0  3.965690509634385 -1.088234482868537 0  0.7269997818328964 -6.19090461626473 0  0.7096899383476334 -6.148387747644684 0  0.7533011613578484 -6.15567516392409 0  0.7532518489972393 -0.3277619529624358 0  0.7729971468313686 -0.2871950257840226 0  0.7973664946454466 -0.3252948762616512 0  3.782723252328211 -1.193285463412955 0  1.863341670472156 -0.9691794369915652 0  1.899228931634971 -0.9041553036797492 0  1.936603003725091 -0.9655374105591052 0  0.8020672841211294 -9.434677506951939 0  3.77733462065704 -4.557192609890503 0  3.721093748394352 -4.448278153435087 0  3.842806627080055 -4.456413438329728 0  4.027164445168147 -4.57400114342665 0  3.966446549353856 -4.458844569734089 0  4.094563495179258 -4.467517818375597 0  4.226487235553508 -4.470659007255367 0  4.359634249910194 -4.480117407711938 0  3.307468366152019 -9.439504283063515 0  3.259016665408474 -9.347811292050832 0  15.89131256620108 -5.287452321547122 0  15.68894549818396 -4.926309133415268 0  16.11404062491266 -4.959184058262938 0  0.8444001314394427 -5.579899648921884 0  0.8248148941079165 -5.533252561682414 0  0.8718090968603356 -5.538685256463615 0  0.10910643186347 -5.349986406699352 0  0.1262151693265423 -5.325388640941563 0  3.481074492952516 -9.167243352584434 0  4.561379635483902 -4.610936621623936 0  4.495429795842607 -4.482347147738634 0  4.635234011619589 -4.491692576381271 0  3.122083819526949 -4.120550756242141 0  3.066908683822366 -4.028699632499785 0  3.176875514631458 -4.027780842977174 0  0.1806190198526814 -5.015162482117412 0  0.2000638779168646 -4.988743294001925 0  4.778250066231275 -4.498741642536864 0  4.927565995977179 -4.511986927888941 0  4.2281045672038 -1.78890286345798 0  13.91192592957509 -4.575771686842955 0  2.623214225288358 -9.263975791439373 0  0.258037724177191 -0.1763604507453245 0  0.272950288344207 -0.1489039168363906 0  0.2899080000001835 -0.1745214194644191 0  1.681587216923408 -1.635860395550035 0  1.743484482836999 -1.636544114758646 0  1.484352067755484 -3.964135076698565 0  1.549301174372889 -3.965432880831398 0  0.3102163879112751 -5.782788349060209 0  0.2989129849054954 -5.747853725105031 0  0.3342094458642926 -5.756068728866209 0  0.9072457870215764 -0.8497702329422916 0  0.8942504756084357 -0.8060975842943048 0  2.178042237221591 -0.1196265186511081 0  2.137615699893818 -0.0609315992775894 0  2.215731329325777 -0.05869491937351778 0  1.274086876324969 -0.6518747717212836 0  1.300675793197945 -0.5997250210486236 0  1.331723375910919 -0.6479370955917592 0  9.088905561317771 -8.870392035975213 0  9.207604214916351 -8.659939303024565 0  6.363816870262291 -4.393487084697234 0  0.1611256173797386 -7.012805582692171 0  0.1498609208085426 -6.980759523503419 0  0.1797196020565579 -6.989837324212594 0  26.3061230249902 -4.016865436738238 0  26.02420221107353 -4.470870263526622 0  0.3062969565014306 -4.350763704935999 0  0.3257169382674476 -4.320955305682279 0  0.2310463488884729 -5.624861703155723 0  0.2068259323820918 -5.648587861257148 0  1.513105995103608 -1.721992085458779 0  1.448547506813791 -1.702059663716771 0  3.351252573804345 -3.009657261614544 0  3.275671885306526 -2.911304848287202 0  3.389141613769837 -2.897457332124598 0  3.015294891060192 -3.923122677431708 0  4.015422355091026 -9.059887994887596 0  4.075331092359558 -8.953577623274109 0  8.582770542708669 -4.247612862075234 0  8.82814115041613 -4.237948327379327 0  2.039797507780513 -9.425278447146775 0  1.648596495721325 -4.028663865699897 0  1.615387768399199 -3.967774424206821 0  1.684478815878663 -3.971740206635679 0  1.485263404590217 -0.6930138884791255 0  1.518202857094852 -0.7463942389732594 0  0.3323024667163761 -5.446946053134162 0  0.3188235337244638 -5.412734433533162 0  0.3550088960721602 -5.419188084245824 0  2.28385713983935 -3.512706282342567 0  2.243829232329803 -3.437287796737039 0  2.325735755260418 -3.439804668459785 0  5.321320243163701 -4.378630651535919 0  2.197447859697508 -9.422578267771154 0  0.165899096427836 -3.417789760014208 0  0.1500272200004193 -3.388744779383833 0  3.801457590662528 -5.992303772601999 0  3.923612923176222 -5.978968303633224 0  0.116244422524673 -5.52641818808837 0  0.1064305968391075 -5.497013877417464 0  0.1341621368344388 -5.502600808031747 0  2.454553626271348 -3.521379484394877 0  2.412239248421749 -3.442563855608016 0  2.501029211923132 -3.44872018593758 0  10.15368082944083 -4.242900008285395 0  10.30296668174329 -4.002834720057929 0  10.43555818018005 -4.243543815641782 0  2.338200982880693 -1.373865956941737 0  2.299274091749243 -1.302560316098411 0  5.654875792186267 -4.376070042656183 0  2.591680294588606 -3.450149951027322 0  2.684634961880763 -3.455224915939561 0  0.7374504844630181 -3.931371621998847 0  0.7151791527522811 -3.890320988271984 0  0.7620124981327532 -3.893963059511858 0  4.360393300068534 -1.786599562703511 0  1.047216058743281 -3.769494016727636 0  1.022218761800602 -3.722286296085392 0  1.075084449654419 -3.722213976901095 0  3.243686522250519 -4.846690844820866 0  3.352471366726245 -4.847610382206835 0  3.138433231316233 -2.184543601160992 0  3.191513133208035 -2.094224797607986 0  2.175437201982735 -1.231388526059066 0  2.213861276924263 -1.159677995508329 0  2.255533537177428 -1.230793302137482 0  1.15699703184621 -3.772113336656327 0  1.12893246107793 -3.722021071060552 0  1.185847746327042 -3.72471271017354 0  0.3457296510717036 -5.101193817575392 0  0.3316205350039372 -5.066568940220012 0  0.3680976256731494 -5.071703152509323 0  14.6867752718866 -4.596313656972089 0  3.717522084449257 -6.663269487341017 0  3.855153266949625 -6.65757270156079 0  2.426036586348388 -1.391434838718858 0  2.46943206774078 -1.300454748559865 0  2.514029932826585 -1.38927278777012 0  0.3987274154755944 -7.6551258440931 0  0.3887499495621256 -7.61776218074448 0  0.4252422573539718 -7.62846860623537 0  3.038814844934885 -1.626135763163651 0  3.088484393736358 -1.716463372720399 0  2.167198498737374 -3.435190886555572 0  2.80441021744133 -5.572846486714591 0  2.899498927811734 -5.580298257631934 0  1.161800922155143 -0.6552423434383172 0  1.187354887961444 -0.6061231608269848 0  1.217485327805692 -0.6527818797894795 0  0.8184092055248691 -6.206168432242872 0  0.8001973903768196 -6.160455438829369 0  0.8479955910585772 -6.168431838528106 0  0.9476060413125058 -0.4804981394853902 0  0.9699732109391022 -0.4367113208830897 0  0.9965484705935861 -0.4774225304470399 0  2.039635302058308 -8.105309286736727 0  2.077689854139871 -8.034372072081258 0  2.11816214627296 -8.099273004218224 0  5.008566959160913 -4.376272396333001 0  7.247608545452948 -4.243405288066187 0  2.706404990555832 -1.537128475592977 0  2.748057458825468 -1.452905015478289 0  2.796611922065868 -1.537106147255696 0  0.1622131981273931 -7.716116704796088 0  0.1541979565708598 -7.683662222736763 0  0.1857124252874751 -7.693533236975734 0  1.273666022329952 -3.779494131286818 0  1.244796415049187 -3.722579321140462 0  1.304550120283817 -3.727268476657966 0  1.80337839746149 -6.309138139914161 0  1.774879008191602 -6.241963699686893 0  1.847057439918643 -6.245817738978892 0  0.8404432413463567 -5.808726468064678 0  0.8926590410732835 -5.814801474744119 0  2.826284385285987 -3.541233660032006 0  2.780243303613425 -3.4559539836965 0  2.877274764542367 -3.459501899179588 0  3.298050862253703 -2.094267656160238 0  0.1057834502650579 -6.084554137941367 0  0.1248596859743181 -6.062729700333419 0  0.407331061258116 -5.563401183609417 0  0.4835226143436095 -3.76487636849189 0  0.5043246421648675 -3.730562177554249 0  0.2652084308865295 -7.519389360582001 0  0.9212654469614776 -5.54306648151795 0  0.972429390795174 -5.548839850910833 0  15.49714597689422 -4.598655994812233 0  4.71230022658998 -4.37015216865156 0  11.98411843051473 -4.241175706143675 0  0.2676768404729835 -7.651868710275071 0  0.2340826460370966 -7.643330775386522 0  4.433488626045881 -4.360873362469273 0  1.363373183713641 -8.73313697980544 0  1.420989728751163 -8.731194634874495 0  4.165769339739217 -4.355502433562807 0  1.786219103140059 -8.314797963359576 0  1.819823724810913 -8.374603444645377 0  3.910205677091168 -4.349930113278674 0  3.666652624354054 -4.341916188092426 0  4.267396493776197 -3.106450987933102 0  4.331396910320933 -3.224310034339581 0  2.549365916739006 -3.371334322240462 0  1.555134034429587 -9.554778946425625 0  2.372211340912202 -3.367145370002488 0  0.4630796010520584 -7.638209488094402 0  0.5012530243349591 -7.649915954728285 0  1.790282894921329 -4.038007646101266 0  1.75565598411599 -3.972453747392087 0  1.82825133583653 -3.977831745364597 0  2.735625341137142 -3.373493155087143 0  1.856706394807546 -8.437958985717191 0  1.893119530908422 -8.373579914987042 0  3.68082288043033 -6.77935724761381 0  3.596349186934201 -6.67371526038704 0  1.431980528265603 -2.390029025259358 0  1.39265640026164 -2.332594824215324 0  1.451098922656488 -2.331413282447335 0  16.76222352671003 -5.373535552171833 0  16.54927399120489 -4.974280270804247 0  16.99508982498514 -5.027488576581288 0  1.156439959547582 -4.508792877854667 0  1.211927880063161 -4.509529157863675 0  1.523957621340404 -2.334354119827154 0  0.264808447196387 -3.480346102190889 0  0.281716859541671 -3.453285613924585 0  1.103935164135251 -3.674813350418308 0  1.580991125644925 -8.677369845034686 0  1.546898351890432 -8.621365955273841 0  1.612206914223663 -8.62127978675103 0  0.4724301620349536 -3.012644165960614 0  0.5108043009160586 -3.012755228044782 0  0.2180395325553555 -7.702000653597429 0  0.2505131969585559 -7.71181347704503 0  0.5271187574727936 -4.116932086155914 0  0.3628591757696604 -4.322051716432118 0  0.4005130420314167 -4.324640788157028 0  1.585183494530227 -3.908509221767179 0  1.632907870430302 -1.693390965642384 0  1.60978344503415 -1.635994183651606 0  1.869335712363359 -7.081608302881969 0  1.940795990197264 -7.082823129159195 0  1.167473320462733 -3.115696073795636 0  1.194659741765896 -3.068583504482068 0  2.136947232999459 -1.29634044831801 0  3.51391641611513 -6.121055787961835 0  3.427472030540311 -6.021773379237553 0  1.270685992002425 -8.994724350159807 0  1.241834496965968 -8.944253408337179 0  1.299085513236397 -8.943549755640843 0  0.8334100102663164 -3.937941440163534 0  0.8097139548174752 -3.894159970369097 0  0.8588401352403032 -3.89708771729391 0  4.394301316753022 -3.345508859317666 0  4.468656700341947 -3.231562215492778 0  2.159689707633255 -8.169958652004166 0  2.19774425971482 -8.099021437348696 0  0.6942008532454622 -3.849269330325078 0  11.87995615606576 -5.950605295111543 0  11.55400979431783 -5.921085811585441 0  0.3662824685053145 -3.823710972536642 0  0.3849190127545903 -3.795716246703278 0  2.576364188096369 -7.718795425652701 0  2.526757671199242 -7.642431021101635 0  2.617135041353723 -7.639751591936554 0  1.046119060185353 -9.177540396899671 0  1.072953354448359 -9.133197359549703 0  1.722447256793863 -3.911564305899009 0  1.787537183056859 -7.343393881324836 0  0.5577756262597564 -3.013863814393818 0  0.3547156161839311 -4.449347012043334 0  0.3921143885535283 -4.455771274037783 0  0.3984915812069794 -2.785808117770355 0  0.4183715359381104 -2.752297911705985 0  0.4371596716889332 -2.784932112165848 0  0.5331882088756643 -1.320941320756133 0  0.5075596070085666 -1.292701412079579 0  0.5461153459196062 -1.284267963842431 0  2.087859610163589 -3.14045473466783 0  2.723571975965967 -5.569273111338475 0  2.777274120754106 -5.491272495678061 0  0.09307739719856123 -1.378739298610675 0  0.1207978240584637 -1.372668111831016 0  0.5788379070531366 -3.053347232438536 0  0.6006413324704134 -3.015995684434767 0  0.477228651746449 -2.786978790971694 0  0.4976321768854302 -2.749598018186839 0  0.5178212022118132 -2.785154903057055 0  0.4030824371080968 -4.556259135972373 0  0.4255485849100431 -4.528391034138425 0  0.3248593446192913 -2.785559168045522 0  0.3432215235614748 -2.753579690163844 0  0.3613412665139748 -2.78515339519217 0  0.143864905839461 -7.894121648190849 0  0.1694878593916354 -7.872468838526782 0  3.080345538276738 -7.09431974015977 0  3.283139549779285 -4.029343432054939 0  1.691117433230966 -1.030819553259733 0  0.78744262310674 -3.853109336642234 0  1.376981769452245 -1.145440492295081 0  1.633977478227761 -7.582009407165531 0  1.829497464869158 -1.030128732771291 0  2.853276588910038 -7.546896052462685 0  2.897994431774595 -7.460194222151328 0  0.3165179497381025 -2.343893783351847 0  0.3327936823102107 -2.311200705803054 0  0.3519831188907965 -2.34218303795091 0  16.34690692318777 -4.613137082672393 0  0.1376122002087854 -2.2890284698658 0  0.1708841993250161 -2.287332647977488 0  0.388577565880956 -2.342645995809761 0  0.4266488105751414 -2.340295060976406 0  3.346008177337946 -6.988807557712915 0  3.395000704430156 -6.901710498877199 0  0.3801294022647959 -2.817787595652033 0  0.1854672717877968 -8.185860176661555 0  0.2092159629661481 -8.163272411510242 0  0.3457701656219818 -4.289432412441127 0  0.7897077200835305 -8.952303066798857 0  0.7564459657103022 -8.98337095008603 0  0.2027326640586224 -2.881691194619357 0  0.2196804306740567 -2.911967527813142 0  11.88808162219551 -9.195751442070586 0  12.21865732001834 -9.196484402519074 0  1.251455899235324 -3.070801829187251 0  1.556652883523851 -2.39258971718435 0  1.590187454203804 -2.338096353520134 0  10.8823939358531 -0.7504330045050596 0  10.58050339041649 -0.7187091267937653 0  3.974438800007777 -4.252123436332039 0  4.506241826919226 -4.240528430066574 0  0.2631296874246551 -1.834183542964909 0  0.2829782746224687 -1.862294227941924 0  3.203171391245196 -6.328986286821416 0  3.147139296879301 -6.250337566759446 0  3.250215779595159 -6.245026463740238 0  0.3184527786203279 -1.858917115554974 0  0.333249239207916 -1.825400306900288 0  0.3544839106614681 -1.853989226658589 0  1.722660768406453 -2.584938521215057 0  1.792595404967894 -2.593140116267514 0  11.35442620061887 -6.134780943169191 0  2.9310775368142 -3.373820714085383 0  2.977118618486763 -3.45910039042089 0  0.8207681306632306 -3.440361387266389 0  0.8755009683515702 -3.437750234471328 0  0.2729107070002019 -8.341794401109983 0  0.2663976173759295 -8.306866476280142 0  0.2994461277886344 -8.318988799666933 0  0.5387908148381833 -2.82213441203955 0  0.5591943399771644 -2.784753639254695 0  0.13572118414627 -3.122349628211094 0  0.1214617134856866 -3.094851124388474 0  0.1543445355881943 -3.091801758284836 0  1.365543816276645 -3.730336469867863 0  14.79417815848312 -0.3423161483702311 0  15.2028093951443 -0.3278088070182941 0  1.77140078061427 -1.694770635732045 0  1.81017362113171 -1.638057572949878 0  0.3446357933745858 -3.582534668709893 0  0.3829364613760191 -3.588272222999775 0  28.12134345167483 -1.033609469763066 0  17.4514324015766 -5.031204611258532 0  17.91572726532266 -5.061752185781357 0  0.1711388834689984 -2.690799725667651 0  0.1543098865555699 -2.661810754692334 0  0.1854067449250785 -2.663489525073587 0  0.1661519862366845 -3.952584996175113 0  0.3173152465012752 -3.453821378171231 0  25.7248512711242 -4.921082304251073 0  25.44444213335335 -5.386149153530594 0  0.5258982467859319 -3.695713642317784 0  0.5452982082968951 -3.731475942101938 0  0.6230616820347272 -2.977839836651608 0  0.6441239628281075 -3.017323254696326 0  0.1826384235642315 -3.447407144868072 0  1.527546492068282 -1.09067465218296 0  0.1358770850124635 -8.226809984203662 0  0.1306031784023496 -8.194312723055312 0  0.1607617102573009 -8.208264801433494 0  0.2086427742224704 -2.285962282059091 0  0.2421338278097309 -2.284265755339471 0  1.164848583701108 -1.787341947957493 0  1.219425688692011 -1.788878133901159 0  0.465747626011467 -2.339574064508385 0  0.4841708585741635 -2.302596351114794 0  0.5055171437343571 -2.337382324887771 0  0.2016601746138065 -2.633983410352758 0  0.2184891715272368 -2.662972381328075 0  0.3403067606957375 -8.367128697384615 0  0.3340770612449848 -8.329840529578174 0  0.3684246045278172 -8.343052502466017 0  0.2535876764721436 -2.911634631688762 0  0.6015376155917025 -2.78381434787077 0  1.625028210443928 -2.280472730607574 0  1.657723472627374 -2.338708327964771 0  0.3917197860435913 -1.850886821913875 0  0.4075309819126787 -1.816603570701103 0  0.4299703967072155 -1.847017974611076 0  1.86314882827601 -6.119996923237762 0  1.837685641411619 -6.052823580000241 0  2.45743908500706 -8.482961113383666 0  2.465912376877935 -8.571435795196363 0  2.403998600854994 -8.541718158464553 0  0.7166556372288255 -8.182464282356865 0  0.712363430772875 -8.135369392808512 0  0.7523369111559788 -8.154912333726182 0  1.055692653876447 -8.420415390127676 0  1.104552647008484 -8.425294834456295 0  0.9016802096299514 -5.49641939427848 0  0.1685458309886716 -2.17020088340753 0  5.318603379334244 -9.587274349128393 0  5.478812231584982 -9.580605161177864 0  0.1765950340278479 -1.814265173700483 0  17.23848286607146 -4.631949329890946 0  1.063612528750133 -1.583422925984812 0  1.115870665430901 -1.584184124524892 0  0.3723018333088497 -2.375339073358554 0  9.334680991413576 -8.434231121438502 0  9.464040863211334 -8.659476448711274 0  0.4126123600436351 -7.107809629078126 0  0.4384400284138614 -7.081827488909095 0  0.1764428892265144 -1.387203055034966 0  0.1971554263018938 -1.412246324711223 0  1.471073194541816 -0.1031211791840345 0  0.6727186147523643 -3.34050532340218 0  0.230390890348005 -1.406720158855099 0  0.2428442533283501 -1.3747149400012 0  0.2644124372651824 -1.400637882873678 0  0.1134996335320082 -8.398837921594042 0  0.1093979083940528 -8.367186294966604 0  0.1359840715203848 -8.381133031391457 0  6.389408802125514 -0.6427912270041167 0  0.7832512732756332 -7.566293837923288 0  0.8134786612232059 -7.524441296602845 0  0.3179661021102476 -5.033219961534905 0  0.1892623801118773 -2.315230964132336 0  11.51344432947395 -8.40349226570083 0  11.64048572842284 -8.657507312972662 0  11.33833497629015 -8.655492501137127 0  3.594750110782698 -9.163689108113186 0  0.2005272504894275 -8.66020963790336 0  0.1958518988406333 -8.626564669173556 0  0.2262375649351291 -8.639600144917459 0  1.248532910518666 -0.7009939543326151 0  0.146478381158996 -7.65156355203211 0  0.1690512715162864 -7.629355133712437 0  4.871807555915762 -3.739461627102849 0  5.029660534593189 -3.7446172632433 0  4.138153399766724 -8.842081385498377 0  4.203920677627345 -8.948332230359869 0  2.981473813222573 -1.366271904585378 0  3.030173266523033 -1.276200327366172 0  3.083893934339427 -1.359413519401991 0  0.4409080947098705 -2.237019977273745 0  0.4622575063647822 -2.268531328364372 0  0.9128437511943908 -1.298334265275179 0  0.9600714499334728 -1.30074387275332 0  0.6624194710188043 -6.138160544131698 0  0.6887208505437563 -6.102931091791058 0  0.236455473240003 -5.370905402606882 0  0.516202412028175 -7.31374063980058 0  0.5471216068393652 -7.280628666822687 0  15.02553123494723 -4.023500169867251 0  15.05816320260487 -3.669275675787262 0  0.3922268448311002 -8.494134642896928 0  7.325366629876417 -9.007674424315885 0  7.190751187067045 -9.07757169781147 0  2.855754007755891 -9.342704124755731 0  0.3804420377926743 -2.211543082126949 0  0.4181978252578116 -2.20467962317134 0  2.598170624344917 -7.14804510142181 0  2.686231120254275 -7.137426386942442 0  4.092173389779969 -1.090217875074582 0  0.258155933132441 -8.65142669557628 0  0.2897321823787813 -8.665082398548705 0  0.7828875468915566 -6.117938570209324 0  0.3059738758818451 -5.380276327152493 0  2.401938686812063 -9.491631518726047 0  0.2988902442103303 -1.395865766555863 0  0.3337776878677392 -1.389689843865887 0  1.592036280347241 -1.09008718159083 0  3.295306110205452 -6.149461358399259 0  3.351338204571347 -6.22811007846123 0  0.1291287968449311 -4.895385799134871 0  0.1412540221051692 -4.924359877122942 0  3.445886220467521 -6.805438759424804 0  3.50876446687791 -6.886074760112228 0  3.187678720715805 -7.087374597729734 0  0.2201564387697186 -4.961309091561326 0  0.2333630384721666 -4.992596143067513 0  3.193740428468519 -1.715394626795702 0  2.661090056901003 -7.556825492793458 0  2.710696573798131 -7.633189897344524 0  1.683596583947967 -9.552544839766908 0  1.714680786546328 -9.606702072870844 0  0.1516317299576748 -1.111379787103348 0  0.1619662393208205 -1.080265894600114 0  0.1812185928428693 -1.101832012191515 0  4.43167540850412 -1.906170699392293 0  4.494828925084782 -1.784000053305233 0  2.357123293043454 -7.799534363787064 0  2.399971186341887 -7.723136687767955 0  2.443138924643455 -7.797872530836892 0  11.21747899559955 -0.7737615979894787 0  2.229043643529472 -7.738708913400364 0  2.167662550882797 -7.667874863010431 0  2.252574462095211 -7.653964470328195 0  2.998983298701358 -7.453752445437277 0  2.887963253738187 -1.54118015250435 0  1.847054535206414 -1.576331062693153 0  1.874970832983685 -1.634557583666552 0  1.568966701364412 -3.078981181089564 0  8.814102779791018 -3.072217041583432 0  8.693613959398615 -3.26374964083497 0  8.566368213137592 -3.084718157627909 0  0.2676996469700654 -4.99726179427139 0  18.39634198208622 -5.05957445325383 0  0.1736512922653635 -4.927578648682988 0  3.407887142720167 -2.096222512265588 0  0.1580947343182242 -5.329988123134147 0  0.1903030872217766 -5.335120834222872 0  0.220363894354918 -5.704998845689732 0  0.6711566932974442 -1.819753596223797 0  0.7142050272904843 -1.813927253888155 0  0.6977486143073577 -1.852607577198526 0  3.336188378529922 -4.127059025207805 0  3.387277277973165 -4.036770490543215 0  2.564242489374813 -1.466590110872342 0  2.607637970767204 -1.375610020713348 0  2.27963470279612 -8.09629461136722 0  4.196207834522806 -7.213119160226945 0  4.121798245201049 -7.103194048871081 0  4.26880201975063 -7.084621747378597 0  1.967383665535719 -8.371691472028811 0  2.337698166690771 -1.230849785547673 0  0.2877673772193141 -5.715157119661573 0  0.1477711523533181 -5.670454023011828 0  0.1816373821986055 -5.673171509087575 0  0.1542328472844297 -5.698100070891603 0  0.711689249388364 -4.556413498108035 0  0.6682562015505926 -4.552288347559836 0  0.6936088248951773 -4.517833432581563 0  3.989461471270936 -3.559127431405391 0  4.036089700899446 -3.662091320697764 0  3.97951743406289 -6.651790465072019 0  4.344209500244514 -2.992070944905201 0  4.478975887304575 -2.992199952788579 0  0.4657083897649628 -3.659617595241101 0  0.2275511058282227 -8.87395870433984 0  0.222982058909194 -8.83970138039534 0  0.2526299679981374 -8.851442629763813 0  18.63010354375176 -5.513755879749607 0  18.88981643785559 -5.085491326008913 0  1.427878723709481 -3.733506152594914 0  4.831714637209647 -5.163111036783164 0  4.889777782478721 -5.31316007390739 0  0.7626208025314156 -5.398479915759457 0  0.7907897205575516 -5.357749049246966 0  0.2133123855209771 -1.095777292477446 0  0.2460052446943024 -1.088777468648225 0  1.24376184338459 -3.390066398832228 0  1.281972091301725 -3.336766329912067 0  1.300696569732295 -3.395196994977066 0  0.2536769316387009 -4.191793969708738 0  1.97645199766969 -1.027829882325229 0  2.012339258832505 -0.9628057490134134 0  0.3042129460760208 -1.890883147700225 0  1.652273410566618 -0.8555745131502128 0  3.081363029782469 -3.465762103609584 0  0.9260839821335694 -0.5234017934443518 0  2.563033211574112 -7.083562921192823 0  2.496054120083503 -7.017976117253918 0  0.1216984612717589 -4.6304244953745 0  0.1100821463484856 -4.603119099630852 0  0.1387851222038954 -4.607269727097136 0  0.5659137954843114 -3.768022554744809 0  0.5874874001053758 -3.733174019508344 0  1.369928156496989 -9.656209648790655 0  1.398757869673185 -9.705055046398087 0  2.167203279951927 -3.144156191003669 0  1.869087591746119 -3.915803558660136 0  1.903714502551457 -3.981357457369316 0  0.4237354461826719 -3.796175347685296 0  3.466639731660273 -4.845176837742542 0  1.645748690602867 -8.562785547988888 0  1.679841464357359 -8.618789437749736 0  0.7698889930223931 -1.042752700922219 0  0.793287585671056 -1.002761482911739 0  0.8142698512013347 -1.042384464919044 0  0.4276327020579576 -3.590263426206503 0  1.452971392645443 -8.677226712003902 0  1.483700899417414 -8.73142393642809 0  0.3769233254560049 -1.884403630568561 0  0.1820477128553577 -3.981515568916199 0  0.1985727156969155 -3.952829913894696 0  1.3107858822501 -3.072202293710276 0  0.886126386525806 -3.855749360318297 0  0.9098224419746472 -3.899530830112735 0  0.9004030221288968 -3.48098551501149 0  0.9212181565298216 -3.43993540666969 0  4.048575626564883 -5.96689988205152 0  8.575340895849642 -1.495657178319432 0  8.448720961749574 -1.284204101373075 0  0.3538056707375947 -3.456392277377573 0  1.401450043099601 -3.342223646892414 0  1.36954313471619 -3.287275195512437 0  1.432086360166361 -3.287601916347946 0  0.2353477768409 -4.347438051194366 0  0.25112647514805 -4.377370856217728 0  1.582017307567899 -0.7439123495121773 0  0.2988914049733076 -3.538796232339906 0  0.2822321520020061 -3.508487256134827 0  1.410444848485808 -4.195555030067358 0  1.476604274162028 -4.193717426241179 0  1.390898707985304 -0.6462275080271489 0  0.6249211033172273 -9.164420363893225 0  2.955152170132454 -5.494936308991192 0  2.99653873571472 -5.580388695568949 0  0.7309255445051619 -3.181707007071409 0  0.7777973429483414 -3.18250305037173 0  0.148114341091615 -0.9330875113452883 0  0.1577773102594318 -0.9010464946459065 0  0.1783789447601016 -0.9234405307213471 0  3.224746339929858 -5.223233002904854 0  1.934489366326495 -2.861336016941341 0  2.011583408722682 -2.863267976752099 0  0.5500761343646872 -4.082457060394041 0  0.5713836637652392 -4.11874481265386 0  0.4215959375180809 -4.291828204157971 0  0.439196576425303 -4.325940169124033 0  1.314442852967694 -4.352429479121854 0  1.340360084495414 -4.40821129363714 0  1.270750884220551 -4.508727838116461 0  0.1190473888502659 -7.41341221911788 0  0.1390541982600304 -7.390369884630046 0  2.054287654794976 -4.613755096800524 0  2.086654766627843 -4.684994508282322 0  1.143907687719931 -4.705217959767247 0  0.9725561967006886 -4.886803667996869 0  0.9986519053540786 -4.84346209759327 0  1.027565084960909 -4.891191452310333 0  0.07306869537032412 -2.118923111460814 0  0.2136973126705879 -4.435664120165637 0  0.6885326528481954 -3.018885884396905 0  0.1850546665802142 -3.090428198701993 0  0.746255128678623 -1.080988148992801 0  0.7252728631483425 -1.041365166985496 0  2.778973293829672 -5.915364785520566 0  4.915735574600983 -9.135566857743445 0  1.607723401823929 -1.748366704423649 0  1.596216097322792 -1.815249454233982 0  1.549596794039905 -1.760407503554288 0  1.358796022769408 -8.942825987559413 0  0.2185591776632716 -3.031923160425462 0  6.667648845599111 -0.7800698181096166 0  6.742975928983999 -0.6173354324113491 0  6.853665126405959 -0.7697057418256019 0  0.8113032996421836 -2.390392201626782 0  0.8581181169409859 -2.387200499391015 0  0.8373882936764367 -2.430434998283561 0  0.2884938505424479 -2.911550609146304 0  0.8141603426961375 -0.5697478284855304 0  0.8581227725800069 -0.5664674112803105 0  0.2147568755209832 -6.99215598151755 0  0.2480662187652349 -7.000856933959046 0  2.486734035570423 -6.23754389947787 0  2.533404175789627 -6.15889166668798 0  2.577845370188459 -6.237481036437275 0  1.869076222479858 -5.155210193250092 0  1.89707617459486 -5.211456645966826 0  0.3276186951815063 -7.635071625496277 0  0.3529513251642111 -7.60834550696306 0  1.865876176479567 -2.596724895697831 0  4.478752920947123 -5.203253158502815 0  0.1305843286093236 -3.837982358412821 0  0.167075318298302 -3.839486734214264 0  1.158254466600431 -8.996401132984481 0  1.184902975828127 -9.041989502818071 0  0.1566787471300888 -4.5799628441331 0  0.1682950620533603 -4.607268239876747 0  2.346968040885496 -6.454314359809818 0  2.383462615460651 -6.538223258724075 0  0.2471971140712377 -7.132029358086833 0  0.2871457183656663 -7.140754367048866 0  1.726813933829085 -2.342566261152652 0  4.374615055661119 -8.358233386691216 0  4.459909367548011 -8.47515769217777 0  19.86096716656495 -8.64067466288623 0  20.09713857814377 -8.188988950950693 0  20.37820275354773 -8.626245195701628 0  0.2995014031150536 -7.52822762050419 0  0.3340865326404838 -7.536723853923169 0  0.1259534363807564 -5.041024476721348 0  0.2526282667173305 -2.662997710722697 0  0.4695800002009758 -1.301128517057276 0  0.4825071372449194 -1.264455160143574 0  2.925034273644854 -5.002522822814953 0  10.31107348636277 -0.5900449604148807 0  14.07601909393857 -9.045296226373617 0  13.79538299240885 -8.943362910879602 0  0.6448520192090648 -2.784382141178821 0  0.797751704399186 -0.6114776537139406 0  0.7736531652354586 -0.5738848974782123 0  1.127505341166348 -9.133504911581591 0  2.15999193491335 -6.749319798929239 0  2.195946646425373 -6.821575463477068 0  1.461813605513173 -2.109465689776854 0  1.024819263084719 -5.552873131755891 0  0.2619782860882047 -7.388732152214753 0  0.2959834736077234 -7.397019399535679 0  3.604604449275657 -7.820974492308177 0  3.715230025266298 -7.812629828997814 0  3.660200267098267 -7.914021626318473 0  1.983191937208908 -7.01851887192596 0  2.022627609913334 -7.091356892740865 0  0.1305819612749097 -7.358114679076301 0  0.1639802730129283 -7.366384536750469 0  0.923344679337081 -5.773499198588152 0  0.9431953724746904 -5.821495461766604 0  0.2226956192395573 -1.927208345779637 0  0.2549394115135186 -1.925279916394555 0  0.4055674470688988 -5.076060633702474 0  0.1757984471961969 -3.530541182489779 0  1.024714922640506 -0.5194008319547025 0  1.047082092267102 -0.4756140133524021 0  1.858355661966407 -7.344474793988018 0  0.3788009924808406 -5.389857064967922 0  0.3922799254727529 -5.424068684568923 0  0.2621747340834233 -2.313386024708965 0  0.2772876068838244 -2.283791181834496 0  1.870117553339771 -1.868310718982341 0  1.928624243378271 -1.887929426451694 0  0.9686724628782937 -9.22182404755546 0  0.1545992168528709 -5.477787387094398 0  0.1644130425384347 -5.507191697765305 0  1.702490492954585 -7.585648846759081 0  0.546285375461272 -2.335188908921226 0  1.310335587951815 -1.943524114977449 0  1.33996794729658 -1.890966743904854 0  1.28084509126899 -1.787136837114286 0  0.897272063965584 -6.174473130871963 0  2.411182640974097 -2.502531853855979 0  2.450712175396443 -2.418307329926891 0  2.494145907544103 -2.504243489142383 0  0.2208084540333459 -8.385509359715105 0  0.2145645156275044 -8.351917946208456 0  0.2461061349933384 -8.363263491229844 0  28.60856738386948 -3.611649194717801 0  0.1213861455702627 -2.659078684845883 0  0.1356540070263428 -2.631768484251819 0  2.101662848405702 -7.707170823976897 0  0.5723344046781733 -2.443743705351744 0  0.5913640120904677 -2.405896289056744 0  4.54422700061984 -3.114499137335961 0  4.607131407051927 -3.235697962314046 0  0.7284911986376024 -0.2136492287971645 0  0.7496912185255287 -0.2518929605856766 0  2.77799983206851 -7.123311248882425 0  0.2010499791564673 -6.810717465257358 0  0.193543944511994 -6.777774644335892 0  0.2256222827411314 -6.787671753945734 0  1.490722185652722 -7.813028733616811 0  1.556238360563578 -7.815040679406702 0  0.3012253763791968 -7.660717566773644 0  0.2758999341729158 -7.686862444658373 0  0.1508241494718554 -8.698395024495289 0  0.1468069953019686 -8.666456131191655 0  0.1741587385648167 -8.679113055463089 0  0.2017816429829296 -2.169144716858786 0  0.1569079254755152 -6.852498072661051 0  0.1764674857165431 -6.83283284402728 0  0.2187236102387278 -1.4381692675837 0  0.3442179528491724 -7.706009621261861 0  0.3358417888814387 -7.670065359879578 0  0.3706112716514838 -7.680363679984493 0  1.16824772095665 -1.58638141444154 0  0.1383419056006652 -0.5482787536332108 0  0.1179988918659038 -0.524552951489877 0  0.1510600259722885 -0.519082107845251 0  0.1377026585548577 -5.838542018324449 0  0.1765000480047298 -8.914406530942909 0  0.1734308765118229 -8.883060466450653 0  0.2009723682321862 -8.893563519463621 0  0.3706210179938942 -5.762426724174509 0  0.1694186113826177 -8.42457974498388 0  0.164676315662927 -8.393474236356306 0  0.1940091303872027 -8.405269323321292 0  1.356555964938021 -8.025189640918063 0  1.390429676629655 -7.972731743376062 0  1.418482342192998 -8.032606054385949 0  0.3137144812467092 -8.606207044206048 0  0.2795766733105829 -8.596386810780276 0  0.07568152053734067 -5.20363309349203 0  0.09441306260429982 -5.176943651777204 0  0.1119796854240729 -5.206985287484919 0  0.162359265883012 -9.139225002106304 0  0.2507612401834702 -6.764717364317395 0  0.2427305438598601 -6.730641908175766 0  0.2753755359466723 -6.740630339468893 0  0.8254863627176423 -2.266755496827247 0  0.8522656376952042 -2.302606345437644 0  0.2645527654805164 -6.549996196490063 0  0.296022360746786 -6.554769022469447 0  28.96621281629113 -2.912053655746292 0  0.2034921789497872 -6.960109922328799 0  0.2864368812299851 -1.427870985409761 0  0.3794661670425903 -7.58168826910533 0  0.6756624818722479 -6.787107428359052 0  0.6896584104999182 -6.825751371879006 0  0.5895202723256858 -6.88618327449996 0  0.6306582905735887 -6.892575192792442 0  0.4034022627754794 -8.356141157168381 0  0.4387121925573574 -8.369909971522191 0  0.4699449885979021 -8.162518476418178 0  0.3227878488946185 -8.67745925320715 0  0.3560444097493694 -8.69082654874518 0  0.4330515212748942 -0.5963516797863546 0  0.4700913128573667 -0.5984168624815709 0  0.8949906336215747 -0.4000200342232283 0  0.1907411783979107 -8.218357437809907 0  0.2217946715547363 -8.229530672460466 0  0.3444900424366928 -9.503209340023465 0  0.4531021351385913 -7.600845824745781 0  1.981494657013599 -1.826280543489218 0  2.005020353715262 -1.891740216016623 0  0.166904039583887 -8.089310409658619 0  0.1963663714614938 -8.098322282086656 0  1.403407702185831 -1.304002809742749 0  0.9649997888229169 -9.39199298816054 0  1.014012228338613 -9.394711226148614 0  0.4477997049529119 -4.495968259178657 0  0.464649023797751 -4.532558058887733 0  0.2093898899521136 -1.810863305616219 0  19.15661431332139 -4.664046826239295 0  19.39037587498693 -5.118228252735072 0  0.2923028197747044 -7.755425305993974 0  0.2840617328647674 -7.720662333543602 0  0.3176895569890625 -7.730474273607317 0  1.196076181246864 -8.286599437205039 0  1.219888913202693 -8.332981880966761 0  0.8430311390323517 -0.3224905438041272 0  0.2100242909988221 -7.669546171538104 0  0.3221362526837837 -6.529872433082232 0  0.3139007520665587 -6.49456222839712 0  0.3469531639650931 -6.503058998029116 0  0.4139835714363276 -4.423995952339627 0  0.4305684489480033 -4.460025912731192 0  0.289173209898907 -8.899783729694475 0  0.2846802853651234 -8.864810876060071 0  0.3166544803468643 -8.878894652046231 0  0.1104986496028584 -1.571049050417212 0  0.1296614274255319 -1.594331220797391 0  0.09971616366826908 -8.734498879263723 0  0.09754940805013845 -8.703111214750329 0  0.125639161827138 -8.717125764737251 0  0.4529275714192167 -1.878152166669762 0  0.4687387672883059 -1.84386891545699 0  1.157801027002382 -8.426968695190856 0  0.2110090893312773 -7.914285049506378 0  0.2014473157431489 -7.881681318090481 0  0.234511074420432 -7.893158364691576 0  0.9538078327578887 -5.731070575497045 0  1.005149510661989 -5.73746146462145 0  6.807418191565823 -0.4551158005900477 0  1.008349712942273 -1.303209356896129 0  0.5409503771216784 -7.660028033968887 0  0.580524823034029 -7.671702999815075 0  0.126496734792978 -6.378203646292802 0  0.1194383832247166 -6.347580549953909 0  0.1477718484176798 -6.358897169587332 0  0.1265189108605256 -6.722271125875418 0  0.1197604812005526 -6.690966856946715 0  0.880705665661381 -0.2402484710767281 0  0.9006526454569581 -0.200602012133702 0  0.9286640138147728 -0.2364760379572939 0  1.890519326632981 -6.188619355834205 0  1.935110104260234 -6.129972980320344 0  0.1998690810741905 -9.187438368395497 0  0.1971545127301795 -9.154850580495152 0  0.2265709880502129 -9.168636336147312 0  0.9907475804489767 -8.604067592601155 0  1.040907261948075 -8.6095007894844 0  2.328835297905764 -2.482555865438636 0  0.1964771504639753 -5.817999514730116 0  0.21814982828122 -5.792923346798564 0  1.919018715902869 -6.255793796061473 0  0.143450165394885 -9.227471836719143 0  0.1729605145438846 -9.205048556634367 0  0.1371690258790927 -1.221365645159662 0  0.2784563150839734 -6.485249278699479 0  0.3032732263652811 -6.458435843646363 0  0.1479107566199644 -3.695007075386378 0  0.1318199434690612 -3.666668680178305 0  0.1678920176279401 -3.668648085458425 0  0.1975860406127552 -9.403164853404855 0  0.1834024339428844 -9.37649853402149 0  0.2156610193538029 -9.378619148343073 0  0.8614070112800629 -1.043036325278529 0  4.150747559927876 -4.822878227407589 0  4.084812751898323 -4.684532197286561 0  1.002937172517139 -7.273104143419356 0  1.038031579177723 -7.234545120690772 0  0.3964735539398667 -9.53742832455273 0  0.3802198282768963 -9.505241946836222 0  0.41623917637353 -9.50774952264258 0  0.4325838227806251 -5.533130134068556 0  0.4451245239474346 -5.570824554307864 0  0.8629144132493849 -0.280425222991779 0  0.8888337598021607 -0.3181878177126691 0  0.1619583368682704 -6.768344668711455 0  1.318548074907433 -8.738835956225335 0  0.2029778761578314 -1.12689118498068 0  1.200198711806511 -1.949870880964946 0  0.1743523868832035 -5.842643554677783 0  19.63622948679487 -5.565702372704121 0  19.90302736226069 -5.144257872934502 0  0.2342271945600842 -6.698277589987644 0  1.491795467858303 -6.831081851529716 0  1.52971683470769 -6.782400912281418 0  1.550754654572305 -6.843083052664946 0  0.7894885422439053 -6.505370586506027 0  0.8199829784989845 -6.467759141266598 0  0.8440644102156334 -6.51581401450238 0  0.1555664281143034 -6.274831629897891 0  0.1755924979692018 -6.250633919898581 0  4.306412896997815 -8.244015055127429 0  4.458731141763902 -8.240919281259133 0  0.3900360909169862 -6.277178608416053 0  0.4140738110054194 -6.249545414716346 0  0.5640306110415594 -1.684025115550539 0  0.5964210735468889 -1.656242721225617 0  0.5949388635159174 -1.693891550941026 0  2.136762791101855 -9.94352970642927 0  2.177189328251988 -9.875259411749395 0  2.215731303942597 -9.931729705320125 0  4.067391325107703 -9.690786644145851 0  0.7348894389420906 -8.061150107163433 0  0.7812751360987402 -8.072790145006447 0  7.067155155559114 -9.183375926494342 0  7.064805161960352 -8.982477674278961 0  4.617450594014555 -2.996335699609847 0  0.9163136679030046 -0.3570455577292169 0  0.9423538159394518 -0.3968124534274278 0  0.5306368316233971 -7.620698785845414 0  0.1726697681114526 -5.931399039317417 0  0.1941443578100976 -5.905692693125777 0  0.5354981538317674 -3.116717276965069 0  1.508030173384821 -6.722573452096205 0  1.566989360098823 -6.734574653231435 0  0.7041110610680832 -6.868544325520023 0  0.7336648071653222 -6.834795642793036 0  0.4569966580869718 -5.50384334339362 0  0.6721810619708162 -6.903394055078222 0  0.8277891517334659 -8.870214821866121 0  0.8521730585833112 -8.828967137277049 0  0.8766397589114447 -8.865865711027276 0  1.032705866703115 -5.128666436072575 0  1.057705172740818 -5.180309970525987 0  0.8407383324663762 -7.956509602888767 0  0.875286188255739 -7.924073695947888 0  0.1734125063675194 -5.451407823205239 0  0.2056564180167086 -5.455788244140429 0  0.1185980428479407 -0.9393123001785364 0  0.2181785645965419 -5.487704331632568 0  0.2389848600563838 -5.461114298945041 0  0.1506284562398257 -5.955539551043159 0  0.1818936391487345 -5.961430688195979 0  21.37822732693842 -8.625362144313872 0  21.97202915567939 -8.489878200686414 0  0.3740908116715893 -6.003129431126386 0  0.3888279203577767 -6.039915169996616 0  1.588626791744257 -1.577086071924764 0  1.426046490258923 -9.75905147343699 0  1.458675218569439 -9.712361704819763 0  0.3828296133068605 -5.79833846238331 0  0.4079377824306807 -5.769761833736431 0  9.009823719069086 -1.512272625838025 0  9.253750649501328 -1.520136487334315 0  9.179141772975392 -1.718993699727647 0  0.1470571983343767 -6.040126928144474 0  0.1559064012252058 -6.071038942416338 0  2.49217305940615 -2.343763236258209 0  24.78804048697447 -7.300514546863198 0  0.1266464423077025 -7.325598084065737 0  0.4352756563847215 -4.393501672078063 0  0.7320331512887925 -1.772416519835938 0  0.7586250722987096 -1.805270500810667 0  0.7651190708121298 -6.800352319588965 0  0.7495982361384641 -6.755282762423286 0  0.7955051503534349 -6.763632392860232 0  0.356975751142901 -1.418165942008446 0  0.3698387508355072 -1.384756916782388 0  0.4696688878357111 -4.464192937480501 0  1.070287103134181 -0.4297558898015463 0  1.098453555181102 -0.471734191309209 0  3.990339679406169 -8.340832755763952 0  4.109726713023427 -8.306471463399724 0  0.3502555632926576 -6.136217042218069 0  0.3594339925035754 -6.168662865895079 0  1.418566975680044 -0.5914806122419254 0  1.451153390881453 -0.6419207753499752 0  1.103459513312458 -0.5630879696679436 0  1.128269496786849 -0.5153077281759959 0  1.156480465785286 -0.5608033829838739 0  0.1929898444807883 -7.85134215371198 0  0.1602801153585602 -6.561300690155055 0  0.1624492016770454 -6.590360343719255 0  0.1368717607005383 -6.582181087665632 0  0.3019265111890022 -5.15782685385231 0  0.2867670633605357 -5.124350920960674 0  0.3244120082309578 -5.129535538177716 0  0.17625650011564 -5.536892406894226 0  0.1966935801340721 -5.512078985956877 0  0.1179463397475331 -6.972646347755118 0  0.1365403244243524 -6.949678089275541 0  0.06516672151466096 -6.83372083866053 0  0.08867658873718298 -6.847648030720443 0  0.0693350972401845 -6.860615046972621 0  0.3646840120851529 -6.30427599405421 0  0.3988350064287616 -6.313639579820117 0  0.7030586816349818 -1.735966276293466 0  0.7474787266432052 -1.727309523215979 0  1.334534892811334 -0.2861615025107689 0  1.370566919131944 -0.3407578878176043 0  0.1339705981632449 -6.297824681645757 0  0.1623093268004752 -6.305281021500574 0  0.09855398006170901 -0.9910858701099734 0  0.2605378206727131 -8.273584703360029 0  0.3642917660821752 -0.4633918392074534 0  0.382099672778498 -0.4317739156108855 0  0.3998637949606163 -0.4641608028674611 0  0.172455112294692 -9.346680925900337 0  1.292346138801156 -5.434201017871408 0  1.259049716193161 -5.479551123597447 0  3.918565869909163 -7.415416295562658 0  0.5714210984232242 -7.782870678095243 0  0.600539837351878 -7.754010472096255 0  0.6246298843217524 -0.848417324999569 0  0.6032958848626926 -0.8125669402144133 0  0.6388252946955202 -0.8099178833788958 0  0.4298440262927166 -5.430935423655629 0  0.3467701477625464 -8.618583898864493 0  0.3184546161967958 -8.641985132163743 0  1.683970764088123 -0.7956541713418321 0  1.719251245512666 -0.8527640912907444 0  0.13806283331785 -5.071178421349415 0  0.1600769590231437 -5.040448563354777 0  7.147078824560163 -1.653295011946663 0  0.9703643568421239 -7.314663591600537 0  1.020252599810734 -7.326700836426636 0  0.1385292878660707 -0.1299081312829831 0  0.1655298090788548 -0.1275381731724909 0  0.1527410670909806 -0.1552326099437247 0  1.065835956324387 -5.081928925452522 0  0.7021536176623755 -9.05939615090826 0  0.7215082477553185 -9.098576974599473 0  1.410573829408699 -5.644484553374473 0  1.451403245287048 -5.596057342957327 0  1.840891073596602 -9.94431206742837 0  1.876826880554598 -9.885645004758256 0  1.911679942210009 -9.941332937329888 0  1.746722699872027 -9.666342646048788 0  1.782379724660409 -9.609738991859112 0  1.612200683465627 -0.6855317761823416 0  1.647176305039805 -0.7400840198714658 0  0.454789570488435 -5.40054724820722 0  0.4401670454229212 -5.364092643222047 0  0.4788845940299211 -5.369902226138247 0  2.020587820819049 -0.3701500676747287 0  2.060671595888611 -0.4399342698991244 0  0.1364728827789499 -8.07911845960435 0  0.1593164001141609 -8.055860604136525 0  0.673178488954786 -9.170863680396272 0  0.2687325029672962 -1.11476727447996 0  0.2796660788256613 -1.082708277861573 0  5.23627670032883 -9.458177991169435 0  0.770959906436433 -5.616017672441121 0  0.8157949660199932 -5.62110758972045 0  3.572465067594443 -2.597558164711719 0  3.632600645134904 -2.498462524724352 0  0.7724284583605154 -1.960377963780816 0  0.7280900436035704 -1.963057956531966 0  0.7487082259152036 -1.92431178938328 0  0.731072385743186 -4.598029513283222 0  0.7564250090877707 -4.56357459830495 0  0.2339720389123663 -9.352364767974189 0  0.2481556455822389 -9.379031087357554 0  9.42482942369195 -5.383930374740915 0  9.564848862044016 -5.162074622772149 0  0.9157727083711826 -6.222018535855021 0  0.9468373661301417 -6.182346834785377 0  3.632230179579155 -2.700501653326848 0  3.135108930762016 -8.669736685711552 0  3.161184520350403 -8.564394088494913 0  1.234000039315589 -1.009532962366919 0  1.259829596214697 -0.955349705229068 0  1.285911414305257 -0.9943813222474187 0  0.4202305708497622 -5.112274229746721 0  0.4435912761777452 -5.082006833584491 0  0.200728229498182 -0.9480228454867827 0  0.2103911986659988 -0.9159818287874018 0  2.444130921720639 -9.568514173557945 0  2.487643843519017 -9.496359025236208 0  0.9033953394522136 -5.953141419063702 0  0.9324554988146296 -5.909965952745087 0  2.092976597253337 -1.092685720104725 0  2.129872380012602 -1.024269669196682 0  2.170660724488835 -1.091857168521869 0  2.04802827127491 -0.8962974810311817 0  2.087877265219509 -0.9585899527973059 0  0.4223214634858756 -8.46996338572737 0  0.4514434654372472 -8.446140513554123 0  4.500932132556679 -2.027211314757865 0  0.3971725633247267 -8.31885298936194 0  0.3642556648703561 -9.473530538113316 0  1.14619863963906 -8.155944515568295 0  1.13638748307315 -8.099536759173557 0  0.993434769377501 -9.266259978381326 0  1.018360720461473 -9.221057904242029 0  0.3433353754923623 -0.4942289811265583 0  7.800278175500222 -9.802525095931141 0  7.576715472373877 -9.779895893254658 0  20.38652988015379 -6.042223492851528 0  20.68201516716504 -5.621985118881804 0  20.9196640732502 -6.072476618829782 0  0.2637290666275369 -9.406978892366318 0  0.2820400861861003 -9.380724511997432 0  0.1605745905249698 -8.361822609728868 0  0.3449505087548346 -5.479648123203668 0  25.04915709987287 -2.160667376045975 0  24.69436084366281 -1.662369911372146 0  0.2284108129770921 -7.381346231334739 0  0.5818608141833899 -9.311906038221917 0  0.5408732766551125 -7.811666060577602 0  0.5798163912777046 -7.824221192130737 0  0.1905861464054102 -8.595706781691835 0  2.376329488208299 -1.156965236062611 0  2.420070042780115 -1.22873225002354 0  0.8694256413651331 -9.394604680387978 0  0.9162471512616754 -9.39402342390737 0  0.9635467469425887 -5.869415841010141 0  0.9942323852063844 -5.828113564854175 0  0.2534805814836467 -8.617781726846477 0  0.1422607048988844 -5.211858630022504 0  19.03776754686082 -8.18841441585281 0  19.34114320203589 -8.658977495345432 0  0.2513726250759625 -0.07320401929331055 0  0.2387701069203167 -0.09864465229647834 0  5.296080221405793 -4.935511408967598 0  5.383200292473076 -4.80146483681202 0  9.115221560536844 -5.839399347008756 0  9.001132641571211 -5.611402320594443 0  9.281164841769467 -5.597284624531889 0  3.646661647962521 -4.755614618384477 0  3.710247749195455 -4.656587915921747 0  4.493271184887638 -4.736067766653273 0  0.8799918628792103 -2.343433526817853 0  0.9060768569134616 -2.383476323474632 0  2.904478689059848 -9.428270369473148 0  2.953150322622438 -9.343415565446206 0  1.844250892294948 -5.408155797424139 0  1.81343496624325 -5.341917728536975 0  1.885714760478752 -5.340198721832033 0  1.211099937727546 -9.089564829759199 0  1.239631937631415 -9.043003329797269 0  0.3828913028321814 -1.350024320072257 0  0.406089366107345 -1.378500418214816 0  1.267317815315135 -6.38882315692228 0  1.247337731905171 -6.330022863543055 0  1.305696706146696 -6.352672354908627 0  1.859670151449322 -2.862555362479402 0  0.2226742461001177 -1.779752198610278 0  0.242325623830542 -1.806927783127203 0  0.9419645235264955 -9.352557046758671 0  0.9184791988797869 -9.31080680210013 0  0.9672318364410302 -9.308776366353298 0  0.7038496287609455 -4.631419579938784 0  0.7485853884603522 -4.638580680135699 0  7.058662706215581 -3.900507040117813 0  0.2672090195992851 -4.409667347780759 0  0.2858705090389684 -4.380249291761759 0  2.648151616968381 -1.2954780719514 0  2.698364173516609 -1.372795395053621 0  0.849987118582213 -8.004641199381952 0  0.2907336641779352 -1.04987287020838 0  0.313460922450929 -1.075862676040115 0  6.568448074081171 -0.151630122526381 0  0.8509936430901952 -7.471641322665768 0  0.8939829486431972 -7.48902790720055 0  0.2969180546314067 -9.87529872295803 0  0.3167446619589995 -9.851364107591362 0  0.1689781204311878 -6.017003685074558 0  0.3399896626427683 -6.101006228472134 0  0.3734536205073962 -6.104431867655967 0  1.046835571748522 -5.602153441976902 0  1.077932612973989 -5.558147491243943 0  1.515329059731751 -8.786581077766433 0  1.547310723626032 -8.732613154895841 0  0.4031626015887397 -5.971927909744801 0  1.15125350929442 -9.179725525008289 0  1.180119144052329 -9.134771616206699 0  4.248622424368808 -3.570112886174652 0  4.186752419964758 -3.451022850067473 0  4.318911531136056 -3.457346714271648 0  1.575675183258074 -4.140932450806727 0  1.610879948743943 -4.084807132015916 0  0.1414828705850066 -4.689361305357377 0  0.1285805505493354 -4.661778156390854 0  0.16330375716284 -4.662158271807305 0  1.928902422315684 -5.279863356194919 0  1.971079762483489 -5.217359349216874 0  5.058228458102306 -5.316938471507028 0  1.082782202090847 -9.775300867412756 0  1.071014018434688 -9.824577278819579 0  1.043115779522561 -9.781395305812486 0  0.2542687108552144 -9.149734320877847 0  0.2513564432163751 -9.1160569267428 0  0.2817687343653859 -9.129742699373681 0  5.126138042950391 -5.191329923825991 0  5.054401073792786 -5.056959462910323 0  5.207871927698207 -5.060739368463019 0  2.936729435687235 -1.451183891881103 0  2.986428299089919 -1.539481357244444 0  0.6818059164252332 -4.006989491577896 0  0.7118551120919765 -3.969436486045327 0  0.1394538352179548 -5.610665365312549 0  0.1335360066038618 -5.58255644340889 0  0.2425742510244593 -0.9083164614019825 0  3.518555044256107 -4.94999165552698 0  3.580364852101305 -4.851925547705759 0  0.3569949384473627 -9.595771537695342 0  0.3761481528550092 -9.566648308958218 0  2.929088687437105 -5.837668649729211 0  2.98327411665551 -5.754200333907299 0  0.1940606916059266 -0.7686047963220108 0  0.2039969618685795 -0.737065380601063 0  26.84752509841609 -3.134028509523486 0  26.5742767744939 -3.57079555622489 0  2.520056752732437 -6.470818030640059 0  2.483175888053955 -6.391733032553729 0  2.568056094647737 -6.395218267313495 0  2.819334111245729 -6.001422005047211 0  2.872875452373249 -5.91874449538016 0  0.4901607301745816 -0.6318975885052023 0  0.513482309983921 -0.5964234154754706 0  2.419028720719179 -6.614421722569408 0  2.470742651397183 -6.543531259725626 0  2.717397951648934 -6.163137587471602 0  2.674973731554909 -6.078435549417501 0  2.767856172796179 -6.082744333241718 0  3.394988801628923 -5.137911286169263 0  3.454946980365829 -5.043998409052649 0  1.444726189858503 -8.087877303844291 0  1.478599901550137 -8.035419406302291 0  3.273127747730349 -5.321346792561389 0  3.333294974141756 -5.229182489453525 0  4.102400023371874 -5.848328716308685 0  4.175016350141615 -5.955106939418602 0  2.618981273130686 -6.319452379786174 0  2.665651413349892 -6.240800146996285 0  8.952521368116468 -3.614793504022005 0  9.081645980144879 -3.811903496827019 0  2.057209961531328 -7.16046898964675 0  2.099605908542971 -7.096164732413516 0  1.75895611045194 -3.855569253802748 0  1.797357252238658 -3.800826507804187 0  1.83202556681791 -3.857535100656855 0  1.784554125990944 -8.560556311024722 0  1.81956779997768 -8.499899969218689 0  1.733371092516975 -7.64879182695722 0  1.771298857503671 -7.590145504729125 0  3.156311239950455 -5.499841012094182 0  3.108385545776944 -5.405212026470462 0  3.21250480769196 -5.410026291636437 0  0.484789468409069 -1.807547045590415 0  0.5077466431210702 -1.838681237649102 0  2.324851813552959 -6.757022040897123 0  2.286577183745118 -6.681069460507521 0  2.37002331459049 -6.68506630195746 0  1.972927039444805 -7.287260905814161 0  2.013867530373822 -7.223838452238433 0  3.042563005944981 -5.672538360960635 0  3.098216248265699 -5.587176412319893 0  2.034560770371368 -4.887431810219589 0  2.076516957488252 -4.821697552607898 0  0.8571183493004817 -6.430114659868277 0  0.3855864948712053 -8.668007887915483 0  0.380596284996038 -8.631217206139004 0  0.4146724971546085 -8.6448631072323 0  0.1163050363112621 -8.654576684158716 0  0.7910285763320744 -8.119515718022214 0  0.7953207827880249 -8.166610607570568 0  3.654064423696418 -9.265170393854543 0  3.710687601964635 -9.163439500636402 0  2.23273243790182 -6.894999565025377 0  2.278191474184032 -6.826449300995494 0  1.376632944177249 -8.190352651648723 0  1.351466563823447 -8.136523415880855 0  1.409775010855167 -8.138893187695817 0  1.891063259402133 -7.411163646426762 0  1.931058278479384 -7.349194909564298 0  0.1818393450594549 -4.636303354914478 0  0.1997329699856483 -4.608996471950441 0  1.657675593877494 -7.762703224502571 0  1.694576957900713 -7.705696656008641 0  1.811156847733116 -7.531622471084582 0  1.850128040207053 -7.47134297424433 0  0.1831336810464244 -1.726810841294364 0  0.2027487890388269 -1.753443553517382 0  0.1184083278644401 -9.422801217790216 0  0.1498162286331528 -9.426641840803795 0  0.8059127003369841 -8.212928855448361 0  0.8446043655130779 -8.177532239744393 0  2.144255490582676 -7.031031884698663 0  2.107755583534068 -6.95858918150729 0  2.186987517191767 -6.962568430698324 0  1.585423018044541 -7.874773471258484 0  1.619944657402414 -7.818041097826819 0  1.309438863817983 -8.288384095553166 0  1.284823026708359 -8.236693076232477 0  1.342940334255152 -8.23967389915445 0  1.386032902956016 -8.994866450017367 0  1.416891917452569 -8.943671740113309 0  0.4286919796110435 -7.042587872224926 0  0.4665029772364129 -7.052565779094517 0  3.701710232443975 -8.753317219007577 0  3.758263170723206 -8.647996544408212 0  3.821594605356008 -8.74730998081429 0  2.193772195580522 -3.651076013580396 0  2.156969279456035 -3.579037513978696 0  2.238753533033224 -3.582227910221522 0  1.451008116958359 -8.893079413308735 0  1.482040216086947 -8.839959704130401 0  4.034128560254185 -6.535387423450366 0  4.105335238363214 -6.640943959968594 0  0.989490380586 -3.859241768352761 0  0.9657295320748069 -3.813879404524528 0  1.018111219400657 -3.814928699740166 0  4.286990797798882 -7.316391502476917 0  1.514106119780182 -7.983168529047197 0  1.487036387545169 -7.925960604841158 0  1.548786453440718 -7.928980977044406 0  4.178786350544216 -6.747561886147215 0  4.250620509672693 -6.856236703363459 0  0.5004648729729855 -8.136516258028937 0  0.494710889532918 -8.096155615171396 0  0.532975205059584 -8.110137593372018 0  0.1211567874524988 -4.320241011255319 0  0.1362757581753868 -4.291585865638426 0  0.1537445311687407 -4.318201389077615 0  0.2279889247104592 -0.2312258724954912 0  0.243323911020104 -0.2031273634375639 0  0.2596604495235226 -0.2300764624312794 0  0.2285712357694347 -4.466331520432642 0  0.2473389088072135 -4.437456312503734 0  11.9425146961754 -8.672560990678909 0  11.76740534299161 -8.924561226115205 0  0.3453301320741264 -8.857785864405068 0  0.3740175574423592 -8.835881800649311 0  1.121832670609322 -8.567865572608806 0  1.151236936875321 -8.522480924940961 0  1.244913409230229 -8.384223046348215 0  1.276346052298727 -8.336644438012645 0  0.4421793239905831 -3.831208207243094 0  0.4617645028192978 -3.798461119203175 0  0.2925010424565357 -2.251778686230193 0  0.3125419487302281 -2.280898955599688 0  1.06280474320652 -8.65629718436022 0  1.090234732597015 -8.610942591290893 0  0.9501462816627075 -8.826802731752981 0  0.9294291557251562 -8.783492178663804 0  0.9785517716265737 -8.785676883978581 0  4.155025086573151 -0.9743238446155331 0  4.22070086915144 -1.086132595872892 0  1.182367923135402 -8.477039750045909 0  1.213023166267217 -8.430631544157382 0  0.1891585119416845 -8.827744242776896 0  4.086748079950597 -3.770540544096878 0  4.167121692248662 -3.672238245369591 0  0.4687478647570114 -8.34490146473917 0  0.461854351261767 -8.306463506941711 0  0.4984519944463894 -8.319423327616576 0  2.122310732891137 -4.756757510499936 0  2.169241999250994 -4.690228647570243 0  1.363114805057256 -4.460405127528118 0  1.399228813116157 -4.41027053631907 0  1.294797012467214 -4.56072874509452 0  1.328292204683176 -4.510346791824248 0  1.435908125516496 -4.359951191957414 0  1.410293361804124 -4.304281417028894 0  1.469727394766306 -4.306155906558215 0  1.505838194079145 -4.252353879375987 0  1.53832983718724 -4.19558517398747 0  2.082200077052807 -8.306429958642608 0  2.119871309065314 -8.238311324080072 0  0.3474010739706976 -1.793833316062363 0  0.3626585583374098 -1.761796791657418 0  0.3845378556157684 -1.788435893598958 0  1.23273595760126 -4.660423632257372 0  1.263731352622109 -4.611507934053917 0  0.43319073432232 -8.546551144163091 0  0.4275181486773931 -8.508573985297724 0  0.4632853529770955 -8.522379886993534 0  1.169388869910748 -4.756575940397186 0  1.200746084153707 -4.708299168423581 0  1.108410055121075 -4.85042939918935 0  1.083105633545635 -4.800672306823794 0  1.137854895052413 -4.803251824106408 0  1.051765082896496 -4.939523488846612 0  1.077860791549886 -4.896181918443013 0  0.9701965288992369 -4.975001532452143 0  1.021928032383922 -4.983677447439977 0  0.2610001335862755 -0.2862545551200242 0  0.2767146346940592 -0.2574786662952206 0  0.2933893050664587 -0.2855582499260372 0  4.288455681163864 -1.199526545780704 0  4.354215555394639 -1.314995551470498 0  0.8992651437000525 -8.908508614143717 0  0.9236490505498978 -8.867260929554647 0  0.3307446025619178 -1.291446607891689 0  0.3485994027199801 -1.258183636491749 0  1.005565716331207 -8.74299480527144 0  0.9856559591233012 -8.698610856721565 0  1.033387029765485 -8.6992393311036 0  0.635631810025524 -4.083381351867055 0  0.6124298942030961 -4.043552674358049 0  0.6537206635714874 -4.042664239333117 0  0.5437214228391802 -8.003124567725191 0  0.5364440355590592 -7.961895233252057 0  0.5763497915636631 -7.975651718196358 0  0.4569549417898209 -4.36087103389812 0  0.4780378372764833 -4.328058449899063 0  0.4998989280045567 -4.294377732097102 0  0.4819735844524882 -4.258428100312778 0  0.5215930405450795 -4.259678247284905 0  0.544436800246471 -4.225422857521372 0  0.5668160951866383 -4.190168468978949 0  0.5888454846242865 -4.154283346947246 0  0.6118028615161784 -4.119808321185372 0  4.325986321775673 -6.964992463825716 0  4.40039591109743 -7.07491757518158 0  1.072630843226463 -6.640993706050589 0  1.124518798162123 -6.649611072591398 0  1.091110312301666 -6.689898785133052 0  0.8242590077307845 -8.084488418850835 0  0.847256090874108 -8.988945672008718 0  0.8268710131851797 -8.947622186559682 0  0.8726409297505278 -8.948436881065383 0  0.7386060090604118 -9.136153087303677 0  0.763660444127499 -9.099884344520245 0  0.3039542852685457 -9.039905569208717 0  0.3322101746012081 -9.0198580467112 0  0.1303552310367628 -0.57854529538431 0  0.1634163651431475 -0.573074451739684 0  1.714634941257746 -8.678686914571678 0  1.748176717636952 -8.620192675809538 0  0.2582206576164729 -7.869066927071339 0  0.2498060518748204 -7.837179725936935 0  0.2830774086589898 -7.845692019732596 0  3.527178050067546 -9.451883539955606 0  3.589737585344917 -9.361812254862684 0  0.3014621471625301 -6.716895942325817 0  0.3271574730012539 -6.692768551792851 0  1.978920350285829 -3.986470116108227 0  0.5997443649294745 -9.349010087296113 0  0.6220229283464782 -9.314474524926801 0  0.8601211452032853 -8.052070942243011 0  0.8956026962880461 -8.018949295789895 0  4.423486823890592 -1.429529853885872 0  4.490575771805288 -1.545261993338334 0  21.08245295478717 -2.841439273228895 0  21.56543892982982 -3.102475824821054 0  21.21264268635873 -4.689874145770379 0  21.4856377616492 -5.148421575318988 0  20.94215428497099 -5.193690815311447 0  3.241658664005479 -1.624785350434195 0  3.295431519745097 -1.717386068770288 0  0.1775018571210758 -0.6268529964228753 0  0.1862425120239184 -0.5952946172155595 0  0.208314678565749 -0.6188066201476516 0  2.107412292883627 -3.788915643292276 0  2.071035389692394 -3.718233917449107 0  2.148364845194564 -3.718567343180739 0  0.9002243776676799 -2.298882169521262 0  2.021401946209618 -3.920576244078164 0  1.987316797921252 -3.85395574411275 0  2.064167985669824 -3.855202717526059 0  2.954691160694873 -9.007802520716712 0  3.003015322188915 -8.922723582631054 0  3.049908063178467 -8.998059255003959 0  0.5547721015820386 -9.41558543818649 0  0.5373655286380874 -9.379771706606945 0  0.5769888237103391 -9.382255332170773 0  0.3739871529448457 -6.477262593398699 0  0.3651652413940081 -6.441262674687982 0  0.4004347309909875 -6.450776474742677 0  0.9333088127047198 -3.944103314047232 0  0.9605950639902243 -3.90276495707162 0  0.4368431879440706 -9.477168676357778 0  0.4530969136070411 -9.509355054074284 0  2.489438059742278 -7.872951450701541 0  2.532285953040709 -7.796553774682431 0  1.559557230250887 -2.165659119625236 0  1.591290201836209 -2.22278166907943 0  0.6922950777580734 -9.209600762962868 0  0.7155704014915187 -9.1735827999495 0  2.351918629504075 -7.648759883001754 0  0.7902980563700961 -9.063121569759163 0  0.7740244285655837 -9.025219604659529 0  0.8177598021132741 -9.026032942602651 0  3.337519562970133 -0.09287314322285045 0  3.718605026472389 -1.273741330657566 0  1.841081087928529 -9.234991578888383 0  1.763916273762781 -9.236781002177823 0  0.2441010770107752 -9.760719471606372 0  0.2304077946678831 -9.731552605064962 0  0.2621935077212054 -9.734509329145688 0  3.080953943689112 -2.277369295169091 0  0.1534705655922401 -2.605670324731001 0  0.1689229550806655 -2.577106586089513 0  0.1840301375000735 -2.605936815456781 0  0.5558649692601634 -3.081061938892893 0  2.005424675726495 -8.438107082887601 0  2.042806140357158 -8.372863098857556 0  0.2538190623142356 -2.194934256323906 0  0.2724737713584773 -2.223651440238738 0  1.638655026237933 -9.943937361725959 0  0.1589848615657878 -6.187139103212582 0  0.3480442493200702 -5.195844974628804 0  0.3740889916104742 -5.171068958302906 0  0.5892066114208596 -7.865465862460746 0  0.6197544331889713 -7.836670479978386 0  2.295365847810706 -3.216686830037864 0  2.334545196818677 -3.290812883476092 0  0.6455325208328428 -9.280165631302877 0  0.6684144146433155 -9.244921215081394 0  0.3060106385515979 -2.691734378179141 0  0.3241234732756446 -2.722462532268663 0  1.325556974573139 -5.388857576452134 0  1.262359045713243 -5.383218342515415 0  3.355844042870059 -1.807525783991037 0  3.409030829894416 -1.902917178829221 0  0.6110314297653172 -7.641989764226397 0  0.6005772789608024 -7.600699995848977 0  0.6412745243160032 -7.611878894989356 0  0.2801112384460946 -8.830553552115571 0  3.464415293842364 -1.997780176198433 0  3.518415578305678 -2.095224553655858 0  0.1482267615014319 -3.33357974923346 0  0.1811842795768772 -3.333317622821183 0  4.561641943992758 -1.662556679797737 0  4.632924052428343 -1.782127816486518 0  1.113981507684391 -3.212355323295987 0  1.141453147952722 -3.164968118579329 0  0.2166001161453242 -2.138978944000634 0  0.2347557556840467 -2.167070771777184 0  0.3938400289537647 -6.176095658326317 0  0.4365128761906973 -0.4647775811817185 0  2.76228564485325 -7.715155218159279 0  2.80624066040053 -7.632229119016184 0  0.5652159785685988 -2.297710661243563 0  0.5875609777328172 -2.332494958670609 0  0.7224908091717861 -0.9668039816595986 0  0.7464564081977514 -0.9270798973264558 0  0.7728723265180797 -0.963405634581771 0  0.1788788992758938 -2.083173717688386 0  0.1968102525884134 -2.110424941028913 0  0.2807734486196232 -9.707531362349815 0  0.2666903023820879 -9.677822626097733 0  0.298963525623396 -9.680011525843272 0  0.1417120460904755 -2.027707974363724 0  0.1593449251777095 -2.05459867684249 0  4.271183695428675 -9.059801576396518 0  4.33400600283584 -8.948305338620786 0  3.01041055565668 -4.21268813965167 0  2.925829065200542 -4.279706293996806 0  0.6500525735582698 -7.497938498011938 0  0.6806234832828526 -7.46543210619939 0  0.511945342377965 -9.480822185951359 0  0.4944248658436834 -9.445938010206071 0  0.5326692830440685 -9.44798598836795 0  13.34068541373 -4.249408251561974 0  13.72588172781558 -4.236703010766667 0  0.1705666756433217 -6.336622446295509 0  0.1921625055943803 -6.313629394547643 0  2.488683715195464 -9.18001869161656 0  2.578944247999953 -9.186053740274541 0  0.6109566060029366 -2.368038386371549 0  0.6336902434679139 -2.403961469080022 0  1.36933027028315 -3.396697449551893 0  1.017243793958485 -3.628748990476151 0  1.043608410978901 -3.578679498969375 0  1.076451769732154 -3.624936764752075 0  0.1639735148373695 -6.102251090596063 0  0.18617102719743 -6.079648318407118 0  0.7634178557811175 -9.927525649064844 0  0.1813623281298966 -2.847512397459222 0  1.369059494433149 -1.839423801828633 0  1.398871240534 -1.891858759389429 0  2.405377827556151 -8.022823721602633 0  2.445524550970102 -7.948517756230733 0  1.308964970980671 -1.736624119535401 0  1.338276080907411 -1.788019068765173 0  0.1424028518375469 -1.139302709454456 0  0.1603620291181347 -1.163358495366079 0  2.322932975743985 -8.169737300409727 0  2.36329585746499 -8.096324826642308 0  0.4088099220499224 -6.350393598072811 0  0.4341620008817575 -6.323296212434653 0  3.575621325775234 -2.187679755788812 0  3.632248434930826 -2.288727640813323 0  1.493789808958626 -2.053659354793825 0  1.526002452295165 -2.10980932227152 0  3.247296492924992 -7.176037377648736 0  3.293755176044534 -7.083931395780212 0  3.493532800307269 -4.235409739003309 0  3.555005715138861 -4.1382174279077 0  3.608212408722331 -4.23914108321493 0  0.3995882133836801 -6.07673755810111 0  0.4252284138839499 -6.047431674187695 0  1.399690327787033 -1.998358711882404 0  1.431524453557095 -1.943912210432237 0  1.461435087946697 -1.998869220848992 0  0.4699064000072219 -9.542915287477211 0  0.4905104115777625 -9.512334441192404 0  1.252551923869639 -1.63540734219353 0  1.280459048169158 -1.685565201705842 0  0.3423254483971974 -2.883350889200452 0  0.36058399215751 -2.851456433833082 0  0.6870870157768465 -7.34648812003163 0  0.7172353383759233 -7.314696501423064 0  0.486224362689617 -3.625057780058451 0  0.5054406535785603 -3.660240062587445 0  0.1388477270573123 -0.1818362727697052 0  0.1658482482700983 -0.1794663146592139 0  0.3290608042216938 -0.4006916326520944 0  0.3462555771248006 -0.371214971695883 0  0.3637224168031619 -0.4015282909946674 0  1.015633455387025 -9.959205324804635 0  1.045945748158159 -9.91288557061122 0  1.069589139242888 -9.953680245806584 0  1.087337306908168 -1.348925781407278 0  1.113537376408168 -1.395710389571266 0  21.16714701102543 -6.545190165731579 0  21.46263229803668 -6.124951791761855 0  2.207884564014385 -3.072464257131939 0  2.248030433797386 -3.144442142106073 0  1.976733503330264 -2.661890259102552 0  2.012622903598503 -2.72767463745912 0  1.196322018245997 -1.53722020678895 0  1.223794030032563 -1.586264961207301 0  1.341250585226941 -3.018732569861865 0  1.370807864142504 -3.072147244507911 0  1.282273765454756 -2.914848765645895 0  1.310845312592164 -2.966899215118769 0  0.230298781045045 -0.3428532658145862 0  0.2470639479497692 -0.3134478529213567 0  0.260909637053949 -0.3437395516440711 0  3.768189676012524 -7.707515402668568 0  3.823785493835134 -7.800562536678864 0  1.401620323021763 -3.125283525456785 0  1.431538468330405 -3.178801773762609 0  1.903867365755552 -2.531779379439324 0  1.939228715898807 -2.597311647666204 0  1.193815256604825 -2.867221250347239 0  1.22257374559435 -2.816380507019376 0  1.25284399804924 -2.863845976790619 0  2.129488567426421 -2.935379902517682 0  2.167942027367852 -3.005114039099275 0  0.2693540136354997 -2.632126428137443 0  0.2872396791368654 -2.661657872252896 0  1.033098428619326 -1.258091745734894 0  1.05921112053907 -1.304246204587856 0  4.400331686671883 -8.832439376914481 0  4.329814209851662 -8.716006882058378 0  4.463402911489037 -8.711610266388725 0  1.521941748991019 -3.792403563657726 0  1.552445428027852 -3.850226076724393 0  0.6781170925030189 -0.8881232562841674 0  0.7050509702572256 -0.8465108837408177 0  0.7230087686056645 -0.8888658718609328 0  2.062520012818505 -2.789346193731909 0  2.101087094381885 -2.858788249846159 0  1.832590336479608 -2.404690041108498 0  1.867315930252428 -2.468262446217428 0  0.3450796150920681 -4.82307253256832 0  0.3835805518474658 -4.815529680223223 0  0.9816858583103674 -1.169651033653942 0  1.00657609407207 -1.213860135091699 0  3.572145296464594 -6.982394771188093 0  3.623030812501959 -6.886123031735697 0  0.8855143592272192 -1.002575537050281 0  0.9092529266572846 -1.043218615420246 0  0.1305987400334523 -3.610573882400881 0  0.1444940677949447 -3.583167865398521 0  0.1656965322385275 -3.612903673247991 0  2.518921389550083 -2.645529065625126 0  2.526819202820771 -2.734399285912281 0  1.141135723661469 -1.44219519148611 0  1.168092306315502 -1.489397005459171 0  1.762962273538896 -2.281066153046657 0  1.797211978500483 -2.342547709147097 0  0.6283817636808493 -3.807673433508189 0  0.6519000658203566 -3.771621411670598 0  0.6721788422084138 -3.809574213027572 0  1.135196570511127 -7.547855314341206 0  1.100606059303553 -7.586183935065025 0  1.08601339931465 -7.535476732278279 0  9.461438413300595 -8.197349463834184 0  9.717400003454232 -8.195929492297047 0  0.1668444708168106 -0.2321230110430825 0  0.1818036472217344 -0.2051733754934846 0  0.1966932098021168 -0.2312264090513736 0  0.1448928425500071 -5.63921991719604 0  0.1174883076358313 -5.664148479000068 0  1.069281923152307 -7.337604702035098 0  0.1478381621302223 -0.6332017388291327 0  1.093924992641517 -3.256589647588142 0  0.554782091731667 -0.6657289811762741 0  0.5721047124368699 -0.6309081023530183 0  0.5933350768674011 -0.6667329420301904 0  0.2946343842510029 -0.3423562260520754 0  0.3109406512219266 -0.3139258812522607 0  0.3279002315142563 -0.3419479685534945 0  0.2627897508412396 -6.156532326998066 0  0.2856228884932257 -6.128066363246852 0  17.83344344487793 -6.663556942095515 0  17.54832747171864 -7.017830272974639 0  17.33099007359291 -6.622258808126453 0  0.1695317857246934 -3.179353409208262 0  0.1536566335132523 -3.149761612646847 0  0.184479158460217 -3.148892058668871 0  0.9652603227561904 -3.532831205951652 0  0.9963142921026691 -3.485158438191601 0  1.015454404551711 -3.534818956933401 0  0.1911195708812823 -5.993530524382186 0  0.2131608827529092 -5.969390012656443 0  22.03286504120567 -5.17304882430787 0  21.76237663981792 -5.67686549384894 0  0.9339102887987103 -1.083007460228913 0  0.9575657741932062 -1.125486105988492 0  1.463733610453923 -3.233044129290097 0  1.495640518837334 -3.287992580670076 0  0.4930843305571582 -0.4965259670246436 0  0.5121137515282825 -0.5294911702042908 0  0.532190173259762 -0.5626286355424961 0  0.5522595905769769 -0.5961093615661275 0  0.6589976306941399 -0.7730065168529254 0  0.6803316301531996 -0.808856901638082 0  3.446035275104403 -3.941530713707172 0  3.499084103855038 -4.039246306860038 0  0.2013029578988696 -3.119541037685999 0  0.2177536182303079 -3.090668974280536 0  0.1217445171075671 -3.038037349446398 0  0.9471862442751231 -3.397173734882815 0  0.9720882980524497 -3.440409015422977 0  0.3182371026903787 -9.652559128026052 0  0.3035140782069021 -9.621734997905902 0  0.3368708015114201 -9.623991336340765 0  0.3056037038355832 -2.943002850742479 0  0.3235718533443013 -2.912374025404761 0  0.9216436656441616 -8.478014501177331 0  0.9299934075727432 -8.527312189285514 0  9.602872316414128 -8.885300658922196 0  9.729949092911353 -8.659592477336133 0  0.2351039777605148 -3.06192274608332 0  0.2521578285121358 -3.032289771212253 0  2.052501172065856 -1.432748929025006 0  2.096535865237112 -1.36360415202792 0  3.345237196720102 -3.743965996597154 0  3.397829726367839 -3.841354473590992 0  1.600134500542037 -0.1199602566801126 0  1.636452737005651 -0.06685883975273121 0  0.8953830302644761 -3.31068357239773 0  0.9199426959851102 -3.354585150285382 0  3.149301890110126 -7.360698699666366 0  3.196879404444232 -7.26845069739019 0  3.052903651170407 -7.541237825609103 0  3.099985361397099 -7.451461964322436 0  3.242465920453458 -3.556345019612079 0  3.291085281013819 -3.649431490367174 0  0.7559335643860763 -3.059243776271234 0  0.7782816676259277 -3.100156973424007 0  0.2700255079270182 -3.002865289423031 0  0.2874818442364369 -2.972809913887845 0  0.666621241105311 -2.74541985728176 0  0.6885619817345052 -2.783906450956232 0  0.7115122482764686 -2.979284837235006 0  0.733500588732241 -3.019003314718745 0  0.1325171092377566 -3.723292122113614 0  0.1685891833966355 -3.725271527393733 0  3.135269029742346 -3.373649194407808 0  3.185710668766218 -3.465992092690708 0  0.8471241188604353 -3.225686129402782 0  0.8705337614595443 -3.267846942301259 0  2.556158343876138 -2.972693436718769 0  2.646335750707211 -2.977219982863194 0  0.4474989428935032 -3.556286968140476 0  0.4663583397115652 -3.59045885464608 0  0.4293782960429731 -5.943864719204726 0  0.4554130679372896 -5.916885455387853 0  0.5967518756993293 -0.7378106597235927 0  0.6148518999990635 -0.7016148424355713 0  0.6355913195361929 -0.7378716813057178 0  0.8017049569742518 -3.141107366920339 0  0.8242851001389226 -3.183179661105879 0  0.3117934519834353 -4.225464027306141 0  0.3283284984820689 -4.257346449487844 0  0.7298478098073424 -6.313836916555466 0  0.7602947248002252 -6.278564785093321 0  0.4094068390384358 -3.489584248490153 0  0.427876335774851 -3.523059879778772 0  0.7226636163626434 -7.197206380683506 0  0.7536600547669643 -7.162874524072122 0  9.619811582076052 -2.778342012590367 0  9.442498823763268 -2.865186604465567 0  0.3723237774773551 -3.424182488342926 0  0.3903524185068292 -3.456930488089014 0  0.1824166661400035 -9.756091529701139 0  0.1689338915920722 -9.728159077455906 0  0.1988325894095198 -9.729830295280413 0  0.3364646234001167 -3.361097768705184 0  0.3542748585136355 -3.391944654827621 0  0.3792490139212319 -1.636056142196841 0  0.827788507737214 -6.728276588993616 0  0.8122484825333451 -6.682285480110954 0  0.8600526745907899 -6.691999233410018 0  0.4334162177847762 -5.741205070241572 0  0.4210477523443004 -5.704486258559021 0  0.4587347830113622 -5.711841233272962 0  0.3084022837946936 -5.876635171690731 0  1.460906995170255 -3.678418881695106 0  1.491117813891028 -3.735435381358615 0  0.2778692173462787 -0.3717616389453049 0  0.1832472027943037 -3.867654468498493 0  0.1992096668317345 -3.895637983981124 0  0.6458310372489429 -8.098287869016783 0  0.6791935173390531 -8.128012446196765 0  0.6098660529653692 -3.696888039521574 0  0.6304816401527855 -3.733434652164445 0  3.415890505903178 -6.318118245465636 0  3.460980836513471 -6.222553140124657 0  0.3593713945661126 -1.321880014028157 0  0.16437083450354 -9.454953177336467 0  0.1798820610722238 -9.429355575615944 0  0.2603073188941512 -9.244349262018542 0  0.2913521508610906 -9.260512604413268 0  0.2640738422968312 -9.277533657681875 0  0.6176461792547627 -7.140775927311636 0  0.588491200744464 -7.288852854653206 0  0.2155747212071724 -3.924416414665765 0  0.2314704478258456 -3.953346987406851 0  0.8604126325155583 -6.562423383958084 0  0.8909070687706375 -6.524811938718656 0  1.625781223132808 -1.147373190999779 0  1.657700622071459 -1.089229194256753 0  0.4548655172345661 -0.4319996994159396 0  0.4737066917683244 -0.4642344013267659 0  13.59893462155846 -1.739445463828023 0  13.35036829750301 -1.629514662893782 0  1.984177917588784 -1.569695432130246 0  1.940283682239446 -1.5006488456759 0  2.012609852769842 -1.497513204396318 0  0.1890611728590343 -9.120422969858121 0  0.3188753367945445 -2.407457525239701 0  0.3558082632033308 -2.407597834970427 0  0.2725846161042487 -4.161461463491533 0  0.2944655195880479 -4.194238651110678 0  1.911062550569426 -1.697188065186642 0  1.94794346464413 -1.635461554929917 0  0.2206842552154242 -4.126607350239119 0  0.2438493912591326 -4.098287756426555 0  0.2549611641986083 -4.13069718827703 0  0.765542108625592 -2.106959800322628 0  1.404194695003133 -0.3867884171331841 0  1.437366544026469 -0.434174542161097 0  0.1287190540553063 -1.507296415670754 0  0.1171678292746776 -1.536783275718088 0  0.1502417075001485 -1.534589665803179 0  0.4585740778996055 -5.608092328786826 0  0.4838268394221146 -5.577821279245964 0  0.6677718373168666 -4.900933035190103 0  0.6877433597669729 -4.864583715990777 0  0.7096053534558742 -4.90110391389455 0  0.1233751515621702 -5.554350824039807 0  0.1541368175616959 -5.560210738071737 0  0.2133905802310618 -0.7053159485652039 0  0.2221811215245388 -0.674262983036261 0  0.1224254099227977 -7.242217012272485 0  0.1421088011969527 -7.215734315751648 0  0.1574286298922924 -7.245923275994289 0  2.297238196966447 -6.171395538114441 0  2.383711311797263 -6.129653843866823 0  0.8888409136361943 -6.392007028225383 0  0.9202083055603456 -6.354745563036158 0  3.257554712607769 -6.419603709702567 0  3.364541785916984 -6.399289379861857 0  0.1969302162512889 -4.009514555046253 0  0.230585430406494 -4.011203486801634 0  3.955906137992764 -5.651104329841146 0  3.88117422604731 -5.564018341087924 0  4.005648479535719 -5.539781736813779 0  1.574747602311298 -6.904902572973607 0  1.612668969160685 -6.856221633725308 0  0.7025472267556552 -1.159756843679383 0  0.6821226749235283 -1.119977508049699 0  0.7220635506366992 -1.119379950685763 0  0.2889075549326812 -2.784986500687308 0  22.7082391926672 -2.378325823170447 0  22.40853944530524 -1.915161234531472 0  22.97419697725727 -1.840314913498462 0  0.07245068081772388 -0.2015236596118104 0  0.05233084897493967 -0.2230827054812794 0  2.767482843555495 -4.33453722322289 0  0.265223216085408 -9.6197441991328 0  0.5312808725772413 -7.130840586431919 0  0.5728191440576715 -7.137213743614065 0  1.9458184541053 -6.324675428450158 0  1.989280340819636 -6.267477045305471 0  8.100876404211906 -6.590130406065576 0  8.285118530135076 -6.72324171529521 0  0.5044073352322336 -5.338696839061956 0  0.5296276240940028 -5.306694972710783 0  1.365051558115102 -6.363854479415112 0  1.42811548438605 -6.37578626417998 0  0.3256433249684143 -1.135543702014421 0  0.3371970480099176 -1.102284063354662 0  0.3604470358796767 -1.129129681675774 0  0.8318137721190428 -5.447268434157277 0  0.8594329113269144 -5.406384181861436 0  0.8798429987366809 -5.451153916928304 0  0.2164473490454082 -0.7942550233894554 0  0.2489258797869169 -0.7863798206967392 0  1.431873495733321 -3.397024170387402 0  1.495635191382299 -3.399210749864734 0  0.5057617490093094 -7.798240613730575 0  0.2353946010236889 -0.7299103987534128 0  3.436163594941576 -4.326529046954865 0  3.382956901358106 -4.225605391647635 0  0.3606559169097778 -1.223685226579432 0  0.3841586157616774 -1.252980799504168 0  2.102880180946686 -0.5022351671723797 0  2.144888186293201 -0.5626319253192253 0  4.028169845638159 -5.743494692254302 0  0.08777503685585941 -4.864809088948697 0  0.1061475937985108 -4.83845614679167 0  0.116184844316205 -4.866717601242479 0  0.2321524992333543 -0.6415217275499749 0  0.2547595970949885 -0.6654197112312694 0  0.9790285928876159 -6.142222627812943 0  1.01052088993376 -6.101276628427839 0  0.2516917613108021 -9.651411314470714 0  0.2320345980103493 -9.620852724012327 0  1.656945224951389 -8.328577667821483 0  0.4678854260847167 -5.051052105181243 0  0.4528028234056745 -5.014603938372321 0  0.4917600970935094 -5.01986280601332 0  0.5473827375298477 -8.947719409764975 0  0.5464652138742441 -8.911373671000771 0  0.5797849745385069 -8.92738242140463 0  1.065033237231045 -5.417941369162517 0  1.09583999427063 -5.372210777059102 0  0.1602430411364857 -9.832566314591041 0  0.1302998482511235 -9.830341991327264 0  0.1473662126364239 -9.805938867032296 0  0.4082442908903623 -9.914857081518907 0  0.3894059371847423 -9.94337634755057 0  1.026297952779956 -5.785942392820869 0  1.057566452703457 -5.74321067183168 0  0.2554712079901673 -0.9659124001565749 0  0.2656314549160008 -0.9333655073627316 0  0.2883621795020908 -0.9587137639664682 0  0.2585866561717971 -0.7542903039534821 0  0.2815115532975057 -0.7790102938609502 0  0.4502777872685435 -1.537332415567397 0  0.4736384201278128 -1.568461612214422 0  0.3954066344512199 -5.142727237700582 0  0.3608890989001701 -5.134669750467028 0  0.1349704940368071 -9.779067427822577 0  0.1649136869221692 -9.781291751086354 0  0.4376489055392181 -4.980708139017623 0  0.4607661595959485 -4.947918212850904 0  1.560872063090095 -7.340781139925435 0  0.7086597025297365 -0.3251144715172227 0  0.4166671809234757 -1.442669026299117 0  0.4302833363488059 -1.407608719599431 0  0.4539137031616143 -1.437044730973601 0  0.1929872551530423 -4.90075769701181 0  0.2061932411020955 -4.930635290824561 0  6.97417589181762 -1.536639896122331 0  0.7883318117119362 -7.727594481083432 0  0.8324143241283544 -7.739010077335861 0  0.7997645534785427 -7.77176264021139 0  0.5225114107804316 -0.294480118158793 0  0.5445275088025134 -0.3243470829494841 0  0.4521744050779937 -4.840756926199329 0  0.4802480816923413 -4.808471619266695 0  0.8169399600938405 -5.318424132894781 0  0.8375539242455652 -5.363173782738225 0  1.221210789438894 -0.7402292319209156 0  0.4783912346877308 -0.8850104945723567 0  0.4485543497289779 -0.8603559669125218 0  0.8283399146828216 -9.963029297513964 0  0.8730428609572733 -9.96119511707278 0  0.1589637796973058 -0.4886745446255043 0  0.1793067934320689 -0.5124003467688381 0  4.057408047358718 -5.422615456051849 0  4.132139959304173 -5.509701444805071 0  0.765793211121224 -1.684853379574027 0  0.7947676807750348 -1.7213036231165 0  0.4675030423133073 -1.670899252070877 0  0.491138248657716 -1.702849638479558 0  0.2886300203775427 -4.968488459205637 0  0.3028740680225877 -5.000588312850113 0  0.1306747398582502 -9.504005047281616 0  0.1168065420589048 -9.475968398535457 0  0.1481731998638125 -9.480276091270481 0  0.2306202773211297 -8.905304768832096 0  0.4631962693711991 -6.570297529262068 0  0.4546317544301743 -6.533680325005305 0  0.4913226181869419 -6.545246552844477 0  2.01552209089877 -5.154634175211676 0  1.982371228793966 -5.085514166874535 0  2.058639804930072 -5.091195703097429 0  0.4728052052258764 -4.70422524010614 0  0.492432697389745 -4.673420727691342 0  0.131781942499579 -6.756779492241241 0  1.297721202014699 -8.138378251656857 0  1.255981726676486 -8.184025470966258 0  0.2023769898639181 -9.218834312286527 0  1.110243378441963 -5.513985889138239 0  1.087597909386066 -5.464437914434995 0  1.141924983517843 -5.469556622550301 0  2.09753608009893 -4.546566261060492 0  2.177874416787432 -4.550476079424085 0  0.5151106382732795 -1.908018017883881 0  0.5318216993449045 -1.871270280563958 0  0.5552363956178752 -1.904285190932163 0  28.1516226924218 -1.387001709386907 0  28.26815911021106 -1.966940111607841 0  0.2752778475848778 -1.95371667911105 0  0.289076878149519 -1.92269702280367 0  0.4392751549760874 -2.474665411100091 0  0.4005641004382454 -2.473437601419955 0  0.2191939210282001 -4.582804584831426 0  0.205088809482735 -4.552313621448778 0  0.2380940435313814 -4.555156849367493 0  0.1525223016609694 -9.259420550682433 0  0.1990935626690291 -0.2853688058464217 0  0.1839302368257627 -0.3127097165467125 0  0.1665707075539249 -0.2855169553012624 0  0.2569832791992255 -9.182322108778195 0  2.27451936084862 -7.80381878760662 0  0.4196260832726839 -4.595984472805315 0  0.4591063444702357 -4.600984272136793 0  0.1948123847396186 -9.782962968910859 0  3.709508514302541 -7.61772708360171 0  3.818063982871378 -7.60565979128276 0  0.1883479554058418 -9.652040534730595 0  0.2019264790486659 -9.67720884119271 0  0.1717712912187643 -9.676729536573067 0  0.2791546454060416 -8.375385814616633 0  0.2111398411030763 -5.30840997762869 0  0.2233299116778618 -5.33952375895942 0  0.1160598237647079 -3.386738750657202 0  0.1304788394265408 -3.360252651705125 0  1.773511907134399 -0.05977465452300912 0  1.702308070109096 -0.06685883975273121 0  1.689320248333367 -1.860539191946529 0  1.666801239927183 -1.924965858288621 0  1.631823696700634 -1.867635321445434 0  1.310769478891739 -3.285613401473149 0  2.437934261104076 -7.64709805005158 0  2.47870511436143 -7.568054216335433 0  0.1782397260111797 -8.945102961029194 0  0.1506982342908163 -8.934599908016228 0  4.908461156609304 -5.042957508526333 0  0.5452008576512029 -2.012046963735978 0  0.5683335543240844 -2.046054875802693 0  4.251166011038102 -6.061120815808547 0  4.325534564608018 -6.168751227613172 0  0.7685635839641343 -4.681385888769731 0  0.7957863409463748 -4.64799582211417 0  1.488990541302257 -5.544598959233543 0  1.51609794750332 -5.602239393622654 0  3.088790164358004 -3.133217870191316 0  3.138681409654037 -3.041441143204781 0  0.3551114988997188 -9.269954684051079 0  0.3682199035108695 -9.235757163671051 0  1.561897041061048 -1.258518359896183 0  1.592491913229729 -1.314091319269154 0  9.264800234340537 -3.006480345758353 0  9.277161553045508 -2.745282123733499 0  0.743479426975318 -7.875419876085864 0  0.1728766287386456 -4.551421586828408 0  1.89541981982239 -5.083200276704539 0  4.403336359668472 -0.5010184838958605 0  4.474264987068052 -0.6186675936757666 0  1.027363159591211 -4.799622341753409 0  1.081196156853423 -5.229372675678499 0  1.112776208301053 -5.180098683891534 0  0.2920496210037058 -0.2293801572372942 0  0.5541395736638322 -2.15468475168731 0  0.5773899591419642 -2.188253198712928 0  10.78653311724037 -1.571004688826064 0  10.59093739556216 -1.284747756787493 0  2.215092201272235 -4.623165351017019 0  2.259380585071966 -4.555175785088476 0  0.4819662020391959 -4.568573419061838 0  0.5042173220820665 -4.53615064410207 0  0.1225805218891729 -4.813659303648385 0  0.1404483977607782 -4.787372445736757 0  0.7987449409046938 -1.999248585896051 0  0.819363123216327 -1.960502418747366 0  0.1206261782744456 -0.4167117051510543 0  0.1466229120188913 -0.4066791003679429 0  0.4329112738840237 -3.965278136192929 0  0.4162249210314179 -3.93181283124095 0  0.456179448583427 -3.931458490546658 0  2.038165554933634 -4.259633116850276 0  2.116442662889572 -4.264426691252841 0  1.505196417525612 -5.713870584489819 0  1.543064189374551 -5.661484367856547 0  1.569749955412053 -5.721657174999928 0  1.958182088459614 -5.678831400632292 0  1.985457180742911 -5.744120972576523 0  0.5943898909820735 -2.479910341056056 0  0.6372203396024894 -2.478787013386019 0  2.998240735921492 -5.399623908159237 0  1.338217726206391 -1.995224846336516 0  0.8836282574414209 -0.6065972461240738 0  0.903492148161563 -0.5657240726831256 0  6.46210934272306 -4.228383958392401 0  25.13911859274805 -5.85050797242128 0  24.83886031688754 -6.315844571648816 0  4.417967102533218 -7.308106119977744 0  4.477287679124174 -7.186527068769076 0  4.552043172585009 -7.300086330012358 0  1.027764384626147 -4.460802381623516 0  1.049422417575858 -4.505535006235462 0  0.9991375142242269 -4.502906756123695 0  0.9224176675410121 -2.254204679040864 0  0.9501438927250163 -2.295031860421073 0  0.6576235417263767 -2.440274911874597 0  0.6807462317734227 -2.477242553495399 0  4.670301872697749 -5.668747220478565 0  2.584636765485632 -6.082126518420777 0  0.185949165452282 -5.248310048428434 0  0.1981005826224056 -5.278602867737048 0  0.3072315857990677 -9.075603870879906 0  1.431991039670859 -0.1479615365478786 0  1.400355506586564 -0.1916430625415355 0  19.62220737743984 -9.096233740096368 0  20.91876020149769 -8.609890508928382 0  20.68258878991886 -9.061576220863921 0  0.2255507497530367 -8.41661486834268 0  0.06734968451315915 -3.197455919664749 0  0.07278359849253846 -3.226139861921161 0  3.365189946580657 -4.425377070685829 0  1.154728294928271 -4.074660635741836 0  1.163773994840678 -4.017181142803083 0  2.203472152824059 -6.679659651325791 0  0.1501123982568018 -1.365986991622207 0  0.1721179127169137 -8.451889475495992 0  0.1427850979926379 -8.440094388531007 0  0.3498230566079101 -8.892758718039472 0  1.484715643477184 -8.626654500763346 0  1.51593143205592 -8.570564442479689 0  0.1585810152725315 -7.923528355160441 0  0.1245005904579948 -7.914842000446007 0  0.2944667309625153 -9.736698228891225 0  0.1492079991137132 -2.493287936775892 0  0.1629812672615358 -2.465311776266159 0  0.1785268460062035 -2.494533941221849 0  0.137368232298833 -7.473771166463802 0  3.221458152374424 -9.716202483046539 0  3.342514077873892 -9.717852296180109 0  4.673526089546245 -3.360635935329968 0  4.749096389824137 -3.243572857173151 0  0.9417477780181951 -8.700456288065313 0  0.9062767635632465 -8.739219183725425 0  3.872258061716211 -7.496912643821438 0  3.930939223426194 -7.586700962888297 0  0.6423241353335243 -2.630908992604017 0  0.663181657392542 -2.592325094067826 0  0.6861630030592494 -2.630165805721926 0  27.76379792336353 -6.731472696251847 0  28.06158860148518 -7.134553133119452 0  1.716092340907792 -9.497118658026176 0  4.63651573606804 -2.02629722490092 0  4.705599884220362 -1.903988765732988 0  4.776004586768035 -2.026714800639893 0  0.1509509070122661 -0.2563575553365229 0  0.1360613444318854 -0.2303045217786348 0  0.1832770172289333 -3.64007296986242 0  0.1993678303798365 -3.668411365070493 0  22.00985957759315 -6.149579040750738 0  22.25194650665791 -3.374050071780533 0  21.92145705294676 -2.969299671182507 0  22.47307111442632 -2.857922544801482 0  0.3901206219079398 -8.704472449838477 0  0.7229254474405575 -2.101690834812459 0  0.7494595470719148 -2.073734165795764 0  8.593982572517826 -0.5147681621641365 0  8.627263648861041 -0.7490494517667514 0  1.351289312763388 -9.041859453201992 0  1.320235258392378 -9.090138432839456 0  1.296882953901846 -9.042299677100935 0  3.692749189738379 -2.392352924680959 0  3.750208189378622 -2.495052789633275 0  3.51956150832541 -2.897825331214483 0  0.6221573475929496 -2.669505797134704 0  0.6441083797900511 -2.707322625881233 0  0.7116065696803187 -2.822410686280139 0  0.7339982557729066 -2.86146205413041 0  0.4393201129507318 -8.584214735657362 0  0.4035529086510294 -8.570408833961553 0  0.1956969872554026 -0.1785697126675041 0  4.055818091383024 -3.453708281043651 0  0.1157934530741009 -5.923416338372636 0  3.40900625616398 -3.091596510539959 0  1.439666713972436 -5.70267928027356 0  1.586733917248285 -1.418599957693319 0  0.3370756738129526 -3.237709624039297 0  0.3547190205609247 -3.266762207174071 0  1.08180010694382 -3.30922324670531 0  1.046195279554993 -3.255984116831483 0  0.1861652814999371 -3.753444471198846 0  0.2012668012893357 -3.782186763258451 0  0.05036244710968418 -7.821520374804635 0  0.07547988951680296 -7.804842752448004 0  0.1942711560920145 -1.499749838899531 0  0.206118763047936 -1.46904615274152 0  0.2055787874528967 -6.514055395213128 0  0.2090176654814542 -6.543384507279638 0  0.182418678306508 -6.540150834142168 0  4.530665836695478 -8.592427502579275 0  4.597689769574673 -8.472407423224425 0  0.4754504837602234 -1.911332723742992 0  0.4091922938827004 -5.66857504553006 0  0.4331190399979068 -5.638109012719568 0  1.52871555009488 -3.343489881583148 0  1.560357472927405 -3.400150263719958 0  7.573987543388603 -6.441500340988459 0  7.707750759972443 -6.620253039486395 0  3.763241575763825 -5.592278130932183 0  3.812983917306779 -5.480955537904816 0  0.195859288899527 -7.373351290202147 0  2.542453369246788 -2.580019825625731 0  2.581982903669134 -2.495795301696643 0  0.2130297483055337 -0.2581755080450892 0  1.999459116277595 -0.712651695361334 0  2.075182734481398 -0.7021472409396967 0  0.04271003539374085 -5.415892257166032 0  0.06885537274855125 -5.401306139535586 0  1.842833313376392 -0.05977465452300912 0  0.4753098357419798 -8.382869792197058 0  0.2085458239456806 -6.842729953637122 0  2.702081330315234 -2.897404266447815 0  2.664350763750466 -2.814019347799601 0  2.756917421305619 -2.8178712600679 0  2.326267672867308 -2.193293955476537 0  2.410094427674231 -2.192898210283001 0  0.793805864173736 -0.2494258838848911 0  0.6595169520736626 -9.967006930652358 0  0.7003618251000407 -9.96449635155088 0  20.16316648006663 -4.715963569364146 0  20.40902009187457 -5.163437689333194 0  0.2582672748279435 -6.797660185238861 0  4.216104423255201 -0.8532926196677693 0  4.346736317994221 -0.8540165104299309 0  0.6967169971333984 -3.546964250929584 0  0.7190172220179463 -3.584068906924024 0  0.3266551523297121 -0.2851499924274581 0  26.76987390603072 -6.811466304639398 0  26.50326415651771 -6.357235761983993 0  0.138874569562315 -7.034343121476987 0  9.8608350651763 -8.423700581642168 0  9.987117428921971 -8.185861806814003 0  1.222480256239317 -8.232735667364974 0  0.4011444221288336 -5.36254789504873 0  0.4252394456703197 -5.331902872979756 0  0.2476802943059084 -3.983122237831029 0  0.2637972823968155 -4.012565237996881 0  0.5082093041245699 -8.1765004546188 0  0.1580673006271329 -1.588761889937883 0  0.1702425241226546 -1.558961572365844 0  0.1817937489032815 -1.52947471231851 0  0.1408206885296615 -9.728921475371521 0  0.1572366117991795 -9.702660240950795 0  2.08413320585298 -1.910393109090021 0  0.3524590397591076 -7.740772593712234 0  0.7982341778668083 -6.637837045447453 0  0.8290413116737376 -6.599716792134583 0  17.27154495732433 -7.357923956029463 0  1.018644568678603 -9.748925773039694 0  1.006876385022448 -9.798202184446517 0  3.109651292266363 -7.804003912678911 0  3.059840223178469 -7.881167591050496 0  3.006889052051278 -7.79186205162914 0  0.7491073690999386 -1.317627414145783 0  0.7562892975596966 -1.272209327160926 0  0.8698745854366194 -8.098796515258776 0  0.3002967234081684 -7.789521032327941 0  0.5020270240876705 -2.266339588743758 0  0.5424295319683825 -2.263432968672041 0  1.625135979499657 -1.371771556963492 0  1.6592809993071 -1.319203320269274 0  0.3290747726453187 -6.563265792101443 0  0.6450614777617929 -2.939765947449915 0  0.6890602222079281 -2.9400694387335 0  0.6754723350004177 -3.505532343018343 0  0.2169250201199517 -9.703620152819729 0  0.5554242002316503 -8.043329001591985 0  0.5155184442270464 -8.029572516647685 0  10.68081805729609 -5.248067830386764 0  10.52185779355444 -5.465216027218785 0  10.39280144550671 -5.217503726673265 0  2.907453857209518 -7.791610084915833 0  2.957264926297412 -7.714446406544248 0  0.6639546865708823 -1.755911188220984 0  0.332320248927914 -9.682267864278135 0  0.1313950201592071 -6.411294081232747 0  0.2303892775773715 -0.2853682692905393 0  1.57369708891661 -1.879676120576073 0  0.1572301032099421 -9.554519044951324 0  0.1476033351935762 -9.52684642903016 0  0.2517616093569295 -5.799690237592509 0  1.159715720956097 -6.607046278971239 0  1.178195190031296 -6.655951358053702 0  0.2677824312046013 -7.901670658487236 0  0.07561357594907392 -3.453209272687788 0  0.0764923221569358 -3.480984473515228 0  0.04815201957247339 -3.465385606450719 0  0.2614991948219831 -8.919685332322006 0  0.2349204572259467 -8.939290147445787 0  0.1813169885629229 -1.188111080021947 0  0.1918390429245118 -1.157698489350617 0  1.316121418887349 -2.539932081093387 0  1.367027691022962 -2.542508992641592 0  1.345733618649723 -2.592118155965903 0  0.8158979340299517 -4.321161986076369 0  0.8416720465332936 -4.280467697723204 0  0.8649296306149772 -4.32289070684333 0  0.5991085288078342 -7.906168767015808 0  0.5591704868965675 -7.89371947916816 0  0.3094928434861401 -6.750971398467447 0  2.596370539369246 -2.798071236179148 0  2.539963336211606 -2.829880403912649 0  0.3005831307803248 -9.35214179477591 0  0.3161565518256211 -9.380089599784673 0  2.752811232029888 -4.499409971752556 0  2.804995819677108 -4.420777287341531 0  2.865795372401589 -4.506618667103331 0  1.482864373459135 -4.800093255738717 0  1.545258407876986 -4.795921645972591 0  2.883008767870841 -1.367970699845285 0  2.861102675454568 -9.014708747043551 0  0.8379499564200223 -4.733959684425509 0  0.7861340369347705 -4.730523063487199 0  0.7719432421529167 -2.039063631117717 0  0.8188779070087282 -2.039188086084267 0  1.961864901433341 -4.252110583502182 0  0.2335016843070292 -9.67893115097726 0  0.3130696931307746 -9.440085124153377 0  0.3323505174340511 -9.41079500650369 0  0.3478067033334291 -9.442207813650873 0  0.2076823641622081 -8.959495794674357 0  0.3790276122384277 -1.447042253688859 0  2.655899695071373 -3.956424526132186 0  2.563253790357415 -3.950414609224828 0  0.6212220683892298 -7.682881898955454 0  1.699044838396647 -5.228840470036182 0  1.735658424214606 -5.166467332920264 0  0.1573381234926661 -1.245976798402511 0  0.1700090723701191 -1.218382239280258 0  0.3822226535620707 -6.51257279808381 0  0.9912962452205321 -0.3937368443890783 0  4.087973802033435 -6.417588468665642 0  4.21493771251448 -6.406739923558814 0  0.2725159810269222 -6.975694106166623 0  0.2820527473779428 -7.014122460491912 0  0.3717179629308411 -9.62659566781549 0  0.1342264532356729 -0.8780085373431845 0  0.3597158484914331 -7.510246016176938 0  0.3692968584956233 -7.545793757577679 0  0.2914222823245627 -7.047160326406695 0  0.3012739203941983 -7.080891092367857 0  0.2017555387692163 -7.634863358764826 0  19.87134735795227 -9.538965453818584 0  0.2032714062202192 -4.789377992761635 0  0.217213892188294 -4.81755217965028 0  1.801311737718535 -1.864503890984765 0  1.836292731055373 -1.818662925926713 0  1.477410494322042 -5.347784496477084 0  1.509092636980474 -5.397022625177855 0  0.2712336659209669 -3.84374339177289 0  3.40423528852684 -9.627824915237426 0  3.455151584957008 -9.721429008915244 0  0.09564361156683887 -5.548763893425524 0  0.08721360887619944 -8.355257823926362 0  1.580721304644197 -9.716339206974032 0  1.518155953523834 -9.71293730320434 0  14.7557693398499 -8.978297251930877 0  15.2079437873193 -8.902272563000198 0  15.01933058179316 -9.25435286446227 0  0.1776250272115831 -6.367245542634402 0  0.2738120555024484 -5.466761394429341 0  0.3758561500459514 -8.595439118181311 0  2.382798847966498 -1.462683996151992 0  0.6617453790612107 -7.539135662420646 0  2.404614849671624 -9.1819208095189 0  0.3118065861515031 -7.114972928599153 0  0.3216460432616444 -7.148980475441364 0  1.225825753043051 -9.791366405784515 0  1.172361675920222 -9.791496913193376 0  0.987893490063442 -4.199145524168092 0  24.11772588838946 -8.311351315303286 0  0.412167500951643 -9.569155884764577 0  14.76541598071229 -9.665188776696475 0  15.21759042818169 -9.589164087765795 0  0.3787033800017099 -4.773395087995398 0  0.1848855454928486 -4.318234772825364 0  0.4178748679715341 -6.387413393359653 0  0.3825478735185381 -6.377756760745116 0  0.707741408826509 -5.264911201796127 0  0.7522696189512299 -5.272050074067736 0  20.01130062761006 -0.9823785011982311 0  19.85214021804591 -1.510972395133411 0  20.41076250023936 -9.538965453818584 0  20.95131994818932 -9.522610767045338 0  0.6952531776316775 -8.253092577851488 0  0.719242267737048 -8.212739487776814 0  5.994941030844569 -9.851012818190748 0  6.083181097998374 -9.697719594528639 0  6.17188380302348 -9.846706776337891 0  12.2467930773003 -5.937687802374531 0  0.2064785281806074 -5.849451169833653 0  13.20571292565591 -0.9414446672217505 0  13.46286485330528 -0.6865572707148626 0  0.08787749791908439 -5.379825521473114 0  1.85620963198993 -3.128653560483198 0  1.517965668596663 -8.256305734564037 0  0.3017289550757081 -7.302928688480613 0  0.3112731981861003 -7.337156168130794 0  0.1724640123771497 -6.133079401483776 0  0.1421993864049256 -6.124470025492997 0  0.2550141928878187 -0.1241519674437956 0  0.2248359265537125 -0.1252356329699786 0  0.6988396128771175 -7.38946488686654 0  6.163352647297865 -9.54831648281222 0  1.212164871435835 -0.5583429193350362 0  0.340272645939665 -7.440053368910074 0  0.3497424406617036 -7.475039365565664 0  0.1371560506767118 -0.4663196327153845 0  0.1654028181364922 -0.4596378716389715 0  0.3310165701448096 -6.432616157265329 0  0.3209593314697621 -7.371293995561659 0  0.3305417910542552 -7.405478715237228 0  0.9361969421200378 -0.3149802369168686 0  0.8964271597674909 -9.844378607136559 0  0.9184053031264572 -9.881997791106283 0  0.7161874586362202 -6.912438325992253 0  3.188808511737534 -3.290468707619574 0  3.296453439393201 -3.280631229558455 0  0.7795717213802931 -6.843145273229982 0  0.1942291865878207 -0.5650280754644603 0  0.4098541140335676 -6.111948371847046 0  0.8725593079616782 -2.038953068425712 0  3.004300854806921 -7.629113339990749 0  2.904865659965159 -7.628861373277442 0  5.723109039634732 -9.134858524989617 0  1.512931672284957 -0.6382669926939029 0  0.5591074546634918 -7.591182902076118 0  0.5084925484462026 -9.972728613213956 0  0.5267634263770233 -9.942796659689972 0  0.5445826302539203 -9.970068046476015 0  1.558224281074217 -5.836235430511236 0  1.597010788091708 -5.782239132160838 0  1.623352885602813 -5.844431171038874 0  0.22223601989249 -0.9734739014612934 0  0.3625618440957243 -0.3427846268960684 0  0.2002453640353608 -6.024963009535022 0  0.531283510799863 -7.355791956458052 0  4.438160603264642 -9.884756213458708 0  4.507325331400688 -9.765490266935121 0  4.573628453791752 -9.880734053476413 0  0.1213482583176191 -5.948428407986842 0  0.2679802745342794 -0.7225408719176247 0  0.7369839770406728 -7.239758410229381 0  2.806818958891107 -9.580126223952405 0  2.85456027041316 -9.506765114459046 0  4.434869254791515 -9.650687071073396 0  4.570337105318625 -9.646664911091102 0  2.355706010001011 -8.588679992618742 0  2.347232718130137 -8.500205310806047 0  0.3992944456816012 -0.4022972546546741 0  0.4406838153122798 -5.982546095543126 0  1.788458098708105 -0.8503205397972859 0  0.6315151669732249 -3.660559401684572 0  0.6752524755166291 -3.658969247316186 0  2.516956926413872 -7.49096858701815 0  0.3013652201897301 -1.017143962573617 0  0.2175597465340129 -7.827236689017136 0  14.36889628793523 -9.665188776696475 0  0.07061746288421489 -9.017759002618199 0  0.04627608305146502 -8.996841746559454 0  1.151474507653928 -0.4694496046251402 0  0.3122013060908486 -8.388377145562178 0  0.2853967340839851 -8.409846235682039 0  0.8358279384041118 -6.250825676396714 0  0.8843100210925883 -6.260824326018379 0  0.2300220221737472 -5.517405040761489 0  15.63497958171583 -9.589164087765795 0  15.62019854796686 -0.3278088070182941 0  10.33285078202045 -9.704957394497319 0  10.32354874995531 -0.2233111752227144 0  21.56690474930468 -0.4261197780934518 0  20.99909933865111 -0.4261197780934518 0  17.87128819971095 -9.588848959686127 0  18.35477914711804 -0.4058428217956038 0  17.86795698087727 -0.4058428217956038 0  12.884783182278 -9.715869131427027 0  13.25061309751644 -0.3016118796911602 0  12.89275407250208 -0.3016118796911602 0  11.5411961119354 -9.725943990159861 0  11.53816769525617 -0.2705138113066621 0  9.231129769440543 -9.781562210979406 0  8.251639769351321 -9.805285560471164 0  9.465548620808347 -0.2137770137579764 0  9.202489356176651 -0.2137770137579764 0  8.487313057703311 -0.2095125834065446 0  7.352774136330078 -0.176101502145845 0  6.76182081362319 -0.151630122526381 0  6.944286709429432 -9.829251297760564 0  7.147836957676031 -9.829251297760564 0  0.5722925781163219 -9.450469613931778 0  0.9063973102617879 -7.536848079972203 0  0.9210591000760928 -7.585179127738625 0  4.866719111835565 -6.917131708984531 0  4.946527618264282 -7.03114244175781 0  4.808454567447514 -7.045557721437688 0  0.1642285781611292 -6.620061376410794 0  5.820422137665572 -9.851012818190748 0  0.1864173551573316 -5.565098026263309 0  21.37963997062526 -4.294472971985956 0  21.72822930410765 -4.065016051969738 0  0.7583708660991917 -3.514339013219659 0  0.8016781045547496 -3.516821328499844 0  0.7836970244709711 -3.549830306673535 0  0.2764140435726592 -1.803072435958968 0  0.6171509378734275 -9.384823818875656 0  0.8433093424108797 -6.773346146159296 0  1.871594232792795 -1.759376923923783 0  1.802788417171559 -1.755570095926207 0  5.486685931666379 -0.1302668608433972 0  1.07088136668456 -9.221976327725537 0  2.152091394219411 -9.622197297351619 0  2.074529167392374 -9.620619823955323 0  0.0889759961580161 -1.543755800284787 0  0.5776330325276575 -8.604855009129945 0  0.5727875329604668 -8.565880161447932 0  0.6095943335980483 -8.581712985050824 0  0.4456248130977425 -5.777116808450372 0  2.235495850833185 -9.636325796989679 0  2.192890798055265 -9.698130977762869 0  5.646342657428789 -9.568588473948239 0  5.735111646120654 -9.70897403619389 0  20.10666902562298 -6.459067585606498 0  19.86902011953782 -6.00857608565852 0  1.19203015406379 -6.318087938400931 0  4.303121207515471 -9.884756213458708 0  0.5287548287781476 -9.514382419354284 0  0.6634160715789275 -9.317269680377073 0  2.287038887613372 -2.124956174312223 0  2.328367106138572 -2.047039194451857 0  4.867883830169877 -0.1259029183377933 0  0.4685615748997183 -5.436745006571829 0  4.715775184547272 -9.880734053476413 0  0.3956220098379504 -1.315623515460585 0  13.59896741489166 -9.14143161602251 0  13.57498234279968 -8.768416448176954 0  0.6300932621592494 -1.826231891353947 0  0.6465496751423743 -1.787551568043575 0  5.192476906891279 -5.714946518549746 0  5.239432343296251 -5.569523662133133 0  2.0332745481451 -9.677980863222839 0  1.384672597910191 -0.5423121472365784 0  1.44492728080634 -0.5380054145594055 0  4.258890056317423 -8.117846954184845 0  4.32294123129164 -8.014120249286268 0  0.178147588858609 -5.219097617707299 0  1.213123225625761 -1.058384393025657 0  1.187041407535201 -1.019352776007305 0  3.273580226381007 -6.76027822748447 0  0.3482646333621915 -1.069448655701468 0  0.2476623527234416 -8.205414526210951 0  0.2540102843497714 -8.238992385633452 0  2.250757059683528 -1.091261944600285 0  0.8758839702287418 -6.608714716350858 0  8.101525840767572 -5.035161284147405 0  9.832661433992447 -5.176146914708045 0  3.802815775761072 -9.89951892275359 0  7.006028511466114 -4.933183658044949 0  6.808956572275914 -4.925634880811398 0  0.933875323257146 -6.268698029931793 0  12.60500992482034 -5.416883869153316 0  22.26481213834096 -6.648853367799824 0  22.5645564801222 -6.200767069886908 0  1.387757471589206 -9.81176420597537 0  0.7577225978636992 -9.174890169870274 0  11.29496357060141 -5.309703038611283 0  0.2754652225363827 -0.901117825211875 0  0.471821355472585 -5.645105737657668 0  0.7210499528919776 -6.068805662763774 0  0.07298373634881727 -0.3529472013320838 0  0.07307029763524397 -0.3802197182875533 0  2.508063389258307 -1.226570199074802 0  0.3725542213948252 -1.190435854963693 0  0.1533392252039221 -5.094636187876532 0  3.831960627881157 -4.664723200816388 0  14.19326209941229 -9.323377816059054 0  0.71080632718005 -9.247640334634623 0  2.970115273415075 -1.191947022612843 0  13.62950081927746 -0.3849453910237024 0  0.4334304635600645 -5.148673437582599 0  0.3438615460461563 -1.656219079410384 0  14.48326472320909 -5.580441750638407 0  14.09890563286451 -5.563284923786626 0  8.027492972910242 -2.890165162252039 0  8.122389129034909 -3.090726240154248 0  2.731365504184994 -0.2309922328709106 0  2.63914358475548 -0.2298554120217231 0  2.689483864640689 -0.1505575097279168 0  12.73152995378862 -0.5806265029156323 0  12.71795785840172 -9.442546082035374 0  11.38624145151676 -0.5255488642406707 0  11.40575535300533 -9.449788963021465 0  10.1992172734162 -9.467210829171112 0  9.108859586389169 -9.579774652960701 0  0.8172531846970212 -0.9630373985785958 0  6.846159981562561 -9.634076737411503 0  0.1275877686750064 -9.652449714277967 0  0.1436580881563536 -9.677491934488682 0  0.2832440633149638 -3.33181690386429 0  0.3182455240633928 -3.330325915377177 0  0.8073958176751894 -9.100697682463368 0  1.193058722461974 -6.562297305089139 0  1.229684072157763 -6.518092700034529 0  1.250017462521061 -6.569181959378934 0  2.734054759454825 -0.07584716528855218 0  1.598778882767174 -6.965536681445638 0  1.536864568178792 -6.952398100385276 0  4.86120387869105 -9.872451512431768 0  1.542457136784927 -8.509665196047044 0  3.142814462879359 -8.816500824125027 0  3.202175011672018 -8.901830926174304 0  8.81965587897098 -3.441179405141532 0  8.571921312317556 -3.453680521186009 0  0.5114369716010252 -0.4637480852588647 0  5.544928936518954 -4.812458438741538 0  20.00535851883454 -0.4339348195352084 0  19.6066055063537 -0.5484436816630218 0  19.31418619467568 -7.73110383953213 0  0.906281410806427 -6.440094937620058 0  0.4433358883454801 -1.3728761228893 0  2.030876971195681 -6.953202543345226 0  2.296584378242894 -9.931729705320125 0  0.5508910321213385 -0.5291771162949477 0  0.2556122723380092 -8.428904230480622 0  2.738475437961725 -9.927749757596553 0  2.832778478856614 -9.927749757596553 0  3.152565240957205 -8.996057929194571 0  3.256508027956713 -8.984908538450576 0  0.9727716664513153 -8.869445634869422 0  1.714154139985855 -0.7372735980119964 0  1.679970996223407 -4.088772914444775 0  6.064796678366232 -4.858216734052326 0  0.8635297186786204 -9.026847637108352 0  0.9221083696684236 -5.998564011714047 0  0.2211750100077623 -8.076200381135541 0  0.2277938245501581 -8.108470109031403 0  2.467417626564567 -0.06908492156354029 0  2.382309123938125 -0.06908492156354029 0  0.9363975721752187 -0.1220246598095471 0  1.612619285959262 -8.732526986373029 0  0.4055249213400067 -5.295401746624359 0  0.2344068906233119 -8.14113697337211 0  0.2406376675855704 -8.173817374899834 0  0.7586884574724486 -3.9730785572852 0  23.51620955307758 -1.739423551167659 0  0.590812575712711 -0.5971133224200438 0  3.053122336939717 -9.343656016762885 0  0.2121406464831441 -9.431476189937527 0  2.788571105026644 -1.37277306671634 0  1.430072409145264 -0.3334816054525565 0  1.973523258143032 -6.394087533008566 0  1.903261633226263 -6.382404283764568 0  2.381559930919416 -9.924156828128767 0  2.466668433188211 -9.924156828128767 0  0.9834925115463236 -5.916584055832657 0  1.026282842268756 -8.786305358360616 0  1.345071474705136 -6.305054186035887 0  1.382274396670663 -6.259291987765693 0  1.139382330592799 -6.555957019626835 0  3.963578684392441 -0.8606487970353811 0  0.5190298602977492 -5.375151444047129 0  12.42485801732334 -5.681291646386944 0  0.8666321548878813 -7.70514511161158 0  0.8780648966544895 -7.749313270739538 0  0.4257976654139419 -8.293473201258394 0  4.456171321157068 -3.464598895424845 0  1.082714500414426 -8.700681132910095 0  0.6539836063542506 -8.639388749426058 0  0.6484524307398463 -8.597529684975191 0  0.6879962039288579 -8.616230601668413 0  16.43914434507556 -5.751669043603447 0  0.1837078899982192 -9.885470874847645 0  0.1722980354768566 -9.85931708483553 0  3.087581026883933 -1.536139502540403 0  0.6321745207042646 -0.6667939636123155 0  1.143730151867768 -8.614661967484626 0  5.409573059644494 -0.2584193637384029 0  2.320660055963838 -3.584744781944267 0  1.070976907254474 -3.814856380555869 0  1.206459076140156 -8.526143773907487 0  1.984968123231699 -0.05984850485621696 0  1.911998224857147 -0.05984850485621696 0  0.4613150804652335 -1.776804333540608 0  0.5003229562979996 -1.77161665573272 0  1.01692009402421 -9.308010223039867 0  1.892863606075188 -8.498876439560354 0  0.119021548304822 -0.6397828241456187 0  0.1266130767538449 -0.6099220788072692 0  0.2356845229172535 -1.749508031028367 0  1.240362103257034 -3.828183536668547 0  0.4644661335613662 -1.502535059626388 0  0.5019664921515208 -3.799909228049689 0  1.469892570212306 -8.141706539612159 0  1.984649840236209 -9.941332937329888 0  1.334463359845518 -8.339625260934618 0  0.9975292372932163 -6.189768032796002 0  1.401248781286872 -8.242043670969412 0  23.86578964339419 -2.254913790361844 0  24.10810247185254 -1.690857839392066 0  2.006587636938979 -0.8356882028568178 0  2.082125643325984 -0.8314724066407102 0  1.269480305363249 -8.434294101203268 0  3.529575101623506 -0.282717365112358 0  1.540349967445685 -8.038439778505538 0  23.03872864637835 -2.783076223768473 0  4.247388852113454 -9.776819516942485 0  0.7378838763942888 -1.64828050856088 0  0.7851728305261183 -1.642274608461401 0  1.068183466111639 -5.651078772548608 0  0.4820350249152234 -1.634391738062779 0  3.943855679067088 -8.744658042313771 0  0.4472326985805033 -9.571964549893748 0  0.426907297495644 -9.601184534299238 0  14.89911840271459 -5.566748366736389 0  1.70451035900189 -9.943937361725959 0  0.1836651188499907 -8.340265404619299 0  0.7252233062558453 -0.8095995172148474 0  2.165561392455007 -0.9577614012144497 0  3.829874127420114 -9.162434154008674 0  1.872419464044068 -5.474900431180147 0  0.4825485498655802 -5.08726570122549 0  1.7633853224498 -7.710193313978685 0  1.65882622025978 -2.223393643524067 0  1.612492750279554 -7.931981395464523 0  5.388826416583402 -4.250890058998793 0  5.475566412251288 -4.110366568017703 0  5.56756284487513 -4.241394254231897 0  1.686860251358457 -7.822436016354353 0  1.959718348367382 -5.346101425082082 0  0.2171125641022336 -2.605419671711268 0  2.199453422507172 -8.238059757210543 0  1.842037447295505 -7.594765451282721 0  0.4762487949136727 -2.715103719408862 0  24.87391862793209 -5.356067450619118 0  0.1187048552606562 -8.453229971043918 0  0.1160055539263585 -8.425920240531807 0  9.081207753976054 -4.244560961552074 0  9.212573779229476 -4.022542313266278 0  9.337569077258788 -4.241773003715753 0  7.670846733821922 -4.248330138445023 0  7.782664167812245 -4.057998231829717 0  7.887119743144438 -4.243408213196305 0  0.2140370264910167 -3.333792868007556 0  0.3606053951703281 -2.722056759415311 0  0.6770976549938723 -0.736810699564904 0  2.090845829003459 -7.228646291911084 0  2.005634636880531 -7.353949758252904 0  1.013217066466151 -1.579412293945186 0  1.922830656720029 -7.47606308982061 0  10.73131383478981 -4.249979632193702 0  10.88945584516121 -4.001583513338309 0  11.0359256474685 -4.248084618117695 0  1.234848105855619 -9.135785443185899 0  4.196814462145024 -8.733019271558186 0  3.278819173164226 -4.21817833315936 0  2.17883784220067 -7.100143981604549 0  2.137887327555584 -0.4295315999521474 0  1.274253360982321 -9.952802962942895 0  1.874973879698835 -9.171910903536251 0  2.037534705190861 -7.967268360375577 0  9.338007303427613 -3.809115538990698 0  0.3233363256785911 -6.259582078142341 0  0.3129680093168368 -6.224516092011394 0  2.45730335052702 -6.69037430295901 0  2.555622857990965 -6.547016494485392 0  1.046649327247852 -5.833862772064405 0  7.669706103334208 -3.870377544959632 0  7.885979112656724 -3.865455619710914 0  0.1947416650951261 -4.663886503881 0  2.361637605029404 -6.830446142445433 0  2.269232344950426 -6.96744226821675 0  0.843509278340278 -2.216496394012236 0  2.655862137809169 -6.398537377872505 0  10.76155761358471 -3.775517046907049 0  11.06616942626341 -3.773622032831042 0  0.3331440519614262 -7.184130621836658 0  0.3427826241433074 -7.218261566916551 0  0.5478724004656677 -1.834948410697383 0  0.6014223339358917 -1.726211524397245 0  2.861758331339754 -6.086124043101313 0  2.75853385459116 -6.245108930820502 0  2.969449504853161 -5.923725869255856 0  1.276702583227184 -0.04767569485372825 0  0.6436069311726555 -8.55855483729318 0  2.421048689980006 -3.293572070624323 0  2.622663323195193 -7.79387434551735 0  0.4528154504181785 -0.9493122193377932 0  0.4787843073504483 -0.9742777116696413 0  4.15461056921489 -5.731701749621383 0  3.525230159735798 -6.6057492733697 0  3.084951629206488 -5.760988050658243 0  3.698576960558356 -4.860429436168915 0  8.02581861572007 -9.802525095931141 0  0.4696140615841333 -4.879037834248298 0  0.8778712735993803 -8.780345031499825 0  0.4192777558138694 -1.054118066090214 0  0.4555524847210748 -1.044918065371508 0  1.120546736280346 -9.953680245806584 0  3.747287920138691 -9.804668249418061 0  3.568672100806859 -5.050747119015866 0  3.443370209429412 -5.236025075825798 0  3.321053441903857 -5.415975778185109 0  3.202335510180713 -5.591990677485868 0  0.605458827636248 -3.841832781019251 0  0.5851800512481908 -3.803879979662277 0  9.538918342657581 -5.611927401155228 0  1.409385207446547 -9.042705205755889 0  5.3678171905634 -5.069881869883266 0  2.069399678766892 -4.956973714382035 0  2.641832840025311 -0.07471034443936464 0  5.211699312007728 -5.320718377059723 0  2.883664645908331 -3.295138663674208 0  2.983508499852729 -3.294737154915509 0  0.1782390323028853 -9.48298982608263 0  2.159104190111403 -4.82693169189582 0  0.2820829426981319 -4.440334748047765 0  18.8582238377607 -5.950234879994841 0  18.36474938199133 -5.924318007239759 0  1.545650040295563 -8.841148922598148 0  2.611129314865259 -7.478213562913436 0  1.478244997144968 -8.945119875766689 0  2.802121358491172 -3.140390128666386 0  2.898290814236297 -3.137418790586509 0  2.839926153201732 -3.219026442584211 0  1.752881325474995 -8.256515134194084 0  15.64049594416058 -4.277880854151101 0  16.06953121199914 -4.251764802219519 0  0.1475013537875824 -4.869032856977844 0  0.1793117156272626 -4.870920185954863 0  4.082565691005595 -5.298108057556198 0  0.06594810645760596 -9.455987076230462 0  0.09237472143877312 -9.470519068334738 0  0.07288146707217535 -9.485165362442316 0  0.2431008819459883 -4.496394799377793 0  2.077610864415121 -9.360441653856171 0  2.115622622443933 -9.291900766259296 0  2.155349774629819 -9.356243763969628 0  1.132259687105766 -5.56326619935925 0  1.115713261581366 -0.04302731007570948 0  0.05056627658095358 -5.807213986522046 0  0.07551382551122998 -5.789127187417065 0  5.363385953051441 -3.996159182383786 0  5.542122381343169 -3.98666337761689 0  6.651156373338662 -4.235517290991632 0  0.9580176367458648 -1.042546672000665 0  0.3077281132048793 -2.220759214003931 0  13.16088947286011 -1.80941227603223 0  13.13796989512465 -1.459563188199629 0  8.111374369342059 -4.249092866637375 0  9.599584701270235 -4.246838607228677 0  1.604909103175189 -4.199568903941535 0  7.454859877177512 -4.241706226487022 0  0.1553327052857778 -2.718612438588801 0  1.387160933303917 -4.512406034506178 0  0.4039352826774927 -8.095946865248509 0  0.4426052869189405 -8.097313045899758 0  1.458662846078338 -4.412145025848392 0  1.326606085300986 -0.54832671718966 0  0.2789478903119793 -9.436091143019418 0  12.30958550318878 -4.232956535622757 0  12.65090069452049 -4.245602364654305 0  0.5464142197105879 -3.661153827135134 0  10.94329970721686 -1.81641409301298 0  1.321272673084735 -4.613126887761704 0  0.08791215063095059 -1.741389283785887 0  0.1119426652516751 -1.757114898226224 0  1.112086022585219 -1.303808170246043 0  4.103218834065276 -4.252020689941384 0  1.531452957791517 -4.308023654304506 0  4.644071121913903 -4.241933076993435 0  4.787087176525588 -4.248982143149028 0  4.233397476735512 -6.631158844525563 0  0.4875867372938707 -4.740571550745401 0  0.4513413329258498 -4.734943045894943 0  0.7050078322476612 -4.046818169086901 0  1.006795083004452 -1.126500444474781 0  1.258217139792077 -4.711781612887311 0  1.0722237389729 -4.988667913572655 0  1.194693291486185 -4.806333032762742 0  1.132610053056663 -4.898761435725627 0  1.618532022054161 -3.852567620099816 0  2.047348338619596 -5.223040885439769 0  0.2686375354766319 -2.164768483465754 0  1.057437501668867 -1.214896982783426 0  4.20585370011085 -2.988158542323609 0  4.299280803419958 -3.678562109573766 0  4.382214401019494 -6.846532531166442 0  2.591719253195381 -5.407217567696789 0  2.506804966922743 -5.40192389465603 0  2.56352638819703 -5.338134811135393 0  0.7177191553849696 -3.813217308487487 0  3.405625949547133 -7.077470337631919 0  0.4741169172359019 -4.395619952853094 0  0.5623679713778635 -1.974640572695275 0  0.5176572933690746 -4.32930859687119 0  2.951956585279708 -9.507476555149522 0  0.6530936308845696 -4.118919886160439 0  0.5623621437985395 -4.261372489305697 0  0.2297843652895324 -2.108350995947311 0  0.6072352929375775 -4.19123197751046 0  14.10488794512079 -4.254287518374507 0  0.1904605276344373 -2.051221952129694 0  1.16781055620762 -1.39497254898031 0  1.81934760289133 -8.620453787846664 0  1.337890037807579 -1.686447433356729 0  0.6298872091102634 -2.330560138693888 0  18.10448786137624 -6.314391242366161 0  1.013319207049419 -0.3488909835953535 0  1.040938602049067 -0.3887898510510155 0  1.39717937414483 -1.788911084249749 0  0.2645589452853176 -9.303539060367402 0  0.2335141133183782 -9.287375717972676 0  0.2327382040342947 -4.611839699869156 0  1.223638615391415 -1.489280552224932 0  1.456265778176851 -0.279664034269266 0  1.48989355404804 -0.3256945635848458 0  0.5837051342399278 -2.260739018421424 0  1.280626221158988 -1.58624613454094 0  2.230149098771754 -3.721757739423565 0  15.22596836415926 -4.27849597883225 0  16.84590043686201 -7.37386751793985 0  16.41986586638061 -7.412294376010111 0  1.012976751316074 -3.903814252287258 0  0.4167483368686895 -0.3707324236183602 0  0.4351255928440239 -0.4009780482345784 0  2.055771538034401 -3.987717089521536 0  1.460616000693665 -1.892369268356016 0  0.9190320944142805 -9.96119511707278 0  2.552244945886502 -0.07471034443936464 0  2.512434625889238 -0.143795266002904 0  1.736099278876846 -1.754056637734975 0  0.4598507381790142 -3.865743582177826 0  0.4218216815423883 -3.863457810659946 0  2.141497441171992 -3.85553614325769 0  1.591533433696339 -2.109852784642207 0  0.1280337789847543 -3.555956684151703 0  4.304990407845095 -5.942549650065712 0  0.9555645203483536 -3.986968168077409 0  0.9047918983327747 -3.983734041118524 0  0.8714163329214983 -0.03834998007928192 0  1.104333833246486 -5.276787147657596 0  21.86739549113551 -7.91671262896113 0  4.370697923343045 -5.237929643545932 0  0.3654707359842817 -4.258442860237682 0  16.50476457829137 -4.266861014760829 0  0.5721588655414536 -2.116953303021439 0  1.525623934728689 -1.999212853343658 0  4.351307377957045 -1.083632515321656 0  14.21051189887475 -2.925674084046358 0  14.57785448930299 -3.028075906573571 0  0.4986746427545512 -4.60457685735113 0  2.451381181561835 -8.398481945659146 0  0.4421214281240573 -4.259606797688441 0  2.120241087243583 -8.372845569501397 0  14.00619452560975 -0.3849453910237024 0  1.608219627050975 -8.506594429582165 0  0.7541040180111818 -0.5405275268519176 0  0.7261664769842966 -0.5017122008343122 0  0.1231504983154981 -1.117736591863054 0  2.250748167535528 -4.694928353234634 0  4.488333458465426 -1.311560767644842 0  0.1959218125942286 -1.925082099307993 0  0.1515584805156056 -2.549675098547658 0  0.1821180524234407 -2.549941589273438 0  1.645059151576923 -9.718233833229284 0  3.684260437352934 -8.557629428222484 0  3.804144810264969 -8.551622190029198 0  27.98856077467488 -6.278867126413317 0  0.8991304628275145 -7.667734471135757 0  0.9343443623897567 -7.633086488153427 0  0.9474966269762604 -7.680800322032928 0  3.705675076526854 -9.361562647385901 0  1.879087379176784 -0.1196231593792261 0  3.403762278407019 -1.716916507629529 0  1.347705887055614 -1.196459994028266 0  3.519559265479929 -1.901919220219491 0  4.628670899148847 -1.54338975651962 0  0.3227363854697671 -2.660863095593887 0  0.4411244042159908 -9.63273984196511 0  0.4060592065871305 -9.629931176835939 0  1.422004472810931 -8.62642519920975 0  0.8406595582566396 -3.773526661239135 0  0.8633509692997769 -3.812679892432607 0  0.8124526687483264 -3.814153016306002 0  19.35636863226407 -5.98254646545909 0  2.014724692606249 -2.596944742844044 0  0.4588219116684975 -3.997982650745051 0  1.940668469671669 -2.4688491981858 0  0.6772161356388473 -2.402417009189402 0  1.86873867618942 -2.343189933002503 0  4.463188178375752 -0.3750037303131233 0  3.632149476897434 -2.089237419721657 0  0.1631315711898296 -3.558286474998813 0  2.102126589257708 -2.72319491055318 0  11.12304779912531 -3.311107120908776 0  4.534471981149219 -7.066897785216195 0  0.05212747306863896 -7.593968300719951 0  0.07522558897564124 -7.576430987204709 0  1.724862376016532 -1.088105562668682 0  0.9723542713309907 -4.795234557439946 0  2.248769181213309 -3.005399990201679 0  2.180425171522243 -2.861458119497492 0  0.662043993666769 -4.832450392111726 0  2.534671579367357 -7.947199000076273 0  0.7466311813290183 -0.03904686002159075 0  0.705125893970429 -0.03904686002159075 0  0.6067543790408294 -6.103052621283274 0  0.5678929314375942 -6.080024143613389 0  1.593376907222881 -1.204877130454395 0  1.370867294484569 -2.966844165916405 0  0.5802971821240615 -9.90628827935376 0  0.6008992933778856 -9.937074977128376 0  1.248139139364978 -2.760157117679569 0  1.311032254444278 -2.864008022318032 0  2.448676100504018 -8.096266410645139 0  1.432085025998603 -3.071813801608375 0  0.8341751644837796 -9.808046151065906 0  1.932402288728378 -0.8424470759115081 0  1.966499660779451 -0.7776220015210367 0  2.901200928018508 -5.399533470222222 0  0.6878183423154915 -2.706846935658645 0  0.1754401152475857 -2.43935893093184 0  0.8897716556662942 -6.783649299932684 0  0.8574882982825169 -6.819005103799299 0  0.741867112173491 -9.96449635155088 0  1.49509262700138 -3.179192438084738 0  1.186054103621302 -7.55994012283465 0  1.171461443632399 -7.509232920047904 0  22.87085129252981 -5.73117281863224 0  23.12580385327762 -6.230447145681326 0  4.337485795559919 -9.176495624416305 0  4.207400470351423 -9.176522516155385 0  1.07466238032538 -3.531006731209325 0  0.6836817773839012 -2.553668281096278 0  0.3594353016903327 -2.914803130796626 0  2.493525430867596 -6.082189381461371 0  0.2171781101103107 -3.149132834247414 0  0.1129393702989123 -6.115126553719022 0  0.2513522690791703 -3.091035585067326 0  1.64935111352105 -9.499565079111916 0  4.467594704473214 -8.943908722951132 0  0.7340281580919736 -2.94018686905534 0  0.7789131598143495 -3.019642729109335 0  0.3225598470382902 -2.973633330146302 0  0.1205167375034506 -4.264721581004034 0  0.2865703080242614 -3.032864875080889 0  0.8247694248165089 -3.100833584158156 0  1.022282379847971 -3.442396766404725 0  0.9708128375077383 -3.355058759038668 0  0.9187200204127919 -3.269633544344765 0  0.2200300699437552 -9.101604740403442 0  3.613763712270099 -4.042977651071658 0  0.8710317328863475 -3.184290445951391 0  0.5194986453924315 -1.359226472184113 0  0.5580543843034711 -1.350793023946965 0  0.8921914197861902 -7.193237173430058 0  0.5060906035251627 -3.591081321992424 0  3.509636552249711 -3.843830289907815 0  3.296371920413339 -3.464232110410304 0  22.33640273396341 -4.703017465359495 0  22.61314161213213 -5.231461383889447 0  0.3719517637837182 -9.971292930913478 0  0.1433666888891807 -4.551423074048796 0  1.040488958302156 -9.352826514717069 0  1.06378402555303 -9.397011129853842 0  0.4666019734284585 -3.523255308218349 0  0.427924945778198 -3.457374459455506 0  0.517162831771742 -8.968112316137086 0  0.5504825924360048 -8.984121066540947 0  0.39082160628287 -3.392482865539062 0  2.317360509841361 -9.638023072224357 0  0.337579805833597 -1.736693287957679 0  0.3545535879824264 -3.32947317869575 0  1.822068487480944 -7.834015144473348 0  1.893679897107882 -7.845155693409308 0  0.1971723449904239 -3.612666952860059 0  1.825242527539585 -5.089457830965849 0  3.302955859772961 -7.265007495440668 0  1.554970020451794 -3.737316292757918 0  4.772412903128338 -1.782545392225492 0  0.6675698318198595 -0.3252361673754365 0  0.1240972436522227 -6.920373069856481 0  0.1560118247132323 -6.928486245604783 0  25.47859310848672 -4.441496591003982 0  3.105302917502659 -7.626822858875909 0  2.716638145691867 -4.594915802059885 0  2.761724542924394 -4.668652655431328 0  3.203222242579173 -7.448184079838192 0  19.40238141888234 -4.215286543936431 0  1.493384116966507 -3.624596375286465 0  0.1995704600892267 -3.839208892524408 0  0.6742787186803518 -3.735335431683827 0  0.5810181309892606 -0.03273766988740334 0  0.5435596142228842 -0.03273766988740334 0  1.542224226785301 -0.5825640472625491 0  1.576334240494063 -0.6336571603916994 0  0.7333757915765666 -2.783448402383079 0  0.2321073989606663 -3.896155057493279 0  4.043812034708083 -4.151782881590388 0  2.233401167558718 -5.307304398365667 0  2.202445198478772 -5.236763060989948 0  2.280768792837275 -5.24520654967854 0  0.08771600467776786 -0.9448044279824241 0  0.08165084956507229 -0.9753904053880191 0  0.1654222413962518 -6.651071227754871 0  0.1952629294001706 -6.659441154119888 0  12.15913655384457 -3.955029837121002 0  7.359139826765166 -4.064619218657601 0  9.87566181551616 -4.23805688586447 0  8.344641401040588 -4.244884383594082 0  1.479790116341412 -6.935862200926548 0  1.424329181286478 -6.92051190513042 0  1.457372352667985 -6.876413696117117 0  1.24914274299169 -0.08953037439544964 0  1.220911383255244 -0.0418546795417214 0  0.5820411467486828 -9.970068046476015 0  0.2394924016573974 -4.934488139890148 0  0.32455138214738 -1.91931991041672 0  1.560362800382443 -3.288932094525299 0  4.571336835104351 -2.14993734966477 0  4.63746455557661 -2.271023187755946 0  0.3244845867101454 -6.827718314035973 0  1.003413448237861 -8.415062279016734 0  1.029680304507815 -8.371859656722265 0  0.2015589288821449 -3.725159424471611 0  0.9848817282937237 -6.805669392583687 0  0.9502939192248228 -6.840857903752028 0  0.9385384206068341 -6.794119746404346 0  0.3307011364489831 -4.195131521088936 0  1.167234881214991 -8.23393183193882 0  4.361746291259717 -7.4299507637202 0  4.43341125825507 -7.542776820254175 0  2.096395407415194 -1.501795515479352 0  0.6275959376016615 -6.661961811347887 0  0.6214480043044901 -6.617453006738857 0  0.7191451238824325 -3.50591608348211 0  0.262414359369858 -4.071512040715976 0  0.2957497521479553 -4.13314186967897 0  0.3968386259203811 -0.3417740389618276 0  1.051605886069524 -0.5615457950816545 0  2.738902408262366 -2.981071895131493 0  2.020269635174525 -1.632325913650337 0  1.94456686445324 -1.760280895187149 0  0.8080645634323709 -5.486537976670432 0  4.601183313515698 -8.708859997435377 0  0.2934733898037258 -8.933769108308166 0  0.3249805246057385 -8.949220581290927 0  4.120941325286783 -5.16868889204604 0  4.22227516140836 -5.263115998532984 0  0.6811050427762471 -0.5551334525178033 0  0.7011754192450557 -0.5888890468666812 0  0.6641342295313493 -0.5951225179304487 0  1.120387504540155 -6.257926002628733 0  1.100345228930106 -6.205560299950502 0  1.155059191443922 -6.217636508566923 0  0.7661728087460471 -6.073417576062248 0  0.6524760995027616 -2.179059250379308 0  0.6924941822875486 -2.175009884572184 0  0.6794727722477951 -2.215589731827598 0  2.573260520029176 -4.546764878503441 0  2.655838592967386 -4.509074422298085 0  15.30537788423204 -5.569106139385767 0  0.8534798903013794 -7.65743127773208 0  0.2646822998161671 -3.954708738602099 0  0.436682113179133 -1.914481782897077 0  0.1164938258775514 -4.21548736653603 0  0.257292227121301 -5.344194546012701 0  0.4382886013138076 -0.02738984001113209 0  0.4044822898301419 -0.02738984001113209 0  1.659041248947098 -1.204019143120319 0  0.05262591654450333 -9.834998149921272 0  2.755382558685234 -0.4577418615768849 0  2.757161191101453 -0.3737388810471325 0  9.999666518379092 -8.649524791853089 0  23.38604117050585 -6.732464851789609 0  23.69233598291347 -6.26287060053494 0  1.167271801697751 -0.0418546795417214 0  0.5605874787845178 -9.58324458298501 0  0.5223821184694035 -9.579812993281733 0  0.5455252582930576 -9.549326264298609 0  0.2263661993641275 -0.1775098608095345 0  1.141793002903366 -0.08488198961743088 0  0.4803804912416592 -7.572742511546719 0  0.5194101018767725 -7.581070822835516 0  0.02081434400721349 -0.06887749751037653 0  0.02081434400721349 -0.09681045840423153 0  0.9515894669949834 -0.5635316282881142 0  3.702492766384204 -9.539449019491741 0  3.640255045101506 -9.626047579281 0  3.579110516892655 -9.544803068183301 0  0.8772759001050829 -4.022421446794856 0  0.8550201924614491 -3.979556592764679 0  0.3131776930856844 -9.144071146660824 0  0.3102654254468469 -9.110393752525777 0  5.504562094566129 -5.640439748947703 0  5.605101449858186 -5.760646273504402 0  5.435614314724916 -5.812926924082205 0  0.4049821202251636 -9.972083416637092 0  0.4387884314508153 -9.972083416637092 0  0.3638733927282409 -5.357667294725631 0  24.20976436382117 -7.277327263290896 0  24.530849423295 -6.788075590215525 0  0.7291818922767561 -8.84223800994198 0  0.6889505208145383 -8.853895394674419 0  1.034039902517222 -0.3057130212985619 0  0.9843975456886866 -0.3106600146366247 0  1.522302121360594 -5.888885986026703 0  1.546164521454273 -5.95330698602602 0  0.2191989493326254 -4.317273932136267 0  0.5296025057530542 -6.556735572464273 0  0.5210379908120295 -6.52011836820751 0  0.5397692681722042 -6.595440440830833 0  0.5694846407972918 -6.570312256193866 0  1.929811934730925 -5.610665589144331 0  1.901388832209363 -5.544119907235632 0  0.8624746671316821 -4.236910145397236 0  28.43063844654161 -6.302151054848008 0  0.8855831508632033 -5.367059265509251 0  0.2393542270940454 -1.463519986885396 0  1.938761616659637 -1.088244783985271 0  1.903469888198215 -1.145599893289052 0  1.865424014100855 -1.087916653174703 0  0.7971123735502346 -5.276168168133295 0  0.8438765772382482 -5.281592901624554 0  0.3087651464071381 -5.473194472491006 0  0.2864600975409068 -5.499463464498846 0  2.880466983927196 -4.341745918573666 0  0.291040110065687 -1.140625953695611 0  0.2249989035315547 -9.785598506030642 0  0.2132876273132052 -5.676233909136924 0  0.2455524445384043 -5.680415197859306 0  0.2765628870013543 -5.682230828978168 0  8.427570031913337 -6.902708546861428 0  8.206947183424099 -6.959020252176902 0  7.568302980209419 -7.002944933787966 0  7.362708642782244 -7.005205165158754 0  10.46662280007924 -3.765009971233197 0  1.061307269350614 -1.934806952693849 0  1.267441033000569 -1.147607675528768 0  1.237888596563579 -1.10001286409564 0  0.9994082553352754 -3.678739172327686 0  0.04412802795056692 -8.436866960805332 0  0.06718966563259876 -8.424057192575354 0  0.0688636735123449 -8.451865591274696 0  0.5662682002388379 -7.031536136740922 0  12.44160862586686 -6.755789383699807 0  12.62162960805778 -7.024029118782448 0  12.29203101725892 -7.047723583722798 0  1.464451155714174 -7.86491825198088 0  1.433456620161191 -7.806173932759322 0  0.7876544760226025 -5.441768241603564 0  0.7924521047027504 -4.364738701595022 0  0.8136976616292362 -4.403786578012157 0  0.2995280283097799 -1.981422925308877 0  0.2653905616737813 -1.984005818899761 0  0.2118536644639946 -4.873976828096436 0  3.92881624945645 -3.449046690478565 0  23.17438898528756 -5.261141459683865 0  0.1818805504482945 -8.979689171747676 0  0.3219410957781292 -9.795157780901889 0  0.3082759990865913 -9.766213007922826 0  11.20274069497727 -6.878159469867878 0  11.36865517956022 -7.120802260285483 0  11.06545903218568 -7.152706487500003 0  0.3573002786017625 -8.963984457419471 0  0.353467158876672 -8.928631381809181 0  4.143067300342137 -9.274590575922067 0  4.076765200210893 -9.157896527902281 0  0.2825028467330242 -0.07203321580873023 0  0.3143362510928114 -0.06926912489717374 0  0.1608416780857702 -8.820086715486752 0  0.2450634497081197 -9.43439771837954 0  0.2273594701675883 -9.460588440590627 0  1.174251540105887 -5.897070821945739 0  1.15345458818169 -5.847418138542182 0  1.207876262774374 -5.855399221614645 0  0.3835364891736326 -9.444240420463629 0  0.3222162865628437 -0.1737487700853828 0  0.3073037223958277 -0.2012053039943167 0  0.3429665492706597 -1.451975180772358 0  0.06629504692276811 -3.422715817336779 0  0.09463534950723229 -3.438314684401288 0  1.679736488938364 -8.737422874367766 0  1.64605608691947 -8.792666184228921 0  3.138504935627145 -4.853014178019379 0  3.194931223014038 -4.75830115204842 0  0.3646358264128295 -9.034743054026034 0  0.3612392961424504 -8.999458664216053 0  1.238095163538876 -0.5069446154760726 0  1.268969585715034 -0.5522643933191835 0  0.3991611985724184 -8.777635637891809 0  0.3946822636906973 -8.74122435777574 0  1.518581182499565 -5.497833010845926 0  1.580651485389762 -5.610025984132763 0  0.06540341301452557 -8.339340304417016 0  0.06510327454400411 -8.368973665659844 0  0.3492133931764574 -9.854394611189926 0  0.3356857146646295 -9.824596245243789 0  0.1240291135110283 -3.638081433426311 0  0.647218375091331 -0.3614384651872449 0  0.6263513030348768 -0.326107792013044 0  0.2239328356026196 -1.151643769636548 0  0.4721545494763237 -5.155829274856535 0  1.96733851534926 -8.497635472742385 0  1.930199920519392 -8.55957645624388 0  1.356187732391351 -9.845246883351244 0  0.6608699660636965 -0.03407100126443918 0  0.6214399456534672 -0.03407100126443918 0  1.693214044220397 -2.166420350454199 0  1.726952052828114 -2.224111411982343 0  5.966859639978905 -4.996832904724164 0  5.885619583595879 -4.832303717348924 0  0.2311274070784926 -5.283005792473595 0  0.4575020044294362 -9.445783662597769 0  0.2694866199596433 -5.653465892425359 0  0.9073438586843725 -0.646826550778921 0  0.8619744831028164 -0.6475698893761059 0  0.2091257332651395 -9.885505281472009 0  0.4495063430217865 -8.658825825257701 0  0.444516133146621 -8.62203514348122 0  1.389846943530969 -6.964070109437506 0  10.28661438004741 -1.377509384533062 0  0.4079402752176051 -8.84996242874475 0  0.4034591243247903 -8.814194298995751 0  0.2102865720041507 -5.223986251860818 0  0.2329280053776017 -2.575652133830206 0  0.2505580424913347 -2.603698728726182 0  0.1296437976744542 -7.190530346275806 0  24.30630538422179 -5.347254080485316 0  24.61162892482709 -4.88289526159463 0  2.281486828106033 -8.241932295743863 0  2.241668429538091 -8.310284967819769 0  0.07045810947136033 -3.248839439617153 0  0.04540014827390593 -3.234853794934121 0  0.09663066842077228 -0.9161856030737354 0  0.3503253235986996 -0.1185420777117523 0  0.3364280146953007 -0.1460581180159037 0  12.25871343550862 -8.673065803646583 0  0.4227884662793926 -1.784567046296159 0  7.711997870762564 -2.681234005735992 0  7.512135871233132 -2.654519416229896 0  0.4878674538663823 -8.459608275306159 0  0.4816981519714609 -8.421346060732116 0  0.2807926697022864 -9.323236853532634 0  0.3149091353418072 -9.322601941319876 0  1.182426650899895 -3.820576812924806 0  12.47272635696413 -2.966394067660057 0  12.28407574434354 -3.216080862441582 0  12.13432266715619 -2.875201804862588 0  1.634878559940649 -5.729852915527566 0  0.7373201768026192 -8.719191965890008 0  0.7337742905805431 -8.675224571957173 0  0.9718612896175962 -6.005021799299856 0  0.09570329313445214 -2.867807994964194 0  0.1105041747805977 -2.835160055437785 0  0.2480362202081103 -0.02442352590816288 0  0.2190515337795169 -0.02442352590816288 0  1.330863268692617 -8.086918787703951 0  1.302810603129274 -8.027044476694062 0  0.1941667144449895 -0.1262954848279474 0  0.197755514929403 -9.933364192705262 0  0.2045985449067054 -9.958435578934981 0  0.6859070176117825 -0.07311786128603082 0  0.7654950542446564 -2.396940088230987 0  0.7792062360956358 -5.23521884279751 0  1.821631455801512 -0.7886123120290449 0  1.859140955475443 -0.8460891023439689 0  1.568957788415517 -0.528233242045637 0  1.505555220206411 -0.5328430743478396 0  3.464940328784849 -9.538482099744867 0  0.3508935620282756 -9.382212289282169 0  0.508518972174766 -0.02981331226828843 0  0.4729333803861238 -0.02981331226828843 0  0.2142719727145206 -1.524121745462196 0  0.1784997603331142 -0.3961925073871306 0  0.1754719374301175 -0.4267963667480394 0  2.138930509316515 -0.1854966569368024 0  0.2402794292179316 -6.853403272603085 0  0.2156969357780056 -6.875518651373007 0  0.1896193420302659 -1.583646936453214 0  0.1194958813638127 -2.54704571834337 0  0.132690978706588 -2.519880721527295 0  0.1207738114107464 -3.152810978750485 0  5.840551583178474 -2.570490842648734 0  5.753786395016325 -2.696424329149663 0  5.673514220170322 -2.552125384704067 0  0.3574641481909495 -6.406130038609307 0  0.4050954828935396 -7.555210431359098 0  0.436732713123515 -2.719561224056193 0  0.4559418816171217 -2.683243037363576 0  4.569630373368685 -5.915412168043749 0  4.620572159991951 -5.78540834896758 0  4.70104221567653 -5.89309012365307 0  0.5215534176163139 -8.254983726287358 0  0.5146188870154838 -8.215742377881821 0  0.6192530533089808 -0.09826805502193459 0  0.6012292750408452 -0.06680867115184252 0  0.4993380845810123 -8.536140922463918 0  0.4936654989360854 -8.498163763598551 0  0.2321269453201733 -3.303029933776288 0  0.914333276034121 -3.815123005251431 0  2.714740947072936 -7.793114562106982 0  2.670662712017277 -7.870872911136713 0  0.2606308077065478 -6.519332365900417 0  0.2500032820052702 -6.48320598114966 0  0.120546824606933 -2.60293825488455 0  0.1893643998621553 -9.834913960540561 0  0.1157253406586118 -9.626439788767158 0  0.1463303395595439 -9.625551304600142 0  0.8902839972716272 -8.192563822958808 0  0.8796920797226679 -8.146245575081014 0  0.5743431925825764 -8.126985211654397 0  0.5685892091425089 -8.086624568796855 0  0.6781796204946602 -4.662633837382538 0  0.660666617777494 -4.622082670530061 0  0.2102505282172977 -0.5035883835490571 0  0.2023467744922804 -0.5339959467688038 0  0.04286450246970475 -0.1100620565771999 0  0.02205015846249303 -0.1249834417483866 0  4.596594832517694 -3.479443660455782 0  4.521205046900729 -3.591281515409764 0  8.37141147716391 -1.905582856045406 0  8.147466293385616 -1.904393972116639 0  23.89509117307962 -7.748979272553968 0  0.1378034455681885 -2.745007928545134 0  0.1225127653818987 -2.715516445242731 0  3.67866261279908 -7.171052773068246 0  3.626887804168426 -7.07420479839482 0  24.00034687650601 -5.790639581968231 0  24.26058419373424 -6.292657288076514 0  0.5359559981831747 -8.332409067302795 0  0.5290624846879304 -8.293971109505335 0  4.804944547002107 -0.2504370695941347 0  0.0703158530338186 -6.662562772691611 0  0.09604601262967449 -6.677215753573133 0  0.0723626293159807 -6.694020289093919 0  0.1178097968054921 -8.102755849186309 0  0.110222157335766 -8.069306043664216 0  2.130507794893896 -3.514382171369788 0  0.2092078409151554 -9.488810597514348 0  0.4997084170426831 -9.60886225569827 0  0.4846461965512248 -9.57494393701187 0  3.418607297331965 -5.605541759338418 0  3.533752663890418 -5.607790338999399 0  0.2014860861764962 -1.212722233264796 0  2.330097591524792 -4.698105398262885 0  2.284247389503552 -4.765168694816109 0  0.236099732401815 -6.547952898940244 0  2.01449787176705 -1.085513122439579 0  0.6145311854069231 -7.990933469379465 0  0.607253798126802 -7.94970413490633 0  0.2624943219691609 -5.523678989799286 0  5.090932650650139 -7.007928038077609 0  5.032668106262088 -7.136354050530766 0  0.09924067000912373 -7.911508255538283 0  0.06853908323371449 -7.921304575280526 0  0.2261470859924639 -6.66575026770128 0  0.2174121548552677 -9.979744302309204 0  22.51049580356651 -7.163981950160593 0  21.95579890103745 -7.112793921024422 0  1.913000248130423 -1.453641003750786 0  1.842047047700461 -1.427965061315852 0  0.2873308027954344 -0.6574369547539858 0  0.2773594250866189 -0.6901782102402709 0  0.1925129646282002 -4.111843169887227 0  0.5429908594397119 -3.802181902255871 0  0.5212327479154002 -3.835766652967156 0  0.3166990024900791 -7.855558589677432 0  0.3082843967484266 -7.823671388543028 0  3.154478229891911 -6.424914812721775 0  0.6413340636251039 -7.76594891874157 0  0.6315096879311675 -7.724533581189448 0  3.956695806072918 -4.675858948645054 0  3.889608934611333 -4.775254254676299 0  0.1817878584828279 -8.033465012958638 0  0.5969317102427851 -4.016678441606746 0  0.5558543646091341 -4.000988426197321 0  0.3283298277033495 -0.5240284318363209 0  0.3202984333080501 -0.5590950891005413 0  29.06478225631074 -4.591446085743124 0  29.29811804017634 -4.927916786042411 0  0.9128024776267623 -4.239739937027519 0  10.34309266009589 -5.667054603636798 0  1.749940025818958 -4.094604346322501 0  1.712223478841576 -4.150747612638519 0  0.8058940120386229 -3.976628845839866 0  0.7802986396675813 -4.014693709886346 0  0.9422570466135305 -8.033638727786393 0  0.9321230199924564 -7.986208984925332 0  0.3134313088488998 -2.037232027411616 0  0.3060344035148361 -2.06924165098506 0  0.3453057214497086 -6.63324081684922 0  0.3374184161536142 -6.598171956462885 0  3.97686936855564 -3.255696239329225 0  4.043803280592636 -3.135151761946567 0  2.549422224726156 -0.218450011335019 0  5.710757466987737 -4.825591427557997 0  5.621854014739769 -4.957786899204303 0  0.5305563463019141 -7.918015786878909 0  4.804760824409929 -3.614090326663329 0  4.738559815289904 -3.487318555314887 0  4.88169208143848 -3.495282601537515 0  0.31587204458625 -7.021997498614272 0  0.5162795977232157 -7.096140573777251 0  0.834903044891572 -0.2445511971681871 0  0.1357875811689997 -0.2836984660368138 0  5.934635972732519 -7.760072557967632 0  5.857931994579751 -7.891907759100055 0  5.76714928616428 -7.747338503361329 0  7.002854270828242 -5.623215586968755 0  6.795098229946033 -5.638696429419165 0  2.048905573820576 -5.551544957462029 0  2.077275727549267 -5.619710768949991 0  2.00283957658973 -5.61304155431813 0  0.3357742452901746 -7.089117200760354 0  1.206162786243132 -0.4614224228058905 0  0.3190190517408027 -2.006178806460439 0  0.6825264701260387 -7.622781431500174 0  0.6720723193215221 -7.581491663122755 0  5.653973599779967 -1.379350277719407 0  5.575171331661892 -1.509609968614649 0  5.491278719333916 -1.365445759263875 0  0.1482422508375709 -6.472681012262214 0  0.1184007876193363 -6.46378680522267 0  0.137801303550706 -6.441962103578813 0  0.6605095258698146 -7.848772987232789 0  0.6511193057266595 -7.807528316902781 0  0.6536416098176705 -1.544813411859657 0  0.6790186574145416 -1.51007580224146 0  0.6262731393608103 -0.3969110631950485 0  5.293900241663179 -7.753943243693426 0  5.222661152924307 -7.882179547913291 0  5.142048478365428 -7.763649693562417 0  4.002516741445389 -8.635595928373581 0  4.068224876877238 -8.738264664472428 0  0.06880680237085279 -0.1221137268224899 0  0.2951754621539493 -0.836163381945501 0  0.2854540830200563 -0.8686478662689616 0  0.7284586677014975 -8.63243676203561 0  0.7229274920870932 -8.590577697584743 0  7.793594371229941 -7.769676270531114 0  7.582899498399629 -7.71176457556832 0  0.7289842199671241 -9.020459577242541 0  12.98488206116525 -8.163722410849424 0  12.79341966901434 -8.428589165461023 0  12.63945495242398 -8.141649948860117 0  0.4367022498702919 -6.460392320828367 0  0.4278803383194543 -6.42439240211765 0  1.125511365650784 -3.817885173811817 0  1.096406526308161 -3.863319856824348 0  2.405832273616129 -3.589511882760557 0  2.360728666810003 -3.659033510639511 0  0.3849527665168431 -7.484109269220173 0  0.7249139194549947 -7.475589022854651 0  0.7128670181269143 -7.433338930824685 0  3.153149270148669 -9.345888108986003 0  3.101901937135349 -9.431213902386741 0  0.3262038510942684 -7.277250730226171 0  0.3147199102371587 -0.771581725717601 0  0.3050591338522786 -0.8036712424608581 0  0.3458315156326321 -7.345615483832344 0  0.07675254194649206 -8.690786004151029 0  0.102675540105361 -8.673412889624554 0  0.3652485038017055 -7.414327964936054 0  9.542981171616185 -6.467764116090504 0  9.308589488522594 -6.478631495980819 0  9.408644581206207 -6.271508910306581 0  1.679703113377805 -8.863522792980733 0  1.612585910398701 -8.858626904985996 0  0.3621186206774389 -6.702812529559471 0  0.3536966389766949 -6.66834408002795 0  0.1843049386249493 -8.566955490377451 0  0.2152810055058758 -8.577203884873274 0  1.501598690602471 -1.788874835269112 0  0.1893527757049025 -6.196146248938147 0  0.1810577980838204 -6.164305482106275 0  0.247658305113271 -8.584560260121455 0  0.09028050614058536 -4.496630072024188 0  0.3037287120956016 -2.373125943906972 0  0.357804919747263 -7.158349183386945 0  0.3027414523230814 -4.563965769124857 0  0.4560813972080879 -0.05720315227942052 0  2.943647798427353 -6.754672510442841 0  3.006384346164975 -6.844313932758278 0  0.156841237330001 -6.531971578088545 0  0.1317722046441272 -6.523813574003752 0  0.153910767592075 -6.502663717990864 0  0.4305802455708303 -6.185050010784333 0  0.4204597377743511 -6.148597033859918 0  0.5889850821184197 -1.270722938921653 0  0.6121645406893617 -1.30357097993292 0  0.7620902808337426 -7.324413205601124 0  0.7502229754102032 -7.283361947460532 0  0.3789665723557309 -2.689320071765519 0  0.3980646226415594 -2.7204372296607 0  0.9214038585976709 -0.1714174482249602 0  0.9636047071878977 -0.1474367905988547 0  2.962487823779565 -8.018293233739147 0  3.041489344863123 -8.070427764559595 0  2.951986218080201 -8.08900639838895 0  0.7913973798425005 -0.1737251612189272 0  0.8324945605603347 -0.1688504745022232 0  0.8115971165857303 -0.2092491319698411 0  17.07157129375272 -7.755259334963736 0  3.95108918508174 -9.157956054654276 0  3.891216972539981 -9.26044268702336 0  1.119464744491619 -8.77982328918929 0  1.17723138296671 -8.763784632743619 0  0.943725640292584 -7.502517445449342 0  0.3389985333135002 -8.202231247601715 0  0.3662974295570898 -8.176225786531175 0  0.2160945759342692 -6.086939088300616 0  0.2080274623221054 -6.055726940120892 0  0.3913629196231891 -2.505994690198659 0  3.962155997733111 -6.428434973769067 0  2.362830107487078 -5.253210387612803 0  2.331874138407132 -5.182669050237084 0  1.967531264255271 -8.619549200881812 0  1.8930563549812 -8.620790167699781 0  0.2863496142391337 -5.808031051789335 0  6.180092153066806 -2.020264134263107 0  6.355380159688707 -1.979248425698736 0  0.5669601890932618 -9.517814009057563 0  0.3221792488250834 -0.9506694015721493 0  0.3120190018992499 -0.9832162943659926 0  0.8219154008010037 -8.257889414950668 0  4.181133944458967 -9.667092779248367 0  4.30560257321909 -9.659785689223295 0  1.723588691417554 -2.109206095711364 0  1.655462858849219 -2.108488327253087 0  0.1067588457025757 -4.058532318424943 0  0.07510047968948186 -4.062430384112185 0  0.788029737722356 -6.242849276697978 0  0.4624799541340465 -6.056570110072219 0  0.4517196611081431 -6.019747721967725 0  0.2061509633779188 -6.25920450596035 0  0.1978383045955869 -6.227550456106222 0  0.8246154595562665 -2.782171456800151 0  0.8455359781896661 -2.743419720265133 0  0.8702366541507267 -2.781581918847807 0  0.2232447735725334 -6.322168194167173 0  0.2149874247296868 -6.290826769372237 0  1.29995976656728 -7.589073362835815 0  1.237167330078879 -7.576423408914595 0  1.285111413230977 -7.533967682462568 0  0.2474404863231623 -2.546971242282344 0  0.2139950079340593 -2.54869218526743 0  9.308090109104814 -1.311212931143842 0  9.47740816301112 -1.517934005033465 0  0.4561617704602021 -2.59616594094642 0  0.4940677871512946 -2.582218169693469 0  0.741824659105589 -6.99951438482222 0  0.7297079197261063 -6.955615405540467 0  0.3960264172104893 -1.122852473967912 0  0.384472694168986 -1.156112112627672 0  0.2104108004124896 -0.1518027999752647 0  3.769460702562165 -8.367344874484427 0  3.896151035945074 -8.351743210206674 0  3.856832410277608 -8.445653409565718 0  0.4509309085315536 -6.258870504993878 0  0.4408176342763763 -6.221873725528264 0  0.2263553084012369 -5.912739160795726 0  0.2165647151909731 -5.881141677451268 0  1.312295205093356 -2.759489305112704 0  0.4711200750730153 -6.332598734440605 0  0.4611451594518545 -6.295844716187911 0  0.5164096798695397 -0.9659381894890435 0  0.5049912406012353 -1.000375353985296 0  10.02817316708093 -6.972018497497984 0  10.1922648861129 -7.180493508026148 0  9.927947634477569 -7.266862831723686 0  1.851772930284744 -0.7284405403657646 0  1.781090073517404 -0.7326719778190824 0  0.1362443178775194 -0.02470827974185319 0  0.1100856346268291 -0.02470827974185319 0  0.5040116471374922 -0.9084772606227318 0  0.4645823341689894 -0.9163737811230144 0  0.1964710576654056 -1.279493921886307 0  0.02205015846249303 -0.1529164026422416 0  0.04558003215706208 -0.1663053550169575 0  0.02352987369456727 -0.180986717737845 0  23.63790010940014 -7.236540315906295 0  9.216815399013283 -6.68485728237864 0  9.082478808603305 -6.488602076594717 0  2.278824753703894 -8.378125811523709 0  2.196791348105034 -8.374253272990391 0  10.98463104886438 -5.260883250033026 0  0.3862466617277924 -7.750770150319482 0  0.5979024394265373 -1.343666559284525 0  0.6383230323291951 -1.33472966669846 0  0.420371330194401 -1.245682327356561 0  0.4083148160046033 -1.280180737268878 0  0.9768646173834199 -0.23215581567705 0  0.956917637587841 -0.271802274620077 0  0.08694854179881162 -0.1358094564381966 0  0.06224205635294666 -0.1519307695370617 0  0.4698970924887416 -5.850744287613509 0  0.4320365019258574 -5.842480788858943 0  0.4580069683065311 -5.813937070699797 0  1.121553673973628 -7.349725089298556 0  1.10509716630707 -7.297261775508914 0  0.7059827590125263 -6.749936765523452 0  1.429770822053639 -7.919105803983671 0  0.4723194084216509 -0.4004348683796257 0  0.5100548698863303 -0.3978946987843504 0  0.884510134475228 -4.739140337683308 0  0.8623247145053661 -4.695981684006002 0  28.79632374548179 -3.263385746857121 0  29.04014778230388 -3.635242549046857 0  0.9694252642248387 -7.598244978635797 0  1.757954022840874 -3.744487392517796 0  0.9078442108146305 -6.701251503654179 0  0.8923041856107634 -6.655260394771517 0  0.3976885645183152 -1.913525817012364 0  0.5778239268261025 -0.7782093902775111 0  0.3859962265902599 -4.226221453768153 0  0.4034378937301746 -4.258307416721436 0  0.7706844223612705 -7.085353415563429 0  0.7555697973077482 -7.042957687136431 0  0.9214655271211178 -7.938332132468743 0  0.9112830457098848 -7.890886275487796 0  0.8001794469045347 -7.172080730647517 0  0.7852395805425392 -7.129083677543348 0  0.2728532803806054 -8.183279088072819 0  4.957198953928689 -8.830670207659637 0  4.881928696854789 -8.701472272632783 0  5.025936919677394 -8.713888728056403 0  1.756887693752006 -4.56926557695638 0  0.04456776562998499 -3.360334762764737 0  0.07153573108128697 -3.370613479971349 0  0.7082310791341868 -9.586691782110217 0  0.4967795810309354 -5.719230747897362 0  0.4844111155904596 -5.682511936214811 0  0.2457584478406076 -5.979146560110838 0  0.2365325161080598 -5.947046723924631 0  0.2592155291695803 -8.119015072420995 0  0.9537283228827036 -4.069524768820543 0  0.9007084799119927 -4.06673860433669 0  0.6558724894407177 -9.794985397229347 0  0.6835602641837717 -9.825507614021452 0  5.241278846720625 -8.326461907199661 0  5.321601941798146 -8.447412750273184 0  5.168813677620971 -8.458085282022441 0  0.4920193867753007 -1.431702934843913 0  0.4784032313499704 -1.466763241543598 0  0.9982793890978243 -8.91080517639972 0  1.022128975147105 -8.954825776961906 0  6.605612102844233 -1.532746314586144 0  6.614171038242503 -1.698089638595986 0  1.638532659148666 -7.090812693141401 0  1.579831651275489 -7.078485624844376 0  1.619596856507846 -7.025359277154331 0  0.4935810441528155 -5.92579180108152 0  0.4820946023235919 -5.888194351466321 0  5.412433997915031 -0.7053245490965931 0  5.493097063789175 -0.8289666987526818 0  5.335398853709446 -0.8423971321233967 0  0.9391824013305587 -6.533339629819928 0  0.9228341790306338 -6.486730260364224 0  2.459262691426808 -6.3206820782935 0  0.2031861464529641 -9.632697364907603 0  0.21671760122757 -9.601030249569689 0  1.143572518204003 -0.3756528160184871 0  1.176346844637385 -0.4178488859391036 0  2.395168431920807 -5.324294512574446 0  2.446273777490664 -5.261757013132991 0  9.505107901983942 -0.6221530343069759 0  9.446826294551039 -0.868421088153088 0  0.6152018049849133 -6.32678097111928 0  0.6037306814151862 -6.287015622418722 0  0.6434215995549266 -6.295185879425767 0  0.5479575731285173 -0.3969196759879505 0  0.5299620360543784 -0.4304814967645871 0  2.715752495836286 -7.946710029398828 0  2.623674871958542 -7.947469812809195 0  23.0713679797643 -7.204116861052681 0  1.968289898243292 -6.5233433316116 0  2.007624896077267 -6.458304071677746 0  4.174773970214641 -8.235161059616928 0  4.579975540682671 -3.733126043920222 0  4.439552029322048 -3.718281278889285 0  0.495831764540549 -5.510184949999717 0  0.482451137157577 -5.473474788626334 0  0.5107057181440897 -1.562899812217067 0  0.4957094188854558 -1.598396342851999 0  0.1913615598102858 -0.0250171353028712 0  0.1638261066726585 -0.0250171353028712 0  0.2941454361151337 -8.008088395056513 0  0.3196255170641393 -7.977821543907416 0  0.3283189414255041 -8.010600484670045 0  7.362452055091243 -9.779895893254658 0  0.583502228475453 -0.3233356888580534 0  0.5670251266334088 -0.3633214839162839 0  0.3857282870441558 -3.858510425925544 0  0.1775165556866867 -8.507858605159781 0  0.2060446909951903 -8.520160389236214 0  0.1804716624169114 -8.536150809482457 0  8.95507721315936 -7.742728243948708 0  0.9698623082305389 -6.363132564967247 0  0.9520666386487449 -6.31589082202624 0  2.329187674011553 -1.089180837214214 0  2.411559550100897 -1.087063301690081 0  0.1275383569893567 -1.729480127206005 0  0.1047325573592044 -1.705864002130483 0  1.092310064963067 -0.3849100290078216 0  1.11422401711889 -0.3346867772679563 0  1.114504210870201 -9.4000120081737 0  1.142609545292469 -9.355911942597835 0  1.1668530006461 -9.400797532349237 0  15.35195334992706 -1.689010410756894 0  15.52699849439814 -1.342336177035839 0  15.75154955797853 -1.678647475173359 0  14.39765846630651 -0.3423161483702311 0  8.364363268728024 -2.703166598888788 0  8.140975870842139 -2.694741546992397 0  8.262750653026092 -2.501345840643156 0  7.914940137406165 -6.604451531530265 0  7.857306304212117 -6.795354928566815 0  0.6081539106500546 -6.576771507963206 0  0.5979871482309029 -6.538066639596646 0  3.985239663453152 -4.980862927188994 0  4.036269066884167 -5.096212296709294 0  0.3280620037584363 -5.354997079080927 0  0.3504054334064275 -5.327687909161735 0  0.5339881649859279 -1.693249639271075 0  0.519698484682376 -1.73127394447443 0  0.7428759919209806 -6.233907540939478 0  2.592095437584867 -1.224429365085589 0  2.682821640334273 -1.221614739425862 0  0.2245085944817777 -1.693069300004256 0  0.2574235749549558 -1.688447738943793 0  0.2486740463291408 -1.718577824875008 0  0.2074959243137222 -9.810798727415854 0  0.5109669909521095 -5.16174533327989 0  0.4970668414343926 -5.124136488052093 0  1.49799448342654 -0.4290122019495319 0  1.471660842436556 -0.4836746093424926 0  0.9695690914524739 -8.656700813897473 0  0.9468393993438706 -8.605913023944904 0  2.02096297479023 -1.764091684752077 0  4.370644634589725 -4.04995861826878 0  4.398206155211643 -3.921044643150062 0  0.5232212731454222 -5.584853690118112 0  0.5097717191932531 -5.54758591563915 0  3.94675858041254 -4.87968610726681 0  3.822023402220779 -4.868550359438144 0  2.542261195945841 -8.257560558947164 0  2.456915592276205 -8.256743965175623 0  2.491939734082493 -8.170584109456353 0  15.17530232128159 -3.326340433479407 0  1.259128643763415 -7.479982076116935 0  1.206073182663186 -7.467691780756446 0  1.242882849684024 -7.426356128332032 0  1.022693013779747 -6.012038960790878 0  1.003232987580514 -5.964151329058625 0  0.02362784666744844 -9.849328200756492 0  0.02362784666744844 -9.877261161650347 0  2.059952373357829 -9.94352970642927 0  2.478478123330117 -2.827433431693411 0  2.428722124846434 -2.910341640080032 0  0.07862807548212558 -1.696650571982518 0  0.05303095680321235 -1.674399027424792 0  0.5391844232554952 -3.870838874937434 0  0.4981600559673041 -3.868566200731252 0  0.9284708249151805 -4.968326755542662 0  0.9597436723234622 -4.927858245804451 0  1.678530141080314 -6.866335697455565 0  1.654537193341319 -6.804516177146905 0  0.874062006515933 -9.164435352957689 0  0.8907584991825814 -9.111211691063048 0  3.188883776567227 -1.533229104900683 0  3.290574867843805 -1.535220546875268 0  0.2311572833620588 -9.231297219667404 0  0.2042487168317528 -9.248907407906273 0  0.2465085673200811 -8.055180072101843 0  0.271626766010117 -8.032439635971269 0  0.2777206617864607 -8.063607771949716 0  1.628341301898192 -6.743543520165685 0  1.606654640575323 -6.683716059980473 0  4.087576943883731 -0.8573778988694585 0  0.4928418778843877 -1.036815822010743 0  0.4810284945233185 -1.073019011216358 0  0.563356480251322 -1.242483030245098 0  1.573565751249463 -4.502091323015695 0  1.577203018572657 -4.438043650323355 0  0.5005338383945634 -4.95142451953593 0  0.4846225035760447 -4.915928093182436 0  2.136806576670452 -0.3081804089986591 0  2.176461722917345 -0.3686857068033049 0  1.670964968768359 -4.205648452894414 0  1.907488733532837 -3.861060812661575 0  27.1304373413804 -2.667741219099732 0  27.66052080692106 -2.752252956658987 0  1.58326870645471 -6.62203142330615 0  1.523140546011842 -6.615696883810257 0  1.561106553690596 -6.562981114070183 0  0.7992975665012807 -4.060467303596698 0  0.7520920119351047 -4.056917015042033 0  1.771569667698751 -9.94431206742837 0  25.38805034348501 -2.601267419078903 0  1.536303470075261 -6.504384963894761 0  1.476391517673143 -6.495991396195938 0  1.511716594500674 -6.443729785516409 0  1.708845485804506 -0.6225587634547125 0  1.775781419336056 -0.6179571432617976 0  1.744295614469086 -0.6771018263487161 0  28.1524931557504 -2.78769303802595 0  5.689320516474105 -5.099957410151037 0  5.523491986005318 -5.086824421334577 0  0.5963691728339811 -1.900726224619158 0  0.579658111762356 -1.937473961939081 0  0.1845820416830364 -9.588266431161969 0  0.2413770973328102 -8.555808968807071 0  0.367050340475279 -0.5255781771737915 0  0.9963123796183488 -0.1880437625692846 0  1.089305945502023 -7.245800734705823 0  1.074512109193996 -7.195204467151139 0  0.540274914607048 -5.237118577930288 0  0.5259509407600955 -5.19911569374709 0  1.488162098902475 -6.384579257285814 0  1.464472941189968 -6.325029303648208 0  0.5704327134903799 -5.312250471341949 0  0.555507736084321 -5.274999387081895 0  1.111208521195231 -5.748794116034598 0  1.090060079077263 -5.70031318783518 0  2.071839873936959 -9.230418181640122 0  0.3073755620054648 -1.454438180688395 0  2.063780852845062 -6.277256293059417 0  2.03698111464263 -6.208374660670732 0  1.550710300643289 -0.3207982481953646 0  1.524516931611702 -0.3746158193786542 0  1.062165376296354 -6.108553649417344 0  1.042965802179424 -6.060186452021613 0  0.3268559399850091 -9.739235041126955 0  0.841012326125135 -1.716058360753976 0  0.8226978416471162 -1.758514504395928 0  0.5172448409063506 -4.813219745576704 0  0.5031196242078551 -4.776037482844213 0  0.2845392755150158 -2.342143611759116 0  0.6072489218212596 -2.04135129129822 0  0.589371867935867 -2.079157949962449 0  0.3386405445193663 -9.089932318167051 0  3.084460872753784 -3.290238718538451 0  0.6113310670780194 -5.956747088009151 0  0.63987009430857 -5.926787681192865 0  0.3243579075663661 -0.228607507858257 0  2.151371703258329 -0.6954995337781478 0  2.116873977766984 -0.7642154213047974 0  0.9672237368217527 -9.959205324804635 0  1.104078181387305 -8.912747232001855 0  1.130472988693164 -8.95558110349409 0  1.076679150163006 -8.954540391620588 0  0.5450907602642214 -9.915209255380098 0  0.5625344342035419 -9.881361441781825 0  0.5314354445392357 -5.024752505507222 0  0.5163528418601935 -4.988304338698301 0  23.73805717340101 -5.317467392943742 0  1.13884776288401 -6.848993344970424 0  1.086988720761806 -6.838186958481208 0  1.125591104371926 -6.791426451529082 0  1.064588893480906 -3.906943255899794 0  0.6850168510617518 -6.302287138730573 0  0.6997236818702444 -6.346501005951218 0  1.102164569475605 -4.510533931552001 0  2.311019856102657 -3.728960575219425 0  1.150656241187583 -5.374245120778557 0  1.127216720996266 -5.326447249990602 0  0.6789514187885253 -1.328269420344164 0  0.6646893175256992 -1.368364999695769 0  3.930835143647879 -8.536020525751447 0  0.02352987369456727 -0.2089196786317 0  0.5885209269258151 -3.660298769028472 0  0.7090659983537151 -0.1438842648806169 0  0.7134022152277382 -0.1830773219422888 0  0.682146244533282 -0.1739815818461121 0  2.753258768525452 -9.635719093554377 0  4.006155100568773 -3.862686541565241 0  3.932821289161215 -3.958815285921828 0  0.6572823765330149 -1.474701457348393 0  0.6977618376538999 -1.473823168206923 0  0.3113699419295557 -1.798761204958748 0  4.259088221546421 -5.496614920187453 0  4.207328653723421 -5.613781200949381 0  0.5638686653047049 -6.811011273983673 0  0.5842128759433045 -1.381951710712505 0  0.5321119644288679 -4.677304137660335 0  0.5154940522247138 -4.640871120395079 0  0.3547297592293219 -5.256245976795325 0  0.3232472842731795 -5.272414121429674 0  0.3250345676245718 -5.244846622822602 0  0.8849802266209661 -4.944299793166235 0  0.895433083196739 -4.991443079813927 0  0.6166579600536117 -2.184842084605338 0  0.6001866885513607 -2.223050211742311 0  0.8145649238465289 -3.735394792298929 0  2.849639671477728 -0.3592553217311654 0  2.9313318063443 -0.4035959279500601 0  2.136386876536523 -5.096417679129953 0  2.103236014431719 -5.027297670792811 0  0.3604526891361921 -1.916628221757078 0  0.3453166212096903 -1.948442096860524 0  0.3138414999393078 -3.5651079730004 0  0.8290206664214015 -8.784694142338669 0  3.148116931318084 -9.516370950038519 0  3.048089998109132 -9.514138857815402 0  1.39401279636534 -4.256612548634992 0  0.07482456153283223 -1.861451476736803 0  0.05099533635517872 -1.840003455998661 0  0.2717239250341308 -4.55980729656225 0  0.2576188134886674 -4.529316333179602 0  0.7846501433308219 -9.963029297513964 0  6.450549428039841 -7.753589994879372 0  6.273503435824516 -7.759233956395929 0  6.359560819787029 -7.599663216364215 0  7.865552187158801 -5.030537976282873 0  8.464722760037033 -2.8948739318072 0  8.586497542220986 -2.701478225457959 0  1.641493237965971 -0.6298288307509878 0  1.672979042832942 -0.5706841476640694 0  0.9128625361969522 -2.549956276802344 0  0.8650758649579586 -2.550543349539188 0  0.8884085335618224 -2.511291404511411 0  0.396182234929725 -2.65765537598911 0  0.3587230074584919 -2.659274905743722 0  1.119725319204044 -5.085846451206617 0  1.096276051339983 -5.036739397920116 0  2.859909159429202 -7.869569428863535 0  2.810285033675335 -7.792153783778643 0  0.5091415535983135 -4.466953421207982 0  0.4919102975934049 -4.431011074760518 0  1.1968593312575 -5.473833190594117 0  1.174213862201604 -5.424285215890873 0  4.344105302540994 -6.395790024969872 0  4.289113954581023 -6.513591019757999 0  2.222358874144701 -0.5564207784813338 0  2.187151147824244 -0.6272202065751546 0  0.1098731814443354 -9.446790112323603 0  0.3821428106039342 -8.907522594168018 0  0.7251405540589015 -2.476087187917934 0  0.7047373519350142 -2.514599289429356 0  1.574549488145237 -4.570942460549036 0  1.525577682377591 -4.549457779999301 0  9.777954586465881 -6.065650404200273 0  9.519145012517448 -6.042961590681235 0  9.654063334683533 -5.847970464465242 0  0.02899806987705489 -9.790139222907797 0  0.02899806987705489 -9.818072183801652 0  0.394992593734365 -5.832126281696808 0  0.7512314437654393 -6.029064943521977 0  4.332322289061857 -5.367348809056089 0  0.850936774040667 -4.062561155982846 0  1.819396806978189 -8.739819107666708 0  1.856678946627207 -8.680426532484596 0  0.1116857132993125 -9.97805126256803 0  0.1378443963254306 -9.97805126256803 0  0.1972796664507133 -0.4491512786581593 0  1.171334770392821 -8.705334817680765 0  0.6808521494397795 -1.607004229427473 0  0.6601448007795625 -1.650722441567333 0  5.029476978051562 -6.355176643464471 0  4.886027063015277 -6.363237699699378 0  4.952043185075819 -6.241262988220531 0  2.124539357873068 -4.126027751987552 0  2.090200244789493 -4.056530375492928 0  0.6200869319418274 -9.967006930652358 0  0.494488766371715 -3.934281109100083 0  0.4778024135191092 -3.900815804148103 0  1.159643629835601 -2.098230441740505 0  1.180466761557398 -2.144126419792736 0  0.8766714994897562 -9.805659769939487 0  0.9214481664878313 -9.802886510869932 0  0.2104038015168221 -2.493284537215842 0  0.1966305333689995 -2.521260697725575 0  19.89709691102781 -4.25717100016978 0  20.4030896406417 -4.276350816568472 0  1.035184644580717 -6.816513807485618 0  1.023429145962728 -6.769775650137936 0  0.06706552795503384 -1.388903878191388 0  3.136497230722259 -1.446574698981476 0  1.778106374361036 -9.723412304022947 0  1.710407436246955 -9.720375385034679 0  3.949452661197558 -9.347516359075646 0  3.828237603535932 -9.351994458430045 0  0.4242243488125332 -8.718405696946043 0  26.04609779793975 -3.545214669766182 0  1.001072264396008 -0.5633543121762923 0  0.9784804304240016 -0.605676591415067 0  3.026772542203972 -9.667708139929811 0  2.930639129374548 -9.661045837263931 0  2.998171579462444 -9.5926336028013 0  0.319846367524157 -2.599966357658648 0  0.3558329895128836 -2.598378167808483 0  0.3399520480437594 -2.629198399817477 0  0.8419992047442459 -4.652106807642102 0  0.8220210092404621 -4.609301599008069 0  0.6463591318661734 -9.623551745043892 0  0.685868149967618 -9.622599222461657 0  0.6716568414700852 -9.663711959869119 0  2.197264699722272 -8.498706432363337 0  2.120714438860821 -8.497298728874345 0  2.157397411409388 -8.440686413205338 0  1.051143754622638 -2.200147949180289 0  1.024062224001607 -2.246678438555546 0  1.167604754236663 -5.184060021556101 0  1.144113770124058 -5.13499731640359 0  2.623558830093154 -1.532641495234446 0  1.007478486696641 -0.8778358979510479 0  6.198793329297445 -6.84095635514341 0  6.316253745511508 -6.976713548527982 0  0.4041953056589982 -9.412855406703624 0  0.4206442671959252 -9.444178131166067 0  1.189776935323563 -6.173607678369869 0  0.5444336234026927 -4.53905321904758 0  0.5271164451612478 -4.503037858873475 0  1.441883641393998 -6.26705008693146 0  1.419731711391119 -6.210105764154781 0  4.457570220819933 -6.156868665899348 0  4.401964716686368 -6.277056367056863 0  0.729970445494299 -2.629429032449897 0  0.7091129234352795 -2.668012930986088 0  1.000473896220822 -2.292433924266216 0  0.9782806063474894 -2.337111414746613 0  0.67023567648884 -5.570615288947532 0  0.6839519603370885 -5.609762610691246 0  0.6422163794169151 -5.608678612899518 0  3.223614465836054 -4.530051834017741 0  3.331975123538749 -4.496983157974206 0  1.062883536489149 -8.329756403433958 0  1.092319184527218 -8.285047820406797 0  1.385594119762676 -7.811898809138352 0  1.411865149701223 -7.760009290774284 0  4.47925144669507 -0.8512860764381198 0  4.41606769464547 -0.9675081314220337 0  5.239317395426642 -6.978796478709786 0  5.392673864115144 -6.962327685675553 0  5.330429607336447 -7.096670853816332 0  1.676442826065932 -9.775303491203445 0  1.706855252641716 -9.832659883230379 0  0.0288009752803724 -0.2376267140004185 0  0.0288009752803724 -0.2655596748942717 0  0.8036887615747474 -1.800798946429945 0  0.7858606375764374 -1.842309680482161 0  1.594957052071189 -4.620580254918328 0  1.622409173699721 -4.681158398523398 0  2.008489095190793 -6.139017190575791 0  1.981118596833822 -6.070394757979348 0  0.4741539588179098 -8.59817745368276 0  1.371303686901246 -2.758861979410771 0  1.340610968846654 -2.812377907760824 0  1.868949853951193 -2.22129680666837 0  1.941020277907953 -2.220898425401271 0  1.905430742167054 -2.280649219774003 0  16.94615271716485 -4.253209478388382 0  12.98282443885624 -4.242511693298679 0  0.3432051167991119 -9.157837250300217 0  0.3147084257176509 -9.177186197148121 0  2.339537236887473 -4.557611603339514 0  2.302319452402671 -4.48492233174658 0  0.4729069569223743 -9.972728613213956 0  6.240511730242419 -7.148570197325172 0  6.415878694860297 -7.117477603682585 0  2.264257035310971 -4.414791916727264 0  2.228634213768078 -4.34167249396191 0  0.2793803549978922 -5.318915297941134 0  0.2925059165600317 -5.350296941588597 0  2.192409244872838 -4.269757041982841 0  2.157934750261031 -4.197936065270848 0  9.318608504700657 -3.36243077452093 0  9.491961244486419 -3.534253615806493 0  7.887605409852216 -3.481362553955648 0  8.109011471655187 -3.473826772255476 0  7.994427109981656 -3.670299151140657 0  0.6950269556574256 -5.048879910537953 0  0.6538626251841571 -5.044142429762821 0  0.6794854403565154 -5.010129025914402 0  1.845842114115257 -6.366699782201795 0  1.884908669959295 -6.509474429521125 0  0.7794844192659323 -2.861216489720229 0  0.7570622955164588 -2.900725906143653 0  2.152551456021854 -5.62823371367203 0  2.106485458791006 -5.689730310528129 0  0.140234510254146 -6.642250592573911 0  29.29027366423006 -5.720078218565742 0  29.00868629961359 -6.036949448765823 0  5.263509372333468 -7.238086004082949 0  5.41686584102197 -7.221617211048716 0  1.01166883008435 -9.874541183414289 0  1.065624513940213 -9.869016104416239 0  1.26392758692074 -5.862484463152849 0  1.243130634996543 -5.812831779749293 0  0.2316160355946941 -3.667959414167744 0  0.216231035993701 -3.69653452976375 0  0.06778663955225639 -5.538639423150647 0  0.2728977550603169 -1.45921029700621 0  0.2602929078695269 -1.49008718216403 0  3.304437818963919 -7.636276030376578 0  7.121938591272388 -9.46848627277399 0  7.265391099294181 -9.609147191015222 0  1.493672052567693 -0.1510431912186059 0  0.228812948691866 -8.44866419408681 0  2.026223993635284 -9.168343751946843 0  0.3912614358994126 -3.26584697375006 0  0.3728769039841904 -3.297786091943733 0  1.945500054695746 -5.475656266774682 0  0.5117338241711149 -8.396337553949094 0  0.8940387411630208 -2.213709282016018 0  6.784117810248182 -6.473149175250128 0  3.418632336568852 -3.278407151108623 0  3.361795565901748 -3.3716551050391 0  4.688426501969651 -7.292665589071733 0  4.629105925378695 -7.414244640280401 0  4.610049274142259 -0.6145282032949186 0  4.545704357118026 -0.7336550650651699 0  0.5833446997057976 -5.985521398811395 0  0.5715639467864584 -5.944380641646902 0  0.2181433580792458 -3.811809370640614 0  2.773503704676061 -0.2958065758487498 0  1.369813906966643 -2.65033422213838 0  1.428477693966254 -2.650683206107478 0  1.401651710147561 -2.706322360731749 0  1.558683638765563 -3.513046518435021 0  1.526356155948756 -3.569533272491311 0  1.157439903512202 -4.328391952207295 0  0.7020173892931787 -0.4764761483988602 0  0.6581972447614959 -0.4649699565741878 0  0.7196872326558594 -3.659443880498156 0  0.697295050152011 -3.697623305359644 0  3.155869215537129 -7.722339441833594 0  0.366678139308263 -4.195001479939 0  5.180719371225567 -3.750253874539287 0  5.098951927190882 -3.627690984181945 0  5.027345654036177 -3.501711459614085 0  4.961144644916153 -3.374939688265642 0  0.9243594647351969 -6.748460788764342 0  2.771821424090039 -3.059835044107778 0  23.48034749300333 -4.817755958200949 0  4.891579020782503 -3.24786744923955 0  4.825184338288185 -3.122929476223627 0  0.3859350696511861 -9.658150975481362 0  3.997034792255306 -7.690276625793043 0  2.464594905404221 -0.2128245884591937 0  0.02336266564062939 -9.732489370980563 0  0.02336266564062939 -9.760422331874416 0  0.389725930413384 -8.978869464734307 0  1.656948987383972 -2.563485456080872 0  1.591604411866424 -2.554815421828333 0  2.466563530331808 -0.5313317158071458 0  2.55005956652743 -0.5262069711804367 0  2.510461363867833 -0.6042623032104277 0  3.8519922812761 -2.075957108790341 0  3.903769410352243 -1.941519780566757 0  0.9259827761425612 -0.8943784424045216 0  28.24937683871614 -7.984524180488151 0  28.1342688975577 -8.584572739341368 0  2.533371809459661 -5.267699806881051 0  2.501033485025932 -5.196615681919408 0  4.757207053487239 -2.998441741961218 0  4.691955940171972 -2.876142557413837 0  0.5451387713905671 -8.18974015949258 0  0.2573792759343299 -1.146695144482263 0  0.2462404427010103 -1.177502448852199 0  1.185653497824729 -8.95460797336575 0  1.101237372395712 -2.195320985630322 0  1.15423941814883 -2.19213001837647 0  1.128789311157982 -2.239811539916565 0  9.360511438393504 -1.114550292025585 0  0.2983885734924989 -4.014286930646252 0  0.2812937095930828 -4.042368179616856 0  5.793459069895952 -8.418806666994232 0  5.875387024099759 -8.26007171890247 0  5.962438928000717 -8.393237509579928 0  2.949621145910292 -6.401526574412297 0  2.854723815396207 -6.425505708922188 0  0.3956975967189091 -3.201864456423702 0  0.4330769113280812 -3.202259190482575 0  0.4104828670853209 -3.235217823039271 0  0.3784832803098386 -0.3125070358194399 0  2.803097719991056 -0.5143882017977601 0  2.895650909924022 -0.5072778057154474 0  2.865451472011959 -0.5844783805836595 0  6.63276180254709 -7.753612948646401 0  0.2069165964670319 -0.3355319267725818 0  6.611651526541621 -5.665958688923785 0  6.739636518913569 -5.827181873022514 0  0.02205464135437651 -9.566409655984099 0  0.02205464135437651 -9.594342616877954 0  0.9387379713770247 -2.591353581744893 0  0.9620706399808885 -2.552101636717116 0  2.095677519294256 -1.764576624470154 0  2.058749726733897 -1.698576976168084 0  1.784498354658806 -8.798555067462797 0  1.748071742217956 -8.738826112427567 0  1.518528100972526 -5.214866689421567 0  1.457294842830406 -5.208760316287967 0  1.492905088302596 -5.164354623673023 0  0.1248982612413698 -0.2073708132981267 0  0.1117910800622521 -0.1831371085826383 0  7.377641203119748 -5.59578146828537 0  7.513887370649434 -5.725849290822227 0  5.957945596835819 -5.764219926467574 0  6.127966476460251 -5.756979106466185 0  6.030101342004823 -5.893462795561078 0  4.841330828258307 -5.879355713063602 0  4.790389041635041 -6.009359532139773 0  0.02374747012689227 -0.2942680735011223 0  0.02374747012689227 -0.3222010343949773 0  3.527310806857425 -3.09269820489219 0  3.471594760753749 -3.188484969980209 0  0.8021942813562291 -4.566564607702311 0  0.782811145001407 -4.524948592527124 0  5.28049491927009 -5.829496276047237 0  5.381034274562147 -5.949702800603936 0  1.626067898169898 -3.401264869531364 0  1.592987539457317 -3.456985737812951 0  24.35160962419997 -4.410385732001243 0  24.91922286791027 -4.419199102135046 0  0.04199946618409278 -1.784137534210959 0  0.05081194096245234 -1.757008573062937 0  0.9155542171951687 -8.113828098473192 0  0.0497825221041488 -0.7824508492606661 0  0.07437694178201326 -0.799775017062891 0  1.86288268715799 -1.201524162060693 0  3.628740614827521 -2.899438673172443 0  3.573901408769768 -2.997423087409899 0  0.5967921877546427 -8.060176619874364 0  3.744043355264315 -2.709073312482277 0  3.686213890068323 -2.808412576132457 0  3.867695869347182 -2.503299282889879 0  3.807547324743707 -2.609408882933272 0  4.918047952620411 -2.027712862204037 0  4.848963804468088 -2.150021321371969 0  0.3005514802347271 -0.7145581154403411 0  0.764458437740366 -3.585548664492431 0  0.7430858737428991 -3.622269580023104 0  0.9548809456049767 -2.381587415499084 0  0.9330071996667542 -2.425354388072246 0  6.87937963793971 -0.3088799048248081 0  7.000953656164734 -0.460735460362093 0  3.30814449558174 -0.6298155647973536 0  3.413216791842338 -0.6236335433946429 0  3.365750932151052 -0.7172928006517338 0  17.88098695017295 -3.195897282132945 0  18.18324066847844 -2.760468409593606 0  15.517210790861 -6.818147570658642 0  15.78734119306771 -7.111650466888193 0  1.076593861613485 -2.152466427640194 0  0.215091886558227 -0.4744656360009891 0  2.844143469299325 -2.822625633635185 0  2.806412902734555 -2.739240714986971 0  2.760282341193349 -2.658179064975165 0  2.674738610056334 -2.653028989799839 0  2.715834096508834 -2.576721713355318 0  1.707211898904067 -6.22907238300669 0  0.4330839163476625 -8.791716265987247 0  2.986331630791813 -8.229686201857861 0  3.081930157026786 -8.226328544401689 0  3.037274048654837 -8.314873817050151 0  2.673016624178484 -2.491760278313833 0  2.624709162475799 -2.415983941830484 0  0.02271770886563296 -9.677042434017451 0  0.02271770886563296 -9.704975394911306 0  1.529267616920174 -8.957893690939024 0  1.495151417414384 -9.008486017743598 0  0.07270597151210012 -9.512552635971238 0  0.04627935653093473 -9.498020643866962 0  0.7293265809678822 -2.033794665607548 0  0.1108814455543268 -0.4748695139447321 0  0.1173204839935131 -0.4458328409582002 0  5.263104923226813 -1.468859092737374 0  5.187435848816422 -1.328353854350844 0  5.336807376805451 -1.355200211772586 0  1.724918852692365 -1.319018438941852 0  1.692274786422438 -1.261338201247515 0  0.1331505261540222 -5.724283589819912 0  2.578417922558774 -2.344478664737291 0  2.536915539998475 -2.268222935782205 0  5.51417324946928 -2.021485193158261 0  5.594993515633163 -1.873421047161613 0  5.679727080839934 -1.99572068898491 0  2.510355669123193 -3.294253230969568 0  2.057952536638471 -0.3060964651160338 0  2.099080370811416 -0.2470461714358008 0  0.8150925589599485 -8.911794275855522 0  0.8256994572783327 -9.397278770066269 0  0.8494857018784536 -9.357261572183791 0  0.7607730401953994 -4.263591165818857 0  0.7399677011299843 -4.218375283394109 0  10.10829056258495 -5.194186300778562 0  13.29088506568943 -6.955126780510536 0  13.63741921227886 -6.936342575029983 0  13.49365153587868 -7.252481611161675 0  6.52117693034489 -7.264412420467099 0  2.415469444638253 -8.32893896050976 0  2.365147982774904 -8.241962511018951 0  7.28489787692088 -7.199372284710263 0  2.494909005297862 -2.193464868132232 0  2.454332756126242 -2.118855571112111 0  3.205430056424788 -0.6380780001067556 0  3.252895916116074 -0.5444187428496647 0  5.112330938705748 -6.479239843951237 0  5.17834706076629 -6.35726513247239 0  8.901814446908407 -6.899285198129458 0  9.137110215202032 -6.888334696218973 0  9.048219943016445 -7.092792031355893 0  7.98572792903933 -6.974683271894946 0  8.128179430817589 -7.154150103461164 0  0.2851694549108696 -2.602358890256381 0  0.301050396379992 -2.571538658247387 0  2.082628278483586 -8.556827118729126 0  2.042760990170699 -8.498807099571128 0  5.767064846039897 -5.744431356966184 0  5.69811706619868 -5.916918532100686 0  1.797350097499514 -2.224092859976789 0  1.832939633240413 -2.164342065604056 0  6.067345585635053 -7.162074022474605 0  6.166970534983841 -7.302838077629207 0  5.573904802537111 -7.21046069514993 0  5.506984567534133 -7.351875845416547 0  0.6372899226510942 -7.921450518198916 0  0.1141074630235508 -3.068464476393262 0  11.97171713643197 -7.070160789724293 0  12.1517381186229 -7.338400524806934 0  5.113837069083337 -7.249962483601465 0  5.20027330276886 -7.374908840833848 0  2.160907493221531 -1.911361471486268 0  2.134665054719139 -1.831059695450393 0  5.415609644923528 -1.224940520877344 0  10.77517505755182 -7.172256226406841 0  10.94108954213477 -7.414899016824446 0  4.734793126931754 -8.468848796744687 0  4.664036657784287 -8.351578986343183 0  3.201312027366981 -0.4606187515325235 0  3.304026466523933 -0.4523563162231206 0  1.174971233692716 -9.22497771592408 0  1.122357430806735 -9.223711011298972 0  19.83710050106101 -7.759410472891369 0  20.35433608804379 -7.744981005706766 0  0.644313404125743 -4.584994736251595 0  0.6262329796325563 -4.546414670725124 0  0.2221548224966483 -6.492668936638159 0  0.2399803298740721 -6.458585849437222 0  17.40441482898938 -9.639461569657747 0  4.590680337641707 -8.234664315073632 0  4.522478178978403 -8.120445983509843 0  0.02322742604550498 -9.455987076230473 0  0.02322742604550498 -9.483920037124328 0  10.1862729551118 -0.4237761173321672 0  10.04179195565359 -0.2004649421094538 0  2.412162417362538 -1.754915739634676 0  2.451808450378323 -1.820415822379721 0  5.933802082622382 -3.841336797680087 0  6.056326736670922 -3.681767054100324 0  0.2990640128220452 -5.233258461807548 0  0.3305464877781894 -5.217090317173199 0  2.001041470666316 -7.902870057966505 0  0.3339183172392595 -7.799387602272777 0  0.8492296594325772 -5.198245095409726 0  0.8704329647082343 -5.241923272317206 0  0.2883789813300712 -6.810179074272249 0  0.2632400238877324 -6.833133463900587 0  12.39873269982215 -8.948995236258527 0  12.54795570909633 -9.205864734956151 0  4.565688872940397 -7.536510774127333 0  4.506377535201414 -7.657622213160481 0  0.6620162946624557 -7.69482034560077 0  2.833315482561982 -1.287861079420616 0  0.9174700834039822 -2.781674156224781 0  0.8965495647705843 -2.820425892759799 0  0.5814107377273974 -7.061344878205439 0  0.6011352046042902 -7.104037935473385 0  1.063515345560798 -2.63485361799666 0  1.012786430656718 -2.634420911551217 0  1.03867499006504 -2.593931648105107 0  14.96294490435935 -3.029498121967646 0  14.79379131987823 -2.67674351513781 0  1.066691891238627 -9.310310126745096 0  0.3085112869115978 -0.8936969122297098 0  0.1937669145016141 -1.6985450220394 0  3.942015044795673 -7.800298326771614 0  3.889055394049446 -7.90541275310086 0  0.02424166391874749 -0.3497472583640535 0  0.02424166391874749 -0.3776802192579085 0  7.042906582314933 -8.335809825867901 0  7.243076068664184 -8.336701525237409 0  7.156854111453415 -8.512506997452906 0  5.632350748452531 -8.426514703728426 0  5.719402652353487 -8.559680494405882 0  8.659332776673567 -6.885336271623056 0  8.58116142996259 -7.121114808504749 0  1.757704231734078 -3.632470407222171 0  1.783421369530323 -3.572166218216762 0  0.9624414236874212 -4.24203436497847 0  0.9403426891789763 -4.284490846441116 0  7.778538551605608 -6.990484779851076 0  7.696724605036631 -7.182273277116098 0  12.95916230297749 -7.001680367700843 0  12.80958469436955 -7.293614567723834 0  6.13189990066034 -8.386688913329921 0  6.049971946456532 -8.545423861421684 0  4.624650363318059 -2.753669566569645 0  4.561890968689442 -2.633647272684041 0  0.07092866227903549 -4.645226148572072 0  0.09987757469392555 -4.657627528924571 0  13.49353087133549 -2.954381843149771 0  13.14604949178511 -2.955536873004586 0  13.33255528816841 -2.64636402500089 0  0.3544098269955853 -9.798188284500455 0  5.648344339266124 -3.256114204480074 0  5.73246672394451 -3.116004854682996 0  5.812333828139877 -3.245198378063361 0  0.02419065373699425 -9.399441340782126 0  0.02419065373699425 -9.427374301675981 0  0.9129615937305076 -4.325708583833139 0  0.8871874812271656 -4.366402872186303 0  11.81453697025775 -2.862469990326717 0  12.00318758287833 -2.612783195545192 0  5.810251530627321 -0.8093202483812014 0  5.975198829480341 -0.8062419837116916 0  5.89746389505807 -0.9543179908228847 0  1.614917564106758 -4.795977644350195 0  1.578710309453317 -4.852434085580003 0  3.496741420953882 -8.020014540046393 0  3.608544691630261 -8.011642373312188 0  3.555711421476516 -8.109290623729745 0  0.5239201854702991 -8.473369310776544 0  10.26044123961817 -8.173359990431795 0  10.11700617789611 -7.945588901086674 0  1.693497176335441 -4.68288605887522 0  1.652553665166147 -4.741192865094605 0  0.3635323080906119 -6.573275367075669 0  11.33369239153974 -6.681322606978553 0  11.41946404027274 -6.382570943192916 0  3.186674231515692 -2.960037797604845 0  1.704067849949144 -4.563912182571808 0  1.716172528671876 -4.628204986688586 0  5.513069992200506 -2.544904743149293 0  5.599835180362657 -2.418971256648363 0  0.2500372274970761 -4.8203858816725 0  0.231001460246997 -4.846973019061709 0  0.06694815640311091 -9.120547099533415 0  11.66868054007388 -7.103546486730894 0  11.53139887728229 -7.37809350436302 0  0.5455264498400236 -3.332033707384373 0  0.5045023492882841 -3.331636795573607 0  0.5268843791088642 -3.299447298621224 0  6.352628924374596 -2.601010019944134 0  6.179298084592094 -2.597889016382292 0  6.267310240083141 -2.43963480271871 0  1.476265282918638 -4.903321502063037 0  1.538908996473975 -4.902707486190748 0  1.506123126169069 -4.953650901051385 0  7.307410634590636 -2.645165839335321 0  7.406873045606218 -2.46934641531136 0  10.36344864424525 -2.799495915604254 0  10.09741778277198 -2.79525879723402 0  10.23799411491049 -2.556076918356782 0  2.327965046357782 -1.765359268851717 0  2.368557079728557 -1.689522091883161 0  8.815131671685878 -2.702458624508903 0  8.714772180376869 -2.510751291590491 0  7.042317437404924 -0.7662914829378815 0  6.966990354020037 -0.929025868636149 0  1.827230058395934 -3.397431740823442 0  1.895685271277454 -3.400328918508698 0  1.863317253511216 -3.461073395353938 0  4.17689489896798 -2.392426922350513 0  3.175142540474607 -8.207250225083421 0  3.284890365162367 -8.207093077054612 0  3.242620399577572 -8.31135901156517 0  0.974126104630173 -2.946436543326353 0  0.9236237950950681 -2.944916388565625 0  0.9477876206653963 -2.903946375720697 0  0.7029973248712444 -7.550038198931464 0  16.16563734034441 -1.672024442280708 0  16.34366239597007 -1.318547344819398 0  16.58270503386487 -1.658598545647803 0  5.900718663089579 -7.182860867808725 0  5.974259858348157 -7.028592987504689 0  0.16123648337744 -6.420188288272291 0  5.35865547315988 -2.023819440817445 0  5.44338903836665 -2.146119082640742 0  2.050473549378751 -8.862712516417874 0  2.013838342217039 -8.924171031053712 0  0.9088712120502791 -0.7306054163389506 0  0.933867397426857 -0.6908959826166035 0  5.84260349926592 -1.995581000813901 0  5.761783233102037 -2.143645146810549 0  2.959947802633939 -4.511555665502986 0  2.907763214986719 -4.59018834991401 0  0.3351822895127228 -1.009099600179298 0  1.443593591121354 -6.546591531789885 0  0.7687055787387784 -8.649571667873504 0  1.154779328399915 -6.353166796848425 0  1.137850641390095 -6.305081069692648 0  2.854452670289888 -4.671031605794886 0  2.802566428459912 -4.754432909711858 0  25.72486029841844 -3.093346476952471 0  4.77517933158569 -2.272759157162993 0  4.705723448546589 -2.394759085111115 0  11.62674822904965 -3.099773637530942 0  11.4956131447718 -2.837355028213545 0  2.659380738957717 -4.831774337251852 0  2.749827449873335 -4.831850948483489 0  2.699369887736633 -4.911571326387042 0  6.536617139685333 -1.982361225381446 0  6.448877106741556 -2.143116403971555 0  0.02414349095891843 -9.344671923972562 0  0.02414349095891843 -9.372604884866417 0  1.844445661072628 -7.029614476240912 0  1.778234347006986 -6.994457523421609 0  3.512621458544377 -7.07415652677135 0  7.069936596546129 -1.976368373325399 0  7.208251645661813 -2.124071249915225 0  5.637330880221631 -8.991341362265374 0  5.560907295516477 -8.847296645008633 0  8.043948386478277 -2.103498561926564 0  6.880425314907832 -1.407825646125071 0  6.691580439109869 -1.411379385113177 0  6.786783870165181 -1.241519001154903 0  0.7431300490492596 -7.3996218035218 0  8.829657096803984 -1.908162508876892 0  9.069265698288795 -1.912445789558104 0  8.96370795254963 -2.109478460203639 0  6.151865269163752 -1.398890489054867 0  5.983511755348218 -1.39784313285487 0  6.068623445477815 -1.243769153748163 0  0.6112511687563682 -9.453803830302563 0  0.5891483502183963 -9.486204380484024 0  9.828029799256356 -1.885395190750946 0  9.975326711153791 -2.107507877255496 0  2.412021658501112 -2.045729216229664 0  2.370870586137073 -1.974479497418641 0  2.893614664328524 -8.402422019467613 0  2.984976509444474 -8.397450588590804 0  2.936915651353132 -8.481641133552094 0  11.23395587739319 -1.820971513608462 0  11.09308710983417 -2.074075839402198 0  0.4541423868508385 -6.397029239445343 0  12.1745684605369 -1.833832980105651 0  12.50046938696702 -1.843403143848508 0  12.32874843713217 -2.080081943573338 0  0.02419065373704932 -9.287709497206698 0  0.02419065373704932 -9.315642458100553 0  1.051676928239591 -0.260251874710808 0  1.080598589600323 -0.2984828436695368 0  6.694183802546288 -8.997389996913075 0  6.510649974282359 -9.003664609068304 0  6.590169222758718 -8.826782794327102 0  3.050300130002849 -6.403052726874763 0  0.3188569268325026 -0.6496904311706473 0  0.7422096541706598 -6.50300003553471 0  5.175171974724893 -8.711061394089613 0  5.099901717650994 -8.581863459062758 0  5.489432490710314 -3.255147204013453 0  5.569299594905681 -3.384340727393818 0  0.6597305586821545 -0.1014652636566593 0  0.6373325222860853 -0.1315913161497164 0  0.5590574213530992 -8.267969465973577 0  5.97989402330381 -3.246314536965403 0  5.895771638625424 -3.386423886762481 0  0.2547969777207513 -4.764903805710355 0  0.2882025373906636 -4.7667819089116 0  0.2696552191082837 -4.792843145462318 0  0.3538237370909449 -0.1727420025458013 0  7.874781728104585 -9.008925497661675 0  7.677145276352314 -9.022175508799542 0  7.779424818407358 -8.823104395476433 0  14.2401005575029 -1.711615960440667 0  14.59734560794045 -1.709324907296239 0  14.43124928101556 -2.040483986343026 0  16.07187593139831 -9.640022592817047 0  2.622641291195366 -8.557219735433009 0  2.707611896596013 -8.554707123972872 0  2.665849067558042 -8.643276737653801 0  10.47164799310859 -7.160048964765865 0  10.37142246050523 -7.454893298991566 0  5.338600110989326 -1.09036712758277 0  5.186665077557864 -1.089155287434247 0  5.264126886152127 -0.9648274416309608 0  0.1695863628833649 -8.854559927681223 0  0.02599218144443327 -9.258608742548798 0  0.5493396748432122 -0.4627730624624649 0  0.2028319265162644 -6.14208654720934 0  0.02243569112451205 -0.4608539294459151 0  0.02243569112451205 -0.4887868903397701 0  4.452016413231206 -8.007484467476669 0  4.384428661422248 -7.894903767067593 0  6.478317266780371 -3.236598928025372 0  6.662285688643392 -3.24015572682652 0  6.597536747137664 -3.398196125371437 0  0.7818389194984903 -7.249475114407441 0  7.92588035720831 -2.688344404006407 0  7.825480768694461 -2.48581039047635 0  12.80377667138476 -2.977396090047378 0  12.65402359419741 -2.636517032468384 0  15.99059219587333 -2.018698676001764 0  2.369254546014155 -8.711920053985811 0  2.451571127543911 -8.711461700608496 0  2.408353780832199 -8.793188914317058 0  0.7335287887380986 -9.626851996935443 0  1.155215649553009 -7.455606972263001 0  0.4465943306506333 -6.120902724305061 0  0.7115482734706653 -1.009104130724168 0  17.00437992521553 -1.660585048990962 0  16.82635486958986 -2.014062146452273 0  0.259702080913172 -2.516338392829367 0  0.2786350783567144 -2.543298341392143 0  0.9199260520309647 -2.03463218080409 0  0.8930463498297918 -1.995052153240979 0  1.118531571897673 -4.159833405359159 0  1.094537111659442 -4.202300634220322 0  0.4081336027256359 -1.184158647255831 0  0.9365884429663627 -8.20963173182952 0  0.9015007287567727 -8.240918396492898 0  1.012012723333674 -2.550885294541521 0  0.9861372881536017 -2.509487989598973 0  3.124200122611581 -8.122062609891131 0  1.34877129470085 -9.606748957844802 0  1.41022973618756 -9.608904586835006 0  4.788221876071578 -9.753185565908181 0  2.411263349511508 -6.396281841620064 0  0.02419065373699425 -0.5167597765363237 0  0.02419065373699425 -0.5446927374301769 0  12.58801182458661 -8.68244613608366 0  6.007401579162559 -2.5756517931256 0  5.927129404316556 -2.431352848680002 0  1.13963518682349 -1.025529359926795 0  1.160512000513316 -0.9766779292680567 0  4.994424092499504 -7.767100291104944 0  5.065663181238374 -7.638863986885077 0  5.605751114837961 -7.752426015407689 0  5.682455092990729 -7.620590814275267 0  0.3289063376518975 -1.975889666671728 0  0.7647512120636044 -3.813956105448762 0  0.4318347242706722 -1.308325043312978 0  0.2301689127722 -6.032253779428521 0  0.6357804695860914 -4.401075836490111 0  0.6553848235684274 -4.439801653446961 0  1.692993561295939 -8.263830547795171 0  11.3753776388214 -8.148342523869179 0  11.08473096209934 -8.159211620201773 0  11.24881502357948 -7.906076690205657 0  0.2150811142314168 -8.045032245157095 0  0.6075156534576784 -0.5618407526073623 0  0.6273607753175732 -0.5966394933942532 0  11.83728827297544 -1.818495547580402 0  12.00900922281029 -1.581816747855573 0  0.8604007848955266 -4.406704970137129 0  0.8349429284131276 -4.446906552952792 0  0.6152747435727015 -5.639802773089501 0  0.6015584597244548 -5.600655451345787 0  0.7616379188233715 -6.920765675982268 0  6.81885687562978 -7.737970060903156 0  6.722701885085044 -7.578376367104413 0  4.820174755913769 -6.479473468967018 0  4.742740962938026 -6.365559813723078 0  0.7524730358599889 -9.250693860696053 0  0.728592372745231 -9.286014312814579 0  7.37857027212555 -7.7092659185793 0  7.504636386625515 -7.548297586618951 0  12.49546465515781 -7.87875072801311 0  2.131182033118341 -8.860524410596746 0  2.209431260614458 -8.856224233301083 0  2.170034334209408 -8.920889552969452 0  1.41086835562265 -5.003612544767021 0  1.471424875904619 -5.005996434798944 0  1.438813818913539 -5.05534406264229 0  0.1914142290608343 -9.909311425534604 0  13.64682646125154 -8.216706336795319 0  13.91445191242805 -7.931448816560842 0  8.487121504441575 -7.734857385135326 0  8.26089340882546 -7.743374350965306 0  8.371821048688307 -7.531774350908346 0  0.1071803667284676 -6.830452317661705 0  0.0965635326008023 -6.799221912557721 0  1.218993254311407 -0.1226114936254765 0  1.188434035273914 -0.1631366989288106 0  1.162792323982256 -0.1242345643867768 0  0.02541171193097647 -0.5726782484516928 0  0.02541171193097647 -0.6006112093455478 0  0.4779353555623764 -5.991684531427651 0  9.967860860354721 -7.716714279860367 0  9.828881864329755 -7.491961209868281 0  2.059045202551133 -5.752230532730518 0  2.013292652975624 -5.81514413950095 0  0.2386894787717466 -5.856497637503601 0  2.39939586208008 -9.625044767521972 0  1.689065779394905 -5.852002980597346 0  1.650279272377414 -5.905999278947744 0  3.312811252644472 -0.9924942509484813 0  3.263650833013672 -0.903344168280837 0  0.5640117318909823 -6.280165822745987 0  0.9665969455339294 -9.880007998838138 0  0.9437984218948223 -9.920400441877415 0  15.6842688161159 -0.9937954277444456 0  0.3283838190936024 -0.8287348138021517 0  2.296584403981248 -0.05869491937351778 0  0.02137416348599963 -9.064163670656802 0  0.02137416348599963 -9.092096631550657 0  5.476180720903933 -8.441588953295238 0  5.403715551804279 -8.573212328118021 0  2.534021704173654 -8.09708300441668 0  1.60964672181688 -5.961467100020962 0  1.571244864685831 -6.01634661665771 0  5.329913783404177 -6.348455332053296 0  5.247059822749991 -6.224392131566531 0  5.978602118759888 -6.328695477508354 0  5.812642254394808 -6.344122378130863 0  5.882715403959551 -6.181921758652014 0  5.651324402099906 -0.8246451856091364 0  5.57428925789432 -0.9617177686359391 0  1.976425980342485 -8.986592743220326 0  1.942642888812969 -9.048518907211356 0  0.1113487424539912 -6.857346525973796 0  0.0237720852845662 -0.6285003784663434 0  0.0237720852845662 -0.6564333393601975 0  16.43232184363364 -8.152344645367624 0  16.03000725219432 -8.172659665521632 0  16.24361218185108 -7.791517917028132 0  9.745012216758138 -4.01097263406575 0  8.232204208833291 -4.048867823537704 0  2.560307393750552 -4.982642949728759 0  2.648540555875783 -4.986641332153694 0  2.59992477280532 -5.057789566727048 0  0.4033997012325887 -3.893045800860276 0  6.671292487644958 -6.311596597682915 0  6.489641682140332 -6.317013167787696 0  6.578999490216553 -6.142529430398364 0  0.02324909922073282 -1.020498663166687 0  0.02324909922073282 -1.048431624060541 0  0.5025718171750526 -1.4971932634967 0  0.4425431475435726 -7.563001629687687 0  0.02405687390648836 -8.953904121602809 0  0.02405687390648836 -8.981837082496664 0  8.602241894041894 -1.903311839564576 0  8.493268934186833 -2.107466196003256 0  0.02285681277601981 -1.074772940427606 0  0.02285681277601981 -1.102705901321461 0  0.4834854036606266 -5.785380307204939 0  0.02419065373699425 -0.8519553072625712 0  7.465365606586746 -6.272702716185383 0  7.264289101707298 -6.28391004710632 0  7.347064214683328 -6.102961723764629 0  3.01482187694144 -0.8201087656704127 0  2.966510430524625 -0.7426798181081411 0  2.561474103675913 -0.8231965601822964 0  2.603948703850874 -0.7498640186311611 0  1.706096902160867 -9.105352474021199 0  1.770446149394012 -9.109932388166563 0  1.738946560538643 -9.167292096167856 0  0.02675483741595031 -1.132658804799336 0  0.02675483741595031 -1.160591765693191 0  0.02419065373699425 -0.6843575418994394 0  0.02419065373699425 -0.7122905027932944 0  19.37537876250234 -1.537395562869936 0  19.61497136541902 -1.951480594677302 0  0.02559186836715277 -0.7405514079198863 0  0.02559186836715277 -0.7684843688137413 0  0.02419065373699603 -0.7960893854748576 0  0.02419065373699603 -0.8240223463687126 0  0.9236755064525823 -6.617966986595019 0  2.747922969583579 -3.974112534005053 0  0.873595098702296 -9.316864061363521 0  0.6820891563059472 -7.778051425995974 0  3.610718814027585 -8.473303718610508 0  3.656797987423595 -8.375199149374197 0  20.54477365968807 -0.4339348195352084 0  5.137896866728511 -5.851722395071477 0  0.273649145988724 -4.937500184525372 0  0.3088235670412462 -4.940826703104094 0  0.02680916001260414 -0.9942181389337925 0  0.3265379375696789 -2.094554894025599 0  0.6924545160246041 -0.6987344744117756 0  0.7158608271825511 -0.7338693099589833 0  23.6184988290357 -2.735157412942052 0  0.02141590107223301 -8.785893193694335 0  0.02141590107223301 -8.813826154588188 0  0.04774055908982788 -4.189827625442503 0  0.07162808106890495 -4.178939823712986 0  0.07175466922826956 -4.206044860609637 0  0.8825637234935897 -9.076381835525602 0  1.516164912162784 -9.209349993971912 0  1.574088197807214 -9.207653421312116 0  1.538305929989047 -9.26739312678205 0  0.02419065373699425 -1.298882681564245 0  0.02419065373699425 -1.3268156424581 0  0.3495732028759164 -7.867801882370873 0  0.3243662147864779 -7.889822513560441 0  0.02218499272802532 -8.840983570421265 0  0.02218499272802532 -8.86891653131512 0  0.5098661534921582 -5.652495252282069 0  0.7427860645301205 -0.7705943299954816 0  0.2410093375066911 -5.548053644123594 0  0.5191023229314986 -1.628829938065424 0  0.3874140081917776 -9.381168373203565 0  1.794205736407736 -1.087483842075073 0  0.02400966705870999 -8.89687973721313 0  0.02400966705870999 -8.924812698106985 0  0.02719787107488436 -1.241925531549622 0  0.02719787107488436 -1.269858492443476 0  0.8657014464887478 -1.956289790846247 0  0.8393849639445694 -1.917419168731012 0  0.02410286254022864 -8.617639432915528 0  0.02410286254022864 -8.645572393809381 0  0.7039864865888852 -0.1064411224138109 0  1.390188476598745 -2.490490744248069 0  0.114184753576108 -2.685342600548226 0  1.33361081088348 -9.312613099645564 0  1.388685006412661 -9.313284298977454 0  1.359106948942014 -9.361469256704702 0  0.9545567433663482 -6.44862262872133 0  10.18474544934002 -3.764366163876811 0  9.898966157816941 -3.736110710881545 0  1.657479890640351 -6.977863749742663 0  2.787495190163206 -3.298110001754085 0  0.02176650799545854 -1.466497668826225 0  0.02176650799545854 -1.49443062972008 0  5.854664377440608 -5.139053204538798 0  28.33013073772869 -7.462390948704814 0  0.9681198774466022 -7.95302156446524 0  2.228752991537087 -5.636713270721698 0  2.307294746631676 -5.645381621892028 0  2.26030294235818 -5.706921606420498 0  0.3676321982236814 -9.069790880201074 0  0.3706660378714624 -9.104580761846943 0  0.5073966813532955 -5.443086613177925 0  4.928161796109325 -7.887499933975006 0  4.851776498982272 -7.762714227297667 0  0.7521176950541175 -4.904232244617418 0  0.7321461726040113 -4.940581563816745 0  0.06122569413792789 -8.669090096022735 0  0.8305814364724888 -1.636130675895459 0  0.02290101791515653 -8.450214774724405 0  0.02290101791515653 -8.478147735618258 0  0.9555211717654615 -0.6499233393645714 0  1.077269963195118 -8.782931944950557 0  1.050256018490483 -8.825614023657698 0  0.2482416483196879 -3.332446236573236 0  0.2685995033904316 -1.744886469967903 0  0.2629333416487523 -7.99966069520864 0  0.5431728726262115 -1.762016656524237 0  1.884732385782888 -0.663470234206061 0  1.925273768066994 -0.7194105684160244 0  0.9835293259273392 -6.277085031862882 0  0.02685122980937749 -1.629399344615168 0  0.02685122980937749 -1.657332305509022 0  0.3888877480908555 -5.272129421922338 0  0.7691945206210669 -4.322315692474897 0  1.896424808973897 -5.867655654123348 0  1.968082876611719 -5.875098579830326 0  1.924803054418215 -5.935719654606721 0  15.22904103283997 -8.515258651629175 0  0.6291010854829509 -0.2600436489359375 0  0.6038536852039815 -0.287133391046245 0  2.050181716956304 -6.400575216363336 0  0.02419065373699425 -8.282122905027933 0  0.02419065373699425 -8.310055865921788 0  0.1258566953250906 -9.755083767473108 0  0.1141594155321997 -9.729584930967997 0  1.199459438221155 -6.861647769909149 0  0.02418066157902743 -8.506251887433013 0  0.02418066157902743 -8.534184848326866 0  2.089870475783799 -8.798047196749504 0  1.190155640549662 -8.622424308016562 0  1.158557702537355 -8.665501326698651 0  0.02681546698167736 -1.798104014657885 0  0.02681546698167736 -1.82603697555174 0  1.47038873169728 -6.058686710750375 0  1.531121010320877 -6.066816715814266 0  1.493747077694938 -6.117316923901872 0  6.103966754359849 -7.754974495793566 0  6.013184045944376 -7.61040524005484 0  0.3802668691258937 -6.643284794615841 0  1.219319815276462 -9.403523006440663 0  1.191214480854192 -9.447623072016528 0  0.02384819854650644 -8.114525139664805 0  0.02384819854650644 -8.14245810055866 0  0.02443346020372239 -1.915951684855728 0  0.02443346020372239 -1.943884645749582 0  0.1171453999619203 -2.490658556571604 0  0.02504547911296484 -8.170558020502789 0  0.02504547911296484 -8.198490981396645 0  0.3297496243377491 -6.962089420505132 0  0.3638103947074285 -6.969590532360654 0  0.3405632800093112 -6.99646074455501 0  1.30392523383075 -6.580177902763574 0  1.26729988413496 -6.624382507818184 0  0.02295721238365722 -7.946927374301692 0  0.02295721238365722 -7.974860335195547 0  0.02630599905119979 -8.227375737746449 0  0.02630599905119979 -8.255308698640306 0  0.02452553360488707 -2.024562098000029 0  0.02452553360488707 -2.052495058893884 0  5.447784918943235 -7.749075712182964 0  5.367172244384356 -7.630545857832089 0  0.02419065373705465 -7.891061452513968 0  0.02419065373705465 -7.918994413407823 0  0.3040730685525261 -5.293016230486991 0  0.2688593791137954 -5.286913834911095 0  0.3973256066155493 -6.713129001307721 0  0.3707864406401082 -6.737553473072621 0  0.02617179337268993 -7.83548685525156 0  0.02617179337268993 -7.863419816145415 0  0.02248027329618907 -8.002793296089388 0  0.02248027329618907 -8.030726256983243 0  1.333955297303511 -8.441515677595032 0  1.302065054340495 -8.487924175404201 0  0.02419065373699425 -7.779329608938549 0  0.02419065373699425 -7.807262569832404 0  0.0208403851384098 -2.221147640036469 0  0.02419065373699425 -7.751396648044692 0  0.02302260712932025 -8.0586592178771 0  0.02302260712932025 -8.086592178770953 0  0.029075052003396 -2.247944545716132 0  0.029075052003396 -2.275877506609986 0  0.1733112835234447 -6.480839016347008 0  0.02394863203451969 -2.305194799886266 0  0.02394863203451969 -2.333127760780121 0  5.819068071885109 -1.383118142309173 0  5.735175459557137 -1.238953932958399 0  0.02748580280643687 -7.60982235183573 0  0.02414590167643382 -2.360456116554602 0  0.02414590167643382 -2.388389077448457 0  1.059984352616102 -9.484142668853027 0  1.033806885744536 -9.525778669379612 0  8.011908041316239 -7.764423807096291 0  7.927279282985893 -7.545543780173148 0  0.02319781906204454 -2.416201117318443 0  0.02319781906204454 -2.444134078212298 0  1.034324235708475 -5.923601217323679 0  13.3305508899709 -8.156863279003462 0  13.17658617338055 -7.869924062402553 0  0.5213609913413642 -5.093181759648845 0  0.02369327176208813 -2.472805788385164 0  0.02369327176208813 -2.500738749279019 0  0.02342792781978176 -7.499437770362105 0  0.02342792781978176 -7.52737073125596 0  0.3559820956628723 -0.942233676578196 0  0.3907781371605523 -0.9340396563434581 0  2.409261251606972 -4.694096396136923 0  2.375762029638949 -4.623856054555448 0  0.02419065373699425 -2.527932960893854 0  0.02419065373699425 -2.555865921787708 0  0.02274552818603581 -7.444040373272642 0  0.02274552818603581 -7.471973334166497 0  0.02387762416595507 -2.584077056880131 0  0.02387762416595507 -2.612010017773986 0  0.02419065373699425 -7.388268156424581 0  0.02419065373699425 -7.416201117318436 0  1.459102102860481 -8.249869859128129 0  1.425409492938384 -8.299191106633856 0  0.02417986937350136 -1.857541899441334 0  0.02417986937350136 -1.885474860335189 0  0.02419065373699425 -2.639664804469274 0  0.02419065373699425 -2.667597765363128 0  0.02419065373699425 -7.33240223463687 0  0.02419065373699425 -7.360335195530724 0  0.4734529802223388 -6.471318798395528 0  0.446007372893872 -6.497702871020554 0  0.02420742997619385 -2.69598590991197 0  0.02420742997619385 -2.723918870805825 0  0.0235206391598517 -7.276536312849183 0  0.0235206391598517 -7.304469273743038 0  0.02439843226165017 -2.751886866173968 0  0.02439843226165017 -2.779819827067823 0  0.02419065373704754 -7.220670391061453 0  0.02419065373704754 -7.248603351955307 0  0.246509588236048 -1.520294281224319 0  0.4078699301405937 -1.088495648796568 0  0.4318955884299029 -1.115478079748467 0  0.02545892567389529 -7.165341928172429 0  0.02545892567389529 -7.193274889066284 0  0.0233119022659487 -2.806730813469358 0  0.0233119022659487 -2.834663774363213 0  0.02439858773698944 -7.109093179878143 0  0.02439858773698944 -7.137026140771997 0  0.02399591044678928 -7.053462961152295 0  0.02399591044678928 -7.08139592204615 0  0.02467999023364875 -2.861591743788784 0  0.02467999023364875 -2.889524704682639 0  0.8705013749771506 -6.862875524129083 0  0.8240390617217344 -6.852572370355696 0  0.02297929472862847 -6.997724747022451 0  0.02297929472862847 -7.025657707916306 0  0.02434138147283349 -2.917740192688587 0  0.02434138147283349 -2.945673153582442 0  0.02424214522476653 -6.941716692616213 0  0.02424214522476653 -6.969649653510067 0  0.35107120185965 -7.251788215586708 0  0.02423263070979154 -2.974669183792136 0  0.02423263070979154 -3.002602144685991 0  1.601583742642667 -8.0422843659408 0  1.566077524412623 -8.094535243195892 0  0.02403169994171606 -3.030278704073887 0  0.02403169994171606 -3.058211664967742 0  1.075763741136994 -8.866973565187996 0  0.02419065373699425 -3.08659217877095 0  0.02419065373699425 -3.114525139664805 0  0.6035007485939694 -1.97108160638227 0  0.02387691942479897 -3.142189024612645 0  0.02387691942479897 -3.1701219855065 0  0.02396856196203778 -6.774504643732321 0  0.02396856196203778 -6.802437604626176 0  0.6279621643696807 -5.075274623045098 0  0.6124206490687705 -5.036523738421547 0  0.7386523501980129 -1.467511592568268 0  0.716916069316488 -1.432137247675201 0  0.02386281864754203 -3.198255879568785 0  0.02386281864754203 -3.22618884046264 0  0.02331623486006151 -6.663706000474914 0  0.02331623486006151 -6.691638961368769 0  0.02291261500883124 -6.831165156506633 0  0.02291261500883124 -6.859098117400487 0  1.354877162692102 -7.605106530529763 0  1.306933079540006 -7.647562256981791 0  0.02419065373699425 -6.606145251396646 0  0.02419065373699425 -6.6340782122905 0  0.02328000948587317 -3.367467822113386 0  0.02328000948587317 -3.395400783007241 0  0.9821602685606301 -0.9997301360747057 0  1.006817630702056 -1.039518980883372 0  0.02321462218641024 -6.549422426016953 0  0.02321462218641024 -6.577355386910808 0  0.02363663668230487 -3.422715817336779 0  0.02363663668230487 -3.450648778230634 0  0.02460900403832511 -6.887767274221092 0  0.02460900403832511 -6.915700235114947 0  0.02451538289016852 -3.478423979058074 0  0.02451538289016852 -3.506356939951929 0  0.02238232529467687 -6.4942705905559 0  0.02238232529467687 -6.522203551449754 0  0.910782134780078 -9.558052180159377 0  0.8871153364710693 -9.598238462060182 0  0.02419065373699425 -6.438547486033519 0  0.02419065373699425 -6.466480446927374 0  2.720695566426061 -1.137433167834055 0  2.776751745809573 -1.208481874699865 0  2.166617670257788 -2.341012735478587 0  0.02601336062726212 -3.646544141624218 0  0.02601336062726212 -3.674477102518072 0  0.02607756303929065 -3.702476477559353 0  0.02607756303929065 -3.730409438453208 0  1.753772454727894 -7.8282143974699 0  1.716041518252815 -7.883552270794147 0  1.121825534603413 -5.656662216751525 0  0.02225174433186616 -6.27095959346549 0  0.02225174433186616 -6.298892554359345 0  0.5093817403827465 -4.882544140933324 0  0.025919599036067 -3.75861511223158 0  0.025919599036067 -3.786548073125434 0  0.2199112411136213 -6.204716834999916 0  0.02286175619707365 -6.215388913765317 0  0.02286175619707365 -6.243321874659172 0  0.02566081124944475 -3.590567924890758 0  0.02566081124944475 -3.618500885784613 0  0.02419065373699425 -6.159217877094972 0  0.02419065373699425 -6.187150837988827 0  0.0263084626029304 -5.996279524764292 0  0.0263084626029304 -6.024212485658147 0  0.02673965107159049 -3.921715405263043 0  0.02673965107159049 -3.949648366156898 0  0.02512485780195561 -3.534327838009412 0  0.02512485780195561 -3.562260798903266 0  0.3777994970796232 -6.907851051682477 0  0.4123157316973689 -6.914610642391446 0  0.3875129736536138 -6.941978799019743 0  0.02756951499543803 -4.032989216646845 0  0.02756951499543803 -4.0609221775407 0  0.02419065373699425 -5.879888268156424 0  0.02419065373699425 -5.907821229050279 0  0.5304672504034791 -1.028476299830145 0  1.909394172887506 -7.598248160545445 0  1.869536182658063 -7.656771194189989 0  0.02393357362459625 -4.203438398208683 0  0.02393357362459625 -4.231371359102538 0  0.02596493064298855 -5.707827466322398 0  0.02596493064298855 -5.735760427216253 0  0.02414910600200137 -4.258565865936932 0  0.02414910600200137 -4.286498826830786 0  0.02422915504080692 -3.815576825288709 0  0.02422915504080692 -3.843509786182564 0  0.4119141315297554 -8.886060475669467 0  0.4155582337985173 -8.921933139439176 0  0.02380698546523163 -4.148400400418177 0  0.02380698546523163 -4.176333361312032 0  0.02479507450578566 -5.766141573976359 0  0.02479507450578566 -5.794074534870214 0  0.02423996601461198 -4.314210001421443 0  0.02423996601461198 -4.342142962315298 0  5.331557346807742 -3.25915870514591 0  5.410602091168183 -3.130932182232167 0  0.02647874708716103 -5.603819096519781 0  0.02647874708716103 -5.631752057413635 0  0.02419065373705109 -4.092178770949721 0  0.02419065373705109 -4.120111731843576 0  0.0257712020751697 -5.82319531757362 0  0.0257712020751697 -5.851128278467474 0  7.201126084476622 -5.601933317649821 0  7.121355035966361 -5.77863734419896 0  0.02309300559961969 -4.483240223463687 0  0.02309300559961969 -4.511173184357542 0  0.02228441033824424 -4.539106145251394 0  0.02228441033824424 -4.567039106145248 0  0.0216639546955335 -5.431907035796194 0  0.0216639546955335 -5.459839996690048 0  0.02247336520812659 -4.59497206703909 0  0.02247336520812659 -4.622905027932945 0  0.02508466448985125 -4.764709193560354 0  0.02508466448985125 -4.792642154454208 0  0.4674373430969627 -6.194375101061866 0  0.2372332313560719 -6.267743305579879 0  0.02539130441451576 -5.267949898350232 0  0.02539130441451576 -5.295882859244086 0  0.0231838940156841 -4.427007796665857 0  0.0231838940156841 -4.454940757559711 0  0.2548586989345782 -6.331938897980145 0  0.2320337797992718 -6.354741523155551 0  0.02479554271792139 -4.705984493024218 0  0.02479554271792139 -4.733917453918073 0  0.02760279750823358 -4.930999605929618 0  0.02760279750823358 -4.958932566823472 0  0.6110742330386287 -2.112249718516965 0  0.02443091957086096 -4.650524968807908 0  0.02443091957086096 -4.678457929701762 0  1.028966141496362 -1.082404696345759 0  1.053086225613523 -1.126569624011209 0  0.02618702770325143 -5.096094706261547 0  0.02327016867501719 -5.038586866439223 0  0.02327016867501719 -5.066519827333078 0  2.285987121576126 -1.021360010227755 0  1.088027480906661 -9.441896719605245 0  20.57008692490822 -3.88094964278405 0  7.280814975453467 -7.841814085026066 0  7.292980961712683 -8.016368630590536 0  0.05254844540726289 -0.2804981394568475 0  2.085300745208377 -7.35974738357149 0  2.043431984242954 -7.421681387321627 0  2.033655446874373 -5.353948202462804 0  1.990467785037442 -5.414283568099918 0  1.173598152856092 -7.361723997871957 0  1.137782909701329 -7.402066924398142 0  0.6992647689107656 -6.226620124660072 0  0.774258809335354 -9.631842173753515 0  0.7518958801687852 -9.667749614104954 0  2.524666048517755 -7.170725794666312 0  0.2827141143433423 -2.131631398622293 0  0.3017774209735329 -2.159494883169015 0  1.131609890488601 -1.255443088483101 0  1.159736076857699 -1.300122665302524 0  0.4878889827228114 -6.26817302699983 0  0.1708675169761378 -6.906683743819976 0  0.1833105977482674 -6.935988763239035 0  2.266080032629461 -7.094722656238916 0  2.221430450589756 -7.159855503953768 0  1.231916673001674 -6.666460957949525 0  1.196719750207702 -6.709025751569684 0  0.5245834965078799 -4.74531967705541 0  0.09722970762579131 -7.237801542954935 0  0.06786757074910987 -7.249105952694203 0  1.048441303092801 -6.874080700926959 0  1.415848536125473 -4.906745476889889 0  1.448634406430383 -4.855802062029251 0  1.338290749118347 -9.553503316205402 0  2.542733412624202 -1.152706866549264 0  1.321921080251816 -7.492632030038155 0  0.6102484096098344 -9.694878036018986 0  0.6488161567452462 -9.69650040611301 0  0.6269167429864382 -9.726713959680641 0  2.455438774409194 -6.845363751208785 0  2.408778435040267 -6.914791011307156 0  0.6021561408149001 -5.809650782783197 0  0.642261527291847 -5.818721399245521 0  0.6144261019350967 -5.846700192644914 0  2.218670307975421 -0.4309866040765602 0  0.7889035181154149 -7.007386057844692 0  2.637562861284422 -6.562173260549269 0  2.588248759949167 -6.634886489634836 0  2.158314612102915 -0.8248246994791604 0  0.233333137777727 -1.207255504662508 0  1.247169589856334 -1.44088397236451 0  1.275399301786829 -1.488707173694289 0  0.6557858985877196 -1.055002708799808 0  0.6158828754336074 -1.069234223547022 0  0.6342867962951075 -1.029310057280635 0  0.2649036680713586 -4.613528174920356 0  0.2454427170288085 -4.639720062039371 0  2.854508666617214 -6.249345728105755 0  2.802762128318172 -6.327008287630438 0  11.37943934062393 -2.586450803145171 0  0.9281661652703495 -7.030590679205027 0  0.944826458451919 -7.075402552659733 0  1.359698394638166 -7.008121999303626 0  1.329488486839892 -7.057105806297136 0  0.6229731351515753 -2.257327904313835 0  1.159150080163439 -5.278821491377052 0  3.186939473663712 -5.76811632649039 0  3.127650584374241 -5.849778299437054 0  0.3161607384447436 -9.209140254768723 0  0.2861333147313161 -9.195374151129332 0  4.281558831457136 -5.718615225003765 0  0.865795516777025 -0.9651965978873429 0  0.1234346205244528 -8.922228015375005 0  3.755726606359563 -4.964861288759426 0  0.8172038144988409 -7.094559622138823 0  3.551506292197342 -5.243232960077131 0  3.489812464710175 -5.334504163361395 0  0.3179273874081048 -4.445749246882619 0  0.2767307634487395 -4.501045246572549 0  1.177935949177153 -7.068150054428163 0  1.146338484336448 -7.114855471656576 0  3.05016255738988 -6.251113259465168 0  3.097206945739845 -6.167153436383989 0  0.538353909793674 -4.608460267320123 0  1.370685618478735 -1.644524212893555 0  1.39919154129025 -1.695583130723114 0  1.579297066753897 -8.912005531349962 0  2.147146750373345 -4.962195690414559 0  0.6968497347460314 -2.363178521168737 0  0.7207830330044942 -2.399491963963311 0  0.5059473397035887 -1.39553129982443 0  0.5304368678919467 -1.425249810394427 0  0.258952873488937 -5.922495708250121 0  0.6257092574540835 -6.365410748067291 0  0.66620311776839 -6.375099389483724 0  0.6370196520978197 -6.405558909424689 0  0.1916779442576306 -2.413307584849746 0  0.2085379431640693 -2.440506434630022 0  1.375881055144838 -4.608775037857106 0  1.344815395299733 -4.659554226816503 0  1.621908080893498 -2.052638529899371 0  1.141577696323344 -7.257921121969281 0  0.113397788294769 -4.349544971200219 0  1.509968051980248 -4.421216161976348 0  1.473288739579907 -4.471535506338004 0  1.126113101852557 -4.992585439326751 0  1.25111344892353 -4.810853161288165 0  1.219579474065194 -4.857529044997388 0  1.483026138604668 -1.833803035338915 0  1.515679351627764 -1.885856486381723 0  1.633619622697527 -4.260301176075157 0  0.5135895829985042 -4.398380436580575 0  0.7240067590813588 -4.092591762797253 0  0.6513667310710129 -4.189590445461867 0  0.6293373416333665 -4.225475567493571 0  5.435283692297734 -5.212052380829999 0  0.9925238427487422 -4.590425948937733 0  0.5080650687042674 -5.859650633307177 0  0.5869322928014569 -0.3959082818965207 0  0.9566109757551704 -6.711721950125842 0  1.071376646441866 -7.484767110434547 0  1.103171170670544 -7.4436080636896 0  0.72807609966938 -2.552512915518813 0  4.362565066762023 -6.620208945936621 0  0.4542180585514135 -8.695595478019502 0  0.4587797003341709 -8.732347385956766 0  1.360193527115531 -4.310407834034191 0  4.358051297201902 -3.820406638084224 0  0.3097746110462332 -8.074121589450812 0  0.2846564123561954 -8.096862025581386 0  1.03569357688513 -3.950466444618653 0  1.007947603183158 -3.988931185560106 0  0.9794306888112132 -4.028561912631398 0  2.2656125057167 -3.796451904819767 0  1.07112469047452 -0.2161398216030417 0  1.024566003391417 -0.2233699992320677 0  2.132681840713282 -3.990636503462865 0  4.70132580502074 -9.634544620642229 0  0.04676108429267245 -1.228353893488402 0  0.01921672504681204 -2.108473294090464 0  0.04833267268050179 -2.120470003256897 0  0.3695796491270809 -5.307085800104418 0  4.728675289767187 -3.73149758088022 0  7.37374022708373 -0.4881283731938426 0  7.17987261741834 -0.4692766533464248 0  7.266782712204011 -0.3333512844442712 0  9.797727916606014 -5.634616214674267 0  4.593113137070635 -6.943417640146555 0  4.670004905097379 -7.05502713373405 0  3.336797741543808 -6.073828718044865 0  0.02318935954397006 -6.326674822624077 0  0.02318935954397006 -6.354607783517931 0  3.199983660368868 -4.199856752438425 0  3.090016829559776 -4.200775541961035 0  0.9944661574326972 -7.694120904560604 0  0.9592522578704532 -7.728768887542934 0  3.037047981847914 -3.211556668127275 0  3.564837174485824 -8.569678072989522 0  2.051340443029618 -2.532798751258416 0  2.088845230461075 -2.597377362694763 0  1.940809100146179 -2.342791551735404 0  0.7316257847505412 -2.706110162386616 0  0.193820627554306 -9.324889280239095 0  0.04608037450626234 -9.716794374830416 0  0.5681004159450644 -6.424720482935802 0  0.6061240550092784 -6.433815016557988 0  0.5776986791708296 -6.462665231485534 0  3.089773965872302 -0.4613427035648199 0  0.5680633337184418 -3.624825189298133 0  3.488530955716872 -6.721837033642491 0  2.28986332363127 -2.93503732129402 0  0.4945153653352037 -9.748500723830368 0  0.5287839467072146 -9.749833654286789 0  0.5089577762580966 -9.780324546119651 0  0.2108845140908446 -3.58470702167889 0  0.2284649990812504 -3.611876318293318 0  0.7057322662636345 -1.663097503096035 0  1.370040736252168 -2.8633806966161 0  0.5352722312150391 -8.550473492297995 0  0.5048920852560492 -8.574689615692977 0  1.753006904080406 -8.860842986640995 0  0.2951853349001503 -1.681997045411578 0  0.2507242146799928 -3.149809622974952 0  0.2848866379528641 -3.091407567449556 0  0.2675362784226571 -3.120153795646771 0  0.7795143215849993 -2.939941304645159 0  0.3563335893918413 -2.974020218975288 0  0.338211729792695 -3.003827282120654 0  1.46755265672963 -3.019999439684659 0  1.498365115608888 -3.073135720633533 0  4.600744279283965 -0.3743045172090991 0  0.06316947278344642 -2.092494668451885 0  0.04374225865169912 -2.065996285945242 0  0.3616618199503261 -8.021091135345307 0  0.3361817390013222 -8.051357986494404 0  0.8973887801663132 -3.151056404165316 0  0.9202277988878258 -3.193562872462218 0  0.5352261982638566 -5.517217360871864 0  3.441725923505508 -1.618592348167222 0  3.502138446630468 -1.708732063387971 0  0.5424673453716959 -8.371669976266384 0  0.548855661601177 -8.410146244801442 0  3.581879215111712 -1.79458276000814 0  3.637263679059661 -1.889445757377352 0  1.679527173713188 -1.748232916322078 0  8.107385174459694 -3.857919838010742 0  9.622889043571014 -3.744892432245753 0  1.168237475834143 -7.82513536157953 0  1.218023634599747 -7.842819124359283 0  1.178739142345583 -7.88070277827627 0  4.483822506657894 -1.080902081329846 0  1.045259209994628 -3.398347586174164 0  1.069485204044847 -3.443097008942789 0  1.847331996225947 -0.6038714375008762 0  4.696154640933107 -1.422266913517126 0  4.767220813120577 -1.539561599976528 0  2.579761363186366 -8.023036118338387 0  2.383503317962656 -0.5488308110712303 0  2.423101520622254 -0.4707754790412384 0  0.3910960033209143 -3.32855794527174 0  1.595165111612188 -3.239611205023968 0  1.628240142869732 -3.295108505937041 0  0.485925396812636 -3.489199594715008 0  0.5055480039312918 -3.522426683076713 0  1.093440673109065 -1.850177800256403 0  1.145360481836057 -1.825496114517956 0  0.9237648402030594 -7.762972950386689 0  0.8895470094435325 -7.796837916110968 0  3.763910765184431 -9.448636319438187 0  1.694202473817821 -6.753657583895942 0  0.2343152425752457 -3.839977104924844 0  3.63460951118901 -3.84613805283687 0  1.557118124334053 -3.625285007663652 0  1.644620648254079 -6.6310002902404 0  0.7187134758195821 -3.735810064865797 0  1.018405775104398 -6.370561748145247 0  0.9865474420160005 -6.409416489155165 0  0.3330920534620017 -9.293703098013786 0  0.3528825145400383 -9.32260803925706 0  3.739366894670095 -4.047299940128774 0  3.862040233218424 -4.052268368059634 0  1.596431630518129 -6.510719503390654 0  0.3712200425833476 -9.350462966484548 0  0.8598315120851332 -1.673072686886831 0  0.8877616729572146 -1.71028356816626 0  0.5508632327181644 -5.167422906942648 0  1.548074051304592 -6.392972824984637 0  0.02346724915805964 -0.4055021444778379 0  0.02346724915805964 -0.4334351053716929 0  0.613323868501908 -1.862985686573204 0  0.6377455846463889 -1.896174457580122 0  3.204472011900616 -7.634463927451947 0  1.074337500142342 -6.019315981780382 0  0.2839785828414207 -3.930961606418711 0  0.3001884293214836 -3.960736856842889 0  3.40681868819699 -7.261770736475854 0  3.35640159971623 -7.354184056217307 0  0.6106830783920802 -5.320384293634029 0  0.584802966401762 -5.352079879262917 0  0.9368390519573495 -5.367509757137225 0  0.5810800040034252 -5.242674076561454 0  1.09131638392676 -7.898266521907747 0  1.140051893091805 -7.913506561386346 0  1.102415293438586 -7.948754067797575 0  2.651206630359631 -2.718538229799234 0  4.608331191967313 -8.936181466886822 0  4.542005508131268 -9.052047428593127 0  0.7148747912662046 -8.100460497566081 0  0.7017195255082687 -8.053793160551686 0  0.152347531474982 -3.444848263189773 0  1.114813602187946 -6.116367139449904 0  1.082368689942282 -6.15745731585613 0  0.3493502069128755 -4.163776103743537 0  0.2970056504655432 -4.073233733365347 0  0.070521450521845 -0.9985451504107665 0  0.3337009767014045 -0.7066845321304349 0  0.3243218261490668 -0.7390471938077878 0  0.06063459714133401 -4.858636718909296 0  2.252521916392912 -1.508157100481353 0  2.173183657499115 -1.504115163347937 0  6.3121122548215 -9.547564353367942 0  7.259140437981629 -5.440359711055165 0  5.645709505913816 -7.064790946810454 0  5.735828232425979 -7.195049581178285 0  0.5402091858402898 -4.956314219029832 0  2.094984179678551 -1.632810853368413 0  0.8499334069248459 -1.795553684067422 0  1.501930255910423 -6.275843080037295 0  0.7698432815299192 -8.407820156853461 0  0.8116267875761398 -8.4214920858205 0  0.7768849727215521 -8.451134819962075 0  0.3434684711734164 -2.215103617847565 0  1.558811230021789 -0.4241158865600507 0  0.04798913404563976 -0.3367527620327744 0  1.165390729209607 -5.755821585124592 0  1.1328971028358 -5.798719069121093 0  0.8240221454305789 -0.6469377266135909 0  0.7835149679699001 -0.6510747956062728 0  2.359613572060535 -8.383700491502472 0  2.314736490627478 -8.447668796673094 0  2.082989607216218 -6.148796438329736 0  0.3544657510205269 -3.206596995643205 0  0.377059795263289 -3.173638363086508 0  0.08449254426035324 -0.0207810444204517 0  0.05964179701109629 -0.0207810444204517 0  0.9524137883883732 -8.081363456277874 0  0.9622312826744235 -8.128812516100112 0  1.724679102332363 -1.203834261792898 0  0.7011405659974059 -7.86184031950125 0  0.6697756934597194 -7.890982482576856 0  28.53463241785674 -2.888460301417237 0  1.577500486984853 -0.2657947013004414 0  1.612123864548515 -0.3147159570942506 0  0.7360835052011954 -5.04848245841951 0  0.710460690028837 -5.08249586226793 0  0.7021573902480505 -8.464378139429163 0  0.7423749248230074 -8.478932495359006 0  0.7094308483957263 -8.505847743793131 0  0.07229588287455613 -0.4080416435074827 0  0.04770891307680714 -0.3921209112217801 0  0.1127009960876357 -2.573336248799079 0  0.1145168972426589 -0.6658498759599887 0  0.1540398067565185 -7.090645141951176 0  0.1230821777396436 -7.079588576626592 0  2.022918282289625 -9.884862643759158 0  1.319208055881589 -5.867583202979439 0  1.283953683659417 -5.910150644844792 0  0.02617972699383486 -1.693044375547053 0  0.02617972699383486 -1.720977336440908 0  10.26070386687346 -8.639916312860299 0  10.12981789460851 -8.875808208554265 0  0.4010611837921765 -9.189692382984143 0  0.3710090456568071 -9.208133227989215 0  0.3747879875664477 -9.172511455782441 0  0.1177650436028657 -7.294736404724938 0  1.20559058892724 -5.378521688822373 0  0.890260551251842 -5.284179237078692 0  0.5672335322854281 -8.527331468218874 0  0.5285496039154598 -8.760993155078213 0  0.564003145188213 -8.775771012248423 0  0.5337958450069724 -8.798204215113515 0  8.972784078196229 -0.1258487507011665 0  1.226760837509403 -5.524822530256875 0  0.05069819894089633 -5.98246279474768 0  0.07503570205431132 -5.960684542530389 0  0.3808054348043264 -6.778827109979422 0  0.345598448866216 -6.768510638231171 0  4.407510983481103 -5.4714285652004 0  1.73897870324433 -9.888249429154328 0  0.2340321810473149 -1.550019154643299 0  2.21539795489775 -5.103592429564078 0  2.170801745396103 -5.167490461868696 0  0.2446769997727767 -4.876810530118656 0  9.284753329423857 -6.05382897057155 0  0.3419467072851425 -9.21857623646935 0  1.783722738353768 -3.105288565036235 0  2.228842391109829 -0.6892883869402553 0  2.485101018787034 -9.629772274032133 0  0.04741807978249923 -9.442020595783546 0  0.7458614551374723 -2.436178576251653 0  0.7698525752990637 -2.473535312185609 0  8.748223048859153 -6.680878936486136 0  0.5696432041740422 -4.679864939470482 0  0.5465818493390699 -4.712414546766746 0  19.84172863798402 -6.870411353030466 0  19.57138370457571 -7.287095894288203 0  13.10292997937766 -6.685541331569151 0  1.248710568147446 -1.192944081101455 0  1.230492872667483 -1.243092298468242 0  1.197477640241047 -1.201609366172796 0  9.76488746669428 -0.2004649421094538 0  9.605177314924143 -0.4142419558674302 0  1.174553865139654 -5.089807788871185 0  1.003100210240207 -6.456051811899332 0  1.982861614960013 -0.3090158301118713 0  0.8885593827994533 -4.657287460899902 0  0.5493578549189415 -4.469855996153492 0  5.274242993668558 -5.438294580799996 0  5.369885609805166 -5.56149131819237 0  1.05219893762408 -2.288757992881086 0  1.553711069634646 -5.428834138252403 0  1.588815130653611 -5.481782137305346 0  0.2220252215849232 -1.237526663920819 0  7.158906526664687 -0.1572497822984271 0  5.463982169446787 -6.808361031345951 0  5.555094381356589 -6.926235406452497 0  0.7090975639052921 -2.000278758845111 0  0.685377331459982 -1.964212584447575 0  0.8911500872114786 -5.036749414482144 0  0.8476594889172642 -5.012722452105717 0  1.334559402164814 -9.78522749239119 0  1.208018700319666 -2.188616974078979 0  4.476140958752909 -6.383907463256048 0  0.3286555850060005 -4.913662672614277 0  0.3436364593948174 -4.944650947294543 0  0.7705015486072888 -0.6911639766558881 0  0.7442311075758958 -0.6557039037562387 0  0.3704891160687556 -2.567448244078731 0  0.3905947965883581 -2.596680286237561 0  0.3466170437255709 -2.537289928824106 0  0.3813788508010454 -2.535592047253183 0  0.4562113508235051 -9.008471010960008 0  0.4267037088204866 -9.029317728918292 0  0.4231725899570904 -8.993496953572606 0  1.674440887338097 -5.673564647304254 0  1.701701720017754 -5.734146604465165 0  0.8454883511595561 -7.182555966709268 0  0.8139088253839795 -7.216346813238042 0  0.264927098554562 -0.04767624833174544 0  0.5322378938945782 -3.937546976853396 0  0.5106149289588942 -3.968189663251949 0  1.582351462032531 -5.227811191897207 0  1.54674121656034 -5.272216884512152 0  0.2558201206331248 -5.257106725019452 0  4.515620248897424 -6.035828734592449 0  4.592050400975774 -6.14413387403614 0  3.740933181211108 -5.421174025251444 0  2.200505939856335 -4.131358102717551 0  0.4177279162587269 -6.78329771847217 0  0.8484071451540984 -4.570675593230244 0  1.005210949100782 -2.378989479344227 0  0.3834085845944557 -1.061492460309659 0  2.344413687126476 -4.417227734978302 0  2.270126301139538 -4.275181867979916 0  2.418700896969654 -4.553602601213552 0  0.4178810240781274 -6.522753847438144 0  3.721326892892105 -0.4428110013686277 0  3.751336375012777 -0.3173028245688023 0  10.02787497107057 -6.101268985723456 0  9.892956648904489 -6.296260111939449 0  2.993685558365204 -0.4736861067359595 0  0.5146856420560812 -0.6609056414553542 0  0.2063093695776832 -6.37826289037364 0  2.318316335107024 -4.835505680681603 0  2.23896691111776 -4.832328635653352 0  0.5319200789766771 -5.935127824804567 0  0.5052385445903749 -5.963818928726099 0  1.157039639186889 -2.630493896265447 0  1.429967473900859 -2.759210963379869 0  0.3920957029756096 -2.916969628661988 0  1.48511155671148 -2.653344384455619 0  3.463117209700133 -0.5330743547363497 0  3.520723646269445 -0.62055159059073 0  0.8028682575198545 -2.821143146544905 0  0.8259322972634067 -2.860406998558148 0  1.977786548292869 -2.157531513470358 0  2.01426743650873 -2.216883926575992 0  0.5242907087439779 -9.041300662849832 0  0.4940306002484789 -9.06118956954615 0  0.4900025781824002 -9.024402879609376 0  2.645347003092358 -9.943772603065709 0  0.3966613197649238 -9.04939149770593 0  3.122811757798498 -9.703726334528984 0  0.3461961472454202 -9.712443896841599 0  0.3600054153694963 -9.741958675873198 0  0.1557768033164457 -8.554653706301018 0  0.6939971447988356 -0.5236639290185829 0  0.502438871244177 -8.820645120916366 0  0.4719586404270846 -8.843069405490308 0  0.4678620729171286 -8.805850642517246 0  1.850049006339333 -0.1759365149884644 0  1.827892363748042 -0.2388951928966918 0  0.5618914883984019 -5.593198969023534 0  0.5359466086272633 -5.623434332630349 0  0.4286407505085847 -3.266241707808934 0  1.744668027311249 -6.877150721791423 0  1.702799803130617 -6.928856178369827 0  0.3195118376503583 -6.792245035374247 0  17.6491265650368 -0.7444869560707046 0  17.38329988018506 -0.3386441342751008 0  5.178404490668555 -3.507348070910072 0  4.96943203669748 -7.273176887281665 0  4.615035733769275 -0.8471466860572727 0  5.0372325933802 -3.254296307316119 0  4.899689684445605 -3.002736334027617 0  2.171532088838957 -7.359215279890996 0  9.81044652881314 -6.850338302661722 0  0.4323738389966074 -7.527107118160036 0  0.765128448378281 -3.660923638066562 0  14.88218126768088 -4.344275310528384 0  1.624394064008056 -3.514161124246427 0  4.70207220232504 -7.529090033186708 0  0.5712741887801087 -5.030424984948013 0  0.5466814440134229 -5.061983452263032 0  1.131861042841258 -0.2892256306802024 0  1.140748088308541 -0.2453662691602663 0  1.024776620210634 -8.870346978598056 0  0.6851852371230116 -8.027298708219433 0  0.6470357465159662 -8.002550266189633 0  0.4816087180503388 -6.369302159463684 0  0.491614188398259 -6.406281168221681 0  0.359672459035469 -1.035071072995113 0  5.207251994580751 -2.026951505526581 0  5.278036205683383 -1.902317616044099 0  0.5740584185813145 -8.852009377462075 0  0.542701444818519 -8.874450283264927 0  0.5378924125169284 -8.835422978086577 0  4.06230469246962 -7.795126842215039 0  6.092720263454014 -2.737027010351024 0  0.04833414469596775 -9.33070544352563 0  0.6540740595415997 -8.878932282822879 0  0.6151453113704886 -8.908157347753262 0  0.6177961990540126 -8.861811617710043 0  0.0237089360173055 -4.370464049846587 0  0.0237089360173055 -4.398397010740442 0  0.5623321413143216 -3.368229639022376 0  4.764406822790743 -2.755775608921017 0  0.3908470350983748 -6.548550252068561 0  2.889149284104793 -2.904521851682417 0  2.847508389187055 -2.66293343854245 0  6.32542000221682 -3.246943758546043 0  2.060805281797744 -0.0609315992775894 0  3.719170267620903 -8.003297710001824 0  0.5895983591796572 -4.819517160306616 0  0.627817356763007 -4.824587525942284 0  0.6076908460446155 -4.859342471650661 0  0.2584355919263164 -9.214276166398797 0  2.669451643068124 -2.34044364135448 0  0.3499328149559311 -7.029498610469796 0  1.54167684066436 -7.284092485712859 0  0.3133119909700017 -2.540905808794411 0  8.70779963978106 -1.706279168919041 0  8.802756098611731 -1.500507847631748 0  1.048924588469152 -8.114084421471315 0  1.057859548144998 -8.161470346578895 0  1.008025813543476 -8.143733799012375 0  3.636489913359537 -3.094311546850149 0  0.4413556984121865 -8.864372974015907 0  0.5848114643447904 -4.542530746617934 0  0.5619123412656091 -4.575643531846529 0  2.172451806662806 -1.7655449868664 0  0.2071214157951449 -8.01244470392494 0  3.330660328429769 -8.110323540518406 0  3.398138187532734 -8.214432327000157 0  2.581153868450485 -2.194180296611315 0  3.740553790512681 -2.908010332327873 0  0.6580605354209794 -9.388981056403168 0  0.6353049942018441 -9.422226301277828 0  0.3854513001731306 -7.133484356554199 0  3.988696186181322 -2.502190329578639 0  0.1835145423520395 -6.400537613665463 0  0.1338165921335719 -9.572460748566506 0  0.1578814226195178 -9.581599675474152 0  5.550237138446398 -8.300715125883588 0  0.0889578413055645 -1.960939987052396 0  0.361012733114352 -7.286015141762016 0  0.3907367976223401 -7.388351407491726 0  0.40046765250775 -7.422926061164571 0  5.729059336522177 -0.6765691784979433 0  0.2976744210915072 -7.952874586825883 0  0.5984214498988969 -8.502884072106768 0  0.5609061481534674 -8.487477402956829 0  2.24932768793111 -1.903908766743737 0  0.3572873813923856 -0.2280633989916758 0  0.3420332800002637 -0.2562382522346525 0  0.05018283518148259 -9.272575222995719 0  20.61196210384797 -7.358848563890301 0  20.87200018093073 -7.788427041949625 0  4.917222697438067 -2.273757218727138 0  0.4022489086387964 -9.119254967329169 0  0.3732572549344813 -9.139396405295145 0  0.5621147362530543 -4.747880478865557 0  1.0219361179009 -6.634139474535452 0  1.055344603761357 -6.593851761993798 0  0.9714587407975515 -4.541881168398114 0  0.9498007078478405 -4.497148543786168 0  3.080575035679447 -8.394092931134631 0  0.4810811642757837 -1.365679596633598 0  2.260068610433381 -0.4900535357653633 0  2.302331571964423 -0.5546418170212934 0  0.07478769406880659 -5.153203433163055 0  0.2479271786125778 -3.638913879419303 0  0.2944066102692862 -0.3939560853507764 0  1.792360928184138 -1.319134026496099 0  1.7593671410688 -1.376999145517858 0  2.496836236124743 -2.046295874078895 0  4.749813411526098 -7.169037866507328 0  4.826876164319785 -7.283196176775371 0  12.31359817031506 -3.771889775322882 0  12.38253607413149 -3.452121004642365 0  1.041910702034203 -7.885311807675556 0  1.079547301687422 -7.850064301264327 0  0.6433342123015127 -6.17825048528755 0  0.6576695174039404 -6.219518865355266 0  4.727783694998788 -8.231105688593892 0  4.87590333887243 -8.466355576446498 0  4.809556450662818 -8.587184013327738 0  0.8428852471210533 -2.589232292168787 0  0.8184312444859234 -2.550567419877853 0  0.8300784654453981 -0.02881201839530512 0  1.015433701615656 -4.243896433581689 0  0.4729366506487214 -6.092769334064856 0  0.483542274389503 -6.129417996077729 0  0.3478694067038361 -0.7637081424076957 0  0.9626005397911666 -4.328003011784089 0  0.08676821308520388 -4.603020806991787 0  0.1038548740173404 -4.579866038714422 0  0.4568871940343229 -1.336571295248983 0  1.223266736270496 -9.965162521802865 0  1.062741638237753 -2.551318000986964 0  0.365469724312403 -9.684991499024378 0  1.003781445009126 -7.562071485611547 0  1.01706670732279 -7.609978846026348 0  1.608568152703747 -4.902763484568352 0  2.615716855599919 -5.479352885759686 0  2.672438276874205 -5.415563802239049 0  2.75497896323526 -8.47763134309049 0  2.798186739597938 -8.563688345311284 0  1.746317020138303 -4.688239453259793 0  0.4840616945434242 -8.672767514268422 0  1.138808584969338 -4.11242026966032 0  1.168465468398871 -4.156180539970494 0  0.5206544289149377 -7.877312882323847 0  0.5141570418637897 -7.839591127766068 0  5.493071453517791 -1.100612675074059 0  0.08501393169882476 -6.106038977055106 0  0.4278933743479492 -0.2816829236478107 0  0.4635224487388534 -0.2782341739183778 0  0.3728089938212342 -0.787797211138054 0  0.3966978404155377 -0.8119775428548248 0  0.3621563373862351 -0.8204230060342796 0  5.324914186226669 -8.717939918083204 0  2.496675177441631 -8.637991094695593 0  2.535774412259675 -8.719259955026841 0  11.53190960682957 -0.7892403563621322 0  0.6758391710676115 -8.532832462540417 0  0.6369810739258135 -8.517015762616051 0  0.291269478429351 -8.129528889922092 0  4.58396560910901 -8.001229501291167 0  0.04662634486150807 -0.5027533707867065 0  0.6351975729536807 -8.298214359815788 0  0.6051429053482735 -8.321749183909901 0  0.5966211560301211 -8.28342202509744 0  0.756519169415208 -8.563592978837457 0  0.7160567056425684 -8.54738681847026 0  0.5393707024748249 -1.491193175267095 0  0.5254336046862207 -1.526964993349885 0  6.848523628818912 -3.241199594626543 0  0.3998109679686923 -9.688327008044826 0  1.722305798745996 -3.686479262093566 0  1.688389780671017 -3.628835545230225 0  0.9084327480110588 -4.409522847126937 0  1.120710938975403 -1.075339041274115 0  1.145047556566411 -1.117930634375852 0  1.099593901696439 -1.125065468983925 0  0.07423382789314203 -1.304799668640358 0  0.05138852481188039 -1.283824972890404 0  3.006709333927706 -4.435236216384338 0  3.048677176512836 -4.518805899195018 0  0.1177137049183905 -6.659509340544407 0  1.534068589459956 -5.005382418926654 0  2.948605100522236 -4.675968604194541 0  2.019437153202738 -5.483503044155404 0  0.2834427871669867 -4.822263984873746 0  2.842555577238826 -4.834229898847048 0  1.760331357815499 -3.401526713036756 0  1.792699375581735 -3.340782236191516 0  0.5807486759592848 -3.442476152347783 0  0.5753498145956399 -3.397447170692561 0  2.248308079412915 -8.794753179311375 0  2.287160380503984 -8.855118321684081 0  0.7969750226780548 -9.173205553238573 0  0.7739394151091634 -9.210635265884395 0  0.3065205793903534 -4.740860919648997 0  0.321378820777884 -4.76880025940096 0  5.568489486537848 -3.865502984412998 0  4.080126156897393 -2.972859761515028 0  0.6243363564123214 -0.9398320591431766 0  0.6625961735915418 -0.9188002606469823 0  1.551297752743238 -0.1514064907489558 0  1.512215597872281 -0.1962468481127981 0  1.659619253320644 -3.344653301921601 0  1.692249319850555 -3.401488776014594 0  0.4847458830310192 -3.3626365725856 0  0.4661038122998598 -3.330050163822451 0  0.4200620837664708 -9.80399878445674 0  0.4008385049151677 -9.830569838777702 0  0.3873780247333904 -9.801055694521391 0  0.4386548422420784 -0.7692643351048627 0  0.4327486372946332 -0.8035783333555013 0  0.5730778356132369 -8.346217758155145 0  2.054372744838739 -8.987611442431728 0  5.643324698056176 -6.334389564396194 0  2.738987266791401 -4.986717943385331 0  1.687778942214614 -3.854855713046341 0  1.508813003990342 -5.304216310299619 0  1.451515345832036 -5.302840568213976 0  25.2185738078596 -3.968987061410594 0  0.06696138972997545 -1.024825674643662 0  0.05005825923333695 -1.009130209921708 0  0.5096759186071491 -5.756456445241446 0  0.5220580738159377 -5.793276707490872 0  10.24118467105092 -7.704212463478157 0  1.835810601216769 -9.109438335068795 0  0.9130681905580342 -1.951968903224625 0  0.7702550707774467 -8.821294015715337 0  0.06060699725424001 -9.978738543076688 0  0.08545774428541719 -9.978738543076688 0  0.4192335724164025 -8.958022746776024 0  0.7342132593854132 -7.833210380741798 0  0.5808393350929002 -3.876463382614034 0  0.5577666431448041 -3.909262930378129 0  6.621393031947786 -1.858761146304017 0  0.7581429255608523 -0.7325181048423524 0  0.08788070821397653 -9.300940836680194 0  0.3595846261557334 -0.284605883560876 0  0.3938614079803902 -0.2835952956266352 0  16.83509376252068 -8.14347201734536 0  3.108473948086782 -0.8215090281839164 0  1.613272246643225 -9.156161235262234 0  1.635413264469488 -9.214204368072373 0  0.8802917313716545 -7.025186759336796 0  0.9126179391928488 -6.98720340450563 0  0.8998711068299166 -2.984654661304532 0  0.8735326228651399 -2.942164493698876 0  2.134320931023719 -5.760753477452557 0  1.675359615608972 -5.969038909579434 0  0.4490048933422219 -8.936560628277475 0  1.421785756349372 -9.266758920680083 0  1.447281894407906 -9.315615077739221 0  0.07248954255696205 -0.3254009773630075 0  0.4001129115992654 -0.1448335701832555 0  0.4183901891804425 -0.1717830682643591 0  0.3863127428045772 -0.1720008485574258 0  15.84952453224612 -0.635587191543677 0  16.09185041857983 -0.9737650052515345 0  0.8061348750494375 -4.905109316440144 0  0.7925847980749268 -6.887015693559768 0  5.828913959712875 -7.328530616148202 0  1.064931131254369 -7.983208623354831 0  1.02747992427657 -8.016900817656259 0  1.016228577295742 -7.967206222620402 0  6.97169551592412 -9.506971316137474 0  2.353319892106027 -5.585631877035352 0  2.38486984292712 -5.655840212734153 0  4.985860731012306 -1.904928011112598 0  5.058819948712358 -2.028234531844674 0  3.724219083542041 -1.667857856921145 0  3.801916366874831 -1.727449557239265 0  0.4568903895714733 -1.237986660554222 0  0.4948699963790659 -1.229559555576524 0  0.3517934052527352 -0.6415195252965997 0  0.3428671092072957 -0.6740245478889406 0  0.04918379721554267 -0.6145864481470866 0  1.249495544240599 -9.358747762073092 0  1.273857024448695 -9.405573301740382 0  2.041670898419941 -5.883208139984323 0  0.7661170807127249 -7.803568490642688 0  0.7237782197348146 -7.789988934058073 0  5.532479112116784 -7.875823401269026 0  0.5100881054519366 -8.612510023516837 0  11.58605265444295 -9.180697764364341 0  0.9889341120927853 -8.048623145413313 0  0.7877961528948383 -1.461188509731682 0  0.7240155889799667 -7.633616981101248 0  0.6932177939744477 -7.664004212967851 0  0.3836594365753161 -7.877878860578826 0  0.8155188900668087 -3.480065188929547 0  0.8408450484385881 -3.515556482383424 0  16.08014094427972 -5.55986513350514 0  0.5810859348066728 -0.9822888366006861 0  0.6069695148170062 -1.008041706712261 0  0.5685001931306619 -1.017788701916273 0  0.6035631982916954 -9.7616214412504 0  0.5810018791812368 -9.789904384745126 0  0.5657876767405661 -9.753374533081345 0  0.8415861326358378 -8.349190406530651 0  0.8475919082987673 -8.392655625502035 0  1.110704537933273 -9.487143547172884 0  0.3926250333341699 -0.7217653528450914 0  0.3666374551216354 -0.6985136262563874 0  0.4635641471647549 -8.769291981413307 0  0.3522726656879058 -0.8529151455189226 0  13.45512234903624 -8.510504685242189 0  8.127208497069507 -7.967506841323272 0  0.9581860661409554 -9.561828744140861 0  0.02438973633796415 -5.935903940374449 0  0.02438973633796415 -5.963836901268304 0  0.5057205820467825 -1.099943550005852 0  0.4684311888834713 -1.108045793366617 0  0.02417248177778397 -8.562082269623883 0  0.02417248177778397 -8.590015230517736 0  1.162583722839626 -8.015623328292726 0  1.125099560655411 -8.050077883849983 0  1.113666640419414 -7.998448662833431 0  0.1097608871661784 -0.8950830336561513 0  0.1164746338109062 -0.8623980957294881 0  0.04754743393315053 -6.707247646004431 0  0.02358342465967667 -9.11905998022975 0  5.153176907428836 -6.87358486993683 0  1.047697003038515 -6.197746809917941 0  7.462188872010384 -3.900289128659952 0  1.057097048742456 -2.108332331297188 0  1.107190666515532 -2.10350536774722 0  0.04610591199675262 -1.061752050521668 0  0.5646417941230055 -1.798194615478126 0  0.5887168503468398 -1.830783658392983 0  9.804446747869877 -0.6088409626584532 0  0.6883251748466908 -9.695547883530775 0  0.8544753863697334 -7.829903037715379 0  0.810199593129143 -7.814984086895116 0  0.04796273902156045 -0.670399819807125 0  1.132324678049757 -4.46168957803795 0  0.6435878703700837 -1.967674191193398 0  0.6262977299855912 -2.004840801949592 0  0.9463546687836839 -7.857821153883386 0  0.9001753299183051 -7.843562717362531 0  0.4565548190977466 -9.944812029851049 0  22.0494696220423 -3.764065252164052 0  22.0773664809716 -4.343654105972233 0  0.551345265817675 -9.721550710792062 0  0.04961165019197011 -1.118046270366608 0  10.52774059144658 -8.164246597089718 0  10.39785184247244 -8.404519502817049 0  0.04838130747399205 -0.8379888268156419 0  0.468869816909848 -6.734324114973365 0  0.4419043342652778 -6.758184969479349 0  0.4329589092227906 -6.724009090314888 0  1.285824444311364 -6.677456901334166 0  0.8177184016363128 -9.633863534550114 0  0.279166441865172 -0.02325272242358256 0  0.8899863817939924 -5.124323992653629 0  0.940844472317627 -5.108895812378501 0  0.3991906786066686 -6.583456416430003 0  0.3983266293251759 -6.976350123069623 0  0.04590294028257169 -0.4473616605159316 0  0.4894067864688552 -9.810635334249028 0  0.4688234709999364 -9.837895990773939 0  0.4541058794171668 -9.806252272188141 0  0.5551081030837643 -8.448921914664439 0  0.3856890510940119 -0.5570949759724808 0  1.01550577628104 -6.237871016890374 0  10.93822238582105 -8.398441781670133 0  10.81165977057913 -8.156175948006613 0  1.256954642231964 -8.533001502247988 0  1.225823655971883 -8.578442677143038 0  0.09412076463589081 -8.467907105263434 0  0.1209003087021703 -8.482081253262633 0  0.547504603443862 -1.556899723987462 0  0.04806654096519836 -8.940169333676275 0  0.4438485366561693 -6.919956758946774 0  0.4393920683524772 -6.98103227606953 0  0.4156894894062937 -7.008644009410441 0  1.235142317057431 -7.087228014867944 0  5.806901150691209 -8.981266741671075 0  0.5494964592423788 -6.492589042845328 0  0.5112165716762682 -6.481100023225531 0  0.986275711315983 -9.836138532643158 0  6.04445851547491 -6.903348810308858 0  0.728930894328105 -9.699484419371649 0  0.7060902096032677 -9.73227286561554 0  6.066863945988631 -3.10216860939404 0  6.150301756474178 -3.24339411809316 0  0.5319225734260513 -4.84996299400709 0  0.5469310154179627 -4.886853252941227 0  0.8021930677947147 -8.623259063171057 0  0.4935578569036352 -8.746481762486765 0  0.4700308221708589 -0.135701223413971 0  0.4902768295242659 -0.1615738452009747 0  0.4524363653285377 -0.1704884116771925 0  0.7554109524580337 -0.1835519118316693 0  1.290432290333637 -7.098944148633556 0  1.253047480885584 -7.140024740579318 0  0.1899208257435401 -6.43120563601153 0  7.182140814394959 -4.9351780623948 0  1.280588938412718 -7.386673577280317 0  1.227533477312488 -7.374383281919828 0  0.9878796950131736 -6.541127740972078 0  0.9559525847531773 -6.57920941932651 0  1.191888286220255 -5.233585906952224 0  1.214771173970036 -5.283246009285231 0  0.04360089380025833 -8.827994082551355 0  0.5685558282410295 -0.495937836028479 0  0.588632249972509 -0.5290753013666842 0  0.5891120889585046 -8.244434641879463 0  0.5411656319186395 -7.070667010311297 0  0.5085918766204358 -6.341850663216942 0  1.485770810508967 -4.587047459358607 0  1.484787073613195 -4.518196321825267 0  0.6092099139325597 -1.412172566646155 0  0.5693618588094935 -1.419299031308595 0  0.3736334058468884 -9.771617230179492 0  0.1813526857809471 -5.1019338502841 0  0.02305193048542975 -9.511307310653249 0  0.02305193048542975 -9.539240271547104 0  0.9105025336912682 -7.114113165798257 0  0.8784620413067454 -7.148971090839531 0  0.8637994650646323 -7.103431959077468 0  0.6072055858559189 -0.430509255266716 0  1.030881806767873 -7.659346267120606 0  1.042637437662066 -7.707314832630611 0  0.4565876759533651 -1.142402618537961 0  0.04619465978673531 -8.883114704282441 0  1.099272380167314 -5.840390669452188 0  0.4318057968706572 -9.171672593017016 0  0.6473360435973721 -2.037943876109348 0  0.5563508304138125 -1.05422916994172 0  0.04510657183980626 -9.55257730183288 0  0.5945874659508075 -4.40169967528708 0  0.6171888195418003 -4.364972582221529 0  1.067206812593742 -5.882561841485494 0  0.6261893681593538 -6.508142828236853 0  0.5875200983065909 -6.501683576467513 0  0.3431174895710569 -8.084612240126074 0  0.5984994929863614 -5.38967487970722 0  0.5582491280846611 -5.381541057415141 0  0.8582675322625626 -9.638058072336495 0  0.4994278978729163 -6.065085381844887 0  0.971166242350268 -8.176198441207692 0  0.9823829738354135 -8.224553014741781 0  1.011014311916226 -9.569047479350534 0  0.984248016210822 -9.608708381152834 0  0.6466179153235849 -6.443503657974421 0  4.921361935852502 -4.250855528932482 0  1.729054999452696 -5.797413694786637 0  1.755981386227297 -5.858981802695507 0  1.917836222061613 -0.3026965768007379 0  1.955200937881035 -0.2386429742420422 0  4.062203872343035 -8.180303362457138 0  1.528756135948488 -8.148142415048067 0  1.493804956945151 -8.199158298899594 0  0.04194112301279596 -5.024481065022297 0  8.330856282264909 -3.469507063159966 0  0.3968674664829841 -8.038299286491984 0  1.056477209807863 -6.730950741816056 0  1.006174293520871 -6.720106326914125 0  0.9338635166977767 -1.907841498974981 0  0.9612084200388189 -1.946603861369713 0  0.6906716303787022 -1.400176788327664 0  0.650043243919372 -1.40663703468196 0  20.41304665802782 -2.444205760959008 0  19.851208464914 -2.378497652189241 0  1.053108773311127 -1.0395881604198 0  0.3292097389864193 -1.678115094401574 0  0.3156134308885861 -1.71007431280454 0  0.9707343706594962 -7.776293532914364 0  0.5554339058812037 -1.455470666328078 0  0.372101014672122 -0.1996915006269049 0  0.3399140077821023 -0.5862815182309307 0  0.586935514808415 -5.876617953513623 0  0.559906446348899 -5.906353514002323 0  0.5472916469986338 -5.867365136671289 0  0.7400049659842374 -1.351994456711842 0  0.766249404922025 -1.38395491605938 0  0.7315621429228152 -1.393865212689009 0  1.00852535116219 -7.13308996220968 0  0.9594890346940321 -7.120941684421796 0  0.5353522511862465 -5.727127148183296 0  0.745194476945251 -7.717593403263943 0  0.7778442475950627 -7.684840840388413 0  0.713992977633259 -7.748409535896863 0  10.31547849144759 -9.294780213913448 0  10.2675891871759 -9.022922684196867 0  1.110352968290908 -7.153931208832818 0  1.059078601966608 -7.142675594817765 0  1.257865264196347 -7.807693125857581 0  1.405179313955834 -7.124361910508894 0  1.366123117449579 -7.166200252845314 0  1.347393650668046 -7.10990253200851 0  3.410162351851611 -0.981384251004207 0  3.352353454781717 -1.075599417922503 0  0.3759922242789173 -7.843614936695816 0  0.7726861504347546 -2.551350143179671 0  0.7516305758836417 -2.590419134846594 0  1.676430601786592 -7.936489817565152 0  1.639794037182767 -7.990697323351075 0  1.741811921544741 -5.978933850391399 0  0.7745804962596736 -2.628266260110755 0  1.1618281323431 -9.491185063082181 0  1.133785004052541 -9.533431012329963 0  1.189838051857407 -7.931190324166098 0  0.2616393477129968 -3.610953948238134 0  0.5162743903862381 -6.001020555150697 0  1.189592400344157 -1.345263080172527 0  1.21719074759746 -1.391747882087371 0  0.784158430869228 -8.492604424326043 0  1.005571084424403 -7.919329370163814 0  0.5858416242843454 -8.424254336981729 0  0.04708167949418396 -8.492779511319428 0  0.8546335994904002 -8.435970288610649 0  1.831681355202848 -7.715994060982133 0  1.792887220586586 -7.772898890033554 0  1.22322584804326 -5.18848453946428 0  0.4864714593190023 -8.98858210426369 0  0.5485363687451361 -5.660840531187492 0  0.8447768603995733 -4.916962427889088 0  0.8133004995523905 -4.955563005988556 0  2.211163245447121 -5.771280222014659 0  2.163722989207248 -5.833780444217049 0  1.723617776871286 -6.988678774078521 0  0.3180172085162738 -4.822833461876614 0  0.298399216905068 -4.850376198086797 0  0.554794115941565 -4.817528857584607 0  0.5787317507357734 -4.611937794890477 0  0.4327341893285475 -1.210786722789512 0  0.5611997355822371 -5.098854239089635 0  1.326937457559278 -9.408695650282196 0  1.296761728595142 -9.453470894649767 0  1.160224206865728 -6.75037449484608 0  1.108365164743523 -6.739568108356865 0  1.422677236739879 -5.253501428924316 0  1.397054224069951 -5.202989363175773 0  0.7225833797293291 -1.886886508498657 0  0.6795350457362872 -1.892712850834299 0  0.6625803500683602 -1.930453388880253 0  2.123434120117546 -5.229588310555823 0  2.078991791702265 -5.292313484561021 0  1.26898481387334 -6.772803069212355 0  1.232489270531365 -6.814151812488749 0  1.213945689836105 -6.760884094741902 0  0.6673606814352517 -5.896869920324155 0  0.6270409012853619 -5.885688569975947 0  0.6144681308212139 -5.531352172533249 0  0.5888331242426137 -5.56207480883355 0  0.574801159495161 -5.523895690210996 0  1.994784970705483 -7.48126251982881 0  1.953849751510404 -7.541441847646379 0  1.666241028025841 -6.27700799863401 0  1.64225296119546 -6.200796281018539 0  8.719470595255334 -7.745882118345917 0  0.3811033670183122 -9.85658703930299 0  1.917232933192018 -9.726086774281557 0  1.845912374760719 -9.72479693263965 0  1.502929527036546 -9.317823763309528 0  1.469828777099833 -9.364349141606901 0  0.4124232093968843 -2.625941147208548 0  0.4326667742941233 -2.655986313230345 0  1.824066656981506 -6.771149950129186 0  1.788501936344648 -6.825484901286174 0  1.755963085897806 -6.760295289720173 0  1.088403306419602 -2.506574000953991 0  1.115065573150968 -2.549620354517577 0  0.9614576578480687 -6.883677247213784 0  0.9151143501611791 -6.872127601034443 0  2.548029459878592 -2.891105381960278 0  0.9146590900295681 -1.743721470305854 0  1.211304241584786 -7.322041446820242 0  2.87118940865377 -1.203679507828809 0  0.8492443068833637 -7.059701697097548 0  1.634541309484902 -4.958043618963881 0  1.065336345601263 -4.246706639028798 0  1.039884279225245 -4.289595479839177 0  0.4242910892601213 -6.689268146801737 0  29.16174828836743 -3.956823588947142 0  29.42994271519049 -4.237761086500369 0  29.12058584751464 -4.264443494460765 0  0.4668612301258079 -3.267331471954301 0  0.4476397989399015 -3.29796062266509 0  0.9563494628086069 -4.41369744034393 0  0.9295627664769661 -4.453999538294756 0  0.8155976693502325 -2.472752588883791 0  0.7948767682716618 -2.512661200550073 0  0.9896590396003049 -6.672897041803961 0  0.4220959808596341 -0.8362041282517279 0  0.5019114486526881 -6.443789473033345 0  2.62302499676484 -8.097353817149601 0  0.8733007233238101 -2.861379938171397 0  0.8499168850698879 -2.901453281346721 0  1.087470400652936 -8.082362093714263 0  1.037636666051412 -8.064625546147742 0  1.223220482913121 -6.132341028513704 0  1.168460463423433 -6.124004156032525 0  1.315165653102401 -1.53701774511069 0  1.343923546939477 -1.586160126096919 0  0.8139478397265947 -3.659769568538419 0  0.790549198639555 -3.69694386901347 0  1.225979985436993 -4.161115037267206 0  1.205702972365327 -4.208528172966044 0  0.3597182658676825 -7.775234802664939 0  0.191492567479612 -9.978691276625778 0  0.4934089613811139 -6.163562714882636 0  0.5036463500866617 -6.200386429626567 0  1.699567026529637 -9.232201088032458 0  1.660382977693626 -9.28369327408234 0  5.484260200952878 -6.34350640033265 0  5.415547438969178 -6.47637940123851 0  2.938765996098084 -4.84332405829189 0  2.886027017511509 -4.920742097063521 0  0.04889367765947128 -8.156591540055864 0  0.3323252732657132 -0.9177311461786717 0  1.190283950110787 -5.569260945845892 0  1.826772864242123 -1.259464940781498 0  2.342835192872998 -6.962048307001956 0  2.297090272162947 -7.029617172674902 0  2.235554398949828 -6.169839110525604 0  2.190414119089006 -6.230295913324243 0  2.156621906528876 -6.157697105626039 0  1.104146012788938 -2.286915944747796 0  1.080557685008152 -2.332671430458466 0  0.9618045004720273 -9.803668999870364 0  1.907488673143817 -9.109477228291825 0  1.492997759720049 -2.757899997166581 0  1.462649736473734 -2.810439615845603 0  1.691243089179453 -3.516463516991593 0  1.6569391884877 -3.572524297613663 0  0.5350941371637834 -5.829915072818476 0  0.283900465922855 -5.89998486511152 0  0.8119854837623119 -1.879734961366784 0  0.7669217944862741 -1.884206515747507 0  1.199938540950562 -5.712079787624107 0  1.22162712259113 -5.762004740710602 0  4.359000532316355 -5.822133083517013 0  4.435150193212845 -5.928146959906958 0  0.572281039675552 -4.435787244021831 0  0.5902559312384863 -4.471871681687324 0  0.3220736945175435 -5.184256813613748 0  0.2844287496471232 -5.179072196396706 0  0.04714786612071009 -7.932960893854768 0  1.238801424699222 -5.333178247403099 0  0.04687080567582669 -8.100558659217882 0  0.6213387356139481 -4.967514283665768 0  0.5971746495945833 -4.999292791665736 0  0.5801922753252846 -4.961415530192235 0  0.5608612048424568 -5.486494724571562 0  1.148257149777503 -6.075100489593739 0  0.6129871667524256 -8.822784312531692 0  17.260738282983 -8.127528455434973 0  2.291504863039727 -1.831390487224936 0  2.329393208883147 -1.903271196122033 0  1.205892460206551 -5.044509409589606 0  1.230280911126565 -5.093660274786579 0  0.04543748567984451 -7.988826815642478 0  1.597251936698155 -9.40754557562286 0  1.624152205814529 -9.450033986083682 0  2.133720203271494 -8.981041133754136 0  2.096307841396941 -9.04346284592075 0  2.949483573297325 -6.249587107002702 0  2.99941592443678 -6.332771237378157 0  1.729767194454677 -6.699322632738954 0  0.5643732718596546 -4.924535711029864 0  2.758749003370154 -6.421268911636934 0  2.707823824887205 -6.497034799164256 0  0.6482496571038823 -2.292786890291306 0  0.6716452853740016 -2.328330317992247 0  1.032740762383174 -1.896927104257384 0  1.010570253146 -1.940356305556533 0  2.620891706317472 -2.121159043046042 0  2.662898241018087 -2.195917110696014 0  2.252303398475735 -4.07024322581413 0  2.285698790863698 -4.142151539097425 0  1.637845703635577 -6.458467570165904 0  1.662648787250912 -6.517063720341327 0  2.051297168788949 -2.277260044693197 0  0.6067642050024418 -5.21108137668513 0  0.6219970264797148 -5.248962185836737 0  0.04861332957722553 -1.901985204408794 0  0.04550288042550932 -8.044692737430175 0  1.591656448854703 -9.505460167824413 0  2.365709340848833 -8.863599719035289 0  2.326832522050374 -8.925070773024999 0  0.04838130747399028 -7.765363128491622 0  2.298643005795142 -0.4292076426165199 0  3.429906508066948 -5.421527782262404 0  3.36928356802856 -5.510207281337451 0  2.261421689561384 -5.037438236156665 0  2.295836558420964 -5.108511018895408 0  1.76383381162252 -5.118532649055459 0  1.337178645482709 -6.147448493646519 0  1.279385889555444 -6.137246936577537 0  2.397056325717445 -4.342550774028305 0  2.435118742809145 -4.412681189047621 0  0.05302368403791391 -2.290569513200164 0  1.456177877592896 -6.163525391079265 0  1.396568632869561 -6.155767291913498 0  2.620274331891761 -8.719219036161478 0  2.575170281994041 -8.792689642074382 0  1.551286951005606 -1.938242353593175 0  1.583641672017535 -1.993032487538009 0  5.258592981931862 -3.382371136634704 0  5.330199255086566 -3.508350661202564 0  3.186210227576396 -8.410426148246227 0  3.133912688366033 -8.49300291978688 0  1.228442940030416 -9.224959691930724 0  1.19954686154273 -9.268945178221408 0  0.04809453371095351 -2.347215162250924 0  2.128129887077041 -6.088339635531097 0  3.73896652290275 -3.098599997180023 0  0.3677059392079407 -7.809385158880026 0  4.973868437416975 -2.882673510291804 0  5.041845722217921 -3.007161244554212 0  3.309754231168874 -5.599989755261124 0  3.25165923948412 -5.687325155486835 0  4.110615417491648 -2.508726719609158 0  2.913551536662666 -1.112567817892091 0  2.89035716211245 -8.565097905724585 0  2.842990095473205 -8.642173686606966 0  0.04734372073847837 -2.402355557895392 0  3.16047250787552 -0.7290418129453951 0  3.208680076101716 -0.8159420372929667 0  1.880442296341828 -5.994813638311822 0  1.810388331850184 -5.986286670588162 0  3.513681024376314 -8.203403007684436 0  1.157148058542054 -2.283724977493945 0  1.824557796532741 -5.866334622892269 0  3.680603702358042 -5.057549952383824 0  3.616995638467763 -5.151556705909493 0  0.8624124866490348 -2.469560886648024 0  5.061724576175715 -2.277466639671926 0  4.987940103293319 -2.400204475462951 0  0.04689109082413268 -2.458839307938244 0  0.2905658783354426 -1.771505445121043 0  4.729346849546399 -6.136208993592339 0  4.671296821468909 -6.257248924899239 0  1.488122570090692 -6.665077440436115 0  1.465960417326579 -6.606027131200149 0  0.7051418009177759 -4.976159869891705 0  0.6639774704445074 -4.971422389116573 0  3.830855893327138 -8.006651373244287 0  3.779200317859132 -8.104272120238003 0  4.944815298842407 -8.342577399406181 0  5.019578622573471 -8.460912615989233 0  0.04617345600581757 -7.48537758497553 0  0.7917254606743445 -9.24900924406435 0  2.025479354910209 -6.011300774274247 0  1.95210036397965 -6.0022565640188 0  1.059559745347991 -3.992060189172642 0  0.3002159649647762 -6.956358776418691 0  0.5310222664674669 -6.940483632843272 0  0.5644842037283286 -6.915073783515724 0  0.6306536897938528 -8.477161697354006 0  0.6251804495773712 -0.5286014723408936 0  0.04806827790294932 -2.570110576433203 0  0.04693618192303006 -7.430073892825716 0  0.8061052591648128 -6.930192773107981 0  4.186338959705967 -7.79332234505683 0  1.287172896289789 -5.09777927765113 0  1.25583430122289 -5.143077656932708 0  0.4297000806313385 -9.06436555509333 0  2.381877918426028 -5.794850803532698 0  2.332738221514965 -5.859209419126859 0  2.289705000541709 -5.779948573184989 0  0.6316774465262522 -4.475755605794513 0  0.60875426176964 -4.509824357926174 0  1.312776451691791 -4.713087999562742 0  1.280786578244236 -4.760963535728951 0  2.377897873070767 -5.116514856829671 0  1.598687924383926 -4.324851142651514 0  1.562577125071087 -4.378653169833742 0  2.570612103353408 -4.836215424732027 0  0.0483980837131881 -2.682019429465043 0  5.651298791828522 -1.096291161930513 0  4.736893850839554 -0.3698955919306739 0  4.674759475647871 -0.4951318066270911 0  2.308192117049368 -0.6856957488895583 0  2.272412672483453 -0.7539750760925514 0  0.04771129289684595 -7.318435754189963 0  5.479492965332456 -8.712116121105257 0  7.036544599002371 -3.244792260897753 0  6.969526139184143 -3.405345590443796 0  4.841764025067894 -7.52456924188369 0  4.778346972629596 -7.646835375730622 0  2.494673130994649 -2.970246464499531 0  10.52056777804661 -7.683767920217873 0  0.04771129289689924 -7.262569832402256 0  1.741860362838068 -0.2976144738712083 0  1.678512797026382 -0.3047373465396355 0  0.7551229936129786 -2.744476712638324 0  0.7781675815587938 -2.782980947962231 0  4.752964633367071 -0.844698439191462 0  4.686511722944115 -0.9623294505644129 0  0.04771033452759887 -2.793254551151708 0  1.265594959664913 -9.498955641314803 0  1.214294946973462 -9.493910537173608 0  0.04985751341088474 -7.151530080117612 0  12.91718229048048 -0.8711152357688743 0  0.471545220034649 -6.60610321674453 0  0.4348543562778815 -6.594536988905357 0  5.717017811245459 -6.910824292480852 0  0.7040098336468326 -9.320271485026362 0  0.6805002411604697 -9.354580378650287 0  0.04839449818377872 -7.095517034885186 0  0.04799189249959745 -2.847093506978813 0  0.6676633805183592 -8.271300302213605 0  0.6761851298365116 -8.309627461026066 0  11.87284541141046 -0.8080997883974739 0  0.04697520517541776 -7.040014523817204 0  18.41320914336746 -2.317226201107062 0  17.94341665839174 -2.287930367057137 0  0.04722143995339501 -6.984134177068832 0  0.04857401218262325 -2.959448482625975 0  1.651722610684818 -0.359740893434557 0  0.9590032465795417 -2.467084905935633 0  0.9101991578880266 -2.468973813911181 0  10.18260852352934 -5.885058280876295 0  10.29761058596794 -6.11566798861547 0  0.2631912966435834 -5.833147944082812 0  0.4907601880088155 -9.27479523489254 0  0.9205341525770656 -2.861472175548371 0  0.04822235367871031 -3.072178145414669 0  2.345793581673977 -0.6151980537871999 0  2.389363863047603 -0.6798847429394952 0  1.189643538546534 -2.502078736017316 0  1.21392975803672 -2.547804362278581 0  1.165013460823003 -2.550601980745868 0  0.4862187795157897 -3.233725479787154 0  0.5052178279471065 -3.26544439464331 0  4.436739385690416 -6.727519872923428 0  4.512105197793396 -6.836275633385685 0  0.047739738072341 -3.184020323175844 0  1.404964564396023 -5.105604211574896 0  1.372199058273296 -5.15272245516834 0  1.345491792508842 -5.100078416203813 0  4.869635462128176 -6.122474583002871 0  0.04688117697086724 -6.817960303032249 0  0.7173162019373525 -4.481879480234011 0  0.6738831540995811 -4.477754329685812 0  4.990278254283258 -5.866398879562145 0  0.5412237583660424 -1.09059856429348 0  0.5286264527261935 -1.12562534644374 0  0.4386361965338494 -0.1976556900513629 0  1.526754342820112 -5.114094474740417 0  1.465521084677992 -5.107988101606818 0  0.4026496519318972 -4.131120272027756 0  0.04750688859705576 -6.649739520027985 0  0.8084101112083513 -4.485963381376154 0  0.7626408389398929 -4.482973371978792 0  0.7637300790665336 -7.484509949481112 0  0.7314865442224718 -7.516603124855816 0  0.04740527592340626 -6.591321867357735 0  0.04752161904715457 -6.875357011733312 0  0.04691664616817803 -3.410295371293741 0  2.549911563837508 -5.128174829984791 0  2.462813531868511 -5.12223203623673 0  1.12463191876866 -3.529214180174824 0  1.694421564550389 -3.29533241242027 0  0.04559694748108711 -6.535313128304697 0  17.48073897222162 -2.373610612669556 0  17.26856985977954 -2.73001272033372 0  17.03586064849844 -2.372450757459596 0  2.727239101582942 -5.14355558314136 0  2.67722589261513 -5.213940846399103 0  2.638144725962739 -5.132173212409725 0  0.5870808926943827 -0.4626712475342014 0  0.0465729790316729 -6.480304110108971 0  0.5327263868823486 -5.412746444491431 0  0.8350121241746766 -3.622329911110849 0  0.2842585835536866 -3.150181605357182 0  19.37444700937042 -2.404920819925765 0  18.8956215316648 -2.383834003028679 0  0.6421309454271089 -9.763243811344424 0  0.04964024069212236 -3.521131705335643 0  0.04617682832018488 -5.253983417903305 0  0.06740959558422688 -5.228569208175291 0  0.05167417187670509 -3.633760111207713 0  0.05199716207535765 -3.746007790908253 0  0.6351922267855628 -1.44398435527805 0  0.04511350052893803 -6.257298227901199 0  1.726780002664754 -3.458138280646519 0  1.759325127144397 -3.516501454013755 0  1.139351792641154 -2.595345980778841 0  5.483706690004039 -3.520337877107568 0  5.403518198740732 -3.645314811382936 0  0.9960967001564853 -2.822550397350414 0  0.9710364621121705 -2.862992330309099 0  0.546241928498846 -3.265841306454077 0  1.157973184642813 -5.613422547951595 0  0.5699023350069936 -3.230696258976233 0  0.989774927006259 -1.984483709806178 0  2.555560037738433 -0.6729933675524613 0  2.472064001542812 -0.6781181121791704 0  0.14563045046269 -1.267179145724427 0  4.908045127141033 -7.39680460984607 0  4.984319897445589 -7.514549952389984 0  5.078296266662068 -5.980948637059638 0  5.160703989609713 -6.099737042277297 0  5.013085377164462 -6.114413526767965 0  2.601006751788669 -3.295682996059311 0  0.05176016873248912 -4.074888657987628 0  0.3193768780451904 -3.03268736924802 0  0.301509198630308 -3.062111851037241 0  0.04808267962659762 -4.244127169173548 0  16.02778015043079 -0.307778384525383 0  4.314726699999385 -7.782713904082258 0  2.683427841071225 -0.5953631676248454 0  2.731816507183666 -0.6722338187035453 0  2.642346066175897 -0.6760082096624185 0  0.05076000514877244 -5.747712057058534 0  0.4406453992353896 -9.776738127931829 0  5.467390107702425 -6.074357889893171 0  5.312270712247599 -6.090927241858203 0  2.606758385675114 -2.637080878179386 0  6.124398744976943 -6.026358416794597 0  5.954377865352512 -6.033599236795986 0  0.04799763920228273 -4.134433919971251 0  0.8031300593802513 -2.980652516997314 0  0.8255630350340866 -3.020892978549804 0  0.4175646204515679 -0.7458544215754497 0  0.3824109097331405 -0.75526267922824 0  6.378156018569207 -5.870333054043412 0  6.476769250110541 -6.00119506651514 0  6.29873545317059 -6.017083988031416 0  5.788418000987431 -6.049026137418496 0  5.626454604805721 -6.065241053956713 0  29.68654576122257 -6.279137642816041 0  29.68654576122257 -5.921994785673184 0  2.493285827632247 -1.891624123676329 0  2.413047761245688 -1.90196121789984 0  0.04537741593786393 -4.525139664804467 0  1.11898768926903 -4.247999680477809 0  0.04475777554636906 -4.58100558659216 0  3.625484295052695 -8.195030840950231 0  0.3579635082466961 -8.144466741405926 0  1.818958283015622 -3.513840981871688 0  4.83957419952667 -1.659234125300695 0  4.912250031318688 -1.781095074547165 0  0.04627689961530379 -4.468907238006638 0  3.6198428602102 -1.696258600545832 0  3.088310396498599 -4.291994135847954 0  0.7456765423267733 -9.323325011087793 0  4.235152948809251 -2.514428358992268 0  0.04690428477898756 -4.636558488360964 0  0.04988020720777087 -4.75002329552312 0  14.98854173449593 -7.203389861092353 0  15.2367364745784 -7.520776192767174 0  14.84440078240974 -7.554250975229241 0  6.841866759019581 -5.968516236905738 0  6.658420055615167 -5.99577849641036 0  1.976425113066856 -2.40536276764574 0  2.012976548569981 -2.468879700867636 0  1.187911603048232 -4.90212275932394 0  1.157362339477043 -4.947875278577603 0  0.5577571000018331 -4.330612150043864 0  0.5358960092737597 -4.364292867845824 0  2.528700321025504 -8.867026512021608 0  2.448025922378589 -8.863141365657974 0  16.0175512749413 -7.432609396164121 0  15.61108750853817 -7.490874007906213 0  4.746198845697846 -0.6101192780164943 0  2.915379571566795 -0.6640594084406422 0  2.822826381633829 -0.6711698045229548 0  29.69531250213583 -6.983732320909513 0  29.69531250213583 -6.626589463766656 0  0.5840173225073837 -1.757851904219837 0  1.207238420233246 -2.279861192893777 0  1.1825951218642 -2.326965597725008 0  16.61418575714779 -2.370464254116436 0  16.39979349379435 -2.727982311677714 0  16.19028771488577 -2.369593700670391 0  4.364056560863819 -2.516060244512439 0  0.1117924484943771 -4.552306027401747 0  1.008945329932327 -2.465868563760038 0  5.139439216188855 -2.149736356618019 0  5.210156622044106 -2.276183613353832 0  4.820538185018194 -0.7262722871906542 0  4.892014174193033 -0.8414550516977943 0  1.404278376458553 -2.914484360584249 0  1.43468364909333 -2.966317715327345 0  0.8583238070347328 -1.875522333465666 0  3.420721689063008 -0.8046949316396041 0  3.31564939280241 -0.8108769530423148 0  2.193173135714876 -4.897268677761314 0  1.919213917820088 -0.1760103653216714 0  5.80710814993699 -3.523011182233785 0  5.721515245035349 -3.659008331947535 0  5.642618538559848 -3.52130487757419 0  0.5146483052347897 -0.1973460799919344 0  7.232807279709311 -5.935762064782796 0  7.034535466060931 -5.95704433410173 0  1.319938402412516 -5.050661034057685 0  6.144990225359356 -3.545179758629021 0  5.974668345100925 -3.524127341135827 0  4.632554959237169 -2.513162866890447 0  4.49734468198978 -2.513507521497662 0  2.218599254581036 -3.859528017008254 0  2.175354947367234 -3.925815091242036 0  7.628144305623452 -5.89304894980406 0  7.433883784588758 -5.924554733861859 0  5.281616586561647 -7.499222875328941 0  5.131944283311515 -7.511099354847458 0  0.4095600166808726 -3.3606474864291 0  0.4276089356445922 -3.392885319944406 0  5.592540225356842 -7.483198827919694 0  5.435501263841701 -7.49435534381848 0  2.981719007228399 -8.560126474847776 0  1.321171104590695 -7.345816823471089 0  1.336520476962232 -7.397789669883293 0  14.21819586239768 -7.235281024617771 0  14.45142743249859 -7.618348673059756 0  14.073417252569 -7.616765054123107 0  1.78456857647495 -5.92092390870298 0  6.499619553749298 -3.561501630135547 0  6.320108471101998 -3.548729399081903 0  4.576079496624278 -7.769812076145817 0  4.443801881938949 -7.776078122272658 0  5.918828827346761 -7.465922602503774 0  5.753938396683161 -7.478111315873334 0  6.873471043195622 -3.568224362085723 0  6.683587975612319 -3.565058428936696 0  5.363631107225046 -2.280101972696758 0  5.285916467211905 -2.407832255750664 0  2.705244937292409 -8.716706424701343 0  0.8551132344746417 -4.488881773501124 0  0.5236753678408661 -9.811968264705449 0  0.4902637728265855 -6.710807021831891 0  0.4992091978690745 -6.744982900996352 0  0.5274943293475012 -3.553522722642856 0  0.5473603523255512 -3.588121648055226 0  6.261325753581456 -7.447320715180274 0  6.08815960897409 -7.460824540329707 0  1.258069417655314 -6.087643414240192 0  1.466692256298678 -2.439753027109216 0  1.408249733903826 -2.440934568877204 0  17.71070744711064 -1.930368404183013 0  1.38201165308846 -9.409366849614086 0  5.679593111504261 -2.284988366592347 0  5.519148883534447 -2.277767725037574 0  0.6469950961752087 -4.933545127643072 0  13.68122034232715 -7.548381168118857 0  13.33468619573773 -7.56716537359941 0  14.98368803319385 -2.358179331865242 0  14.59859761813749 -2.356757116471166 0  1.161771991563837 -7.167384343989949 0  6.619411996550463 -7.41675492165104 0  6.438371745796781 -7.441676753663717 0  6.996051839184528 -7.383372308864353 0  6.805507069633155 -7.401112033907795 0  4.770269735246249 -2.514898836297494 0  7.39339809699594 -7.370266180341459 0  7.191806940276378 -7.374905033998735 0  11.09477093181302 -7.65614753222793 0  10.80448695717916 -7.675697271134767 0  1.059868835814402 -9.572658306391586 0  2.21196943076761 -8.976740956458473 0  12.98901736693207 -7.574024505445372 0  12.65148467201237 -7.596373256526977 0  15.77619993251989 -2.376216733563041 0  15.57738859323347 -2.702638744381777 0  15.37769307422102 -2.35174371971315 0  0.4759324967392349 -8.879167452415027 0  0.9025719662270451 -9.641309256219476 0  0.6410029357426126 -5.496469209774128 0  0.6550349004900653 -5.534648328396682 0  7.807962894666208 -7.360304683393589 0  7.597727323270018 -7.372764837330479 0  5.816393263933666 -1.10005902652028 0  1.373624811684488 -6.100868120571003 0  2.201009195110789 -0.8893772946266516 0  2.243004309903881 -0.9550570110260281 0  6.009319525914332 -2.290009628898204 0  5.842469529930247 -2.284848678421339 0  5.10716175683973 -0.7208919410821473 0  5.183463820277986 -0.841185291974873 0  5.035889789282411 -0.8433222505897122 0  8.247495819137276 -7.339389200240722 0  8.026276564752507 -7.355052219958766 0  12.31603198259529 -7.598340790291572 0  11.99571810176834 -7.620777996293067 0  11.68544296904874 -7.628022662340746 0  11.38541760853509 -7.645278435895336 0  8.705486659513621 -7.313499959172372 0  8.473723914753391 -7.330872234410744 0  5.639708661094087 -8.702569055043453 0  9.523685813377835 -7.070114675320466 0  9.664790145297784 -7.283486199340117 0  9.424620043230021 -7.29521305346506 0  3.68344528338627 -3.948328819081111 0  1.033697091672639 -6.285063808984821 0  9.176389045711273 -7.29939558286468 0  8.941093277417648 -7.310346084775164 0  0.04544110387583622 -6.312718214972248 0  0.7476541425160192 -4.979288200614574 0  2.426775951882343 -5.048074004895054 0  1.981806167295035 -9.110991475678812 0  1.560852812680974 -9.316127190649732 0  0.873138766423283 -1.379562812518127 0  0.8961037337945612 -1.339102478336705 0  5.800816982537508 -8.694861018309259 0  1.516910156216493 -6.171655396143155 0  6.354140603305286 -2.291379705284698 0  6.180809763522785 -2.288258701722857 0  14.24135256769993 -2.359048169615594 0  14.04436878627032 -2.660265147444905 0  13.87702044914839 -2.343992017316764 0  5.981340562786684 -1.09698076185077 0  1.588568716517369 -3.681596255280213 0  1.61939265161736 -3.738564437579325 0  1.321429634172224 -8.540223078639752 0  4.740818484914112 -8.703965492930973 0  4.673555559707669 -8.823148256740421 0  6.719887218922484 -2.295172383214635 0  6.625150715486214 -2.443435684527778 0  6.535377583301912 -2.294492504967409 0  6.096149889136477 -2.141754531464193 0  1.116577515456918 -7.814596557801907 0  1.155862007711082 -7.77671290388492 0  6.138185242162265 -8.685312840269713 0  5.968724269502642 -8.691861436519719 0  0.495173534552082 -9.096450694367345 0  0.4608854039905044 -9.079552911126889 0  6.767261586491088 -8.522449369841835 0  6.865193838063405 -8.666061740127635 0  6.67577079945033 -8.676895811886073 0  6.398635733497084 -8.536079353385976 0  6.492236971186401 -8.683170424041302 0  6.313034156805472 -8.685966335827004 0  0.2805609356755863 -3.559287774219171 0  6.238450079532001 -3.391089686117406 0  6.235169993927434 -0.9488738876388343 0  6.322452876618563 -1.095662279536227 0  6.14969407660222 -1.098028118050768 0  12.81986163609017 -2.36858558108595 0  12.48881132166953 -2.357583558698629 0  0.06925690532543882 -1.524144799544109 0  0.0432008254059788 -1.50964047233728 0  7.105496626359186 -2.300866661667786 0  7.005904080035254 -2.452054200595895 0  6.909252897430719 -2.292928023846896 0  7.272712395635474 -8.695036071209252 0  7.072542909286224 -8.694144371839743 0  13.52666227147863 -2.312286372936229 0  13.17918089192826 -2.313441402791044 0  7.509628064908845 -2.292551003558798 0  7.304902828266349 -2.283197426664223 0  12.16291039523941 -2.348013394955772 0  11.84312469834097 -2.3352815804199 0  7.558807324018931 -8.492160454422944 0  7.671189708445141 -8.653638309318886 0  7.469405982228876 -8.674876551718357 0  6.593133418482424 -0.9394740883240811 0  6.688138518694142 -1.088756433833439 0  6.502933894155497 -1.095790394633651 0  4.968316237631289 -0.9617484025905201 0  11.53357258299519 -2.3393423205035 0  11.22961003763923 -2.325741742639351 0  0.4270793359527563 -2.595011223478795 0  7.932410755393956 -2.295090350057903 0  7.71852826894821 -2.287979951787488 0  10.93895386746291 -2.321184322043869 0  10.78975088582586 -2.566582131004019 0  10.6532279580208 -2.314916227766866 0  8.374288284110413 -2.309754052511817 0  8.150900886224527 -2.301329000615426 0  7.065635705491073 -1.081788435957614 0  6.876983394492107 -1.085202694845333 0  8.833752830453289 -2.308463435081931 0  8.605118700988399 -2.307483036030987 0  10.37104008272312 -2.326272735882756 0  10.10500922124985 -2.322035617512522 0  9.842280743341162 -2.337312059729522 0  9.713411697952727 -2.57791409121363 0  9.583729187856672 -2.363386350956605 0  9.329088348251339 -2.358875061662782 0  9.199133226154999 -2.557860036541074 0  9.0733614319381 -2.312746715763143 0  6.819479765246417 -2.143984844286527 0  3.303188049642479 -7.449996182762822 0  3.253871520929451 -7.540759447418893 0  10.67424916772486 -7.925016435621357 0  7.347173787740738 -0.9274098386743503 0  7.457792790819101 -1.088243152012922 0  7.266261668097366 -1.086444923087001 0  2.4344625369182 -0.7486158072815297 0  6.417457976830281 -1.244944625045584 0  7.763919809889765 -0.8910314076619166 0  7.885709947751225 -1.06029424079727 0  7.660495048323934 -1.098470900735624 0  4.555245961811647 -1.194664622268518 0  4.6245172303076 -1.309198924683892 0  0.3125018840743259 -4.103815922157698 0  0.3301253359799663 -4.134580197372201 0  5.889030278243242 -8.83474999715729 0  15.18249937248028 -2.031757321046506 0  5.557691042491175 -6.20646549521098 0  8.334502597596455 -1.083055045866164 0  8.108139639067947 -1.065688546718786 0  2.008856421996011 -8.678401384987676 0  2.048243568659576 -8.738137580104135 0  7.176254708569436 -1.242621749296185 0  6.223011976518279 -6.157220429266324 0  6.231786479851582 -8.832403910925041 0  8.556078990527194 -1.088736801525228 0  13.01396861940038 -2.034507929021288 0  18.6557975215781 -1.91129596049221 0  11.69329539535628 -2.074572519914081 0  9.457957393639774 -2.118273030178674 0  6.981052122245465 -8.84859081388398 0  15.46694655645199 -7.841735122043103 0  13.72364605290824 -2.011069395106918 0  7.385094780061685 -8.856513926105194 0  1.157746833119578 -0.2012353054644294 0  3.009135520902756 -0.6559883941688458 0  0.2502329407238335 -9.333078913823435 0  7.104552059259587 -7.554266204495549 0  6.95331900276253 -6.125640957489574 0  11.84973683302114 -7.887962927825384 0  3.352302821701731 -9.534905387009731 0  3.246763325894012 -9.528847098556074 0  2.956733238019865 -6.086365421998259 0  2.905255299570314 -6.167687750192766 0  1.24065120664147 -8.629282036357063 0  8.83365576220845 -7.520103510681158 0  2.436636362252788 -6.976965915765307 0  2.1332923382031 -1.56887943871925 0  0.6489909363049016 -0.2216782212892117 0  7.769698262709272 -6.045838520062732 0  1.589989911145469 -8.151987002483329 0  21.93128835230686 -0.3925761065673008 0  13.23577522695892 -6.430176355722261 0  13.27921521734141 -6.060179194643659 0  9.958212053172563 -5.41661253743477 0  1.086947288627934 -5.930129114711462 0  1.362926562483766 -7.714664795914527 0  0.742729201026556 -3.774260988151256 0  0.3929736131073014 -9.744826085894136 0  17.64964061921144 -3.445387081393055 0  10.52800321870186 -8.630802919518224 0  0.1863382798627526 -7.926938316064115 0  0.1096269168474571 -0.1317974908889203 0  3.460368457250965 -7.169280364838646 0  0.2095964263772885 -9.279598023402816 0  0.180816132879146 -9.267135116021938 0  1.096047833399993 -1.724142143464624 0  1.070340758565628 -1.673323179979332 0  1.899038080794849 -7.719476770244857 0  1.065237987552159 -7.623172774096355 0  1.342389687598544 -9.135352817874983 0  1.287983328737003 -9.135793041773926 0  0.09603171903137309 -2.986332649589595 0  1.244331760485574 -4.906642887849363 0  7.066144325365753 -6.287193535056787 0  0.5293777798521866 -6.416062393051686 0  0.5466159491402074 -5.449476226545937 0  6.926718288568612 -2.613058245834302 0  6.725056317348162 -2.598332372819537 0  0.3893344061969657 -0.05035702751073856 0  0.3723800778913358 -0.02296718749960647 0  0.07296500944098128 -8.925815231500259 0  0.298057276616035 -4.473538211605595 0  0.684575154807094 -9.01754749633476 0  1.620741903059312 -5.547384875365216 0  1.647708144930544 -5.606629849599109 0  1.076559731534942 -1.762296310025087 0  1.06060768211132 -1.81136568611199 0  1.033763846015919 -1.764684147018971 0  0.6626928981455826 -8.451734278543176 0  0.6956369745728637 -8.424819030109051 0  1.268951433992871 -1.391174503556728 0  21.66555438149896 -7.515108551759175 0  21.41987071627341 -6.999979969398407 0  0.3897763871060196 -0.2273222450033003 0  1.43633453280337 -6.815731555733588 0  1.665521594149705 -8.046792788041429 0  2.109741228372325 -5.360495627578858 0  1.760788925248228 -1.145893483072093 0  0.2215403733936192 -4.765514345192932 0  0.2400876916759991 -4.739453108642215 0  0.5612846521103059 -5.800991210854985 0  0.5891200774670544 -5.773012417455592 0  5.431874057795188 -2.662398198978872 0  5.358195017987525 -2.529244070923169 0  0.9149600648760021 -5.324299358014014 0  0.04794890203191571 -4.355065112720544 0  2.299470011911939 -3.866730852804113 0  1.20911626824754 -1.296897998409586 0  1.98134848687296 -7.603447590553645 0  3.538042590834877 -5.428735666513736 0  0.519751281379202 -6.135429324642431 0  6.426126970743351 -9.151145962687103 0  6.32211239095578 -8.98053876010113 0  1.371282874375233 -0.2374268263187993 0  0.6116542525367947 -8.361010092873491 0  0.510299207809858 -8.894787271625272 0  0.2596859483211009 -4.906826383788606 0  0.5782956933923717 -1.485242396181262 0  1.042419516776295 -2.748319697781964 0  1.070651116733053 -2.787269873643018 0  1.020178806332373 -2.785632488703003 0  1.647571097170413 -1.991668030148889 0  4.411718616824885 -5.704212534845011 0  1.179849797608437 -5.662656963238167 0  1.367384833751894 -4.708736149658144 0  0.8344426689833853 -0.7229401635490706 0  0.7974267859548583 -0.7278889966923874 0  20.83615649394704 -4.339742211978415 0  0.3234412000753579 -2.18697637185611 0  1.664743789977097 -4.330930691604393 0  4.647638121741558 -6.82440498190354 0  1.775836518768934 -7.159851639557402 0  1.338696627567318 -1.488621165250268 0  0.6647312114153152 -2.255098083612194 0  0.02145803599731799 -9.903428775055509 0  1.094599091082856 -9.267228518641328 0  0.1073881413513575 -0.49857768952503 0  6.313961981328664 -5.502782405087027 0  6.203795920592903 -5.637888429556373 0  0.362935305160681 -7.06344247328428 0  0.3734679709179858 -7.097524309515578 0  0.1039198899549465 -8.785920041341054 0  0.1053095152803749 -8.761048164806891 0  1.118167955360802 -9.312044810318531 0  7.322744239865203 -8.180563623574324 0  3.663437893748526 -5.25003579344509 0  1.930780755378574 -7.777197411248533 0  1.963277399146822 -7.84365346762084 0  2.321434924231907 -0.952975903639957 0  0.05637737604842563 -1.983334852134715 0  0.04107114733567307 -1.957953111820682 0  0.06417314912019734 -1.957843769243365 0  0.04858039007496018 -5.921937459927522 0  0.3656858999634807 -7.321233157798259 0  0.3753720332471424 -7.355370985229124 0  0.4099713776415577 -7.457844209426068 0  0.4199447854712872 -7.493050860037341 0  1.305672760823244 -4.812159547963597 0  0.07328514794606633 -8.14105262225706 0  0.7764175747327684 -2.705642707965768 0  1.389829451268064 -8.342062616950743 0  10.84785512981028 -6.226251684045581 0  10.55834106831366 -6.165575340301586 0  4.763067144279328 -1.305370768140801 0  2.087097086424805 -2.469312320718355 0  0.1038166374464016 -6.262179265133351 0  0.09072813911357258 -6.230871095830324 0  0.5578031556906353 -6.387212178124138 0  0.6986542974888863 -9.391982861052458 0  4.492455863535927 -6.609952048155863 0  0.3531506203987416 -3.033074258077006 0  14.48633814267457 -4.34131784800709 0  0.4813002885136726 -0.1103695352468179 0  0.4727277334705811 -0.07678951904622888 0  0.7376953797142303 -0.5822573520803287 0  0.7207245664693325 -0.622246417492974 0  2.235757529551789 -0.8221203092907388 0  1.356736639748807 -8.390322959410222 0  3.607013234833548 -7.625663675648503 0  3.555584033838972 -7.729898699016974 0  0.0246416702622021 -7.553978351118858 0  0.0246416702622021 -7.581911312012712 0  0.07327839183968621 -2.333127760780076 0  0.07347566148160034 -2.360456116554557 0  2.817862516445832 -7.953492497647423 0  2.770874676387097 -8.030089399319905 0  0.8321127231552126 -7.49981663910472 0  0.8264517476330084 -7.448099420047077 0  0.2776062733013411 -5.58053354749439 0  0.2622105802884995 -2.106318155581754 0  0.2953504657854005 -2.101044555285015 0  15.30314752139806 -8.137968829846804 0  8.344233939644631 -3.086406531058738 0  5.114414927120535 -1.204149363142099 0  5.039941702283338 -1.078609677190291 0  6.955356278222101 -0.1572497822984271 0  4.907057941310928 -1.538111282298201 0  0.3176932079737931 -3.091230061616686 0  2.013117179044491 -2.34282205441724 0  2.705100114521576 -8.101109368582424 0  2.659360455508864 -8.175156254660717 0  0.586018339314343 -6.357240491060246 0  1.322459119117816 -8.58948355866597 0  1.334604510269356 -8.641031037569249 0  1.288464613215233 -8.636847884386817 0  0.3035554017473281 -1.740575238967684 0  4.014843113097715 -3.062165517659593 0  3.965928576352576 -2.93248669382311 0  0.8261641968047364 -2.941191554085628 0  0.1231193106565946 -0.3034277957657405 0  15.27199244820956 -6.517466594406383 0  15.39904124202456 -6.175007472379541 0  3.401415602540681 -1.372954880816131 0  3.325795066300099 -1.457151261335829 0  1.083136678876279 -6.293004861076227 0  0.08674686737566439 -9.929310460728576 0  0.1002255520217687 -9.956789805644719 0  0.03929771772016011 -1.565489172226144 0  0.01786340030963984 -1.578212290502798 0  0.02143431741052026 -1.551522691779211 0  13.9979528055949 -6.916817452329403 0  0.5869141049029594 -4.89195456410363 0  2.555759109312945 -9.943772603065709 0  29.60372790300749 -5.512369147178273 0  29.60372790300749 -5.155226290035416 0  0.08694328141432806 -8.068501502781888 0  0.1056063673877858 -8.044864113199928 0  0.4278833326826366 -3.328960399677083 0  1.271539630756038 -5.287942662978272 0  3.407050878066507 -7.446759423798009 0  1.433857090860929 -2.862854246027041 0  16.51123293773782 -9.640022592817047 0  5.053022027410638 -1.781616744187801 0  0.3661023388392461 -4.134450156222265 0  0.06468374523824849 -8.396974873637589 0  0.08941939080002648 -8.411973504106953 0  0.6651705894471256 -8.066609098622081 0  1.351809401364539 -5.004208426092322 0  1.384420458355619 -4.954860798248975 0  8.078744165429534 -9.01421426582808 0  0.8668917259746038 -8.272026938985801 0  0.04480000432807074 -9.606412952124476 0  0.022745362973696 -9.621008882732554 0  6.509447173734323 -5.562756933530251 0  0.5792567010932252 -1.079910966379608 0  4.747966363365725 -8.931286962382416 0  0.1030621708295492 -0.1616145336034922 0  0.5536893896312627 -4.399683989753248 0  0.7863886938015767 -0.02881201839530512 0  1.62154075549962 -3.626533152485059 0  20.3592383986 -6.904058760223474 0  1.181414651844126 -4.995946762925064 0  3.3959961298102 -8.027837705347858 0  2.209783654122326 -3.994628377213428 0  1.3186753927755 -9.502077989856616 0  0.09125743663777186 -8.018179935858406 0  0.022745362973696 -9.648941843626408 0  0.3313812342975524 -4.074672061058578 0  0.4137874260513925 -9.85953012923834 0  0.5237651570848758 -8.724048559621671 0  0.02143431741052026 -1.523589730885356 0  0.5123465395468116 -9.639274778140539 0  0.4746106176286311 -9.634405721870678 0  2.227009471379702 -4.967592634172091 0  2.177077172634039 -7.228114188230592 0  2.859966263317174 -6.783275616948695 0  0.7035054135163854 -7.705655895201843 0  1.300456265427005 -1.189090607824213 0  0.9877204189898006 -2.671102908658046 0  0.962880063494044 -2.630180938766493 0  0.1110858589555388 -5.156555627155943 0  4.620006278500069 -1.078540238368896 0  0.3096766417267958 -0.02325272242358256 0  0.972372800135199 -6.625755097747169 0  2.522198295661294 -0.892805236355537 0  2.477886867398791 -0.8164578526944464 0  1.773914561338577 -9.83303458893279 0  2.17177242976247 -1.635130501236998 0  1.039713385389824 -2.063756618862342 0  9.683265034337619 -1.687431811626666 0  0.07267031674878943 -0.6294893906958192 0  1.179068975791106 -7.218814834378803 0  1.194860196596153 -7.270275875181893 0  1.169627155030401 -9.965162521802865 0  2.460286387323947 -3.903222624619497 0  2.371747446385765 -3.87103754767685 0  0.05506868205524107 -4.834519922785409 0  0.04128445337600972 -4.806653623119166 0  0.8571926714499583 -1.414881832472463 0  0.8383554937713829 -1.369091129164272 0  0.3184492984306289 -3.149448340167506 0  0.3016372346879646 -3.179104167495687 0  0.021646539341166 -8.338539246259607 0  0.021646539341166 -8.366472207153462 0  0.04806959808198386 -7.539449641034036 0  0.7657455324982152 -3.736548861827072 0  10.07335704519851 -5.652655600744784 0  0.2732774836539509 -5.864838451700428 0  9.074214015197528 -3.424862623670966 0  9.18574301555517 -3.188816675640457 0  2.613200240657589 -8.866985593156246 0  0.6446383752431029 -0.8764452725268663 0  0.6091089654102753 -0.879094329362383 0  2.963358584508763 -8.161081910986997 0  2.884357063425202 -8.108947380166548 0  1.087743664412177 -6.553356514088541 0  1.121086665918053 -6.508607540206441 0  0.07900869891012618 -7.701127511415891 0  3.513814197194234 -7.258456925615286 0  0.1611685306066661 -9.60620813477715 0  2.725183120773172 -0.534942436445097 0  0.04583719307816025 -8.324572765812681 0  7.061492013379081 -3.571817028356933 0  1.873546918152989 -6.436111886760203 0  0.4660264117871584 -8.086379256910231 0  0.4985367438737569 -8.060000592253312 0  0.5275616658106159 -0.9316359686202631 0  0.5537685990614047 -0.9577336109359171 0  1.104794398427071 -4.078313501130499 0  2.23650944515733 -2.599425233763407 0  2.154279092107007 -2.591782901199582 0  0.06306454390493776 -6.243321874659253 0  0.6264217392537361 -0.4636740288327301 0  6.873475618324402 -6.298665437860794 0  0.7221164057657354 -4.334392801105736 0  0.7455622350929367 -4.290816085587082 0  1.194856930083326 -5.945847789450764 0  1.140435255490644 -5.937866706378301 0  1.016063389827524 -3.353132529792376 0  1.0632662140244 -3.353832772330439 0  3.902967971690728 -8.262524220682661 0  0.3134081654533922 -4.880392051756747 0  2.133734741476534 -7.291483650822274 0  2.532193227513286 -6.692125820951183 0  1.170516745136698 -9.312830334494068 0  0.9888198415375111 -3.310543945194944 0  2.474274151118067 -4.981543135385524 0  2.52288993418853 -4.910394900812171 0  2.029786110955929 -7.718708763665629 0  2.618370682621682 -8.242388444187432 0  1.040570159407736 -1.627020956986969 0  0.02145803599731799 -9.931361735949364 0  0.5207140659028262 -9.248620098951854 0  1.794022462723568 -1.203212541199289 0  5.974808437656343 -8.978267159881536 0  1.597660878745014 -0.4705069587560242 0  1.634329885323904 -0.5202279316707337 0  3.735468628641691 -2.084054006663846 0  0.07241306345364862 -7.303784815115441 0  1.278525660646631 -9.314862605800432 0  1.308103718117279 -9.266677648073184 0  0.3184378723573325 -3.209483530702103 0  1.45085004469956 -6.712903699486097 0  2.199543260295346 -5.56669372914356 0  2.380829713594583 -9.057096096870588 0  2.361152685966594 -8.976890496367739 0  6.142134574992482 -0.8045613357331218 0  0.8744694641747373 -5.074761759062404 0  0.247030871135955 -6.009475205337171 0  0.2220475648330229 -1.577550249676832 0  0.9715749633851338 -1.820086523089933 0  0.999907771385427 -1.858114990112971 0  0.9536709381782664 -1.86444799009703 0  0.2788337441041051 -4.879822574753878 0  0.6318109434328818 -5.396781781916618 0  0.8971403085875949 -1.789844382553699 0  0.8781312285152243 -1.832128824587715 0  0.3054722165242243 -8.192003901834987 0  2.060076469284533 -0.1834127130541781 0  3.052551150340186 -8.841393860583795 0  3.097133388547036 -8.744914367790523 0  6.858374608492024 -8.391229096070056 0  1.276965008003874 -9.7813920904032 0  0.5922379207477491 -0.9479866157319048 0  0.4604874048422047 -9.748885396158851 0  0.4803135752913246 -9.718394504325989 0  15.49420626231068 -5.841518951343786 0  0.8950349463107159 -4.773239442534025 0  0.9367887666627031 -4.80421743012252 0  1.280117833206482 -5.192603542328831 0  0.9890937448271071 -1.773963610842088 0  0.9428569116199466 -1.780296610826148 0  1.270344465112853 -7.191455230968173 0  1.215054491836646 -7.179739097202561 0  2.217697236112461 -5.971392218790922 0  2.247433819562509 -6.040078593724573 0  2.172025602939648 -6.02855392789375 0  0.02221920914497666 -9.037351032777874 0  0.04359337263097629 -9.051235373825737 0  2.024089449223585 -0.1207801041338072 0  1.984239310718486 -0.1823296186328047 0  3.985813056593374 -4.058432545843236 0  1.309718653419377 -1.287441298603065 0  1.288342048999436 -1.341246998544409 0  1.260349196153939 -1.288232713338245 0  2.483187821384597 -6.762770400339235 0  0.02221920914497666 -9.009418071884021 0  0.3876265405837422 -7.037905719225019 0  1.280183044992237 -7.981029880057047 0  1.230194045860493 -7.947565485630971 0  0.5822136315426025 -8.642912963813991 0  0.5454068309050211 -8.627080140211101 0  11.37794875501235 -1.564894541274783 0  11.52773615762967 -1.822556287664002 0  0.5861909103715099 -5.456154555885069 0  2.807210135131122 -8.107891836831019 0  4.470815192101368 -9.170527692267202 0  0.02104608069820912 -5.402979634777659 0  0.4446526621027083 -1.176462980453492 0  11.17636252211903 -8.90727007220686 0  11.28507907380142 -9.178598747066086 0  0.02104608069820912 -5.375046673883804 0  0.6161317399528272 -8.028497849479661 0  20.87690249148693 -6.947504796466332 0  7.12296201749708 -2.620996883655192 0  0.7958250009934638 -8.579548364156796 0  0.8346281129284456 -8.596023569375912 0  0.5824972767701713 -1.616407368498941 0  2.49132535738147 -1.086836046470051 0  2.575357405708029 -1.084695212480838 0  4.538890030389904 -5.691069264869245 0  0.6624330842876152 -6.745041504730485 0  29.69439013716885 -4.772690496006996 0  29.69439013716885 -4.415547638864139 0  14.37596298552448 -6.918401071266052 0  1.336105604803546 -7.796934355602966 0  6.51197065810158 -1.366439669615976 0  0.9055307086974818 -1.869813031951943 0  16.71078779952732 -0.6464225188004837 0  16.96259977691757 -0.9912048583683468 0  16.50891811210029 -0.960339108618629 0  8.722877777398171 -0.1258487507011665 0  8.610863193382505 -0.3353613341077111 0  0.02507359470786952 -6.411145957985092 0  0.02028635713707061 -8.668155195057594 0  2.848477976267365 -9.641564169737391 0  20.93963377601584 -2.469749231778593 0  11.5174380930806 -1.301966202720632 0  28.48553795254469 -6.987944884810387 0  0.7889542145489408 -8.536357485042313 0  0.163957114573126 -9.978691276625778 0  1.056733428352688 -2.376985742974521 0  1.033333767610175 -2.421461743726992 0  0.09386432222450125 -6.337189851672941 0  0.1151394358492013 -6.317883374967471 0  0.8753511758455161 -4.532030778992537 0  0.8951779037297491 -4.574767770298296 0  0.0227544187940083 -1.356419305820587 0  7.1617117514608 -3.736176950120164 0  7.25493754028582 -3.901988190239117 0  0.1742869917959506 -8.479636151978326 0  0.1487139632176717 -8.49562657222457 0  7.814947157152236 -0.7352267708072908 0  7.770252489671647 -0.5240504094630882 0  15.13565908401315 -6.869234102378027 0  0.3423141337493867 -0.8852611872357574 0  3.13891025907709 -4.682395639553235 0  12.59118059947629 -6.47750592418376 0  4.885248386523806 -0.6068758905228258 0  0.4017640886575808 -0.5830468050164246 0  1.030384168025609 -8.236709881577331 0  0.04826295425183957 -6.369105696810286 0  0.02507359470786952 -6.383212997091237 0  2.287301431850132 -8.729687435112613 0  2.963342041322157 -4.365946358115447 0  6.668951569878949 -8.402063167828494 0  6.492796500838868 -8.384694088051317 0  0.700991120494141 -6.517206588374487 0  1.060467809184235 -2.463864827390332 0  1.11279174409745 -2.462167180920945 0  0.9938020021850633 -7.871127149520394 0  0.9018839930502924 -4.492973950569175 0  18.79683882634331 -0.2942172076941532 0  18.57584334495427 -0.700060029489757 0  0.1915185822736909 -4.71490253444931 0  0.1752863190546492 -4.739498911490141 0  0.1599738139794695 -4.714337797814659 0  8.224034582135468 -3.280570465974957 0  11.41825154777277 -3.322938656203552 0  11.23347494333437 -3.559387101694559 0  0.5398602663874357 -9.21189287469236 0  3.054093069452023 -0.5650245813302073 0  12.04413238432355 -3.360928741844896 0  11.83563570304667 -3.584093760517507 0  11.73717537325872 -3.348053618316724 0  0.5753851189864783 -8.168132449934101 0  1.84172056173826 -9.834419217549492 0  1.912509430351667 -9.831440087451009 0  0.4965824551699711 -0.2743572125532641 0  3.627794705730395 -0.6192304807648412 0  3.577894287872601 -0.7097896694231345 0  0.4045431603718193 -4.69568072169153 0  0.3846903913381343 -4.659876409945254 0  2.691886848430544 -3.297380933997146 0  16.9419337685944 -9.639461569657747 0  1.565694212756902 -3.185037898540768 0  2.315107255491327 -0.8185276712400418 0  29.70811627158319 -2.331021413546156 0  0.7195222658128664 -1.191901436239898 0  2.266835378182986 -5.913612036700448 0  2.191427161560123 -5.902087370869626 0  4.137187091917989 -3.872833466237068 0  0.3006944224149439 -7.904009470112441 0  0.2769848392189029 -7.928100907732678 0  3.087572795828692 -2.977974163032478 0  2.923091349845919 -9.943397733478417 0  0.246202591308684 -6.093179516736929 0  0.2243461561840085 -6.117100895023154 0  0.9826942863934836 -7.823803591395128 0  2.045999987534204 -8.617187673531774 0  14.44991312885003 -9.052295963707513 0  2.082035160283329 -6.338483157158528 0  0.2690258223063857 -3.899921344341326 0  0.4827371792902859 -9.866739734078575 0  0.4474362722385976 -9.862356672017688 0  2.086913181709626 -2.339831260603533 0  1.401474863639077 -9.456375499059744 0  1.421090219981924 -9.50780082540853 0  1.369457518048574 -9.508018569540367 0  0.515093654369652 -6.236459873592768 0  0.525307905289953 -6.273434084786802 0  0.742806257029935 -1.237945786138424 0  0.4488689658431078 -0.7357670087217141 0  3.105223928409854 -0.6436449909977062 0  4.83652213963558 -2.636952311279602 0  4.903827716489493 -2.759425302123794 0  6.314893375008825 -0.8021954972185812 0  6.065134348760541 -9.126402009057625 0  6.15208540591761 -9.265619763334293 0  5.054192507682648 -2.522257950445059 0  4.909690628945 -2.518548529500271 0  1.248795521052548 -7.282935159229764 0  2.318760866617113 -1.51011868345325 0  1.178809419769474 -0.9349727558062249 0  2.098393303626988 -6.019653260597448 0  4.878959743366011 -0.3712643590121267 0  8.726253816777042 -9.046333439706761 0  8.500680353737138 -9.03280265832821 0  8.615273572881529 -8.842068660274538 0  1.624183326930176 -0.4161105761851474 0  0.1885621201754688 -4.763927295693494 0  0.1570173518812474 -4.763362559058844 0  1.809597111135647 -9.778829671625541 0  0.06111428656694784 -5.365484238085026 0  0.4075396292701186 -6.619262103912465 0  0.4159305467971066 -6.654365367091195 0  1.237141697831037 -4.999799248840458 0  5.270684950385601 -3.869818072791807 0  4.712084676239417 -7.767235018600684 0  2.294976505129688 -4.005421813593301 0  0.2665721203829534 -6.066680056383611 0  0.274823700632691 -6.096841863106148 0  2.534964022497201 -1.967140785631976 0  2.57727512012233 -2.040267140514424 0  0.09329181186628155 -0.642570215938127 0  9.56783346832637 -1.924820940348217 0  1.59469577620381 -5.008795852583591 0  1.559997525939361 -5.061141386331149 0  0.6910223544876821 -5.224235117346182 0  0.6644002818175601 -5.258045570410357 0  7.656762656364633 -6.260552017646768 0  5.204720532806586 -2.525325711580244 0  5.126471058458268 -2.643669765617564 0  1.587381529563965 -5.117507908397354 0  2.307448074902915 -4.97251122350342 0  5.175879154513654 -0.3726361412479591 0  5.024987200381148 -0.3703865566907458 0  0.09615769223133697 -0.3177965710961228 0  2.069375070772818 -5.951515066636899 0  4.649509022976954 -7.885690927712862 0  4.719970788724151 -7.998652443746035 0  2.114584847136722 -5.891560626307523 0  0.3760866520420194 -0.8769493794678844 0  1.56658001891515 -2.606099449503049 0  0.7418134844827833 -7.558959125557925 0  3.696116613091064 -8.281288950015153 0  1.108680503517546 -2.375143694841231 0  5.331121113602505 -1.585929454948859 0  5.181749585613476 -1.559083097527116 0  2.777994522924747 -5.068498669136763 0  4.757935178097865 -1.076091991503085 0  2.828823854785597 -4.993428663370111 0  23.75595472000127 -4.449568978808927 0  24.06354866308445 -3.985872819349343 0  2.410414925879362 -5.719566454492793 0  1.660470245964307 -5.013802586368376 0  0.6476556254404908 -4.260201798782268 0  0.6035241873070554 -4.261843330830861 0  0.8199509426037039 -6.972871120083941 0  0.8336960808058631 -7.016314422398152 0  0.09764460746709425 -5.774495831984982 0  0.1198930738960993 -5.751007543889222 0  1.724975364442715 -4.32330011250567 0  11.09641010107382 -6.268599971280022 0  1.533499070633386 -3.13079554301328 0  0.6387160808185417 -5.289638270286682 0  1.613910347061541 -6.304843291758317 0  3.476946121961802 -1.540523062627783 0  3.501399983576496 -1.440330222840482 0  0.332247168317501 -6.292072953169404 0  1.525189726419391 -2.443148426176165 0  0.7022527592683758 -2.136697936231609 0  0.02176570397225142 -4.89846346031957 0  1.642945120943061 -4.573213797934722 0  11.36137317491087 -3.785453568125818 0  0.4811882625562767 -1.169030694071642 0  0.2647624298811646 -7.950535775200678 0  0.2526607679309478 -3.871142913656684 0  0.1197810414360614 -3.442019509044103 0  2.82384398456127 -0.2165086735549435 0  2.659019492689932 -2.042003954599123 0  2.456440071353715 -5.659816709636117 0  3.526183533445508 -0.8006949007594697 0  3.476081994096866 -0.8942790531500506 0  0.280956442453931 -6.220536232085601 0  5.045983754261812 -2.763850212650389 0  0.8234642624474837 -8.508559809645384 0  23.38333075079482 -3.214754134573088 0  0.01679104688786737 -0.01818131324793626 0  0.01679104688786737 -0.04611427414179037 0  0.8754553853898166 -3.105389246327693 0  0.6160628350260922 -8.944503086517468 0  6.453985462701858 -5.7512423771336 0  0.8298689146154956 -9.31953815104181 0  1.304972999003137 -5.242870450336263 0  1.329003249732324 -5.292802688454132 0  6.40692392938783 -6.438139344174321 0  3.374767193269118 -6.737472772407463 0  0.4655124519698006 -3.458097636802856 0  0.5044584824726321 -3.45726901166122 0  1.797865020101971 -2.100546064091776 0  5.196511779385748 -2.766917973785573 0  0.0235301982875864 -5.571519883799078 0  0.2832166823657953 -4.589806285312749 0  0.02423119907308902 -6.747452260054656 0  1.200902456957607 -7.615045803207897 0  0.02423119907308902 -6.719519299160802 0  1.408575615200206 -6.595972088415744 0  1.018181704060877 -7.789599528551372 0  2.093873304162274 -5.490172258787267 0  1.164450560573773 -9.615836411830314 0  1.156094261704199 -9.564733640948063 0  0.4868339664812886 -8.019796158386519 0  0.4470312907839116 -8.032487084903225 0  15.65504581755102 -5.52699020865747 0  1.060947094495869 -4.33372396012301 0  1.011044450510262 -4.3309137546759 0  17.4821018525412 -2.98066237480379 0  0.6195347172147088 -8.659856167659061 0  29.73555257802165 -3.750784876207659 0  29.34950464997974 -3.608560141086461 0  7.87832019951113 -6.214636144865809 0  1.05116022852258 -6.332218876048735 0  1.067845362308042 -6.378502800236655 0  1.223988451474398 -9.312812310500712 0  1.104009913717984 -3.997074657721602 0  3.693322780765826 -9.715496091959189 0  3.569940531274275 -9.72085014065075 0  0.4515638494043461 -6.665245456098361 0  1.107552678605373 -5.978906082216486 0  1.127825467005049 -6.027053573447223 0  0.06258772565361781 -1.558410574243234 0  0.2160767789957667 -5.569926420045373 0  0.5946019064845842 -8.752103483889758 0  0.5998481475760968 -8.789314543925062 0  6.90425565750887 -2.020384765209097 0  5.17976258238973 -3.258156114853418 0  0.04495758814567452 -9.105011360383759 0  5.110196958256079 -3.131083875827326 0  0.01680915949828865 -9.953870416104696 0  0.01680915949828865 -9.981803376998549 0  2.263769470399344 -5.377209502673295 0  2.185445876040841 -5.368766013984702 0  0.9836633550617933 -4.372131492067922 0  1.181472328240536 -6.034690590029843 0  0.0227544187940083 -1.384352266714442 0  1.004793373527701 -4.416608183235741 0  7.202551863679355 -7.678347096076696 0  2.635712679765403 -0.5387168274039702 0  5.796520953672431 -3.759632306725077 0  1.33758145218277 -5.19746356780469 0  0.05845682750125469 -9.938033239919907 0  2.247899525405746 -1.765996839473422 0  0.5421214065278548 -9.863083791947663 0  0.5773278283876948 -9.854162815921322 0  0.1252506073659649 -4.713957682398208 0  2.061378209304436 -9.107385430866373 0  5.342152578516643 -5.312686033118959 0  1.111233783865872 -0.1254071949207649 0  12.58921892230991 -5.966520773620474 0  0.8085907125395018 -7.650952771286101 0  0.7282425707974269 -5.614633838740409 0  2.700445800378418 -8.246143995620253 0  0.5536525337113467 -6.009900942693725 0  4.605444514367402 -6.373484694166878 0  4.461448329530684 -5.587551406355997 0  0.7289560519829337 -8.396981341102624 0  5.18437571122745 -3.011021052091512 0  6.482444221060465 -0.7871037789098292 0  0.7547620539244058 -7.599728911998936 0  0.7654533777728165 -7.640951693466612 0  1.407629921692703 -6.064197792307839 0  1.533685828597065 -2.64997893841481 0  1.508889769032759 -2.703305898660038 0  1.234821465470795 -2.234634503816558 0  4.547585100222026 -6.492218352079886 0  4.052825195843706 -4.887566822427149 0  2.478607478331373 -6.013875279720478 0  2.418684037749216 -5.948218987860679 0  0.07383698668997951 -7.0810192346677 0  0.07423966398017967 -7.108716492499694 0  0.8336108437135685 -8.306065866314285 0  0.850897821855261 -6.93912113766144 0  3.378569953738353 -1.548707506869341 0  0.07365161259281194 -1.935558246738363 0  0.6190222307132487 -1.130209901526156 0  0.5823960563728647 -1.140886644358742 0  0.6007558033858373 -1.105603617898781 0  0.09521648508071401 -8.123278528824283 0  0.5263493446833465 -6.037766545395277 0  2.085526457441194 -3.583230274728662 0  2.033783963372521 -3.646304175828915 0  6.008601915458353 -2.022015061438455 0  0.5916449462731013 -5.174117384604425 0  0.6325619687493926 -5.180405493879708 0  1.114421158748637 -7.635551356159282 0  6.314630931959424 -6.269072176889769 0  1.09647791234147 -3.485353638138849 0  18.98371948864343 -1.616305399563236 0  0.7002232737255021 -5.652697162692395 0  0.2309820277709029 -8.476410870569143 0  0.2009205051859304 -8.464121508431202 0  0.1104625124097574 -3.411526053693095 0  5.254737971689776 -0.4874293575387183 0  5.330623884990562 -0.6023232104194198 0  5.178849874534517 -0.6038611295866065 0  14.95794830889989 -1.695446022908986 0  0.822173625870132 -2.704985683379044 0  0.8677948204645922 -2.7043961454267 0  0.9891446921363425 -7.511361863767815 0  1.036786135234292 -7.523095731158365 0  1.088123435285555 -0.1720088579072065 0  12.93343893332787 -8.704518598072969 0  2.992522096108033 -4.760718172661175 0  3.035993536380715 -4.847230370877648 0  1.563125027381066 -7.240498573371141 0  1.559341645917261 -7.173542183032095 0  2.208911989980862 -1.699513768493182 0  0.09231577991733175 -0.8587307094290644 0  3.678262881172135 -1.991598804530891 0  6.313593686457939 -8.387489999837019 0  3.407364439950893 -0.4516231724473236 0  1.300680567800022 -4.908752926548543 0  1.26901269678306 -4.953346640875095 0  0.3733421079227135 -2.945992764866298 0  1.134733533452762 -2.417319563887015 0  1.162669030688129 -2.460028737450674 0  0.02153732962636212 -3.248888418158632 0  0.9136414321542468 -0.9653788880290595 0  0.04697915585513357 -3.963614846603826 0  0.5368060411980231 -6.073965769387915 0  2.915031339980013 -7.952948798784614 0  0.4271950379684153 -0.9258454532874172 0  3.628883222260153 -0.286319258110697 0  3.558426645265406 -0.3706919303527227 0  0.2693006700158485 -2.491705604959431 0  1.453531810265625 -9.221420144166796 0  1.48931407808379 -9.161680438696861 0  0.5766609964651153 -5.136747024137225 0  0.04116322073683776 -2.010697603177275 0  0.6735457274920247 -6.262521790030014 0  0.4901620462335483 -3.990304472789016 0  1.127891188460172 -9.703624603648091 0  1.156695687163364 -9.651296125721442 0  0.8912838235090703 -8.454239202107315 0  0.8553187027864428 -8.483075662425779 0  2.869648719133071 -5.332949893762798 0  2.780664106346965 -5.293500967633033 0  0.07491929119188256 -2.39112309790262 0  0.07397120857749329 -2.418935137772606 0  0.7397945873528116 -9.396157659466498 0  2.249053160459898 -2.881698004952905 0  0.2984475313863513 -8.160406750523869 0  0.5146687044668816 -8.650567978200884 0  0.5193804199965086 -8.687337630962688 0  17.34928401649764 -1.004254247715926 0  0.601981449137174 -5.105548716751413 0  4.829560642749914 -1.192953266102855 0  4.901198053375422 -1.306021254936089 0  2.550115661593697 -8.579234049614708 0  6.331489640564648 -1.366311554518552 0  3.045832640804868 -4.679874916780299 0  0.02176570397225142 -4.870530499425715 0  0.8734455104442791 -0.1751898813443944 0  1.158557790108226 -2.373005251370961 0  0.5970190206670534 -0.9152768334784085 0  0.5770105297457029 -0.8872488859511112 0  6.147263476312574 -8.979885264543841 0  0.5806804276056639 -4.296098720594394 0  0.5989191435103489 -4.331082991569028 0  0.07628724279325994 -7.136026397066512 0  0.2373248638571859 -5.231206568972304 0  1.991772449473274 -9.727311645302343 0  1.951942627816585 -9.781439171263029 0  1.254490348746835 -8.042759026842937 0  2.672113293333553 -1.616842627011853 0  1.020278755663993 -6.500632493066822 0  1.037048939086612 -6.546502282573404 0  2.29874387729831 -2.620395777519073 0  2.372269030053424 -2.568492024654129 0  0.1735898881528488 -2.341381112711347 0  1.015434838624293 -2.023189060156734 0  0.9660730055171118 -2.029436615969914 0  13.84617978032321 -2.910617931747528 0  2.129735934106325 -6.279380772523789 0  0.6792260341354606 -9.760077915659588 0  0.6855291191310364 -4.186347729741763 0  0.7243095651563571 -4.168584318072647 0  0.7122492257921209 -4.206070623775862 0  0.08755257466815891 -0.4780908977678457 0  9.878363137560541 -2.752267721363284 0  2.40022675252443 -4.838820413156648 0  2.354946274138639 -4.905980353993891 0  0.09495174997013578 -7.406569495394892 0  0.06631446044612588 -7.416636800352708 0  29.75145677320388 -7.660570947646804 0  29.75145677320388 -7.303428090503948 0  0.4332809640529014 -9.690132830578142 0  0.4128156187141165 -9.716973354121157 0  0.408994720193844 -0.2537817713892467 0  5.001156742317328 -8.002401751526808 0  4.858509148800096 -7.99801568771953 0  29.3818582633584 -6.477155678011269 0  15.67749855535783 -8.108066644985843 0  0.9083208503086588 -8.619794898877018 0  0.9294993393051616 -8.5671616775807 0  0.967942462774996 -0.8994264124173696 0  0.9358822763364891 -0.9330479188789695 0  0.8762489956073924 -3.025448640719341 0  0.8520320960414907 -3.064438852831361 0  4.621759419150418 -6.599529279066694 0  0.2805687560461045 -5.207358305760399 0  0.1922587360063872 -3.557752363736597 0  0.2235513900972119 -3.556961729169856 0  7.589732257724945 -0.7734034307456454 0  0.6434234252525588 -5.113167408092687 0  5.031275843538943 -0.6059980882014457 0  4.866322055074733 -8.230468932567389 0  5.009997338775772 -8.225025972110124 0  0.1001031493206153 -2.377035696431771 0  0.02078552390566912 -5.237430167597766 0  0.4651964418361967 -3.393608497291756 0  0.4464580314381941 -3.425443876401718 0  2.922068299932466 -2.983285000658702 0  2.827567003698064 -2.980019327692399 0  2.358531585971917 -0.8863697166529585 0  2.401514397644162 -0.9526727158546855 0  0.0235301982875864 -5.543586922905223 0  0.6401121471456328 -4.330459152772059 0  0.02096440089859186 -6.129405006417937 0  0.04515505463558611 -6.143371486864863 0  0.7016142782855059 -5.907979249100982 0  0.5035949788246192 -3.395195129042912 0  0.6894915598804658 -8.384337480216637 0  5.402435957246194 -1.679757533458671 0  5.492272911382866 -1.791273579256852 0  5.33960273012584 -1.787669505536782 0  25.45670654891473 -3.539416357465818 0  3.940983449073745 -1.864479731230716 0  3.880129607708806 -1.752562555056763 0  0.5727489503362193 -9.697401176702957 0  0.5946483640950273 -9.667187623135325 0  0.07105912695385896 -8.480716873493412 0  2.247220148505413 -1.635582353844019 0  1.065259306664725 -2.712649982082375 0  1.014786996264045 -2.71101259714236 0  1.339868920674689 -6.690236798432606 0  1.304485709541407 -6.732315248563948 0  1.422447626665971 -4.80351723056557 0  7.522060216469819 -8.987514904824991 0  0.5368070602441417 -6.31187897615305 0  0.5472957032214651 -6.348582401176128 0  1.688639571777813 -3.74085253052585 0  1.655040875712237 -3.796572568003554 0  0.02128775614411182 -3.34482224791392 0  0.9483644099797566 -9.642747244602891 0  13.94929279922823 -1.771151108208558 0  1.151595232024263 -1.209707322812622 0  1.169812927504228 -1.159559105445835 0  1.327832009133335 -7.204665178017498 0  0.0955970588550521 -6.457903595558992 0  0.06580779242581158 -6.467626630529581 0  0.4334342319979623 -9.134442323362727 0  0.4603999031668025 -9.152044305602374 0  2.354499436105836 -9.119856296534476 0  0.01956321321778987 -1.187545680374534 0  1.400661296720276 -9.131724398916129 0  1.368409367064899 -9.177379007850599 0  6.540546681727591 -2.59765249457231 0  2.730720993401572 -8.406731214735023 0  2.821295836403495 -8.415712436073434 0  5.877831592929436 -6.924135655642978 0  0.7821273446344499 -9.39733439874775 0  5.081499644320072 -8.108486098607631 0  5.159992888087746 -8.220594565446426 0  0.7343401986320384 -4.125776016395466 0  0.4308430149349434 -9.099626679914525 0  0.6689479749180425 -0.665276988148511 0  0.7077111471067212 -0.6623355985425903 0  0.07130105045368396 -4.51092721368031 0  0.07049245519230851 -4.538860174574163 0  0.01956321321778987 -1.215478641268389 0  0.01972713251512204 -8.763568601926323 0  3.87990495702924 -3.365245257850511 0  3.89501270005108 -3.270895552554506 0  2.418618597128084 -4.197833836019231 0  2.34993368213954 -4.153814600519902 0  2.406181164471644 -4.125055897693331 0  1.577880723317884 -6.187089412805811 0  1.139579537299412 -7.730816099435264 0  1.191239497676637 -7.741354903212888 0  7.107911171044453 -0.6155125491116644 0  0.02023950478354308 -3.980446927374302 0  2.537470168247477 -4.032575251962538 0  2.497777522814033 -3.950185537238629 0  0.02023950478354308 -4.008379888268157 0  9.313192628721037 -1.920309651054394 0  0.01900609528906294 -3.895859010218266 0  0.04323525032986808 -3.85668723215502 0  0.01900609528906294 -3.867926049324411 0  1.067171833564361 -7.801641843569715 0  1.458003555015038 -9.041239719664071 0  1.446535339668372 -1.795387617243406 0  0.4430682592968118 -3.077487828109384 0  0.04245850946011132 -5.693586617259249 0  0.05358664735070562 -5.668630479566316 0  1.103945177751783 -1.213392827756141 0  0.04297232590428379 -5.645444169244342 0  0.2200023906195003 -2.468651749345906 0  0.4833716044128451 -8.95218044748772 0  1.124909281710927 -8.697572477148828 0  1.411173869907305 -8.584759849908799 0  1.367569531226348 -8.544406231822183 0  0.6469482336677359 -8.204619207958867 0  0.6542656207488466 -8.24167947664121 0  0.6193584365544176 -8.222826932320984 0  1.654564414072931 -9.113511086380266 0  0.4051145961822922 -0.07506878785094528 0  0.3730123842434843 -0.07064613533942055 0  3.500554275670941 -7.831290496337633 0  0.06704932676493058 -6.125085004510294 0  0.8203365473970372 -2.627609235524031 0  0.7986764170076945 -2.666619133127335 0  2.86317036146329 -1.97546670288526 0  2.117663341683638 -2.65592889278521 0  2.618286095732298 -5.27299347992181 0  1.386008440935909 -1.4889861846572 0  1.437280325279207 -1.457972247360339 0  1.293490505145485 -5.001909287539638 0  3.168353496609997 -5.932818906347014 0  3.066365652152774 -5.925690630514866 0  0.8422282056067782 -9.09876476323973 0  1.289839020084397 -7.244379534640741 0  28.93223142388066 -8.718611270672458 0  29.32087659798858 -8.628389184389311 0  0.5061281529571993 -6.618303465931719 0  1.30628306507303 -7.29614510627909 0  0.1083965371630295 -6.287433983364789 0  0.01925846182848723 -1.438547486033519 0  0.04102496982394577 -1.452531188379298 0  0.4264436091915087 -9.74663190842745 0  4.89606608719396 -1.076742478298373 0  0.09548411158162651 -3.099012346319519 0  0.07846393586475031 -1.719324527610787 0  0.06180766875387178 -1.732175853637921 0  23.71549734616896 -3.595945694951848 0  0.09748348412680841 -7.789949913771149 0  0.6241332741186643 -8.437602588033894 0  0.4238083534735786 -0.2254098730244758 0  0.2851888116879735 -1.568773744720411 0  3.004534466762934 -7.934370164955259 0  0.09110519815041584 -4.218863985363589 0  0.06721767617133878 -4.229751787093106 0  0.6583834742429602 -5.150662983328559 0  0.6735027329723025 -5.187626975409263 0  0.4796962657949599 -8.916090840150872 0  0.5878461007221869 -9.81701822950067 0  1.260268528792942 -2.277875124047621 0  0.2927164664766924 -4.666834119437405 0  0.2743473835273917 -4.691310485151485 0  0.2592390981165718 -4.665884902804651 0  1.102068255972629 -6.468299190598935 0  1.153706922153251 -6.470899696137228 0  5.339976342983292 -3.752891793730452 0  2.395186728903582 -0.8182244834547703 0  0.6695501334593335 -5.791265984126602 0  0.6818200945795301 -5.828315393988318 0  2.728246947030522 -8.329094246432469 0  0.1199448480362708 -7.052819604191298 0  0.1123372146056774 -7.022204264697308 0  11.85837389766148 -1.320825634755973 0  0.5354703750168994 -1.655600809555667 0  1.540311523215845 -6.233297879983203 0  0.6142751593486881 -9.638421493323722 0  14.74332339184449 -6.902708884840093 0  3.813548336917153 -3.470664408212251 0  0.6186433958594577 -4.616208993695349 0  0.5950849643875245 -4.649025729168943 0  1.050644787590041 -1.852565637250287 0  1.422201989552203 -4.605494189048239 0  1.4629925983166 -4.636755647222274 0  1.696329897342503 -7.102079063573257 0  0.1019562205369784 -4.107889723724917 0  0.1197724825803128 -4.083604114445563 0  2.425066248098048 -4.282298383471713 0  0.3266447572348916 -0.04621990992318992 0  0.3449236881160793 -0.06898358997319853 0  4.812451960125152 -9.032012531216267 0  1.037079068558111 -6.957733259248276 0  1.054117581930411 -6.914522500601914 0  0.6296793700933652 -2.144262237349924 0  15.39123915185683 -2.975008042043646 0  0.01921672504681204 -2.080540333196609 0  0.5865648621596282 -5.669063170291141 0  0.2773394663847313 -6.307848226340214 0  1.107091751514854 -2.629512270037156 0  0.7699730700302183 -5.04766117663375 0  0.8159026967099159 -5.035626364945974 0  2.693281385933092 -2.264235104586181 0  3.192951386867795 -9.611772053984735 0  0.6195023608180321 -5.463261458094467 0  0.5604844070245232 -5.698124089942861 0  1.145044486834653 -8.196336032975026 0  1.097604170266269 -8.172212486444568 0  7.951320859972233 -6.415028516985156 0  0.04072278576704313 -5.473806477136976 0  0.01905883107151141 -5.488826815642458 0  0.3087153518671819 -3.990546866659307 0  0.5817947018773939 -8.207374373197121 0  0.02122701003541039 -8.422406376025062 0  0.01867095433777877 -4.985894198583074 0  0.01867095433777877 -5.013827159476928 0  7.006796762587504 -7.686814370942315 0  1.215551285086978 -5.994029139860844 0  1.235982967859432 -6.04207605600736 0  1.646521315457685 -5.118010869158606 0  1.613278132338436 -5.170963957567874 0  10.91289296946415 -6.474041684069306 0  11.03049624416521 -6.713226834193073 0  6.714889979000635 -2.022629124576836 0  2.389358492320323 -4.975825955978465 0  0.7144201071007306 -1.327537710775412 0  0.1461044321819553 -2.342791288803466 0  0.1196822893799094 -2.357674981319954 0  0.06797204696846393 -6.323996579961742 0  0.07227099434397743 -6.353693754948179 0  1.544107453069884 -7.121036254238984 0  1.525171650429064 -7.055582838251914 0  0.1164769719500711 -7.491710443017984 0  0.1115476308297616 -7.462663687834065 0  3.642209980306241 -5.604518360166564 0  0.6474311517863818 -0.6303950877431301 0  1.380220801758892 -6.803079272991689 0  1.323029290236665 -6.785582966310795 0  0.6164490465462045 -1.480236989312587 0  0.765891380701742 -7.360486744431768 0  0.7799187859515389 -7.404360788389913 0  0.6223651244976338 -6.132793829433925 0  0.8601144864661556 -8.526828723142048 0  0.807765676195924 -3.588030979772615 0  10.61841842566563 -2.806873494476771 0  1.190929964783193 -1.109832677736026 0  0.6872560189445949 -4.115677170440335 0  1.433481867711286 -4.50912518569731 0  8.969102038129391 -9.039458105909688 0  8.854508818985 -9.230192103963358 0  3.448829399963945 -7.930189454930301 0  1.415751926142633 -1.743982884179945 0  0.1730309586230625 -9.632218060287959 0  1.211585327901847 -2.457231118983387 0  19.31522531965438 -0.842660889357175 0  19.30928321087886 -0.2942172076941532 0  1.077422843204529 -1.169161217112946 0  2.639727983081107 -5.548614917914914 0  0.1637660372234286 -6.882013279296384 0  0.1367106321931892 -6.86966601955039 0  0.4578545296216738 -0.2241152164373084 0  2.818582501559682 -8.179967349429067 0  2.846383648211786 -8.262917600241282 0  2.769236719917703 -8.261862056905752 0  0.01786340030963984 -1.606145251396653 0  0.07108135077825573 -8.896644004286324 0  0.09602702610181524 -8.911381325606133 0  0.6490013701107102 -4.690763285985428 0  0.2023644433687686 -0.3874060301102595 0  7.04285810531754 -9.316954993390336 0  1.152763525182854 -3.35639782501398 0  1.134229632263434 -3.401007350639109 0  1.110995927110924 -3.354438303087099 0  0.5543721670083332 -8.701849023554134 0  1.280107936210859 -6.432601264051975 0  1.221748961969334 -6.409951772686405 0  1.365632704626901 -1.390748108228481 0  1.346242089620336 -1.440675613240799 0  1.31832089125831 -1.390383088821548 0  1.73291443451672 -7.043465094794445 0  1.750946467478201 -7.107857812916346 0  1.055078276879334 -4.419236433347509 0  0.8669811678690742 -2.627585165185366 0  2.140109531212953 -5.430400731886485 0  2.169577951830792 -5.49844264519311 0  6.140294223765776 -6.278346605652949 0  0.09552887404688093 -2.65530033010771 0  4.792965734932153 -8.113554261297836 0  1.055211917830373 -7.754131785088952 0  1.48929198765045 -9.411357791052559 0  1.433644355021812 -9.40914910548225 0  3.818796071637891 -1.909375342137039 0  1.002313505749322 -6.892849349606323 0  3.777796869525417 -1.807222294983499 0  6.275951665761909 -5.767131298649877 0  7.075136524949722 -5.105056783554313 0  7.166937073608534 -5.276781374161891 0  11.67752839095409 -8.150357335704713 0  0.2207622855712099 -0.3658236254952971 0  0.4689711039448134 -3.212229602822059 0  0.2022381424778654 -7.988028933915652 0  0.2355313982264562 -7.99959616611411 0  2.359008296067303 -5.928514267048156 0  5.483791294859529 -1.589533528668928 0  0.3784140197261046 -0.1202046230779743 0  0.4104914661019698 -0.1199868427849076 0  1.095491568269892 -8.740514623892208 0  0.04039925858105775 -0.01818131324793626 0  0.2595921623940551 -6.243735087901263 0  0.2684286237458231 -6.275357351313151 0  1.987048946632921 -9.832664958471796 0  7.436691769003684 -8.357260795159331 0  0.8240063925860053 -7.392574916454002 0  0.8012450609335247 -7.431709975544035 0  0.6178808326360752 -8.398826918170897 0  0.4464311412597812 -8.061158022981674 0  3.677771542004697 -0.5206602906593147 0  0.2548129694226979 -6.040239135923041 0  12.64739024042675 -1.61830749085945 0  12.80157021702202 -1.864556454327136 0  0.5175616368002736 -1.160270544216479 0  0.5056266229496167 -1.19433090613201 0  0.4125035528498824 -0.8687551764118453 0  0.402545020911365 -0.9011012181286793 0  0.0654633228899737 -6.999665598029607 0  0.08918777470116268 -7.01390133644481 0  0.06968304126844593 -7.026445008996417 0  0.6887850852622979 -5.866880137884064 0  0.6499941643843528 -1.127640638054757 0  5.3276531649697 -0.3710982220807715 0  0.3301231853539885 -4.79496031935527 0  0.8201856926951798 -4.990320030277757 0  1.576761370988301 -9.362859951813375 0  1.545966975438327 -9.411243450986696 0  0.09091413183587882 -3.383033926014387 0  0.07117119165654806 -4.761899107988098 0  0.1013883484264415 -4.764968564511056 0  0.01518399920241542 -1.773743016759778 0  3.929605700047819 -3.09477869425465 0  0.01663768713195068 -1.969375728640932 0  0.07134978565204975 -1.126463001745326 0  0.1015557583337863 -1.125293171930165 0  0.3059924175674951 -6.101566902893532 0  0.01663768713195068 -1.997308689534787 0  1.64149124792625 -5.228314152658459 0  0.9678651001997274 -2.783600221489361 0  0.1271725966399586 -4.762944061533404 0  1.304648038663068 -5.958331995254873 0  1.249367569702223 -5.953233255428282 0  1.758132189873908 -6.652970686969576 0  9.363220895121323 -6.878364115605075 0  9.603390997189084 -6.866637261480132 0  6.857456090737536 -8.954395042566851 0  6.777936842261173 -9.131276857308055 0  0.03796549285840989 -4.856609007196817 0  22.65764305189806 -4.402066665553808 0  22.933250278896 -4.033879686161787 0  23.19228653188782 -4.393243045549049 0  0.04041736524859196 -9.981803376998549 0  7.069379322872931 -1.366779512164057 0  1.968635582833789 -7.717974544456388 0  0.01673503157462619 -5.32122905027933 0  0.01658181995573571 -6.047486033519553 0  0.453638823945786 -6.793612743130646 0  4.781908678120315 -6.814253377119588 0  4.919981728937083 -6.79983809743971 0  0.6989125319111515 -5.762715536611977 0  3.044845618222842 -8.694629722170319 0  0.5472966218911388 -9.641721037893715 0  0.5221988224770868 -9.667264504066122 0  0.01649357881712277 -5.68408317328322 0  0.01649357881712277 -5.656150212389365 0  1.889677832477961 -0.3492261209153451 0  1.862017155398981 -0.2788532650455178 0  0.3517792108820288 -3.147935625017535 0  0.393011056580411 -3.143203085798032 0  0.3402640787500637 -0.02296718749960647 0  2.484578860720923 -4.835115610388793 0  0.07113852844260649 -3.508314585088288 0  0.01619978888615847 -4.818480742407973 0  2.425597681246604 -5.39464555971055 0  2.342154011243018 -5.386098934190363 0  1.599083575354319 -6.406539020043003 0  0.2542851803545521 -1.573722785438956 0  2.649755664935046 -1.084232586604369 0  2.743685770410345 -1.071099721878372 0  0.121550961861729 -8.893056788161068 0  3.738147010191266 -8.187176566060462 0  1.091627567165549 -7.719357147648954 0  29.69070521293413 -1.964285714285714 0  29.69070521293413 -1.607142857142857 0  2.882485975072653 -8.716961944405268 0  2.790315552558141 -8.715552383991968 0  0.2381060779822981 -2.495378505849631 0  0.5500705791710576 -9.808771321331616 0  0.8056147985702111 -5.199160885590849 0  1.208648151799416 -2.369141466770793 0  29.4467692753397 -7.144303268556317 0  9.02143463673227 -2.69915377783386 0  1.819771101097393 -1.52932322076804 0  1.884568312949368 -1.525823231484714 0  2.745721911868671 -5.424688919218637 0  2.826560153344033 -5.428262294594753 0  3.010152417088918 -6.006766476165816 0  3.053649385319478 -6.088330183257268 0  0.07116308992815767 -0.3016021317968134 0  16.46713715593753 -0.307778384525383 0  0.6439515068018089 -4.792625080767682 0  0.5011370602346563 -7.066331832312734 0  0.4777862398638817 -6.642542925575008 0  0.4861467823268963 -6.67744570528555 0  1.281578162911799 -9.224967290518752 0  1.336663313148648 -9.222717784363885 0  1.348682538741981 -7.445283264857579 0  2.730249595061411 -0.9776084520878028 0  2.801189496552425 -1.030809033317489 0  1.163134585025851 -4.244549187122049 0  2.955084068839362 -1.060019370418526 0  2.933534055138523 -0.9624060678327044 0  2.490890611575058 -4.554398278415478 0  1.1186404118422 -8.250199802815093 0  0.04136372619625206 -1.734943816887837 0  0.01518399920241542 -1.745810055865923 0  5.151152291629302 -7.997970344863107 0  0.6499459023711136 -8.374358343925655 0  13.03891808459212 -1.209336143608303 0  8.495217253928619 -9.423819279351379 0  8.733130218323957 -9.416746160861512 0  17.3910641647956 -1.673634438338541 0  0.6251331024863074 -4.897024929739297 0  0.2270736340795061 -4.664196427753451 0  13.25870677151905 -8.708573390385098 0  13.05329892709132 -8.962430361007733 0  0.5767757000750748 -9.640944634007692 0  0.07071431994450705 -7.523371749966552 0  0.07192806238692739 -7.549979369829451 0  0.6843641894754686 -5.120388889622243 0  7.973657985533812 -5.238688600104187 0  8.396043829166043 -9.227820792539013 0  8.28506358527053 -9.023556013106793 0  7.22123639865853 -0.7748326759222124 0  7.412767521380266 -0.7766309048481332 0  0.6832649797811854 -8.34652065491923 0  1.425517265485407 -0.2416673123597128 0  0.5157261951976615 -9.866280735321496 0  0.4943389964363263 -9.890741416565245 0  1.775985154489007 -0.3375725460200334 0  1.815182265431783 -0.3805151740593313 0  4.257934929309553 -3.881325473834544 0  4.17734194992773 -3.973471471302906 0  1.79973397416439 -0.2854247370112999 0  0.1125495363211311 -7.267990503197575 0  0.09435157315206055 -0.4252615863804019 0  0.781543707345044 -4.978466918828813 0  0.0675773498621588 -2.858102191766626 0  0.9345769204142673 -3.234554872427011 0  0.3337682601572762 -5.304415584459714 0  2.820689441561404 -8.936402660457988 0  3.84933629915319 -2.919388342627781 0  0.9431870363723558 -4.584667736600207 0  0.9162430056809399 -4.623312550837914 0  0.5045278988241648 -6.925669312625322 0  0.08331013978527757 -1.429236234905795 0  4.899316075606427 -6.587055560259042 0  4.756029975529177 -6.589377674282742 0  7.550704963428409 -0.4849008990913548 0  0.5370255969487729 -3.455514618625249 0  0.7251118856685288 -1.620518731983408 0  1.398659267337205 -4.55906684999344 0  0.8955761343601338 -0.7663785486195831 0  0.6095548492977265 -4.684136138275354 0  1.104970667294372 -9.560692125038766 0  1.082178093466062 -9.603960935009688 0  3.791863023912388 -3.010414439667767 0  1.696371577793924 -6.646332981145346 0  0.4667671774655417 -9.69179871048371 0  0.5007951379585407 -9.691414038155227 0  1.441242793344685 -9.557005263943877 0  22.60108368352186 -3.652688125783027 0  23.13572716351161 -3.643864505778268 0  1.612137773940802 -9.312429315285897 0  0.6634270704352492 -4.152104139758652 0  18.92356604579548 -0.9215707260504757 0  0.713694925340068 -4.275668274449696 0  0.07069965698660674 -7.054250262232406 0  0.06962773422766055 -8.110717526678954 0  1.115234360133726 -0.2088907333859469 0  3.656887541692402 -7.523808064262695 0  0.531243370623061 -1.220799405721361 0  2.282603725621744 -8.968409099016531 0  2.24628959468383 -9.028560679801213 0  3.055549328453452 -8.548060871383317 0  0.8200975613635677 -1.450480748272712 0  0.2996983974227128 -6.283840008661598 0  0.7254207390192384 -5.1199914375038 0  0.6598132306289415 -6.515127355157892 0  0.6792687873539442 -8.193196546859143 0  0.212165377541794 -6.439801883165211 0  11.70408295549325 -1.056312522146282 0  0.9648806291013692 -2.706772624357635 0  28.32238222655975 -2.436360946915122 0  0.1113132094904117 -6.541610405370445 0  0.1083827397524857 -6.512302545272764 0  0.6052571051157809 -5.426242960068842 0  0.6292967488636858 -8.071793416684532 0  2.905389884551687 -2.061481721221252 0  0.8423882407294982 -7.353124629692466 0  0.7988790177360201 -7.329152190469236 0  1.191506796606713 -7.980369268741047 0  0.07305090328825514 -7.976597077073926 0  0.07257396420078521 -8.004530037967767 0  5.333028253060004 -3.01576288587945 0  5.49090339696258 -3.011751384746992 0  0.8155905933641812 -9.135527538000813 0  0.8318074106096454 -9.171272634014935 0  2.330518778561846 -8.647960221404052 0  2.266443899773497 -8.494630630827285 0  2.22976092722493 -8.55124294649629 0  0.04287354937657639 -8.381057354128245 0  0.02122701003541039 -8.394473415131207 0  0.2085380461828912 -4.690051344646279 0  6.300845013441245 -9.264867633890017 0  12.9020907870806 -5.965744792349282 0  1.004401112742872 -0.9673991669246149 0  1.017377986890569 -0.9165053744254958 0  0.1898873185671945 -6.45945255777204 0  0.2412755211734989 -6.181517979184253 0  0.2497610500641834 -6.212922186352329 0  2.334361192415379 -4.286844929402394 0  0.9655000208998352 -4.760377674282659 0  0.9194097043960596 -4.735261442114517 0  8.064256466316872 -6.200315019401121 0  0.2905845239453217 -4.715551135471938 0  0.2571071555852011 -4.714601918839184 0  0.09857390981707859 -2.768534585169779 0  0.07048058924657497 -2.780750399945333 0  1.818747718945243 -3.181122760716907 0  0.07172161843109492 -4.093686977521205 0  3.094993263491292 -4.597646071086601 0  0.5788428566968218 -4.057395554140685 0  0.9224308952809324 -3.51335392973496 0  0.8767137071026809 -3.511168757536598 0  0.3234630796628934 -6.929488564224334 0  1.672985643673311 -6.584648344471022 0  1.503821396797287 -6.996496309398578 0  1.729673541402608 -8.20097412918533 0  0.5741131068218728 -1.207254380800584 0  0.2329399418906792 -6.148326975645653 0  0.7634267605100149 -9.358758922580828 0  0.02096440089859186 -6.101472045524082 0  0.4217609324447853 -0.09465515461775453 0  0.4434598243179444 -0.1192841017230348 0  0.1139567794421943 -7.940914962507876 0  9.490185288551643 -9.387488664978545 0  9.764525969263181 -9.368179888672934 0  1.353708222219815 -6.585957470104152 0  1.37607504842504 -6.645393069514416 0  0.9594261892192009 -3.277391502523482 0  1.004676741538987 -3.275465273277189 0  0.8911232599860917 -2.666412522206966 0  0.9144856123056258 -2.704846559093056 0  1.122891669495395 -1.770823682557643 0  0.4599131569196508 -2.510626569243845 0  0.06816566568662452 -0.6555564425101892 0  0.2601035433986336 -5.629194881566944 0  21.33146730637147 -7.803898677335114 0  0.08911270501360846 -0.1871490741319146 0  1.356789581867364 -4.907341358215189 0  0.5733807446007368 -5.735349787286945 0  0.1182068542019046 -6.886861732609129 0  1.267528326818551 -7.678061045403703 0  1.228998998743442 -7.710025550141399 0  1.213486355340073 -7.663493594025537 0  1.052269454313645 -6.461426353500658 0  0.7545393356588086 -5.014045224903774 0  2.454665818823582 -4.488153827199543 0  0.04201288062249553 -1.39831874716137 0  0.01925846182848723 -1.410614525139665 0  0.07823224130816619 -4.148636666174962 0  1.245281469155113 -7.755922354591055 0  0.4790115226049529 -2.541378643765993 0  1.473260138935188 -9.505362193463254 0  16.9208188207548 -0.3386441342751008 0  0.6423503156193409 -6.702952787836685 0  1.257002535061783 -9.180999828221426 0  0.07861590957998743 -4.12034799760036 0  12.72402584705755 -6.222140948336869 0  12.90405246424698 -6.476729942912567 0  2.733019223800079 -2.191213851020908 0  29.07235254652992 -7.070195099678816 0  0.9222430584542138 -5.053482386770614 0  2.133662453796749 -9.838571176177599 0  2.212630966637491 -9.826771175068453 0  0.06807371342653568 -7.469258056584085 0  0.06875611306028162 -7.496722492779693 0  5.040712473541896 -1.317808244106887 0  5.819896665721929 -0.4014108211184553 0  5.642941469547001 -0.3709600857076358 0  0.06925667644757105 -8.868680798388315 0  0.3238884145729699 -8.13825370368426 0  0.6614292304948002 -0.1950078167260889 0  0.6570930136207771 -0.155814759664417 0  0.2959211953603091 -4.617686647482963 0  0.6493461807046295 -6.478744292028759 0  1.562900823011814 -6.29127709669995 0  0.09479689984301665 -6.96434341950262 0  0.06672617338611175 -6.971590504517224 0  0.1119568328206206 -4.239194293019498 0  0.06825558429674139 -3.086592178771092 0  4.98150630432777 -6.684981031904695 0  5.066316738043019 -6.787859363769638 0  3.514871294378 -0.4485412196434098 0  0.7901079903293304 -1.415117910577577 0  4.956936504218593 -0.489845079027285 0  1.391274727071579 -5.297069615101782 0  0.06856236509740299 -2.974669183792139 0  0.5749206266599565 -4.78277391187623 0  1.119454742488127 -3.441304457908288 0  1.081203192106532 -2.670001533483267 0  0.1162366773886685 -9.522538736295136 0  0.06992935696241886 -2.309547956745808 0  4.877676327865512 -8.918979321069868 0  0.07050189978362198 -0.8240223463687286 0  0.06835439476335736 -2.667597765363127 0  5.188199251546711 -1.790801570245918 0  9.357304141838782 -9.217584839082283 0  9.23023818705021 -9.393220596062548 0  6.215341031942081 -9.402467283504382 0  1.449279644288765 -9.130258912824312 0  2.564867441201857 -0.9591841681225066 0  2.481280204924737 -0.9524454606346566 0  9.004737776212924 -0.946683536535021 0  8.816433484800726 -0.7918940476885243 0  29.33579534465421 -1.349182736872733 0  28.94312775970443 -1.255468863861514 0  0.1083432522983934 -7.437881687556895 0  2.473429990082142 -4.100710656584499 0  1.41464391694921 -6.757747428404287 0  0.2238505512580709 -4.715212458321762 0  2.245779487346026 -5.506922202242778 0  1.785981278801719 -8.071684273872478 0  1.719507487127867 -8.045077472988172 0  0.4516642576037668 -6.9477898894634 0  0.0705018997836202 -0.8519553072625872 0  0.9136719597101077 -2.628035578851722 0  0.8955107970392895 -6.948373214566798 0  0.9433852309379844 -6.953777134435029 0  1.394736313655081 -6.700251416744198 0  2.298136223520139 -4.214929477423324 0  1.653523003325656 -1.423711958693439 0  0.01673503157462619 -5.349162011173184 0  0.03778111227283532 -5.361080193436877 0  3.141754794785058 -4.521326621967953 0  0.4537625267201175 -9.663152364407379 0  2.404745075093597 -4.05669142108517 0  0.04438921967729748 -8.654509711772004 0  1.812421055943151 -7.10123767077859 0  0.4923857229892583 -6.800968552234273 0  11.98813109764101 -3.7801089458438 0  11.68117408657618 -3.767233822315627 0  3.740582830803916 -1.884262344319541 0  0.3510231204251948 -3.089717346466715 0  0.3344005597477508 -3.11901306287903 0  1.32615348450997 -6.010311635808028 0  0.06719755617191225 -7.277038913588078 0  0.09256934130586103 -7.290320935407388 0  1.127005057131104 -7.683999146976923 0  0.09550817020761571 -8.642251473559416 0  0.06504219954108592 -8.646507294774523 0  0.53616209330076 -3.393440736006941 0  0.01905883107151141 -5.516759776536312 0  0.04258902935909603 -5.529620442458295 0  5.500039295431286 -2.787320479799636 0  5.345164321218302 -2.771659807573512 0  1.346783945663555 -2.355915394817124 0  0.3889939906771183 -2.97618671684065 0  0.3463481283048786 -6.907099269312867 0  0.6003858431398257 -1.515959498251604 0  2.290593612049218 -9.08298902202316 0  0.06897110791630112 -4.61760620769711 0  13.22330107639671 -9.199111708086956 0  11.04932112317014 -8.653255024935026 0  10.77624993164993 -8.650219352739866 0  0.09179468636978783 -9.735718348788398 0  0.4424393653703156 -3.027818354993028 0  1.35784135882448 -5.342141827743791 0  0.1910648102584638 -6.889515796930635 0  0.3834247809989879 -4.10192436565642 0  29.73555257802165 -4.107927733350516 0  0.09383349427861987 -2.543541871778715 0  0.2339660309349743 -1.983528143862854 0  0.2143665743035505 -1.95417332623029 0  0.7047492942001021 -2.25104871780507 0  1.119525051535623 -9.627454467547995 0  0.03760539089507908 -0.05912584986445868 0  0.07172093096743382 -5.763461848386558 0  0.0703849020839975 -7.778403250708624 0  0.7880092996084116 -9.324501750369045 0  28.79791985571183 -6.924529244646601 0  29.11619231345356 -6.678941643929669 0  5.303004054927051 -7.988263894994116 0  5.312781152264924 -8.209922033697167 0  1.39493492227038 -9.219089365405031 0  2.313459098729615 -1.637543936815915 0  1.200517297644693 -3.36730130316661 0  8.975978439676306 -9.40987082706444 0  6.916912080210846 -9.221860969857826 0  0.3681198302498334 -0.5813294569274987 0  0.3559890453456731 -0.6122333472748744 0  3.6464999072507 -5.425463687680901 0  3.586593950607472 -5.51248730658191 0  0.4418931370775674 -9.917683624298256 0  0.4760116625491264 -9.918328820875118 0  1.184613797536443 -6.442160613172911 0  1.203632207481867 -6.482468962780417 0  0.2126896769903421 -7.963124512663884 0  0.5530648131195335 -1.150925558504107 0  0.06745176101212103 -1.09651009826745 0  2.447948921689308 -4.764640937076505 0  2.444183543184725 -1.019051647621655 0  0.6859764500022028 -4.26336361483145 0  0.6601632956758934 -4.299731378168739 0  4.700900738843075 -6.707111370358719 0  0.5873085155920723 -8.682081298740219 0  0.9556011187866815 -0.9704268580419075 0  5.045651084712363 -6.575076826588972 0  0.1451140426559085 -8.875402939160509 0  0.06016010144659667 -9.06323546657258 0  0.08215066970403306 -9.078771205722235 0  0.06473889522943566 -9.09358375085432 0  0.5090006784565038 -9.917869822118037 0  3.150626124808898 -6.087554490551547 0  0.8816651136003966 -6.905694867590839 0  2.32288679536539 -0.3707593155479891 0  2.36428509782335 -0.4298262472367922 0  1.939216288069076 -2.113435551928054 0  1.869464776553652 -2.097750010783357 0  1.127346319899051 -9.781408933138454 0  1.099448080986923 -9.73822696013136 0  0.1060380061419188 -6.488622504242393 0  0.5527925593095127 -6.875606727036792 0  0.5916932526804395 -8.718792227399204 0  0.6879144091268952 -1.04733957879475 0  5.488431876820616 -0.373212580029163 0  0.4183904844657462 -4.725093760599751 0  0.3484412273536783 -4.769039330092665 0  0.09787031083816444 -7.560353096137225 0  4.057751937563975 -9.338905898665123 0  3.994772568559926 -9.430457670071807 0  0.06899018859362371 -0.4371627793146287 0  0.06795863056007612 -0.4645816033888508 0  9.136853924883713 -1.116752774326435 0  5.57559658205205 -2.902184275123028 0  5.65317042016023 -3.017353571475745 0  0.06908771003592484 -6.574837961757366 0  0.0942551532004039 -4.380621584406762 0  3.13167768910415 -4.361283994116845 0  3.213537360155145 -4.370009206166633 0  3.1772983788576 -4.451211662126157 0  4.235340928042437 -4.066821807050058 0  1.26669359113718 -2.544411180983864 0  0.2283357987278158 -8.502927997245695 0  5.662306318628936 -2.792922666528388 0  0.4760866929925207 -0.2479924380453085 0  1.485338410388181 -0.2338802704920022 0  9.020405744837408 -3.06891219490839 0  2.419598346193151 -0.2725989659155568 0  0.01619978888615847 -4.846413703301828 0  0.2481871359039651 -3.504834879614739 0  0.08252191949658538 -8.800199271410635 0  29.64509013172008 -1.170611308301305 0  29.64509013172008 -0.8134684511584478 0  9.477107665027162 -9.048518769147808 0  9.217160563525729 -9.054250700231812 0  0.09499630516213386 -9.059879937390651 0  0.08718419169983704 -9.029759095365042 0  0.6228912554326875 -1.762389483351134 0  5.801758816324092 -0.5713153454992428 0  0.4277011343417421 -9.888373872542976 0  12.84943925994922 -1.389233756746752 0  0.1211259190901934 -2.388341962668016 0  0.1496425877453174 -2.390570664353882 0  1.292148374501753 -6.046981964071193 0  0.9643597516762199 -8.410595486021769 0  5.264677017021846 -2.891840254606337 0  2.222699673425645 -9.751171208448792 0  2.139295216811874 -9.737042708810733 0  0.6363655003041302 -4.756495929297641 0  0.6695104882653951 -1.087263745061137 0  2.067984242769665 -9.733333260204311 0  0.2100815293657732 -9.305603426088343 0  1.710914810270477 -1.809032376516239 0  0.5409714846271605 -6.107342980063001 0  0.5508381716187714 -6.141487698867907 0  3.052071415201054 -4.373196591807479 0  8.114458605274345 -5.393096931967383 0  19.22088834127032 -1.175797200019345 0  1.725649122815238 -3.254153860755394 0  1.757028233266148 -3.303698656739954 0  2.696625332521808 -8.866493597890594 0  0.09397650724430662 -9.417351887589497 0  0.0703849020839975 -7.750470289814767 0  0.2194020385400339 -7.938415362665211 0  2.598347609692315 -1.018361766525155 0  0.1081174962272051 -6.995424853730499 0  0.0598934067310779 -6.09451258873264 0  0.1771280437162108 -2.389160488261763 0  0.4909145360527916 -0.2202382550721955 0  2.128437680513329 -2.406574745202629 0  0.7168438599812514 -5.194492606795032 0  0.5166142457350134 -9.185277924810123 0  1.322445722943373 -7.694094213097653 0  0.06303111421815899 -9.592013005783949 0  0.06372183583747848 -9.618679271638548 0  2.294198719725141 -5.447560549809399 0  0.06620926189445875 -2.831174222341056 0  1.762422195573796 -8.14430395805444 0  1.542964110563727 -0.2342435700223522 0  0.11115364738151 -1.900639805782711 0  0.09402797405103414 -1.874729950494652 0  0.4917849867684456 -9.132994886040811 0  0.7011872551046654 -4.236138695063225 0  1.345435113172982 -8.682696386870202 0  3.507328345181836 -7.44134597678099 0  0.06600106131692485 -2.445290907748258 0  10.02931669206105 -0.5671987273016201 0  1.171823676640718 -6.398382506043216 0  0.06356957098951277 -1.415166136616612 0  0.5166126521059375 -3.424412660713097 0  1.412072131764745 -1.399940233164112 0  0.1132244250405421 -6.570132677372134 0  3.192117756147253 -6.011921850197153 0  0.09573712618917796 -5.946336844194882 0  9.929247279120847 -0.7751098057411667 0  1.076263940016013 -4.035539398663055 0  0.6380725515999597 -0.4971319488416732 0  2.3247341952501 -3.934113659865336 0  3.011615277153115 -2.983582516640567 0  2.950032996746387 -3.059079992650549 0  4.188387207704505 -9.357531886918228 0  1.332108645569878 -4.860637605189456 0  1.384150933402719 -1.349647708744861 0  1.356968275047988 -1.294810684807118 0  0.08321029970272065 -5.497182516102868 0  0.8477377466735305 -0.6871670312684381 0  0.6569559550851309 -0.5298974000823513 0  1.084889710548843 -6.423718509431445 0  1.745892353497027 -1.866362913359426 0  0.06634419759406107 -6.519096815188478 0  0.06717649448579444 -6.546315689755677 0  0.812118696432254 -9.284104239548775 0  0.07721976150337717 -8.747033614819969 0  1.361781774890584 -4.810747979630242 0  2.43450276521401 -3.985383267357205 0  1.328975422202493 -1.241796399600953 0  29.68493131948946 -8.375516781412349 0  29.68493131948946 -8.018373924269493 0  0.09512810977631503 -4.268098199831593 0  0.5173563473691658 -6.868967173191637 0  0.542392415966523 -6.840076664175873 0  1.998043436372203 -7.660988122661952 0  0.9671339366856788 -6.924119046888737 0  5.488322095070291 -0.5888927770487049 0  0.3980700377423076 -4.069399101626797 0  1.529935126723066 -9.505247853397391 0  0.6784329717073447 -4.33362096882124 0  1.379429619075566 -8.635332061149354 0  21.98502068129054 -1.992037899505585 0  22.25097846588061 -1.454026989833601 0  2.971015296997789 -8.706695325634779 0  2.918340754082726 -8.780074023019781 0  4.97421897507131 -1.430225746144833 0  5.046572361477402 -1.549898271469 0  1.72055538640352 -1.423364708496509 0  4.171209755245474 -9.485953080595229 0  0.06743320854874568 -4.256946293927499 0  0.2352682263611694 -3.53149155239312 0  0.2538940044456268 -3.558446210335413 0  2.324164028189699 -5.515811633759848 0  1.575529079756119 -6.347388491812408 0  4.125605046213341 -9.573752816426659 0  1.416598396067103 -7.024012299805969 0  0.743252422455825 -5.15843464958837 0  0.06880214281047436 -8.082784565785104 0  0.5345779504043762 -4.055582827642738 0  0.4152349919663738 -2.536153005453285 0  9.743015894727179 -9.048634797772667 0  1.117644163967025 -6.385375637334932 0  0.3507854552896958 -8.113588880804148 0  0.1082104286353562 -9.601910352193677 0  0.08533349219600694 -9.579985235002438 0  0.1115909751037982 -9.577616261898093 0  0.06516546688614078 -4.482909562254491 0  1.162373128882496 -7.647010307945592 0  0.06770995823821657 -2.555865921787602 0  0.2750568358924887 -5.235114611409803 0  0.09654482278300769 -7.067449719846913 0  0.06948089681079495 -5.935672472916184 0  0.06593841972633641 -3.395400783007241 0  1.107424190138843 -4.417354918787555 0  0.8723950066556228 -0.7235723263115865 0  2.263445984406317 -6.098796730416237 0  3.725068114722781 -7.26035421403162 0  3.61376946817191 -7.255267994941453 0  1.648548538416579 -8.153334686708785 0  1.260590947540955 -6.489353617070212 0  0.06960234201868332 -9.314565455093028 0  1.094181531953518 -1.032664194534868 0  0.06331527233618139 -5.511812276781736 0  1.34823993430585 -6.05587899404086 0  0.08847851523109185 -4.552207734762681 0  0.06255488071527182 -4.566420185886837 0  2.276319538511224 -1.573160669559732 0  0.686613868824292 -2.034949293523157 0  0.6675650606599604 -2.071459782871785 0  2.273752895836989 -8.606447373745546 0  0.5531357738643692 -9.020311391021588 0  1.674696702865599 -5.070076185293801 0  1.700593305640073 -5.123532234464321 0  1.295624765263153 -7.776363772786093 0  3.292372872950503 -4.388330786887568 0  0.06939405925087172 -2.807661386346868 0  1.274784454283349 -0.1284325089374825 0  0.2688440994116288 -3.584757950995907 0  2.401739124485143 -5.526270224601973 0  2.957334247856592 -8.85113712629655 0  0.7100394696866701 -1.258907127186851 0  0.6880538219042265 -1.293902377778104 0  0.1202382561153286 -7.569311882426496 0  1.223359756103251 -0.9210896255784284 0  0.1184351788342966 -7.518359700204844 0  0.09261457736522516 -7.507252221575107 0  4.114593090650873 -4.058329799452581 0  0.4443174264738197 -2.537307722920909 0  0.01658181995573571 -6.075418994413408 0  0.03754622085432757 -6.087505565077154 0  2.639265700428872 -0.9587215422460362 0  1.471912309327788 -7.191902478289221 0  1.498467651201505 -7.246739237574463 0  12.89803323820553 -9.195056915774828 0  0.1179573025469107 -4.740958677833143 0  3.560219699117937 -7.347758366578661 0  3.607283616159512 -7.438157046107158 0  2.744740816891859 -8.791494682499644 0  2.781695947787538 -8.865339557181219 0  0.06622266846786751 -6.804993286780072 0  3.847749031543259 -3.109978007479931 0  1.133933818967675 -4.288955191930524 0  1.113293007755379 -4.331842445563057 0  7.219864236517745 -3.266650570343194 0  0.3771925832447831 -8.09082527784774 0  0.3262117790634509 -4.020349808279282 0  0.06703443175635826 -6.29621431169701 0  0.6190104643807341 -1.548696271272841 0  0.5808571112269014 -1.553701678141516 0  1.084453179040397 -4.37316072039978 0  2.097793118140046 -9.786373490890236 0  0.3133715962988077 -9.236764190450561 0  3.246752183197053 -4.298403118878255 0  21.48618337940227 -1.753524011693831 0  21.6437443588269 -2.214658256391702 0  0.06779394408914996 -4.367809803978882 0  21.07384129056728 -8.19003111915158 0  2.918702476136815 -8.249627183635461 0  2.869356694494837 -8.331521891112146 0  28.74302034970875 -6.238735414684222 0  28.52937771946832 -6.596691429061239 0  1.07012879014688 -8.247452021443003 0  0.4901565516411406 -9.1702251556951 0  21.78656353759823 -2.586348297842004 0  29.63594527849912 -9.181443831548389 0  29.63594527849912 -8.824300974405533 0  0.9415521895798697 -2.744756247577369 0  0.8167550624197499 -8.747648038690196 0  0.7764062225099266 -8.725791759307008 0  0.9842410788392382 -6.962949236827568 0  0.6861701977146986 -2.103472301704744 0  0.2485490787911804 -5.576200369083169 0  1.056705395340591 -8.201861863985627 0  5.493483777900765 -3.764879009635457 0  2.987837791456947 -3.137716306568374 0  2.367253939603511 -4.009728508466038 0  0.4734835859885766 -6.919008258681462 0  0.4967121778765673 -6.897836182108695 0  0.03826719549560664 -9.941098073841768 0  0.06730564188031707 -7.949237536174395 0  0.09444212040125777 -7.964940758499683 0  3.235675316567621 -6.090745103323874 0  2.453790546244955 -5.463728316271947 0  2.42737488863537 -6.090640427987682 0  0.06740894981765422 -9.540549531051369 0  0.06641166068660098 -9.567718915488364 0  1.823926933846582 -3.29960368452664 0  1.8397452020562 -3.233503930619474 0  5.829343681637091 -2.811288124473056 0  5.561021574872209 -0.4836389440500044 0  0.05380795100222535 -9.960541920075238 0  1.43794864969888 -7.083098828659306 0  1.456678116480411 -7.13939654949611 0  3.05960809901477 -2.902179171040631 0  3.614179415014647 -0.4521431126417488 0  0.06364401902936301 -8.030409674426959 0  0.1109396556942226 -9.550535631375265 0  0.5357452203028679 -9.693860297908401 0  0.7910568474036808 -8.796270144467419 0  0.7607720439712065 -5.19504279152529 0  0.5833556796224748 -8.999918484649477 0  8.877364975137668 -1.301650635238416 0  10.02806191321753 -9.352076254089924 0  0.6117329145971411 -9.014075402048517 0  0.647600760322895 -9.024263032483699 0  0.1784704969537145 -1.264195739845023 0  1.468097198591682 -7.039046938793186 0  0.4343333576516741 -2.566905079975433 0  1.357026670354607 -5.878396153813653 0  8.893159998576385 -2.889880711701328 0  0.06486933489516566 -7.444476056306915 0  0.08745199194963149 -7.455820964111076 0  0.8914748585375314 -8.541194064217629 0  0.859620418198574 -8.566678211437234 0  5.458197652812494 -7.981068933045557 0  5.386688791517487 -8.096859729995373 0  3.805690629354347 -7.434375123957123 0  0.06330035566686831 -8.840983570421283 0  1.681297192587767 -8.096664515577899 0  1.702534431394742 -8.15161937165553 0  0.08946785775082056 -9.628808761871504 0  0.5876691203235378 -6.143142562439126 0  17.14741432907061 -1.318170837534071 0  2.868804925931455 -8.861403745067038 0  0.1955558353216986 -6.48943526350069 0  0.5138619723274402 -6.771903162042071 0  2.506957537642471 -5.60281059170268 0  2.740649046973463 -2.04331899397066 0  2.363071537769381 -0.3145482591040327 0  0.06446532635710689 -0.4882897789691487 0  0.8542507109052817 -3.586611553291953 0  1.20293971684271 -8.0319984897576 0  0.2177383144953993 -9.332666974808957 0  5.467974750150365 -8.202727071748608 0  2.721724309464133 -5.352553601155741 0  2.707380471352501 -5.284375850653444 0  0.5669234171447997 -9.612954908082111 0  3.876709199038181 -3.182964251766905 0  0.1107846364539142 -1.097370249579058 0  1.42325996482241 -9.088232722848696 0  0.323760807332544 -4.717569485961298 0  1.287987663510419 -2.494802017659552 0  0.06874337398033603 -7.729060472309744 0  1.337000573615931 -5.83072997212171 0  0.360703878101404 -0.09369535031340526 0  1.787997461895294 -1.423480296050755 0  1.76725830842004 -3.210138935172512 0  0.08498547513235799 -6.282237958455065 0  5.994799337621034 -2.817834077892526 0  5.903319261233644 -2.91433241527125 0  21.28772623570996 -2.347834410030249 0  0.5969189794911465 -4.749868781587566 0  0.623559609897228 -4.721602496286968 0  15.7897460101557 -2.999481055893537 0  5.657826742753517 -1.765509075083501 0  5.646486175305579 -1.60343804712446 0  2.820881538150246 -2.04975714914657 0  2.782868570061858 -2.129334012306652 0  0.07019518760770183 -0.8726971898759786 0  0.0788788489960055 -0.900575161460039 0  5.114588551853094 -1.666968633680484 0  0.2312909054580405 -8.53122020156837 0  0.9209585623481189 -8.430909127362201 0  3.849832635897501 -8.190530229302924 0  3.944021279358594 -8.1796197748602 0  0.4380829543982667 -0.07436604678907255 0  7.463794868642737 -0.6208262679935075 0  0.06756315126520462 -1.884786853646104 0  0.06781674209542565 -1.915263678166643 0  1.509782553360306 -9.456043414862044 0  1.803235293035179 -1.474330624294503 0  0.3962673169588538 -8.066970224570433 0  5.642831687796678 -0.5866402827271777 0  0.5661292246847722 -1.589636497008698 0  0.6468923724877769 -2.106466884290935 0  0.3171381197014878 -9.269948586113895 0  0.7397051976947218 -8.752624247401947 0  3.709778895628503 -7.430220454060365 0  28.5569556511631 -8.726251394539318 0  5.632031342295289 -3.757926002065482 0  0.06274383558515595 -4.594353146780679 0  9.880787187294564 -9.19574927341527 0  10.00655183868153 -9.032531163189658 0  1.504681645070836 -7.150639396439633 0  0.3615227246496566 -4.072728985821305 0  0.5073277017661084 -3.210342525511067 0  5.982615565017927 -3.012983698478502 0  5.817159909033983 -3.006437745059031 0  2.062351479754543 -9.834861727571178 0  0.4236101659156937 -8.043420873892753 0  0.05282463220577327 -0.03896235766838796 0  8.883887758243267 -6.520800924089338 0  0.06555964084660459 -9.729998912703442 0  1.42805068552728 -4.70150540059347 0  1.396011741919338 -4.755039173339709 0  0.0637217715850209 -0.1800010846326643 0  0.5413705663293573 -0.9002726820696054 0  0.066911334149097 -9.42737430167597 0  5.933038413654359 -7.992471834065764 0  5.765551727086116 -7.979737779459461 0  5.276605743538141 -6.65761101517284 0  5.363465912923957 -6.743336521340032 0  5.214701482819523 -6.758727804401817 0  0.3649936537016849 -3.060257021869636 0  0.3817010054756427 -3.08804002313198 0  0.06418635286249597 -8.058342635320814 0  0.3460264910408739 -4.042146797028955 0  0.08897951661343484 -2.818670071134681 0  0.1136889721370125 -2.811647219443597 0  16.22090055798217 -2.999024620394214 0  0.252673714790415 -5.60240632341617 0  5.343285597531526 -6.561774032535106 0  5.194521167427091 -6.57716531559689 0  3.008990839212769 -8.631517643555807 0  0.06399946398349421 -6.495416774158106 0  0.08557901098820153 -6.506419335609086 0  0.09401106035889484 -9.527694249626723 0  0.06665967366939185 -9.288051359240786 0  1.276357684505875 -2.321861017865871 0  1.300964965088889 -2.361830202254547 0  1.257292764138406 -2.363070997513517 0  29.1074255725403 -6.331489822979053 0  0.5279111737564115 -3.993570340542329 0  9.649981610556628 -6.658587742946332 0  0.6744313626276401 -8.98532645881798 0  0.6444400700007584 -8.958660003916506 0  2.447345310192501 -0.4123271519727076 0  2.445055695817368 -0.3294286269797855 0  8.631030462313761 -0.9304323419400911 0  9.750036703240241 -6.451465157272094 0  0.5429823856402773 -3.204976268400481 0  5.525886430165404 -6.707244242116976 0  5.497632015080228 -6.556825100814461 0  0.2580500683314728 -7.975244925199352 0  0.782364140998542 -7.459885291982987 0  0.2081787306953835 -1.258291574564391 0  0.2373604864588685 -7.950471246106147 0  0.06253126401107778 -8.813826154588206 0  0.0628224576299754 -8.787209783540707 0  0.5491447689871318 -1.619605414344887 0  5.691270267781826 -8.084983311235991 0  5.773532656077858 -8.182971365370971 0  5.624144777698962 -8.187652822181795 0  0.06853615771022881 -1.047375719752357 0  0.0681438712655158 -1.073717036119421 0  0.04114303358735505 -8.778512074950267 0  5.61616384870722 -7.984419236270282 0  0.121812506872697 -2.762849201913578 0  21.68308860101914 -0.8186958846607535 0  0.05825749245273926 -1.438651103875777 0  5.942512514182624 -8.157402207956668 0  0.8628729215906219 -3.547924897106893 0  0.06245453203973028 -6.270959593465571 0  0.05801268950956029 -5.488163535410517 0  16.64479860024418 -2.99989517384026 0  0.3090894805416475 -4.644673287064673 0  4.05746713589421 -9.509646945492712 0  2.842722028729121 -0.9782605858439233 0  2.856158204078056 -1.071751855634492 0  0.5284324533643598 -6.804371720138517 0  0.397321533856255 -3.110741382859288 0  6.153023298188295 -3.010063279606259 0  6.166695843050569 -2.840071301149218 0  17.03722352881802 -2.97950251959383 0  3.692381821438515 -5.33742238518327 0  0.3838285054491894 -3.031396934742271 0  0.1169407295266147 -7.542860265051237 0  0.6090797331687767 -8.977885077567876 0  1.355476748565669 -2.440766742398211 0  2.352781194417235 -6.002621605434267 0  0.4112920671327451 -3.08128105826221 0  8.745248826466881 -1.131581397447002 0  28.56579601522174 -1.244894300068006 0  0.3988201399033056 -3.004428821353223 0  0.4106631732062489 -3.031611585145853 0  0.356548649951602 -4.670351372583076 0  1.327719025296087 -2.39712537446477 0  2.482946410161283 -5.533548559547452 0  0.4274477309161995 -3.054786468382075 0  0.8659884849998232 -8.610388910451494 0  0.0898349601488988 -6.558621648641147 0  0.7889367657660173 -7.500899393984153 0  0.5305195893818144 -9.839082109460993 0  0.7985508133907526 -1.373247154600411 0  0.3401756358866468 -4.692512204955809 0  0.3561116913316784 -4.717821989132867 0  8.952316446924234 -1.143346175653279 0  0.0610051471055737 -9.036422828693654 0  3.756086703821456 -7.348724105801585 0  0.09260143428079459 -1.918359895975674 0  1.233255432382432 -2.409110651159469 0  0.1154029110254662 -2.789471851884292 0  1.260229940240837 -2.451160649726111 0  0.1681905151203811 -2.36757107146408 0  0.3241977659524675 -4.670098869411507 0  2.30911761757913 -6.041635021313408 0  21.57308234994144 -1.191571605497309 0  0.3863738439797082 -4.7221777470356 0  0.3699590154256072 -4.747235028041088 0  2.559008959402282 -5.540268683372655 0  0.5354014818837882 -4.023103235734388 0  0.5713312404469448 -1.175531842131481 0  0.06113368907286443 -8.764885191772699 0  1.323521809762312 -7.74516358433644 0  0.7579894667757952 -8.784247912066864 0  1.309657767991004 -2.446681549835634 0  0.08988200672559721 -1.082133767498139 0  2.368793359261041 -6.061339742125931 0  21.93746595294362 -1.158027933971158 0  29.64509013172008 -0.4563255940155901 0  29.63594527849912 -9.538586688691247 0  </DataArray>
</Points>
<Cells>
<DataArray  type="UInt32"  Name="connectivity"  format="ascii">268 269 4935  268 4935 4936  3238 4935 4936  267 268 4936  2610 4937 4939  4937 4938 4939  3821 4937 4938  2612 4938 4939  783 4940 4942  4940 4941 4942  3895 4940 4941  2988 4941 4942  3170 4943 4945  4943 4944 4945  4359 4943 4944  3107 4944 4945  477 478 4946  477 4946 4947  3744 4946 4947  476 477 4947  2274 4948 4950  4948 4949 4950  3957 4948 4949  2938 4949 4950  1277 4951 4953  4951 4952 4953  3243 4951 4952  2990 4952 4953  2341 4954 4956  4954 4955 4956  3571 4954 4955  2064 4955 4956  861 4957 4959  4957 4958 4959  3028 4957 4958  859 4958 4959  1135 4960 4962  4960 4961 4962  3549 4960 4961  1126 4961 4962  387 388 4963  387 4963 4964  3736 4963 4964  386 387 4964  1145 4965 4966  4960 4965 4966  3549 4960 4965  1135 4960 4966  1156 4967 4969  4967 4968 4969  3384 4967 4968  1154 4968 4969  1154 4968 4971  4968 4970 4971  3384 4968 4970  1185 4970 4971  3039 4972 4974  4972 4973 4974  4233 4972 4973  3593 4973 4974  1622 4975 4977  4975 4976 4977  4043 4975 4976  3297 4976 4977  1316 4978 4980  4978 4979 4980  3963 4978 4979  3801 4979 4980  675 4981 4983  4981 4982 4983  3079 4981 4982  3078 4982 4983  629 630 4984  629 4984 4985  3844 4984 4985  628 629 4985  932 4986 4988  4986 4987 4988  3783 4986 4987  924 4987 4988  2506 4989 4991  4989 4990 4991  4643 4989 4990  3798 4990 4991  675 4981 4992  4981 4992 4993  4681 4992 4993  3079 4981 4993  4066 4994 4996  4994 4995 4996  4586 4994 4995  2907 4995 4996  2938 4950 4997  4950 4997 4998  3956 4997 4998  2274 4950 4998  1005 4999 5001  4999 5000 5001  4644 4999 5000  987 5000 5001  3292 5002 5004  5002 5003 5004  3293 5002 5003  2843 5003 5004  2961 5005 5007  5005 5006 5007  4708 5005 5006  1439 5006 5007  4421 5008 5010  5008 5009 5010  4665 5008 5009  2869 5009 5010  3652 5011 5013  5011 5012 5013  4129 5011 5012  2831 5012 5013  666 5014 5016  5014 5015 5016  3262 5014 5015  3261 5015 5016  3725 5017 5019  5017 5018 5019  3890 5017 5018  690 5018 5019  896 5020 5022  5020 5021 5022  3153 5020 5021  2915 5021 5022  3077 5023 5025  5023 5024 5025  3670 5023 5024  2297 5024 5025  1020 5026 5027  4957 5026 5027  3028 4957 5026  861 4957 5027  951 5028 5030  5028 5029 5030  3135 5028 5029  949 5029 5030  3301 5031 5033  5031 5032 5033  3564 5031 5032  2074 5032 5033  3092 5034 5036  5034 5035 5036  4051 5034 5035  3093 5035 5036  3097 5037 5039  5037 5038 5039  3679 5037 5038  2836 5038 5039  3305 5040 5042  5040 5041 5042  4385 5040 5041  3677 5041 5042  1439 5007 5043  5007 5043 5044  3436 5043 5044  2961 5007 5044  3108 5045 5047  5045 5046 5047  3109 5045 5046  1660 5046 5047  2194 5048 5050  5048 5049 5050  4049 5048 5049  2487 5049 5050  2900 5051 5053  5051 5052 5053  4358 5051 5052  4335 5052 5053  1358 5054 5056  5054 5055 5056  3711 5054 5055  3530 5055 5056  2246 5057 5059  5057 5058 5059  3338 5057 5058  3088 5058 5059  2507 5060 5062  5060 5061 5062  3941 5060 5061  2505 5061 5062  2487 5049 5064  5049 5063 5064  4049 5049 5063  3703 5063 5064  3700 5065 5067  5065 5066 5067  4447 5065 5066  2531 5066 5067  3078 5068 5070  5068 5069 5070  4167 5068 5069  3098 5069 5070  2990 5071 5073  5071 5072 5073  3043 5071 5072  2119 5072 5073  3342 5074 5076  5074 5075 5076  4215 5074 5075  3345 5075 5076  2951 5077 5079  5077 5078 5079  4542 5077 5078  3297 5078 5079  724 5080 5082  5080 5081 5082  3486 5080 5081  3315 5081 5082  2180 5083 5084  4975 5083 5084  4043 4975 5083  1622 4975 5084  3994 5085 5087  5085 5086 5087  4002 5085 5086  3451 5086 5087  2275 5088 5090  5088 5089 5090  3956 5088 5089  3047 5089 5090  3460 5091 5093  5091 5092 5093  3846 5091 5092  699 5092 5093  3107 4945 5094  4945 5094 5095  4622 5094 5095  3170 4945 5095  2102 5096 5098  5096 5097 5098  3178 5096 5097  2104 5097 5098  3263 5099 5101  5099 5100 5101  3891 5099 5100  781 5100 5101  3007 5102 5104  5102 5103 5104  3470 5102 5103  2555 5103 5104  3099 5105 5107  5105 5106 5107  4509 5105 5106  709 5106 5107  1905 5108 5110  5108 5109 5110  3113 5108 5109  2293 5109 5110  2256 5111 5113  5111 5112 5113  3138 5111 5112  2255 5112 5113  709 5106 5115  5106 5114 5115  4509 5106 5114  3621 5114 5115  2356 5116 5118  5116 5117 5118  3740 5116 5117  3314 5117 5118  2535 5119 5121  5119 5120 5121  4405 5119 5120  2532 5120 5121  3223 5122 5124  5122 5123 5124  3554 5122 5123  3222 5123 5124  3665 5125 5127  5125 5126 5127  3666 5125 5126  691 5126 5127  2557 5128 5130  5128 5129 5130  4819 5128 5129  2963 5129 5130  666 5014 5131  5014 5131 5132  4488 5131 5132  3262 5014 5132  1660 5046 5134  5046 5133 5134  3109 5046 5133  1501 5133 5134  1440 5135 5136  5023 5135 5136  3670 5023 5135  3077 5023 5136  3724 5137 5139  5137 5138 5139  4790 5137 5138  2732 5138 5139  3335 5140 5142  5140 5141 5142  4413 5140 5141  1063 5141 5142  739 5143 5145  5143 5144 5145  4602 5143 5144  3407 5144 5145  3113 5109 5146  5109 5146 5147  4196 5146 5147  2293 5109 5147  3155 5148 5150  5148 5149 5150  3467 5148 5149  2222 5149 5150  723 5151 5153  5151 5152 5153  3855 5151 5152  3217 5152 5153  1983 5154 5156  5154 5155 5156  4077 5154 5155  3380 5155 5156  3059 5157 5159  5157 5158 5159  3406 5157 5158  700 5158 5159  2914 5160 5162  5160 5161 5162  3853 5160 5161  3541 5161 5162  2652 5163 5165  5163 5164 5165  4082 5163 5164  3040 5164 5165  1709 5166 5168  5166 5167 5168  3672 5166 5167  3380 5167 5168  3228 5169 5171  5169 5170 5171  4642 5169 5170  2003 5170 5171  1451 5172 5174  5172 5173 5174  3104 5172 5173  1916 5173 5174  2222 5150 5175  5150 5175 5176  3468 5175 5176  3155 5150 5176  2427 5177 5179  5177 5178 5179  3611 5177 5178  3203 5178 5179  3283 5180 5182  5180 5181 5182  4637 5180 5181  3930 5181 5182  3223 5183 5184  4994 5183 5184  4586 4994 5183  4066 4994 5184  758 5185 5187  5185 5186 5187  3709 5185 5186  3024 5186 5187  2104 5097 5189  5097 5188 5189  3178 5097 5188  2114 5188 5189  3420 5190 5192  5190 5191 5192  4202 5190 5191  3727 5191 5192  2896 5193 5195  5193 5194 5195  2897 5193 5194  793 5194 5195  789 5196 5198  5196 5197 5198  4237 5196 5197  4174 5197 5198  3677 5041 5200  5041 5199 5200  4385 5041 5199  726 5199 5200  2580 5201 5203  5201 5202 5203  4444 5201 5202  2579 5202 5203  3338 5058 5204  5058 5204 5205  3713 5204 5205  3088 5058 5205  2509 5206 5207  5140 5206 5207  4413 5140 5206  3335 5140 5207  3374 5208 5210  5208 5209 5210  4078 5208 5209  3937 5209 5210  3000 5211 5213  5211 5212 5213  3301 5211 5212  718 5212 5213  4117 5214 5216  5214 5215 5216  4132 5214 5215  2085 5215 5216  3222 5123 5218  5123 5217 5218  3554 5123 5217  1072 5217 5218  3345 5075 5220  5075 5219 5220  4215 5075 5219  2032 5219 5220  3189 5221 5223  5221 5222 5223  3191 5221 5222  1987 5222 5223  2990 4952 5071  4952 5071 5224  3243 4952 5224  3043 5071 5224  1367 5225 5226  5011 5225 5226  4129 5011 5225  3652 5011 5226  2304 5227 5229  5227 5228 5229  4271 5227 5228  4196 5228 5229  2802 5230 5232  5230 5231 5232  3634 5230 5231  2801 5231 5232  2131 5233 5235  5233 5234 5235  2996 5233 5234  2994 5234 5235  3092 5034 5236  5034 5236 5237  4786 5236 5237  4051 5034 5237  3159 5238 5240  5238 5239 5240  3161 5238 5239  986 5239 5240  763 5241 5243  5241 5242 5243  3365 5241 5242  3363 5242 5243  2573 5244 5246  5244 5245 5246  4624 5244 5245  3920 5245 5246  662 5247 5248  4946 5247 5248  3744 4946 5247  478 4946 5248  2980 5249 5251  5249 5250 5251  3853 5249 5250  3277 5250 5251  3315 5082 5252  5082 5252 5253  3485 5252 5253  724 5082 5253  2531 5067 5254  5067 5254 5255  4405 5254 5255  3700 5067 5255  3407 5144 5257  5144 5256 5257  4602 5144 5256  3157 5256 5257  3040 5164 5259  5164 5258 5259  4082 5164 5258  2971 5258 5259  2256 5111 5260  5111 5260 5261  3740 5260 5261  3138 5111 5261  2558 5262 5264  5262 5263 5264  3915 5262 5263  2561 5263 5264  768 5265 5267  5265 5266 5267  3321 5265 5266  3019 5266 5267  3473 5268 5270  5268 5269 5270  3971 5268 5269  1599 5269 5270  2359 5271 5273  5271 5272 5273  3731 5271 5272  2360 5272 5273  3293 5003 5274  5003 5274 5275  3294 5274 5275  2843 5003 5275  3380 5156 5276  5156 5276 5277  3937 5276 5277  1983 5156 5277  2834 5278 5280  5278 5279 5280  4349 5278 5279  2844 5279 5280  3314 5118 5281  5118 5281 5282  4274 5281 5282  2356 5118 5282  2274 4998 5283  4998 5088 5283  3956 4998 5088  2275 5088 5283  781 5101 5284  5101 5284 5285  4387 5284 5285  3263 5101 5285  716 5286 5288  5286 5287 5288  4680 5286 5287  3036 5287 5288  2739 5289 5291  5289 5290 5291  3454 5289 5290  3453 5290 5291  721 5292 5294  5292 5293 5294  4168 5292 5293  3445 5293 5294  2909 5295 5297  5295 5296 5297  4373 5295 5296  4302 5296 5297  3179 5298 5300  5298 5299 5300  3553 5298 5299  1794 5299 5300  2936 5301 5303  5301 5302 5303  3595 5301 5302  3428 5302 5303  2734 5304 5305  5139 5304 5305  3724 5139 5304  2732 5139 5305  1597 5306 5308  5306 5307 5308  3910 5306 5307  3590 5307 5308  1550 5309 5311  5309 5310 5311  3252 5309 5310  1552 5310 5311  3687 5312 5314  5312 5313 5314  3955 5312 5313  2232 5313 5314  2412 5315 5317  5315 5316 5317  3893 5315 5316  3887 5316 5317  700 5159 5318  5159 5318 5319  3148 5318 5319  3059 5159 5319  294 295 5320  294 5320 5321  3407 5320 5321  293 294 5321  2915 5022 5322  5022 5322 5323  4136 5322 5323  896 5022 5323  2409 5324 5326  5324 5325 5326  4638 5324 5325  3862 5325 5326  2844 5279 5328  5279 5327 5328  4349 5279 5327  3057 5327 5328  2987 5329 5331  5329 5330 5331  3848 5329 5330  3041 5330 5331  2404 5332 5334  5332 5333 5334  4658 5332 5333  3025 5333 5334  3087 5335 5337  5335 5336 5337  3354 5335 5336  3086 5336 5337  987 5000 5339  5000 5338 5339  4644 5000 5338  3783 5338 5339  2981 5340 5342  5340 5341 5342  3821 5340 5341  2619 5341 5342  3154 5343 5344  5148 5343 5344  3467 5148 5343  3155 5148 5344  2444 5345 5347  5345 5346 5347  4373 5345 5346  2443 5346 5347  3120 5348 5350  5348 5349 5350  4128 5348 5349  886 5349 5350  2619 5341 5351  4937 5341 5351  3821 4937 5341  2610 4937 5351  4335 5052 5353  5052 5352 5353  4358 5052 5352  2563 5352 5353  3297 4977 5078  4977 5078 5354  4542 5078 5354  1622 4977 5354  3530 5056 5355  5056 5355 5356  3877 5355 5356  1358 5056 5356  791 5357 5358  5037 5357 5358  3679 5037 5357  3097 5037 5358  3119 5359 5361  5359 5360 5361  3688 5359 5360  2381 5360 5361  2114 5188 5363  5188 5362 5363  3178 5188 5362  3175 5362 5363  3282 5364 5365  5180 5364 5365  4637 5180 5364  3283 5180 5365  3000 5211 5366  5031 5211 5366  3564 5031 5366  3301 5031 5211  3626 5367 5369  5367 5368 5369  4454 5367 5368  2814 5368 5369  3260 5370 5372  5370 5371 5372  3356 5370 5371  1656 5371 5372  3380 5155 5168  5155 5168 5373  4077 5155 5373  1709 5168 5373  1209 5374 5375  5028 5374 5375  3135 5028 5374  951 5028 5375  2619 5342 5376  5342 5376 5377  3820 5376 5377  2981 5342 5377  4116 5378 5380  5378 5379 5380  4392 5378 5379  2865 5379 5380  3127 5381 5383  5381 5382 5383  3129 5381 5382  131 5382 5383  3495 5384 5386  5384 5385 5386  4731 5384 5385  2075 5385 5386  246 247 5387  246 5387 5388  3811 5387 5388  245 246 5388  3279 5389 5391  5389 5390 5391  3280 5389 5390  1118 5390 5391  2386 5392 5394  5392 5393 5394  4280 5392 5393  2990 5393 5394  1382 5395 5397  5395 5396 5397  4400 5395 5396  3076 5396 5397  3563 5398 5399  4954 5398 5399  3571 4954 5398  2341 4954 5399  4229 5400 5401  5392 5400 5401  4280 5392 5400  2386 5392 5401  917 5402 5404  5402 5403 5404  3998 5402 5403  2974 5403 5404  2962 5405 5407  5405 5406 5407  4272 5405 5406  3259 5406 5407  3453 5408 5410  5408 5409 5410  4085 5408 5409  2658 5409 5410  3593 4973 5412  4973 5411 5412  4233 4973 5411  3594 5411 5412  3937 5209 5277  5209 5277 5413  4078 5209 5413  1983 5277 5413  2998 5414 5416  5414 5415 5416  4734 5414 5415  662 5415 5416  2428 5417 5419  5417 5418 5419  3069 5417 5418  3068 5418 5419  1453 5420 5421  5172 5420 5421  3104 5172 5420  1451 5172 5421  1001 5422 5424  5422 5423 5424  3211 5422 5423  3210 5423 5424  3168 5425 5427  5425 5426 5427  3171 5425 5426  1600 5426 5427  690 5019 5428  5019 5428 5429  4428 5428 5429  3725 5019 5429  3920 5246 5430  5246 5430 5431  4169 5430 5431  2573 5246 5431  3603 5432 5433  4978 5432 5433  3963 4978 5432  1316 4978 5433  2964 5434 5436  5434 5435 5436  4844 5434 5435  2093 5435 5436  1786 5437 5438  5343 5437 5438  3467 5343 5437  3154 5343 5438  4214 5439 5441  5439 5440 5441  4379 5439 5440  3972 5440 5441  2963 5130 5442  5130 5442 5443  3915 5442 5443  2557 5130 5443  852 5444 5446  5444 5445 5446  4453 5444 5445  4391 5445 5446  3363 5243 5447  5243 5447 5448  4849 5447 5448  763 5243 5448  3038 5449 5451  5449 5450 5451  4255 5449 5450  3036 5450 5451  718 5213 5452  5213 5452 5453  3300 5452 5453  3000 5213 5453  1972 5454 5456  5454 5455 5456  4060 5454 5455  3199 5455 5456  728 5457 5459  5457 5458 5459  3351 5457 5458  3096 5458 5459  1496 5460 5462  5460 5461 5462  4036 5460 5461  3737 5461 5462  3023 5463 5465  5463 5464 5465  4452 5463 5464  3142 5464 5465  3429 5466 5468  5466 5467 5468  3655 5466 5467  683 5467 5468  2868 5469 5470  5348 5469 5470  4128 5348 5469  3120 5348 5470  784 5471 5473  5471 5472 5473  3829 5471 5472  3333 5472 5473  1794 5300 5474  5300 5474 5475  3697 5474 5475  3179 5300 5475  2003 5171 5476  5171 5476 5477  4139 5476 5477  3228 5171 5477  4320 5478 5480  5478 5479 5480  4505 5478 5479  2923 5479 5480  914 5481 5483  5481 5482 5483  4792 5481 5482  4379 5482 5483  3036 5288 5450  5288 5450 5484  4255 5450 5484  716 5288 5484  4245 5485 5487  5485 5486 5487  4700 5485 5486  3317 5486 5487  3541 5161 5488  5161 5249 5488  3853 5161 5249  2980 5249 5488  3203 5179 5489  5179 5489 5490  4845 5489 5490  2427 5179 5490  3359 5491 5493  5491 5492 5493  4272 5491 5492  3436 5492 5493  333 334 5494  333 5494 5495  3365 5494 5495  332 333 5495  3217 5152 5497  5152 5496 5497  3855 5152 5496  3216 5496 5497  2999 5498 5500  5498 5499 5500  4240 5498 5499  3742 5499 5500  669 5501 5503  5501 5502 5503  4326 5501 5502  3728 5502 5503  2085 5215 5505  5215 5504 5505  4132 5215 5504  1955 5504 5505  736 5506 5508  5506 5507 5508  797 5506 5507  796 5507 5508  686 5509 5511  5509 5510 5511  3054 5509 5510  3052 5510 5511  3143 5512 5514  5512 5513 5514  3144 5512 5513  2912 5513 5514  3445 5293 5516  5293 5515 5516  4168 5293 5515  3446 5515 5516  3484 5517 5519  5517 5518 5519  3628 5517 5518  2775 5518 5519  3344 5520 5522  5520 5521 5522  4537 5520 5521  2857 5521 5522  728 5457 5523  5457 5523 5524  3352 5523 5524  3351 5457 5524  4038 5525 5527  5525 5526 5527  4084 5525 5526  1820 5526 5527  4391 5445 5529  5445 5528 5529  4453 5445 5528  2973 5528 5529  1233 5530 5532  5530 5531 5532  4396 5530 5531  3146 5531 5532  2984 5533 5535  5533 5534 5535  3404 5533 5534  1781 5534 5535  2988 4942 5536  4942 5536 5537  4578 5536 5537  783 4942 5537  2093 5436 5538  5436 5538 5539  3788 5538 5539  2964 5436 5539  2543 5540 5542  5540 5541 5542  4070 5540 5541  3240 5541 5542  1367 5225 5543  5225 5543 5544  4554 5543 5544  4129 5225 5544  3453 5291 5545  5291 5545 5546  4189 5545 5546  2739 5291 5546  2336 5547 5549  5547 5548 5549  4008 5547 5548  3657 5548 5549  3170 5550 5552  5550 5551 5552  4598 5550 5551  3981 5551 5552  754 5553 5554  4935 5553 5554  3238 4935 5553  269 4935 5554  3862 5326 5555  5326 5555 5556  4348 5555 5556  2409 5326 5556  3423 5557 5559  5557 5558 5559  4351 5557 5558  3424 5558 5559  1987 5223 5560  5223 5560 5561  3192 5560 5561  3189 5223 5561  3436 5492 5562  5405 5492 5562  4272 5405 5492  2962 5405 5562  3193 5563 5565  5563 5564 5565  3194 5563 5564  786 5564 5565  1459 5566 5568  5566 5567 5568  4301 5566 5567  2937 5567 5568  3979 5569 5570  5481 5569 5570  4792 5481 5569  914 5481 5570  3161 5239 5571  5239 5571 5572  4366 5571 5572  986 5239 5572  3086 5336 5574  5336 5573 5574  3354 5336 5573  1773 5573 5574  2807 5575 5576  5230 5575 5576  3634 5230 5575  2802 5230 5576  2864 5577 5579  5577 5578 5579  4791 5577 5578  4080 5578 5579  796 5580 5581  5195 5580 5581  2896 5195 5580  793 5195 5581  2963 5129 5583  5129 5582 5583  4819 5129 5582  3858 5582 5583  3134 5584 5586  5584 5585 5586  4188 5584 5585  2486 5585 5586  3047 5089 5588  5089 5587 5588  3956 5089 5587  2077 5587 5588  3114 5589 5591  5589 5590 5591  4422 5589 5590  4284 5590 5591  3560 5592 5594  5592 5593 5594  4178 5592 5593  2519 5593 5594  2075 5386 5595  5386 5595 5596  4220 5595 5596  3495 5386 5596  4196 5228 5598  5228 5597 5598  4271 5228 5597  3053 5597 5598  1215 5599 5601  5599 5600 5601  3480 5599 5600  1213 5600 5601  3025 5334 5602  5334 5602 5603  4275 5602 5603  2404 5334 5603  2232 5314 5604  5314 5604 5605  3954 5604 5605  3687 5314 5605  3416 5606 5608  5606 5607 5608  3854 5606 5607  2210 5607 5608  2218 5609 5611  5609 5610 5611  3555 5609 5610  3286 5610 5611  3660 5612 5614  5612 5613 5614  3994 5612 5613  1495 5613 5614  2994 5235 5615  5235 5615 5616  3082 5615 5616  2131 5235 5616  3383 5617 5618  4967 5617 5618  3384 4967 5617  1156 4967 5618  2359 5271 5619  5271 5619 5620  4090 5619 5620  3731 5271 5620  1771 5621 5623  5621 5622 5623  3672 5621 5622  1710 5622 5623  1961 5624 5626  5624 5625 5626  3532 5624 5625  3531 5625 5626  2444 5345 5627  5345 5627 5628  4406 5627 5628  4373 5345 5628  3666 5126 5629  5126 5629 5630  4770 5629 5630  691 5126 5630  2352 5631 5633  5631 5632 5633  4246 5631 5632  2993 5632 5633  2361 5634 5636  5634 5635 5636  3092 5634 5635  3090 5635 5636  3034 5637 5639  5637 5638 5639  3037 5637 5638  1662 5638 5639  821 5640 5642  5640 5641 5642  3085 5640 5641  819 5641 5642  2650 5643 5645  5643 5644 5645  3106 5643 5644  3065 5644 5645  4299 5646 5648  5646 5647 5648  4596 5646 5647  2949 5647 5648  2064 4955 5650  4955 5649 5650  3571 4955 5649  2063 5649 5650  1402 5651 5653  5651 5652 5653  4282 5651 5652  3071 5652 5653  4284 5590 5655  5590 5654 5655  4422 5590 5654  2471 5654 5655  2074 5033 5656  5033 5656 5657  4294 5656 5657  3301 5033 5657  2990 4953 5393  4953 5393 5658  4280 5393 5658  1277 4953 5658  2911 5659 5661  5659 5660 5661  4396 5659 5660  4316 5660 5661  662 5416 5662  5416 5662 5663  3903 5662 5663  2998 5416 5663  3022 5664 5666  5664 5665 5666  4808 5664 5665  3104 5665 5666  3742 5499 5668  5499 5667 5668  4240 5499 5667  3021 5667 5668  3101 5669 5671  5669 5670 5671  4685 5669 5670  4185 5670 5671  3019 5267 5672  5267 5672 5673  3859 5672 5673  768 5267 5673  3277 5251 5674  5251 5674 5675  4666 5674 5675  2980 5251 5675  736 5508 5677  5508 5676 5677  796 5508 5676  173 5676 5677  135 5678 5680  5678 5679 5680  3030 5678 5679  737 5679 5680  784 5471 5681  5471 5681 5682  4479 5681 5682  3829 5471 5682  32 33 5683  32 5683 5684  3682 5683 5684  31 32 5684  3644 5685 5687  5685 5686 5687  4909 5685 5686  2866 5686 5687  2416 5688 5690  5688 5689 5690  4477 5688 5689  3936 5689 5690  3667 5691 5693  5691 5692 5693  4297 5691 5692  663 5692 5693  1180 5694 5696  5694 5695 5696  4421 5694 5695  4238 5695 5696  2919 5697 5699  5697 5698 5699  3462 5697 5698  3461 5698 5699  1972 5454 5700  5454 5700 5701  4147 5700 5701  4060 5454 5701  3345 5702 5703  5520 5702 5703  4537 5520 5702  3344 5520 5703  2987 5329 5704  5329 5704 5705  4460 5704 5705  3848 5329 5705  3024 5187 5706  5187 5706 5707  3716 5706 5707  758 5187 5707  1781 5535 5708  5535 5708 5709  3405 5708 5709  2984 5535 5709  3001 5710 5712  5710 5711 5712  4544 5710 5711  1301 5711 5712  3103 5713 5715  5713 5714 5715  4835 5713 5714  3559 5714 5715  3038 5449 5716  5449 5716 5717  4336 5716 5717  4255 5449 5717  3317 5486 5719  5486 5718 5719  4700 5486 5718  1492 5718 5719  3104 5173 5665  5173 5665 5720  4808 5665 5720  1916 5173 5720  3103 5715 5722  5715 5721 5722  3559 5715 5721  1236 5721 5722  2943 5723 5725  5723 5724 5725  4726 5723 5724  3702 5724 5725  247 5387 5726  5387 5726 5727  4917 5726 5727  3811 5387 5727  2814 5369 5728  5369 5728 5729  4374 5728 5729  3626 5369 5729  4345 5730 5732  5730 5731 5732  4885 5730 5731  3275 5731 5732  1001 5422 5733  5422 5733 5734  4211 5733 5734  3211 5422 5734  3118 5735 5737  5735 5736 5737  4893 5735 5736  693 5736 5737  1586 5738 5740  5738 5739 5740  3957 5738 5739  1588 5739 5740  3134 5584 5741  5584 5741 5742  4742 5741 5742  4188 5584 5742  2256 5743 5745  5743 5744 5745  3933 5743 5744  3314 5744 5745  3115 5746 5748  5746 5747 5748  3237 5746 5747  2171 5747 5748  2859 5749 5751  5749 5750 5751  4074 5749 5750  3871 5750 5751  4281 5752 5754  5752 5753 5754  4346 5752 5753  790 5753 5754  1403 5755 5756  5651 5755 5756  4282 5651 5755  1402 5651 5756  3065 5645 5757  5645 5757 5758  3162 5757 5758  2650 5645 5758  2983 5759 5760  5083 5759 5760  4043 5083 5759  2180 5083 5760  3194 5564 5761  5564 5761 5762  3667 5761 5762  786 5564 5762  795 5763 5765  5763 5764 5765  4851 5763 5764  139 5764 5765  2622 5766 5768  5766 5767 5768  4270 5766 5767  3871 5767 5768  3073 5769 5771  5769 5770 5771  3582 5769 5770  1479 5770 5771  3887 5317 5772  5317 5772 5773  4449 5772 5773  2412 5317 5773  3535 5774 5776  5774 5775 5776  4203 5774 5775  3534 5775 5776  3238 4936 5777  4936 5777 5778  3239 5777 5778  267 4936 5778  1613 5779 5781  5779 5780 5781  4253 5779 5780  2991 5780 5781  2165 5782 5784  5782 5783 5784  3720 5782 5783  2163 5783 5784  3975 5785 5787  5785 5786 5787  4222 5785 5786  2285 5786 5787  3199 5788 5790  5788 5789 5790  4466 5788 5789  4288 5789 5790  3728 5502 5792  5502 5791 5792  4326 5502 5791  3575 5791 5792  3001 5793 5795  5793 5794 5795  4433 5793 5794  2495 5794 5795  3344 5796 5798  5796 5797 5798  4010 5796 5797  3328 5797 5798  3286 5611 5799  5611 5799 5800  3556 5799 5800  2218 5611 5800  4299 5801 5803  5801 5802 5803  4483 5801 5802  2324 5802 5803  2363 5804 5806  5804 5805 5806  4528 5804 5805  3329 5805 5806  3454 5807 5809  5807 5808 5809  4653 5807 5808  1303 5808 5809  1128 5810 5812  5810 5811 5812  3698 5810 5811  1129 5811 5812  2988 4941 5814  4941 5813 5814  3895 4941 5813  2989 5813 5814  4238 5695 5816  5695 5815 5816  4421 5695 5815  2932 5815 5816  2405 5817 5818  5606 5817 5818  3854 5606 5817  3416 5606 5818  1596 5819 5821  5819 5820 5821  4364 5819 5820  3211 5820 5821  68 69 5822  68 5822 5823  3302 5822 5823  67 68 5823  3574 5824 5826  5824 5825 5826  4809 5824 5825  2849 5825 5826  3865 5827 5829  5827 5828 5829  4385 5827 5828  3234 5828 5829  177 5830 5832  5830 5831 5832  3095 5830 5831  3033 5831 5832  2567 5833 5835  5833 5834 5835  4063 5833 5834  3231 5834 5835  4288 5789 5837  5789 5836 5837  4466 5789 5836  1970 5836 5837  3024 5186 5839  5186 5838 5839  3709 5186 5838  3025 5838 5839  3280 5390 5840  5390 5840 5841  3283 5840 5841  1118 5390 5841  3175 5363 5842  5363 5842 5843  3179 5842 5843  2114 5363 5843  2314 5844 5846  5844 5845 5846  4663 5844 5845  4165 5845 5846  3473 5268 5847  5268 5847 5848  4789 5847 5848  3971 5268 5848  3026 5849 5850  5735 5849 5850  4893 5735 5849  3118 5735 5850  2428 5419 5852  5419 5851 5852  3068 5419 5851  1678 5851 5852  775 5853 5855  5853 5854 5855  3879 5853 5854  3456 5854 5855  3655 5467 5856  5467 5856 5857  4263 5856 5857  683 5467 5857  4351 5558 5858  5558 5858 5859  4490 5858 5859  3424 5558 5859  3030 5679 5860  5679 5860 5861  3125 5860 5861  737 5679 5861  3936 5689 5863  5689 5862 5863  4477 5689 5862  1612 5862 5863  3381 5864 5865  5621 5864 5865  3672 5621 5864  1771 5621 5865  2866 5687 5866  5687 5866 5867  3781 5866 5867  3644 5687 5867  3440 5868 5870  5868 5869 5870  3511 5868 5869  3510 5869 5870  2993 5633 5871  5633 5871 5872  4761 5871 5872  2352 5633 5872  3110 5873 5875  5873 5874 5875  4223 5873 5874  1376 5874 5875  4297 5692 5876  5692 5876 5877  4558 5876 5877  663 5692 5877  1114 5878 5879  5359 5878 5879  3688 5359 5878  3119 5359 5879  2467 5880 5882  5880 5881 5882  3056 5880 5881  2144 5881 5882  906 5883 5885  5883 5884 5885  4350 5883 5884  3006 5884 5885  2470 5886 5888  5886 5887 5888  4318 5886 5887  4199 5887 5888  3144 5513 5889  5513 5889 5890  4396 5889 5890  2912 5513 5890  3821 5891 5893  5891 5892 5893  4269 5891 5892  2636 5892 5893  2198 5894 5895  5774 5894 5895  4203 5774 5894  3535 5774 5895  2937 5568 5896  5568 5896 5897  4478 5896 5897  1459 5568 5897  332 5495 5898  5241 5495 5898  3365 5241 5495  763 5241 5898  3462 5899 5900  5091 5899 5900  3846 5091 5899  3460 5091 5900  3151 5901 5903  5901 5902 5903  4022 5901 5902  3723 5902 5903  987 5339 5904  4986 5339 5904  3783 4986 5339  932 4986 5904  3680 5905 5906  5543 5905 5906  4554 5543 5905  1367 5543 5906  2359 5619 5907  5619 5907 5908  4278 5907 5908  4090 5619 5908  2932 5815 5909  5010 5815 5909  4421 5010 5815  2869 5010 5909  3770 5910 5912  5910 5911 5912  4463 5910 5911  1924 5911 5912  2383 5913 5915  5913 5914 5915  3758 5913 5914  3114 5914 5915  3723 5902 5917  5902 5916 5917  4022 5902 5916  2132 5916 5917  1376 5874 5919  5874 5918 5919  4223 5874 5918  1373 5918 5919  2463 5920 5922  5920 5921 5922  4826 5920 5921  3642 5921 5922  2974 5404 5923  5404 5923 5924  3784 5923 5924  917 5404 5924  1552 5310 5926  5310 5925 5926  3252 5310 5925  1555 5925 5926  3727 5191 5928  5191 5927 5928  4202 5191 5927  2754 5927 5928  1176 5929 5931  5929 5930 5931  4124 5929 5930  1097 5930 5931  2443 5346 5932  5295 5346 5932  4373 5295 5346  2909 5295 5932  892 5933 5935  5933 5934 5935  3985 5933 5934  3062 5934 5935  3168 5936 5938  5936 5937 5938  4244 5936 5937  904 5937 5938  3412 5939 5940  5592 5939 5940  4178 5592 5939  3560 5592 5940  2943 5725 5942  5725 5941 5942  3702 5725 5941  3391 5941 5942  3240 5541 5944  5541 5943 5944  4070 5541 5943  3017 5943 5944  3657 5549 5945  5549 5945 5946  4469 5945 5946  2336 5549 5946  3002 5947 5949  5947 5948 5949  3304 5947 5948  1584 5948 5949  2040 5950 5952  5950 5951 5952  3275 5950 5951  1817 5951 5952  1491 5953 5955  5953 5954 5955  4504 5953 5954  3773 5954 5955  2579 5202 5957  5202 5956 5957  4444 5202 5956  3484 5956 5957  2505 5061 5959  5061 5958 5959  3941 5061 5958  2925 5958 5959  3320 5960 5961  5824 5960 5961  4809 5824 5960  3574 5824 5961  1521 5962 5964  5962 5963 5964  4569 5962 5963  3973 5963 5964  1301 5712 5965  5712 5793 5965  4433 5793 5965  3001 5712 5793  1073 5966 5968  5966 5967 5968  4186 5966 5967  1072 5967 5968  766 5969 5971  5969 5970 5971  3733 5969 5970  3041 5970 5971  3981 5552 5972  4943 5552 5972  4359 4943 5972  3170 4943 5552  1291 5973 5975  5973 5974 5975  3177 5973 5974  1294 5974 5975  3250 5976 5978  5976 5977 5978  3580 5976 5977  3249 5977 5978  1159 5979 5980  5646 5979 5980  4596 5646 5979  4299 5646 5980  3662 5981 5983  5981 5982 5983  4122 5981 5982  3756 5982 5983  2636 5892 5985  5892 5984 5985  4269 5892 5984  3692 5984 5985  4540 5986 5988  5986 5987 5988  4660 5986 5987  749 5987 5988  1959 5989 5991  5989 5990 5991  3778 5989 5990  1957 5990 5991  176 177 5832  176 5832 5992  3033 5832 5992  175 176 5992  3885 5993 5994  5119 5993 5994  4405 5119 5993  2535 5119 5994  4090 5908 5996  5908 5995 5996  4278 5908 5995  3934 5995 5996  3662 5983 5998  5983 5997 5998  3756 5983 5997  2227 5997 5998  3332 5999 6000  5730 5999 6000  4885 5730 5999  4345 5730 6000  4080 5579 6001  5579 6001 6002  4116 6001 6002  2864 5579 6002  1656 5372 6003  5372 6003 6004  3355 6003 6004  3260 5372 6004  4518 6005 6007  6005 6006 6007  4679 6005 6006  2874 6006 6007  3452 6008 6009  5408 6008 6009  4085 5408 6008  3453 5408 6009  2843 5275 6011  5275 6010 6011  3294 5275 6010  2842 6010 6011  3512 6012 6014  6012 6013 6014  3741 6012 6013  2311 6013 6014  1524 6015 6017  6015 6016 6017  4445 6015 6016  1873 6016 6017  4433 5794 6018  5794 6018 6019  4486 6018 6019  2495 5794 6019  3590 5308 6020  5308 6020 6021  3964 6020 6021  1597 5308 6021  2230 6022 6024  6022 6023 6024  4198 6022 6023  4158 6023 6024  2555 5104 6025  5104 6025 6026  3627 6025 6026  3007 5104 6026  2497 6027 6029  6027 6028 6029  4291 6027 6028  2466 6028 6029  994 6030 6032  6030 6031 6032  3477 6030 6031  3089 6031 6032  386 4964 6034  4964 6033 6034  3736 4964 6033  671 6033 6034  770 6035 6036  4963 6035 6036  3736 4963 6035  388 4963 6036  2923 5479 6038  5479 6037 6038  4505 5479 6037  2461 6037 6038  1467 6039 6041  6039 6040 6041  3777 6039 6040  1482 6040 6041  3512 6042 6044  6042 6043 6044  4146 6042 6043  1684 6043 6044  628 4985 6046  4985 6045 6046  3844 4985 6045  3840 6045 6046  2949 5648 6047  5648 5801 6047  4483 5801 6047  4299 5648 5801  2612 4938 6048  4938 5893 6048  3821 4938 5893  2636 5893 6048  1584 5949 6049  5949 6049 6050  3720 6049 6050  3002 5949 6050  1606 6051 6053  6051 6052 6053  4674 6051 6052  4524 6052 6053  2622 5766 6054  5766 6054 6055  4465 6054 6055  4270 5766 6055  3620 6056 6058  6056 6057 6058  4450 6056 6057  4361 6057 6058  2322 6059 6061  6059 6060 6061  3966 6059 6060  3358 6060 6061  3675 6062 6064  6062 6063 6064  4491 6062 6063  3980 6063 6064  2976 6065 6067  6065 6066 6067  4177 6065 6066  2085 6066 6067  3249 5977 6069  5977 6068 6069  3580 5977 6068  2206 6068 6069  3737 5461 6071  5461 6070 6071  4036 5461 6070  3032 6070 6071  3944 6072 6074  6072 6073 6074  4291 6072 6073  2315 6073 6074  3048 6075 6076  6044 6075 6076  3512 6044 6075  1684 6044 6076  1072 5218 5967  5218 5967 6077  4186 5967 6077  3222 5218 6077  71 6078 6079  5452 6078 6079  3300 5452 6078  718 5452 6079  3973 5963 6081  5963 6080 6081  4569 5963 6080  2924 6080 6081  3105 6082 6083  5196 6082 6083  4237 5196 6082  789 5196 6083  3980 6063 6085  6063 6084 6085  4491 6063 6084  1603 6084 6085  3556 6086 6088  6086 6087 6088  4848 6086 6087  2928 6087 6088  3384 4970 6089  4970 6089 6090  3385 6089 6090  1185 4970 6090  3116 6091 6093  6091 6092 6093  3117 6091 6092  727 6092 6093  2178 6094 6096  6094 6095 6096  3391 6094 6095  2125 6095 6096  3469 6097 6099  6097 6098 6099  4098 6097 6098  2290 6098 6099  3871 5751 5767  5751 5767 6100  4270 5767 6100  2859 5751 6100  2539 6101 6103  6101 6102 6103  4607 6101 6102  4378 6102 6103  2515 6104 6105  5910 6104 6105  4463 5910 6104  3770 5910 6105  3042 6106 6107  5068 6106 6107  4167 5068 6106  3078 5068 6107  2148 6108 6110  6108 6109 6110  3094 6108 6109  2920 6109 6110  3773 5954 6112  5954 6111 6112  4504 5954 6111  2496 6111 6112  720 6113 6114  4984 6113 6114  3844 4984 6113  630 4984 6114  2425 6115 6117  6115 6116 6117  4231 6115 6116  3050 6116 6117  3021 5667 6119  5667 6118 6119  4240 5667 6118  1887 6118 6119  914 5483 6120  5439 5483 6120  4379 5439 5483  4214 5439 6120  149 150 6121  149 6121 6122  3722 6121 6122  148 149 6122  3107 5094 6123  5094 6123 6124  4815 6123 6124  4622 5094 6124  2991 5781 6125  5781 6125 6126  4484 6125 6126  1613 5781 6126  3613 6127 6129  6127 6128 6129  3987 6127 6128  1855 6128 6129  3399 6130 6132  6130 6131 6132  3610 6130 6131  2224 6131 6132  3006 5885 6133  5885 6133 6134  4560 6133 6134  906 5885 6134  739 5145 6135  5145 5320 6135  3407 5145 5320  295 5320 6135  933 6136 6138  6136 6137 6138  3355 6136 6137  941 6137 6138  3272 6139 6141  6139 6140 6141  3274 6139 6140  2040 6140 6141  3314 5117 5745  5117 5260 5745  3740 5117 5260  2256 5260 5745  3457 6142 6144  6142 6143 6144  3546 6142 6143  3458 6143 6144  2143 6145 6147  6145 6146 6147  4419 6145 6146  4309 6146 6147  3073 6148 6149  5785 6148 6149  4222 5785 6148  3975 5785 6149  132 133 6150  132 5383 6150  3127 5383 6150  131 132 5383  1874 6151 6152  6142 6151 6152  3546 6142 6151  3457 6142 6152  691 5127 6153  5127 6153 6154  3726 6153 6154  3665 5127 6154  1158 6155 6156  5618 6155 6156  3383 5618 6155  1156 5618 6156  2561 5263 6158  5263 6157 6158  3915 5263 6157  3336 6157 6158  2085 5216 6066  5216 6066 6159  4177 6066 6159  4117 5216 6159  2815 6160 6161  5085 6160 6161  4002 5085 6160  3994 5085 6161  1584 6162 6164  6162 6163 6164  4534 6162 6163  1499 6163 6164  686 5509 6165  5509 6165 6166  3629 6165 6166  3054 5509 6166  2180 5760 6167  5760 6167 6168  4044 6167 6168  2983 5760 6168  1303 5809 6169  5809 6169 6170  3455 6169 6170  3454 5809 6170  1664 6171 6173  6171 6172 6173  4232 6171 6172  3927 6172 6173  1776 6174 6176  6174 6175 6176  4539 6174 6175  3558 6175 6176  1838 6177 6179  6177 6178 6179  4631 6177 6178  3785 6178 6179  1463 6180 6182  6180 6181 6182  4096 6180 6181  2991 6181 6182  1905 5108 6183  5108 6183 6184  4207 6183 6184  3113 5108 6184  3362 6185 6187  6185 6186 6187  4309 6185 6186  2517 6186 6187  2857 5522 6188  5522 5796 6188  4010 5796 6188  3344 5522 5796  3423 6189 6191  6189 6190 6191  4067 6189 6190  1609 6190 6191  3275 5731 5951  5731 5951 6192  4885 5731 6192  1817 5951 6192  3231 5834 6194  5834 6193 6194  4063 5834 6193  2797 6193 6194  4382 6195 6197  6195 6196 6197  4506 6195 6196  1941 6196 6197  2925 5958 6199  5958 6198 6199  3941 5958 6198  3322 6198 6199  2311 6013 6201  6013 6200 6201  3741 6013 6200  2312 6200 6201  1298 6202 6204  6202 6203 6204  4201 6202 6203  3051 6203 6204  2843 5004 6205  5004 6205 6206  3401 6205 6206  3292 5004 6206  3098 5069 6208  5069 6207 6208  4167 5069 6207  2213 6207 6208  4309 6146 6186  6146 6186 6209  4419 6146 6209  2517 6186 6209  4361 6057 6211  6057 6210 6211  4450 6057 6210  2365 6210 6211  2040 6141 6212  6141 6212 6213  3276 6212 6213  3272 6141 6213  4316 5660 6214  5530 5660 6214  4396 5530 5660  1233 5530 6214  2511 6215 6217  6215 6216 6217  3768 6215 6216  3095 6216 6217  3776 6218 6220  6218 6219 6220  4577 6218 6219  3880 6219 6220  4486 6221 6223  6221 6222 6223  4550 6221 6222  4125 6222 6223  2361 5634 6224  5236 5634 6224  4786 5236 6224  3092 5236 5634  3147 6225 6227  6225 6226 6227  3659 6225 6226  1021 6226 6227  3517 6228 6230  6228 6229 6230  4750 6228 6229  2385 6229 6230  3789 6231 6233  6231 6232 6233  4420 6231 6232  2835 6232 6233  2934 6234 6236  6234 6235 6236  3902 6234 6235  3900 6235 6236  3294 6010 6237  6010 6237 6238  4632 6237 6238  2842 6010 6238  3590 5307 6240  5307 6239 6240  3910 5307 6239  2793 6239 6240  3679 5038 6241  5038 6241 6242  4511 6241 6242  2836 5038 6242  3559 5714 6244  5714 6243 6244  4835 5714 6243  2146 6243 6244  3748 6245 6247  6245 6246 6247  3908 6245 6246  2894 6246 6247  3642 5922 6248  5922 6248 6249  3812 6248 6249  2463 5922 6249  3115 5746 6250  5746 6250 6251  3698 6250 6251  3237 5746 6251  2992 6252 6254  6252 6253 6254  4156 6252 6253  1763 6253 6254  866 6255 6257  6255 6256 6257  3455 6255 6256  868 6256 6257  1763 6254 6258  6254 6258 6259  3906 6258 6259  2992 6254 6259  2557 5443 6260  5262 5443 6260  3915 5262 5443  2558 5262 6260  3126 6261 6263  6261 6262 6263  4331 6261 6262  4257 6262 6263  924 4987 6265  4987 6264 6265  3783 4987 6264  1961 6264 6265  2166 6266 6268  6266 6267 6268  3806 6266 6267  3396 6267 6268  683 5857 6270  5857 6269 6270  4263 5857 6269  3605 6269 6270  3613 6127 6271  6127 6271 6272  4814 6271 6272  3987 6127 6272  3440 5868 6273  5868 6273 6274  4603 6273 6274  3511 5868 6274  4224 6275 6277  6275 6276 6277  4654 6275 6276  4225 6276 6277  2517 6187 6278  6187 6278 6279  4384 6278 6279  3362 6187 6279  2973 5528 6281  5528 6280 6281  4453 5528 6280  2875 6280 6281  2716 6282 6284  6282 6283 6284  3162 6282 6283  2719 6283 6284  3419 6285 6287  6285 6286 6287  3825 6285 6286  2759 6286 6287  3531 5626 6288  5626 6288 6289  4009 6288 6289  1961 5626 6289  2267 6290 6292  6290 6291 6292  3989 6290 6291  3401 6291 6292  3358 6060 6294  6060 6293 6294  3966 6060 6293  3357 6293 6294  3061 6295 6297  6295 6296 6297  3477 6295 6296  1484 6296 6297  3444 6298 6300  6298 6299 6300  4229 6298 6299  4135 6299 6300  3190 6301 6303  6301 6302 6303  3875 6301 6302  774 6302 6303  1218 6304 6305  5599 6304 6305  3480 5599 6304  1215 5599 6305  1459 6306 6307  6071 6306 6307  3737 6071 6306  3032 6071 6307  2485 6308 6310  6308 6309 6310  4368 6308 6309  2927 6309 6310  904 5938 6311  5938 6311 6312  4598 6311 6312  3168 5938 6312  3211 5734 5821  5734 5821 6313  4211 5734 6313  1596 5821 6313  3220 6314 6316  6314 6315 6316  4362 6314 6315  1029 6315 6316  792 6317 6319  6317 6318 6319  3504 6317 6318  3030 6318 6319  1768 6320 6321  6183 6320 6321  4207 6183 6320  1905 6183 6321  1710 5622 6322  5166 5622 6322  3672 5166 5622  1709 5166 6322  2824 6323 6324  6314 6323 6324  4362 6314 6323  3220 6314 6324  765 6325 6326  6097 6325 6326  4098 6097 6325  3469 6097 6326  780 6327 6329  6327 6328 6329  4260 6327 6328  3244 6328 6329  72 73 6330  72 6078 6330  3300 6078 6330  71 72 6078  3558 6176 6331  6176 6331 6332  4576 6331 6332  1776 6176 6332  3329 5805 6334  5805 6333 6334  4528 5805 6333  1138 6333 6334  3879 5854 6335  5854 6335 6336  4694 6335 6336  3456 5854 6336  2815 6161 6337  5612 6161 6337  3994 5612 6161  3660 5612 6337  699 5093 6338  5093 6338 6339  4571 6338 6339  3460 5093 6339  3581 6340 6342  6340 6341 6342  4706 6340 6341  3580 6341 6342  2874 6006 6344  6006 6343 6344  4679 6006 6343  2160 6343 6344  1773 5574 6345  5574 6345 6346  3729 6345 6346  3086 5574 6346  2224 6132 6347  6132 6347 6348  4228 6347 6348  3399 6132 6348  3824 6349 6351  6349 6350 6351  4083 6349 6350  2708 6350 6351  3483 6352 6353  5519 6352 6353  3484 5519 6352  2775 5519 6353  2361 5636 6355  5636 6354 6355  3090 5636 6354  809 6354 6355  2820 6356 6357  5986 6356 6357  4660 5986 6356  4540 5986 6357  4524 6052 6359  6052 6358 6359  4674 6052 6358  3609 6358 6359  3104 6360 6361  5060 6360 6361  3941 5060 6360  2507 5060 6361  2311 6014 6362  6014 6042 6362  4146 6042 6362  3512 6014 6042  2497 6027 6363  6027 6363 6364  4903 6363 6364  4291 6027 6364  733 6365 6367  6365 6366 6367  3095 6365 6366  179 6366 6367  819 5641 6369  5641 6368 6369  3085 5641 6368  1821 6368 6369  3593 4974 6370  4974 6370 6371  4582 6370 6371  3039 4974 6371  3811 5727 6373  5727 6372 6373  4917 5727 6372  3031 6372 6373  3088 5205 6375  5205 6374 6375  3713 5205 6374  1527 6374 6375  3387 6376 6378  6376 6377 6378  3809 6376 6377  1748 6377 6378  3795 6379 6381  6379 6380 6381  4376 6379 6380  2893 6380 6381  1649 6382 6384  6382 6383 6384  4315 6382 6383  2227 6383 6384  1659 6385 6387  6385 6386 6387  3764 6385 6386  1562 6386 6387  3147 6225 6388  6225 6388 6389  3660 6388 6389  3659 6225 6389  3640 6390 6392  6390 6391 6392  3922 6390 6391  3478 6391 6392  2565 6393 6395  6393 6394 6395  4457 6393 6394  4442 6394 6395  3506 6396 6398  6396 6397 6398  3686 6396 6397  2181 6397 6398  4084 5526 6399  5526 6399 6400  4737 6399 6400  1820 5526 6400  3785 6179 6401  6179 6401 6402  4435 6401 6402  1838 6179 6402  3518 6403 6404  6228 6403 6404  4750 6228 6403  3517 6228 6404  3286 5799 6405  5799 6086 6405  4848 6086 6405  3556 5799 6086  3322 6199 6406  6199 6406 6407  4853 6406 6407  2925 6199 6407  3142 5465 6408  5465 6408 6409  4808 6408 6409  3023 5465 6409  1213 5600 6411  5600 6410 6411  3480 5600 6410  3209 6410 6411  4016 6412 6414  6412 6413 6414  4535 6412 6413  3511 6413 6414  3028 4958 6415  4958 6415 6416  4026 6415 6416  859 4958 6416  906 6417 6419  6417 6418 6419  3582 6417 6418  3070 6418 6419  1873 6016 6421  6016 6420 6421  4445 6016 6420  3750 6420 6421  3224 6422 6423  5395 6422 6423  4400 5395 6422  1382 5395 6423  2131 5233 6424  5233 6424 6425  2997 6424 6425  2996 5233 6425  171 6426 6427  5581 6426 6427  796 5581 6426  793 5581 6427  92 93 6428  92 6428 6429  3406 6428 6429  91 92 6429  3474 6430 6432  6430 6431 6432  3476 6430 6431  2794 6431 6432  956 6433 6435  6433 6434 6435  4567 6433 6434  3137 6434 6435  3095 5831 6216  5831 6216 6436  3768 6216 6436  3033 5831 6436  1272 6437 6438  6390 6437 6438  3922 6390 6437  3640 6390 6438  792 6319 6440  6319 6439 6440  3030 6319 6439  137 6439 6440  3428 5303 6441  5303 6441 6442  4172 6441 6442  2936 5303 6442  3659 6389 6443  5614 6389 6443  3660 5614 6389  1495 5614 6443  2320 6444 6446  6444 6445 6446  4310 6444 6445  3797 6445 6446  3632 6447 6448  5575 6447 6448  3634 5575 6447  2807 5575 6448  2817 6449 6450  5517 6449 6450  3628 5517 6449  3484 5517 6450  3145 6451 6453  6451 6452 6453  3402 6451 6452  3208 6452 6453  4060 5701 6455  5701 6454 6455  4147 5701 6454  2339 6454 6455  3050 6117 6456  6117 6456 6457  4108 6456 6457  2425 6117 6457  2682 6458 6460  6458 6459 6460  3475 6458 6459  3165 6459 6460  2467 5880 6461  5880 6461 6462  3252 6461 6462  3056 5880 6462  1147 6463 6464  5810 6463 6464  3698 5810 6463  1128 5810 6464  1540 6465 6467  6465 6466 6467  3112 6465 6466  879 6466 6467  2979 6468 6470  6468 6469 6470  4007 6468 6469  3541 6469 6470  1269 6471 6473  6471 6472 6473  3543 6471 6472  1543 6472 6473  3172 6474 6476  6474 6475 6476  3475 6474 6475  3472 6475 6476  1118 5391 6477  5391 6477 6478  3284 6477 6478  3279 5391 6478  3304 5948 6479  5948 6162 6479  4534 6162 6479  1584 5948 6162  1963 6480 6482  6480 6481 6482  3267 6480 6481  3266 6481 6482  3261 5016 6483  5016 6483 6484  3829 6483 6484  666 5016 6484  4002 5086 6485  5086 6485 6486  4568 6485 6486  3451 5086 6486  4174 5197 6488  5197 6487 6488  4237 5197 6487  794 6487 6488  3645 6489 6490  5685 6489 6490  4909 5685 6489  3644 5685 6490  770 6491 6493  6491 6492 6493  3488 6491 6492  3487 6492 6493  1546 6494 6495  6171 6494 6495  4232 6171 6494  1664 6171 6495  3421 6496 6498  6496 6497 6498  4026 6496 6497  2886 6497 6498  2122 6499 6500  5738 6499 6500  3957 5738 6499  1586 5738 6500  2341 5399 6501  5399 6501 6502  4177 6501 6502  3563 5399 6502  3442 6503 6505  6503 6504 6505  4471 6503 6504  4041 6504 6505  896 6506 6508  6506 6507 6508  4538 6506 6507  3213 6507 6508  771 6509 6511  6509 6510 6511  3870 6509 6510  3255 6510 6511  3078 4983 5070  4983 5070 6512  3098 5070 6512  675 4983 6512  3394 6513 6515  6513 6514 6515  3551 6513 6514  1411 6514 6515  3870 6510 6516  6510 6516 6517  4176 6516 6517  3255 6510 6517  169 6518 6520  6518 6519 6520  4879 6518 6519  4357 6519 6520  764 6521 6523  6521 6522 6523  3833 6521 6522  3695 6522 6523  2428 5417 6524  5417 6524 6525  4226 6524 6525  3069 5417 6525  3749 6526 6527  6245 6526 6527  3908 6245 6526  3748 6245 6527  2222 5175 6528  5175 6528 6529  4753 6528 6529  3468 5175 6529  3329 5806 6530  5806 6530 6531  4513 6530 6531  2363 5806 6531  3191 5222 6532  5222 6532 6533  4654 6532 6533  1987 5222 6533  2864 6002 6534  5380 6002 6534  4116 5380 6002  2865 5380 6534  4476 6535 6537  6535 6536 6537  4501 6535 6536  2207 6536 6537  4185 5670 6539  5670 6538 6539  4685 5670 6538  735 6538 6539  3541 6469 6541  6469 6540 6541  4007 6469 6540  1753 6540 6541  3605 6270 6542  6270 6542 6543  4531 6542 6543  683 6270 6543  3087 5335 6544  5335 6544 6545  4688 6544 6545  3354 5335 6545  2442 6546 6547  6528 6546 6547  4753 6528 6546  2222 6528 6547  2243 6548 6550  6548 6549 6550  3321 6548 6549  3074 6549 6550  3040 6551 6552  5378 6551 6552  4392 5378 6551  4116 5378 6552  1577 6553 6555  6553 6554 6555  4162 6553 6554  3362 6554 6555  2943 5942 6556  5942 6094 6556  3391 5942 6094  2178 6094 6556  3234 5829 6557  5829 6557 6558  4687 6557 6558  3865 5829 6558  2794 6432 6559  6432 6559 6560  4312 6559 6560  3474 6432 6560  4132 5504 6561  5504 6561 6562  4133 6561 6562  1955 5504 6562  3339 6563 6565  6563 6564 6565  4611 6563 6564  3338 6564 6565  1662 5639 6566  5639 6566 6567  3735 6566 6567  3034 5639 6567  3396 6568 6570  6568 6569 6570  3745 6568 6569  2858 6569 6570  3851 6571 6573  6571 6572 6573  4264 6571 6572  3446 6572 6573  2669 6574 6576  6574 6575 6576  3169 6574 6575  2668 6575 6576  3109 5133 6577  5133 6577 6578  4212 6577 6578  1501 5133 6578  3106 6579 6580  6123 6579 6580  4815 6123 6579  3107 6123 6580  3224 6581 6583  6581 6582 6583  3992 6581 6582  2276 6582 6583  3298 6584 6586  6584 6585 6586  4290 6584 6585  1484 6585 6586  3479 6587 6589  6587 6588 6589  3616 6587 6588  1673 6588 6589  2791 6590 6592  6590 6591 6592  3627 6590 6591  3303 6591 6592  3447 6593 6595  6593 6594 6595  4653 6593 6594  2821 6594 6595  3362 6554 6597  6554 6596 6597  4162 6554 6596  2459 6596 6597  3056 6462 6598  5309 6462 6598  3252 5309 6462  1550 5309 6598  3118 5850 6599  5850 6599 6600  3334 6599 6600  3026 5850 6600  3217 6601 6603  6601 6602 6603  3464 6601 6602  2489 6602 6603  2991 5780 6182  5780 6182 6604  4253 5780 6604  1463 6182 6604  2409 5556 6606  5556 6605 6606  4348 5556 6605  2481 6605 6606  3545 6607 6609  6607 6608 6609  4726 6607 6608  4667 6608 6609  727 6093 6610  6093 6610 6611  3743 6610 6611  3116 6093 6611  2985 6612 6613  6195 6612 6613  4506 6195 6612  4382 6195 6613  3563 6502 6615  6502 6614 6615  4177 6502 6614  3562 6614 6615  3158 6616 6617  6317 6616 6617  3504 6317 6616  792 6317 6617  1383 6618 6619  6581 6618 6619  3992 6581 6618  3224 6581 6619  788 6620 6621  6241 6620 6621  4511 6241 6620  3679 6241 6621  1600 5427 6622  5427 5936 6622  4244 5936 6622  3168 5427 5936  2721 6623 6625  6623 6624 6625  3212 6623 6624  2796 6624 6625  3776 6220 6627  6220 6626 6627  3880 6220 6626  668 6626 6627  3687 5605 6629  5605 6628 6629  3954 5605 6628  2484 6628 6629  3074 6550 6630  6550 6630 6631  3121 6630 6631  2243 6550 6631  789 6083 6632  6083 6632 6633  3754 6632 6633  3105 6083 6633  3070 6418 6634  5769 6418 6634  3582 5769 6418  3073 5769 6634  2553 6635 6637  6635 6636 6637  4699 6635 6636  3858 6636 6637  1599 5270 6638  5270 6638 6639  3972 6638 6639  3473 5270 6639  3058 6640 6642  6640 6641 6642  3060 6640 6641  1911 6641 6642  1955 6562 6644  6562 6643 6644  4133 6562 6643  2074 6643 6644  959 6645 6647  6645 6646 6647  3316 6645 6646  1492 6646 6647  1798 6648 6649  6212 6648 6649  3276 6212 6648  2040 6212 6649  1957 5990 6651  5990 6650 6651  3778 5990 6650  2452 6650 6651  3062 5934 6653  5934 6652 6653  3985 5934 6652  3064 6652 6653  3146 5531 6654  5531 5889 6654  4396 5531 5889  3144 5889 6654  1336 6655 6657  6655 6656 6657  4120 6655 6656  3081 6656 6657  1789 6658 6659  6039 6658 6659  3777 6039 6658  1467 6039 6659  701 6660 6662  6660 6661 6662  4532 6660 6661  3427 6661 6662  4165 5845 6664  5845 6663 6664  4663 5845 6663  2856 6663 6664  2966 6665 6667  6665 6666 6667  4861 6665 6666  3807 6666 6667  3137 6435 6668  6435 6668 6669  4621 6668 6669  956 6435 6669  3165 6459 6670  6459 6474 6670  3475 6459 6474  3172 6474 6670  3002 6050 6671  5782 6050 6671  3720 5782 6050  2165 5782 6671  3470 5103 6672  5103 6672 6673  4852 6672 6673  2555 5103 6673  2384 6674 6675  5913 6674 6675  3758 5913 6674  2383 5913 6675  3302 5823 6676  5823 6676 6677  3540 6676 6677  67 5823 6677  3809 6377 6678  6377 6678 6679  4882 6678 6679  1748 6377 6679  2267 6292 6680  6205 6292 6680  3401 6205 6292  2843 6205 6680  1681 6681 6683  6681 6682 6683  3965 6681 6682  3556 6682 6683  2732 5138 6685  5138 6684 6685  4790 5138 6684  2782 6684 6685  3348 6686 6688  6686 6687 6688  4256 6686 6687  2423 6687 6688  1609 6191 6689  5557 6191 6689  4351 5557 6689  3423 5557 6191  3077 5136 6690  5136 6690 6691  4039 6690 6691  1440 5136 6691  3336 6158 6692  6158 6692 6693  3962 6692 6693  2561 6158 6693  31 5684 6695  5684 6694 6695  3682 5684 6694  756 6694 6695  3670 6696 6698  6696 6697 6698  4712 6696 6697  4343 6697 6698  1845 6699 6701  6699 6700 6701  3517 6699 6700  1954 6700 6701  2701 6702 6704  6702 6703 6704  3476 6702 6703  2695 6703 6704  697 6705 6706  5683 6705 6706  3682 5683 6705  33 5683 6706  821 5640 6707  5640 6707 6708  3717 6707 6708  3085 5640 6708  2838 6709 6711  6709 6710 6711  3912 6709 6710  3506 6710 6711  585 586 6712  585 6712 6713  3677 6712 6713  584 585 6713  178 179 6366  178 5830 6366  3095 5830 6366  177 178 5830  4135 6299 6714  5401 6299 6714  4229 5401 6299  2386 5401 6714  3539 6715 6717  6715 6716 6717  3968 6715 6716  3514 6716 6717  674 6718 6720  6718 6719 6720  3307 6718 6719  3306 6719 6720  1863 6721 6723  6721 6722 6723  3402 6721 6722  2050 6722 6723  148 6122 6725  6122 6724 6725  3722 6122 6724  760 6724 6725  3797 6446 6726  6446 6726 6727  4869 6726 6727  2320 6446 6727  1179 6728 6729  5008 6728 6729  4665 5008 6728  4421 5008 6729  170 171 6427  170 6427 6730  793 6427 6730  169 170 6730  3173 6731 6733  6731 6732 6733  3176 6731 6732  1290 6732 6733  1684 6076 6734  6076 6734 6735  3765 6734 6735  3048 6076 6735  4453 6280 6736  6280 6736 6737  4759 6736 6737  2875 6280 6737  1869 6738 6740  6738 6739 6740  3958 6738 6739  3346 6739 6740  3176 6732 6741  6732 6741 6742  3177 6741 6742  1290 6732 6742  1468 6743 6744  6696 6743 6744  4712 6696 6743  3670 6696 6744  138 139 6745  138 6440 6745  792 6440 6745  137 138 6440  3580 6341 6747  6341 6746 6747  4706 6341 6746  4219 6746 6747  2227 5998 6383  5998 6383 6748  4315 6383 6748  3662 5998 6748  3533 6749 6750  5929 6749 6750  4124 5929 6749  1176 5929 6750  2719 6283 6751  5757 6283 6751  3162 5757 6283  3065 5757 6751  3954 6628 6752  6628 6752 6753  4368 6752 6753  2484 6628 6753  3269 6754 6756  6754 6755 6756  3325 6754 6755  3271 6755 6756  2985 6613 6758  6613 6757 6758  4382 6613 6757  1664 6757 6758  1290 6742 6759  5973 6742 6759  3177 5973 6742  1291 5973 6759  2127 6760 6762  6760 6761 6762  3387 6760 6761  3386 6761 6762  2871 6763 6765  6763 6764 6765  3799 6763 6764  2914 6764 6765  2231 6766 6767  6359 6766 6767  4524 6359 6766  3609 6359 6767  3043 5072 6768  5072 6768 6769  4795 6768 6769  2119 5072 6769  3135 5029 6770  5029 6770 6771  4204 6770 6771  949 5029 6771  4158 6023 6773  6023 6772 6773  4198 6023 6772  2473 6772 6773  1821 6368 6775  6368 6774 6775  3085 6368 6774  3083 6774 6775  3040 5165 6552  5165 6552 6776  4116 6552 6776  2652 5165 6776  941 6137 6777  6003 6137 6777  3355 6003 6137  1656 6003 6777  3259 5406 6779  5406 6778 6779  4272 5406 6778  3260 6778 6779  2904 6780 6782  6780 6781 6782  4205 6780 6781  2905 6781 6782  2483 6783 6785  6783 6784 6785  4355 6783 6784  3877 6784 6785  3198 6786 6788  6786 6787 6788  3317 6786 6787  3316 6787 6788  2125 6095 6790  6095 6789 6790  3391 6095 6789  3390 6789 6790  3015 6791 6793  6791 6792 6793  3637 6791 6792  3239 6792 6793  4154 6794 6796  6794 6795 6796  4441 6794 6795  4258 6795 6796  3784 6797 6799  6797 6798 6799  4222 6797 6798  1479 6798 6799  3089 6031 6800  6031 6295 6800  3477 6031 6295  3061 6295 6800  3396 6267 6802  6267 6801 6802  3806 6267 6801  3395 6801 6802  3316 6646 6787  5719 6646 6787  3317 5719 6787  1492 5719 6646  2356 5282 6804  5282 6803 6804  4274 5282 6803  2357 6803 6804  846 6805 6807  6805 6806 6807  3509 6805 6806  848 6806 6807  790 5754 6808  5754 6808 6809  4416 6808 6809  4281 5754 6809  3522 6810 6812  6810 6811 6812  4468 6810 6811  756 6811 6812  3407 5321 6813  5321 6813 6814  3646 6813 6814  293 5321 6814  2716 6282 6815  6282 6815 6816  3568 6815 6816  3162 6282 6816  3080 6817 6818  5886 6817 6818  4318 5886 6817  2470 5886 6818  3232 6819 6821  6819 6820 6821  3234 6819 6820  2402 6820 6821  1270 6822 6823  5798 6822 6823  3344 5798 6822  3328 5798 6823  3129 5382 6824  5382 6824 6825  4876 6824 6825  131 5382 6825  2848 6826 6827  6401 6826 6827  4435 6401 6826  3785 6401 6827  1752 6828 6830  6828 6829 6830  4179 6828 6829  1757 6829 6830  2185 6831 6833  6831 6832 6833  4344 6831 6832  2302 6832 6833  3068 5851 6834  5851 6834 6835  3369 6834 6835  1678 5851 6835  774 6303 6836  6303 6836 6837  4225 6836 6837  3190 6303 6837  3556 5800 6682  5800 6682 6838  3965 6682 6838  2218 5800 6838  3675 6062 6839  6062 6839 6840  4518 6839 6840  4491 6062 6840  3348 6841 6843  6841 6842 6843  3388 6841 6842  2161 6842 6843  3545 6844 6846  6844 6845 6846  3548 6844 6845  3546 6845 6846  1899 6847 6849  6847 6848 6849  3464 6847 6848  2228 6848 6849  3709 5838 6850  5838 6850 6851  4796 6850 6851  3025 5838 6851  1762 6852 6853  6480 6852 6853  3267 6480 6852  1963 6480 6853  868 6256 6854  6169 6256 6854  3455 6169 6256  1303 6169 6854  1663 6855 6856  6648 6855 6856  3276 6648 6855  1798 6648 6856  4136 5323 6857  5323 6506 6857  4538 6506 6857  896 5323 6506  1316 5433 6858  5433 6858 6859  4119 6858 6859  3603 5433 6859  1575 6860 6862  6860 6861 6862  4005 6860 6861  1522 6861 6862  3208 6453 6863  6453 6863 6864  4591 6863 6864  3145 6453 6864  3030 5860 6318  5860 6318 6865  3504 6318 6865  3125 5860 6865  4274 6803 6866  6803 6866 6867  4467 6866 6867  2357 6803 6867  3471 6868 6870  6868 6869 6870  3972 6868 6869  3472 6869 6870  2423 6871 6873  6871 6872 6873  4508 6871 6872  2428 6872 6873  718 6874 6875  5822 6874 6875  3302 5822 6874  69 5822 6875  4442 6394 6877  6394 6876 6877  4457 6394 6876  2965 6876 6877  3479 6587 6878  6587 6878 6879  4913 6878 6879  3616 6587 6879  3679 6621 6880  6621 6880 6881  4236 6880 6881  788 6621 6881  3256 6882 6884  6882 6883 6884  4739 6882 6883  1483 6883 6884  3244 6328 6886  6328 6885 6886  4260 6328 6885  2503 6885 6886  91 6429 6888  6429 6887 6888  3406 6429 6887  745 6887 6888  2148 6108 6889  6108 6889 6890  3221 6889 6890  3094 6108 6890  3155 6891 6892  6099 6891 6892  3469 6099 6891  2290 6099 6892  3688 5360 6893  5360 6893 6894  4793 6893 6894  2381 5360 6894  3436 5493 6895  5493 6895 6896  3519 6895 6896  3359 5493 6896  1102 6897 6899  6897 6898 6899  3573 6897 6898  1113 6898 6899  2708 6351 6900  6351 6900 6901  4425 6900 6901  3824 6351 6901  3431 6902 6904  6902 6903 6904  3432 6902 6903  2244 6903 6904  3271 6905 6907  6905 6906 6907  4771 6905 6906  3899 6906 6907  2315 6073 6909  6073 6908 6909  4291 6073 6908  3515 6908 6909  1219 6910 6911  6817 6910 6911  4318 6817 6910  3080 6817 6911  943 6912 6914  6912 6913 6914  3357 6912 6913  945 6913 6914  3826 6915 6916  5732 6915 6916  4345 5732 6915  3275 5732 6916  3298 6584 6917  6584 6917 6918  4830 6917 6918  4290 6584 6918  1501 6578 6920  6578 6919 6920  4212 6578 6919  1333 6919 6920  2956 6921 6923  6921 6922 6923  4641 6921 6922  731 6922 6923  2759 6287 6924  6287 6924 6925  4202 6924 6925  3419 6287 6925  3203 5178 6927  5178 6926 6927  3611 5178 6926  3578 6926 6927  3277 5250 6929  5250 6928 6929  3853 5250 6928  3278 6928 6929  3038 5716 6930  5716 6930 6931  4582 6930 6931  4336 5716 6931  1229 6932 6934  6932 6933 6934  3278 6932 6933  1236 6933 6934  3415 6935 6936  5608 6935 6936  3416 5608 6935  2210 5608 6936  2302 6937 6939  6937 6938 6939  4510 6937 6938  3588 6938 6939  4333 6940 6941  6871 6940 6941  4508 6871 6940  2423 6871 6941  717 6942 6944  6942 6943 6944  4266 6942 6943  3812 6943 6944  3136 6945 6947  6945 6946 6947  3137 6945 6946  2280 6946 6947  1833 6948 6949  6607 6948 6949  4726 6607 6948  3545 6607 6949  3877 5356 6784  5356 6784 6950  4355 6784 6950  1358 5356 6950  879 6466 6952  6466 6951 6952  3112 6466 6951  876 6951 6952  3419 6925 6953  5190 6925 6953  4202 5190 6925  3420 5190 6953  1679 6954 6956  6954 6955 6956  3082 6954 6955  1925 6955 6956  3056 5881 6957  5881 6957 6958  3520 6957 6958  2144 5881 6958  1543 6472 6960  6472 6959 6960  3543 6472 6959  1546 6959 6960  1097 5930 6962  5930 6961 6962  4124 5930 6961  1019 6961 6962  3019 5266 6963  5266 6548 6963  3321 5266 6548  2243 6548 6963  2648 6964 6965  6815 6964 6965  3568 6815 6964  2716 6815 6965  2993 6966 6968  6966 6967 6968  4529 6966 6967  2117 6967 6968  3500 6969 6970  5525 6969 6970  4084 5525 6969  4038 5525 6970  3440 5870 6972  5870 6971 6972  3510 5870 6971  3509 6971 6972  2008 6973 6975  6973 6974 6975  4105 6973 6974  4044 6974 6975  2185 6976 6977  6106 6976 6977  4167 6106 6976  3042 6106 6977  2445 6978 6980  6978 6979 6980  4492 6978 6979  3350 6979 6980  4256 6687 6981  6687 6941 6981  4333 6941 6981  2423 6687 6941  4257 6262 6983  6262 6982 6983  4331 6262 6982  808 6982 6983  2912 5514 6984  5514 6984 6985  3916 6984 6985  3143 5514 6985  2532 5120 6986  5120 5254 6986  4405 5120 5254  2531 5254 6986  350 6987 6989  6987 6988 6989  4437 6987 6988  3046 6988 6989  1130 6990 6992  6990 6991 6992  4241 6990 6991  3703 6991 6992  3303 6591 6994  6591 6993 6994  3627 6591 6993  2559 6993 6994  2115 6995 6996  6904 6995 6996  3431 6904 6995  2244 6904 6996  3119 5879 6997  5879 6997 6998  3790 6997 6998  1114 5879 6998  744 6999 7001  6999 7000 7001  3150 6999 7000  3149 7000 7001  3041 5971 7002  5971 7002 7003  4517 7002 7003  766 5971 7003  3820 7004 7005  6900 7004 7005  4425 6900 7004  2708 6900 7005  3375 7006 7008  7006 7007 7008  3376 7006 7007  1169 7007 7008  2969 7009 7010  6770 7009 7010  4204 6770 7009  3135 6770 7010  1413 7011 7012  6515 7011 7012  3394 6515 7011  1411 6515 7012  3142 5464 7014  5464 7013 7014  4452 5464 7013  3346 7013 7014  3340 7015 7016  5298 7015 7016  3553 5298 7015  3179 5298 7016  3083 6775 7017  6775 7017 7018  3100 7017 7018  1821 6775 7018  2837 7019 7021  7019 7020 7021  3755 7019 7020  3157 7020 7021  3812 6249 6943  6249 6943 7022  4266 6943 7022  2463 6249 7022  3461 5699 7023  5699 7023 7024  3523 7023 7024  2919 5699 7024  1017 7025 7027  7025 7026 7027  3313 7025 7026  1030 7026 7027  3634 5231 7028  5231 7028 7029  4616 7028 7029  2801 5231 7029  3015 6793 7030  5777 6793 7030  3239 5777 6793  3238 5777 7030  3377 7031 7033  7031 7032 7033  3378 7031 7032  1162 7032 7033  1765 7034 7035  6852 7034 7035  3267 6852 7034  1762 6852 7035  3448 7036 7037  6255 7036 7037  3455 6255 7036  866 6255 7037  3346 6739 7039  6739 7038 7039  3958 6739 7038  3347 7038 7039  3379 7040 7042  7040 7041 7042  3381 7040 7041  3378 7041 7042  2467 7043 7045  7043 7044 7045  4836 7043 7044  4427 7044 7045  3506 6710 7047  6710 7046 7047  3912 6710 7046  3505 7046 7047  1911 6642 7048  6642 7048 7049  3777 7048 7049  3058 6642 7049  1325 7050 7052  7050 7051 7052  3403 7050 7051  2494 7051 7052  3858 5582 6637  5582 6637 7053  4819 5582 7053  2553 6637 7053  3387 7054 7056  7054 7055 7056  3758 7054 7055  2389 7055 7056  3154 5438 7057  5438 7057 7058  3792 7057 7058  1786 5438 7058  2520 7059 7061  7059 7060 7061  4532 7059 7060  3364 7060 7061  1850 7062 7064  7062 7063 7064  3121 7062 7063  2133 7063 7064  2743 7065 7067  7065 7066 7067  4023 7065 7066  3649 7066 7067  3266 6482 7068  6482 7068 7069  4698 7068 7069  1963 6482 7069  4336 6931 7071  6931 7070 7071  4582 6931 7070  729 7070 7071  2835 6233 7072  6233 7072 7073  4511 7072 7073  3789 6233 7073  4348 6605 7074  6605 7074 7075  4597 7074 7075  2481 6605 7075  782 7076 7078  7076 7077 7078  4140 7076 7077  3370 7077 7078  3138 5112 7079  5112 7079 7080  3139 7079 7080  2255 5112 7080  1954 6700 7081  6230 6700 7081  3517 6230 6700  2385 6230 7081  1162 7082 7083  6155 7082 7083  3383 6155 7082  1158 6155 7083  4041 6504 7085  6504 7084 7085  4471 6504 7084  2707 7084 7085  3185 7086 7088  7086 7087 7088  3186 7086 7087  1704 7087 7088  3370 7077 7090  7077 7089 7090  4140 7077 7089  2374 7089 7090  1170 7091 7092  7008 7091 7092  3375 7008 7091  1169 7008 7092  2749 7093 7094  6715 7093 7094  3968 6715 7093  3539 6715 7094  3046 6989 7095  6989 7095 7096  4788 7095 7096  350 6989 7096  2467 6461 7045  6461 7045 7097  4427 7045 7097  3252 6461 7097  3350 6979 7099  6979 7098 7099  4492 6979 7098  1480 7098 7099  4406 7100 7102  7100 7101 7102  4504 7100 7101  3268 7101 7102  3702 5724 7103  5724 6948 7103  4726 5724 6948  1833 6948 7103  1900 7104 7105  6385 7104 7105  3764 6385 7104  1659 6385 7105  3125 6865 7107  6865 7106 7107  3504 6865 7106  2138 7106 7107  1192 7108 7110  7108 7109 7110  3141 7108 7109  2204 7109 7110  3603 6859 7112  6859 7111 7112  4119 6859 7111  3602 7111 7112  2893 6381 7113  6381 7113 7114  4748 7113 7114  3795 6381 7114  3317 7115 7116  6455 7115 7116  4060 6455 7115  2339 6455 7116  925 7117 7118  6136 7117 7118  3355 6136 7117  933 6136 7118  2537 7119 7121  7119 7120 7121  3600 7119 7120  3599 7120 7121  731 6923 7122  6923 7122 7123  4562 7122 7123  2956 6923 7123  1163 7124 7125  7033 7124 7125  3377 7033 7124  1162 7033 7125  1916 7126 7128  7126 7127 7128  3142 7126 7127  3141 7127 7128  1129 5811 7129  5811 6250 7129  3698 5811 6250  3115 6250 7129  2936 5301 7130  5301 7130 7131  4747 7130 7131  3595 5301 7131  799 7132 7134  7132 7133 7134  3490 7132 7133  797 7133 7134  2171 5748 7135  5748 7135 7136  3999 7135 7136  3115 5748 7136  3023 7137 7139  7137 7138 7139  4924 7137 7138  3991 7138 7139  2784 7140 7141  6692 7140 7141  3962 6692 7140  3336 6692 7141  1999 7142 7144  7142 7143 7144  3334 7142 7143  2220 7143 7144  754 7145 7147  7145 7146 7147  4523 7145 7146  3242 7146 7147  3204 7148 7149  5489 7148 7149  4845 5489 7148  3203 5489 7149  2537 7119 7150  7119 7150 7151  3601 7150 7151  3600 7119 7151  848 6806 7153  6806 7152 7153  3509 6806 7152  1116 7152 7153  2466 6028 7154  6028 6072 7154  4291 6028 6072  3944 6072 7154  2228 6848 7155  6601 6848 7155  3464 6601 6848  3217 6601 7155  3703 5064 6991  5064 6991 7156  4241 6991 7156  2487 5064 7156  2075 5595 7157  5595 7157 7158  4485 7157 7158  4220 5595 7158  245 5388 7160  5388 7159 7160  3811 5388 7159  681 7159 7160  2206 6069 7161  6069 7161 7162  3925 7161 7162  3249 6069 7162  3105 6633 7164  6633 7163 7164  3754 6633 7163  3746 7163 7164  1336 7165 7167  7165 7166 7167  3588 7165 7166  1337 7166 7167  3972 5440 6869  5440 6869 7168  4379 5440 7168  3472 6869 7168  2579 5957 7169  5957 6352 7169  3484 5957 6352  3483 6352 7169  2717 7170 7172  7170 7171 7172  4019 7170 7171  3122 7171 7172  4817 7173 7175  7173 7174 7175  4840 7173 7174  4383 7174 7175  760 7176 7178  7176 7177 7178  4656 7176 7177  4339 7177 7178  3062 5935 7179  5935 7179 7180  4821 7179 7180  892 5935 7180  2093 5435 7182  5435 7181 7182  4844 5435 7181  2231 7181 7182  2919 5697 7183  5697 7183 7184  4402 7183 7184  3462 5697 7184  3320 5961 7186  5961 7185 7186  3574 5961 7185  3573 7185 7186  3301 5212 7187  5212 6874 7187  3302 6874 7187  718 5212 6874  4139 7188 7190  7188 7189 7190  4328 7188 7189  2960 7189 7190  4220 7158 7192  7158 7191 7192  4485 7158 7191  3503 7191 7192  3229 7193 7194  5169 7193 7194  4642 5169 7193  3228 5169 7194  2984 5533 7195  5533 7195 7196  3852 7195 7196  3404 5533 7196  1148 7197 7199  7197 7198 7199  3340 7197 7198  1477 7198 7199  3338 6564 7201  6564 7200 7201  4611 6564 7200  2271 7200 7201  3181 7202 7204  7202 7203 7204  3354 7202 7203  3184 7203 7204  4363 7205 7206  6101 7205 7206  4607 6101 7205  2539 6101 7206  3788 5539 7207  5539 7207 7208  3923 7207 7208  2964 5539 7208  2444 5627 7209  5627 7100 7209  4504 7100 7209  4406 5627 7100  1200 7210 7211  6750 7210 7211  3533 6750 7210  1176 6750 7211  3141 7109 7127  7109 7127 7212  3142 7127 7212  2204 7109 7212  3510 5869 7214  5869 7213 7214  3511 5869 7213  2876 7213 7214  2848 6826 7215  6826 7215 7216  4638 7215 7216  4435 6826 7216  2133 7063 7217  6630 7063 7217  3121 6630 7063  3074 6630 7217  3325 6755 7218  6755 6905 7218  4771 6905 7218  3271 6755 6905  3744 4947 7219  4947 7219 7220  4438 7219 7220  476 4947 7220  2111 7221 7223  7221 7222 7223  3221 7221 7222  1846 7222 7223  3201 7224 7226  7224 7225 7226  3205 7224 7225  3202 7225 7226  1483 6883 7228  6883 7227 7228  4739 6883 7227  3368 7227 7228  797 5507 7229  5507 5580 7229  2896 5580 7229  796 5507 5580  2794 6431 7230  6431 6702 7230  3476 6431 6702  2701 6702 7230  3060 6641 7231  6641 7231 7232  4056 7231 7232  1911 6641 7232  734 7233 7234  6231 7233 7234  4420 6231 7233  3789 6231 7234  2163 5783 7236  5783 7235 7236  3720 5783 7235  2306 7235 7236  1588 5739 7237  4948 5739 7237  3957 4948 5739  2274 4948 7237  3114 5914 7239  5914 7238 7239  3758 5914 7238  2127 7238 7239  1264 7240 7242  7240 7241 7242  3343 7240 7241  1270 7241 7242  1872 7243 7245  7243 7244 7245  4743 7243 7244  3770 7244 7245  3981 5551 7246  5551 6311 7246  4598 5551 6311  904 6311 7246  2050 6722 7247  6451 6722 7247  3402 6451 6722  3145 6451 7247  1771 5865 7248  5865 7248 7249  3943 7248 7249  3381 5865 7249  3536 7250 7252  7250 7251 7252  4403 7250 7251  3535 7251 7252  2627 7253 7255  7253 7254 7255  3606 7253 7254  2641 7254 7255  1925 6955 7256  5615 6955 7256  3082 5615 6955  2994 5615 7256  2231 6766 7181  6766 7181 7257  4844 7181 7257  4524 6766 7257  1113 6898 7259  6898 7258 7259  3573 6898 7258  1920 7258 7259  2999 7260 7261  5414 7260 7261  4734 5414 7260  2998 5414 7261  3157 7020 7263  7020 7262 7263  3755 7020 7262  2079 7262 7263  3963 4979 7264  4979 7264 7265  4803 7264 7265  3801 4979 7265  4302 5296 7267  5296 7266 7267  4373 5296 7266  1036 7266 7267  3487 6493 7268  6035 6493 7268  3736 6035 7268  770 6035 6493  4044 6168 6974  6168 6974 7269  4105 6974 7269  2983 6168 7269  1236 5722 7270  5722 7270 7271  3799 7270 7271  3103 5722 7271  3199 5455 7273  5455 7272 7273  4060 5455 7272  3198 7272 7273  3377 7031 7274  7031 7042 7274  3379 7042 7274  3378 7031 7042  1874 7275 7277  7275 7276 7277  4028 7275 7276  1719 7276 7277  1651 7278 7280  7278 7279 7280  3702 7278 7279  1654 7279 7280  1530 7281 7283  7281 7282 7283  3251 7281 7282  1679 7282 7283  3457 6152 7284  6152 7275 7284  4028 7275 7284  1874 6152 7275  2876 7214 7285  7214 7285 7286  4759 7285 7286  3510 7214 7286  4344 6832 7287  6832 6937 7287  4510 6937 7287  2302 6832 6937  1213 6411 7289  6411 7288 7289  3209 6411 7288  1211 7288 7289  3797 6445 7291  6445 7290 7291  4310 6445 7290  2237 7290 7291  4460 7292 7294  7292 7293 7294  4733 7292 7293  3434 7293 7294  3091 7295 7297  7295 7296 7297  3372 7295 7296  806 7296 7297  2886 6497 7298  6415 6497 7298  4026 6415 6497  3028 6415 7298  1823 7299 7301  7299 7300 7301  3388 7299 7300  1094 7300 7301  3770 7244 7303  7244 7302 7303  4743 7244 7302  4440 7302 7303  3314 5744 7305  5744 7304 7305  3933 5744 7304  3313 7304 7305  172 173 5676  172 5676 6426  796 5676 6426  171 172 6426  136 137 6439  136 5678 6439  3030 5678 6439  135 136 5678  2535 5994 7306  5994 7306 7307  4378 7306 7307  3885 5994 7307  2389 7055 7308  6674 7055 7308  3758 6674 7055  2384 6674 7308  584 6713 7309  5200 6713 7309  3677 5200 6713  726 5200 7309  3367 7310 7312  7310 7311 7312  4633 7310 7311  3308 7311 7312  1234 7313 7315  7313 7314 7315  3559 7313 7314  1493 7314 7315  3549 4961 7316  4961 7316 7317  4314 7316 7317  1126 4961 7317  1312 7318 7319  6655 7318 7319  4120 6655 7318  1336 6655 7319  3180 7320 7322  7320 7321 7322  3181 7320 7321  1939 7321 7322  2682 6460 7324  6460 7323 7324  3165 6460 7323  3164 7323 7324  3508 7325 7327  7325 7326 7327  4673 7325 7326  1677 7326 7327  3443 7328 7330  7328 7329 7330  4182 7328 7329  3650 7329 7330  3364 7061 7331  7061 7331 7332  4327 7331 7332  2520 7061 7332  3511 6274 6414  6274 6414 7333  4603 6274 7333  4016 6414 7333  73 6330 7334  6330 7334 7335  3949 7334 7335  3300 6330 7335  1682 7336 7337  7088 7336 7337  3185 7088 7336  1704 7088 7337  3356 5371 7338  5371 7338 7339  3357 7338 7339  1656 5371 7339  910 7340 7341  6799 7340 7341  3784 6799 7340  1479 6799 7341  3883 7342 7344  7342 7343 7344  4772 7342 7343  4605 7343 7344  3180 7320 7345  7202 7320 7345  3354 7202 7345  3181 7202 7320  3397 7346 7347  6471 7346 7347  3543 6471 7346  1269 6471 7347  2821 6595 7348  6595 7348 7349  4430 7348 7349  3447 6595 7349  3196 7350 7352  7350 7351 7352  3197 7350 7351  960 7351 7352  2413 7353 7355  7353 7354 7355  4193 7353 7354  4110 7354 7355  1039 7356 7358  7356 7357 7358  3347 7356 7357  1040 7357 7358  1164 7359 7361  7359 7360 7361  3951 7359 7360  3756 7360 7361  2168 7362 7364  7362 7363 7364  3263 7362 7363  2387 7363 7364  3103 7271 7365  6763 7271 7365  3799 6763 7271  2871 6763 7365  2179 7366 7368  7366 7367 7368  4516 7366 7367  3489 7367 7368  2717 7369 7371  7369 7370 7371  3607 7369 7370  3606 7370 7371  2147 7372 7374  7372 7373 7374  3523 7372 7373  1890 7373 7374  1568 7375 7376  6345 7375 7376  3729 6345 7375  1773 6345 7376  2281 7377 7378  7224 7377 7378  3205 7224 7377  3201 7224 7378  1241 7379 7381  7379 7380 7381  3520 7379 7380  1511 7380 7381  756 6812 7382  6812 7382 7383  4755 7382 7383  3522 6812 7383  1146 7384 7385  7197 7384 7385  3340 7197 7384  1148 7197 7385  708 7386 7387  6810 7386 7387  4468 6810 7386  3522 6810 7387  3433 7388 7389  7294 7388 7389  4460 7294 7388  3434 7294 7389  1971 7390 7392  7390 7391 7392  4715 7390 7391  3020 7391 7392  2917 7393 7395  7393 7394 7395  3728 7393 7394  2299 7394 7395  3343 7241 7396  6822 7241 7396  3344 6822 7396  1270 6822 7241  2824 6324 7398  6324 7397 7398  3220 6324 7397  3219 7397 7398  1080 7399 7401  7399 7400 7401  3369 7399 7400  2141 7400 7401  729 7402 7404  7402 7403 7404  3593 7402 7403  3592 7403 7404  3048 6735 7406  6735 7405 7406  3765 6735 7405  3049 7405 7406  3473 6639 7407  6639 6868 7407  3972 6639 6868  3471 6868 7407  3198 6786 7272  6786 7115 7272  4060 7115 7272  3317 6786 7115  1679 6954 7282  6954 7282 7408  3251 7282 7408  3082 6954 7408  1188 7409 7410  6733 7409 7410  3173 6733 7409  1290 6733 7410  3536 7250 7411  7250 7411 7412  4551 7411 7412  4403 7250 7412  1664 6758 7413  6758 7413 7414  4543 7413 7414  2985 6758 7414  3250 5976 7415  5976 6342 7415  3581 6342 7415  3580 5976 6342  3032 6307 7416  5566 6307 7416  4301 5566 7416  1459 5566 6307  3769 7417 7419  7417 7418 7419  3881 7417 7418  777 7418 7419  3649 7067 7420  7067 7420 7421  4262 7420 7421  2743 7067 7421  2720 7422 7424  7422 7423 7424  3589 7422 7423  2704 7423 7424  2682 7324 7426  7324 7425 7426  3164 7324 7425  2675 7425 7426  3491 7427 7429  7427 7428 7429  4408 7427 7428  2308 7428 7429  3725 5017 7430  5017 7430 7431  4387 7430 7431  3890 5017 7431  2896 5193 7432  5193 7432 7433  3372 7432 7433  2897 5193 7433  2348 7434 7436  7434 7435 7436  4209 7434 7435  2358 7435 7436  886 7437 7439  7437 7438 7439  3200 7437 7438  883 7438 7439  3394 6513 7440  6513 7440 7441  3696 7440 7441  3551 6513 7441  2969 7009 7442  7009 7442 7443  4347 7442 7443  4204 7009 7443  2807 6448 7444  6448 7444 7445  3635 7444 7445  3632 6448 7445  1478 7446 7447  6133 7446 7447  4560 6133 7446  3006 6133 7447  3187 7448 7450  7448 7449 7450  3188 7448 7449  3186 7449 7450  955 7451 7452  7352 7451 7452  3196 7352 7451  960 7352 7452  896 6508 7454  6508 7453 7454  3213 6508 7453  893 7453 7454  1350 7455 7457  7455 7456 7457  3209 7455 7456  3206 7456 7457  3618 7458 7460  7458 7459 7460  4219 7458 7459  755 7459 7460  1746 7461 7463  7461 7462 7463  3195 7461 7462  1754 7462 7463  2787 7464 7466  7464 7465 7466  3669 7464 7465  2773 7465 7466  1063 7467 7469  7467 7468 7469  3254 7467 7468  1058 7468 7469  1940 7470 7472  7470 7471 7472  3685 7470 7471  3594 7471 7472  936 7473 7475  7473 7474 7475  3228 7473 7474  3227 7474 7475  3373 7476 7478  7476 7477 7478  3762 7476 7477  3374 7477 7478  2762 7479 7481  7479 7480 7481  3628 7479 7480  2758 7480 7481  2770 7482 7484  7482 7483 7484  3653 7482 7483  2767 7483 7484  3075 7485 7487  7485 7486 7487  4689 7485 7486  4581 7486 7487  2824 7398 7489  7398 7488 7489  3219 7398 7488  2781 7488 7489  728 5523 7490  5523 7490 7491  4307 7490 7491  3352 5523 7491  1540 6465 7492  6465 7492 7493  4409 7492 7493  3112 6465 7493  957 7494 7495  6645 7494 7495  3316 6645 7494  959 6645 7495  2281 7378 7497  7378 7496 7497  3201 7378 7496  1877 7496 7497  3100 7018 7498  7018 7498 7499  3663 7498 7499  1821 7018 7499  2063 7500 7501  5989 7500 7501  3778 5989 7500  1959 5989 7501  965 7502 7504  7502 7503 7504  3218 7502 7503  968 7503 7504  4156 7505 7507  7505 7506 7507  4298 7505 7506  1507 7506 7507  1083 7508 7510  7508 7509 7510  3284 7508 7509  1104 7509 7510  3262 7511 7512  5099 7511 7512  3891 5099 7511  3263 5099 7512  2127 6760 7238  6760 7054 7238  3758 7054 7238  3387 6760 7054  1783 7513 7514  7161 7513 7514  3925 7161 7513  2206 7161 7514  1482 6040 7515  6040 7048 7515  3777 6040 7048  1911 7048 7515  3472 6476 7168  6476 7168 7516  4379 7168 7516  3172 6476 7516  3642 5921 7518  5921 7517 7518  4826 5921 7517  3643 7517 7518  3721 7519 7520  6224 7519 7520  4786 6224 7519  2361 6224 7520  772 7521 7523  7521 7522 7523  3873 7521 7522  3759 7522 7523  1480 7524 7526  7524 7525 7526  3226 7524 7525  922 7525 7526  3692 5985 7527  5985 7527 7528  4015 7527 7528  2636 5985 7528  1801 7529 7531  7529 7530 7531  3611 7529 7530  2029 7530 7531  2479 7532 7534  7532 7533 7534  4330 7532 7533  3072 7533 7534  2003 5476 7535  5476 7188 7535  4328 7188 7535  4139 5476 7188  3116 6611 7537  6611 7536 7537  3743 6611 7536  2492 7536 7537  1777 7538 7540  7538 7539 7540  3392 7538 7539  2109 7539 7540  3548 7541 7543  7541 7542 7543  4667 7541 7542  4514 7542 7543  936 7475 7545  7475 7544 7545  3227 7475 7544  929 7544 7545  809 6354 7547  6354 7546 7547  3090 6354 7546  805 7546 7547  1203 7548 7550  7548 7549 7550  3555 7548 7549  1212 7549 7550  175 5992 7552  5992 7551 7552  3033 5992 7551  736 7551 7552  2313 7553 7555  7553 7554 7555  4390 7553 7554  2958 7554 7555  2109 7539 7557  7539 7556 7557  3392 7539 7556  2475 7556 7557  1544 7558 7560  7558 7559 7560  3577 7558 7559  1542 7559 7560  3286 5610 7562  5610 7561 7562  3555 5610 7561  3285 7561 7562  1902 7563 7565  7563 7564 7565  3578 7563 7564  1644 7564 7565  2974 5923 7566  5923 6797 7566  4222 6797 7566  3784 5923 6797  2641 7254 7568  7254 7567 7568  3606 7254 7567  2663 7567 7568  1483 7228 7570  7228 7569 7570  3368 7228 7569  937 7569 7570  3146 5532 7571  5532 7571 7572  4741 7571 7572  1233 5532 7572  2997 7573 7574  7173 7573 7574  4840 7173 7573  4817 7173 7574  785 7575 7577  7575 7576 7577  3896 7575 7576  3273 7576 7577  2471 5654 7579  5654 7578 7579  4422 5654 7578  3075 7578 7579  1757 6829 7581  6829 7580 7581  4179 6829 7580  3401 7580 7581  997 7582 7584  7582 7583 7584  3230 7582 7583  1013 7583 7584  3117 6092 7585  6092 7585 7586  4763 7585 7586  727 6092 7586  3094 6890 7587  6890 7221 7587  3221 6890 7221  2111 7221 7587  2984 5709 7589  5709 7588 7589  3405 5709 7588  2946 7588 7589  726 5199 7590  5199 5827 7590  4385 5199 5827  3865 5827 7590  1715 7591 7593  7591 7592 7593  3542 7591 7592  2153 7592 7593  1984 7594 7595  6821 7594 7595  3232 6821 7594  2402 6821 7595  3297 5079 7596  5079 7596 7597  4857 7596 7597  2951 5079 7597  3522 7387 7598  7387 7598 7599  4727 7598 7599  708 7387 7599  1107 7600 7601  6496 7600 7601  4026 6496 7600  3421 6496 7601  1971 7602 7603  7562 7602 7603  3286 7562 7602  3285 7562 7603  3186 7087 7604  7087 7604 7605  3192 7604 7605  1704 7087 7605  2000 7606 7608  7606 7607 7608  3434 7606 7607  2172 7607 7608  3324 7609 7611  7609 7610 7611  4242 7609 7610  3325 7610 7611  2992 6252 7612  6252 7505 7612  4298 7505 7612  4156 6252 7505  1573 7613 7614  7322 7613 7614  3180 7322 7613  1939 7322 7614  1493 7314 7615  6244 7314 7615  3559 6244 7314  2146 6244 7615  3650 7329 7617  7329 7616 7617  4182 7329 7616  1289 7616 7617  3525 7618 7620  7618 7619 7620  3715 7618 7619  3528 7619 7620  3765 7405 7621  7405 7621 7622  4461 7621 7622  3049 7405 7622  2477 7623 7624  6935 7623 7624  3416 6935 7623  3415 6935 7624  3189 5561 7625  5561 7604 7625  3192 5561 7604  3186 7604 7625  2413 7353 7626  7353 7626 7627  4449 7626 7627  4193 7353 7627  1104 7509 7628  6477 7509 7628  3284 6477 7509  1118 6477 7628  737 7629 7630  6150 7629 7630  3127 6150 7629  133 6150 7630  885 7631 7632  5350 7631 7632  3120 5350 7631  886 5350 7632  2389 7056 7633  6376 7056 7633  3809 6376 7633  3387 6376 7056  4225 6276 7634  6276 6532 7634  4654 6276 6532  3191 6532 7634  707 7635 7637  7635 7636 7637  3714 7635 7636  3701 7636 7637  2927 6309 7639  6309 7638 7639  4368 6309 7638  3952 7638 7639  1024 7640 7642  7640 7641 7642  3311 7640 7641  1015 7641 7642  3404 7196 7644  7196 7643 7644  3852 7196 7643  1490 7643 7644  1061 7645 7646  5142 7645 7646  3335 5142 7645  1063 5142 7646  2971 5258 7648  5258 7647 7648  4082 5258 7647  3326 7647 7648  886 7437 7649  7437 7649 7650  3787 7649 7650  3200 7437 7650  3427 6662 7651  6662 7651 7652  3816 7651 7652  701 6662 7652  3025 5602 6851  5602 6851 7653  4796 6851 7653  4275 5602 7653  3042 6977 7654  6831 6977 7654  4344 6831 7654  2185 6831 6977  895 7655 7656  5020 7655 7656  3153 5020 7655  896 5020 7656  3225 7657 7658  6054 7657 7658  4465 6054 7657  2622 6054 7658  3364 7659 7660  5447 7659 7660  4849 5447 7659  3363 5447 7660  2866 5866 7661  5866 7661 7662  4161 7661 7662  3781 5866 7662  3041 5970 7664  5970 7663 7664  3733 5970 7663  2242 7663 7664  3589 7665 7666  6240 7665 7666  3590 6240 7665  2793 6240 7666  3274 6140 7667  5950 6140 7667  3275 5950 7667  2040 5950 6140  2161 6842 7668  6842 7299 7668  3388 6842 7299  1823 7299 7668  3515 6909 7669  6909 7669 7670  4000 7669 7670  2315 6909 7670  905 7671 7672  6417 7671 7672  3582 6417 7671  906 6417 7672  1484 6296 7674  6296 7673 7674  3477 6296 7673  976 7673 7674  3177 7675 7676  6221 7675 7676  4550 6221 7675  4486 6221 7676  3769 7417 7677  7417 7677 7678  4606 7677 7678  3881 7417 7678  3133 7679 7681  7679 7680 7681  4476 7679 7680  2368 7680 7681  1961 5624 6264  5624 6264 7682  3783 6264 7682  3532 5624 7682  1268 7683 7684  7669 7683 7684  4000 7669 7683  3515 7669 7684  3202 7685 7687  7685 7686 7687  3776 7685 7686  3204 7686 7687  3492 7688 7690  7688 7689 7690  3684 7688 7689  3494 7689 7690  3342 5076 7692  5076 7691 7692  3345 5076 7691  3343 7691 7692  2083 7693 7694  5366 7693 7694  3564 5366 7693  3000 5366 7694  1973 7695 7697  7695 7696 7697  3215 7695 7696  2833 7696 7697  2397 7698 7699  6665 7698 7699  4861 6665 7698  2966 6665 7699  757 7700 7702  7700 7701 7702  3699 7700 7701  3691 7701 7702  3585 7703 7705  7703 7704 7705  4360 7703 7704  3586 7704 7705  1971 7603 7707  7603 7706 7707  3285 7603 7706  1047 7706 7707  2955 7708 7709  7422 7708 7709  3589 7422 7708  2720 7422 7709  3185 7086 7710  7086 7450 7710  3187 7450 7710  3186 7086 7450  1654 7279 7711  7103 7279 7711  3702 7103 7279  1833 7103 7711  2090 7712 7713  6754 7712 7713  3325 6754 7712  3269 6754 7713  1114 6998 7715  6998 7714 7715  3790 6998 7714  1106 7714 7715  2339 7116 7716  5487 7116 7716  4245 5487 7716  3317 5487 7116  2643 7717 7719  7717 7718 7719  3326 7717 7718  2639 7718 7719  3037 5638 7720  5638 7720 7721  4825 7720 7721  1662 5638 7721  3437 7722 7723  6805 7722 7723  3509 6805 7722  846 6805 7723  950 7724 7726  7724 7725 7726  3268 7724 7725  1491 7725 7726  2989 7727 7729  7727 7728 7729  3318 7727 7728  2134 7728 7729  682 7730 7731  6441 7730 7731  4172 6441 7730  3428 6441 7731  2125 6790 7733  6790 7732 7733  3390 6790 7732  1703 7732 7733  1776 6332 7735  6332 7734 7735  4576 6332 7734  3975 7734 7735  2904 6780 7736  6780 7736 7737  4732 7736 7737  4205 6780 7737  1212 7549 7738  5609 7549 7738  3555 5609 7549  2218 5609 7738  865 7739 7741  7739 7740 7741  4355 7739 7740  3552 7740 7741  971 7742 7743  6586 7742 7743  3298 6586 7742  1484 6586 7743  797 7133 7229  7133 7229 7744  3490 7133 7744  2896 7229 7744  3007 6026 7745  6026 6590 7745  3627 6026 6590  2791 6590 7745  3242 7146 7747  7146 7746 7747  4523 7146 7746  696 7746 7747  3670 5024 6698  5024 6698 7748  4343 6698 7748  2297 5024 7748  1447 7749 7750  6568 7749 7750  3745 6568 7749  3396 6568 7750  2476 7751 7753  7751 7752 7753  4639 7751 7752  4556 7752 7753  1887 6119 7754  6119 7754 7755  4548 7754 7755  3021 6119 7755  3242 7147 7756  7147 7756 7757  4738 7756 7757  754 7147 7757  3178 7758 7760  7758 7759 7760  4696 7758 7759  3174 7759 7760  748 7761 7763  7761 7762 7763  3668 7761 7762  3633 7762 7763  1460 7764 7765  7210 7764 7765  3533 7210 7764  1200 7210 7765  3489 7368 7766  7368 7766 7767  4704 7766 7767  2179 7368 7767  2683 7768 7769  6458 7768 7769  3475 6458 7768  2682 6458 7769  1453 5420 7770  5420 6360 7770  3941 6360 7770  3104 5420 6360  3203 6927 7771  6927 7563 7771  3578 6927 7563  1902 7563 7771  2723 7772 7773  6623 7772 7773  3212 6623 7772  2721 6623 7773  2477 7624 7775  7624 7774 7775  3415 7624 7774  2034 7774 7775  3293 7776 7778  7776 7777 7778  4111 7776 7777  3295 7777 7778  2246 5057 7779  5057 6565 7779  3339 6565 7779  3338 5057 6565  2029 7530 7780  5177 7530 7780  3611 5177 7530  2427 5177 7780  3308 7311 7782  7311 7781 7782  4633 7311 7781  2832 7781 7782  2482 7783 7785  7783 7784 7785  4256 7783 7784  4108 7784 7785  2775 5518 7786  5518 7479 7786  3628 5518 7479  2762 7479 7786  3089 7787 7788  6535 7787 7788  4501 6535 7787  4476 6535 7788  2695 6703 7790  6703 7789 7790  3476 6703 7789  2693 7789 7790  2308 7791 7792  7207 7791 7792  3923 7207 7791  3788 7207 7792  1532 7793 7794  7281 7793 7794  3251 7281 7793  1530 7281 7794  2153 7592 7796  7592 7795 7796  3542 7592 7795  2169 7795 7796  1861 7797 7798  6721 7797 7798  3402 6721 7797  1863 6721 7798  2708 7005 7799  7005 7799 7800  4691 7799 7800  3820 7005 7800  2220 7143 7801  6599 7143 7801  3334 6599 7143  3118 6599 7801  3166 7802 7804  7802 7803 7804  3167 7802 7803  2698 7803 7804  3324 7611 7805  7611 7712 7805  3325 7611 7712  2090 7712 7805  703 7806 7808  7806 7807 7808  3867 7806 7807  3786 7807 7808  1656 7339 7809  6912 7339 7809  3357 6912 7339  943 6912 7809  2797 7810 7811  7482 7810 7811  3653 7482 7810  2770 7482 7811  1692 7812 7813  7558 7812 7813  3577 7558 7812  1544 7558 7813  2127 6762 7815  6762 7814 7815  3386 6762 7814  1740 7814 7815  2900 7816 7817  7464 7816 7817  3669 7464 7816  2787 7464 7817  1388 7818 7820  7818 7819 7820  3544 7818 7819  1476 7819 7820  2010 7821 7823  7821 7822 7823  3332 7821 7822  3331 7822 7823  1193 7824 7826  7824 7825 7826  3330 7824 7825  1175 7825 7826  3623 7827 7829  7827 7828 7829  4020 7827 7828  2258 7828 7829  3885 7307 7831  7307 7830 7831  4378 7307 7830  3886 7830 7831  3756 7360 7833  7360 7832 7833  3951 7360 7832  3516 7832 7833  1247 7834 7836  7834 7835 7836  3399 7834 7835  3398 7835 7836  3263 5285 7363  5285 7363 7837  4387 5285 7837  2387 7363 7837  1522 6861 7839  6861 7838 7839  4005 6861 7838  1519 7838 7839  74 75 7840  74 7334 7840  3949 7334 7840  73 74 7334  2448 7841 7843  7841 7842 7843  4027 7841 7842  3587 7842 7843  3466 7844 7846  7844 7845 7846  3808 7844 7845  1676 7845 7846  1440 6691 7848  6691 7847 7848  4039 6691 7847  1436 7847 7848  2630 7849 7850  6964 7849 7850  3568 6964 7849  2648 6964 7850  1004 7851 7853  7851 7852 7853  3591 7851 7852  3538 7852 7853  3081 6657 7854  6657 7854 7855  4905 7854 7855  1336 6657 7855  2934 6234 7856  6234 7856 7857  4709 7856 7857  3902 6234 7857  2316 7858 7860  7858 7859 7860  4352 7858 7859  4226 7859 7860  3341 7861 7863  7861 7862 7863  3342 7861 7862  1263 7862 7863  2131 5616 7865  5616 7864 7865  3082 5616 7864  2129 7864 7865  1476 7819 7867  7819 7866 7867  3544 7819 7866  1816 7866 7867  1677 7868 7870  7868 7869 7870  4813 7868 7869  3717 7869 7870  1247 7834 7871  6130 7834 7871  3610 6130 7871  3399 6130 7834  736 5506 7872  5506 7872 7873  798 7872 7873  797 5506 7873  3373 7478 7875  7478 7874 7875  3374 7478 7874  1181 7874 7875  4633 7781 7876  7781 7876 7877  4663 7876 7877  2832 7781 7877  3235 7878 7880  7878 7879 7880  3916 7878 7879  2192 7879 7880  3548 7543 7882  7543 7881 7882  4514 7543 7881  3847 7881 7882  3780 7883 7885  7883 7884 7885  3882 7883 7884  705 7884 7885  3020 7391 7887  7391 7886 7887  4715 7391 7886  1055 7886 7887  3873 7522 7888  7522 7888 7889  4594 7888 7889  3759 7522 7889  3096 5458 7891  5458 7890 7891  3351 5458 7890  2158 7890 7891  3273 7577 7892  7577 7892 7893  4717 7892 7893  785 7577 7893  700 5158 7894  5158 6428 7894  3406 5158 6428  93 6428 7894  2068 7895 7897  7895 7896 7897  3596 7895 7896  2979 7896 7897  1226 7898 7899  6932 7898 7899  3278 6932 7898  1229 6932 7899  1424 7900 7901  6396 7900 7901  3686 6396 7900  3506 6396 7901  803 7902 7903  7132 7902 7903  3490 7132 7902  799 7132 7903  1628 7904 7905  6794 7904 7905  4441 6794 7904  4154 6794 7905  3206 7456 7907  7456 7906 7907  3209 7456 7906  3207 7906 7907  3413 7908 7910  7908 7909 7910  3635 7908 7909  3414 7909 7910  4111 7777 7911  7777 7911 7912  4718 7911 7912  3295 7777 7912  2347 7913 7915  7913 7914 7915  4114 7913 7914  3646 7914 7915  2489 6603 7916  6603 7916 7917  4566 7916 7917  3217 6603 7917  1673 7918 7920  7918 7919 7920  4029 7918 7919  1674 7919 7920  4209 7435 7921  7435 7921 7922  4375 7921 7922  2358 7435 7922  3306 6719 7924  6719 7923 7924  3307 6719 7923  2399 7923 7924  2472 7925 7927  7925 7926 7927  4412 7925 7926  4330 7926 7927  2186 7928 7929  6355 7928 7929  2361 6355 7928  809 6355 7929  2591 7930 7932  7930 7931 7932  4001 7930 7931  2588 7931 7932  3585 7703 7933  7703 7933 7934  4436 7933 7934  4360 7703 7934  3374 5210 7936  5210 7935 7936  3937 5210 7935  3375 7935 7936  1329 7937 7939  7937 7938 7939  3353 7937 7938  1498 7938 7939  3076 7940 7941  7485 7940 7941  4689 7485 7940  3075 7485 7941  2186 7928 7942  7928 7942 7943  2931 7942 7943  2361 7928 7943  3781 7662 7945  7662 7944 7945  4161 7662 7944  698 7944 7945  2304 5229 7946  5146 5229 7946  4196 5146 5229  3113 5146 7946  3366 7947 7949  7947 7948 7949  3367 7947 7948  2205 7948 7949  3143 6985 7951  6985 7950 7951  3916 6985 7950  1867 7950 7951  2900 5053 7816  5053 7816 7952  4335 5053 7952  3669 7816 7952  3587 7842 7954  7842 7953 7954  4027 7842 7953  3337 7953 7954  1012 7955 7956  7025 7955 7956  3313 7025 7955  1017 7025 7956  4434 7957 7959  7957 7958 7959  4838 7957 7958  2921 7958 7959  2281 7377 7960  7377 7960 7961  3769 7960 7961  3205 7377 7961  1998 7962 7964  7962 7963 7964  3973 7962 7963  3741 7963 7964  4252 7965 7966  6273 7965 7966  4603 6273 7965  3440 6273 7966  1591 7967 7969  7967 7968 7969  4767 7967 7968  3220 7968 7969  3480 7970 7972  7970 7971 7972  4407 7970 7971  3207 7971 7972  3380 5167 7974  5167 7973 7974  3672 5167 7973  3379 7973 7974  3991 7139 7975  5463 7139 7975  4452 5463 7975  3023 5463 7139  1786 7058 7977  7058 7976 7977  3792 7058 7976  1670 7976 7977  4199 5887 7979  5887 7978 7979  4318 5887 7978  1220 7978 7979  3092 5036 7981  5036 7980 7981  3093 5036 7980  3091 7980 7981  3959 7982 7984  7982 7983 7984  4521 7982 7983  4364 7983 7984  1989 7985 7986  7142 7985 7986  3334 7142 7985  1999 7142 7986  1398 7987 7989  7987 7988 7989  3536 7987 7988  1395 7988 7989  1975 7990 7991  7949 7990 7991  3366 7949 7990  2205 7949 7991  3205 7225 7992  7225 7685 7992  3776 7685 7992  3202 7225 7685  1479 5771 6798  5771 6148 6798  4222 6148 6798  3073 5771 6148  2402 7993 7994  5040 7993 7994  4385 5040 7993  3305 5040 7994  4041 6505 7995  6505 7995 7996  4784 7995 7996  3442 6505 7996  1565 7997 7999  7997 7998 7999  3444 7997 7998  1569 7998 7999  3586 7704 8001  7704 8000 8001  4360 7704 8000  2581 8000 8001  4226 7859 8003  7859 8002 8003  4352 7859 8002  4227 8002 8003  3434 7293 7607  7293 7607 8004  4733 7293 8004  2172 7607 8004  2583 8005 8006  5201 8005 8006  4444 5201 8005  2580 5201 8006  3090 8007 8008  7297 8007 8008  3091 7297 8007  806 7297 8008  2660 8009 8010  7717 8009 8010  3326 7717 8009  2643 7717 8010  2376 8011 8013  8011 8012 8013  3371 8011 8012  3370 8012 8013  1897 8014 8015  6847 8014 8015  3464 6847 8014  1899 6847 8015  3330 8016 8017  6530 8016 8017  4513 6530 8016  3329 6530 8017  2533 8018 8020  8018 8019 8020  3601 8018 8019  2534 8019 8020  1146 7384 8021  7015 7384 8021  3553 7015 8021  3340 7015 7384  1471 8022 8024  8022 8023 8024  3349 8022 8023  1595 8023 8024  2537 7121 8026  7121 8025 8026  3599 7121 8025  2538 8025 8026  722 8027 8029  8027 8028 8029  4888 8027 8028  3430 8028 8029  1843 8030 8031  6699 8030 8031  3517 6699 8030  1845 6699 8031  1758 8032 8033  6855 8032 8033  3276 6855 8032  1663 6855 8033  3855 5496 8034  5496 8034 8035  3857 8034 8035  3216 5496 8035  2249 8036 8038  8036 8037 8038  3907 8036 8037  3658 8037 8038  1298 6202 8039  6202 8039 8040  4238 8039 8040  4201 6202 8040  2495 6019 8041  6019 6223 8041  4486 6019 6223  4125 6223 8041  3699 7701 8042  7701 8042 8043  3700 8042 8043  3691 7701 8043  2229 8044 8046  8044 8045 8046  4693 8044 8045  3140 8045 8046  1705 8047 8049  8047 8048 8049  3192 8047 8048  1711 8048 8049  674 6718 8050  6718 8050 8051  3309 8050 8051  3307 6718 8051  3614 8052 8054  8052 8053 8054  3828 8052 8053  3615 8053 8054  4197 8055 8056  6022 8055 8056  4198 6022 8055  2230 6022 8056  3164 8057 8058  7804 8057 8058  3166 7804 8057  2698 7804 8058  3051 6204 8059  6204 8059 8060  4676 8059 8060  1298 6204 8060  1562 6386 8062  6386 8061 8062  3764 6386 8061  3403 8061 8062  1511 7380 8063  6957 7380 8063  3520 6957 7380  3056 6957 8063  3357 6293 6913  6293 6913 8064  3966 6293 8064  945 6913 8064  3064 8065 8067  8065 8066 8067  3537 8065 8066  2718 8066 8067  696 7747 8068  7747 8068 8069  4707 8068 8069  3242 7747 8069  1209 8070 8072  8070 8071 8072  4621 8070 8071  3136 8071 8072  1297 8073 8074  7108 8073 8074  3141 7108 8073  1192 7108 8074  1811 8075 8077  8075 8076 8077  4021 8075 8076  1948 8076 8077  3658 8037 8079  8037 8078 8079  3907 8037 8078  1848 8078 8079  694 8080 8082  8080 8081 8082  3804 8080 8081  3426 8081 8082  3090 5635 8007  5635 7981 8007  3092 5635 7981  3091 7981 8007  4246 5632 8083  5632 6966 8083  4529 6966 8083  2993 5632 6966  3427 6661 8084  6661 7059 8084  4532 6661 7059  2520 7059 8084  3594 5411 7472  5411 7472 8085  4233 5411 8085  1940 7472 8085  3080 6911 8086  6911 8086 8087  4783 8086 8087  1219 6911 8087  3365 8088 8090  8088 8089 8090  4239 8088 8089  2442 8089 8090  2141 7400 8091  6834 7400 8091  3369 6834 7400  3068 6834 8091  2512 8092 8094  8092 8093 8094  4697 8092 8093  3094 8093 8094  1350 7457 8096  7457 8095 8096  3206 7457 8095  1640 8095 8096  3166 8097 8098  5425 8097 8098  3171 5425 8097  3168 5425 8098  2930 8099 8101  8099 8100 8101  4522 8099 8100  3782 8100 8101  1872 8102 8103  7878 8102 8103  3916 7878 8102  3235 7878 8103  1781 5534 8105  5534 8104 8105  3404 5534 8104  1504 8104 8105  3227 8106 8107  7099 8106 8107  3350 7099 8106  1480 7099 8107  3857 8035 8108  8035 8108 8109  4089 8108 8109  3216 8035 8109  3386 6761 8110  6378 6761 8110  3387 6378 6761  1748 6378 8110  2077 5588 8111  5588 8111 8112  4395 8111 8112  3047 5588 8112  3557 8113 8114  6860 8113 8114  4005 6860 8113  1575 6860 8114  3277 6929 8115  6929 7898 8115  3278 6929 7898  1226 7898 8115  3261 5015 8117  5015 8116 8117  3262 5015 8116  2167 8116 8117  3278 6933 8118  6933 7270 8118  3799 7270 8118  1236 6933 7270  334 5494 8119  5494 8088 8119  4239 8088 8119  3365 5494 8088  3305 8120 8121  7924 8120 8121  3306 7924 8120  2399 7924 8121  3287 8122 8124  8122 8123 8124  3288 8122 8123  1751 8123 8124  3616 6588 8125  6588 7918 8125  4029 7918 8125  1673 6588 7918  65 8126 8128  8126 8127 8128  3540 8126 8127  682 8127 8128  4490 5859 8129  5859 8129 8130  4737 8129 8130  3424 5859 8130  3312 8131 8132  7955 8131 8132  3313 7955 8131  1012 7955 8132  1341 8133 8135  8133 8134 8135  3395 8133 8134  1561 8134 8135  751 8136 8138  8136 8137 8138  4756 8136 8137  3031 8137 8138  3494 7689 8140  7689 8139 8140  3684 7689 8139  3499 8139 8140  805 7546 8141  7546 8008 8141  3090 7546 8008  806 8008 8141  3639 8142 8144  8142 8143 8144  4418 8142 8143  1279 8143 8144  3269 8145 8147  8145 8146 8147  3270 8145 8146  2128 8146 8147  2172 8148 8150  8148 8149 8150  3479 8148 8149  1772 8149 8150  2847 8151 8153  8151 8152 8153  4388 8151 8152  3323 8152 8153  2161 6843 8154  6686 6843 8154  4256 6686 8154  3348 6686 6843  1258 8155 8156  7863 8155 8156  3341 7863 8155  1263 7863 8156  3209 6410 7906  6410 7906 7972  3480 6410 7972  3207 7906 7972  1711 8048 8157  5560 8048 8157  3192 5560 8048  1987 5560 8157  3102 8158 8159  7498 8158 8159  3663 7498 8158  3100 7498 8159  2211 8160 8162  8160 8161 8162  3507 8160 8161  2392 8161 8162  3601 8163 8164  7112 8163 8164  3603 7112 8163  3602 7112 8164  1491 5955 8166  5955 8165 8166  3773 5955 8165  3196 8165 8166  3867 7807 8167  7807 8167 8168  4659 8167 8168  3786 7807 8168  2224 6131 8170  6131 8169 8170  3610 6131 8169  1549 8169 8170  4673 7326 8171  7326 7868 8171  4813 7868 8171  1677 7326 7868  2538 8025 8173  8025 8172 8173  3599 8025 8172  2541 8172 8173  3239 6792 8175  6792 8174 8175  3637 6792 8174  685 8174 8175  1197 8176 8178  8176 8177 8178  3417 8176 8177  1563 8177 8178  1916 5720 7126  5720 6408 7126  4808 5720 6408  3142 6408 7126  1211 7288 8179  7288 7455 8179  3209 7288 7455  1350 7455 8179  3496 8180 8181  5384 8180 8181  4731 5384 8180  3495 5384 8181  3363 5242 8182  5242 8090 8182  3365 5242 8090  2442 8090 8182  81 8183 8185  8183 8184 8185  3560 8183 8184  747 8184 8185  2718 8066 8187  8066 8186 8187  3537 8066 8186  2696 8186 8187  2590 8188 8190  8188 8189 8190  4019 8188 8189  2592 8189 8190  1454 8191 8193  8191 8192 8193  3322 8191 8192  1453 8192 8193  805 8141 8195  8141 8194 8195  806 8141 8194  803 8194 8195  1987 6533 8197  6533 8196 8197  4654 6533 8196  3392 8196 8197  2091 8198 8199  7805 8198 8199  3324 7805 8198  2090 7805 8199  1809 8200 8201  7034 8200 8201  3267 7034 8200  1765 7034 8201  1020 5026 8202  5026 8202 8203  4778 8202 8203  3028 5026 8203  1474 8204 8206  8204 8205 8206  4542 8204 8205  1556 8205 8206  544 8207 8209  8207 8208 8209  4590 8207 8208  3295 8208 8209  1327 8210 8211  7050 8210 8211  3403 7050 8210  1325 7050 8211  3868 8212 8214  8212 8213 8214  4732 8212 8213  4057 8213 8214  3293 5274 7778  5274 7778 8215  3295 7778 8215  3294 5274 8215  3076 5397 8216  5397 8216 8217  4781 8216 8217  1382 5397 8217  2010 7823 8219  7823 8218 8219  3331 7823 8218  2011 8218 8219  1032 8220 8221  6897 8220 8221  3573 6897 8220  1102 6897 8221  4133 6643 8222  5656 6643 8222  4294 5656 8222  2074 5656 6643  1890 7373 8224  7373 8223 8224  3523 7373 8223  1892 8223 8224  1247 7836 8226  7836 8225 8226  3398 7836 8225  1248 8225 8226  3403 7051 8061  7051 8061 8227  3764 8061 8227  2494 7051 8227  3545 6609 6844  6609 6844 7541  4667 6609 7541  3548 6844 7541  3777 8228 8230  8228 8229 8230  4842 8228 8229  2891 8229 8230  2921 8231 8232  7268 8231 8232  3736 7268 8231  3487 7268 8232  1182 8233 8234  7875 8233 8234  3373 7875 8233  1181 7875 8234  3868 8214 8236  8214 8235 8236  4057 8214 8235  773 8235 8236  3237 8237 8239  8237 8238 8239  3518 8237 8238  3236 8238 8239  1516 8240 8242  8240 8241 8242  3836 8240 8241  1514 8241 8242  1021 6227 8243  6227 8243 8244  3793 8243 8244  3147 6227 8244  2998 5663 8246  5663 8245 8246  3903 5663 8245  3096 8245 8246  2135 8247 8249  8247 8248 8249  3463 8247 8248  2988 8248 8249  3287 8250 8252  8250 8251 8252  3319 8250 8251  3289 8251 8252  1081 8253 8254  7399 8253 8254  3369 7399 8253  1080 7399 8254  3094 8093 8256  8093 8255 8256  4697 8093 8255  4489 8255 8256  1549 8169 8258  8169 8257 8258  3610 8169 8257  1243 8257 8258  1270 6823 8260  6823 8259 8260  3328 6823 8259  1271 8259 8260  1851 8261 8262  7062 8261 8262  3121 7062 8261  1850 7062 8262  3596 7896 8263  6468 7896 8263  4007 6468 8263  2979 6468 7896  1794 5299 8265  5299 8264 8265  3553 5299 8264  1018 8264 8265  3807 6667 8266  6667 8266 8267  4283 8266 8267  2966 6667 8267  1238 8268 8269  7379 8268 8269  3520 7379 8268  1241 7379 8269  2919 7024 8270  7024 7372 8270  3523 7024 7372  2147 7372 8270  1177 8271 8273  8271 8272 8273  3999 8271 8272  1201 8272 8273  4264 6572 8274  6572 8274 8275  4475 8274 8275  3446 6572 8275  2950 8276 8277  5312 8276 8277  3955 5312 8276  3687 5312 8277  729 7404 8279  7404 8278 8279  3592 7404 8278  185 8278 8279  3307 8051 8281  8051 8280 8281  3309 8051 8280  3308 8280 8281  2771 8282 8284  8282 8283 8284  3604 8282 8283  2785 8283 8284  59 8285 8287  8285 8286 8287  3595 8285 8286  750 8286 8287  3327 8288 8289  6705 8288 8289  3682 6705 8288  697 6705 8289  3370 7078 8290  7078 8290 8291  3892 8290 8291  782 7078 8291  2976 8292 8294  8292 8293 8294  4750 8292 8293  3911 8293 8294  1563 8295 8296  7997 8295 8296  3444 7997 8295  1565 7997 8296  936 8297 8299  8297 8298 8299  3368 8297 8298  3229 8298 8299  3828 8053 8300  8053 8300 8301  3983 8300 8301  3615 8053 8301  1346 8302 8304  8302 8303 8304  3337 8302 8303  1347 8303 8304  2346 8305 8307  8305 8306 8307  4892 8305 8306  3385 8306 8307  4393 8308 8309  7758 8308 8309  4696 7758 8308  3178 7758 8309  3633 7762 8311  7762 8310 8311  3668 7762 8310  3420 8310 8311  3295 7912 8209  7912 8209 8312  4718 7912 8312  544 8209 8312  66 67 6677  66 6677 8126  3540 6677 8126  65 66 8126  3205 7992 8313  6218 7992 8313  4577 6218 8313  3776 6218 7992  2581 8001 8314  8001 8314 8315  4828 8314 8315  3586 8001 8315  3149 7001 8316  7001 8316 8317  4931 8316 8317  744 7001 8317  2102 5096 8318  5096 8309 8318  4393 8309 8318  3178 5096 8309  1419 8319 8321  8319 8320 8321  3505 8319 8320  1592 8320 8321  3633 8322 8324  8322 8323 8324  3727 8322 8323  3634 8323 8324  3390 6789 8326  6789 8325 8326  3391 6789 8325  1650 8325 8326  1772 8149 8328  8149 8327 8328  3479 8149 8327  1537 8327 8328  1944 8329 8331  8329 8330 8331  4045 8329 8330  1946 8330 8331  3211 5820 8333  5820 8332 8333  4364 5820 8332  3212 8332 8333  3461 5698 8334  5698 5900 8334  3462 5698 5900  3460 5900 8334  2192 7879 8335  6984 7879 8335  3916 6984 7879  2912 6984 8335  2534 8019 8336  7150 8019 8336  3601 7150 8019  2537 7150 8336  2875 6737 8337  6737 7285 8337  4759 6737 7285  2876 7285 8337  2533 8018 8338  8018 8163 8338  3603 8163 8338  3601 8018 8163  4605 7343 8340  7343 8339 8340  4772 7343 8339  4035 8339 8340  1063 7467 8341  7467 8341 8342  3763 8341 8342  3254 7467 8342  3264 8343 8345  8343 8344 8345  3265 8343 8344  2136 8344 8345  3701 8346 8348  8346 8347 8348  3734 8346 8347  2527 8347 8348  3401 6291 7581  6291 7581 8349  3989 6291 8349  1757 7581 8349  3731 8350 8352  8350 8351 8352  4555 8350 8351  3732 8351 8352  2858 6570 8353  6570 8353 8354  4725 8353 8354  3396 6570 8354  3780 7883 8355  7883 8355 8356  4632 8355 8356  3882 7883 8356  3074 8357 8358  7959 8357 8358  4434 7959 8357  2921 7959 8358  3588 6938 8360  6938 8359 8360  4510 6938 8359  3587 8359 8360  1088 8361 8362  6688 8361 8362  3348 6688 8361  2423 6688 8362  1310 8363 8364  4999 8363 8364  4644 4999 8363  1005 4999 8364  2099 8365 8366  7429 8365 8366  3491 7429 8365  2308 7429 8366  2157 8367 8369  8367 8368 8369  3389 8367 8368  2254 8368 8369  1704 7605 8370  7605 8047 8370  3192 7605 8047  1705 8047 8370  684 8371 8372  5478 8371 8372  4505 5478 8371  4320 5478 8372  3417 8177 8373  8177 8295 8373  3444 8295 8373  1563 8177 8295  84 85 8374  84 8374 8375  3412 8374 8375  83 84 8375  1168 8376 8377  7356 8376 8377  3347 7356 8376  1039 7356 8377  3385 8307 8378  8307 8378 8379  4661 8378 8379  2346 8307 8379  2260 8380 8381  7193 8380 8381  4642 7193 8380  3229 7193 8381  2482 7785 8382  6456 7785 8382  4108 6456 7785  3050 6456 8382  1846 7222 8384  7222 8383 8384  3221 7222 8383  1847 8383 8384  1840 8385 8387  8385 8386 8387  3236 8385 8386  1843 8386 8387  2761 8388 8390  8388 8389 8390  3360 8388 8389  2763 8389 8390  2225 8391 8392  7844 8391 8392  3808 7844 8391  3466 7844 8392  883 7438 8394  7438 8393 8394  3200 7438 8393  881 8393 8394  893 7453 8396  7453 8395 8396  3213 7453 8395  890 8395 8396  62 63 8397  62 8397 8398  3428 8397 8398  61 62 8398  2134 7728 8400  7728 8399 8400  3318 7728 8399  2006 8399 8400  712 8401 8403  8401 8402 8403  3617 8401 8402  197 8402 8403  3356 7338 8404  6294 7338 8404  3358 6294 8404  3357 6294 7338  107 8405 8407  8405 8406 8407  3620 8405 8406  742 8406 8407  741 8408 8410  8408 8409 8410  3619 8408 8409  201 8409 8410  103 8411 8413  8411 8412 8413  3622 8411 8412  710 8412 8413  709 5115 8415  5115 8414 8415  3621 5115 8414  205 8414 8415  743 8416 8418  8416 8417 8418  3624 8416 8417  209 8417 8418  698 8419 8421  8419 8420 8421  3625 8419 8420  213 8420 8421  687 8422 8424  8422 8423 8424  3626 8422 8423  223 8423 8424  2622 7658 8425  7658 8425 8426  4647 8425 8426  3225 7658 8426  2214 8427 8428  6392 8427 8428  3640 6392 8427  3478 6392 8428  1058 7468 8430  7468 8429 8430  3254 7468 8429  1056 8429 8430  2792 8431 8433  8431 8432 8433  3636 8431 8432  3009 8432 8433  184 185 8278  184 8278 8434  3592 8278 8434  183 184 8434  82 83 8435  82 8183 8435  3560 8183 8435  81 82 8183  1150 8436 8437  7409 8436 8437  3173 7409 8436  1188 7409 8437  2781 7488 8439  7488 8438 8439  3219 7488 8438  2779 8438 8439  39 8440 8441  7460 8440 8441  3618 7460 8440  755 7460 8441  1383 6619 8443  6619 8442 8443  3224 6619 8442  1380 8442 8443  922 7525 8445  7525 8444 8445  3226 7525 8444  915 8444 8445  3395 6801 8134  6801 8134 8446  3806 6801 8446  1561 8134 8446  3665 6154 8448  6154 8447 8448  3726 6154 8447  2369 8447 8448  42 43 8449  42 8449 8450  3435 8449 8450  41 42 8450  929 7544 8452  7544 8451 8452  3227 7544 8451  926 8451 8452  748 8453 8455  8453 8454 8455  3631 8453 8454  229 8454 8455  1742 8456 8457  8110 8456 8457  3386 8110 8456  1748 8110 8457  2149 8458 8460  8458 8459 8460  3630 8458 8459  1735 8459 8460  937 7569 8462  7569 8461 8462  3368 7569 8461  934 8461 8462  3973 7963 8463  7963 8463 8464  4923 8463 8464  3741 7963 8464  3052 5511 8465  5511 8465 8466  4859 8465 8466  686 5511 8466  3197 7351 8467  7351 8467 8468  3198 8467 8468  960 7351 8468  3396 6268 8354  6268 8354 8469  4725 8354 8469  2166 6268 8469  77 8470 8472  8470 8471 8472  3641 8470 8471  676 8471 8472  2067 8473 8475  8473 8474 8475  3296 8473 8474  2281 8474 8475  1145 4965 8476  4965 8476 8477  4655 8476 8477  3549 4965 8477  3177 5974 7676  5974 7676 8478  4486 7676 8478  1294 5974 8478  1053 8479 8481  8479 8480 8481  3253 8479 8480  1055 8480 8481  836 8482 8484  8482 8483 8484  3648 8482 8483  1289 8483 8484  1489 8485 8486  8326 8485 8486  3390 8326 8485  1650 8326 8486  1865 8487 8488  7951 8487 8488  3143 7951 8487  1867 7951 8488  1881 8489 8490  8147 8489 8490  3269 8147 8489  2128 8147 8490  953 8491 8492  7451 8491 8492  3196 7451 8491  955 7451 8492  844 8493 8494  7723 8493 8494  3437 7723 8493  846 7723 8494  936 7473 8299  7194 7473 8299  3229 7194 8299  3228 7194 7473  2071 8495 8497  8495 8496 8497  3315 8495 8496  2213 8496 8497  1795 8498 8500  8498 8499 8500  4534 8498 8499  3747 8499 8500  832 8501 8503  8501 8502 8503  3652 8501 8502  1494 8502 8503  749 8504 8506  8504 8505 8506  3647 8504 8505  239 8505 8506  921 8507 8509  8507 8508 8509  3258 8507 8508  925 8508 8509  3142 7014 7212  7014 7212 8510  3346 7014 8510  2204 7212 8510  1015 7641 8512  7641 8511 8512  3311 7641 8511  1008 8511 8512  1484 6297 6585  6297 6585 8513  4290 6585 8513  3061 6297 8513  2841 8514 8516  8514 8515 8516  3675 8514 8515  3674 8515 8516  2675 7425 8518  7425 8517 8518  3164 7425 8517  2671 8517 8518  1828 8519 8520  7594 8519 8520  3232 7594 8519  1984 7594 8520  3097 5358 8521  5358 8521 8522  4329 8521 8522  791 5358 8522  963 8523 8524  7502 8523 8524  3218 7502 8523  965 7502 8524  1224 8525 8526  8115 8525 8526  3277 8115 8525  1226 8115 8526  2123 8527 8528  8117 8527 8528  3261 8117 8527  2167 8117 8528  2033 8529 8530  8121 8529 8530  3305 8121 8529  2399 8121 8530  3279 6478 8532  6478 8531 8532  3284 6478 8531  2828 8531 8532  2151 8533 8535  8533 8534 8535  3651 8533 8534  1461 8534 8535  1744 8536 8537  7461 8536 8537  3195 7461 8536  1746 7461 8537  1749 8538 8539  8124 8538 8539  3287 8124 8538  1751 8124 8539  60 61 8540  60 8285 8540  3595 8285 8540  59 60 8285  1877 7496 8542  7496 8541 8542  3201 7496 8541  1788 8541 8542  707 7637 8544  7637 8543 8544  3701 7637 8543  3700 8543 8544  2827 8545 8546  8532 8545 8546  3279 8532 8545  2828 8532 8546  994 8547 8549  8547 8548 8549  3133 8547 8548  988 8548 8549  1067 8550 8552  8550 8551 8552  3554 8550 8551  1782 8551 8552  992 8553 8554  7582 8553 8554  3230 7582 8553  997 7582 8554  681 8555 8557  8555 8556 8557  3654 8555 8556  243 8556 8557  1787 8558 8559  5437 8558 8559  3467 5437 8558  1786 5437 8559  3714 7636 8560  7636 8346 8560  3734 8346 8560  3701 7636 8346  1254 8561 8562  7347 8561 8562  3397 7347 8561  1269 7347 8562  2698 8563 8564  6574 8563 8564  3169 6574 8563  2669 6574 8564  858 8565 8566  6443 8565 8566  3659 6443 8565  1495 6443 8566  4080 5578 8568  5578 8567 8568  4791 5578 8567  2637 8567 8568  1603 6084 8570  6084 8569 8570  4491 6084 8569  3124 8569 8570  3229 8381 8571  8381 8571 8572  4739 8571 8572  2260 8381 8572  1003 8573 8574  8132 8573 8574  3312 8132 8573  1012 8132 8574  1794 5474 8575  5474 8575 8576  4897 8575 8576  3697 5474 8576  3057 5328 8577  5328 8577 8578  4648 8577 8578  2844 5328 8578  2158 7890 8580  7890 8579 8580  3351 7890 8579  2154 8579 8580  2140 8581 8582  8182 8581 8582  3363 8182 8581  2442 8182 8582  1026 8583 8585  8583 8584 8585  3320 8583 8584  1032 8584 8585  870 8586 8588  8586 8587 8588  3447 8586 8587  872 8587 8588  3605 8589 8590  8136 8589 8590  4756 8136 8589  751 8136 8590  864 8591 8592  7037 8591 8592  3448 7037 8591  866 7037 8592  1740 7814 8594  7814 8593 8594  3386 7814 8593  1739 8593 8594  3630 8595 8596  5966 8595 8596  4186 5966 8595  1073 5966 8596  2132 8597 8598  8075 8597 8598  4021 8075 8597  1811 8075 8598  174 175 7552  174 5677 7552  736 5677 7552  173 174 5677  134 135 5680  134 5680 7630  737 5680 7630  133 134 7630  1789 8599 8601  8599 8600 8601  4677 8599 8600  3163 8600 8601  786 5565 8602  5565 8602 8603  4306 8602 8603  3193 5565 8603  3489 7766 8604  7766 8604 8605  4835 8604 8605  4704 7766 8605  2177 8606 8608  8606 8607 8608  3673 8606 8607  2941 8607 8608  3635 7909 8609  7909 8609 8610  4071 8609 8610  3414 7909 8610  1055 7887 8611  7887 8611 8612  4670 8611 8612  3020 7887 8612  751 8590 8613  6542 8590 8613  4531 6542 8613  3605 6542 8590  3215 7696 8614  7696 8614 8615  4089 8614 8615  2833 7696 8615  1047 7706 8617  7706 8616 8617  3285 7706 8616  1044 8616 8617  1514 8241 8619  8241 8618 8619  3836 8241 8618  2253 8618 8619  3096 5459 8620  5459 8620 8621  4580 8620 8621  728 5459 8621  2347 7915 8622  6813 7915 8622  3646 6813 7915  3407 6813 8622  1887 6118 8624  6118 8623 8624  4240 6118 8623  3542 8623 8624  2296 8625 8626  6483 8625 8626  3829 6483 8625  3261 6483 8626  3552 7740 8627  6783 7740 8627  4355 6783 7740  2483 6783 8627  1703 7732 8629  7732 8628 8629  3390 7732 8628  1487 8628 8629  4813 7869 8630  7869 8630 8631  4914 8630 8631  3717 7869 8631  999 8632 8634  8632 8633 8634  3310 8632 8633  1002 8633 8634  3313 7026 7304  7026 7304 8635  3933 7304 8635  1030 7026 8635  40 41 8636  40 8440 8636  3618 8440 8636  39 40 8440  1175 7825 8638  7825 8637 8638  3330 7825 8637  1143 8637 8638  1153 8639 8641  8639 8640 8641  3257 8639 8640  1159 8640 8641  1346 8302 8642  7954 8302 8642  3587 7954 8642  3337 7954 8302  3170 5095 8644  5095 8643 8644  4622 5095 8643  3169 8643 8644  3421 7601 8645  7601 8645 8646  4062 8645 8646  1107 7601 8646  2145 8647 8649  8647 8648 8649  3489 8647 8648  3055 8648 8649  969 8650 8651  7742 8650 8651  3298 7742 8650  971 7742 8651  3975 7735 8652  7735 8652 8653  4640 8652 8653  1776 7735 8653  3399 7835 8654  7835 8654 8655  3400 8654 8655  3398 7835 8655  3236 8386 8656  8030 8386 8656  3517 8030 8656  1843 8030 8386  876 6951 8658  6951 8657 8658  3112 6951 8657  877 8657 8658  822 8659 8661  8659 8660 8661  3676 8659 8660  1662 8660 8661  3459 8662 8663  8334 8662 8663  3461 8334 8662  3460 8334 8663  3546 6143 8664  6143 8664 8665  3547 8664 8665  3458 6143 8665  948 8666 8667  7724 8666 8667  3268 7724 8666  950 7724 8667  1922 8668 8669  6936 8668 8669  3415 6936 8668  2210 6936 8669  1766 8670 8671  7990 8670 8671  3366 7990 8670  1975 7990 8671  3181 7321 8672  7321 8672 8673  3182 8672 8673  1939 7321 8673  3332 7822 8674  7822 8674 8675  3333 8674 8675  3331 7822 8675  3762 7477 8676  5208 7477 8676  4078 5208 8676  3374 5208 7477  2181 6397 8678  6397 8677 8678  3686 6397 8677  1539 8677 8678  3331 8675 8680  8675 8679 8680  3333 8675 8679  2296 8679 8680  2769 8681 8682  8282 8681 8682  3604 8282 8681  2771 8282 8682  3070 6419 8683  5883 6419 8683  4350 5883 8683  906 5883 6419  2223 8684 8685  6995 8684 8685  3431 6995 8684  2115 6995 8685  3354 6545 7203  6545 7203 8686  4688 6545 8686  3184 7203 8686  3509 6971 7152  6971 7152 8687  3510 6971 8687  1116 7152 8687  231 8688 8689  7761 8688 8689  3668 7761 8688  748 7761 8689  4408 8690 8692  8690 8691 8692  4503 8690 8691  962 8691 8692  3308 7312 8693  7312 8693 8694  4480 8693 8694  3367 7312 8694  3122 7171 8695  7171 8188 8695  4019 7171 8188  2590 8188 8695  3258 8508 8696  7117 8508 8696  3355 7117 8696  925 7117 8508  3703 5063 8698  5063 8697 8698  4049 5063 8697  1121 8697 8698  2203 8699 8700  7537 8699 8700  3116 7537 8699  2492 7537 8700  1416 8701 8702  7011 8701 8702  3394 7011 8701  1413 7011 8702  3459 8663 8704  8663 8703 8704  3460 8663 8703  2508 8703 8704  1402 8705 8707  8705 8706 8707  4730 8705 8706  1399 8706 8707  2841 8516 8709  8516 8708 8709  3674 8516 8708  3673 8708 8709  2588 7931 8711  7931 8710 8711  4001 7931 8710  2587 8710 8711  1332 8712 8714  8712 8713 8714  3694 8712 8713  1558 8713 8714  1169 8715 8716  7124 8715 8716  3377 7124 8715  1163 7124 8716  2205 8717 8718  5252 8717 8718  3485 5252 8717  3315 5252 8718  2625 8719 8720  7253 8719 8720  3606 7253 8719  2627 7253 8720  3166 7802 8098  7802 8098 8721  3168 8098 8721  3167 7802 8721  4039 8722 8724  8722 8723 8724  4150 8722 8723  1502 8723 8724  1107 8725 8727  8725 8726 8727  3710 8725 8726  855 8726 8727  2023 8728 8729  8345 8728 8729  3264 8345 8728  2136 8345 8729  196 197 8402  196 8402 8730  3617 8402 8730  195 196 8730  682 7730 8731  7730 8731 8732  4411 8731 8732  4172 7730 8732  108 109 8733  108 8405 8733  3620 8405 8733  107 108 8405  200 201 8409  200 8409 8734  3619 8409 8734  199 200 8734  104 105 8735  104 8411 8735  3622 8411 8735  103 104 8411  204 205 8414  204 8414 8736  3621 8414 8736  203 204 8736  208 209 8417  208 8417 8737  3624 8417 8737  207 208 8737  1276 8738 8739  7937 8738 8739  3353 7937 8738  1329 7937 8739  212 213 8420  212 8420 8740  3625 8420 8740  211 212 8740  222 223 8423  222 8423 8741  3626 8423 8741  221 222 8741  2034 7774 8743  7774 8742 8743  3415 7774 8742  1837 8742 8743  2494 8744 8746  8744 8745 8746  4553 8744 8745  1324 8745 8746  3695 6523 8747  6523 8747 8748  4099 8747 8748  764 6523 8748  1331 8749 8751  8749 8750 8751  3712 8749 8750  837 8750 8751  4407 7971 8752  7971 8752 8753  4907 8752 8753  3207 7971 8753  228 229 8454  228 8454 8754  3631 8454 8754  227 228 8754  1439 5043 8755  5043 6895 8755  3519 6895 8755  3436 5043 6895  266 267 5778  266 5778 8756  3239 5778 8756  265 266 8756  78 79 8757  78 8470 8757  3641 8470 8757  77 78 8470  3445 5516 8759  5516 8758 8759  3446 5516 8758  2283 8758 8759  1595 8760 8762  8760 8761 8762  4386 8760 8761  3661 8761 8762  3615 8763 8764  8350 8763 8764  4555 8350 8763  3731 8350 8764  1181 8765 8766  7091 8765 8766  3375 7091 8765  1170 7091 8766  238 239 8505  238 8505 8767  3647 8505 8767  237 238 8767  1231 8768 8769  7313 8768 8769  3559 7313 8768  1234 7313 8769  2717 7369 8770  7369 8770 8771  4823 8770 8771  3607 7369 8771  918 8772 8774  8772 8773 8774  3707 8772 8773  875 8773 8774  3398 8655 8776  8655 8775 8776  3400 8655 8775  3397 8775 8776  1615 8777 8779  8777 8778 8779  3711 8777 8778  871 8778 8779  3269 6756 8145  6756 8145 8780  3271 6756 8780  3270 8145 8780  2797 7810 8781  7810 8781 8782  4410 8781 8782  3653 7810 8782  1650 8783 8784  7278 8783 8784  3702 7278 8783  1651 7278 8784  3115 7136 8785  7136 8271 8785  3999 7136 8271  1177 8271 8785  1137 8786 8787  6334 8786 8787  3329 6334 8786  1138 6334 8787  242 243 8556  242 8556 8788  3654 8556 8788  241 242 8788  1134 8789 8791  8789 8790 8791  4671 8789 8790  3156 8790 8791  1667 8792 8793  7793 8792 8793  3251 7793 8792  1532 7793 8793  4014 8794 8796  8794 8795 8796  4464 8794 8795  4436 8795 8796  3031 6372 8138  6372 8138 8797  4917 6372 8797  751 8138 8797  3287 8122 8252  8122 8252 8798  3289 8252 8798  3288 8122 8798  1806 8799 8800  5996 8799 8800  4090 5996 8799  3934 5996 8800  1477 7198 8802  7198 8801 8802  3340 7198 8801  3175 8801 8802  1735 8459 8804  8459 8803 8804  3630 8459 8803  1078 8803 8804  3864 8805 8807  8805 8806 8807  4687 8805 8806  3233 8806 8807  3058 7049 8808  7049 8230 8808  3777 7049 8230  2891 8230 8808  1504 8104 8810  8104 8809 8810  3404 8104 8809  1449 8809 8810  3433 8811 8813  8811 8812 8813  4279 8811 8812  678 8812 8813  4063 6193 8814  6193 8781 8814  4410 8781 8814  2797 6193 8781  2079 7262 8816  7262 8815 8816  3755 7262 8815  1893 8815 8816  2172 8148 8817  6878 8148 8817  4913 6878 8817  3479 6878 8148  2912 5890 8818  5659 5890 8818  4396 5659 5890  2911 5659 8818  2412 5315 8819  5315 8819 8820  4428 8819 8820  3893 5315 8820  1689 8821 8822  7591 8821 8822  3542 7591 8821  1715 7591 8822  3899 6907 8823  6907 8823 8824  4137 8823 8824  3271 6907 8824  4339 7177 8826  7177 8825 8826  4656 7177 8825  4194 8825 8826  3468 5176 8827  5176 6891 8827  3469 6891 8827  3155 5176 6891  3651 8828 8829  5755 8828 8829  4282 5755 8828  1403 5755 8829  2094 8830 8831  5538 8830 8831  3788 5538 8830  2093 5538 8831  2790 8832 8833  8431 8832 8833  3636 8431 8832  2792 8431 8833  1461 8534 8835  8534 8834 8835  3651 8534 8834  1408 8834 8835  3075 7487 7579  7487 7579 8836  4581 7487 8836  2471 7579 8836  2894 6247 8837  6247 8837 8838  4811 8837 8838  3748 6247 8838  3217 5153 7917  5153 7917 8839  4566 7917 8839  723 5153 8839  1620 8840 8842  8840 8841 8842  3478 8840 8841  1618 8841 8842  1103 8843 8844  5741 8843 8844  4742 5741 8843  3134 5741 8844  3747 8499 8845  6479 8499 8845  4534 6479 8499  3304 6479 8845  3545 6846 8846  6151 6846 8846  3546 6151 6846  1874 6151 8846  695 8847 8849  8847 8848 8849  4354 8847 8848  3412 8848 8849  1713 8850 8851  7538 8850 8851  3392 7538 8850  1777 7538 8851  3312 8131 8852  7305 8131 8852  3314 7305 8852  3313 7305 8131  2113 8853 8855  8853 8854 8855  3697 8853 8854  2465 8854 8855  1718 8856 8857  8846 8856 8857  3545 8846 8856  1874 8846 8857  2758 7480 8859  7480 8858 8859  3628 7480 8858  2757 8858 8859  3400 8775 8860  7346 8775 8860  3543 7346 8860  3397 7346 8775  3132 8861 8863  8861 8862 8863  4702 8861 8862  3102 8862 8863  834 8864 8865  8482 8864 8865  3648 8482 8864  836 8482 8865  1094 7300 8867  7300 8866 8867  3388 7300 8866  1091 8866 8867  3487 6492 8869  6492 8868 8869  3488 6492 8868  3087 8868 8869  1024 7640 8870  7640 8870 8871  4872 8870 8871  3311 7640 8871  1820 6400 8872  6400 8129 8872  4737 6400 8129  4490 8129 8872  2767 7483 8874  7483 8873 8874  3653 7483 8873  2766 8873 8874  3181 8672 8875  8672 8875 8876  3183 8875 8876  3182 8672 8876  3020 7392 8877  7392 8877 8878  4848 8877 8878  1971 7392 8878  830 8879 8880  8501 8879 8880  3652 8501 8879  832 8501 8880  3197 8467 8881  7273 8467 8881  3199 7273 8881  3198 7273 8467  2114 8882 8883  8853 8882 8883  3697 8853 8882  2113 8853 8883  2773 7465 8885  7465 8884 8885  3669 7465 8884  2772 8884 8885  3253 8480 8886  8480 8886 8887  4448 8886 8887  1055 8480 8887  3767 8888 8890  8888 8889 8890  4485 8888 8889  1949 8889 8890  2704 7423 8892  7423 8891 8892  3589 7423 8891  2702 8891 8892  3412 5940 8375  5940 8375 8435  3560 5940 8435  83 8375 8435  2954 8893 8894  6271 8893 8894  4814 6271 8893  3613 6271 8894  3446 5515 6573  5515 6573 8895  4168 5515 8895  3851 6573 8895  3343 7396 7691  5703 7396 7691  3345 5703 7691  3344 5703 7396  2238 8896 8898  8896 8897 8898  3813 8896 8897  2939 8897 8898  3320 7186 8584  7186 8220 8584  3573 7186 8220  1032 8220 8584  2819 8899 8901  8899 8900 8901  4494 8899 8900  2678 8900 8901  1875 8902 8903  8606 8902 8903  3673 8606 8902  2177 8606 8903  856 8904 8905  8565 8904 8905  3659 8565 8904  858 8565 8905  2181 6398 8906  6398 8906 8907  4818 8906 8907  3506 6398 8907  1571 8908 8909  7613 8908 8909  3180 7613 8908  1573 7613 8909  1527 6375 8910  6375 8910 8911  4902 8910 8911  3088 6375 8911  1046 8912 8913  7548 8912 8913  3555 7548 8912  1203 7548 8913  2908 8914 8915  8329 8914 8915  4045 8329 8914  1944 8329 8915  1190 8916 8918  8916 8917 8918  3515 8916 8917  1193 8917 8918  3082 7408 7864  7408 7864 8919  3251 7408 8919  2129 7864 8919  1337 7166 8921  7166 8920 8921  3588 7166 8920  1346 8920 8921  1373 5918 8923  5918 8922 8923  4223 5918 8922  1375 8922 8923  1539 8677 8925  8677 8924 8925  3686 8677 8924  1433 8924 8925  4330 7533 7926  7533 7926 8926  4412 7926 8926  3072 7533 8926  2385 6229 8927  6229 8292 8927  4750 6229 8292  2976 8292 8927  1303 5808 8928  5808 6593 8928  4653 5808 6593  3447 6593 8928  1644 7564 8930  7564 8929 8930  3578 7564 8929  1554 8929 8930  1657 8931 8932  7529 8931 8932  3611 7529 8931  1801 7529 8932  3604 8283 8933  8283 8933 8934  3605 8933 8934  2785 8283 8934  3319 8935 8937  8935 8936 8937  4462 8935 8936  4110 8936 8937  3347 7038 7357  7038 7357 8938  3958 7038 8938  1040 7357 8938  1587 8939 8941  8939 8940 8941  3516 8939 8940  1585 8940 8941  2930 8101 8943  8101 8942 8943  3782 8101 8942  2929 8942 8943  3301 5657 7187  5657 7187 8944  4294 5657 8944  3302 7187 8944  846 6807 8946  6807 8945 8946  848 6807 8945  847 8945 8946  844 8494 8948  8494 8947 8948  846 8494 8947  845 8947 8948  848 8949 8951  8949 8950 8951  850 8949 8950  849 8950 8951  850 8952 8954  8952 8953 8954  852 8952 8953  851 8953 8954  852 8955 8957  8955 8956 8957  854 8955 8956  853 8956 8957  842 8958 8960  8958 8959 8960  844 8958 8959  843 8959 8960  3018 8961 8963  8961 8962 8963  3241 8961 8962  3240 8962 8963  854 8964 8966  8964 8965 8966  856 8964 8965  855 8965 8966  840 8967 8969  8967 8968 8969  842 8967 8968  841 8968 8969  838 8970 8972  8970 8971 8972  840 8970 8971  839 8971 8972  3833 6522 8973  6522 8973 8974  4798 8973 8974  3695 6522 8974  836 8975 8977  8975 8976 8977  838 8975 8976  837 8976 8977  1263 8978 8979  7240 8978 8979  3343 7240 8978  1264 7240 8979  3012 8980 8982  8980 8981 8982  3014 8980 8981  3013 8981 8982  2650 5758 8984  5758 8983 8984  3162 5758 8983  2640 8983 8984  2187 8985 8986  8084 8985 8986  3427 8084 8985  2520 8084 8986  834 8865 8988  8865 8987 8988  836 8865 8987  835 8987 8988  2790 8833 8990  8833 8989 8990  2792 8833 8989  2791 8989 8990  793 6730 8991  6518 6730 8991  4879 6518 8991  169 6518 6730  3430 8028 8993  8028 8992 8993  4888 8028 8992  3431 8992 8993  2788 8994 8996  8994 8995 8996  2790 8994 8995  2789 8995 8996  2972 8997 8998  5259 8997 8998  3040 5259 8997  2971 5259 8998  2792 8999 9001  8999 9000 9001  3008 8999 9000  3007 9000 9001  832 9002 9004  9002 9003 9004  834 9002 9003  833 9003 9004  2955 7708 9005  7665 7708 9005  3590 7665 9005  3589 7665 7708  3746 7163 9007  7163 9006 9007  3754 7163 9006  738 9006 9007  3367 7948 9008  7948 8717 9008  3485 8717 9008  2205 7948 8717  3140 9009 9011  9009 9010 9011  4626 9009 9010  3139 9010 9011  2282 9012 9013  8759 9012 9013  3445 8759 9012  2283 8759 9013  3218 7503 9014  7503 9014 9015  4375 9014 9015  968 7503 9015  830 8880 9017  8880 9016 9017  832 8880 9016  831 9016 9017  2771 9018 9019  8885 9018 9019  2773 8885 9018  2772 8885 9019  3606 7370 7567  7370 7567 9020  3607 7370 9020  2663 7567 9020  3289 8798 9021  8798 9021 9022  3290 9021 9022  3288 8798 9022  820 9023 9024  8659 9023 9024  3676 8659 9023  822 8659 9024  2763 9025 9027  9025 9026 9027  2765 9025 9026  2764 9026 9027  856 8905 9029  8905 9028 9029  858 8905 9028  857 9028 9029  2765 9030 9031  8874 9030 9031  2767 8874 9030  2766 8874 9031  3010 9032 9034  9032 9033 9034  3012 9032 9033  3011 9033 9034  3016 9035 9037  9035 9036 9037  3018 9035 9036  3017 9036 9037  828 9038 9040  9038 9039 9040  830 9038 9039  829 9039 9040  3428 5302 8398  5302 8398 8540  3595 5302 8540  61 8398 8540  848 8945 8951  8945 8951 9041  849 8951 9041  847 8945 9041  846 8946 8947  8946 8947 9042  847 8946 9042  845 8947 9042  1486 9043 9045  9043 9044 9045  1487 9043 9044  1357 9044 9045  850 8950 8954  8950 8954 9046  851 8954 9046  849 8950 9046  852 8953 8957  8953 8957 9047  853 8957 9047  851 8953 9047  844 8948 8959  8948 8959 9048  845 8948 9048  843 8959 9048  854 8956 8966  8956 8966 9049  855 8966 9049  853 8956 9049  842 8960 8968  8960 8968 9050  843 8960 9050  841 8968 9050  856 8965 9029  8965 9029 9051  857 9029 9051  855 8965 9051  4022 9052 9054  9052 9053 9054  4916 9052 9053  3623 9053 9054  840 8969 8971  8969 8971 9055  841 8969 9055  839 8971 9055  2756 9056 9057  8859 9056 9057  2758 8859 9056  2757 8859 9057  3573 7185 7258  7185 7258 9058  3574 7185 9058  1920 7258 9058  2786 9059 9061  9059 9060 9061  2788 9059 9060  2787 9060 9061  2719 9062 9064  9062 9063 9064  3062 9062 9063  2718 9063 9064  838 8972 8976  8972 8976 9065  839 8972 9065  837 8976 9065  2006 8399 9067  8399 9066 9067  3318 8399 9066  2054 9066 9067  1722 9068 9070  9068 9069 9070  2006 9068 9069  1800 9069 9070  836 8977 8987  8977 8987 9071  837 8977 9071  835 8987 9071  826 9072 9074  9072 9073 9074  828 9072 9073  827 9073 9074  2756 9057 9076  9057 9075 9076  2757 9057 9075  2755 9075 9076  1717 9077 9079  9077 9078 9079  1989 9077 9078  1728 9078 9079  2765 9026 9031  9026 9031 9080  2766 9031 9080  2764 9026 9080  4084 9081 9083  9081 9082 9083  4276 9081 9082  3425 9082 9083  834 8988 9003  8988 9003 9084  835 8988 9084  833 9003 9084  2177 9085 9086  6096 9085 9086  2178 6096 9085  2125 6096 9086  858 9087 9089  9087 9088 9089  860 9087 9088  859 9088 9089  2763 9027 9091  9027 9090 9091  2764 9027 9090  2762 9090 9091  2769 8682 9093  8682 9092 9093  2771 8682 9092  2770 9092 9093  3174 9094 9095  6731 9094 9095  3176 6731 9094  3173 6731 9095  860 9096 9098  9096 9097 9098  862 9096 9097  861 9097 9098  2164 9099 9100  8704 9099 9100  3459 8704 9099  2508 8704 9100  862 9101 9103  9101 9102 9103  864 9101 9102  863 9102 9103  3498 9104 9105  9081 9104 9105  4276 9081 9104  4084 9081 9105  864 8592 9107  8592 9106 9107  866 8592 9106  865 9106 9107  2940 9108 9110  9108 9109 9110  2942 9108 9109  2178 9109 9110  832 9004 9016  9004 9016 9111  833 9004 9111  831 9016 9111  1954 9112 9114  9112 9113 9114  1955 9112 9113  1914 9113 9114  1991 9115 9117  9115 9116 9117  2424 9115 9116  2005 9116 9117  2210 9118 9120  9118 9119 9120  2211 9118 9119  2209 9119 9120  1954 9112 9121  5505 9112 9121  2085 5505 9121  1955 5505 9112  1356 9122 9124  9122 9123 9124  1357 9122 9123  1355 9123 9124  3601 7151 8164  7151 8164 9125  3602 8164 9125  3600 7151 9125  874 9126 9128  9126 9127 9128  876 9126 9127  875 9127 9128  872 9129 9131  9129 9130 9131  874 9129 9130  873 9130 9131  870 8588 9133  8588 9132 9133  872 8588 9132  871 9132 9133  3360 8389 9134  8389 9134 9135  3978 9134 9135  2763 8389 9135  824 9136 9138  9136 9137 9138  826 9136 9137  825 9137 9138  2141 9139 9141  9139 9140 9141  2143 9139 9140  2142 9140 9141  2220 9142 9143  6091 9142 9143  3117 6091 9142  3116 6091 9143  2761 8390 9144  8390 9091 9144  2763 8390 9091  2762 9091 9144  868 9145 9147  9145 9146 9147  870 9145 9146  869 9146 9147  1706 9148 9150  9148 9149 9150  3259 9148 9149  3258 9149 9150  2153 9151 9152  8580 9151 9152  2158 8580 9151  2154 8580 9152  866 6257 9154  6257 9153 9154  868 6257 9153  867 9153 9154  2171 5747 9155  5747 8239 9155  3237 5747 8239  3236 8239 9155  830 9017 9039  9017 9039 9156  831 9017 9156  829 9039 9156  2771 9019 9092  9019 9092 9157  2772 9019 9157  2770 9092 9157  2041 9158 9160  9158 9159 9160  3569 9158 9159  2238 9159 9160  2872 9161 9162  6344 9161 9162  2874 6344 9161  2160 6344 9162  1044 8616 9164  8616 9163 9164  3285 8616 9163  1046 9163 9164  1502 9165 9167  9165 9166 9167  1722 9165 9166  1539 9166 9167  3547 8665 9168  8665 9168 9169  3549 9168 9169  3458 8665 9169  4320 9170 9172  9170 9171 9172  4353 9170 9171  51 9171 9172  1654 9173 9175  9173 9174 9175  1655 9173 9174  1653 9174 9175  2970 9176 9177  8998 9176 9177  2972 8998 9176  2971 8998 9177  858 9028 9089  9028 9089 9178  859 9089 9178  857 9028 9178  2109 9179 9181  9179 9180 9181  2474 9179 9180  2197 9180 9181  807 9182 9183  7547 9182 9183  809 7547 9182  805 7547 9183  1476 9184 9185  8033 9184 9185  1758 8033 9184  1663 8033 9185  4556 7752 9187  7752 9186 9187  4639 7752 9186  3576 9186 9187  3124 8570 9188  8570 9188 9189  4559 9188 9189  1603 8570 9189  2792 8989 9001  7745 8989 9001  3007 7745 9001  2791 7745 8989  1006 9190 9192  9190 9191 9192  3538 9190 9191  1794 9191 9192  3259 6779 9149  6779 9149 9193  3260 6779 9193  3258 9149 9193  2753 9194 9195  9076 9194 9195  2756 9076 9194  2755 9076 9195  847 9196 9197  7688 9196 9197  3684 7688 9196  3492 7688 9197  2790 8990 8995  8990 8995 9198  2791 8990 9198  2789 8995 9198  1042 9199 9201  9199 9200 9201  1044 9199 9200  1043 9200 9201  1650 8784 9203  8784 9202 9203  1651 8784 9202  1583 9202 9203  1592 9204 9206  9204 9205 9206  1717 9204 9205  1593 9205 9206  947 9207 9209  9207 9208 9209  952 9207 9208  948 9208 9209  864 9102 9107  9102 9107 9210  865 9107 9210  863 9102 9210  2788 8996 9060  8996 9060 9211  2789 8996 9211  2787 9060 9211  3289 9021 9212  9021 9212 9213  3291 9212 9213  3290 9021 9213  2716 9214 9215  8187 9214 9215  2718 8187 9214  2696 8187 9215  2250 9216 9218  9216 9217 9218  3027 9216 9217  3026 9217 9218  945 9219 9221  9219 9220 9221  947 9219 9220  946 9220 9221  841 9222 9224  9222 9223 9224  3683 9222 9223  3502 9223 9224  1302 9225 9226  8712 9225 9226  3694 8712 9225  1332 8712 9226  862 9097 9103  9097 9103 9227  863 9103 9227  861 9097 9227  943 6914 9229  6914 9228 9229  945 6914 9228  944 9228 9229  1371 9230 9232  9230 9231 9232  1373 9230 9231  1372 9231 9232  2171 9155 9233  8385 9155 9233  3236 8385 9155  1840 8385 9233  860 9088 9098  4959 9088 9098  861 4959 9098  859 4959 9088  1216 9234 9236  9234 9235 9236  1220 9234 9235  1217 9235 9236  881 8393 9238  8393 9237 9238  3200 8393 9237  1540 9237 9238  1477 9239 9240  9095 9239 9240  3174 9095 9239  3173 9095 9240  1332 9241 9243  9241 9242 9243  1333 9241 9242  1319 9242 9243  1214 9244 9246  9244 9245 9246  1216 9244 9245  1215 9245 9246  1444 9247 9249  9247 9248 9249  1689 9247 9248  1461 9248 9249  828 9040 9073  9040 9073 9250  829 9040 9250  827 9073 9250  2641 9251 9252  8984 9251 9252  2650 8984 9251  2640 8984 9252  1301 9253 9255  9253 9254 9255  1302 9253 9254  1300 9254 9255  1565 9256 9258  9256 9257 9258  1567 9256 9257  1566 9257 9258  1290 6759 9260  6759 9259 9260  1291 6759 9259  1262 9259 9260  952 9208 9261  8666 9208 9261  3268 8666 9261  948 8666 9208  890 8395 9263  8395 9262 9263  3213 8395 9262  1759 9262 9263  1718 9264 9266  9264 9265 9266  1719 9264 9265  1655 9265 9266  1105 9267 9269  9267 9268 9269  1991 9267 9268  1823 9268 9269  1836 9270 9272  9270 9271 9272  1837 9270 9271  1835 9271 9272  2702 9273 9275  9273 9274 9275  2793 9273 9274  2701 9274 9275  866 9106 9154  9106 9154 9276  867 9154 9276  865 9106 9276  855 8726 9049  8726 9049 9277  3710 8726 9277  853 9049 9277  1294 9278 9280  9278 9279 9280  1295 9278 9279  1293 9279 9280  2133 9281 9283  9281 9282 9283  2921 9281 9282  2170 9282 9283  1212 9284 9286  9284 9285 9286  1214 9284 9285  1213 9285 9286  2513 9287 9289  9287 9288 9289  3558 9287 9288  3557 9288 9289  1088 8362 9291  8362 9290 9291  2423 8362 9290  1678 9290 9291  941 9292 9294  9292 9293 9294  943 9292 9293  942 9293 9294  1477 9240 9295  8436 9240 9295  3173 8436 9240  1150 8436 9295  2373 9296 9297  5125 9296 9297  3666 5125 9296  3665 5125 9297  1424 7901 9298  7047 7901 9298  3506 7047 7901  3505 7047 9298  1738 9299 9300  8594 9299 9300  1740 8594 9299  1739 8594 9300  1773 5573 9301  5573 7345 9301  3354 5573 7345  3180 7345 9301  1080 7401 9303  7401 9302 9303  2141 7401 9302  1735 9302 9303  826 9074 9137  9074 9137 9304  827 9074 9304  825 9137 9304  868 9147 9153  9147 9153 9305  869 9147 9305  867 9153 9305  837 8750 9071  8750 9071 9306  3712 8750 9306  835 9071 9306  3086 6346 9308  6346 9307 9308  3729 6346 9307  2126 9307 9308  870 9133 9146  9133 9146 9309  871 9133 9309  869 9146 9309  2779 8438 9311  8438 9310 9311  3219 8438 9310  2901 9310 9311  872 9131 9132  9131 9132 9312  873 9131 9312  871 9132 9312  2721 6625 9314  6625 9313 9314  2796 6625 9313  2720 9313 9314  874 9128 9130  9128 9130 9315  875 9128 9315  873 9130 9315  876 8658 9127  8658 9127 9316  877 8658 9316  875 9127 9316  3525 7620 9318  7620 9317 9318  3528 7620 9317  3524 9317 9318  945 9221 9228  9221 9228 9319  946 9221 9319  944 9228 9319  3012 8982 9033  8982 9033 9320  3013 8982 9320  3011 9033 9320  947 9209 9220  9209 9220 9321  948 9209 9321  946 9220 9321  1563 8296 9323  8296 9322 9323  1565 8296 9322  1564 9322 9323  1040 9324 9326  9324 9325 9326  1042 9324 9325  1041 9325 9326  943 9229 9293  9229 9293 9327  944 9229 9327  942 9293 9327  2710 9328 9329  9314 9328 9329  2721 9314 9328  2720 9314 9329  2641 9251 9330  9251 9330 9331  2651 9330 9331  2650 9251 9331  975 9332 9334  9332 9333 9334  3299 9332 9333  3298 9333 9334  822 9335 9337  9335 9336 9337  824 9335 9336  823 9336 9337  1056 8429 9339  8429 9338 9339  3254 8429 9338  3253 9338 9339  975 9334 9340  8650 9334 9340  3298 8650 9334  969 8650 9340  1754 9341 9342  8250 9341 9342  3319 8250 9341  3287 8250 9342  1216 9236 9245  9236 9245 9343  1217 9236 9343  1215 9245 9343  2725 9344 9346  9344 9345 9346  2777 9344 9345  2776 9345 9346  2145 8649 9348  8649 9347 9348  3055 8649 9347  2467 9347 9348  1850 7064 9350  7064 9349 9350  2133 7064 9349  2126 9349 9350  1380 8442 9351  6423 8442 9351  3224 6423 8442  1382 6423 9351  1388 7820 9353  7820 9352 9353  1476 7820 9352  1426 9352 9353  1214 9246 9285  5601 9246 9285  1215 5601 9246  1213 5601 9285  1044 9164 9200  9164 9200 9354  1046 9164 9354  1043 9200 9354  2872 9161 9355  9161 9355 9356  3124 9355 9356  2874 9161 9356  915 8444 9358  8444 9357 9358  3226 8444 9357  917 9357 9358  2050 9359 9360  5512 9359 9360  3144 5512 9359  3143 5512 9360  1332 9241 9361  6920 9241 9361  1501 6920 9361  1333 6920 9241  2719 9062 9362  9062 9362 9363  3063 9362 9363  3062 9062 9363  2823 9364 9366  9364 9365 9366  2825 9364 9365  2824 9365 9366  1369 9367 9369  9367 9368 9369  1371 9367 9368  1370 9368 9369  2038 9370 9371  9318 9370 9371  3525 9318 9370  3524 9318 9371  2700 9372 9373  9275 9372 9373  2702 9275 9372  2701 9275 9373  1373 8923 9231  8923 9231 9374  1375 8923 9374  1372 9231 9374  3648 8483 9375  8483 9375 9376  3649 9375 9376  1289 8483 9376  1896 9377 9378  7239 9377 9378  3114 7239 9377  2127 7239 9378  2685 9379 9381  9379 9380 9381  2691 9379 9380  2690 9380 9381  2830 9382 9383  5389 9382 9383  3280 5389 9382  3279 5389 9383  1042 9201 9325  9201 9325 9384  1043 9201 9384  1041 9325 9384  926 8451 9385  8107 8451 9385  3227 8107 8451  1480 8107 9385  2145 9348 9386  5882 9348 9386  2467 5882 9348  2144 5882 9386  3534 5775 9388  5775 9387 9388  4203 5775 9387  3544 9387 9388  1552 9389 9391  9389 9390 9391  1553 9389 9390  1551 9390 9391  3796 9392 9394  9392 9393 9394  3913 9392 9393  3803 9393 9394  1491 8166 9395  8166 8491 9395  3196 8166 8491  953 8491 9395  3213 9262 9396  9262 9396 9397  3214 9396 9397  1759 9262 9397  3432 6903 9398  6903 9398 9399  3433 9398 9399  2244 6903 9399  1493 9400 9401  9386 9400 9401  2145 9386 9400  2144 9386 9401  1550 9402 9404  9402 9403 9404  1551 9402 9403  1549 9403 9404  1394 9405 9406  5776 9405 9406  3535 5776 9405  3534 5776 9406  1554 9407 9409  9407 9408 9409  1657 9407 9408  1553 9408 9409  2190 9410 9411  6963 9410 9411  3019 6963 9410  2243 6963 9411  2671 8517 9412  8058 8517 9412  3164 8058 8517  2698 8058 9412  1706 9150 9413  8507 9150 9413  3258 8507 9150  921 8507 9413  1486 9043 9414  8629 9043 9414  1703 8629 9414  1487 8629 9043  1371 9232 9368  9232 9368 9415  1372 9232 9415  1370 9368 9415  2177 9085 9416  9085 9110 9416  2940 9110 9416  2178 9085 9110  2716 6284 9214  6284 9064 9214  2719 6284 9064  2718 9064 9214  934 8461 9417  8297 8461 9417  3368 8297 8461  936 8297 9417  1356 9122 9418  9045 9122 9418  1486 9045 9418  1357 9045 9122  2681 9419 9420  7769 9419 9420  2683 7769 9419  2682 7769 9420  1545 9421 9423  9421 9422 9423  1691 9421 9422  1544 9422 9423  824 9138 9336  9138 9336 9424  825 9138 9424  823 9336 9424  3233 9425 9426  6819 9425 9426  3234 6819 9425  3232 6819 9426  1543 9427 9428  7560 9427 9428  1544 7560 9427  1542 7560 9428  2664 9429 9430  6576 9429 9430  2669 6576 9429  2668 6576 9430  1552 9389 9431  9389 9409 9431  1554 9409 9431  1553 9389 9409  1550 5311 9402  5311 9391 9402  1552 5311 9391  1551 9391 9402  3018 8963 9036  5944 8963 9036  3240 5944 8963  3017 5944 9036  1934 9432 9433  7695 9432 9433  3215 7695 9432  1973 7695 9433  1476 9185 9352  9185 9352 9434  1663 9185 9434  1426 9352 9434  4188 5742 9436  5742 9435 9436  4742 5742 9435  1110 9435 9436  3201 7226 9438  7226 9437 9438  3202 7226 9437  1902 9437 9438  741 8408 9439  8408 9439 9440  3753 9439 9440  3619 8408 9440  2050 9360 9441  8487 9360 9441  3143 8487 9360  1865 8487 9441  968 9442 9443  9340 9442 9443  975 9340 9442  969 9340 9443  3622 8412 9444  8412 9444 9445  3623 9444 9445  710 8412 9445  875 8773 9315  8773 9315 9446  3707 8773 9446  873 9315 9446  871 8778 9309  8778 9309 9447  3711 8778 9447  869 9309 9447  1766 8671 9449  8671 9448 9449  1975 8671 9448  1701 9448 9449  3066 9450 9452  9450 9451 9452  3794 9450 9451  3067 9451 9452  1535 9453 9455  9453 9454 9455  1701 9453 9454  1534 9454 9455  1492 9456 9457  8523 9456 9457  3218 8523 9456  963 8523 9457  3649 9376 9458  7617 9376 9458  3650 7617 9458  1289 7617 9376  941 9294 9460  9294 9459 9460  942 9294 9459  940 9459 9460  1228 9461 9462  8525 9461 9462  3277 8525 9461  1224 8525 9462  1658 9463 9465  9463 9464 9465  1897 9463 9464  1659 9464 9465  1511 9466 9467  9404 9466 9467  1550 9404 9466  1549 9404 9467  2266 9468 9470  9468 9469 9470  3780 9468 9469  3296 9469 9470  1212 9286 9471  7289 9286 9471  1213 7289 9286  1211 7289 9471  717 6944 9473  6944 9472 9473  3812 6944 9472  115 9472 9473  2159 9474 9475  9162 9474 9475  2872 9162 9474  2160 9162 9475  1748 9476 9477  8536 9476 9477  3195 8536 9476  1744 8536 9477  139 5764 6745  5764 6745 9478  4851 5764 9478  792 6745 9478  820 9024 9480  9024 9479 9480  822 9024 9479  821 9479 9480  2029 9481 9483  9481 9482 9483  2426 9481 9482  2239 9482 9483  2296 8626 9484  8527 8626 9484  3261 8527 8626  2123 8527 9484  1754 9342 9485  8538 9342 9485  3287 8538 9342  1749 8538 9485  804 9486 9487  8195 9486 9487  805 8195 9486  803 8195 9487  1738 9300 9489  9300 9488 9489  1739 9300 9488  1737 9488 9489  1493 9401 9491  9401 9490 9491  2144 9401 9490  1237 9490 9491  3319 8251 8937  8251 8937 9492  4110 8937 9492  3289 8251 9492  1875 8903 9493  8903 9086 9493  2177 8903 9086  2125 9086 9493  2228 9494 9496  9494 9495 9496  3216 9494 9495  3215 9495 9496  1941 9497 9498  8519 9497 9498  3232 8519 9497  1828 8519 9498  3133 9499 9500  8553 9499 9500  3230 8553 9499  992 8553 9500  1269 9501 9503  9501 9502 9503  1542 9501 9502  1257 9502 9503  2029 9483 9505  9483 9504 9505  2239 9483 9504  2018 9504 9505  1561 9506 9508  9506 9507 9508  1658 9506 9507  1562 9507 9508  1788 8541 9509  8541 9438 9509  3201 8541 9438  1902 9438 9509  1511 9467 9510  8258 9467 9510  1549 8258 9467  1243 8258 9510  968 9443 9512  9443 9511 9512  969 9443 9511  967 9511 9512  1533 9513 9515  9513 9514 9515  1534 9513 9514  1311 9514 9515  1790 9516 9517  8114 9516 9517  3557 8114 9516  1575 8114 9517  3939 9518 9520  9518 9519 9520  4624 9518 9519  2569 9519 9520  2479 9521 9523  9521 9522 9523  3639 9521 9522  3638 9522 9523  1008 8511 9525  8511 9524 9525  3311 8511 9524  3310 9524 9525  2141 9141 9302  9141 9302 9526  2142 9141 9526  1735 9302 9526  2402 7994 9527  7994 8529 9527  3305 7994 8529  2033 8529 9527  748 8453 9528  8453 9528 9529  3632 9528 9529  3631 8453 9529  2205 8718 9530  8495 8718 9530  3315 8495 8718  2071 8495 9530  822 9337 9479  9337 9479 9531  823 9337 9531  821 9479 9531  1013 9532 9533  8573 9532 9533  3312 8573 9532  1003 8573 9533  1543 9427 9534  9423 9427 9534  1545 9423 9534  1544 9423 9427  2970 9177 9536  9177 9535 9536  2971 9177 9535  2736 9535 9536  1771 7248 9537  7248 9537 9538  4073 9537 9538  3943 7248 9538  2115 6996 9540  6996 9539 9540  2244 6996 9539  2000 9539 9540  3435 8450 9541  8450 8636 9541  3618 8636 9541  41 8450 8636  3799 6764 9542  5160 6764 9542  3853 5160 9542  2914 5160 6764  1819 9543 9545  9543 9544 9545  2000 9543 9544  1772 9544 9545  1269 6473 9501  6473 9428 9501  1543 6473 9428  1542 9428 9501  2423 6873 9290  5852 6873 9290  2428 5852 6873  1678 5852 9290  2462 9546 9548  9546 9547 9548  2947 9546 9547  2489 9547 9548  3412 5939 8848  5939 8848 9549  4354 8848 9549  4178 5939 9549  2958 7554 9551  7554 9550 9551  4390 7554 9550  4235 9550 9551  1689 8822 9248  8822 9248 9552  1715 8822 9552  1461 9248 9552  1941 9497 9553  9426 9497 9553  3233 9426 9553  3232 9426 9497  2783 9554 9556  9554 9555 9556  4494 9554 9555  4289 9555 9556  2761 9144 9557  7481 9144 9557  2762 7481 9144  2758 7481 9557  1925 9558 9560  9558 9559 9560  2282 9558 9559  1926 9559 9560  1654 9173 9561  9173 9266 9561  1718 9266 9561  1655 9173 9266  2170 9562 9563  8869 9562 9563  3487 8869 9562  3087 8869 9563  2483 6785 9565  6785 9564 9565  3877 6785 9564  2325 9564 9565  2753 9195 9567  9195 9566 9567  2755 9195 9566  2751 9566 9567  1292 9568 9570  9568 9569 9570  3570 9568 9569  3563 9569 9570  1542 7559 9572  7559 9571 9572  3577 7559 9571  3341 9571 9572  1030 9573 9574  8583 9573 9574  3320 8583 9573  1026 8583 9574  2424 9116 9575  9116 9575 9576  2425 9575 9576  2005 9116 9576  1989 7986 9078  7986 9078 9577  1999 7986 9577  1728 9078 9577  3376 9578 9579  7974 9578 9579  3380 7974 9578  3379 7974 9579  3508 9580 9581  5896 9580 9581  4478 5896 9580  2937 5896 9581  1447 7750 9582  6802 7750 9582  3396 6802 7750  3395 6802 9582  2813 9583 9584  6489 9583 9584  4909 6489 9583  3645 6489 9584  2769 9093 9585  7484 9093 9585  2770 7484 9093  2767 7484 9585  3577 9586 9587  5074 9586 9587  4215 5074 9586  3342 5074 9587  3165 6670 9589  6670 9588 9589  3172 6670 9588  3171 9588 9589  1845 6701 9590  6701 9114 9590  1954 6701 9114  1914 9114 9590  1718 8857 9264  7277 8857 9264  1874 7277 8857  1719 7277 9264  1679 6956 9592  6956 9591 9592  1925 6956 9591  1680 9591 9592  1991 9117 9268  9117 9268 9593  2005 9117 9593  1823 9268 9593  1717 9079 9205  9079 9205 9594  1728 9079 9594  1593 9205 9594  2786 9061 9595  7466 9061 9595  2787 7466 9061  2773 7466 9595  1548 9596 9597  8328 9596 9597  1772 8328 9596  1537 8328 9597  1875 9493 9598  7733 9493 9598  2125 7733 9493  1703 7733 9598  3066 9452 9600  9452 9599 9600  3067 9452 9599  3063 9599 9600  3351 5524 9602  5524 9601 9602  3352 5524 9601  2156 9601 9602  2664 9430 9604  9430 9603 9604  2668 9430 9603  2651 9603 9604  2671 9412 9605  8564 9412 9605  2698 8564 9412  2669 8564 9605  2153 9152 9607  9152 9606 9607  2154 9152 9606  2152 9606 9607  1188 7410 9608  7410 9260 9608  1290 7410 9260  1262 9260 9608  2685 9381 9610  9381 9609 9610  2690 9381 9609  2683 9609 9610  3010 9034 9612  9034 9611 9612  3011 9034 9611  3008 9611 9612  2226 9613 9615  9613 9614 9615  2512 9613 9614  2111 9614 9615  1807 9616 9617  9233 9616 9617  2171 9233 9616  1840 9233 9617  2693 9618 9620  9618 9619 9620  2715 9618 9619  2691 9619 9620  3622 9444 9621  7827 9444 9621  4020 7827 9621  3623 7827 9444  2715 9622 9624  9622 9623 9624  3474 9622 9623  3473 9623 9624  2681 9420 9625  7426 9420 9625  2682 7426 9420  2675 7426 9625  1291 5975 9626  5975 9280 9626  1294 5975 9280  1293 9280 9626  2159 9475 9628  9475 9627 9628  2160 9475 9627  1878 9627 9628  3199 5456 5790  5456 5790 9629  4288 5790 9629  1972 5456 9629  1917 9630 9632  9630 9631 9632  4525 9630 9631  4286 9631 9632  1715 7593 9633  7593 9607 9633  2153 7593 9607  2152 9607 9633  820 9480 9634  5642 9480 9634  821 5642 9480  819 5642 9634  2154 8579 9635  8579 9602 9635  3351 8579 9602  2156 9602 9635  1148 7199 9636  7199 9295 9636  1477 7199 9295  1150 9295 9636  1999 7144 9638  7144 9637 9638  2220 7144 9637  2203 9637 9638  3379 7040 7973  5864 7040 7973  3672 5864 7973  3381 5864 7040  2006 9067 9069  9067 9069 9639  2054 9067 9639  1800 9069 9639  1528 9640 9642  9640 9641 9642  3572 9640 9641  1626 9641 9642  919 9643 9644  9413 9643 9644  1706 9413 9643  921 9413 9644  2220 9143 9637  8699 9143 9637  3116 8699 9143  2203 8699 9637  1295 9645 9646  9255 9645 9646  1301 9255 9645  1300 9255 9646  2700 9373 9647  6704 9373 9647  2701 6704 9373  2695 6704 9647  2623 9648 9650  9648 9649 9650  2717 9648 9649  2625 9649 9650  2710 9329 9651  7424 9329 9651  2720 7424 9329  2704 7424 9651  1302 9226 9652  9226 9243 9652  1332 9226 9243  1319 9243 9652  1722 9070 9166  9070 9166 9653  1800 9070 9653  1539 9166 9653  4297 9654 9656  9654 9655 9656  4556 9654 9655  2054 9655 9656  1945 9657 9659  9657 9658 9659  3612 9657 9658  1943 9658 9659  3531 5625 9661  5625 9660 9661  3532 5625 9660  3527 9660 9661  2627 7255 9662  7255 9252 9662  2641 7255 9252  2640 9252 9662  3524 9663 9664  7764 9663 9664  3533 7764 9663  1460 7764 9664  1739 8593 9665  8456 8593 9665  3386 8456 8593  1742 8456 9665  1803 9666 9668  9666 9667 9668  2130 9666 9667  2129 9667 9668  818 9669 9670  9634 9669 9670  820 9634 9669  819 9634 9670  1203 7550 9671  7550 9471 9671  1212 7550 9471  1211 9471 9671  3453 5290 9673  5290 9672 9673  3454 5290 9672  3450 9672 9673  2247 9674 9675  6597 9674 9675  3362 6597 9674  2459 6597 9675  1870 9676 9677  7223 9676 9677  2111 7223 9676  1846 7223 9677  3207 9678 9680  9678 9679 9680  3208 9678 9679  2233 9679 9680  1798 6649 9681  5952 6649 9681  2040 5952 6649  1817 5952 9681  1335 9682 9683  9124 9682 9683  1356 9124 9682  1355 9124 9683  1535 9453 9684  9449 9453 9684  1766 9449 9684  1701 9449 9453  1487 8628 9685  8485 8628 9685  3390 8485 8628  1489 8485 9685  933 6138 9686  6138 9460 9686  941 6138 9460  940 9460 9686  1836 9270 9687  8743 9270 9687  2034 8743 9687  1837 8743 9270  3171 5426 9688  5426 9688 9689  4792 9688 9689  1600 5426 9689  2406 9690 9692  9690 9691 9692  4381 9690 9691  2926 9691 9692  1727 9693 9694  9489 9693 9694  1738 9489 9693  1737 9489 9694  3016 9037 9696  9037 9695 9696  3017 9037 9695  3014 9695 9696  950 7726 9697  7726 9395 9697  1491 7726 9395  953 9395 9697  1040 9326 9699  9326 9698 9699  1041 9326 9698  1038 9698 9699  1896 9378 9700  7815 9378 9700  2127 7815 9378  1740 7815 9700  881 9238 9701  6467 9238 9701  1540 6467 9238  879 6467 9701  2725 9346 9703  9346 9702 9703  2776 9346 9702  2723 9702 9703  1113 9704 9706  9704 9705 9706  1125 9704 9705  1112 9705 9706  1742 8457 9707  8457 9477 9707  1748 8457 9477  1744 9477 9707  2779 9311 9709  9311 9708 9709  2901 9311 9708  2777 9708 9709  1533 9513 9710  9455 9513 9710  1535 9455 9710  1534 9455 9513  2014 9711 9712  9484 9711 9712  2296 9484 9711  2123 9484 9712  1863 6723 9713  6723 9441 9713  2050 6723 9441  1865 9441 9713  1369 9369 9715  9369 9714 9715  1370 9369 9714  1366 9714 9715  1222 9716 9717  9462 9716 9717  1228 9462 9716  1224 9462 9717  2648 6965 9718  6965 9215 9718  2716 6965 9215  2696 9215 9718  3774 9719 9720  7231 9719 9720  4056 7231 9719  3060 7231 9720  1746 7463 9721  7463 9485 9721  1754 7463 9485  1749 9485 9721  1859 9722 9724  9722 9723 9724  2233 9722 9723  1861 9723 9724  1881 8490 9726  8490 9725 9726  2128 8490 9725  1758 9725 9726  1489 8486 9727  8486 9203 9727  1650 8486 9203  1583 9203 9727  3195 7462 9728  7462 9728 9729  4592 9728 9729  1754 7462 9729  1049 9730 9731  7707 9730 9731  1971 7707 9730  1047 7707 9731  1651 7280 9732  7280 9175 9732  1654 7280 9175  1653 9175 9732  1143 8637 9733  8017 8637 9733  3330 8017 8637  3329 8017 9733  890 9263 9735  9263 9734 9735  1759 9263 9734  888 9734 9735  1229 6934 9737  6934 9736 9737  1236 6934 9736  1231 9736 9737  2148 9738 9740  9738 9739 9740  2918 9738 9739  2147 9739 9740  885 7632 9741  7439 7632 9741  886 7439 7632  883 7439 9741  955 7452 9743  7452 9742 9743  960 7452 9742  957 9742 9743  1380 9351 9745  9351 9744 9745  1382 9351 9744  1378 9744 9745  1388 9353 9747  9353 9746 9747  1426 9353 9746  1386 9746 9747  1053 8481 9749  8481 9748 9749  1055 8481 9748  1051 9748 9749  1056 9339 9750  8479 9339 9750  3253 8479 9339  1053 8479 9750  3183 8876 9751  8876 9751 9752  3255 9751 9752  3182 8876 9752  1451 5174 9754  5174 9753 9754  1916 5174 9753  1427 9753 9754  1061 7646 9755  7469 7646 9755  1063 7469 7646  1058 7469 9755  1066 9756 9758  9756 9757 9758  1527 9756 9757  1064 9757 9758  3305 5042 8120  5042 8120 9759  3677 5042 9759  3306 8120 9759  2090 7713 9760  7713 8489 9760  3269 7713 8489  1881 8489 9760  1234 7315 9761  7315 9491 9761  1493 7315 9491  1237 9491 9761  2266 9470 9762  8473 9470 9762  3296 8473 9470  2067 8473 9762  1113 9704 9763  9704 9763 9764  1136 9763 9764  1125 9704 9764  895 7656 9765  7454 7656 9765  896 7454 7656  893 7454 9765  3727 8323 9766  7028 8323 9766  4616 7028 9766  3634 7028 8323  3124 9767 9769  9767 9768 9769  4604 9767 9768  983 9768 9769  2823 9366 9770  7489 9366 9770  2824 7489 9366  2781 7489 9770  2067 8475 9771  7497 8475 9771  2281 7497 8475  1877 7497 9771  2440 9772 9774  9772 9773 9774  4354 9772 9773  3361 9773 9774  1256 9775 9777  9775 9776 9777  3614 9775 9776  1633 9776 9777  1788 9509 9778  7565 9509 9778  1902 7565 9509  1644 7565 9778  2305 9779 9780  7775 9779 9780  2477 7775 9779  2034 7775 9780  1777 7540 9782  7540 9781 9782  2109 7540 9781  1838 9781 9782  900 9783 9785  9783 9784 9785  1478 9783 9784  898 9784 9785  1474 8206 9787  8206 9786 9787  1556 8206 9786  1457 9786 9787  1567 9788 9789  7375 9788 9789  3729 7375 9788  1568 7375 9789  959 6647 9790  6647 9457 9790  1492 6647 9457  963 9457 9790  2739 5289 9791  5289 5807 9791  4653 5807 9791  3454 5289 5807  2167 9792 9793  7362 9792 9793  3263 7362 9792  2168 7362 9793  2827 8546 9795  8546 9794 9795  2828 8546 9794  2825 9794 9795  2406 9692 9797  9692 9796 9797  2926 9692 9796  2200 9796 9797  905 7672 9799  7672 9798 9799  906 7672 9798  902 9798 9799  1711 8157 9801  8157 9800 9801  1987 8157 9800  1713 9800 9801  965 7504 9802  7504 9512 9802  968 7504 9512  967 9512 9802  2749 7094 9804  7094 9803 9804  3539 7094 9803  2745 9803 9804  3409 9805 9807  9805 9806 9807  3411 9805 9806  3410 9806 9807  1568 7376 9809  7376 9808 9809  1773 7376 9808  1571 9808 9809  2998 8246 9810  7891 8246 9810  3096 7891 8246  2158 7891 9810  1801 7531 9811  7531 9505 9811  2029 7531 9505  2018 9505 9811  3803 9393 9813  9393 9812 9813  3913 9393 9812  1671 9812 9813  886 5349 7649  5349 7649 9814  4128 5349 9814  3787 7649 9814  3623 9053 9445  9053 9445 9815  4916 9053 9815  710 9445 9815  2782 6684 9817  6684 9816 9817  4790 6684 9816  3617 9816 9817  1241 7381 9818  7381 9510 9818  1511 7381 9510  1243 9510 9818  2305 9779 9819  9779 9819 9820  2982 9819 9820  2477 9779 9820  2830 9383 9821  8545 9383 9821  3279 8545 9383  2827 8545 9821  910 7341 9823  7341 9822 9823  1479 7341 9822  908 9822 9823  971 7743 9824  7674 7743 9824  1484 7674 7743  976 7674 9824  1080 9303 9825  8804 9303 9825  1735 8804 9303  1078 8804 9825  1573 7614 9827  7614 9826 9827  1939 7614 9826  1682 9826 9827  2585 9828 9830  9828 9829 9830  3693 9828 9829  2586 9829 9830  915 9358 9832  9358 9831 9832  917 9358 9831  912 9831 9832  3182 9752 9834  9752 9833 9834  3255 9752 9833  3187 9833 9834  1088 9291 9836  9291 9835 9836  1678 9291 9835  1086 9835 9836  1856 9837 9838  8670 9837 9838  3366 8670 9837  1766 8670 9838  1444 9249 9839  8835 9249 9839  1461 8835 9249  1408 8835 9839  4110 7355 8936  7355 8936 9840  4462 8936 9840  2413 7355 9840  1721 9841 9842  9272 9841 9842  1836 9272 9841  1835 9272 9842  926 9385 9843  7526 9385 9843  1480 7526 9385  922 7526 9843  1592 9206 9845  9206 9844 9845  1593 9206 9844  1418 9844 9845  1691 9846 9847  9498 9846 9847  1941 9498 9846  1828 9498 9847  2231 6767 9849  6767 9848 9849  3609 6767 9848  3608 9848 9849  3282 5365 9850  5365 5840 9850  3283 5365 5840  3280 5840 9850  2250 9218 9852  9218 9851 9852  3026 9218 9851  2089 9851 9852  934 9417 9853  7545 9417 9853  936 7545 9417  929 7545 9853  1254 8562 9854  8562 9503 9854  1269 8562 9503  1257 9503 9854  981 9855 9856  8549 9855 9856  994 8549 9855  988 8549 9856  988 8548 9857  8548 9500 9857  3133 8548 9500  992 9500 9857  1105 9269 9858  7301 9269 9858  1823 7301 9269  1094 7301 9858  2280 9859 9861  9859 9860 9861  3491 9859 9860  2101 9860 9861  1898 9862 9864  9862 9863 9864  2004 9862 9863  1897 9863 9864  2931 7943 9865  7520 7943 9865  3721 7520 9865  2361 7520 7943  2426 9482 9866  9482 9866 9867  3786 9866 9867  2239 9482 9867  3474 9623 9868  5847 9623 9868  4789 5847 9868  3473 5847 9623  1251 9869 9870  8561 9869 9870  3397 8561 9869  1254 8561 9870  2038 9371 9872  9371 9871 9872  3524 9371 9871  1907 9871 9872  2211 8162 9874  8162 9873 9874  2392 8162 9873  2391 9873 9874  3165 9589 9875  8097 9589 9875  3171 8097 9589  3166 8097 9875  2137 9876 9878  9876 9877 9878  2299 9876 9877  2023 9877 9878  973 9879 9880  7570 9879 9880  1483 7570 9879  937 7570 9880  2126 9307 9882  9307 9881 9882  3729 9307 9881  1699 9881 9882  2994 9883 9885  9883 9884 9885  2995 9883 9884  2282 9884 9885  1984 7595 9886  7595 9527 9886  2402 7595 9527  2033 9527 9886  2916 9887 9888  7395 9887 9888  2917 7395 9887  2299 7395 9888  1819 9543 9889  9540 9543 9889  2115 9540 9889  2000 9540 9543  1569 9890 9892  9890 9891 9892  1699 9890 9891  1567 9891 9892  997 7584 9893  7584 9533 9893  1013 7584 9533  1003 9533 9893  2408 9894 9896  9894 9895 9896  3695 9894 9895  3004 9895 9896  2988 5814 9897  5814 7729 9897  2989 5814 7729  2134 7729 9897  2174 9898 9900  9898 9899 9900  2289 9898 9899  2130 9899 9900  1502 9167 9901  8925 9167 9901  1539 8925 9167  1433 8925 9901  2020 9902 9904  9902 9903 9904  2462 9902 9903  2004 9903 9904  984 9905 9907  9905 9906 9907  986 9905 9906  978 9906 9907  2858 6569 9909  6569 9908 9909  3745 6569 9908  1680 9908 9909  3743 9910 9912  9910 9911 9912  3744 9910 9911  3742 9911 9912  2140 8582 9913  6547 8582 9913  2442 6547 8582  2222 6547 9913  1966 9914 9916  9914 9915 9916  2023 9914 9915  1809 9915 9916  3614 8054 9918  8054 9917 9918  3615 8054 9917  2066 9917 9918  1762 6853 9920  6853 9919 9920  1963 6853 9919  1761 9919 9920  3722 6724 9921  6724 7176 9921  4656 7176 9921  760 6724 7176  2109 9181 9781  9181 9781 9922  2197 9181 9922  1838 9781 9922  1548 9596 9923  9545 9596 9923  1819 9545 9923  1772 9545 9596  1567 9257 9789  9257 9789 9924  1568 9789 9924  1566 9257 9924  3179 5475 5843  5475 5843 8882  3697 5475 8882  2114 5843 8882  1153 8641 9926  8641 9925 9926  1159 8641 9925  1139 9925 9926  1185 9927 9928  8639 9927 9928  3257 8639 9927  1153 8639 9928  1341 8135 9930  8135 9929 9930  1561 8135 9929  1340 9929 9930  1325 7052 9931  7052 8746 9931  2494 7052 8746  1324 8746 9931  1987 8197 9800  8197 8850 9800  3392 8197 8850  1713 8850 9800  1530 7283 9933  7283 9932 9933  1679 7283 9932  1529 9932 9933  1298 9934 9935  8738 9934 9935  3353 8738 9934  1276 8738 9935  1837 8742 9936  8668 8742 9936  3415 8668 8742  1922 8668 9936  1899 6849 9938  6849 9937 9938  2228 6849 9937  1934 9937 9938  1449 8809 9939  7644 8809 9939  3404 7644 8809  1490 7644 9939  1565 9258 9322  9258 9322 9940  1566 9258 9940  1564 9322 9940  2921 8232 9282  8232 9282 9562  3487 8232 9562  2170 9282 9562  2231 9849 9942  9849 9941 9942  3608 9849 9941  1918 9941 9942  1973 7697 9944  7697 9943 9944  2833 7697 9943  1988 9943 9944  3673 8607 8708  8607 8708 9945  3674 8708 9945  2941 8607 9945  2541 8172 9947  8172 9946 9947  3599 8172 9946  3597 9946 9947  1394 9406 9949  9406 9948 9949  3534 9406 9948  1391 9948 9949  1975 7991 9950  7991 9530 9950  2205 7991 9530  2071 9530 9950  818 9670 9952  9670 9951 9952  819 9670 9951  817 9951 9952  1700 9953 9955  9953 9954 9955  1850 9953 9954  1699 9954 9955  999 8634 9957  8634 9956 9957  1002 8634 9956  995 9956 9957  1922 8669 9958  8669 9120 9958  2210 8669 9120  2209 9120 9958  2133 9283 9349  9283 9349 9959  2170 9283 9959  2126 9349 9959  1581 9960 9962  9960 9961 9962  1761 9960 9961  1580 9961 9962  3534 9388 9964  9388 9963 9964  3544 9388 9963  1389 9963 9964  1668 9965 9967  9965 9966 9967  1803 9965 9966  1667 9966 9967  3078 4982 9969  4982 9968 9969  3079 4982 9968  2447 9968 9969  2996 9970 9972  9970 9971 9972  3046 9970 9971  2995 9971 9972  1308 9973 9974  9515 9973 9974  1533 9515 9973  1311 9515 9974  1008 9525 9975  8632 9525 9975  3310 8632 9525  999 8632 9975  2189 9976 9978  9976 9977 9978  2190 9976 9977  1993 9977 9978  1086 9979 9980  8253 9979 9980  3369 8253 9979  1081 8253 9980  3361 9773 9981  8847 9773 9981  4354 8847 9773  695 8847 9981  1017 7027 9982  7027 9574 9982  1030 7027 9574  1026 9574 9982  1197 8178 9984  8178 9983 9984  1563 8178 9983  1196 9983 9984  2451 9985 9987  9985 9986 9987  2503 9985 9986  2450 9986 9987  3264 8343 9988  8343 9988 9989  3575 9988 9989  3265 8343 9989  2208 9990 9992  9990 9991 9992  3521 9990 9991  2977 9991 9992  2049 9993 9994  9516 9993 9994  3557 9516 9993  1790 9516 9994  1773 9301 9808  8908 9301 9808  3180 8908 9301  1571 8908 9808  2139 9995 9997  9995 9996 9997  2140 9995 9996  1997 9996 9997  1022 9998 9999  7642 9998 9999  1024 7642 9998  1015 7642 9999  3491 7427 10000  7427 8690 10000  4503 8690 10000  4408 7427 8690  2007 10001 10002  8400 10001 10002  2134 8400 10001  2006 8400 10002  2513 9289 10003  9289 9993 10003  3557 9289 9993  2049 9993 10003  2353 10004 10005  8581 10004 10005  3363 8581 10004  2140 8581 10005  2987 5331 10006  5331 7664 10006  3041 5331 7664  2242 7664 10006  1761 9961 10007  9961 10007 10008  1763 10007 10008  1580 9961 10008  2388 10009 10011  10009 10010 10011  3725 10009 10010  2410 10010 10011  1903 10012 10014  10012 10013 10014  2187 10012 10013  2022 10013 10014  1102 6899 10015  6899 9706 10015  1113 6899 9706  1112 9706 10015  3447 8587 10016  8587 10016 10017  3950 10016 10017  872 8587 10017  1647 10018 10019  8939 10018 10019  3516 8939 10018  1587 8939 10019  1352 10020 10022  10020 10021 10022  1449 10020 10021  1353 10021 10022  1424 9298 10024  9298 10023 10024  3505 9298 10023  1421 10023 10024  1922 9958 10026  9958 10025 10026  2209 9958 10025  2208 10025 10026  2299 9877 10027  8728 9877 10027  3264 8728 10027  2023 8728 9877  3220 7397 7968  7397 7968 10028  4767 7968 10028  3219 7397 10028  1870 9676 10029  9615 9676 10029  2226 9615 10029  2111 9615 9676  994 8547 10030  7679 8547 10030  4476 7679 10030  3133 7679 8547  2135 8249 10031  8249 9897 10031  2988 8249 9897  2134 9897 10031  815 10032 10033  9952 10032 10033  818 9952 10032  817 9952 10033  2023 8729 9915  8729 9915 10034  2136 8729 10034  1809 9915 10034  2300 10035 10037  10035 10036 10037  3501 10035 10036  1929 10036 10037  1121 10038 10040  10038 10039 10040  3688 10038 10039  1115 10039 10040  2378 10041 10042  8011 10041 10042  3371 8011 10041  2376 8011 10042  2745 9803 10044  9803 10043 10044  3539 9803 10043  2635 10043 10044  1473 10045 10046  8022 10045 10046  3349 8022 10045  1471 8022 10046  1313 10047 10049  10047 10048 10049  4744 10047 10048  3140 10048 10049  257 10050 10052  10050 10051 10052  3664 10050 10051  3429 10051 10052  749 5987 8504  5987 8504 10053  4660 5987 10053  3647 8504 10053  3638 10054 10055  8427 10054 10055  3640 8427 10054  2214 8427 10055  3645 9584 10056  9584 10056 10057  4806 10056 10057  2813 9584 10057  1907 9871 10058  9664 9871 10058  3524 9664 9871  1460 9664 10058  1837 9936 10060  9936 10059 10060  1922 9936 10059  1921 10059 10060  1563 9323 9983  9323 9983 10061  1564 9323 10061  1196 9983 10061  2183 10062 10063  8247 10062 10063  3463 8247 10062  2135 8247 10063  2146 6243 10064  6243 8604 10064  4835 6243 8604  3489 8604 10064  1929 10036 10066  10036 10065 10066  3501 10036 10065  1775 10065 10066  1140 10067 10068  9926 10067 10068  1153 9926 10067  1139 9926 10068  1850 9350 9954  9350 9882 9954  2126 9350 9882  1699 9882 9954  1421 10023 10069  8319 10023 10069  3505 8319 10023  1419 8319 10069  1154 4971 10070  4971 9928 10070  1185 4971 9928  1153 9928 10070  1098 10071 10073  10071 10072 10073  1103 10071 10072  1082 10072 10073  1072 5217 10075  5217 10074 10075  3554 5217 10074  1069 10074 10075  1643 10076 10077  8840 10076 10077  3478 8840 10076  1620 8840 10077  2089 10078 10079  7985 10078 10079  3334 7985 10078  1989 7985 10079  2148 6110 9738  6110 9738 10080  2920 6110 10080  2918 9738 10080  1990 10081 10082  10079 10081 10082  2089 10079 10081  1989 10079 10082  2369 10083 10084  10062 10083 10084  3463 10062 10083  2183 10062 10084  733 6365 10085  6365 10085 10086  4649 10085 10086  3095 6365 10086  1468 6744 10088  6744 10087 10088  3670 6744 10087  1441 10087 10088  4491 6840 10089  6007 6840 10089  4518 6007 6840  2874 6007 10089  3015 10090 10091  9696 10090 10091  3016 9696 10090  3014 9696 10091  1434 10092 10093  9901 10092 10093  1502 9901 10092  1433 9901 10093  2035 10094 10096  10094 10095 10096  4678 10094 10095  4561 10095 10096  2373 9297 10098  9297 10097 10098  3665 9297 10097  2370 10097 10098  2101 9860 10099  8365 9860 10099  3491 8365 9860  2099 8365 10099  798 7873 10100  7134 7873 10100  799 7134 10100  797 7134 7873  3255 6517 9833  6517 9833 10101  4176 6517 10101  3187 9833 10101  1389 9963 10102  7818 9963 10102  3544 7818 9963  1388 7818 10102  1626 9641 10104  9641 10103 10104  3572 9641 10103  1825 10103 10104  1131 10105 10107  10105 10106 10107  1139 10105 10106  1130 10106 10107  1363 10108 10109  9597 10108 10109  1548 9597 10108  1537 9597 10109  1391 9948 10110  9948 9964 10110  3534 9948 9964  1389 9964 10110  1721 9842 10112  9842 10111 10112  1835 9842 10111  1834 10111 10112  3514 6717 10113  6717 10113 10114  4881 10113 10114  3539 6717 10114  1595 8762 10116  8762 10115 10116  3661 8762 10115  1469 10115 10116  3136 6945 8071  6668 6945 8071  4621 6668 8071  3137 6668 6945  3236 8238 8656  6404 8238 8656  3518 6404 8238  3517 6404 8656  1651 9732 10118  9732 10117 10118  1653 9732 10117  1652 10117 10118  1719 10119 10121  10119 10120 10121  1721 10119 10120  1720 10120 10121  2190 9411 9977  9411 9977 10122  2243 9411 10122  1993 9977 10122  3248 10123 10125  10123 10124 10125  4698 10123 10124  4035 10124 10125  1886 10126 10128  10126 10127 10128  1887 10126 10127  1689 10127 10128  2118 10129 10130  9852 10129 10130  2250 9852 10129  2089 9852 10130  2474 9180 10131  9180 10131 10132  3456 10131 10132  2197 9180 10132  3884 10133 10135  10133 10134 10135  4754 10133 10134  4694 10134 10135  1507 10136 10137  10045 10136 10137  3349 10045 10136  1473 10045 10137  3341 7861 9571  7861 9571 9587  3577 9571 9587  3342 7861 9587  1825 10103 10139  10103 10138 10139  3572 10103 10138  2229 10138 10139  3322 6198 8192  6198 7770 8192  3941 6198 7770  1453 7770 8192  2206 6068 10141  6068 10140 10141  3580 6068 10140  3579 10140 10141  2450 10142 10143  10041 10142 10143  3371 10041 10142  2378 10041 10143  3094 6109 8256  6109 8256 10144  4489 8256 10144  2920 6109 10144  1897 8015 9464  8015 9464 10145  1899 8015 10145  1659 9464 10145  1498 10146 10148  10146 10147 10148  1499 10146 10147  1430 10147 10148  2187 8986 10013  8986 10013 10149  2520 8986 10149  2022 10013 10149  1076 10150 10151  6734 10150 10151  3765 6734 10150  1684 6734 10151  3122 7172 10152  7172 8770 10152  4823 8770 10152  2717 7172 8770  1199 10153 10154  8176 10153 10154  3417 8176 10153  1197 8176 10154  1141 10155 10157  10155 10156 10157  1179 10155 10156  1152 10156 10157  1419 8321 10158  8321 9845 10158  1592 8321 9845  1418 9845 10158  1680 9908 10160  9908 10159 10160  3745 9908 10159  1529 10159 10160  1487 9685 10162  9685 10161 10162  1489 9685 10161  1488 10161 10162  2169 10163 10164  9810 10163 10164  2998 9810 10163  2158 9810 10164  1658 9465 9507  6387 9465 9507  1659 6387 9465  1562 6387 9507  1789 6658 10165  6658 8228 10165  4842 8228 10165  3777 6658 8228  2227 10166 10167  10018 10166 10167  3516 10018 10166  1647 10018 10167  2500 10168 10170  10168 10169 10170  3105 10168 10169  2401 10169 10170  1069 10074 10171  8550 10074 10171  3554 8550 10074  1067 8550 10171  1137 8787 10173  8787 10172 10173  1138 8787 10172  1127 10172 10173  2337 10174 10175  6075 10174 10175  3512 6075 10174  3048 6075 10175  261 10176 10178  10176 10177 10178  3671 10176 10177  753 10177 10178  3009 10179 10180  9612 10179 10180  3010 9612 10179  3008 9612 10180  1489 9727 10182  9727 10181 10182  1583 9727 10181  1582 10181 10182  1417 10183 10185  10183 10184 10185  1418 10183 10184  1416 10184 10185  1905 5110 10187  5110 10186 10187  2293 5110 10186  2292 10186 10187  2833 9943 10188  9943 10188 10189  2834 10188 10189  1988 9943 10189  1143 9733 10190  8786 9733 10190  3329 8786 9733  1137 8786 10190  1697 10191 10192  9677 10191 10192  1870 9677 10191  1846 9677 10192  748 7763 9528  7763 9528 10193  3633 7763 10193  3632 9528 10193  3068 5418 10195  5418 10194 10195  3069 5418 10194  2143 10194 10195  1096 10196 10197  8021 10196 10197  3553 8021 10196  1146 8021 10197  1627 10198 10200  10198 10199 10200  3719 10198 10199  1625 10199 10200  2026 10201 10202  9657 10201 10202  3612 9657 10201  1945 9657 10202  1903 10014 10204  10014 10203 10204  2022 10014 10203  1815 10203 10204  2228 9496 9937  9432 9496 9937  3215 9432 9496  1934 9432 9937  1166 10205 10206  8493 10205 10206  3437 8493 10205  844 8493 10206  3420 5192 8311  5192 8311 8322  3727 5192 8322  3633 8311 8322  1095 10207 10208  9858 10207 10208  1105 9858 10207  1094 9858 10208  1018 8264 10209  8264 10196 10209  3553 8264 10196  1096 10196 10209  3483 7169 10210  7169 10210 10211  4878 10210 10211  2579 7169 10211  3089 6032 7788  6032 7788 10030  4476 7788 10030  994 6032 10030  2942 10212 10214  10212 10213 10214  2944 10212 10213  2943 10213 10214  1409 10215 10216  9839 10215 10216  1444 9839 10215  1408 9839 10216  1889 10217 10218  9740 10217 10218  2148 9740 10217  2147 9740 10218  2785 10219 10220  9595 10219 10220  2786 9595 10219  2773 9595 10220  1089 10221 10222  8361 10221 10222  3348 8361 10221  1088 8361 10222  1333 10223 10225  10223 10224 10225  1335 10223 10224  1334 10224 10225  1335 9683 10227  9683 10226 10227  1355 9683 10226  1354 10226 10227  1343 10228 10229  8133 10228 10229  3395 8133 10228  1341 8133 10229  1807 9616 10230  7135 9616 10230  3999 7135 10230  2171 7135 9616  1561 9508 9929  9508 9929 10231  1562 9508 10231  1340 9929 10231  1449 9939 10021  9939 10021 10232  1490 9939 10232  1353 10021 10232  3323 8153 10233  8153 10233 10234  4200 10233 10234  2847 8153 10234  3281 10235 10236  9850 10235 10236  3282 9850 10235  3280 9850 10236  1498 10146 10237  6164 10146 10237  1584 6164 10237  1499 6164 10146  3644 5867 10239  5867 10238 10239  3781 5867 10238  217 10238 10239  814 10240 10242  10240 10241 10242  815 10240 10241  813 10241 10242  1813 10243 10244  10204 10243 10244  1903 10204 10243  1815 10204 10244  2462 9548 9903  9548 9903 10245  2489 9548 10245  2004 9903 10245  3505 7046 8320  7046 8320 10246  3912 7046 10246  1592 8320 10246  3125 5861 10247  5861 10247 10248  3126 10247 10248  737 5861 10248  1939 9826 10249  7336 9826 10249  3185 7336 10249  1682 7336 9826  1190 8918 10250  7826 8918 10250  1193 7826 8918  1175 7826 10250  1207 10251 10252  10153 10251 10252  3417 10153 10251  1199 10153 10252  2282 9013 9559  9013 9559 10253  2283 9013 10253  1926 9559 10253  1302 9652 10255  9652 10254 10255  1319 9652 10254  1318 10254 10255  3599 7120 10257  7120 10256 10257  3600 7120 10256  3598 10256 10257  1087 10258 10259  9836 10258 10259  1088 9836 10258  1086 9836 10259  1925 9560 9591  9560 9591 10260  1926 9560 10260  1680 9591 10260  2492 7536 10261  7536 9912 10261  3743 7536 9912  3742 9912 10261  3592 7403 10263  7403 10262 10263  3593 7403 10262  3411 10262 10263  738 9007 10264  9007 10264 10265  3813 10264 10265  3746 9007 10265  928 10266 10267  8591 10266 10267  3448 8591 10266  864 8591 10267  3438 10268 10270  10268 10269 10270  3440 10268 10269  3437 10269 10270  878 10271 10272  6952 10271 10272  879 6952 10271  876 6952 10272  1303 8928 10273  8586 8928 10273  3447 8586 8928  870 8586 10273  1633 9776 10275  9776 10274 10275  3614 9776 10274  1637 10274 10275  2768 10276 10277  9585 10276 10277  2769 9585 10276  2767 9585 10277  1475 10278 10280  10278 10279 10280  1622 10278 10279  1474 10279 10280  2826 10281 10282  9795 10281 10282  2827 9795 10281  2825 9795 10282  1363 10109 10284  10109 10283 10284  1537 10109 10283  1364 10283 10284  1873 10285 10287  10285 10286 10287  3837 10285 10286  3836 10286 10287  960 9742 10288  7494 9742 10288  3316 7494 10288  957 7494 9742  1975 9950 10290  9950 10289 10290  2071 9950 10289  1976 10289 10290  3597 10291 10293  10291 10292 10293  3598 10291 10292  3282 10292 10293  2271 10294 10295  10201 10294 10295  3612 10201 10294  2026 10201 10295  1107 8646 8725  8646 8725 10296  4062 8646 10296  3710 8725 10296  1816 10297 10298  9726 10297 10298  1881 9726 10297  1758 9726 10298  1295 9646 10300  9646 10299 10300  1300 9646 10299  1299 10299 10300  2214 8428 10301  8428 10076 10301  3478 8428 10076  1643 10076 10301  1697 10192 10303  10192 10302 10303  1846 10192 10302  1698 10302 10303  695 8849 10304  8374 8849 10304  3412 8374 8849  85 8374 10304  2958 10305 10306  5981 10305 10306  4122 5981 10305  3662 5981 10306  2347 10307 10308  7263 10307 10308  3157 7263 10307  2079 7263 10308  2370 10097 10309  8448 10097 10309  3665 8448 10097  2369 8448 10309  1469 10115 10311  10115 10310 10311  3661 10115 10310  1468 10310 10311  1079 10312 10313  9825 10312 10313  1080 9825 10312  1078 9825 10313  2778 10314 10315  9709 10314 10315  2779 9709 10314  2777 9709 10315  1441 10087 10316  5135 10087 10316  3670 5135 10087  1440 5135 10316  2829 10317 10318  9821 10317 10318  2830 9821 10317  2827 9821 10318  3526 10319 10321  10319 10320 10321  3527 10319 10320  3525 10320 10321  1045 10322 10323  8617 10322 10323  1047 8617 10322  1044 8617 10323  2933 10324 10326  10324 10325 10326  2934 10324 10325  2406 10325 10326  1458 10327 10328  9787 10327 10328  1474 9787 10327  1457 9787 10328  3452 6009 10329  6009 9673 10329  3453 6009 9673  3450 9673 10329  4607 10330 10332  10330 10331 10332  4707 10330 10331  4101 10331 10332  1996 10333 10335  10333 10334 10335  1997 10333 10334  1787 10334 10335  3449 10336 10338  10336 10337 10338  3450 10336 10337  3448 10337 10338  1291 9626 10340  9626 10339 10340  1293 9626 10339  1292 10339 10340  1374 10341 10342  5919 10341 10342  1376 5919 10341  1373 5919 10342  2476 10343 10344  5563 10343 10344  3194 5563 10343  3193 5563 10344  3165 7323 9875  7323 8057 9875  3166 8057 9875  3164 7323 8057  1889 10218 10345  7374 10218 10345  2147 7374 10218  1890 7374 10345  880 10346 10347  9701 10346 10347  881 9701 10346  879 9701 10347  1450 10348 10349  8810 10348 10349  1504 8810 10348  1449 8810 10349  891 10350 10351  8396 10350 10351  893 8396 10350  890 8396 10351  1981 10352 10353  8662 10352 10353  3461 8662 10352  3459 8662 10353  2138 10354 10355  7929 10354 10355  2186 7929 10354  809 7929 10355  901 10356 10358  10356 10357 10358  902 10356 10357  900 10357 10358  894 10359 10360  9765 10359 10360  895 9765 10359  893 9765 10360  1195 10361 10362  9935 10361 10362  1298 9935 10361  1276 9935 10362  903 10363 10364  9799 10363 10364  905 9799 10363  902 9799 10364  897 10365 10367  10365 10366 10367  898 10365 10366  895 10366 10367  882 10368 10369  8394 10368 10369  883 8394 10368  881 8394 10369  979 10370 10371  9907 10370 10371  984 9907 10370  978 9907 10371  884 10372 10373  9741 10372 10373  885 9741 10372  883 9741 10373  2648 9718 10375  9718 10374 10375  2696 9718 10374  2649 10374 10375  899 10376 10377  9785 10376 10377  900 9785 10376  898 9785 10377  3492 7690 10379  7690 10378 10379  3494 7690 10378  3493 10378 10379  913 10380 10381  9832 10380 10381  915 9832 10380  912 9832 10381  1041 10382 10384  10382 10383 10384  4322 10382 10383  4302 10383 10384  2722 10385 10386  7773 10385 10386  2723 7773 10385  2721 7773 10386  930 10387 10388  9853 10387 10388  934 9853 10387  929 9853 10388  887 10389 10391  10389 10390 10391  888 10389 10390  885 10390 10391  1308 9974 10393  9974 10392 10393  1311 9974 10392  1309 10392 10393  907 10394 10396  10394 10395 10396  908 10394 10395  905 10395 10396  916 10397 10398  8445 10397 10398  922 8445 10397  915 8445 10398  889 10399 10400  9735 10399 10400  890 9735 10399  888 9735 10400  1452 10401 10402  5421 10401 10402  1453 5421 10401  1451 5421 10402  1115 10039 10403  5878 10039 10403  3688 5878 10039  1114 5878 10403  1679 9592 9932  9592 9932 10160  1680 9592 10160  1529 9932 10160  1465 10404 10406  10404 10405 10406  1529 10404 10405  1448 10405 10406  2995 9884 10407  9012 9884 10407  3445 9012 10407  2282 9012 9884  3440 6972 10269  6972 7722 10269  3509 6972 7722  3437 7722 10269  2479 9523 10409  9523 10408 10409  3638 9523 10408  2215 10408 10409  2760 10410 10411  9557 10410 10411  2761 9557 10410  2758 9557 10411  909 10412 10413  9823 10412 10413  910 9823 10412  908 9823 10413  985 10414 10416  10414 10415 10416  990 10414 10415  984 10415 10416  923 10417 10418  9843 10417 10418  926 9843 10417  922 9843 10418  2201 10419 10420  9797 10419 10420  2406 9797 10419  2200 9797 10420  935 10421 10422  8462 10421 10422  937 8462 10421  934 8462 10422  927 10423 10424  8452 10423 10424  929 8452 10423  926 8452 10424  2071 8497 10426  8497 10425 10426  2213 8497 10425  2072 10425 10426  2945 10427 10428  8985 10427 10428  3427 8985 10427  2187 8985 10428  2217 10429 10430  10409 10429 10430  2479 10409 10429  2215 10409 10430  911 10431 10433  10431 10432 10433  912 10431 10432  910 10432 10433  938 10434 10435  9880 10434 10435  973 9880 10434  937 9880 10435  991 10436 10438  10436 10437 10438  995 10436 10437  990 10437 10438  2822 10439 10440  9770 10439 10440  2823 9770 10439  2781 9770 10440  3943 9538 10442  9538 10441 10442  4073 9538 10441  2346 10441 10442  2757 10443 10445  10443 10444 10445  2817 10443 10444  2774 10444 10445  1033 10446 10448  10446 10447 10448  1034 10446 10447  952 10447 10448  2780 10449 10450  8439 10449 10450  2781 8439 10449  2779 8439 10450  2627 9662 10452  9662 10451 10452  2640 9662 10451  2628 10451 10452  1365 10453 10455  10453 10454 10455  1366 10453 10454  1220 10454 10455  2623 9648 10456  7170 9648 10456  4019 7170 10456  2717 7170 9648  974 10457 10459  10457 10458 10459  978 10457 10458  973 10458 10459  2625 8720 10461  8720 10460 10461  2627 8720 10460  2626 10460 10461  1280 10462 10464  10462 10463 10464  1324 10462 10463  1278 10463 10464  3270 10465 10467  10465 10466 10467  3273 10465 10466  3272 10466 10467  1822 10468 10470  10468 10469 10470  2042 10468 10469  2041 10469 10470  1882 10471 10472  9760 10471 10472  2090 9760 10471  1881 9760 10472  4289 9555 10474  9555 10473 10474  4494 9555 10473  3753 10473 10474  1666 10475 10476  8793 10475 10476  1667 8793 10475  1532 8793 10476  1009 10477 10478  8512 10477 10478  1015 8512 10477  1008 8512 10478  996 10479 10480  9957 10479 10480  999 9957 10479  995 9957 10480  1895 10481 10482  9700 10481 10482  1896 9700 10481  1740 9700 10482  1691 9847 10484  9847 10483 10484  1828 9847 10483  1692 10483 10484  1016 10485 10486  9999 10485 10486  1022 9999 10485  1015 9999 10486  1028 10487 10489  10487 10488 10489  1082 10487 10488  1027 10488 10489  1845 9590 10491  9590 10490 10491  1914 9590 10490  1913 10490 10491  1000 10492 10493  9975 10492 10493  1008 9975 10492  999 9975 10493  2130 9667 10494  7865 9667 10494  2131 7865 10494  2129 7865 9667  3529 10495 10496  9661 10495 10496  3531 9661 10495  3527 9661 10496  1339 10497 10499  10497 10498 10499  1340 10497 10498  1327 10498 10499  1428 10500 10501  9754 10500 10501  1451 9754 10500  1427 9754 10501  1052 10502 10503  9749 10502 10503  1053 9749 10502  1051 9749 10503  1054 10504 10505  9750 10504 10505  1056 9750 10504  1053 9750 10505  1050 10506 10508  10506 10507 10508  1051 10506 10507  1049 10507 10508  1048 10509 10510  9731 10509 10510  1049 9731 10509  1047 9731 10510  2703 10511 10512  8892 10511 10512  2704 8892 10511  2702 8892 10512  1534 10513 10515  10513 10514 10515  4131 10513 10514  4120 10514 10515  1057 10516 10517  8430 10516 10517  1058 8430 10516  1056 8430 10517  1446 10518 10520  10518 10519 10520  1447 10518 10519  1343 10519 10520  1059 10521 10522  9755 10521 10522  1061 9755 10521  1058 9755 10522  1062 10523 10525  10523 10524 10525  1064 10523 10524  1061 10524 10525  1065 10526 10527  9758 10526 10527  1066 9758 10526  1064 9758 10527  1067 8552 10529  8552 10528 10529  1782 8552 10528  1066 10528 10529  1708 10530 10532  10530 10531 10532  1822 10530 10531  1769 10531 10532  1843 8031 10534  8031 10533 10534  1845 8031 10533  1844 10533 10534  1083 10535 10536  10073 10535 10536  1098 10073 10535  1082 10073 10536  1538 10537 10538  6589 10537 10538  3479 6589 10537  1673 6589 10538  1023 10539 10541  10539 10540 10541  1027 10539 10540  1022 10540 10541  1377 10542 10544  10542 10543 10544  1378 10542 10543  1376 10543 10544  1273 10545 10547  10545 10546 10547  1277 10545 10546  1208 10546 10547  1387 10548 10549  9747 10548 10549  1388 9747 10548  1386 9747 10549  1384 10550 10552  10550 10551 10552  1386 10550 10551  1383 10551 10552  1381 10553 10554  8443 10553 10554  1383 8443 10553  1380 8443 10554  1379 10555 10556  9745 10555 10556  1380 9745 10555  1378 9745 10556  2623 9650 10558  9650 10557 10558  2625 9650 10557  2624 10557 10558  1629 10559 10561  10559 10560 10561  3752 10559 10560  1831 10560 10561  2215 10408 10562  10055 10408 10562  3638 10055 10408  2214 10055 10562  1104 10563 10565  10563 10564 10565  1110 10563 10564  1098 10564 10565  1132 10566 10567  10173 10566 10567  1137 10173 10566  1127 10173 10567  1694 10568 10569  7977 10568 10569  1786 7977 10568  1670 7977 10569  2407 10570 10571  9894 10570 10571  3695 9894 10570  2408 9894 10571  2724 10572 10573  9703 10572 10573  2725 9703 10572  2723 9703 10573  1910 10574 10576  10574 10575 10576  1993 10574 10575  1851 10575 10576  2798 10577 10578  8388 10577 10578  3360 8388 10577  2761 8388 10578  1793 10579 10580  8201 10579 10580  1809 8201 10579  1765 8201 10580  1039 7358 10581  7358 9699 10581  1040 7358 9699  1038 9699 10581  1186 10582 10583  10250 10582 10583  1190 10250 10582  1175 10250 10583  1885 10584 10585  10301 10584 10585  2214 10301 10584  1643 10301 10585  1840 8387 10587  8387 10586 10587  1843 8387 10586  1841 10586 10587  3102 8863 10588  8863 10588 10589  4880 10588 10589  3132 8863 10589  816 10590 10592  10590 10591 10592  3706 10590 10591  813 10591 10592  1188 9608 10594  9608 10593 10594  1262 9608 10593  1261 10593 10594  2164 10595 10597  10595 10596 10597  2407 10595 10596  2165 10596 10597  1035 10598 10600  10598 10599 10600  1036 10598 10599  1034 10599 10600  1637 10274 10601  9918 10274 10601  3614 9918 10274  2066 9918 10601  1037 10602 10604  10602 10603 10604  1038 10602 10603  1036 10603 10604  2766 10605 10607  10605 10606 10607  3482 10605 10606  3481 10606 10607  1267 10608 10610  10608 10609 10610  1268 10608 10609  1190 10609 10610  1510 10611 10613  10611 10612 10613  1580 10611 10612  1508 10612 10613  1368 10614 10615  9715 10614 10615  1369 9715 10614  1366 9715 10615  1352 10022 10617  10022 10616 10617  1353 10022 10616  1317 10616 10617  2692 10618 10619  9620 10618 10619  2693 9620 10618  2691 9620 10619  969 8651 10621  8651 10620 10621  971 8651 10620  970 10620 10621  1142 10622 10623  10190 10622 10623  1143 10190 10622  1137 10190 10623  2715 9624 10624  7407 9624 10624  3473 7407 9624  3471 7407 10624  1117 10625 10627  10625 10626 10627  1127 10625 10626  1110 10626 10627  682 7731 10628  7731 8397 10628  3428 7731 8397  63 8397 10628  2385 8927 10629  6067 8927 10629  2976 6067 8927  2085 6067 10629  2556 10630 10631  6025 10630 10631  3627 6025 10630  2555 6025 10631  1893 10632 10634  10632 10633 10634  1977 10632 10633  1827 10633 10634  3175 5362 10635  5362 7760 10635  3178 5362 7760  3174 7760 10635  2239 10636 10638  10636 10637 10638  2852 10636 10637  2240 10637 10638  2146 10064 10639  8647 10064 10639  3489 8647 10064  2145 8647 10639  2709 10640 10641  9651 10640 10641  2710 9651 10640  2704 9651 10641  1828 8520 10643  8520 10642 10643  1984 8520 10642  1829 10642 10643  265 8756 10644  8175 8756 10644  3239 8175 8756  685 8175 10644  2376 8013 10645  7090 8013 10645  3370 7090 8013  2374 7090 10645  3551 7441 10647  7441 10646 10647  3696 7441 10646  1886 10646 10647  1206 10648 10649  10252 10648 10649  1207 10252 10648  1199 10252 10649  948 8667 10651  8667 10650 10651  950 8667 10650  949 10650 10651  1173 10652 10653  8638 10652 10653  1175 8638 10652  1143 8638 10653  1657 8932 10655  8932 10654 10655  1801 8932 10654  1780 10654 10655  1624 10656 10657  10150 10656 10657  3765 10150 10656  1076 10150 10657  1150 8437 10659  8437 10658 10659  1188 8437 10658  1187 10658 10659  1184 10660 10662  10660 10661 10662  1196 10660 10661  1182 10661 10662  1803 9668 9966  9668 9966 10663  2129 9668 10663  1667 9966 10663  1148 9636 10665  9636 10664 10665  1150 9636 10664  1149 10664 10665  3290 10666 10667  5002 10666 10667  3293 5002 10666  3292 5002 10667  1807 9617 10669  9617 10668 10669  1840 9617 10668  1808 10668 10669  3145 10670 10671  6654 10670 10671  3146 6654 10670  3144 6654 10671  1984 9886 10673  9886 10672 10673  2033 9886 10672  2031 10672 10673  1471 8024 10674  8024 10116 10674  1595 8024 10116  1469 10116 10674  1329 7939 10675  7939 10148 10675  1498 7939 10148  1430 10148 10675  2684 10676 10677  9610 10676 10677  2685 9610 10676  2683 9610 10677  1254 9854 10679  9854 10678 10679  1257 9854 10678  1255 10678 10679  1125 10680 10682  10680 10681 10682  1134 10680 10681  1126 10681 10682  2033 8530 10684  8530 10683 10684  2399 8530 10683  2314 10683 10684  1686 10685 10687  10685 10686 10687  1827 10685 10686  1685 10686 10687  2399 7923 10689  7923 10688 10689  3307 7923 10688  2832 10688 10689  2752 10690 10691  9567 10690 10691  2753 9567 10690  2751 9567 10691  1447 9582 10519  9582 10228 10519  3395 9582 10228  1343 10228 10519  3259 5407 10692  5407 10692 10693  4487 10692 10693  2962 5407 10693  1172 10694 10695  8766 10694 10695  1181 8766 10694  1170 8766 10695  1315 10696 10698  10696 10697 10698  1317 10696 10697  1268 10697 10698  831 10699 10700  6306 10699 10700  3737 6306 10699  1459 6306 10700  2380 10701 10702  10143 10701 10702  2450 10143 10701  2378 10143 10702  2772 10703 10704  6194 10703 10704  3231 6194 10703  2797 6194 10704  1251 9870 10706  9870 10705 10706  1254 9870 10705  1252 10705 10706  3206 7907 10707  7907 9680 10707  3207 7907 9680  2233 9680 10707  1217 10708 10710  10708 10709 10710  1219 10708 10709  1218 10709 10710  2372 10711 10712  10098 10711 10712  2373 10098 10711  2370 10098 10712  707 8544 10713  8042 8544 10713  3700 8042 8544  3699 8042 10713  3202 7687 10714  7149 7687 10714  3204 7149 7687  3203 7149 10714  981 9856 10716  9856 10715 10716  988 9856 10715  982 10715 10716  2694 10717 10718  7790 10717 10718  2695 7790 10717  2693 7790 10718  988 9857 10720  9857 10719 10720  992 9857 10719  989 10719 10720  2242 7663 10722  7663 10721 10722  3733 7663 10721  2226 10721 10722  2699 10723 10724  9647 10723 10724  2700 9647 10723  2695 9647 10724  1506 10725 10726  10137 10725 10726  1507 10137 10725  1473 10137 10726  1146 7385 10728  7385 10727 10728  1148 7385 10727  1147 10727 10728  971 9824 10730  9824 10729 10730  976 9824 10729  972 10729 10730  2670 10731 10732  9605 10731 10732  2671 9605 10731  2669 9605 10732  877 10733 10735  10733 10734 10735  919 10733 10734  918 10734 10735  1443 10736 10737  10088 10736 10737  1468 10088 10736  1441 10088 10737  976 10738 10740  10738 10739 10740  981 10738 10739  977 10739 10740  1351 10741 10742  10617 10741 10742  1352 10617 10741  1317 10617 10742  992 8554 10744  8554 10743 10744  997 8554 10743  993 10743 10744  1555 10745 10746  8930 10745 10746  1644 8930 10745  1554 8930 10746  1165 10747 10748  8716 10747 10748  1169 8716 10747  1163 8716 10748  1739 9665 10750  9665 10749 10750  1742 9665 10749  1741 10749 10750  2400 10751 10752  10170 10751 10752  2500 10170 10751  2401 10170 10752  1499 10753 10755  10753 10754 10755  1605 10753 10754  1500 10754 10755  275 10756 10758  10756 10757 10758  3689 10756 10757  696 10757 10758  1012 7956 10760  7956 10759 10760  1017 7956 10759  1014 10759 10760  812 10761 10762  10242 10761 10762  814 10242 10761  813 10242 10762  950 9697 10764  9697 10763 10764  953 9697 10763  951 10763 10764  957 7495 10766  7495 10765 10766  959 7495 10765  958 10765 10766  997 9893 10768  9893 10767 10768  1003 9893 10767  998 10767 10768  1863 9713 10770  9713 10769 10770  1865 9713 10769  1864 10769 10770  1865 8488 10772  8488 10771 10772  1867 8488 10771  1866 10771 10772  1795 10773 10775  10773 10774 10775  3772 10773 10774  1708 10774 10775  2586 9829 10777  9829 10776 10777  3693 9829 10776  2589 10776 10777  1861 7798 10779  7798 10778 10779  1863 7798 10778  1862 10778 10779  959 9790 10781  9790 10780 10781  963 9790 10780  961 10780 10781  1867 10782 10784  10782 10783 10784  1872 10782 10783  1868 10783 10784  953 8492 10786  8492 10785 10786  955 8492 10785  954 10785 10786  1801 9811 10788  9811 10787 10788  2018 9811 10787  2016 10787 10788  1017 9982 10790  9982 10789 10790  1026 9982 10789  1025 10789 10790  2750 10791 10793  10791 10792 10793  2751 10791 10792  2749 10792 10793  1046 8913 10795  8913 10794 10795  1203 8913 10794  1202 10794 10795  1134 10796 10798  10796 10797 10798  1141 10796 10797  1135 10797 10798  955 9743 10800  9743 10799 10800  957 9743 10799  956 10799 10800  963 8524 10802  8524 10801 10802  965 8524 10801  964 10801 10802  3071 5653 10803  5653 10803 10804  4458 10803 10804  1402 5653 10804  1026 8585 10806  8585 10805 10806  1032 8585 10805  1031 10805 10806  2663 10807 10808  9604 10807 10808  2664 9604 10807  2651 9604 10808  1102 10015 10810  10015 10809 10810  1112 10015 10809  1111 10809 10810  2410 10811 10813  10811 10812 10813  2412 10811 10812  2411 10812 10813  2280 6947 10814  6947 10814 10815  4898 10814 10815  3136 6947 10815  1003 8574 10817  8574 10816 10817  1012 8574 10816  1010 10816 10817  965 9802 10819  9802 10818 10819  967 9802 10818  966 10818 10819  1375 10820 10822  10820 10821 10822  1727 10820 10821  1726 10821 10822  3977 10823 10825  10823 10824 10825  4234 10823 10824  2510 10824 10825  2736 10826 10827  8009 10826 10827  3326 8009 10826  2660 8009 10827  2108 10828 10830  10828 10829 10830  2400 10828 10829  2042 10829 10830  3285 7561 9163  7561 8912 9163  3555 7561 8912  1046 8912 9163  3194 10831 10832  9654 10831 10832  4556 9654 10831  4297 9654 10832  1649 6384 10833  6384 10167 10833  2227 6384 10167  1647 10167 10833  2164 9100 10595  9100 10595 10834  2508 9100 10834  2407 10595 10834  3145 6864 10670  6864 10670 10835  4591 6864 10835  3146 10670 10835  1180 10836 10838  10836 10837 10838  1195 10836 10837  1194 10837 10838  1605 10839 10841  10839 10840 10841  1708 10839 10840  1675 10840 10841  4386 8761 10842  8761 10842 10843  4398 10842 10843  3661 8761 10843  3676 10844 10846  10844 10845 10846  4233 10844 10845  3735 10845 10846  2267 10847 10849  10847 10848 10849  2842 10847 10848  2266 10848 10849  1219 10850 10852  10850 10851 10852  1222 10850 10851  1221 10851 10852  2298 10853 10854  10084 10853 10854  2369 10084 10853  2183 10084 10854  813 10591 10856  10591 10855 10856  3706 10591 10855  811 10855 10856  1032 8221 10858  8221 10857 10858  1102 8221 10857  1100 10857 10858  1859 9724 10860  9724 10859 10860  1861 9724 10859  1860 10859 10860  1276 8739 10862  8739 10861 10862  1329 8739 10861  1328 10861 10862  1195 10362 10864  10362 10863 10864  1276 10362 10863  1274 10863 10864  1141 10157 10866  10157 10865 10866  1152 10157 10865  1144 10865 10866  919 9644 10868  9644 10867 10868  921 9644 10867  920 10867 10868  2265 10869 10870  9762 10869 10870  2266 9762 10869  2067 9762 10870  3296 8474 10871  7960 8474 10871  3769 7960 10871  2281 7960 8474  1222 9717 10873  9717 10872 10873  1224 9717 10872  1223 10872 10873  1547 10874 10876  10874 10875 10876  1685 10874 10875  1504 10875 10876  1645 10877 10878  9778 10877 10878  1788 9778 10877  1644 9778 10878  4254 10879 10880  8870 10879 10880  4872 8870 10879  1024 8870 10880  2816 10881 10882  9536 10881 10882  2970 9536 10881  2736 9536 10882  2062 10883 10884  9771 10883 10884  2067 9771 10883  1877 9771 10884  1558 10885 10886  5134 10885 10886  1660 5134 10885  1501 5134 10886  921 8509 10888  8509 10887 10888  925 8509 10887  924 10887 10888  686 10889 10890  8449 10889 10890  3435 8449 10889  43 8449 10890  1224 8526 10892  8526 10891 10892  1226 8526 10891  1225 10891 10892  2674 10893 10894  8518 10893 10894  2675 8518 10893  2671 8518 10894  2680 10895 10896  9625 10895 10896  2681 9625 10895  2675 9625 10896  925 7118 10898  7118 10897 10898  933 7118 10897  932 10897 10898  1231 8769 10900  8769 10899 10900  1234 8769 10899  1232 10899 10900  1852 10901 10902  8542 10901 10902  1877 8542 10901  1788 8542 10902  1241 9818 10904  9818 10903 10904  1243 9818 10903  1242 10903 10904  1234 9761 10906  9761 10905 10906  1237 9761 10905  1235 10905 10906  2387 10907 10908  10009 10907 10908  3725 10009 10907  2388 10009 10908  933 9686 10910  9686 10909 10910  940 9686 10909  939 10909 10910  1226 7899 10912  7899 10911 10912  1229 7899 10911  1227 10911 10912  2969 7010 10914  7010 10913 10914  3135 7010 10913  2968 10913 10914  1742 9707 10916  9707 10915 10916  1744 9707 10915  1743 10915 10916  1438 10917 10918  7848 10917 10918  1440 7848 10917  1436 7848 10918  1152 10919 10921  10919 10920 10921  1180 10919 10920  1178 10920 10921  1229 9737 10923  9737 10922 10923  1231 9737 10922  1230 10922 10923  1663 6856 10925  6856 10924 10925  1798 6856 10924  1797 10924 10925  3119 6997 10926  6997 10926 10927  4030 10926 10927  3790 6997 10927  1744 8537 10929  8537 10928 10929  1746 8537 10928  1745 10928 10929  1161 10930 10931  7083 10930 10931  1162 7083 10930  1158 7083 10931  1731 10932 10933  8180 10932 10933  4731 8180 10932  3496 8180 10933  1746 9721 10935  9721 10934 10935  1749 9721 10934  1747 10934 10935  1977 10936 10938  10936 10937 10938  2395 10936 10937  1978 10937 10938  1749 8539 10940  8539 10939 10940  1751 8539 10939  1750 10939 10940  1336 7165 7855  7165 7855 10941  4905 7855 10941  3588 7165 10941  1124 10942 10944  10942 10943 10944  1130 10942 10943  1122 10943 10944  1432 10945 10947  10945 10946 10947  1433 10945 10946  1425 10946 10947  3077 6690 10948  6690 8722 10948  4150 8722 10948  4039 6690 8722  1203 9671 10950  9671 10949 10950  1211 9671 10949  1210 10949 10950  1605 10839 10951  10775 10839 10951  1795 10775 10951  1708 10775 10839  2123 8528 10953  8528 10952 10953  2167 8528 10952  2124 10952 10953  1279 8144 10954  8144 10954 10955  4920 10954 10955  3639 8144 10955  1727 9694 10957  9694 10956 10957  1737 9694 10956  1736 10956 10957  3065 10958 10959  9600 10958 10959  3066 9600 10958  3063 9600 10959  1537 8327 10960  8327 10537 10960  3479 8327 10537  1538 10537 10960  2188 10961 10962  10428 10961 10962  2945 10428 10961  2187 10428 10962  3152 10963 10965  10963 10964 10965  4160 10963 10964  2518 10964 10965  1887 8624 10127  8624 8821 10127  3542 8624 8821  1689 8821 10127  3378 7032 10966  7032 7082 10966  3383 7082 10966  1162 7032 7082  3376 9579 10967  7274 9579 10967  3379 7274 9579  3377 7274 10967  2014 9712 10969  9712 10968 10969  2123 9712 10968  2015 10968 10969  3026 6600 9851  6600 9851 10078  3334 6600 10078  2089 9851 10078  1268 7684 10609  7684 8916 10609  3515 7684 8916  1190 8916 10609  1236 5721 9736  5721 8768 9736  3559 5721 8768  1231 8768 9736  1120 10970 10971  10040 10970 10971  1121 10040 10970  1115 10040 10971  1802 10972 10973  9598 10972 10973  1875 9598 10972  1703 9598 10973  1329 10675 10975  10675 10974 10975  1430 10675 10974  1429 10974 10975  3643 7517 10977  7517 10976 10977  4826 7517 10976  2121 10976 10977  1661 10978 10980  10978 10979 10980  1878 10978 10979  1660 10979 10980  2140 9913 9996  9913 9996 10981  2222 9913 10981  1997 9996 10981  1546 6495 10983  6495 10982 10983  1664 6495 10982  1545 10982 10983  1798 9681 10985  9681 10984 10985  1817 9681 10984  1799 10984 10985  1879 10986 10987  9628 10986 10987  2159 9628 10986  1878 9628 10987  1817 10988 10990  10988 10989 10990  2010 10988 10989  1818 10989 10990  3731 5272 8352  5272 8352 10991  3732 8352 10991  2360 5272 10991  1783 7514 10993  7514 10992 10993  2206 7514 10992  1969 10992 10993  3430 8993 10994  8684 8993 10994  3431 8684 8993  2223 8684 10994  2447 10995 10996  10994 10995 10996  3430 10994 10995  2223 10994 10996  1423 10997 10998  10024 10997 10998  1424 10024 10997  1421 10024 10998  1962 10999 11001  10999 11000 11001  4497 10999 11000  2246 11000 11001  2476 10344 11003  10344 11002 11003  3193 10344 11002  2250 11002 11003  1982 11004 11005  9099 11004 11005  3459 9099 11004  2164 9099 11005  3188 11006 11008  11006 11007 11008  3190 11006 11007  3189 11007 11008  3006 7447 11009  7447 11009 11010  4839 11009 11010  1478 7447 11010  1109 11011 11012  7715 11011 11012  1114 7715 11011  1106 7715 11012  3106 6580 11014  6580 11013 11014  3107 6580 11013  3066 11013 11014  2011 8218 11016  8218 11015 11016  3331 8218 11015  2014 11015 11016  2697 11017 11019  11017 11018 11019  3537 11017 11018  2954 11018 11019  2273 11020 11021  10037 11020 11021  2300 10037 11020  1929 10037 11021  1920 11022 11024  11022 11023 11024  2320 11022 11023  1136 11023 11024  1554 8929 9407  8929 9407 11025  3578 8929 11025  1657 9407 11025  3128 11026 11028  11026 11027 11028  3130 11026 11027  3129 11027 11028  762 11029 11030  6379 11029 11030  4376 6379 11029  3795 6379 11030  2961 5044 11031  5044 5562 11031  3436 5044 5562  2962 5562 11031  1685 10875 11032  8105 10875 11032  1781 8105 11032  1504 8105 10875  3342 7692 7862  7692 7862 8978  3343 7692 8978  1263 7862 8978  3381 7041 11033  7041 11033 11034  3382 11033 11034  3378 7041 11034  2394 11035 11036  10003 11035 11036  2513 10003 11035  2049 10003 11036  2657 11037 11038  6412 11037 11038  4535 6412 11037  4016 6412 11038  1415 11039 11040  8702 11039 11040  1416 8702 11039  1413 8702 11040  1524 6017 11042  6017 11041 11042  1873 6017 11041  1520 11041 11042  1674 11043 11045  11043 11044 11045  1697 11043 11044  1696 11044 11045  2142 11046 11048  11046 11047 11048  2247 11046 11047  2149 11047 11048  1892 8223 11050  8223 11049 11050  3523 8223 11049  1981 11049 11050  2702 8891 9273  7666 8891 9273  3589 7666 8891  2793 7666 9273  1640 8095 11052  8095 11051 11052  3206 8095 11051  1859 11051 11052  3417 8373 11053  6298 8373 11053  4229 6298 11053  3444 6298 8373  1981 10353 11054  10353 11004 11054  3459 10353 11004  1982 11004 11054  877 10733 11055  10733 11055 11056  3111 11055 11056  919 10733 11056  1538 10538 11058  10538 11057 11058  1673 10538 11057  1672 11057 11058  1768 6321 11060  6321 11059 11060  1905 6321 11059  1904 11059 11060  2696 8186 11061  8186 11017 11061  3537 8186 11017  2697 11017 11061  3352 11062 11064  11062 11063 11064  3426 11062 11063  3389 11063 11064  1982 11005 11066  11005 11065 11066  2164 11005 11065  2163 11065 11066  1093 11067 11068  8867 11067 11068  1094 8867 11067  1091 8867 11068  1685 11032 11069  11032 11069 11070  3771 11069 11070  1781 11032 11070  3212 6624 8332  6624 8332 11071  4364 8332 11071  2796 6624 11071  1407 11072 11074  11072 11073 11074  1408 11072 11073  1405 11073 11074  4217 11075 11077  11075 11076 11077  4243 11075 11076  2176 11076 11077  1075 11078 11079  8596 11078 11079  3630 8596 11078  1073 8596 11079  2396 11080 11082  11080 11081 11082  2836 11080 11081  2835 11081 11082  3646 7914 11084  7914 11083 11084  4114 7914 11083  719 11083 11084  1085 11085 11086  9980 11085 11086  1086 9980 11085  1081 9980 11086  1847 11087 11089  11087 11088 11089  1889 11087 11088  1849 11088 11089  1892 11050 11091  11050 11090 11091  1981 11050 11090  1980 11090 11091  1337 8921 11093  8921 11092 11093  1346 8921 11092  1345 11092 11093  1444 11094 11095  10647 11094 11095  3551 10647 11094  1886 10647 11095  2396 11082 11097  11082 11096 11097  2835 11082 11096  2395 11096 11097  1405 11098 11099  8829 11098 11099  3651 8829 11098  1403 8829 11099  3228 7474 11100  7474 8106 11100  3350 8106 11100  3227 7474 8106  2210 5607 9118  5607 9118 11101  3854 5607 11101  2211 9118 11101  1347 11102 11104  11102 11103 11104  1363 11102 11103  1349 11103 11104  2154 9635 11106  9635 11105 11106  2156 9635 11105  2155 11105 11106  3163 8601 11107  8601 10165 11107  4842 10165 11107  1789 8601 10165  1617 11108 11110  11108 11109 11110  3766 11108 11109  1619 11109 11110  2225 8392 11112  8392 11111 11112  3466 8392 11111  2404 11111 11112  1401 11113 11114  8707 11113 11114  1402 8707 11113  1399 8707 11114  2247 9675 11116  9675 11115 11116  2459 9675 11115  2248 11115 11116  1833 6949 11117  6949 8856 11117  3545 6949 8856  1718 8856 11117  2869 5009 11119  5009 11118 11119  4665 5009 11118  4473 11118 11119  279 11120 11121  7700 11120 11121  3699 7700 11120  757 7700 11121  2408 9896 11123  9896 11122 11123  3004 9896 11122  3003 11122 11123  2697 11019 11125  11019 11124 11125  2954 11019 11124  2738 11124 11125  2717 7371 9649  7371 8719 9649  3606 7371 8719  2625 8719 9649  1825 10139 11127  10139 11126 11127  2229 10139 11126  2070 11126 11127  2347 8622 10307  5257 8622 10307  3407 5257 8622  3157 5257 10307  1312 7319 11129  7319 11128 11129  1336 7319 11128  1314 11128 11129  1715 9633 11131  9633 11130 11131  2152 9633 11130  2151 11130 11131  2946 11132 11134  11132 11133 11134  3550 11132 11133  2945 11133 11134  1803 9666 11135  9666 9900 11135  2174 9900 11135  2130 9666 9900  3376 7007 10967  7007 8715 10967  3377 8715 10967  1169 7007 8715  3779 11136 11138  11136 11137 11138  3905 11136 11137  1707 11137 11138  1456 11139 11141  11139 11140 11141  1457 11139 11140  1454 11140 11141  3676 8660 10846  6566 8660 10846  3735 6566 10846  1662 6566 8660  1397 11142 11143  7989 11142 11143  1398 7989 11142  1395 7989 11143  2299 7394 10027  7394 10027 11144  3728 7394 11144  3264 10027 11144  3323 8152 11146  8152 11145 11146  4388 8152 11145  990 11145 11146  2139 9995 11147  9995 10005 11147  2353 10005 11147  2140 9995 10005  1077 11148 11150  11148 11149 11150  1078 11148 11149  1075 11149 11150  1427 11151 11152  8073 11151 11152  3141 8073 11151  1297 8073 11152  1271 11153 11155  11153 11154 11155  1308 11153 11154  1307 11154 11155  792 6617 11156  6617 11156 11157  4194 11156 11157  3158 6617 11157  1767 11158 11159  9838 11158 11159  1856 9838 11158  1766 9838 11159  1925 7256 9558  7256 9558 9885  2994 7256 9885  2282 9558 9885  3543 6959 11160  6959 11160 11161  4651 11160 11161  1546 6959 11161  2199 11162 11164  11162 11163 11164  2200 11162 11163  2091 11163 11164  2353 10004 11165  7660 10004 11165  3364 7660 11165  3363 7660 10004  2108 11166 11168  11166 11167 11168  3772 11166 11167  2894 11167 11168  1996 10333 11169  9997 10333 11169  2139 9997 11169  1997 9997 10333  2693 7789 9618  7789 9618 11170  3476 7789 11170  2715 9618 11170  1395 7988 11172  7988 11171 11172  3536 7988 11171  1394 11171 11172  1977 10936 11173  10936 11097 11173  2396 11097 11173  2395 10936 11097  2589 10776 11175  10776 11174 11175  3693 10776 11174  3123 11174 11175  2398 11176 11178  11176 11177 11178  3771 11176 11177  1978 11177 11178  1658 9463 11179  9463 9864 11179  1898 9864 11179  1897 9463 9864  1999 9638 11181  9638 11180 11181  2203 9638 11180  2110 11180 11181  3291 9213 11182  9213 11182 11183  4111 11182 11183  3290 9213 11183  45 11184 11185  6165 11184 11185  3629 6165 11184  686 6165 11185  4604 11186 11188  11186 11187 11188  4674 11186 11187  3988 11187 11188  2233 9723 11189  7797 9723 11189  3402 7797 11189  1861 7797 9723  2691 9380 11190  9380 11190 11191  3471 11190 11191  2690 9380 11191  2174 9898 11192  9898 11192 11193  2290 11192 11193  2289 9898 11193  3450 10337 11194  7036 10337 11194  3455 7036 11194  3448 7036 10337  1264 7242 11196  7242 11195 11196  1270 7242 11195  1266 11195 11196  2630 7850 11198  7850 11197 11198  2648 7850 11197  2632 11197 11198  2270 11199 11200  10295 11199 11200  2271 10295 11199  2026 10295 11200  2337 10175 11202  10175 11201 11202  3048 10175 11201  2338 11201 11202  3591 7852 11203  7852 11203 11204  4610 11203 11204  3538 7852 11204  3944 7154 11205  7154 11205 11206  4683 11205 11206  2466 7154 11206  2841 8709 11208  8709 11207 11208  3673 8709 11207  1876 11207 11208  3496 10933 11209  10933 11209 11210  4589 11209 11210  1731 10933 11210  3478 6391 8841  6391 8841 11211  3922 6391 11211  1618 8841 11211  2200 11163 11212  8198 11163 11212  3324 8198 11212  2091 8198 11163  1457 11140 11213  8191 11140 11213  3322 8191 11213  1454 8191 11140  2083 7694 11215  7694 11214 11215  3000 7694 11214  2366 11214 11215  1064 10524 11216  7645 10524 11216  3335 7645 11216  1061 7645 10524  1071 11217 11218  10075 11217 11218  1072 10075 11217  1069 10075 11218  1822 10470 10531  10470 10531 11219  2041 10470 11219  1769 10531 11219  1258 8156 11221  8156 11220 11221  1263 8156 11220  1260 11220 11221  2258 7829 11222  7829 11222 11223  4021 11222 11223  3623 7829 11223  1362 11224 11225  11152 11224 11225  1427 11152 11224  1297 11152 11225  1393 11226 11227  9949 11226 11227  1394 9949 11226  1391 9949 11227  3389 8368 11228  8368 11228 11229  3804 11228 11229  2254 8368 11229  1936 11230 11231  10198 11230 11231  3719 10198 11230  1627 10198 11231  3005 11232 11233  6527 11232 11233  3749 6527 11232  3748 6527 11233  2994 5234 9883  5234 9883 9972  2996 5234 9972  2995 9883 9972  2910 11234 11236  11234 11235 11236  3075 11234 11235  2052 11235 11236  1192 7110 11238  7110 11237 11238  2204 7110 11237  1168 11237 11238  1998 11239 11241  11239 11240 11241  2337 11239 11240  2082 11240 11241  2008 6975 11243  6975 11242 11243  4044 6975 11242  2453 11242 11243  1248 8225 11245  8225 11244 11245  3398 8225 11244  1251 11244 11245  888 10390 11246  7631 10390 11246  3120 7631 11246  885 7631 10390  976 7673 10738  7673 10738 11247  3477 7673 11247  981 10738 11247  2175 11248 11249  9780 11248 11249  2305 9780 11248  2034 9780 11249  859 6416 9178  6416 9178 11250  4026 6416 11250  857 9178 11250  801 11251 11252  7903 11251 11252  803 7903 11251  799 7903 11252  2228 7155 9494  5497 7155 9494  3217 5497 7155  3216 5497 9494  2595 11253 11255  11253 11254 11255  2623 11253 11254  2599 11254 11255  2193 11256 11258  11256 11257 11258  4259 11256 11257  3763 11257 11258  1637 10601 11260  10601 11259 11260  2066 10601 11259  1806 11259 11260  1248 11245 11262  11245 11261 11262  1251 11245 11261  1250 11261 11262  2658 5410 11263  5410 5545 11263  4189 5545 11263  3453 5410 5545  898 10366 11264  7655 10366 11264  3153 7655 11264  895 7655 10366  2203 8700 11266  8700 11265 11266  2492 8700 11265  2491 11265 11266  1694 10568 11267  8559 10568 11267  1787 8559 11267  1786 8559 10568  3618 7458 11268  7458 11268 11269  4588 11268 11269  4219 7458 11269  3409 9805 11270  9805 10263 11270  3592 10263 11270  3411 9805 10263  3409 9807 11272  9807 11271 11272  3410 9807 11271  733 11271 11272  1898 9862 11273  9862 9904 11273  2020 9904 11273  2004 9862 9904  776 11274 11275  6237 11274 11275  4632 6237 11274  3294 6237 11275  877 8657 11055  8657 11055 11276  3112 8657 11276  3111 11055 11276  2928 6088 11277  6088 11277 11278  4714 11277 11278  3556 6088 11278  908 10395 11279  7671 10395 11279  3582 7671 11279  905 7671 10395  2244 9539 11280  7606 9539 11280  3434 7606 11280  2000 7606 9539  2020 9902 11281  9902 11281 11282  2468 11281 11282  2462 9902 11282  1666 10475 11283  9967 10475 11283  1668 9967 11283  1667 9967 10475  1678 6835 9835  6835 9835 9979  3369 6835 9979  1086 9835 9979  2777 9345 11284  9345 11284 11285  3210 11284 11285  2776 9345 11285  2190 9410 11286  9410 11286 11287  3057 11286 11287  3019 9410 11287  1686 10685 11288  10634 10685 11288  1893 10634 11288  1827 10634 10685  2853 11289 11291  11289 11290 11291  2904 11289 11290  2855 11290 11291  3426 8081 11063  8081 11063 11228  3804 8081 11228  3389 11063 11228  3181 7204 8875  7204 8875 11292  3184 7204 11292  3183 8875 11292  3811 7159 11293  7159 11293 11294  4273 11293 11294  681 7159 11294  2037 11295 11296  9872 11295 11296  2038 9872 11295  1907 9872 11296  3782 8100 11298  8100 11297 11298  4522 8100 11297  1027 11297 11298  2589 11175 11300  11175 11299 11300  3123 11175 11299  3122 11299 11300  1244 11301 11303  11301 11302 11303  1247 11301 11302  1246 11302 11303  3372 7433 11304  7433 11304 11305  3815 11304 11305  2897 7433 11305  3008 9000 11306  5102 9000 11306  3470 5102 11306  3007 5102 9000  1565 7999 9256  7999 9256 9892  1569 7999 9892  1567 9256 9892  1283 11307 11309  11307 11308 11309  1807 11307 11308  1330 11308 11309  2108 10828 11310  10828 11310 11311  2893 11310 11311  2400 10828 11311  2388 10011 11313  10011 11312 11313  2410 10011 11312  2390 11312 11313  812 10762 11314  10762 10856 11314  813 10762 10856  811 10856 11314  3131 11315 11317  11315 11316 11317  3132 11315 11316  3130 11316 11317  2133 7217 9281  7217 8358 9281  3074 7217 8358  2921 8358 9281  1465 10404 11318  9933 10404 11318  1530 9933 11318  1529 9933 10404  3732 10991 11319  10991 11319 11320  4515 11319 11320  2360 10991 11320  700 5318 11321  5318 11321 11322  3149 11321 11322  3148 5318 11322  2823 11323 11325  11323 11324 11325  3561 11323 11324  2826 11324 11325  1096 10197 11327  10197 11326 11327  1146 10197 11326  1128 11326 11327  1006 9192 11328  8265 9192 11328  1794 8265 9192  1018 8265 11328  1243 8257 11330  8257 11329 11330  3610 8257 11329  1244 11329 11330  1238 8269 11332  8269 11331 11332  1241 8269 11331  1240 11331 11332  1446 10518 11333  10518 11333 11334  1448 11333 11334  1447 10518 11334  2400 10752 10829  10752 10829 11335  2401 10752 11335  2042 10829 11335  3527 10320 11336  7618 10320 11336  3715 7618 11336  3525 7618 10320  3463 8248 11337  5536 8248 11337  4578 5536 11337  2988 5536 8248  1004 7853 11338  7853 9190 11338  3538 7853 9190  1006 9190 11338  1998 7964 11239  7964 11239 11339  3741 7964 11339  2337 11239 11339  2841 8514 11340  6839 8514 11340  4518 6839 11340  3675 6839 8514  1752 6830 11342  6830 11341 11342  1757 6830 11341  1756 11341 11342  3146 10835 11344  10835 11343 11344  4591 10835 11343  4183 11343 11344  2168 7364 11346  7364 11345 11346  2387 7364 11345  2384 11345 11346  768 5265 11347  5265 11347 11348  3860 11347 11348  3321 5265 11348  2116 11349 11350  8685 11349 11350  2223 8685 11349  2115 8685 11350  3233 8806 9425  6557 8806 9425  4687 6557 8806  3234 6557 9425  3247 11351 11353  11351 11352 11353  4782 11351 11352  4698 11352 11353  2747 11354 11355  9804 11354 11355  2749 9804 11354  2745 9804 11355  1271 8259 11153  8259 11153 11356  3328 8259 11356  1308 11153 11356  1425 11357 11358  7900 11357 11358  3686 7900 11357  1424 7900 11358  1640 11052 11360  11052 11359 11360  1859 11052 11359  1858 11359 11360  3692 7527 11361  7527 11361 11362  4184 11361 11362  4015 7527 11362  3537 11018 11363  11018 11363 11364  4533 11363 11364  2954 11018 11364  3182 9834 11365  7710 9834 11365  3187 7710 9834  3185 7710 11365  2103 11366 11367  9861 11366 11367  2280 9861 11366  2101 9861 11367  1822 10468 11368  10468 10830 11368  2108 10830 11368  2042 10468 10830  1559 11369 11370  6320 11369 11370  4207 6320 11369  1768 6320 11370  693 5737 11371  5737 11371 11372  4250 11371 11372  3118 5737 11372  46 47 11373  46 11184 11373  3629 11184 11373  45 46 11184  1339 10497 11374  9930 10497 11374  1341 9930 11374  1340 9930 10497  2137 9876 11375  9876 9888 11375  2916 9888 11375  2299 9876 9888  2464 11376 11378  11376 11377 11378  2968 11376 11377  2105 11377 11378  1244 11301 11329  7871 11301 11329  3610 7871 11329  1247 7871 11301  2099 8366 11380  8366 11379 11380  2308 8366 11379  2097 11379 11380  2211 9119 9874  9119 9874 11381  2391 9874 11381  2209 9119 11381  283 11382 11383  7635 11382 11383  3714 7635 11382  707 7635 11383  815 10033 11385  10033 11384 11385  817 10033 11384  816 11384 11385  1966 9914 11386  9878 9914 11386  2137 9878 11386  2023 9878 9914  1913 11387 11388  7693 11387 11388  3564 7693 11387  2083 7693 11388  2068 7897 11390  7897 11389 11390  2979 7897 11389  2978 11389 11390  1708 10532 10840  10532 10840 11391  1769 10532 11391  1675 10840 11391  3372 7296 11392  7296 11392 11393  3490 11392 11393  806 7296 11393  2109 7557 9179  7557 9179 11394  2475 7557 11394  2474 9179 11394  2735 11395 11396  10827 11395 11396  2736 10827 11395  2660 10827 11396  995 10437 11397  10437 11146 11397  3323 11146 11397  990 10437 11146  1418 10184 11398  10184 11398 11399  3393 11398 11399  1416 10184 11399  2011 11016 11401  11016 11400 11401  2014 11016 11400  2013 11400 11401  1280 10462 11402  9931 10462 11402  1325 9931 11402  1324 9931 10462  3042 6107 11403  6107 9969 11403  3078 6107 9969  2447 9969 11403  2446 11404 11405  10996 11404 11405  2447 10996 11404  2223 10996 11405  2395 10937 11406  10937 11406 11407  2397 11406 11407  1978 10937 11407  2093 7182 11408  7182 9942 11408  2231 7182 9942  1918 9942 11408  1569 9890 11409  9890 9955 11409  1700 9955 11409  1699 9890 9955  3333 5472 8679  5472 8625 8679  3829 5472 8625  2296 8625 8679  1122 11410 11411  8698 11410 11411  3703 8698 11410  1121 8698 11411  3735 10845 11412  4972 10845 11412  4233 4972 10845  3039 4972 11412  3886 11413 11414  10332 11413 11414  4607 10332 11413  4101 10332 11414  3583 11415 11417  11415 11416 11417  3586 11415 11416  3584 11416 11417  2849 5826 11418  5826 11418 11419  4634 11418 11419  3574 5826 11419  2757 8858 10443  6449 8858 10443  3628 6449 8858  2817 6449 10443  1885 10584 11420  10562 10584 11420  2215 10562 11420  2214 10562 10584  1700 9953 11421  8262 9953 11421  1851 8262 11421  1850 8262 9953  1257 11422 11423  8155 11422 11423  3341 8155 11422  1258 8155 11423  2840 11424 11425  11208 11424 11425  2841 11208 11424  1876 11208 11425  1581 9960 11426  9920 9960 11426  1762 9920 11426  1761 9920 9960  1237 11427 11428  8268 11427 11428  3520 8268 11427  1238 8268 11428  2979 6470 11429  5488 6470 11429  3541 5488 6470  2980 5488 11429  1977 10633 10938  10633 10938 11430  1978 10938 11430  1827 10633 11430  1273 10545 11431  10545 11431 11432  1278 11431 11432  1277 10545 11432  840 11433 11435  11433 11434 11435  4182 11433 11434  4159 11434 11435  3583 11417 11437  11417 11436 11437  3584 11417 11436  2684 11436 11437  3572 10138 11438  8044 10138 11438  4693 8044 11438  2229 8044 10138  1547 10874 11439  10687 10874 11439  1686 10687 11439  1685 10687 10874  2451 9985 11440  6886 9985 11440  3244 6886 11440  2503 6886 9985  1822 11368 11441  11166 11368 11441  3772 11166 11441  2108 11166 11368  983 9768 11442  9768 11188 11442  4604 9768 11188  3988 11188 11442  3262 7512 8116  7512 8116 9792  3263 7512 9792  2167 8116 9792  3405 7588 11443  7588 11443 11444  4728 11443 11444  2946 7588 11444  1722 9068 11445  9068 10002 11445  2007 10002 11445  2006 9068 10002  1831 10560 11447  10560 11446 11447  3752 10560 11446  2262 11446 11447  1910 10574 11448  9978 10574 11448  2189 9978 11448  1993 9978 10574  3888 11449 11451  11449 11450 11451  4193 11449 11450  778 11450 11451  1803 11135 11452  11135 11452 11453  3792 11452 11453  2174 11135 11453  2241 11454 11455  10722 11454 11455  2242 10722 11454  2226 10722 11455  4463 11456 11458  11456 11457 11458  4831 11456 11457  2348 11457 11458  2027 11459 11461  11459 11460 11461  2950 11459 11460  2058 11460 11461  1206 10648 11462  10648 11462 11463  1208 11462 11463  1207 10648 11463  1793 10579 11464  9916 10579 11464  1966 9916 11464  1809 9916 10579  3136 10815 11466  10815 11465 11466  4898 10815 11465  2968 11465 11466  1813 10244 11468  10244 11467 11468  1815 10244 11467  1814 11467 11468  2418 11469 11471  11469 11470 11471  2961 11469 11470  2420 11470 11471  2504 11472 11473  4989 11472 11473  4643 4989 11472  2506 4989 11473  1293 10339 11474  9568 10339 11474  3570 9568 11474  1292 9568 10339  2766 8873 10605  8873 10605 11475  3653 8873 11475  3482 10605 11475  3188 7449 11008  7449 7625 11008  3189 7625 11008  3186 7449 7625  2270 11476 11477  5204 11476 11477  3713 5204 11476  3338 5204 11477  2360 11478 11479  11230 11478 11479  3719 11230 11478  1936 11230 11479  2204 11237 11480  8376 11237 11480  3347 8376 11480  1168 8376 11237  1978 11177 11430  11177 11430 11481  3771 11177 11481  1827 11430 11481  1490 11482 11484  11482 11483 11484  1813 11482 11483  1812 11483 11484  2174 11453 11485  7057 11453 11485  3792 7057 11453  3154 7057 11485  3391 5941 8325  5941 8325 8783  3702 5941 8783  1650 8325 8783  1347 8303 11102  8303 11102 11486  3337 8303 11486  1363 11102 11486  3356 8404 11487  8404 11487 11488  3359 11487 11488  3358 8404 11488  1184 10660 11489  9984 10660 11489  1197 9984 11489  1196 9984 10660  1556 8205 11491  8205 11490 11491  4542 8205 11490  4342 11490 11491  2986 11492 11493  10006 11492 11493  2987 10006 11492  2242 10006 11493  1510 10611 11494  9962 10611 11494  1581 9962 11494  1580 9962 10611  1837 9271 10060  9271 10060 11495  1921 10060 11495  1835 9271 11495  2628 11496 11497  7849 11496 11497  3568 7849 11496  2630 7849 11497  1777 9782 11499  9782 11498 11499  1838 9782 11498  1778 11498 11499  1450 10348 11500  10348 10876 11500  1547 10876 11500  1504 10348 10876  2918 9739 11501  8270 9739 11501  2919 8270 11501  2147 8270 9739  1568 9809 11503  9809 11502 11503  1571 9809 11502  1570 11502 11503  1713 8851 11505  8851 11504 11505  1777 8851 11504  1714 11504 11505  2170 9563 11506  5337 9563 11506  3087 5337 9563  3086 5337 11506  183 8434 11507  8434 11270 11507  3592 8434 11270  3409 11270 11507  2157 8369 11509  8369 11508 11509  2254 8369 11508  2196 11508 11509  3608 9848 11511  9848 11510 11511  3609 9848 11510  2873 11510 11511  4461 7622 11512  7622 11512 11513  4857 11512 11513  3049 7622 11513  1078 8803 11149  8803 11078 11149  3630 8803 11078  1075 11078 11149  3114 5591 5915  5591 5915 11514  4284 5591 11514  2383 5915 11514  4273 11294 11515  11294 11515 11516  4377 11515 11516  681 11294 11516  2250 9216 11002  9216 11002 11517  3193 11002 11517  3027 9216 11517  2947 9547 11518  7916 9547 11518  4566 7916 11518  2489 7916 9547  3012 11519 11520  6791 11519 11520  3637 6791 11519  3015 6791 11520  3408 11521 11523  11521 11522 11523  3724 11521 11522  716 11522 11523  2380 10701 11524  9987 10701 11524  2451 9987 11524  2450 9987 10701  1717 9077 11525  9077 10082 11525  1990 10082 11525  1989 9077 10082  1448 11334 11526  7749 11334 11526  3745 7749 11526  1447 7749 11334  1301 9253 11527  9225 9253 11527  3694 9225 11527  1302 9225 9253  1172 10694 11528  8234 10694 11528  1182 8234 11528  1181 8234 10694  2772 8884 10703  8884 10703 11529  3669 8884 11529  3231 10703 11529  1711 9801 11531  9801 11530 11531  1713 9801 11530  1712 11530 11531  3018 8961 11532  8961 11532 11533  3242 11532 11533  3241 8961 11533  2484 6753 11534  6308 6753 11534  4368 6308 6753  2485 6308 11534  736 7551 7872  7551 7872 11535  3033 7551 11535  798 7872 11535  1352 10020 11536  10020 10349 11536  1450 10349 11536  1449 10020 10349  193 11537 11538  11523 11537 11538  3408 11523 11537  716 11523 11538  4458 10804 11539  8705 10804 11539  4730 8705 11539  1402 8705 10804  2512 8094 9614  7587 8094 9614  3094 7587 8094  2111 7587 9614  3270 8146 10467  8146 10467 11540  3272 10467 11540  2128 8146 11540  1506 10725 11541  10725 11541 11542  1508 11541 11542  1507 10725 11542  4162 6596 11543  6596 11543 11544  4163 11543 11544  2459 6596 11544  3465 11545 11546  5669 11545 11546  4685 5669 11545  3101 5669 11546  181 11547 11548  11272 11547 11548  3409 11272 11547  733 11272 11548  3072 7534 11549  7534 11549 11550  4889 11549 11550  2479 7534 11550  225 11551 11553  11551 11552 11553  3413 11551 11552  687 11552 11553  3648 9375 11554  7420 9375 11554  4262 7420 11554  3649 7420 9375  2007 10001 11555  10001 10031 11555  2135 10031 11555  2134 10001 10031  3642 7518 11557  7518 11556 11557  3643 7518 11556  714 11556 11557  2220 7801 9142  7801 9142 11558  3118 7801 11558  3117 9142 11558  3196 7350 8165  7350 8165 11559  3773 8165 11559  3197 7350 11559  3959 7984 11560  5819 7984 11560  4364 5819 7984  1596 5819 11560  1682 7337 11562  7337 11561 11562  1704 7337 11561  1683 11561 11562  2372 10711 11563  10711 11563 11564  2374 11563 11564  2373 10711 11564  3746 10265 11566  10265 11565 11566  3813 10265 11565  3569 11565 11566  1165 10747 11567  7092 10747 11567  1170 7092 11567  1169 7092 10747  3413 7910 11552  7910 11552 11568  3414 7910 11568  687 11552 11568  2000 7608 9544  7608 8150 9544  2172 7608 8150  1772 8150 9544  1719 9265 10121  9265 10121 11569  1720 10121 11569  1655 9265 11569  1571 8909 11571  8909 11570 11571  1573 8909 11570  1572 11570 11571  3004 11122 11572  11122 11572 11573  3005 11572 11573  3003 11122 11573  1763 6253 10008  6253 10008 11574  4156 6253 11574  1580 10008 11574  1573 9827 11576  9827 11575 11576  1682 9827 11575  1574 11575 11576  1922 10026 10059  10026 10059 11577  2208 10026 11577  1921 10059 11577  757 7702 11579  7702 11578 11579  3691 7702 11578  3690 11578 11579  3012 8980 11520  8980 10091 11520  3015 10091 11520  3014 8980 10091  1444 9247 11095  9247 10128 11095  1886 10128 11095  1689 9247 10128  1140 10067 11580  10067 10070 11580  1154 10070 11580  1153 10067 10070  939 11581 11582  7851 11581 11582  3591 7851 11581  1004 7851 11582  1408 8834 11073  8834 11073 11098  3651 8834 11098  1405 11073 11098  1131 10105 11583  10068 10105 11583  1140 10068 11583  1139 10068 10105  2407 10571 10596  10571 10596 11584  2408 10571 11584  2165 10596 11584  1443 10736 11585  10311 10736 11585  1469 10311 11585  1468 10311 10736  2359 5273 11586  5273 11479 11586  2360 5273 11479  1936 11479 11586  2681 11587 11588  11437 11587 11588  3583 11437 11587  2684 11437 11588  2144 6958 9490  6958 9490 11427  3520 6958 11427  1237 9490 11427  2807 7444 11589  7444 8609 11589  4071 8609 11589  3635 7444 8609  1651 9202 10118  9202 10118 11590  1652 10118 11590  1583 9202 11590  2153 7796 9151  7796 9151 10164  2169 7796 10164  2158 9151 10164  1196 10661 11591  8233 10661 11591  3373 8233 11591  1182 8233 10661  287 11592 11594  11592 11593 11594  3718 11592 11593  759 11593 11594  1525 11595 11597  11595 11596 11597  1998 11595 11596  1930 11596 11597  1847 8383 11087  8383 11087 11598  3221 8383 11598  1889 11087 11598  1605 10754 10841  10754 10841 11599  1675 10841 11599  1500 10754 11599  2298 10853 11600  10309 10853 11600  2370 10309 11600  2369 10309 10853  3375 7006 7935  7006 7935 11601  3937 7935 11601  3376 7006 11601  235 11602 11604  11602 11603 11604  3418 11602 11603  677 11603 11604  2369 8447 10083  8447 10083 11605  3726 8447 11605  3463 10083 11605  1981 11054 11090  11054 11090 11606  1982 11054 11606  1980 11090 11606  1161 10930 11607  7125 10930 11607  1163 7125 11607  1162 7125 10930  2902 11608 11609  8681 11608 11609  3604 8681 11608  2769 8681 11609  3198 6788 8468  6788 8468 10288  3316 6788 10288  960 8468 10288  3418 11603 11610  11603 11610 11611  3419 11610 11611  677 11603 11611  2569 9520 11612  9520 11612 11613  4724 11612 11613  3939 9520 11613  2164 10597 11065  5784 10597 11065  2165 5784 10597  2163 5784 11065  1499 10147 10755  10147 10755 11614  1500 10755 11614  1430 10147 11614  3578 6926 11025  6926 8931 11025  3611 6926 8931  1657 8931 11025  1438 10917 11615  10316 10917 11615  1441 10316 11615  1440 10316 10917  1487 9044 10162  9044 10162 11616  1488 10162 11616  1357 9044 11616  2141 8091 9139  8091 9139 10195  3068 8091 10195  2143 9139 10195  1736 11617 11618  7895 11617 11618  3596 7895 11617  2068 7895 11618  3471 6870 11191  6870 11191 11619  3472 6870 11619  2690 11191 11619  1846 8384 10302  8384 10302 11620  1847 8384 11620  1698 10302 11620  1993 10575 11621  8261 10575 11621  3121 8261 11621  1851 8261 10575  194 195 11622  194 11537 11622  3408 11537 11622  193 194 11537  3469 6326 11623  6326 11623 11624  4277 11623 11624  765 6326 11624  1721 10112 10120  10112 10120 11625  1834 10112 11625  1720 10120 11625  1658 11179 11626  11179 11626 11627  3806 11626 11627  1898 11179 11627  1106 7714 11629  7714 11628 11629  3790 7714 11628  1105 11628 11629  1990 10081 11630  10081 10130 11630  2118 10130 11630  2089 10081 10130  192 193 11538  192 11538 11631  716 11538 11631  191 192 11631  116 117 11632  116 9473 11632  717 9473 11632  115 116 9473  206 207 11633  206 8415 11633  709 8415 11633  205 206 8415  102 103 8413  102 8413 11634  710 8413 11634  101 102 11634  180 181 11548  180 6367 11548  733 6367 11548  179 180 6367  182 183 11507  182 11507 11547  3409 11507 11547  181 182 11547  128 129 11635  128 11635 11636  735 11635 11636  127 128 11636  186 187 11637  186 8279 11637  729 8279 11637  185 186 8279  122 123 11638  122 11638 11639  731 11638 11639  121 122 11639  198 199 11640  198 8403 11640  712 8403 11640  197 198 8403  110 111 11641  110 11641 11642  714 11641 11642  109 110 11642  202 203 11643  202 8410 11643  741 8410 11643  201 202 8410  106 107 8407  106 8407 11644  742 8407 11644  105 106 11644  210 211 11645  210 8418 11645  743 8418 11645  209 210 8418  214 215 11646  214 8421 11646  698 8421 11646  213 214 8421  98 99 11647  98 11647 11648  744 11647 11648  97 98 11648  94 95 11649  94 7894 11649  700 7894 11649  93 94 7894  90 91 6888  90 6888 11650  745 6888 11650  89 90 11650  86 87 11651  86 10304 11651  695 10304 11651  85 86 10304  220 221 11652  220 11652 11653  746 11652 11653  219 220 11653  224 225 11553  224 8424 11553  687 8424 11553  223 224 8424  1267 10608 11654  10608 10698 11654  1315 10698 11654  1268 10608 10698  2313 7555 11656  7555 11655 11656  2958 7555 11655  2351 11655 11656  2677 11657 11659  11657 11658 11659  4106 11657 11658  4058 11658 11659  4035 10124 11660  7068 10124 11660  4698 7068 10124  3266 7068 11660  226 227 11661  226 11551 11661  3413 11551 11661  225 226 11551  2118 10129 11662  10129 11003 11662  2476 11003 11662  2250 10129 11003  3706 11663 11664  8861 11663 11664  4702 8861 11663  3132 8861 11664  2978 11665 11667  11665 11666 11667  4666 11665 11666  4652 11666 11667  1975 9448 10290  9448 10290 11668  1976 10290 11668  1701 9448 11668  1186 10582 11669  10582 10610 11669  1267 10610 11669  1190 10582 10610  1124 10942 11670  10107 10942 11670  1131 10107 11670  1130 10107 10942  2159 11671 11672  11511 11671 11672  3608 11511 11671  2873 11511 11672  80 81 8185  80 8185 11673  747 8185 11673  79 80 11673  2830 9382 11674  9382 10236 11674  3281 10236 11674  3280 9382 10236  230 231 8689  230 8455 8689  748 8455 8689  229 230 8455  2788 8994 11675  8994 11675 11676  2795 11675 11676  2790 8994 11676  2792 8433 8999  8433 8999 10180  3009 8433 10180  3008 8999 10180  3079 9968 11677  9968 10995 11677  3430 10995 11677  2447 9968 10995  2942 9109 10214  6556 9109 10214  2943 6556 10214  2178 6556 9109  3757 11678 11680  11678 11679 11680  3838 11678 11679  1690 11679 11680  3062 6653 9063  6653 8067 9063  3064 6653 8067  2718 8067 9063  1432 10945 11681  10093 10945 11681  1434 10093 11681  1433 10093 10945  2788 11675 11682  11675 11682 11683  3655 11682 11683  2795 11675 11683  3631 11684 11685  7908 11684 11685  3635 7908 11684  3413 7908 11685  814 10240 11686  10240 11686 11687  3685 11686 11687  815 10240 11687  3836 8618 10286  8618 10286 11688  3837 10286 11688  2253 8618 11688  236 237 11689  236 11602 11689  3418 11602 11689  235 236 11602  1315 10696 11690  10696 10742 11690  1351 10742 11690  1317 10696 10742  1173 10652 11691  10583 10652 11691  1186 10583 11691  1175 10583 10652  2097 11692 11693  8830 11692 11693  3788 8830 11692  2094 8830 11693  76 77 8472  76 8472 11694  676 8472 11694  75 76 11694  1417 10183 11695  10158 10183 11695  1419 10158 11695  1418 10158 10183  234 235 11604  234 11604 11696  677 11604 11696  233 234 11696  1537 10283 10960  10283 10960 11697  1538 10960 11697  1364 10283 11697  3617 9817 11698  9817 11698 11699  4758 11698 11699  2782 9817 11699  1528 9640 11700  9640 11700 11701  3940 11700 11701  3572 9640 11701  2712 11702 11703  6008 11702 11703  4085 6008 11702  3452 6008 11703  2795 11676 11704  8832 11676 11704  3636 8832 11704  2790 8832 11676  1653 10117 11705  10117 11705 11706  1783 11705 11706  1652 10117 11706  2635 11707 11708  7930 11707 11708  4001 7930 11707  2591 7930 11708  2492 10261 11709  5668 10261 11709  3742 5668 10261  3021 5668 11709  1394 9405 11171  7252 9405 11171  3536 7252 11171  3535 7252 9405  2942 10212 11710  10212 11710 11711  4705 11710 11711  2944 10212 11711  70 71 6079  70 6079 6875  718 6079 6875  69 70 6875  3169 6575 8643  6575 8643 11712  4622 8643 11712  2668 6575 11712  1697 10303 11044  10303 11044 11713  1698 10303 11713  1696 11044 11713  1899 9938 11715  9938 11714 11715  1934 9938 11714  1900 11714 11715  1333 9242 10225  9242 10225 11716  1334 10225 11716  1319 9242 11716  1120 10970 11717  10970 11411 11717  1122 11411 11717  1121 10970 11411  848 7153 8949  7153 8949 11718  1116 7153 11718  850 8949 11718  842 8958 11719  8958 10206 11719  1166 10206 11719  844 8958 10206  240 241 11720  240 8506 11720  749 8506 11720  239 240 8506  854 8964 11721  8964 11721 11722  1021 11721 11722  856 8964 11722  1095 10207 11723  10207 11629 11723  1106 11629 11723  1105 10207 11629  2823 9364 11325  9364 10282 11325  2826 10282 11325  2825 9364 10282  832 8503 9002  8503 9002 11724  1494 8503 11724  834 9002 11724  3175 5842 8801  5842 7016 8801  3340 7016 8801  3179 5842 7016  810 11725 11726  11314 11725 11726  812 11314 11725  811 11314 11726  3015 7030 10090  7030 10090 11727  3238 7030 11727  3016 10090 11727  1132 10566 11728  10566 10623 11728  1142 10623 11728  1137 10566 10623  836 8484 8975  8484 8975 11729  1289 8484 11729  838 8975 11729  1889 10345 11088  10345 11088 11730  1890 10345 11730  1849 11088 11730  1423 10997 11731  10997 11358 11731  1425 11358 11731  1424 10997 11358  2771 8284 9018  8284 9018 10220  2785 8284 10220  2773 9018 10220  2425 6457 9576  6457 9576 11732  4108 6457 11732  2005 9576 11732  3810 11733 11734  6526 11733 11734  3908 6526 11733  3749 6526 11734  1433 8924 10946  8924 10946 11357  3686 8924 11357  1425 10946 11357  1302 9254 10255  9254 10255 11735  1318 10255 11735  1300 9254 11735  1673 7920 11057  7920 11057 11736  1674 7920 11736  1672 11057 11736  2169 10163 11737  7261 10163 11737  2999 7261 11737  2998 7261 10163  64 65 8128  64 8128 10628  682 8128 10628  63 64 10628  874 9126 11738  9126 10272 11738  878 10272 11738  876 9126 10272  195 8730 11622  8730 11622 11739  3617 8730 11739  3408 11622 11739  1142 10622 11740  10622 10653 11740  1173 10653 11740  1143 10622 10653  244 245 7160  244 7160 8557  681 7160 8557  243 244 8557  3570 9569 11741  5398 9569 11741  3571 5398 11741  3563 5398 9569  111 11641 11742  11557 11641 11742  3642 11557 11742  714 11557 11641  1409 10215 11743  10215 11094 11743  3551 11094 11743  1444 10215 11094  3588 6939 10941  6939 10941 11744  4905 10941 11744  2302 6939 11744  828 9038 11745  9038 11745 11746  1367 11745 11746  830 9038 11746  3500 6970 11748  6970 11747 11748  4038 6970 11747  3831 11747 11748  1476 7867 9184  7867 9184 10298  1816 7867 10298  1758 9184 10298  750 11749 11751  11749 11750 11751  3657 11749 11750  3656 11750 11751  714 11642 11752  8733 11642 11752  3620 8733 11752  109 8733 11642  199 8734 11640  8734 11640 11753  3619 8734 11753  712 11640 11753  742 11644 11754  8735 11644 11754  3622 8735 11754  105 8735 11644  203 8736 11643  8736 11643 11755  3621 8736 11755  741 11643 11755  207 8737 11633  8737 11633 11756  3624 8737 11756  709 11633 11756  211 8740 11645  8740 11645 11757  3625 8740 11757  743 11645 11757  1125 9705 10682  9705 10682 11758  1126 10682 11758  1112 9705 11758  221 8741 11652  8741 11652 11759  3626 8741 11759  746 11652 11759  868 6854 9145  6854 9145 10273  1303 6854 10273  870 9145 10273  2397 7699 11761  7699 11760 11761  2966 7699 11760  2398 11760 11761  1751 11762 11763  6828 11762 11763  4179 6828 11762  1752 6828 11763  1117 10625 11764  10567 10625 11764  1132 10567 11764  1127 10567 10625  2262 11765 11767  11765 11766 11767  3751 11765 11766  3750 11766 11767  58 59 8287  58 8287 11768  750 8287 11768  57 58 11768  2273 11020 11769  11020 11769 11770  2301 11769 11770  2300 11020 11770  232 233 11771  232 8688 11771  3668 8688 11771  231 232 8688  3210 5423 11285  5423 11285 11772  3211 5423 11772  2776 11285 11772  3481 11773 11774  6353 11773 11774  3483 6353 11773  2775 6353 11774  4286 9631 11776  9631 11775 11776  4525 9631 11775  3494 11775 11776  1329 10861 10975  10861 10975 11777  1429 10975 11777  1328 10861 11777  862 9101 11778  9101 10267 11778  928 10267 11778  864 9101 10267  125 11779 11780  11545 11779 11780  4685 11545 11779  3465 11545 11780  3593 5412 10262  5412 10262 11781  3594 5412 11781  3411 10262 11781  1109 11011 11782  10403 11011 11782  1115 10403 11782  1114 10403 11011  1363 10284 11103  10284 11103 11783  1364 10284 11783  1349 11103 11783  912 10432 11784  7340 10432 11784  3784 7340 11784  910 7340 10432  256 257 10052  256 10052 11785  3429 10052 11785  255 256 11785  1276 10862 10863  10862 10863 11786  1328 10862 11786  1274 10863 11786  1898 11627 11787  6266 11627 11787  3806 6266 11627  2166 6266 11787  250 251 11788  250 11788 11789  751 11788 11789  249 250 11789  2764 11790 11791  11774 11790 11791  3481 11774 11790  2775 11774 11791  1028 10487 11792  10487 10536 11792  1083 10536 11792  1082 10487 10536  1489 10161 10182  10161 10182 11793  1582 10182 11793  1488 10161 11793  1691 9422 10484  7813 9422 10484  1692 7813 10484  1544 7813 9422  1042 9199 11794  9199 10323 11794  1045 10323 11794  1044 9199 10323  858 8566 9087  8566 9087 11795  1495 8566 11795  860 9087 11795  1104 10563 11796  10563 10627 11796  1117 10627 11796  1110 10563 10627  227 8754 11661  8754 11661 11685  3631 8754 11685  3413 11661 11685  1089 10221 11797  6841 10221 11797  3388 6841 11797  3348 6841 10221  1973 9944 11799  9944 11798 11799  1988 9944 11798  1974 11798 11799  1083 7510 10535  7510 10535 10565  1104 7510 10565  1098 10535 10565  54 55 11800  54 11800 11801  684 11800 11801  53 54 11801  3682 6694 11802  6694 7382 11802  4755 7382 11802  756 6694 7382  2725 9344 11803  9344 10315 11803  2778 10315 11803  2777 9344 10315  3393 11399 11804  8701 11399 11804  3394 8701 11804  1416 8701 11399  1934 9433 11806  9433 11805 11806  1973 9433 11805  1935 11805 11806  1371 9230 11807  9230 10342 11807  1374 10342 11807  1373 9230 10342  3128 11028 11808  5381 11028 11808  3129 5381 11028  3127 5381 11808  1195 10837 10864  10837 10864 11809  1274 10864 11809  1194 10837 11809  2765 9030 11810  9030 10277 11810  2768 10277 11810  2767 9030 10277  1542 9502 9572  9502 9572 11422  3341 9572 11422  1257 9502 11422  1903 10012 11811  10012 10962 11811  2188 10962 11811  2187 10012 10962  1295 9279 10300  9279 10300 11812  1299 10300 11812  1293 9279 11812  2206 10141 10992  10141 10992 11813  3579 10141 11813  1969 10992 11813  2394 11035 11814  11035 11814 11815  2514 11814 11815  2513 11035 11815  255 11785 11816  5468 11785 11816  3429 5468 11785  683 5468 11816  254 255 11816  254 11816 11817  683 11816 11817  253 254 11817  1087 10258 11818  10222 10258 11818  1089 10222 11818  1088 10222 10258  1023 10539 11819  10489 10539 11819  1028 10489 11819  1027 10489 10539  1520 11820 11821  8240 11820 11821  3836 8240 11820  1516 8240 11821  2262 11446 11765  11446 11765 11822  3752 11446 11822  3751 11765 11822  1955 6644 9113  6644 9113 11823  2074 6644 11823  1914 9113 11823  1415 11039 11824  10185 11039 11824  1417 10185 11824  1416 10185 11039  3374 7874 7936  7874 7936 8765  3375 7936 8765  1181 7874 8765  1494 11724 11825  8864 11724 11825  3648 8864 11825  834 8864 11724  1619 11109 11827  11109 11826 11827  3766 11109 11826  1733 11826 11827  1340 10498 11828  8210 10498 11828  3403 8210 11828  1327 8210 10498  3597 9946 10291  9946 10257 10291  3599 9946 10257  3598 10257 10291  2038 9370 11829  9370 10321 11829  3526 10321 11829  3525 9370 10321  1016 10485 11830  10485 10541 11830  1023 10541 11830  1022 10485 10541  2117 11831 11833  11831 11832 11833  3757 11831 11832  1883 11832 11833  822 8661 9335  8661 9335 11834  1662 8661 11834  824 9335 11834  2837 11835 11836  5039 11835 11836  3097 5039 11835  2836 5039 11836  1291 9259 10340  9259 10340 11837  1292 10340 11837  1262 9259 11837  1180 10838 10920  10838 10920 11838  1194 10838 11838  1178 10920 11838  1009 10477 11839  10477 10486 11839  1016 10486 11839  1015 10477 10486  747 11673 11840  8757 11673 11840  3641 8757 11840  79 8757 11673  806 8194 11393  7902 8194 11393  3490 7902 11393  803 7902 8194  1981 10352 11049  7023 10352 11049  3523 7023 11049  3461 7023 10352  947 9207 11841  9207 10448 11841  1033 10448 11841  952 9207 10448  1216 9234 11842  9234 10455 11842  1365 10455 11842  1220 9234 10455  1000 10492 11843  10478 10492 11843  1009 10478 11843  1008 10478 10492  48 49 11844  48 11844 11845  752 11844 11845  47 48 11845  1311 10392 11846  10392 11846 11847  1312 11846 11847  1309 10392 11847  3281 10235 11848  10235 10293 11848  3597 10293 11848  3282 10235 10293  2710 9328 11849  9328 10386 11849  2722 10386 11849  2721 9328 10386  1367 5226 11746  5226 8879 11746  3652 5226 8879  830 8879 11746  2508 10834 11850  10834 11850 11851  4099 11850 11851  2407 10834 11851  2071 10289 10426  10289 10426 11852  2072 10426 11852  1976 10289 11852  1212 7738 9284  7738 9284 11853  2218 7738 11853  1214 9284 11853  1346 8304 11092  8304 11092 11854  1347 8304 11854  1345 11092 11854  1738 9299 11855  9299 10482 11855  1895 10482 11855  1740 9299 10482  979 10370 11856  10370 10416 11856  985 10416 11856  984 10370 10416  941 6777 9292  6777 7809 9292  1656 6777 7809  943 7809 9292  260 261 10178  260 10178 11857  753 10178 11857  259 260 11857  991 10436 11858  10436 10480 11858  996 10480 11858  995 10436 10480  1093 11067 11859  10208 11067 11859  1095 10208 11859  1094 10208 11067  2971 7648 9535  7648 9535 10826  3326 7648 10826  2736 9535 10826  985 10414 11860  10414 10438 11860  991 10438 11860  990 10414 10438  3126 11861 11862  11808 11861 11862  3128 11808 11861  3127 11808 11862  1355 10226 11863  10226 11863 11864  1559 11863 11864  1354 10226 11864  3569 9159 11565  8896 9159 11565  3813 8896 11565  2238 8896 9159  996 10479 11865  10479 10493 11865  1000 10493 11865  999 10479 10493  1130 6992 10943  6992 10943 11410  3703 6992 11410  1122 10943 11410  1021 6226 11722  6226 8904 11722  3659 6226 8904  856 8904 11722  44 45 11185  44 10890 11185  686 10890 11185  43 44 10890  3540 8127 11866  8127 8731 11866  4411 8731 11866  682 8127 8731  974 10457 11867  10371 10457 11867  979 10371 11867  978 10371 10457  3128 11026 11868  11026 11317 11868  3131 11317 11868  3130 11026 11317  237 8767 11689  8767 11689 11869  3647 8767 11869  3418 11689 11869  2229 11126 11870  11126 11870 11871  3138 11870 11871  2070 11126 11871  1079 10312 11872  8254 10312 11872  1081 8254 11872  1080 8254 10312  1336 7167 11128  7167 11128 11873  1337 7167 11873  1314 11128 11873  2757 9075 10445  9075 10445 11874  2774 10445 11874  2755 9075 11874  1352 11536 11875  11536 11875 11876  3805 11875 11876  1450 11536 11876  828 11745 11877  5906 11745 11877  3680 5906 11877  1367 5906 11745  264 265 10644  264 10644 11878  685 10644 11878  263 264 11878  2004 9863 11879  8014 9863 11879  3464 8014 11879  1897 8014 9863  1141 10797 10866  10797 10866 11880  1144 10866 11880  1135 10797 11880  1335 10224 10227  10224 10227 11881  1354 10227 11881  1334 10224 11881  2756 9056 11882  9056 10411 11882  2760 10411 11882  2758 9056 10411  1475 10278 11883  5084 10278 11883  2180 5084 11883  1622 5084 10278  1407 11072 11884  10216 11072 11884  1409 10216 11884  1408 10216 11072  930 10387 11885  10387 10422 11885  935 10422 11885  934 10387 10422  969 9511 10621  9511 10621 11886  970 10621 11886  967 9511 11886  938 10434 11887  10434 10459 11887  974 10459 11887  973 10434 10459  863 11888 11890  11888 11889 11890  3552 11888 11889  1020 11889 11890  935 10421 11891  10421 10435 11891  938 10435 11891  937 10421 10435  1134 10681 10798  4962 10681 10798  1135 4962 10798  1126 4962 10681  1458 10327 11892  10280 10327 11892  1475 10280 11892  1474 10280 10327  2239 9504 10638  9504 10638 11893  2240 10638 11893  2018 9504 11893  2700 9372 11894  9372 10512 11894  2703 10512 11894  2702 9372 10512  927 10423 11895  10388 10423 11895  930 10388 11895  929 10388 10423  1551 9403 11896  8170 9403 11896  2224 8170 11896  1549 8170 9403  801 11251 11897  9487 11251 11897  804 9487 11897  803 9487 11251  2468 11282 11898  11282 11898 11899  4527 11898 11899  2462 11282 11899  845 11900 11902  11900 11901 11902  3492 11900 11901  1204 11901 11902  851 11903 11905  11903 11904 11905  3497 11903 11904  1151 11904 11905  3290 9022 10667  9022 10667 11906  3292 10667 11906  3288 9022 11906  1657 9408 10655  9408 10655 11907  1780 10655 11907  1553 9408 11907  1152 10865 10921  10865 10921 11908  1178 10921 11908  1144 10865 11908  913 10380 11909  10380 10398 11909  916 10398 11909  915 10380 10398  916 10397 11910  10397 10418 11910  923 10418 11910  922 10397 10418  3312 8852 11911  5281 8852 11911  4274 5281 11911  3314 5281 8852  923 10417 11912  10417 10424 11912  927 10424 11912  926 10417 10424  839 11913 11915  11913 11914 11915  3502 11913 11914  1331 11914 11915  2826 10281 11916  10281 10318 11916  2829 10318 11916  2827 10281 10318  2129 8919 10663  8792 8919 10663  3251 8792 8919  1667 8792 10663  1493 7615 9400  7615 9400 10639  2146 7615 10639  2145 9400 10639  2751 10792 11917  7093 10792 11917  3968 7093 11917  2749 7093 10792  919 9643 11056  9643 11056 11918  3111 11056 11918  1706 9643 11918  911 10431 11919  10381 10431 11919  913 10381 11919  912 10381 10431  1905 10187 11059  10187 11059 11920  2292 10187 11920  1904 11059 11920  270 271 11921  270 5554 11921  754 5554 11921  269 270 5554  2559 6993 11922  6993 10630 11922  3627 6993 10630  2556 10630 11922  2793 9274 11923  7230 9274 11923  2794 7230 11923  2701 7230 9274  3492 10379 11901  10379 11901 11924  3493 10379 11924  1204 11901 11924  3349 8023 11925  8023 11925 11926  4337 11925 11926  1595 8023 11926  903 10363 11927  10363 10396 11927  907 10396 11927  905 10363 10396  901 10356 11928  10356 10364 11928  903 10364 11928  902 10356 10364  1085 11085 11929  10259 11085 11929  1087 10259 11929  1086 10259 11085  3497 11904 11930  11904 11930 11931  3498 11930 11931  1151 11904 11931  2201 10419 11932  10326 10419 11932  2933 10326 11932  2406 10326 10419  907 10394 11933  10394 10413 11933  909 10413 11933  908 10394 10413  909 10412 11934  10412 10433 11934  911 10433 11934  910 10412 10433  3615 8764 9917  8764 9917 11935  3731 8764 11935  2066 9917 11935  899 10376 11936  10358 10376 11936  901 10358 11936  900 10358 10376  3502 11914 11937  11914 11937 11938  3503 11937 11938  1331 11914 11938  1705 8049 11940  8049 11939 11940  1711 8049 11939  1710 11939 11940  1308 10393 11154  10393 11154 11941  1309 10393 11941  1307 11154 11941  2764 9090 11791  7786 9090 11791  2775 7786 11791  2762 7786 9090  3140 8045 10049  8045 10049 11942  4693 8045 11942  1313 10049 11942  894 10359 11943  10359 10367 11943  897 10367 11943  895 10359 10367  897 10365 11944  10365 10377 11944  899 10377 11944  898 10365 10377  891 10350 11945  10350 10360 11945  894 10360 11945  893 10350 10360  38 39 8441  38 8441 11946  755 8441 11946  37 38 11946  1883 11832 11947  11680 11832 11947  3757 11680 11832  1690 11680 11947  948 9321 10651  9321 10651 11948  949 10651 11948  946 9321 11948  2685 9379 11949  9379 10619 11949  2692 10619 11949  2691 9379 10619  2249 8038 11951  8038 11950 11951  3658 8038 11950  2441 11950 11951  2696 10374 11061  10374 11061 11952  2697 11061 11952  2649 10374 11952  2650 5643 11953  5643 6579 11953  4815 6579 11953  3106 5643 6579  889 10399 11954  10351 10399 11954  891 10351 11954  890 10351 10399  2050 7247 9359  7247 9359 10671  3145 7247 10671  3144 9359 10671  2766 9080 10607  9080 10607 11790  3481 10607 11790  2764 9080 11790  878 10271 11955  10271 10347 11955  880 10347 11955  879 10271 10347  215 11646 11956  7945 11646 11956  3781 7945 11956  698 7945 11646  1401 11113 11957  5756 11113 11957  1403 5756 11957  1402 5756 11113  2014 9711 11015  8680 9711 11015  3331 8680 11015  2296 8680 9711  1082 10488 11958  10488 11298 11958  3782 11298 11958  1027 10488 11298  3202 9437 10714  7771 9437 10714  3203 7771 10714  1902 7771 9437  1760 11959 11960  8036 11959 11960  3907 8036 11959  2249 8036 11960  3346 7039 8510  7039 8510 11480  3347 7039 11480  2204 8510 11480  1477 8802 9239  8802 9239 10635  3175 8802 10635  3174 9239 10635  274 275 10758  274 10758 11961  696 10758 11961  273 274 11961  241 8788 11720  8788 11720 11962  3654 8788 11962  749 11720 11962  880 10346 11963  10346 10369 11963  882 10369 11963  881 10346 10369  882 10368 11964  10368 10373 11964  884 10373 11964  883 10368 10373  884 10372 11965  10372 10391 11965  887 10391 11965  885 10372 10391  887 10389 11966  10389 10400 11966  889 10400 11966  888 10389 10400  1375 10820 11967  10820 11967 11968  3948 11967 11968  1727 10820 11968  1166 10205 11969  10205 10270 11969  3438 10270 11969  3437 10205 10270  3260 6004 9193  6004 8696 9193  3355 6004 8696  3258 8696 9193  2822 10439 11970  10439 11323 11970  3561 11323 11970  2823 10439 11323  928 10266 11971  10266 10338 11971  3449 10338 11971  3448 10266 10338  1954 7081 9121  7081 9121 10629  2385 7081 10629  2085 9121 10629  1452 10401 11972  8193 10401 11972  1454 8193 11972  1453 8193 10401  750 11751 11768  11751 11768 11973  3656 11751 11973  57 11768 11973  1217 9343 10710  6305 9343 10710  1218 6305 10710  1215 6305 9343  3449 10336 11974  10329 10336 11974  3452 10329 11974  3450 10329 10336  942 9459 11975  9459 11975 11976  1557 11975 11976  940 9459 11976  1552 5926 9431  5926 9431 10746  1555 5926 10746  1554 9431 10746  2188 10961 11977  10961 11134 11977  2946 11134 11977  2945 10961 11134  1428 10500 11978  10402 10500 11978  1452 10402 11978  1451 10402 10500  1816 10297 11979  10297 10472 11979  1882 10472 11979  1881 10297 10472  818 9669 11980  9669 11980 11981  1940 11980 11981  820 9669 11981  2778 10314 11982  10314 10450 11982  2780 10450 11982  2779 10314 10450  2690 9609 11983  7768 9609 11983  3475 7768 11983  2683 7768 9609  2780 10449 11984  10440 10449 11984  2822 10440 11984  2781 10440 10449  2715 9619 10624  9619 10624 11190  3471 10624 11190  2691 9619 11190  4347 11985 11987  11985 11986 11987  4530 11985 11986  1557 11986 11987  2796 9313 11988  7709 9313 11988  2955 7709 11988  2720 7709 9313  825 11989 11990  7327 11989 11990  3508 7327 11989  1677 7327 11990  2681 9419 11588  9419 10677 11588  2684 10677 11588  2683 9419 10677  2156 11991 11992  8367 11991 11992  3389 8367 11991  2157 8367 11992  1511 8063 9466  6598 8063 9466  3056 6598 8063  1550 6598 9466  2954 8894 11124  8894 11124 11993  3613 8894 11993  2738 11124 11993  761 11994 11996  11994 11995 11996  4669 11994 11995  3550 11995 11996  1882 10471 11997  8199 10471 11997  2091 8199 11997  2090 8199 10471  2789 11998 12000  11998 11999 12000  3303 11998 11999  2900 11999 12000  1077 11148 12001  10313 11148 12001  1079 10313 12001  1078 10313 11148  3208 6452 9679  6452 9679 11189  3402 6452 11189  2233 9679 11189  34 35 12002  34 6706 12002  697 6706 12002  33 34 6706  2715 9622 11170  6430 9622 11170  3476 6430 11170  3474 6430 9622  863 9227 11890  5027 9227 11890  1020 5027 11890  861 5027 9227  865 7741 9210  7741 9210 11888  3552 7741 11888  863 9210 11888  3895 5813 12003  5813 12003 12004  3898 12003 12004  2989 5813 12004  3552 11889 12005  11889 12005 12006  4587 12005 12006  1020 11889 12006  857 9051 12007  8727 9051 12007  1107 8727 12007  855 8727 9051  1102 10810 10857  10810 10857 12008  1111 10810 12008  1100 10857 12008  1828 10483 10643  10483 10643 12009  1829 10643 12009  1692 10483 12009  2121 10977 12010  10977 12010 12011  4752 12010 12011  3643 10977 12011  851 9046 11905  9046 11905 12012  1151 11905 12012  849 9046 12012  847 9042 9197  9042 9197 11900  3492 9197 11900  845 9042 11900  845 9048 11902  9048 11902 12013  1204 11902 12013  843 9048 12013  1045 10322 12014  10322 10510 12014  1048 10510 12014  1047 10322 10510  853 9047 12015  9047 11903 12015  3497 11903 12015  851 9047 11903  2029 7780 9481  7780 9481 12016  2427 7780 12016  2426 9481 12016  1052 10502 12017  10502 10505 12017  1054 10505 12017  1053 10502 10505  4553 8745 12018  8745 12018 12019  4672 12018 12019  1324 8745 12019  841 9055 9224  9055 9224 11913  3502 9224 11913  839 9055 11913  1050 10506 12020  10503 10506 12020  1052 10503 12020  1051 10503 10506  1653 11705 12021  7513 11705 12021  3925 7513 12021  1783 7513 11705  1490 7643 11482  7643 11482 12022  3852 7643 12022  1813 11482 12022  835 9084 12023  9084 12023 12024  1496 12023 12024  833 9084 12024  877 9316 10735  8774 9316 10735  918 8774 10735  875 8774 9316  1739 9488 10750  9488 10750 12025  1741 10750 12025  1737 9488 12025  1948 8076 12026  8076 11222 12026  4021 8076 11222  2258 11222 12026  1054 10504 12027  10504 10517 12027  1057 10517 12027  1056 10504 10517  3486 5081 12028  5081 12028 12029  4862 12028 12029  3315 5081 12029  839 9065 11915  8751 9065 11915  1331 8751 11915  837 8751 9065  1017 10759 10790  10759 10790 12030  1025 10790 12030  1014 10759 12030  873 9312 12031  8779 9312 12031  1615 8779 12031  871 8779 9312  1048 10509 12032  10508 10509 12032  1050 10508 12032  1049 10508 10509  2772 9157 10704  7811 9157 10704  2797 7811 10704  2770 7811 9157  869 9305 12033  9305 12033 12034  1358 12033 12034  867 9305 12034  2627 10452 10460  10452 10460 12035  2628 10452 12035  2626 10460 12035  1397 11142 12036  11142 12036 12037  1399 12036 12037  1398 11142 12037  1374 10341 12038  10341 10544 12038  1377 10544 12038  1376 10341 10544  1032 10805 10858  10805 10858 12039  1100 10858 12039  1031 10805 12039  1057 10516 12040  10516 10522 12040  1059 10522 12040  1058 10516 10522  1065 10526 12041  10526 10529 12041  1067 10529 12041  1066 10526 10529  1859 9722 11051  9722 10707 11051  3206 10707 11051  2233 9722 10707  1059 10521 12042  10521 10525 12042  1062 10525 12042  1061 10521 10525  1062 10523 12043  10523 10527 12043  1065 10527 12043  1064 10523 10527  1046 9354 10795  9354 10795 12044  1202 10795 12044  1043 9354 12044  1456 11139 12045  10328 11139 12045  1458 10328 12045  1457 10328 11139  1984 10642 10673  10642 10673 12046  2031 10673 12046  1829 10642 12046  1026 10789 10806  10789 10806 12047  1031 10806 12047  1025 10789 12047  3528 9317 12048  9317 9663 12048  3533 9663 12048  3524 9317 9663  3526 10319 12049  10319 10496 12049  3529 10496 12049  3527 10319 10496  2625 10461 10557  10461 10557 12050  2626 10461 12050  2624 10557 12050  4662 12051 12053  12051 12052 12053  4769 12051 12052  2235 12052 12053  1375 9374 10822  9374 10822 12054  1726 10822 12054  1372 9374 12054  2664 9429 12055  9429 10732 12055  2670 10732 12055  2669 9429 10732  1387 10548 12056  10102 10548 12056  1389 10102 12056  1388 10102 10548  1270 8260 11195  8260 11195 12057  1271 8260 12057  1266 11195 12057  1384 10550 12058  10549 10550 12058  1387 10549 12058  1386 10549 10550  2768 10276 12059  10276 11609 12059  2902 11609 12059  2769 10276 11609  1377 10542 12060  10542 10556 12060  1379 10556 12060  1378 10542 10556  1381 10553 12061  10552 10553 12061  1384 10552 12061  1383 10552 10553  2033 10672 10684  10672 10684 12062  2314 10684 12062  2031 10672 12062  1379 10555 12063  10554 10555 12063  1381 10554 12063  1380 10554 10555  831 9156 10700  9156 10700 12064  1459 10700 12064  829 9156 12064  2399 10683 10689  10683 10689 12065  2832 10689 12065  2314 10683 12065  1012 10760 10816  10760 10816 12066  1014 10760 12066  1010 10816 12066  3307 8281 10688  7782 8281 10688  3308 7782 8281  2832 7782 10688  2722 10385 12067  10385 10573 12067  2724 10573 12067  2723 10385 10573  992 10719 10744  10719 10744 12068  993 10744 12068  989 10719 12068  1254 10679 10705  10679 10705 12069  1255 10679 12069  1252 10705 12069  2270 11199 11477  7201 11199 11477  3338 7201 11477  2271 7201 11199  1940 11981 12070  9023 11981 12070  3676 9023 12070  820 9023 11981  1921 11495 12071  11495 12071 12072  3834 12071 12072  1835 11495 12072  988 10715 10720  10715 10720 12073  989 10720 12073  982 10715 12073  2518 10965 12074  10965 12074 12075  4866 12074 12075  3152 10965 12075  2199 11162 12076  10420 11162 12076  2201 10420 12076  2200 10420 11162  1003 10767 10817  10767 10817 12077  1010 10817 12077  998 10767 12077  1969 11813 12079  11813 12078 12079  3579 11813 12078  2291 12078 12079  1257 10678 11423  10678 11423 12080  1258 11423 12080  1255 10678 12080  997 10743 10768  10743 10768 12081  998 10768 12081  993 10743 12081  2641 7568 9330  7568 9330 10808  2663 7568 10808  2651 9330 10808  1033 10446 12082  10446 10600 12082  1035 10600 12082  1034 10446 10600  827 9304 12083  9304 11989 12083  3508 11989 12083  825 9304 11989  3034 6567 12085  6567 12084 12085  3735 6567 12084  3035 12084 12085  1365 10453 12086  10453 10615 12086  1368 10615 12086  1366 10453 10615  1500 11614 12087  11614 12087 12088  3808 12087 12088  1430 11614 12088  1037 10602 12089  10581 10602 12089  1039 10581 12089  1038 10581 10602  981 10716 10739  10716 10739 12090  982 10716 12090  977 10739 12090  278 279 11121  278 11121 12091  757 11121 12091  277 278 12091  55 11800 12092  11800 12092 12093  3656 12092 12093  684 11800 12093  2159 9474 11672  9474 11672 12094  2873 11672 12094  2872 9474 12094  1895 10481 12095  10481 12095 12096  2052 12095 12096  1896 10481 12096  1035 10598 12097  10598 10604 12097  1037 10604 12097  1036 10598 10604  971 10620 10730  10620 10730 12098  972 10730 12098  970 10620 12098  2412 5773 12099  5773 7626 12099  4449 5773 7626  2413 7626 12099  2648 10375 11197  10375 11197 12100  2649 10375 12100  2632 11197 12100  1368 10614 12101  10614 12101 12102  1598 12101 12102  1369 10614 12102  2789 9211 12000  7817 9211 12000  2900 7817 12000  2787 7817 9211  30 31 6695  30 6695 12103  756 6695 12103  29 30 12103  1071 11217 12104  5968 11217 12104  1073 5968 12104  1072 5968 11217  3095 6217 10086  6217 10086 12105  4649 10086 12105  2511 6217 12105  3234 5828 6820  5828 6820 7993  4385 5828 7993  2402 6820 7993  2821 6594 12106  6594 9791 12106  4653 6594 9791  2739 9791 12106  1332 8714 9361  8714 9361 10886  1558 8714 10886  1501 9361 10886  1663 9434 10925  9434 10925 12107  1797 10925 12107  1426 9434 12107  825 9424 11990  9424 11990 12108  1677 11990 12108  823 9424 12108  1263 8979 11220  8979 11220 12109  1264 8979 12109  1260 11220 12109  2791 6592 9198  6592 9198 11998  3303 6592 11998  2789 9198 11998  976 10729 10740  10729 10740 12110  977 10740 12110  972 10729 12110  1845 10491 10533  10491 10533 12111  1913 10491 12111  1844 10533 12111  2937 5567 12113  5567 12112 12113  4301 5567 12112  2279 12112 12113  1393 11226 12114  11172 11226 12114  1395 11172 12114  1394 11172 11226  3920 5245 12115  5245 9518 12115  4624 5245 9518  3939 9518 12115  1386 10551 12116  6618 10551 12116  3992 6618 12116  1383 6618 10551  2703 10511 12117  10511 10641 12117  2709 10641 12117  2704 10511 10641  112 113 12118  112 11742 12118  3642 11742 12118  111 112 11742  2776 9702 12119  7772 9702 12119  3212 7772 12119  2723 7772 9702  2477 7623 12120  7623 12120 12121  4630 12120 12121  3416 7623 12121  2226 9613 10721  9613 10721 12122  3733 10721 12122  2512 9613 12122  1362 11224 12123  10501 11224 12123  1428 10501 12123  1427 10501 11224  1843 10534 10586  10534 10586 12124  1844 10534 12124  1841 10586 12124  3366 7947 12125  7310 7947 12125  4633 7310 12125  3367 7310 7947  2852 10637 12126  10637 12126 12127  2853 12126 12127  2240 10637 12127  3010 9032 12128  9032 11519 12128  3637 11519 12128  3012 9032 11519  2817 10444 12129  10444 12129 12130  3513 12129 12130  2774 10444 12130  3091 7295 12131  7295 11304 12131  3815 11304 12131  3372 7295 11304  1113 7259 9763  7259 9763 11024  1920 7259 11024  1136 9763 11024  981 9855 11247  6030 9855 11247  3477 6030 11247  994 6030 9855  1543 6960 9534  6960 9534 10983  1546 6960 10983  1545 9534 10983  1733 12132 12134  12132 12133 12134  2313 12132 12133  2030 12133 12134  2760 10410 12135  10410 10578 12135  2798 10578 12135  2761 10410 10578  752 11845 12136  11373 11845 12136  3629 11373 12136  47 11373 11845  1188 10594 10658  10594 10658 12137  1261 10594 12137  1187 10658 12137  2177 8608 9416  8608 9416 12138  2941 8608 12138  2940 9416 12138  1150 10659 10664  10659 10664 12139  1187 10659 12139  1149 10664 12139  1840 10587 10668  10587 10668 12140  1841 10587 12140  1808 10668 12140  1801 10654 10788  10654 10788 12141  2016 10788 12141  1780 10654 12141  1450 11876 12143  11876 12142 12143  3805 11876 12142  1578 12142 12143  2719 6751 9362  6751 9362 10959  3065 6751 10959  3063 9362 10959  2901 9708 12144  9708 11284 12144  3210 11284 12144  2777 9708 11284  4031 12145 12147  12145 12146 12147  4199 12145 12146  1370 12146 12147  818 11980 12148  7470 11980 12148  3685 7470 12148  1940 7470 11980  959 10765 10781  10765 10781 12149  961 10781 12149  958 10765 12149  2910 11234 12150  7941 11234 12150  3076 7941 12150  3075 7941 11234  963 10780 10802  10780 10802 12151  964 10802 12151  961 10780 12151  1251 10706 11261  10706 11261 12152  1252 10706 12152  1250 11261 12152  965 10801 10819  10801 10819 12153  966 10819 12153  964 10801 12153  3000 5453 11214  5453 11214 12154  3300 5453 12154  2366 11214 12154  1148 10665 10727  10665 10727 12155  1149 10665 12155  1147 10727 12155  2412 10812 12099  10812 12099 12156  2413 12099 12156  2411 10812 12156  957 10766 10799  10766 10799 12157  958 10766 12157  956 10799 12157  950 10650 10764  5030 10650 10764  951 5030 10764  949 5030 10650  3503 7191 12158  7191 8888 12158  4485 7191 8888  3767 8888 12158  2623 10558 11254  10558 11254 12159  2624 10558 12159  2599 11254 12159  770 6491 12160  6491 12160 12161  4218 12160 12161  3488 6491 12161  1699 9881 9891  9788 9881 9891  3729 9788 9881  1567 9788 9891  1486 9414 12162  9414 10973 12162  1802 10973 12162  1703 9414 10973  1527 9757 12163  9757 11216 12163  3335 11216 12163  1064 9757 11216  953 10763 10786  10763 10786 12164  954 10786 12164  951 10763 12164  955 10785 10800  10785 10800 12165  956 10800 12165  954 10785 12165  2246 7779 11000  7779 11000 12166  4497 11000 12166  3339 7779 12166  2692 10618 12167  10618 10718 12167  2694 10718 12167  2693 10618 10718  26 27 12168  26 12168 12169  708 12168 12169  25 26 12169  3454 6170 9672  6170 9672 11194  3455 6170 11194  3450 9672 11194  2227 5997 10166  5997 7833 10166  3756 5997 7833  3516 7833 10166  2425 6115 12170  6115 12170 12171  4720 12170 12171  4231 6115 12171  1876 11207 12172  8902 11207 12172  3673 8902 11207  1875 8902 12172  1865 10769 10772  10769 10772 12173  1866 10772 12173  1864 10769 12173  759 12174 12175  8560 12174 12175  3734 8560 12174  3714 8560 12175  1872 7245 10783  7245 10783 12176  3770 7245 12176  1868 10783 12176  1867 10771 10784  10771 10784 12177  1868 10784 12177  1866 10771 12177  2694 10717 12178  10717 10724 12178  2699 10724 12178  2695 10717 10724  1863 10770 10778  10770 10778 12179  1864 10770 12179  1862 10778 12179  3700 5255 8043  5255 8043 12180  4405 5255 12180  3691 8043 12180  1355 11863 12181  11863 12181 12182  3938 12181 12182  1559 11863 12182  1759 9734 12183  9734 11246 12183  3120 11246 12183  888 9734 11246  1243 10903 11330  10903 11330 12184  1244 11330 12184  1242 10903 12184  2904 6782 11290  6782 11290 12185  2905 6782 12185  2855 11290 12185  1124 11670 12186  11670 12186 12187  3730 12186 12187  1131 11670 12187  282 283 11383  282 11383 12188  707 11383 12188  281 282 12188  1861 10779 10859  10779 10859 12189  1862 10779 12189  1860 10859 12189  1916 7128 9753  7128 9753 11151  3141 7128 11151  1427 9753 11151  2002 12190 12191  10823 12190 12191  4234 10823 12190  3977 10823 12191  810 11726 12193  11726 12192 12193  811 11726 12192  802 12192 12193  2752 10690 12194  10690 12194 12195  2759 12194 12195  2753 10690 12195  2267 6680 10847  6011 6680 10847  2843 6011 6680  2842 6011 10847  1219 10709 10852  10709 10852 12196  1221 10852 12196  1218 10709 12196  1247 8226 11302  8226 11302 12197  1248 8226 12197  1246 11302 12197  1555 10745 12198  10745 10878 12198  1645 10878 12198  1644 10745 10878  1478 9784 12199  9784 11264 12199  3153 11264 12199  898 9784 11264  2265 10869 12200  10849 10869 12200  2267 10849 12200  2266 10849 10869  2374 7089 11564  7089 11564 12201  4140 7089 12201  2373 11564 12201  1251 9869 11244  8776 9869 11244  3398 8776 11244  3397 8776 9869  2062 10883 12202  10870 10883 12202  2265 10870 12202  2067 10870 10883  3011 9611 12203  9611 11306 12203  3470 11306 12203  3008 9611 11306  2750 10791 12204  10691 10791 12204  2752 10691 12204  2751 10691 10791  1237 10905 11428  10905 11428 12205  1238 11428 12205  1235 10905 12205  1234 10899 10906  10899 10906 12206  1235 10906 12206  1232 10899 12206  1645 10877 12207  10877 10902 12207  1852 10902 12207  1788 10877 10902  3273 10466 12208  6139 10466 12208  3274 6139 12208  3272 6139 10466  1852 10901 12209  10884 10901 12209  2062 10884 12209  1877 10884 10901  1231 10900 10922  10900 10922 12210  1232 10900 12210  1230 10922 12210  1222 10851 10873  10851 10873 12211  1223 10873 12211  1221 10851 12211  1224 10872 10892  10872 10892 12212  1225 10892 12212  1223 10872 12212  1226 10891 10912  10891 10912 12213  1227 10912 12213  1225 10891 12213  1479 5770 9822  5770 9822 11279  3582 5770 11279  908 9822 11279  1997 10334 12214  8558 10334 12214  3467 8558 12214  1787 8558 10334  919 10734 10868  10734 10868 12215  920 10868 12215  918 10734 12215  1229 10911 10923  10911 10923 12216  1230 10923 12216  1227 10911 12216  1536 12217 12218  9392 12217 12218  3913 9392 12217  3796 9392 12218  3516 7832 8940  7832 8940 12219  3951 7832 12219  1585 8940 12219  1742 10749 10916  10749 10916 12220  1743 10916 12220  1741 10749 12220  921 10867 10888  10867 10888 12221  924 10888 12221  920 10867 12221  933 10897 10910  10897 10910 12222  939 10910 12222  932 10897 12222  925 10887 10898  4988 10887 10898  932 4988 10898  924 4988 10887  2142 9526 11048  8460 9526 11048  2149 8460 11048  1735 8460 9526  811 10855 12224  10855 12223 12224  3706 10855 12223  2219 12223 12224  3633 8324 10193  6447 8324 10193  3634 6447 8324  3632 6447 10193  292 293 6814  292 6814 12225  3646 6814 12225  291 292 12225  2926 9796 12226  9796 11212 12226  3324 11212 12226  2200 9796 11212  3597 9947 12227  9947 12227 12228  3760 12227 12228  2541 9947 12228  1744 10915 10929  10915 10929 12229  1745 10929 12229  1743 10915 12229  56 57 11973  56 11973 12092  3656 11973 12092  55 56 12092  1746 10928 10935  10928 10935 12230  1747 10935 12230  1745 10928 12230  2362 12231 12232  11075 12231 12232  4243 11075 12231  4217 11075 12232  1749 10934 10940  10934 10940 12233  1750 10940 12233  1747 10934 12233  2786 9059 12234  9059 11682 12234  3655 11682 12234  2788 9059 11682  4120 6656 10514  6656 10514 12235  4131 10514 12235  3081 6656 12235  1751 10939 11763  10939 11763 12236  1752 11763 12236  1750 10939 12236  1597 5306 12237  5306 12237 12238  3967 12237 12238  3910 5306 12238  2410 10813 11312  10813 11312 12239  2411 10813 12239  2390 11312 12239  1556 9786 12240  9786 11213 12240  3322 11213 12240  1457 9786 11213  2670 10731 12241  10731 10894 12241  2674 10894 12241  2671 10731 10894  1203 10794 10950  10794 10950 12242  1210 10950 12242  1202 10794 12242  1807 10669 11308  10669 11308 12243  1808 10669 12243  1330 11308 12243  2211 8160 11101  8160 11101 12244  3854 11101 12244  3507 8160 12244  3456 10132 12245  10132 12245 12246  4404 12245 12246  2197 10132 12246  804 9486 12247  9183 9486 12247  807 9183 12247  805 9183 9486  2680 10895 12248  10895 11587 12248  3583 11587 12248  2681 10895 11587  2416 5690 12250  5690 12249 12250  3936 5690 12249  2418 12249 12250  2674 10893 12251  10893 10896 12251  2680 10896 12251  2675 10893 10896  819 6369 9951  6369 9951 12252  1821 6369 12252  817 9951 12252  1211 8179 10949  8179 10949 12253  1350 8179 12253  1210 10949 12253  2167 9793 10952  9793 10952 12254  2168 9793 12254  2124 10952 12254  1727 10821 10957  10821 10957 12255  1736 10957 12255  1726 10821 12255  3352 9601 11064  9601 11064 11991  3389 11064 11991  2156 9601 11991  22 23 12256  22 12256 12257  758 12256 12257  21 22 12257  1652 11590 12258  11590 12258 12259  3876 12258 12259  1583 11590 12259  1241 10904 11331  10904 11331 12260  1242 10904 12260  1240 11331 12260  2123 10953 10968  10953 10968 12261  2124 10953 12261  2015 10968 12261  1654 7711 9561  7711 9561 11117  1833 7711 11117  1718 9561 11117  873 9446 12031  9446 12031 12262  3707 9446 12262  1615 12031 12262  1146 10728 11326  6464 10728 11326  1147 6464 10728  1128 6464 11326  3814 12263 12265  12263 12264 12265  3961 12263 12264  1462 12264 12265  869 9447 12033  5054 9447 12033  3711 5054 9447  1358 5054 12033  3840 6045 12267  6045 12266 12267  3844 6045 12266  2920 12266 12267  3265 8344 12268  8344 12268 12269  3266 12268 12269  2136 8344 12269  835 9306 12023  9306 12023 12270  3712 9306 12270  1496 12023 12270  853 9277 12015  9277 12015 12271  3710 9277 12271  3497 12015 12271  843 9050 12272  9050 9222 12272  3683 9222 12272  841 9050 9222  849 9041 12273  9041 9196 12273  3684 9196 12273  847 9041 9196  2300 12274 12276  12274 12275 12276  4520 12274 12275  4395 12275 12276  755 11946 12277  11946 12277 12278  3681 12277 12278  37 11946 12278  286 287 11594  286 11594 12279  759 11594 12279  285 286 12279  2154 9606 11106  9606 11106 12280  2155 11106 12280  2152 9606 12280  1535 9684 12281  9684 11159 12281  1767 11159 12281  1766 9684 11159  1859 10860 11359  10860 11359 12282  1860 10860 12282  1858 11359 12282  1201 8272 12284  8272 12283 12284  3999 8272 12283  1283 12283 12284  3862 5325 12285  5325 7215 12285  4638 5325 7215  2848 7215 12285  3311 9524 12286  9524 12286 12287  4198 12286 12287  3310 9524 12287  2387 10908 11345  10908 11345 12288  2388 10908 12288  2384 11345 12288  1133 12289 12291  12289 12290 12291  3982 12289 12290  3730 12290 12291  1798 10924 10985  10924 10985 12292  1799 10985 12292  1797 10924 12292  1002 9956 12293  9956 11397 12293  3323 11397 12293  995 9956 11397  2592 8189 12295  8189 12294 12295  4019 8189 12294  2595 12294 12295  1558 10885 12296  10885 10980 12296  1661 10980 12296  1660 10885 10980  1715 9552 11131  8535 9552 11131  2151 8535 11131  1461 8535 9552  2832 7877 12065  5844 7877 12065  4663 5844 7877  2314 5844 12065  2487 12297 12298  5803 12297 12298  4299 5803 12297  2324 5803 12298  2979 11389 11429  11389 11429 12299  2980 11429 12299  2978 11389 12299  2010 8219 10989  8219 10989 12300  2011 8219 12300  1818 10989 12300  1817 10984 10990  10984 10990 12301  1818 10990 12301  1799 10984 12301  1676 7845 12302  7845 12087 12302  3808 7845 12087  1500 12087 12302  1719 7276 10119  7276 10119 12303  4028 7276 12303  1721 10119 12303  2464 11376 12304  10914 11376 12304  2969 10914 12304  2968 10914 11376  1661 10978 12305  10978 10987 12305  1879 10987 12305  1878 10978 10987  1879 10986 12306  10986 11671 12306  3608 11671 12306  2159 10986 11671  2143 6147 9140  6147 9140 12307  4309 6147 12307  2142 9140 12307  3376 9578 11601  5276 9578 11601  3937 5276 11601  3380 5276 9578  2747 11354 12308  10793 11354 12308  2750 10793 12308  2749 10793 11354  1670 7976 12310  7976 12309 12310  3792 7976 12309  1668 12309 12310  2738 11993 12312  11993 12311 12312  3613 11993 12311  2821 12311 12312  1275 12313 12315  12313 12314 12315  4630 12313 12314  4623 12314 12315  2253 12316 12318  12316 12317 12318  3942 12316 12317  1512 12317 12318  2005 9593 12319  7668 9593 12319  2161 7668 12319  1823 7668 9593  1259 12320 12322  12320 12321 12322  4716 12320 12321  4555 12321 12322  3936 12323 12324  5005 12323 12324  4708 5005 12323  2961 5005 12324  826 9072 12325  9072 11877 12325  3680 11877 12325  828 9072 11877  3065 5644 10958  5644 10958 11014  3106 5644 11014  3066 10958 11014  1733 11826 12132  11826 12132 12326  3766 11826 12326  2313 12132 12326  2014 10969 11400  10969 11400 12327  2015 10969 12327  2013 11400 12327  1308 9973 11356  9973 11356 12328  3328 11356 12328  1533 9973 12328  3274 7667 12329  6916 7667 12329  3826 6916 12329  3275 6916 7667  1999 9577 11181  9577 11181 12330  2110 11181 12330  1728 9577 12330  3182 8673 11365  8673 10249 11365  3185 10249 11365  1939 8673 10249  18 19 12331  18 12331 12332  715 12331 12332  17 18 12332  1802 10972 12333  10972 12172 12333  1876 12172 12333  1875 10972 12172  3789 7073 12334  6620 7073 12334  4511 6620 7073  788 6620 12334  2935 12335 12336  5945 12335 12336  4469 5945 12335  3657 5945 12336  2735 11395 12337  10882 11395 12337  2816 10882 12337  2736 10882 11395  800 12338 12339  12193 12338 12339  810 12193 12338  802 12193 12339  36 37 12278  36 12278 12340  3681 12278 12340  35 36 12340  3801 12341 12343  12341 12342 12343  3802 12341 12342  1351 12342 12343  2042 10469 12344  9158 10469 12344  3569 9158 12344  2041 9158 10469  35 12002 12340  12002 12340 12345  3681 12340 12345  697 12002 12345  1564 12346 12347  7476 12346 12347  3762 7476 12346  3373 7476 12347  659 660 12348  659 12348 12349  794 12348 12349  658 659 12349  1836 9687 12350  9687 11249 12350  2175 11249 12350  2034 9687 11249  2798 12351 12353  12351 12352 12353  4540 12351 12352  4377 12352 12353  1598 12102 12354  12102 12354 12355  3953 12354 12355  1369 12102 12355  1839 12356 12357  10335 12356 12357  1996 10335 12356  1787 10335 12357  2712 12358 12360  12358 12359 12360  4002 12358 12359  2656 12359 12360  290 291 12361  290 12361 12362  719 12361 12362  289 290 12362  1593 9844 12363  9844 11398 12363  3393 11398 12363  1418 9844 11398  798 10100 12364  10100 12364 12365  800 12364 12365  799 10100 12365  2352 5872 12367  5872 12366 12367  4761 5872 12366  3134 12366 12367  2212 12368 12369  12071 12368 12369  3834 12071 12368  1921 12071 12369  1521 5964 12371  5964 12370 12371  3973 5964 12370  1525 12370 12371  2128 9725 12372  8032 9725 12372  3276 8032 12372  1758 8032 9725  1854 12373 12374  11138 12373 12374  3779 11138 12373  1707 11138 12374  2324 12375 12376  12373 12375 12376  3779 12373 12375  1854 12373 12376  3842 12377 12378  6167 12377 12378  4044 6167 12377  2180 6167 12378  2950 8277 11460  8277 11460 12379  3687 8277 12379  2058 11460 12379  1529 10159 10405  10159 10405 11526  3745 10159 11526  1448 10405 11526  3093 7980 12380  7980 12131 12380  3815 12131 12380  3091 7980 12131  2247 11047 11116  11047 11116 12381  2248 11116 12381  2149 11047 12381  1819 9889 12382  9889 11350 12382  2116 11350 12382  2115 9889 11350  1356 12383 12385  12383 12384 12385  4212 12383 12384  4054 12384 12385  2459 11115 12386  11115 12386 12387  2460 12386 12387  2248 11115 12387  815 10032 11687  10032 11687 12148  3685 11687 12148  818 10032 12148  1717 11525 12388  11525 12388 12389  3912 12388 12389  1990 11525 12389  2961 11031 11470  11031 11470 12390  2962 11031 12390  2420 11470 12390  1674 7919 11043  7919 11043 12391  4029 7919 12391  1697 11043 12391  1893 8815 10632  8815 10632 12392  3755 8815 12392  1977 10632 12392  2054 9639 12393  9639 12393 12394  3576 12393 12394  1800 9639 12394  1800 9653 12395  8678 9653 12395  2181 8678 12395  1539 8678 9653  2657 11038 12397  11038 12396 12397  4016 11038 12396  2620 12396 12397  2636 7528 12399  7528 12398 12399  4015 7528 12398  2615 12398 12399  3502 11937 12400  7192 11937 12400  4220 7192 12400  3503 7192 11937  2368 7680 12401  6537 7680 12401  4476 6537 7680  2207 6537 12401  2940 9108 12402  9108 12402 12403  3918 12402 12403  2942 9108 12403  1217 10708 12404  6910 10708 12404  4318 6910 12404  1219 6910 10708  679 12405 12407  12405 12406 12407  4625 12405 12406  4527 12406 12407  3384 6089 12408  6089 8378 12408  4661 8378 12408  3385 6089 8378  2743 12409 12411  12409 12410 12411  4017 12409 12410  2679 12410 12411  973 9879 12412  9879 12412 12413  4366 12412 12413  1483 9879 12413  2247 9674 12414  6185 9674 12414  4309 6185 12414  3362 6185 9674  1946 8330 12416  8330 12415 12416  4045 8330 12415  2027 12415 12416  815 10241 11385  10241 10592 11385  816 10592 11385  813 10241 10592  1767 11158 12417  11158 12417 12418  2856 12417 12418  1856 11158 12418  2156 11105 11992  11105 11992 12419  2157 11992 12419  2155 11105 12419  3532 9660 12420  9660 11336 12420  3715 11336 12420  3527 9660 11336  811 12192 12224  12192 12224 12421  2219 12224 12421  802 12192 12421  3154 5344 12422  5344 6892 12422  3155 5344 6892  2290 6892 12422  1894 12423 12424  8816 12423 12424  2079 8816 12423  1893 8816 12424  2707 12425 12427  12425 12426 12427  4023 12425 12426  2666 12426 12427  1669 12428 12429  12310 12428 12429  1670 12310 12428  1668 12310 12429  2759 12195 12430  12195 12430 12431  3984 12430 12431  2753 12195 12431  3813 8897 12432  8897 12432 12433  4248 12432 12433  2939 8897 12433  2131 6424 12434  6424 7573 12434  4840 7573 12434  2997 6424 7573  1903 11811 12435  11811 12435 12436  3852 12435 12436  2188 11811 12436  2895 12437 12439  12437 12438 12439  3947 12437 12438  1951 12438 12439  1490 10232 11484  10232 11484 12440  1812 11484 12440  1353 10232 12440  2041 9160 12442  9160 12441 12442  2238 9160 12441  2043 12441 12442  1363 10108 11486  10108 11486 12443  3337 11486 12443  1548 10108 12443  3888 11449 12444  11449 12444 12445  4719 12444 12445  4193 11449 12445  2725 11803 12446  11803 12446 12447  3914 12446 12447  2778 11803 12447  3200 9237 12448  9237 12448 12449  4247 12448 12449  1540 9237 12449  1693 12450 12451  10569 12450 12451  1694 10569 12450  1670 10569 12451  1720 11569 12452  11569 12452 12453  3925 12452 12453  1655 11569 12453  1531 12454 12455  7794 12454 12455  1532 7794 12454  1530 7794 12455  3048 7406 11201  7406 11201 12456  3049 7406 12456  2338 11201 12456  2337 11202 11240  11202 11240 12457  2338 11202 12457  2082 11240 12457  4216 12458 12459  11518 12458 12459  4566 11518 12458  2947 11518 12459  2268 12460 12461  10308 12460 12461  2347 10308 12460  2079 10308 12461  3725 5429 10010  5429 10010 12462  4428 5429 12462  2410 10010 12462  3507 12244 12464  12244 12463 12464  3854 12244 12463  2403 12463 12464  1870 10029 12465  10029 11455 12465  2241 11455 12465  2226 10029 11455  1411 6514 12466  6514 11743 12466  3551 6514 11743  1409 11743 12466  2710 11849 12467  11849 12467 12468  3929 12467 12468  2722 11849 12468  754 5553 7757  5553 7757 12469  4738 7757 12469  3238 5553 12469  24 25 12470  24 12470 12471  3708 12470 12471  23 24 12471  970 11886 12472  11886 12472 12473  3917 12472 12473  967 11886 12473  1495 11795 12474  11795 12474 12475  3960 12474 12475  860 11795 12475  2203 11180 11266  11180 11266 12476  2491 11266 12476  2110 11180 12476  1317 10697 12477  7683 10697 12477  4000 7683 12477  1268 7683 10697  1800 12394 12395  12394 12395 12478  3576 12394 12478  2181 12395 12478  2175 11248 12479  11248 12479 12480  2867 12479 12480  2305 11248 12480  3157 5256 7021  5256 7021 12481  4602 5256 12481  2837 7021 12481  1464 12482 12483  10406 12482 12483  1465 10406 12482  1448 10406 12483  4395 8112 12275  8112 12275 12484  4520 12275 12484  3047 8112 12484  2132 5916 8597  5916 8597 12485  4022 5916 12485  4021 8597 12485  1665 12486 12487  10476 12486 12487  1666 10476 12486  1532 10476 12487  2492 11265 11709  11265 11709 12488  3021 11709 12488  2491 11265 12488  2240 11893 12489  11893 12489 12490  3926 12489 12490  2018 11893 12490  3190 11007 12491  5221 11007 12491  3191 5221 12491  3189 5221 11007  216 217 10238  216 10238 11956  3781 10238 11956  215 216 11956  801 11897 12492  11897 12492 12493  3835 12492 12493  804 11897 12493  1889 10217 11598  6889 10217 11598  3221 6889 11598  2148 6889 10217  2700 11894 12494  11894 12494 12495  3931 12494 12495  2703 11894 12495  3294 11275 12496  11275 12496 12497  4590 12496 12497  776 11275 12497  2920 10080 12266  10080 12266 12498  3844 12266 12498  2918 10080 12498  2238 8898 12500  8898 12499 12500  2939 8898 12499  2521 12499 12500  3753 10473 12501  8899 10473 12501  4494 8899 10473  2819 8899 12501  1311 11846 12502  7318 11846 12502  4120 7318 12502  1312 7318 11846  1481 12503 12504  5527 12503 12504  4038 5527 12503  1820 5527 12504  1342 12505 12506  10229 12505 12506  1343 10229 12505  1341 10229 12506  1815 11467 12507  11467 12507 12508  2518 12507 12508  1814 11467 12508  2218 6838 11853  6838 11853 12509  3965 6838 12509  1214 11853 12509  2080 12510 12512  12510 12511 12512  4036 12510 12511  2922 12511 12512  1998 11241 11596  11241 11596 12513  2082 11241 12513  1930 11596 12513  2929 12514 12515  6968 12514 12515  2993 6968 12514  2117 6968 12515  1091 8866 12516  8866 11797 12516  3388 8866 11797  1089 11797 12516  3776 7686 12517  7686 12517 12518  4629 12517 12518  3204 7686 12518  12 13 12519  12 12519 12520  738 12519 12520  11 12 12520  984 9905 12521  9905 12521 12522  4388 12521 12522  986 9905 12522  3105 7164 10169  7164 10169 12523  3746 7164 12523  2401 10169 12523  4329 12524 12525  5143 12524 12525  4602 5143 12524  739 5143 12525  708 12169 12526  12169 12470 12526  3708 12470 12526  25 12169 12470  1256 9775 12527  8052 9775 12527  3828 8052 12527  3614 8052 9775  2459 11544 12386  11544 12386 12528  4163 11544 12528  2460 12386 12528  1488 11616 12529  11616 12529 12530  3938 12529 12530  1357 11616 12530  1785 12531 12532  12258 12531 12532  3876 12258 12531  1652 12258 12532  2798 10577 12353  10577 12353 12533  4377 12353 12533  3360 10577 12533  1813 11468 11483  11468 11483 12534  1814 11468 12534  1812 11483 12534  20 21 12535  20 12535 12536  3716 12535 12536  19 20 12536  2116 11349 12537  11349 11405 12537  2446 11405 12537  2223 11349 11405  3005 11233 12539  11233 12538 12539  3748 11233 12538  3747 12538 12539  2923 5480 12540  5480 9170 12540  4353 9170 12540  4320 5480 9170  2137 11375 12541  11375 12541 12542  3785 12541 12542  2916 11375 12542  2446 11404 12543  11403 11404 12543  3042 11403 12543  2447 11403 11404  2852 12126 12544  12126 12544 12545  4057 12544 12545  2853 12126 12545  2842 10848 12546  9468 10848 12546  3780 9468 12546  2266 9468 10848  1304 12547 12549  12547 12548 12549  4042 12547 12548  1607 12548 12549  1508 11542 12550  7507 11542 12550  4156 7507 12550  1507 7507 11542  1568 9924 11503  9924 11503 12551  1570 11503 12551  1566 9924 12551  1551 11896 12552  11896 12552 12553  3969 12552 12553  2224 11896 12553  2633 12554 12556  12554 12555 12556  3974 12554 12555  2658 12555 12556  1326 12557 12558  8211 12557 12558  1327 8211 12557  1325 8211 12558  3708 12559 12560  5185 12559 12560  3709 5185 12559  758 5185 12560  1445 12561 12562  10520 12561 12562  1446 10520 12561  1343 10520 12562  3401 6206 7580  6206 7580 12563  4179 7580 12563  3292 6206 12563  1366 10454 12564  7979 10454 12564  4199 7979 12564  1220 7979 10454  3216 8109 9495  8109 8614 9495  4089 8109 8614  3215 8614 9495  2170 9959 11506  9308 9959 11506  3086 9308 11506  2126 9308 9959  2685 11949 12565  11949 12565 12566  3935 12565 12566  2692 11949 12566  1761 10007 12567  10007 12567 12568  4782 12567 12568  1763 10007 12568  2239 9867 10636  9867 10636 12569  3786 9867 12569  2852 10636 12569  2396 11080 12570  11080 11836 12570  2837 11836 12570  2836 11080 11836  2966 11760 12571  11760 12571 12572  2967 12571 12572  2398 11760 12572  2216 12573 12574  10430 12573 12574  2217 10430 12573  2215 10430 12574  1564 10061 12347  10061 11591 12347  3373 11591 12347  1196 10061 11591  1279 12575 12576  10464 12575 12576  1280 10464 12575  1278 10464 12576  2271 10294 12577  10294 12577 12578  4356 12577 12578  3612 10294 12578  2408 11123 12580  11123 12579 12580  3003 11123 12579  3002 12579 12580  794 12349 12581  12349 12581 12582  3739 12581 12582  658 12349 12582  2038 11829 12583  11829 12583 12584  3924 12583 12584  3526 11829 12584  1911 7232 12586  7232 12585 12586  4056 7232 12585  1503 12585 12586  3126 10248 11862  7629 10248 11862  3127 7629 11862  737 7629 10248  3033 6436 11535  6436 11535 12587  3768 6436 12587  798 11535 12587  2427 12016 12588  12016 12588 12589  3759 12588 12589  2426 12016 12589  3607 9020 12590  9020 12590 12591  4037 12590 12591  2663 9020 12591  800 12339 12593  12339 12592 12593  802 12339 12592  801 12592 12593  1338 12594 12595  10499 12594 12595  1339 10499 12594  1327 10499 12595  676 11694 12596  7840 11694 12596  3949 7840 12596  75 7840 11694  779 12597 12599  12597 12598 12599  4605 12597 12598  3575 12598 12599  2833 10188 12600  10188 12600 12601  4496 12600 12601  2834 10188 12601  952 9261 12602  7102 9261 12602  4406 7102 12602  3268 7102 9261  2188 12436 12603  7195 12436 12603  3852 7195 12436  2984 7195 12603  3802 12342 12604  12342 12604 12605  3805 12604 12605  1351 12342 12605  3985 6652 12606  6652 12606 12607  3986 12606 12607  3064 6652 12607  2243 6631 10122  6631 10122 11621  3121 6631 11621  1993 10122 11621  2241 11454 12608  11454 11493 12608  2986 11493 12608  2242 11454 11493  1362 12123 12609  12123 12609 12610  3761 12609 12610  1428 12123 12610  4698 7069 11352  7069 11352 12611  4782 11352 12611  1963 7069 12611  1708 10530 10774  10530 10774 11441  3772 10774 11441  1822 10530 11441  1333 6919 10223  6919 10223 12612  4212 6919 12612  1335 10223 12612  1827 10686 11481  10686 11069 11481  3771 11069 11481  1685 10686 11069  1272 12613 12614  10547 12613 12614  1273 10547 12613  1208 10547 12614  1990 12389 12615  6709 12389 12615  3912 6709 12389  2838 6709 12615  4058 11658 12617  11658 12616 12617  4106 11658 12616  3822 12616 12617  23 12256 12471  12256 12471 12560  3708 12471 12560  758 12256 12560  3019 5672 12618  5672 12618 12619  4736 12618 12619  3859 5672 12619  2136 10034 12620  8200 10034 12620  3267 8200 12620  1809 8200 10034  296 297 12621  296 6135 12621  739 6135 12621  295 296 6135  810 11725 12622  11725 12622 12623  2511 12622 12623  812 11725 12623  1660 5047 12624  5047 12624 12625  4832 12624 12625  3108 5047 12625  2308 7792 11379  7792 11379 11692  3788 7792 11692  2097 11379 11692  1982 11066 12627  11066 12626 12627  2163 11066 12626  2162 12626 12627  1817 6192 10988  6192 10988 12628  4885 6192 12628  2010 10988 12628  758 5707 12257  5707 12257 12535  3716 5707 12535  21 12257 12535  1738 11855 12629  11855 12629 12630  3948 12629 12630  1895 11855 12630  1909 12631 12632  10576 12631 12632  1910 10576 12631  1851 10576 12632  3107 11013 12633  9450 11013 12633  3794 9450 12633  3066 9450 11013  1198 12634 12635  10154 12634 12635  1199 10154 12634  1197 10154 12635  874 11738 12636  11738 12636 12637  3950 12636 12637  878 11738 12637  2834 5280 10189  5280 10189 12638  2844 5280 12638  1988 10189 12638  1376 5875 12639  5875 12639 12640  4927 12639 12640  3110 5875 12640  3264 9988 11144  5792 9988 11144  3728 5792 11144  3575 5792 9988  1584 6049 12641  6049 12641 12642  4340 12641 12642  3720 6049 12642  291 12225 12361  11084 12225 12361  3646 11084 12225  719 11084 12361  2337 10174 11339  6012 10174 11339  3741 6012 11339  3512 6012 10174  4051 5237 12644  5237 12643 12644  4786 5237 12643  730 12643 12644  2058 12379 12645  6629 12379 12645  3687 6629 12379  2484 6629 12645  4159 11434 12646  7328 11434 12646  4182 7328 11434  3443 7328 12646  1042 11794 12647  11794 12647 12648  3958 12647 12648  1045 11794 12648  1371 11807 12649  11807 12649 12650  3953 12649 12650  1374 11807 12650  1884 12651 12652  10585 12651 12652  1885 10585 12651  1643 10585 12652  2856 6664 12653  6664 12653 12654  4537 12653 12654  4165 6664 12654  1764 12655 12656  7035 12655 12656  1765 7035 12655  1762 7035 12656  3715 7619 12657  7619 12657 12658  4899 12657 12658  3528 7619 12658  3657 5548 11750  5548 11750 12659  4008 5548 12659  3656 11750 12659  862 11778 12660  11778 12660 12661  3960 12660 12661  928 11778 12661  1277 5658 10546  5658 10546 12662  4280 5658 12662  1208 10546 12662  2325 12663 12665  12663 12664 12665  3924 12663 12664  2037 12664 12665  1777 11499 11504  11499 11504 12666  1778 11499 12666  1714 11504 12666  3381 7249 11033  7249 11033 12667  3943 7249 12667  3382 11033 12667  1899 10145 11715  7105 10145 11715  1900 7105 11715  1659 7105 10145  2397 11407 11761  11178 11407 11761  2398 11178 11761  1978 11178 11407  2209 10025 12668  9990 10025 12668  3521 9990 12668  2208 9990 10025  2108 11168 11310  11168 11310 12669  2894 11168 12669  2893 11310 12669  2604 12670 12672  12670 12671 12672  4074 12670 12671  2614 12671 12672  3147 8244 12674  8244 12673 12674  3793 8244 12673  2726 12673 12674  3842 12675 12677  12675 12676 12677  4221 12675 12676  2453 12676 12677  1713 11505 11530  11505 11530 12678  1714 11505 12678  1712 11530 12678  3249 7162 12679  7162 12452 12679  3925 7162 12452  1720 12452 12679  2857 5521 12680  5521 12653 12680  4537 5521 12653  2856 12653 12680  2489 6602 10245  6602 10245 11879  3464 6602 11879  2004 10245 11879  1183 12681 12682  10662 12681 12682  1184 10662 12681  1182 10662 12682  2433 12683 12685  12683 12684 12685  4096 12683 12684  2501 12684 12685  3245 12686 12688  12686 12687 12688  3246 12686 12687  3244 12687 12688  1205 12689 12690  10649 12689 12690  1206 10649 12689  1199 10649 12690  3139 7080 12691  7080 12691 12692  4367 12691 12692  2255 7080 12692  2403 12463 12693  5817 12463 12693  3854 5817 12463  2405 5817 12693  1562 8062 10231  8062 10231 11828  3403 8062 11828  1340 10231 11828  2600 12694 12696  12694 12695 12696  4075 12694 12695  2634 12695 12696  2774 11874 12697  11874 12697 12698  3968 12697 12698  2755 11874 12698  794 6487 12581  6487 12581 12699  4237 6487 12699  3739 12581 12699  1890 8224 12701  8224 12700 12701  1892 8224 12700  1891 12700 12701  2088 12702 12703  11833 12702 12703  2117 11833 12702  1883 11833 12703  2616 12704 12705  8568 12704 12705  4080 8568 12704  2637 8568 12705  1127 10626 12706  9436 10626 12706  4188 9436 12706  1110 9436 10626  2686 12707 12709  12707 12708 12709  4079 12707 12708  2819 12708 12709  1509 12710 12711  10613 12710 12711  1510 10613 12710  1508 10613 12711  1216 11842 12712  11842 12712 12713  3965 12712 12713  1365 11842 12713  947 11841 12714  11841 12714 12715  3966 12714 12715  1033 11841 12715  1571 11502 11571  11502 11571 12716  1572 11571 12716  1570 11502 12716  1171 12717 12718  10695 12717 12718  1172 10695 12717  1170 10695 12718  2765 11810 12719  11810 12719 12720  3978 12719 12720  2768 11810 12720  1704 8370 11561  8370 11561 12721  1705 8370 12721  1683 11561 12721  1892 11091 12723  11091 12722 12723  1980 11091 12722  1979 12722 12723  1682 11562 11575  11562 11575 12724  1683 11562 12724  1574 11575 12724  3046 9971 12725  9971 12725 12726  4800 12725 12726  2995 9971 12726  1573 11570 11576  11570 11576 12727  1574 11576 12727  1572 11570 12727  3441 12728 12730  12728 12729 12730  4601 12728 12729  4252 12729 12730  2778 12447 12732  12447 12731 12732  3914 12447 12731  2963 12731 12732  1346 8642 8920  8360 8642 8920  3588 8360 8920  3587 8360 8642  1792 12733 12734  10580 12733 12734  1793 10580 12733  1765 10580 12734  2283 10253 12735  10253 12735 12736  3705 12735 12736  1926 10253 12736  983 9769 12737  9188 9769 12737  4559 9188 12737  3124 9188 9769  2375 12738 12739  10645 12738 12739  2376 10645 12738  2374 10645 12739  1926 10260 12740  9909 10260 12740  2858 9909 12740  1680 9909 10260  4242 7610 12741  7218 7610 12741  4771 7218 12741  3325 7218 7610  1664 6757 10982  6757 10982 12742  4382 6757 12742  1545 10982 12742  1711 11531 11939  11531 11939 12743  1712 11531 12743  1710 11939 12743  3535 5895 7251  5895 7251 12744  4403 7251 12744  2198 5895 12744  19 12331 12536  12331 12536 12745  3716 12536 12745  715 12331 12745  3167 12746 12747  8644 12746 12747  3170 8644 12746  3169 8644 12747  3247 12748 12750  12748 12749 12750  3248 12748 12749  3246 12749 12750  1470 12751 12752  10674 12751 12752  1471 10674 12751  1469 10674 12752  3796 12753 12754  7291 12753 12754  3797 7291 12753  2237 7291 12754  1164 12755 12756  10748 12755 12756  1165 10748 12755  1163 10748 12756  1780 11907 12757  11907 12757 12758  3969 12757 12758  1553 11907 12758  2977 12759 12760  11802 12759 12760  4755 11802 12759  3682 11802 12760  4261 12761 12763  12761 12762 12763  4828 12761 12762  3945 12762 12763  2391 12764 12766  12764 12765 12766  3522 12764 12765  3521 12765 12766  3035 12084 12767  11412 12084 12767  3735 11412 12084  3039 11412 12767  2756 11882 12768  11882 12768 12769  3984 12768 12769  2760 11882 12769  1668 9965 12309  9965 11452 12309  3792 11452 12309  1803 9965 11452  1029 6316 12770  6316 12770 12771  4645 12770 12771  3220 6316 12771  2958 10306 11655  10306 11655 12772  3662 10306 12772  2351 11655 12772  3764 8227 12773  8227 12773 12774  4394 12773 12774  2494 8227 12774  2371 12775 12776  10712 12775 12776  2372 10712 12775  2370 10712 12776  1546 6494 11161  6494 11161 12777  4651 11161 12777  4232 6494 12777  3162 6816 8983  6816 8983 12778  3568 6816 12778  2640 8983 12778  1964 12779 12780  12265 12779 12780  3814 12265 12779  1462 12265 12780  2722 12468 12782  12468 12781 12782  3929 12468 12781  2784 12781 12782  1502 8723 9165  8723 9165 12783  4150 8723 12783  1722 9165 12783  1321 12784 12785  5779 12784 12785  4253 5779 12784  1613 5779 12785  1315 11690 12786  11690 12343 12786  3801 12343 12786  1351 11690 12343  1847 11089 12788  11089 12787 12788  1849 11089 12787  1848 12787 12788  2217 10429 12789  7532 10429 12789  4330 7532 12789  2479 7532 10429  3647 11869 12790  11869 12790 12791  3825 12790 12791  3418 11869 12791  1606 12792 12793  12472 12792 12793  3917 12472 12792  970 12472 12793  3333 5473 12794  5473 12794 12795  4526 12794 12795  784 5473 12795  1105 9267 11628  9267 11628 12796  3790 11628 12796  1991 9267 12796  1442 12797 12798  10737 12797 12798  1443 10737 12797  1441 10737 12798  2377 12799 12800  10042 12799 12800  2378 10042 12799  2376 10042 12800  1541 12801 12803  12801 12802 12803  3990 12801 12802  2458 12802 12803  2379 12804 12805  10702 12804 12805  2380 10702 12804  2378 10702 12805  2260 12806 12808  12806 12807 12808  2261 12806 12807  2002 12807 12808  2854 12809 12810  12489 12809 12810  3926 12489 12809  2240 12489 12810  4561 10095 12812  10095 12811 12812  4678 10095 12811  3723 12811 12812  4228 6348 12813  6348 12813 12814  4863 12813 12814  3399 6348 12814  1155 12815 12816  4969 12815 12816  1156 4969 12815  1154 4969 12816  1674 11045 12818  11045 12817 12818  1696 11045 12817  1695 12817 12818  2401 11335 12819  11335 12344 12819  3569 12344 12819  2042 11335 12344  3513 12820 12822  12820 12821 12822  4668 12820 12821  3514 12821 12822  1472 12823 12824  10046 12823 12824  1473 10046 12823  1471 10046 12824  2182 12825 12826  10063 12825 12826  2183 10063 12825  2135 10063 12826  1868 12176 12827  5912 12176 12827  3770 5912 12176  1924 5912 12827  1505 12828 12829  10726 12828 12829  1506 10726 12828  1473 10726 12829  2249 11951 12831  11951 12830 12831  2441 11951 12830  2257 12830 12831  2644 12832 12834  12832 12833 12834  4041 12832 12833  2645 12833 12834  2303 12835 12836  12529 12835 12836  3938 12529 12835  1488 12529 12836  8 9 12837  8 12837 12838  789 12837 12838  7 8 12838  2640 10451 12778  10451 11496 12778  3568 11496 12778  2628 10451 11496  4473 11118 12840  11118 12839 12840  4665 11118 12839  2441 12839 12840  4733 8004 12841  8004 8817 12841  4913 8817 12841  2172 8004 8817  656 12842 12844  12842 12843 12844  3739 12842 12843  762 12843 12844  798 12364 12587  12364 12587 12845  3768 12587 12845  800 12364 12845  4252 12729 12847  12729 12846 12847  4601 12729 12846  2676 12846 12847  2703 12495 12849  12495 12848 12849  3931 12495 12848  2818 12848 12849  1289 7616 11729  7616 11729 12850  4182 7616 12850  838 11729 12850  3444 6300 7998  6300 7998 12851  4135 6300 12851  1569 7998 12851  1702 12852 12853  12754 12852 12853  3796 12754 12852  2237 12754 12853  1538 11058 12855  11058 12854 12855  1672 11058 12854  1671 12854 12855  2208 9992 12857  9992 12856 12857  2977 9992 12856  2212 12856 12857  4237 12699 12858  12699 12858 12859  4810 12858 12859  3739 12699 12859  1435 12860 12862  12860 12861 12862  1436 12860 12861  1434 12861 12862  1648 12863 12864  10833 12863 12864  1649 10833 12863  1647 10833 12864  1139 10106 12865  6990 10106 12865  4241 6990 12865  1130 6990 10106  986 5572 9906  5572 9906 12866  4366 5572 12866  978 9906 12866  1429 12867 12868  8391 12867 12868  3808 8391 12867  2225 8391 12868  2509 12869 12870  11476 12869 12870  3713 11476 12869  2270 11476 12870  2931 9865 12871  9865 12871 12872  3722 12871 12872  3721 9865 12872  2313 11656 12133  11656 12133 12873  2351 11656 12873  2030 12133 12873  4302 5297 10383  5297 10383 12874  4322 10383 12874  2909 5297 12874  657 658 12582  657 12582 12842  3739 12582 12842  656 657 12842  1123 12875 12876  10944 12875 12876  1124 10944 12875  1122 10944 12876  3328 5797 12328  5797 12328 12877  4010 5797 12877  1533 12328 12877  1152 10919 12878  5694 10919 12878  4421 5694 12878  1180 5694 10919  1797 12107 12879  12107 12879 12880  3992 12879 12880  1426 12107 12880  1157 12881 12882  6156 12881 12882  1158 6156 12881  1156 6156 12882  1642 12883 12884  10077 12883 12884  1643 10077 12883  1620 10077 12884  1867 7950 10782  7950 8102 10782  3916 7950 8102  1872 8102 10782  1160 12885 12886  10931 12885 12886  1161 10931 12885  1158 10931 12886  1934 11714 11806  11714 11806 12887  1935 11806 12887  1900 11714 12887  2801 12888 12890  12888 12889 12890  4004 12888 12889  2748 12889 12890  3023 6409 12891  5664 6409 12891  4808 5664 6409  3022 5664 12891  667 12892 12893  7911 12892 12893  4718 7911 12892  4111 7911 12893  2533 8338 12894  5432 8338 12894  3963 5432 12894  3603 5432 8338  1431 12895 12896  10947 12895 12896  1432 10947 12895  1425 10947 12896  2297 12897 12898  10854 12897 12898  2298 10854 12897  2183 10854 12898  1973 11799 11805  11799 11805 12899  1974 11799 12899  1935 11805 12899  1598 12900 12901  6752 12900 12901  4368 6752 12900  3954 6752 12901  3190 6837 12491  6837 7634 12491  4225 6837 7634  3191 7634 12491  2527 8348 12902  8348 12902 12903  4447 12902 12903  3701 8348 12903  2799 12904 12906  12904 12905 12906  4053 12904 12905  2800 12905 12906  1347 11104 12908  11104 12907 12908  1349 11104 12907  1348 12907 12908  1083 7508 12909  7508 12909 12910  4249 12909 12910  3284 7508 12910  1613 6126 12912  6126 12911 12912  4484 6126 12911  3163 12911 12912  2222 5149 10981  5149 10981 12214  3467 5149 12214  1997 10981 12214  2367 12913 12915  12913 12914 12915  2445 12913 12914  2301 12914 12915  1561 8446 9506  8446 9506 11626  3806 8446 11626  1658 9506 11626  1437 12916 12917  10918 12916 12917  1438 10918 12916  1436 10918 12917  2430 12918 12920  12918 12919 12920  4052 12918 12919  2431 12919 12920  1119 12921 12922  10971 12921 12922  1120 10971 12921  1115 10971 12922  900 9783 12923  7446 9783 12923  4560 7446 12923  1478 7446 9783  3771 11070 12924  11070 12924 12925  4915 12924 12925  1781 11070 12925  1834 12926 12927  5978 12926 12927  3250 5978 12926  3249 5978 12927  2235 12928 12929  12779 12928 12929  3814 12779 12928  1964 12779 12929  744 6999 12930  6999 12930 12931  3151 12930 12931  3150 6999 12931  2382 12932 12934  12932 12933 12934  4292 12932 12933  4258 12933 12934  1429 12868 12936  12868 12935 12936  2225 12868 12935  1608 12935 12936  2692 12566 12938  12566 12937 12938  3935 12566 12937  2729 12937 12938  800 12338 12845  12338 12845 12939  3768 12845 12939  810 12338 12939  3070 6634 12941  6634 12940 12941  3073 6634 12940  2514 12940 12941  3539 10043 12942  10043 11707 12942  4001 11707 12942  2635 10043 11707  3526 12584 12944  12584 12943 12944  3924 12584 12943  3530 12943 12944  1420 12945 12946  10069 12945 12946  1421 10069 12945  1419 10069 12946  1337 11093 12948  11093 12947 12948  1345 11093 12947  1344 12947 12948  10 11 12949  10 12949 12950  3754 12949 12950  9 10 12950  3418 11610 12791  6285 11610 12791  3825 6285 12791  3419 6285 11610  2252 12951 12953  12951 12952 12953  3817 12951 12952  3043 12952 12953  218 219 12954  218 10239 12954  3644 10239 12954  217 218 10239  2225 11112 12956  11112 12955 12956  2404 11112 12955  2403 12955 12956  1896 9377 12957  5589 9377 12957  4422 5589 12957  3114 5589 9377  4475 12958 12960  12958 12959 12960  4636 12958 12959  3705 12959 12960  3326 7647 7718  7647 7718 12961  4082 7647 12961  2639 7718 12961  1108 12962 12963  11012 12962 12963  1109 11012 12962  1106 11012 12963  1319 10254 12964  10254 12964 12965  3565 12964 12965  1318 10254 12965  2213 6208 12966  6208 12966 12967  4862 12966 12967  3098 6208 12967  1834 12926 12968  12926 12968 12969  3834 12968 12969  3250 12926 12969  2542 12970 12972  12970 12971 12972  3760 12970 12971  2545 12971 12972  2288 12973 12975  12973 12974 12975  4266 12973 12974  3738 12974 12975  114 115 9472  114 9472 12976  3812 9472 12976  113 114 12976  1687 12977 12979  12977 12978 12979  3831 12977 12978  1497 12978 12979  4015 11362 12981  11362 12980 12981  4184 11362 12980  2657 12980 12981  2194 12982 12983  12376 12982 12983  2324 12376 12982  1854 12376 12983  800 12365 12593  11252 12365 12593  801 11252 12593  799 11252 12365  1855 6129 12984  6129 12984 12985  4430 12984 12985  3613 6129 12985  1593 12363 12986  12363 12986 12987  4032 12986 12987  3393 12363 12987  1312 11129 12989  11129 12988 12989  1314 11129 12988  1313 12988 12989  3167 7803 12747  7803 8563 12747  3169 8563 12747  2698 7803 8563  3790 10927 12796  10927 12796 12990  4030 10927 12990  1991 12796 12990  1300 10299 12991  10299 12991 12992  3566 12991 12992  1299 10299 12992  2072 12993 12995  12993 12994 12995  2185 12993 12994  2184 12994 12995  2396 12570 12996  7019 12570 12996  3755 7019 12996  2837 7019 12570  1410 12997 12998  12466 12997 12998  1411 12466 12997  1409 12466 12998  1977 11173 12392  11173 12392 12996  3755 12392 12996  2396 11173 12996  1783 10993 13000  10993 12999 13000  1969 10993 12999  1785 12999 13000  1022 9998 13001  9998 13001 13002  4522 13001 13002  1024 9998 13002  1918 9941 13003  9941 12306 13003  3608 9941 12306  1879 12306 13003  3711 5055 13004  5055 13004 13005  4779 13004 13005  3530 5055 13005  1422 13006 13007  10998 13006 13007  1423 10998 13006  1421 10998 13007  878 12637 13009  12637 13008 13009  3950 12637 13008  1855 13008 13009  3919 13010 13012  13010 13011 13012  3920 13010 13011  2699 13011 13012  2937 9581 13013  7325 9581 13013  4673 7325 13013  3508 7325 9581  2001 13014 13016  13014 13015 13016  2002 13014 13015  1723 13015 13016  1090 13017 13018  12516 13017 13018  1091 12516 13017  1089 12516 13018  309 310 13019  309 13019 13020  788 13019 13020  308 309 13020  1351 10741 12605  10741 11875 12605  3805 11875 12605  1352 10741 11875  258 259 13021  258 10050 13021  3664 10050 13021  257 258 10050  3136 8072 13022  8072 13022 13023  4933 13022 13023  1209 8072 13023  3098 6512 13024  6512 13024 13025  4033 13024 13025  675 6512 13025  1895 12630 13027  12630 13026 13027  3948 12630 13026  2284 13026 13027  1782 10528 13028  10528 13028 13029  4902 13028 13029  1066 10528 13029  2272 13030 13031  11021 13030 13031  2273 11021 13030  1929 11021 13031  3283 5841 13032  5841 13032 13033  4918 13032 13033  1118 5841 13033  1262 10593 13034  10593 13034 13035  3562 13034 13035  1261 10593 13035  2401 12523 12819  11566 12523 12819  3746 11566 12523  3569 11566 12819  2453 11242 12677  11242 12377 12677  4044 11242 12377  3842 12377 12677  2139 11147 13036  11147 13036 13037  3152 13036 13037  2353 11147 13037  1974 13038 13040  13038 13039 13040  3704 13038 13039  2252 13039 13040  1928 13041 13042  10066 13041 13042  1929 10066 13041  1775 10066 13042  1914 10490 13043  10490 11387 13043  3564 11387 13043  1913 10490 11387  1873 10287 11041  10287 11041 11820  3836 10287 11820  1520 11041 11820  1760 11960 13045  11960 13044 13045  2249 11960 13044  2047 13044 13045  3796 9394 12753  9394 12753 13046  3803 9394 13046  3797 12753 13046  3991 7138 13048  7138 13047 13048  4924 7138 13047  1604 13047 13048  1404 13049 13050  11099 13049 13050  1405 11099 13049  1403 11099 13050  2292 13051 13052  6038 13051 13052  2923 6038 13051  2461 6038 13052  1045 12648 13053  6738 12648 13053  3958 6738 12648  1869 6738 13053  1038 10603 13054  7267 10603 13054  4302 7267 13054  1036 7267 10603  2186 13055 13056  6616 13055 13056  3504 6616 13055  3158 6616 13056  1774 13057 13059  13057 13058 13059  1775 13057 13058  1611 13058 13059  1374 12650 13061  12650 13060 13061  3953 12650 13060  2232 13060 13061  262 263 13062  262 10176 13062  3671 10176 13062  261 262 10176  3125 10247 13063  6261 10247 13063  4331 6261 13063  3126 6261 10247  1610 13064 13066  13064 13065 13066  1611 13064 13065  1524 13065 13066  1582 13067 13069  13067 13068 13069  2304 13067 13068  2303 13068 13069  2186 7942 13056  7942 13056 13070  3158 13056 13070  2931 7942 13070  928 12661 13072  12661 13071 13072  3960 12661 13071  3451 13071 13072  1271 11155 13074  11155 13073 13074  1307 11155 13073  1306 13073 13074  1781 5708 12925  5708 12925 13075  4915 12925 13075  3405 5708 13075  1926 12736 12740  12736 12740 13076  3705 12736 13076  2858 12740 13076  1498 10237 13077  10237 12641 13077  4340 12641 13077  1584 10237 12641  2977 12760 13078  8288 12760 13078  3682 8288 12760  3327 8288 13078  1589 13079 13080  10019 13079 13080  1647 10019 13079  1587 10019 13080  1412 13081 13082  7012 13081 13082  1413 7012 13081  1411 7012 13082  1523 13083 13084  11042 13083 13084  1524 11042 13083  1520 11042 13084  1414 13085 13086  11040 13085 13086  1415 11040 13085  1413 11040 13086  1084 13087 13088  11086 13087 13088  1085 11086 13087  1081 11086 13088  3303 11999 13089  5051 11999 13089  4358 5051 13089  2900 5051 11999  3337 7953 12443  7953 12443 13090  4027 7953 13090  1548 12443 13090  2393 13091 13092  11036 13091 13092  2394 11036 13091  2049 11036 13092  1969 12079 13094  12079 13093 13094  2291 12079 13093  2092 13093 13094  1092 13095 13096  11068 13095 13096  1093 11068 13095  1091 11068 13096  1686 11288 13097  11288 12424 13097  1894 12424 13097  1893 11288 12424  1825 11127 13099  11127 13098 13099  2070 11127 13098  2069 13098 13099  1400 13100 13101  11114 13100 13101  1401 11114 13100  1399 11114 13101  1691 9846 13102  6197 9846 13102  4382 6197 13102  1941 6197 9846  1264 11196 13104  11196 13103 13104  1266 11196 13103  1265 13103 13104  1694 11267 13105  11267 12357 13105  1839 12357 13105  1787 11267 12357  940 10909 13106  10909 11581 13106  3591 11581 13106  939 10909 11581  810 12622 12939  6215 12622 12939  3768 6215 12939  2511 6215 12622  2482 8382 13108  8382 13107 13108  3050 8382 13107  1631 13107 13108  1430 10974 12088  10974 12088 12867  3808 12088 12867  1429 10974 12867  2041 11219 12442  11219 12442 13109  2043 12442 13109  1769 11219 13109  1559 11370 13111  11370 13110 13111  1768 11370 13110  1560 13110 13111  276 277 13112  276 10756 13112  3689 10756 13112  275 276 10756  4249 13113 13115  13113 13114 13115  4362 13113 13114  2828 13114 13115  759 12174 13116  12174 13116 13117  4692 13116 13117  3734 12174 13117  1406 13118 13119  11074 13118 13119  1407 11074 13118  1405 11074 13119  802 12592 13120  12492 12592 13120  3835 12492 13120  801 12492 12592  1832 13121 13123  13121 13122 13123  2938 13121 13122  1725 13122 13123  1365 12713 13124  6681 12713 13124  3965 6681 12713  1681 6681 13124  2382 13125 13126  10926 13125 13126  4030 10926 13125  3119 10926 13126  3763 8342 11257  8342 11257 13127  4259 11257 13127  3254 8342 13127  1033 12715 13128  6059 12715 13128  3966 6059 12715  2322 6059 13128  1074 13129 13130  11079 13129 13130  1075 11079 13129  1073 11079 13130  1702 12853 13132  12853 13131 13132  2237 12853 13131  2021 13131 13132  3514 6716 13133  6716 12697 13133  3968 6716 12697  2774 12697 13133  655 656 12844  655 12844 13134  762 12844 13134  654 655 13134  1737 10956 13135  10956 11617 13135  3596 11617 13135  1736 10956 11617  3818 13136 13138  13136 13137 13138  4727 13136 13137  2392 13137 13138  3604 8933 13139  8589 8933 13139  4756 8589 13139  3605 8589 8933  3531 6288 13140  6288 13140 13141  4599 13140 13141  4009 6288 13141  2255 12692 13143  12692 13142 13143  4367 12692 13142  1784 13142 13143  1701 9454 13144  9454 10513 13144  4131 10513 13144  1534 9454 10513  2697 11125 13146  11125 13145 13146  2738 11125 13145  2737 13145 13146  3257 8640 13147  5979 8640 13147  4596 5979 13147  1159 5979 8640  1536 12218 13148  12218 12852 13148  3796 12218 12852  1702 12852 13148  1396 13149 13150  11143 13149 13150  1397 11143 13149  1395 11143 13150  3696 13151 13153  13151 13152 13153  4875 13151 13152  2493 13152 13153  4065 13154 13155  13028 13154 13155  4902 13028 13154  1782 13028 13155  1258 11221 13157  11221 13156 13157  1260 11221 13156  1259 13156 13157  2470 5888 13158  5888 12145 13158  4199 5888 12145  4031 12145 13158  2935 13159 13160  7130 13159 13160  4747 7130 13159  2936 7130 13160  1455 13161 13162  11141 13161 13162  1456 11141 13161  1454 11141 13162  1535 12281 13163  12281 13163 13164  4010 13163 13164  1767 12281 13164  1748 6679 9476  6679 9476 13165  4882 6679 13165  3195 9476 13165  1103 10072 13166  10072 11958 13166  3782 11958 13166  1082 10072 11958  2768 12720 13168  12720 13167 13168  3978 12720 13167  2903 13167 13168  1049 9730 13169  7390 9730 13169  4715 7390 13169  1971 7390 9730  3485 5253 13170  5253 13170 13171  4048 13170 13171  724 5253 13171  2198 13172 13173  11164 13172 13173  2199 11164 13172  2091 11164 13173  280 281 13174  280 11120 13174  3699 11120 13174  279 280 11120  2608 13175 13177  13175 13176 13177  3871 13175 13176  2606 13176 13177  850 8952 13178  5444 8952 13178  4453 5444 13178  852 5444 8952  1917 13179 13180  12977 13179 13180  3831 12977 13179  1687 12977 13180  1582 13067 13181  13067 13181 13182  3876 13181 13182  2304 13067 13182  1634 13183 13185  13183 13184 13185  3866 13183 13184  1632 13184 13185  2017 13186 13187  12757 13186 13187  3969 12757 13186  1780 12757 13187  1068 13188 13189  10171 13188 13189  1069 10171 13188  1067 10171 13189  3584 11436 13190  11436 13190 13191  3935 13190 13191  2684 11436 13191  1390 13192 13193  10110 13192 13193  1391 10110 13192  1389 10110 13193  2174 11192 11485  11192 11485 12422  3154 11485 12422  2290 11192 12422  1076 13194 13195  11150 13194 13195  1077 11150 13194  1075 11150 13195  2628 11497 13197  11497 13196 13197  2630 11497 13196  2629 13196 13197  917 5924 9831  5924 9831 11784  3784 5924 11784  912 9831 11784  1768 11060 13199  11060 13198 13199  1904 11060 13198  1770 13198 13199  3550 11133 11995  11133 11995 13200  4669 11995 13200  2945 11133 13200  1666 11283 13201  11283 12429 13201  1669 12429 13201  1668 11283 12429  1248 11262 13203  11262 13202 13203  1250 11262 13202  1249 13202 13203  1604 13047 13205  13047 13204 13205  4924 13047 13204  3798 13204 13205  3439 13206 13208  13206 13207 13208  3441 13206 13207  3438 13207 13208  311 312 13209  311 13209 13210  3789 13209 13210  310 311 13210  1436 7847 12861  7847 12861 13211  4039 7847 13211  1434 12861 13211  4108 7784 13212  7784 8154 13212  4256 7784 8154  2161 8154 13212  2738 12312 13213  12106 12312 13213  2821 12106 12312  2739 12106 13213  1598 12354 12901  12354 12901 13214  3954 12901 13214  3953 12354 13214  2784 7141 13216  7141 13215 13216  3336 7141 13215  2724 13215 13216  300 301 13217  300 13217 13218  791 13217 13218  299 300 13218  3005 11573 12539  11573 12539 13219  3747 12539 13219  3003 11573 13219  3315 8496 12029  8496 12029 12966  4862 12029 12966  2213 8496 12966  3220 7969 12771  7969 12771 13220  4645 12771 13220  1591 7969 13220  3139 9011 13221  9011 13221 13222  4890 13221 13222  3140 9011 13222  2653 13223 13225  13223 13224 13225  3904 13223 13224  2646 13224 13225  1167 13226 13227  8377 13226 13227  1168 8377 13226  1039 8377 13227  284 285 13228  284 11382 13228  3714 11382 13228  283 284 11382  2284 13229 13230  11236 13229 13230  2910 11236 13229  2052 11236 13230  2429 13231 13232  6800 13231 13232  3089 6800 13231  3061 6800 13232  3691 11578 13233  11578 13233 13234  3885 13233 13234  3690 11578 13234  2853 11291 13236  11291 13235 13236  2855 11291 13235  2854 13235 13236  817 11384 13237  11384 13237 13238  3663 13237 13238  816 11384 13238  1725 13239 13240  12289 13239 13240  3982 12289 13239  1133 12289 13240  3432 9398 13241  8811 9398 13241  4279 8811 13241  3433 8811 9398  1292 9570 13242  6615 9570 13242  3563 6615 9570  3562 6615 13242  3009 10179 13243  10179 13243 13244  4109 13243 13244  3010 10179 13244  2760 12769 13246  12769 13245 13246  3984 12769 13245  2820 13245 13246  1465 11318 13247  11318 12455 13247  1531 12455 13247  1530 11318 12455  807 9182 13248  9182 10355 13248  2138 10355 13248  809 9182 10355  1836 12350 13249  12350 13249 13250  4028 13249 13250  2175 12350 13250  2903 13251 13253  13251 13252 13253  3031 13251 13252  2902 13252 13253  2016 13254 13256  13254 13255 13256  2349 13254 13255  2017 13255 13256  2269 13257 13258  11200 13257 13258  2270 11200 13257  2026 11200 13258  2529 13259 13261  13259 13260 13261  3963 13259 13260  2530 13260 13261  2818 13262 13264  13262 13263 13264  2965 13262 13263  2709 13263 13264  1806 8800 13266  8800 13265 13266  3934 8800 13265  1994 13265 13266  1070 13267 13268  11218 13267 13268  1071 11218 13267  1069 11218 13268  1295 9645 13269  5965 9645 13269  4433 5965 13269  1301 5965 9645  3546 6845 8664  6845 8664 13270  3548 6845 13270  3547 8664 13270  3819 13271 13272  5376 13271 13272  3820 5376 13271  2619 5376 13272  1812 12440 13273  12440 13273 13274  4000 13273 13274  1353 12440 13274  1514 8619 13275  8619 12318 13275  2253 8619 12318  1512 12318 13275  1392 13276 13277  11227 13276 13277  1393 11227 13276  1391 11227 13277  1518 13278 13279  11821 13278 13279  1520 11821 13278  1516 11821 13279  2630 11198 13281  11198 13280 13281  2632 11198 13280  2631 13280 13281  1244 11303 13283  11303 13282 13283  1246 11303 13282  1245 13282 13283  1637 11260 13285  11260 13284 13285  1806 11260 13284  1805 13284 13285  2310 13286 13288  13286 13287 13288  4419 13286 13287  4227 13287 13288  4409 7493 13289  7493 13289 13290  4850 13289 13290  3112 7493 13290  3310 8633 13291  8633 13291 13292  4197 13291 13292  1002 8633 13292  4366 12413 13293  12413 13293 13294  4877 13293 13294  1483 12413 13294  1913 11388 13296  11388 13295 13296  2083 11388 13295  1915 13295 13296  3822 13297 13299  13297 13298 13299  3823 13297 13298  2609 13298 13299  3637 8174 13300  8174 13300 13301  4109 13300 13301  685 8174 13301  653 654 13302  653 13302 13303  3795 13302 13303  652 653 13303  1626 10104 13305  10104 13304 13305  1825 10104 13304  1824 13304 13305  2506 4991 13307  4991 13306 13307  3798 4991 13306  2975 13306 13307  3433 7389 9399  7389 9399 11280  3434 7389 11280  2244 9399 11280  1835 10111 12072  10111 12072 12968  3834 12072 12968  1834 10111 12968  2048 13308 13309  9994 13308 13309  2049 9994 13308  1790 9994 13309  1446 11333 13310  11333 12483 13310  1464 12483 13310  1448 11333 12483  1868 12827 13312  12827 13311 13312  1924 12827 13311  1912 13311 13312  966 13313 13315  13313 13314 13315  2957 13313 13314  1641 13314 13315  823 9531 13316  6707 9531 13316  3717 6707 13316  821 6707 9531  833 9111 13317  9111 10699 13317  3737 10699 13317  831 9111 10699  1839 12356 13318  12356 13318 13319  2056 13318 13319  1996 12356 13319  1361 13320 13321  11225 13320 13321  1362 11225 13320  1297 11225 13321  288 289 13322  288 11592 13322  3718 11592 13322  287 288 11592  2607 13323 13324  13272 13323 13324  3819 13272 13323  2619 13272 13324  1296 13325 13326  8074 13325 13326  1297 8074 13325  1192 8074 13326  2110 12330 13327  12330 13327 13328  4032 13327 13328  1728 12330 13328  1191 13329 13330  11238 13329 13330  1192 11238 13329  1168 11238 13330  3493 13331 13332  8181 13331 13332  3496 8181 13331  3495 8181 13332  3498 13333 13335  13333 13334 13335  3500 13333 13334  3499 13334 13335  2073 13336 13338  13336 13337 13338  2906 13336 13337  1927 13337 13338  2513 9287 13339  6331 9287 13339  4576 6331 13339  3558 6331 9287  3073 6149 12940  6149 12940 13340  3975 6149 13340  2514 12940 13340  1238 11332 13342  11332 13341 13342  1240 11332 13341  1239 13341 13342  2453 12676 13344  12676 13343 13344  4221 12676 13343  2454 13343 13344  2418 11469 12249  11469 12249 12324  3936 12249 12324  2961 11469 12324  3265 12268 13345  11660 12268 13345  4035 11660 13345  3266 11660 12268  3093 5035 13347  5035 13346 13347  4051 5035 13346  4050 13346 13347  2601 13348 13349  13299 13348 13349  3822 13299 13348  2609 13299 13349  3689 10757 13350  10757 13350 13351  4101 13350 13351  696 10757 13351  2312 13352 13353  12439 13352 13353  2895 12439 13352  1951 12439 13353  2388 11313 13355  11313 13354 13355  2390 11313 13354  2389 13354 13355  3193 8603 11517  8603 11517 13356  4306 8603 13356  3027 11517 13356  1819 12382 13357  12382 13357 13358  4027 13357 13358  2116 12382 13358  4014 8796 13359  7933 8796 13359  4436 7933 8796  3585 7933 13359  746 13360 13361  6490 13360 13361  3645 6490 13360  3644 6490 13361  3435 9541 13362  9541 11268 13362  4588 11268 13362  3618 9541 11268  1898 11273 11787  11273 11787 13363  2166 11787 13363  2020 11273 13363  2559 6994 13364  6994 13089 13364  4358 13089 13364  3303 6994 13089  1752 11342 13366  11342 13365 13366  1756 11342 13365  1755 13365 13366  1475 11883 13367  11883 12378 13367  3842 12378 13367  2180 11883 12378  1339 11374 13368  11374 12506 13368  1342 12506 13368  1341 11374 12506  2066 11259 13369  8799 11259 13369  4090 8799 13369  1806 8799 11259  2981 5340 13370  5340 5891 13370  4269 5891 13370  3821 5340 5891  939 11582 13372  11582 13371 13372  1004 11582 13371  987 13371 13372  2595 11255 13374  11255 13373 13374  2599 11255 13373  2596 13373 13374  2083 11215 13376  11215 13375 13376  2366 11215 13375  2264 13375 13376  3050 13107 13377  13107 13377 13378  3976 13377 13378  1631 13107 13378  2168 11346 13379  6675 11346 13379  2384 6675 11346  2383 6675 13379  3657 12336 13380  12336 13159 13380  4747 13159 13380  2935 12336 13159  1813 10243 12022  10243 12022 12435  3852 12022 12435  1903 10243 12435  1924 13381 13383  13381 13382 13383  2348 13381 13382  2107 13382 13383  1350 8096 13385  8096 13384 13385  1640 8096 13384  1639 13384 13385  2408 11584 12580  6671 11584 12580  3002 6671 12580  2165 6671 11584  4448 8887 13386  8611 8887 13386  4670 8611 13386  1055 8611 8887  3416 5818 13387  5818 13387 13388  4495 13387 13388  2405 5818 13388  1736 11618 13390  11618 13389 13390  2068 11618 13389  1985 13389 13390  3585 7705 13391  7705 11415 13391  3586 7705 11415  3583 11415 13391  2276 6582 13392  6582 12879 13392  3992 6582 12879  1797 12879 13392  2326 13393 13394  9565 13393 13394  2483 9565 13393  2325 9565 13394  2039 13395 13396  12665 13395 13396  2325 12665 13395  2037 12665 13396  1133 12291 13397  12186 12291 13397  3730 12186 12291  1124 12186 13397  2969 7442 13398  7442 11985 13398  4530 11985 13398  4347 7442 11985  2219 12421 13399  12421 13120 13399  3835 13120 13399  802 12421 13120  1908 13400 13401  11296 13400 13401  2037 11296 13400  1907 11296 13401  1450 11500 12143  11500 12143 13402  1578 12143 13402  1547 11500 13402  2589 11300 13403  8695 11300 13403  3122 8695 11300  2590 8695 13403  3656 12093 12659  12093 12659 13404  4008 12659 13404  684 12093 13404  313 314 13405  313 13405 13406  734 13405 13406  312 313 13406  1669 12428 13407  12428 12451 13407  1693 12451 13407  1670 12428 12451  3218 9014 13408  9014 13408 13409  4700 13408 13409  4375 9014 13409  1932 13410 13412  13410 13411 13412  2336 13410 13411  1956 13411 13412  3698 6251 13413  6251 13413 13414  4414 13413 13414  3237 6251 13414  3547 9168 13415  7316 9168 13415  4314 7316 13415  3549 7316 9168  2897 5194 13416  5194 13416 13417  4416 13416 13417  793 5194 13417  2234 13418 13419  12929 13418 13419  2235 12929 13418  1964 12929 13419  1906 13420 13421  10058 13420 13421  1907 10058 13420  1460 10058 13421  1280 11402 13422  11402 12558 13422  1326 12558 13422  1325 11402 12558  1870 12465 13423  12465 13423 13424  4029 13423 13424  2241 12465 13424  2825 9365 13425  6323 9365 13425  4362 6323 13425  2824 6323 9365  1994 13426 13428  13426 13427 13428  2429 13426 13427  2421 13427 13428  3151 5903 12931  5903 12931 13429  3723 5903 13429  3150 12931 13429  2011 11401 13431  11401 13430 13431  2013 11401 13430  2012 13430 13431  2805 13432 13434  13432 13433 13434  3830 13432 13433  2859 13433 13434  1602 13435 13436  5972 13435 13436  4359 5972 13435  3981 5972 13436  1756 13437 13439  13437 13438 13439  2179 13437 13438  1871 13438 13439  1675 11599 13440  11599 12302 13440  1676 12302 13440  1500 11599 12302  1592 9204 10246  9204 10246 12388  3912 10246 12388  1717 9204 12388  1958 13441 13443  13441 13442 13443  2935 13441 13442  1967 13442 13443  2622 5768 13444  5768 13175 13444  3871 5768 13175  2608 13175 13444  3772 11167 13445  8837 11167 13445  4811 8837 13445  2894 8837 11167  2713 13446 13447  12674 13446 13447  3147 12674 13446  2726 12674 13447  319 320 13448  319 13448 13449  713 13448 13449  318 319 13449  1986 13450 13451  13183 13450 13451  3866 13183 13450  1634 13183 13451  1880 13452 13453  13003 13452 13453  1918 13003 13452  1879 13003 13453  3336 13215 13454  13215 13454 13455  3914 13454 13455  2724 13215 13455  2334 13456 13458  13456 13457 13458  2335 13456 13457  2332 13457 13458  1924 5911 13381  5911 11458 13381  4463 5911 11458  2348 11458 13381  2400 10751 13459  10751 13459 13460  4376 13459 13460  2500 10751 13460  2728 13461 13462  6281 13461 13462  2973 6281 13461  2875 6281 13462  2673 13463 13465  13463 13464 13465  2815 13463 13464  2688 13464 13465  2633 12556 13467  12556 13466 13467  2658 12556 13466  2647 13466 13467  651 652 13468  651 13468 13469  732 13468 13469  650 651 13469  1004 11338 13471  11338 13470 13471  1006 11338 13470  1005 13470 13471  2024 13472 13473  10202 13472 13473  2026 10202 13472  1945 10202 13473  2654 13474 13475  12360 13474 13475  2712 12360 13474  2656 12360 13475  1640 11360 13477  11360 13476 13477  1858 11360 13476  1857 13476 13477  804 12493 13479  12493 13478 13479  3835 12493 13478  808 13478 13479  724 5080 13480  5080 13480 13481  4883 13480 13481  3486 5080 13481  1885 11420 13482  11420 12574 13482  2216 12574 13482  2215 11420 12574  738 9006 12520  9006 12520 12949  3754 9006 12949  11 12520 12949  3843 13483 13484  5899 13483 13484  3846 5899 13483  3462 5899 13484  4054 12384 13485  6577 12384 13485  4212 6577 12384  3109 6577 13485  1006 11328 13487  11328 13486 13487  1018 11328 13486  1007 13486 13487  1583 10181 12259  10181 12259 13181  3876 12259 13181  1582 10181 13181  1273 11431 13488  11431 12576 13488  1279 12576 13488  1278 11431 12576  1018 10209 13490  10209 13489 13490  1096 10209 13489  1019 13489 13490  1096 11327 13492  11327 13491 13492  1128 11327 13491  1097 13491 13492  1283 11309 13494  11309 13493 13494  1330 11309 13493  1284 13493 13494  1982 11606 12627  11606 12627 13495  2162 12627 13495  1980 11606 13495  2068 11390 13497  11390 13496 13497  2978 11390 13496  2469 13496 13497  1633 10275 13499  10275 13498 13499  1637 10275 13498  1635 13498 13499  695 9981 13500  9981 13500 13501  4545 13500 13501  3361 9981 13501  2065 13502 13504  13502 13503 13504  2498 13502 13503  2342 13503 13504  3083 6774 13506  6774 13505 13506  3085 6774 13505  2881 13505 13506  2741 13507 13508  5637 13507 13508  3037 5637 13507  3034 5637 13508  1994 13265 13426  13265 13426 13509  3934 13265 13509  2429 13426 13509  3003 13219 13510  8845 13219 13510  3747 8845 13219  3304 8845 13510  2113 13511 13512  11378 13511 13512  2464 11378 13511  2105 11378 13512  2104 13513 13515  13513 13514 13515  2105 13513 13514  2103 13514 13515  3558 9288 13516  8113 9288 13516  4005 8113 13516  3557 8113 9288  1531 12454 13517  12454 12487 13517  1665 12487 13517  1532 12454 12487  2577 13518 13520  13518 13519 13520  3945 13518 13519  2578 13519 13520  2102 13521 13522  11367 13521 13522  2103 11367 13521  2101 11367 13522  315 316 13523  315 13523 13524  3807 13523 13524  314 315 13524  2780 11984 13525  11984 13525 13526  3858 13525 13526  2822 11984 13526  3550 11996 13527  11996 13527 13528  4164 13527 13528  761 11996 13528  2360 11320 11478  11320 11478 13529  4515 11320 13529  3719 11478 13529  3004 11572 13530  11572 13530 13531  4429 13530 13531  3005 11572 13531  2501 13532 13534  13532 13533 13534  4472 13532 13533  2432 13533 13534  1655 9174 12453  9174 12021 12453  3925 12021 12453  1653 9174 12021  2263 13535 13536  11425 13535 13536  2840 11425 13535  1876 11425 13536  3318 9066 13537  9066 9656 13537  4297 9656 13537  2054 9066 9656  2138 7106 10354  7106 10354 13055  3504 7106 13055  2186 10354 13055  2100 13538 13539  10099 13538 13539  2101 10099 13538  2099 10099 13539  1288 13540 13542  13540 13541 13542  3839 13540 13541  1463 13541 13542  949 6771 11948  6771 11948 13543  4204 6771 13543  946 11948 13543  2292 13051 13544  13051 13544 13545  4100 13544 13545  2923 13051 13545  1098 10071 13546  8843 10071 13546  4742 8843 13546  1103 8843 10071  3600 10256 13547  10256 13547 13548  4423 13547 13548  3598 10256 13548  310 13019 13210  12334 13019 13210  3789 12334 13210  788 12334 13019  2950 8276 13549  8276 13549 13550  4904 13549 13550  3955 8276 13550  840 8967 11435  8967 11435 13551  4159 11435 13551  842 8967 13551  1525 11595 12370  7962 11595 12370  3973 7962 12370  1998 7962 11595  2705 13552 13554  13552 13553 13554  2831 13552 13553  2731 13553 13554  2607 13324 13555  5351 13324 13555  2619 5351 13324  2610 5351 13555  3920 13011 13556  13011 13556 13557  3931 13556 13557  2699 13011 13557  2612 6048 13558  6048 12399 13558  2636 6048 12399  2615 12399 13558  2098 13559 13560  11380 13559 13560  2099 11380 13559  2097 11380 13560  2065 13502 13561  13502 13561 13562  4112 13561 13562  2498 13502 13562  2740 13563 13564  13223 13563 13564  3904 13223 13563  2653 13223 13564  2638 13565 13567  13565 13566 13567  2676 13565 13566  2642 13566 13567  2617 13568 13569  12397 13568 13569  2657 12397 13568  2620 12397 13569  2016 13254 13570  13254 13570 13571  3926 13570 13571  2349 13254 13571  2965 13263 13572  13263 13572 13573  3929 13572 13573  2709 13263 13573  2656 12359 13575  12359 13574 13575  4002 12359 13574  2673 13574 13575  966 13313 13576  13313 13576 13577  3917 13576 13577  2957 13313 13577  2605 13578 13579  13323 13578 13579  3819 13323 13578  2607 13323 13579  2601 13349 13581  13349 13580 13581  2609 13349 13580  2603 13580 13581  1206 11462 13582  11462 12614 13582  1272 12614 13582  1208 11462 12614  3296 10871 13583  7677 10871 13583  4606 7677 13583  3769 7677 10871  2672 13584 13585  12411 13584 13585  2743 12411 13584  2679 12411 13585  2598 13586 13587  13348 13586 13587  3822 13348 13586  2601 13348 13587  1919 13588 13589  11408 13588 13589  2093 11408 13588  1918 11408 13589  2433 12685 13590  12685 13534 13590  2501 12685 13534  2432 13534 13590  2662 13591 13592  12427 13591 13592  2707 12427 13591  2666 12427 13592  2746 13593 13594  11355 13593 13594  2747 11355 13593  2745 11355 13594  4112 13562 13595  13562 13595 13596  4172 13595 13596  2498 13562 13596  2829 10317 13597  10317 13597 13598  4190 13597 13598  2830 10317 13598  3411 9806 13599  9806 13599 13600  4187 13599 13600  3410 9806 13600  3612 9658 13601  9658 13601 13602  4046 13601 13602  1943 9658 13602  1763 12568 13604  12568 13603 13604  4782 12568 13603  4618 13603 13604  187 11637 13605  7071 11637 13605  4336 7071 13605  729 7071 11637  2744 13606 13607  10044 13606 13607  2745 10044 13606  2635 10044 13607  3003 12579 13510  5947 12579 13510  3304 5947 13510  3002 5947 12579  323 324 13608  323 13608 13609  761 13608 13609  322 323 13609  710 11634 13610  11634 13610 13611  4319 13610 13611  101 11634 13611  2095 13612 13613  5795 13612 13613  3001 5795 13612  2495 5795 13613  2886 7298 13615  7298 13614 13615  3028 7298 13614  2884 13614 13615  2493 13153 13616  13153 13616 13617  4723 13616 13617  3696 13153 13617  2793 6239 11923  6239 11923 13618  3910 6239 13618  2794 11923 13618  1700 11421 13619  11421 12632 13619  1909 12632 13619  1851 11421 12632  2460 13620 13621  5124 13620 13621  3223 5124 13620  3222 5124 13621  1966 11386 13622  11386 13622 13623  2848 13622 13623  2137 11386 13623  3753 9440 13624  9440 13624 13625  4628 13624 13625  3619 9440 13625  2592 12295 13627  12295 13626 13627  2595 12295 13626  2594 13626 13627  1184 11489 13628  11489 12635 13628  1198 12635 13628  1197 11489 12635  1299 11812 13629  11474 11812 13629  3570 11474 13629  1293 11474 11812  1541 12803 13631  12803 13630 13631  2458 12803 13630  2191 13630 13631  3382 13632 13633  5617 13632 13633  3384 5617 13632  3383 5617 13633  2084 13634 13636  13634 13635 13636  2480 13634 13635  1986 13635 13636  2287 13637 13638  12113 13637 13638  2937 12113 13637  2279 12113 13638  3281 11848 13639  11848 12227 13639  3760 12227 13639  3597 11848 12227  1890 11730 12701  11730 12701 13640  1891 12701 13640  1849 11730 13640  2072 12993 13641  6976 12993 13641  4167 6976 13641  2185 6976 12993  2586 10777 13643  10777 13642 13643  2589 10777 13642  2588 13642 13643  649 650 13644  649 13644 13645  3810 13644 13645  648 649 13645  2812 13646 13648  13646 13647 13648  3225 13646 13647  2862 13647 13648  2803 13649 13650  13432 13649 13650  3830 13432 13649  2805 13432 13650  2620 12396 13652  12396 13651 13652  4016 12396 13651  2638 13651 13652  2443 5932 13654  5932 13653 13654  2909 5932 13653  2055 13653 13654  2058 12645 13656  12645 13655 13656  2484 12645 13655  2059 13655 13656  2615 12398 13658  12398 13657 13658  4015 12398 13657  2617 13657 13658  2679 12410 13660  12410 13659 13660  4017 12410 13659  2705 13659 13660  2805 13434 13662  13434 13661 13662  2859 13434 13661  2808 13661 13662  1281 13663 13664  7765 13663 13664  1460 7765 13663  1200 7765 13664  3900 6236 13665  6236 13665 13666  4381 13665 13666  2934 6236 13666  2277 13667 13669  13667 13668 13669  3032 13667 13668  2120 13668 13669  1894 12423 13670  12423 12461 13670  2268 12461 13670  2079 12423 12461  2883 13671 13673  13671 13672 13673  3850 13671 13672  2888 13672 13673  325 326 13674  325 13674 13675  3816 13674 13675  324 325 13675  2027 11461 13677  11461 13676 13677  2058 11461 13676  2028 13676 13677  2080 12512 13679  12512 13678 13679  2922 12512 13678  2045 13678 13679  2434 13680 13682  13680 13681 13682  2519 13680 13681  2436 13681 13682  1357 9123 12530  9123 12181 12530  3938 12181 12530  1355 9123 12181  2504 11473 13684  11473 13683 13684  2506 11473 13683  2505 13683 13684  2582 13685 13687  13685 13686 13687  2585 13685 13686  2584 13686 13687  1342 12505 13688  12505 12562 13688  1445 12562 13688  1343 12505 12562  2661 13689 13690  11396 13689 13690  2735 11396 13689  2660 11396 13690  2506 13307 13692  13307 13691 13692  2975 13307 13691  2507 13691 13692  1581 11426 13693  11426 12656 13693  1764 12656 13693  1762 11426 12656  4023 7066 13694  7066 13694 13695  4787 13694 13695  3649 7066 13695  3538 9191 13696  8575 9191 13696  4897 8575 13696  1794 8575 9191  2975 13697 13698  12891 13697 13698  3023 12891 13697  3022 12891 13698  1304 12549 13700  12549 13699 13700  1607 12549 13699  1287 13699 13700  4021 11223 12485  9054 11223 12485  4022 9054 12485  3623 9054 11223  2157 11509 13702  11509 13701 13702  2196 11509 13701  2195 13701 13702  4239 8089 13703  6546 8089 13703  4753 6546 13703  2442 6546 8089  2666 12426 13705  12426 13704 13705  4023 12426 13704  2672 13704 13705  2871 13706 13708  13706 13707 13708  2913 13706 13707  1953 13707 13708  1322 13709 13711  13709 13710 13711  1609 13709 13710  1320 13710 13711  2354 13712 13714  13712 13713 13714  2504 13712 13713  2355 13713 13714  1481 12504 13716  12504 13715 13716  1820 12504 13715  1466 13715 13716  1947 13717 13719  13717 13718 13719  2075 13717 13718  1810 13718 13719  2037 11295 12664  11295 12583 12664  3924 12583 12664  2038 11295 12583  2095 13612 13720  13612 13720 13721  4195 13720 13721  3001 13612 13721  1729 13722 13723  13180 13722 13723  1917 13180 13722  1687 13180 13723  2440 9774 13725  9774 13724 13725  3361 9774 13724  2890 13724 13725  2078 13726 13728  13726 13727 13728  2496 13726 13727  2444 13727 13728  1129 7129 13729  7129 8785 13729  3115 7129 8785  1177 8785 13729  2578 13730 13732  13730 13731 13732  2581 13730 13731  2580 13731 13732  2192 13733 13735  13733 13734 13735  2911 13733 13734  1952 13734 13735  1172 11528 13736  11528 12682 13736  1183 12682 13736  1182 11528 12682  2878 13737 13739  13737 13738 13739  3738 13737 13738  2948 13738 13739  2605 13578 13740  13578 13740 13741  3928 13740 13741  3819 13578 13741  2451 11440 13742  11440 12688 13742  3245 12688 13742  3244 11440 12688  1286 13743 13744  13540 13743 13744  3839 13540 13743  1288 13540 13744  2561 6693 13746  6693 13745 13746  3962 6693 13745  2562 13745 13746  3457 6144 13748  6144 13747 13748  3458 6144 13747  2867 13747 13748  1288 13542 13750  13542 13749 13750  1463 13542 13749  1305 13749 13750  2418 11471 13752  11471 13751 13752  2420 11471 13751  2419 13751 13752  1847 11620 12788  11620 12788 13753  1848 12788 13753  1698 11620 13753  1611 13065 13754  6015 13065 13754  4445 6015 13754  1524 6015 13065  2088 12702 13755  12515 12702 13755  2929 12515 13755  2117 12515 12702  3837 11688 13756  11688 13756 13757  4180 13756 13757  2253 11688 13757  2416 12250 13759  12250 13758 13759  2418 12250 13758  2417 13758 13759  2138 7107 13760  7107 13063 13760  4331 13063 13760  3125 7107 13063  1201 12284 13762  12284 13761 13762  1283 12284 13761  1282 13761 13762  2922 13678 13763  13678 13763 13764  3767 13763 13764  2045 13678 13764  2724 10572 13455  10572 12446 13455  3914 12446 13455  2725 10572 12446  2414 13765 13767  13765 13766 13767  2416 13765 13766  2415 13766 13767  1321 12785 13769  12785 13768 13769  1613 12785 13768  1323 13768 13769  327 328 13770  327 13770 13771  701 13770 13771  326 327 13771  917 5402 13772  5402 13772 13773  4740 13772 13773  3998 5402 13773  1283 11307 12283  10230 11307 12283  3999 10230 12283  1807 10230 11307  2663 10807 12591  10807 12591 13774  4037 12591 13774  2664 10807 13774  1360 13775 13776  6659 13775 13776  1789 6659 13775  1467 6659 13776  967 10818 12473  10818 12473 13576  3917 12473 13576  966 10818 13576  2804 13777 13778  5576 13777 13778  2807 5576 13777  2802 5576 13778  1482 7515 13779  7515 12586 13779  1911 7515 12586  1503 12586 13779  2889 13780 13782  13780 13781 13782  3163 13780 13781  2439 13781 13782  1165 11567 13783  11567 12718 13783  1171 12718 13783  1170 11567 12718  1688 13784 13786  13784 13785 13786  2035 13784 13785  1730 13785 13786  2437 13787 13789  13787 13788 13789  2991 13787 13788  2435 13788 13789  1267 11654 13790  11654 13790 13791  1316 13790 13791  1315 11654 13791  1732 13792 13793  8598 13792 13793  2132 8598 13792  1811 8598 13793  2188 11977 12603  7589 11977 12603  2984 7589 12603  2946 7589 11977  2096 13794 13795  11693 13794 13795  2097 11693 13794  2094 11693 13795  2574 13796 13798  13796 13797 13798  2577 13796 13797  2576 13797 13798  1948 12026 13800  12026 13799 13800  2258 12026 13799  1950 13799 13800  1506 11541 13801  11541 12711 13801  1509 12711 13801  1508 11541 12711  2046 13802 13804  13802 13803 13804  2365 13802 13803  2081 13803 13804  329 330 13805  329 13805 13806  3827 13805 13806  328 329 13806  2212 12368 13807  12368 13807 13808  4210 13807 13808  3834 12368 13808  2018 10787 12490  10787 12490 13570  3926 12490 13570  2016 10787 13570  2811 13809 13811  13809 13810 13811  2814 13809 13810  2809 13810 13811  3107 4944 12633  4944 12633 13812  4359 4944 13812  3794 12633 13812  2163 7236 12626  7236 12626 13813  2306 7236 13813  2162 12626 13813  1121 8697 10038  8697 10038 13814  4049 8697 13814  3688 10038 13814  2800 13815 13816  12890 13815 13816  2801 12890 13815  2748 12890 13816  2327 13817 13818  13671 13817 13818  3850 13671 13817  2883 13671 13818  3708 12559 13819  12559 13819 13820  3818 13819 13820  3709 12559 13820  1326 12557 13821  12557 12595 13821  1338 12595 13821  1327 12557 12595  2883 13673 13823  13673 13822 13823  2888 13673 13822  2885 13822 13823  2709 10640 13573  10640 12467 13573  3929 12467 13573  2710 10640 12467  2196 13824 13826  13824 13825 13826  3044 13824 13825  2364 13825 13826  2238 12441 12500  12441 12500 13827  2521 12500 13827  2043 12441 13827  2865 13828 13830  13828 13829 13830  2866 13828 13829  2863 13829 13830  2278 13831 13833  13831 13832 13833  2463 13831 13832  2286 13832 13833  716 5484 11631  5484 11631 13834  4255 5484 13834  191 11631 13834  2570 13835 13837  13835 13836 13837  2573 13835 13836  2572 13836 13837  2645 12833 13839  12833 13838 13839  4041 12833 13838  2662 13838 13839  2431 13840 13842  13840 13841 13842  2432 13840 13841  2345 13841 13842  2130 10494 13843  10494 12434 13843  4840 12434 13843  2131 10494 12434  331 332 5898  331 5898 13844  763 5898 13844  330 331 13844  762 11030 13134  11030 13134 13302  3795 11030 13302  654 13134 13302  1429 11777 12936  11777 12936 13845  1608 12936 13845  1328 11777 13845  2372 11563 13846  11563 12739 13846  2375 12739 13846  2374 11563 12739  645 646 13847  645 13847 13848  711 13847 13848  644 645 13848  2593 13849 13850  11708 13849 13850  2635 11708 13849  2591 11708 13850  2887 13851 13853  13851 13852 13853  3423 13851 13852  3422 13852 13853  2391 11381 12766  11381 12668 12766  3521 12668 12766  2209 11381 12668  1161 11607 13854  11607 12756 13854  1164 12756 13854  1163 11607 12756  1497 13855 13856  12503 13855 13856  4038 12503 13855  1481 12503 13856  2120 13857 13858  12510 13857 13858  4036 12510 13857  2080 12510 13858  2288 12975 13859  12975 13737 13859  3738 12975 13737  2878 13737 13859  2566 13860 13862  13860 13861 13862  2569 13860 13861  2568 13861 13862  872 9129 10017  9129 10017 12636  3950 10017 12636  874 9129 12636  2530 13260 13863  12894 13260 13863  3963 12894 13260  2533 12894 13863  2002 12191 13015  12191 13015 13864  3977 12191 13864  1723 13015 13864  1443 11585 13865  11585 12752 13865  1470 12752 13865  1469 11585 12752  1125 10680 13866  8789 10680 13866  4671 8789 13866  1134 8789 10680  2878 13739 13868  13739 13867 13868  2948 13739 13867  2880 13867 13868  2854 12809 13869  12809 13869 13870  3927 13869 13870  3926 12809 13870  1937 13871 13872  11586 13871 13872  2359 11586 13871  1936 11586 13872  2485 6310 13874  6310 13873 13874  2927 6310 13873  2899 13873 13874  1674 11736 12818  11736 12818 13875  1695 12818 13875  1672 11736 13875  2216 12573 13876  12573 13876 13877  2230 13876 13877  2217 12573 13877  1636 13878 13879  13451 13878 13879  1986 13451 13878  1634 13451 13879  2699 10723 13557  10723 12494 13557  3931 12494 13557  2700 10723 12494  2578 13519 13730  13519 13730 13880  3945 13519 13880  2581 13730 13880  3017 9695 13881  9695 13881 13882  4512 13881 13882  3014 9695 13882  3632 7445 9529  7445 9529 11684  3635 7445 11684  3631 9529 11684  677 11696 13883  11696 11771 13883  3668 11771 13883  233 11696 11771  906 6134 9798  6134 9798 13884  4560 6134 13884  902 9798 13884  643 644 13885  643 13885 13886  3833 13885 13886  642 643 13886  1369 9367 12355  9367 12355 12649  3953 12355 12649  1371 9367 12649  2819 12501 13887  12501 13624 13887  4628 13624 13887  3753 12501 13624  1320 13888 13889  12547 13888 13889  4042 12547 13888  1304 12547 13889  1040 8938 9324  8938 9324 12647  3958 8938 12647  1042 9324 12647  2944 11711 13891  11711 13890 13891  4705 11711 13890  4514 13890 13891  2600 12696 13893  12696 13892 13893  2634 12696 13892  2597 13892 13893  2604 12672 13895  12672 13894 13895  2614 12672 13894  2602 13894 13895  1767 13164 13896  6188 13164 13896  4010 6188 13164  2857 6188 13896  1372 9415 13897  9415 12147 13897  4031 12147 13897  1370 9415 12147  1538 11697 12855  11697 12855 13898  1671 12855 13898  1364 11697 13898  1727 9693 11968  9693 11968 12629  3948 11968 12629  1738 9693 12629  2298 11600 13899  11600 12776 13899  2371 12776 13899  2370 11600 12776  1942 13900 13901  8915 13900 13901  2908 8915 13900  1944 8915 13901  4364 7983 11071  7983 11071 13902  4521 7983 13902  2796 11071 13902  2667 13903 13905  13903 13904 13905  2783 13903 13904  2665 13904 13905  1988 11798 13906  11798 13038 13906  3704 13038 13906  1974 11798 13038  860 9096 12475  9096 12475 12660  3960 12475 12660  862 9096 12660  1274 11809 13907  11809 13907 13908  1275 13907 13908  1194 11809 13908  2046 13802 13909  13802 13909 13910  4121 13909 13910  2365 13802 13910  1946 12416 13912  12416 13911 13912  2027 12416 13911  2025 13911 13912  2310 13288 13914  13288 13913 13914  4227 13288 13913  3996 13913 13914  1140 11580 13915  11580 12816 13915  1155 12816 13915  1154 11580 12816  2611 13916 13917  13444 13916 13917  2622 13444 13916  2608 13444 13917  3904 13224 13918  13224 13918 13919  4192 13918 13919  2646 13224 13919  1142 11740 13920  11740 13920 13921  1174 13920 13921  1173 11740 13921  2616 12705 13923  12705 13922 13923  2637 12705 13922  2613 13922 13923  2686 12709 13924  8901 12709 13924  2819 8901 12709  2678 8901 13924  2562 13925 13927  13925 13926 13927  2565 13925 13926  2564 13926 13927  2331 13928 13930  13928 13929 13930  2354 13928 13929  2333 13929 13930  3097 8521 13931  8521 12524 13931  4602 12524 13931  4329 8521 12524  2732 6685 13933  6685 13932 13933  2782 6685 13932  2706 13932 13933  2621 13934 13936  13934 13935 13936  2652 13934 13935  2618 13935 13936  2917 7393 13937  7393 13937 13938  4754 13937 13938  3728 7393 13938  3681 13939 13941  13939 13940 13941  4706 13939 13940  4482 13940 13941  2595 11253 12294  10456 11253 12294  4019 10456 12294  2623 10456 11253  641 642 13942  641 13942 13943  764 13942 13943  640 641 13943  1438 11615 13944  11615 12798 13944  1442 12798 13944  1441 11615 12798  2645 13945 13946  8010 13945 13946  2660 8010 13945  2643 8010 13946  1214 9244 12509  9244 12509 12712  3965 12509 12712  1216 9244 12712  2008 11243 13948  11243 13947 13948  2453 11243 13947  2009 13947 13948  2007 11555 13949  11555 12826 13949  2182 12826 13949  2135 11555 12826  945 8064 9219  8064 9219 12714  3966 8064 12714  947 9219 12714  2786 12234 13950  5856 12234 13950  4263 5856 13950  3655 5856 12234  1525 11597 13952  11597 13951 13952  1930 11597 13951  1526 13951 13952  2340 13953 13954  4956 13953 13954  2341 4956 13953  2064 4956 13954  4258 6796 12933  6796 12933 13955  4292 12933 13955  4154 6796 13955  757 11579 13957  11579 13956 13957  3690 11579 13956  3689 13956 13957  3738 12974 13958  6942 12974 13958  4266 6942 12974  717 6942 13958  3701 8543 12903  5065 8543 12903  4447 5065 12903  3700 5065 8543  1892 12700 12723  12700 12723 13959  1979 12723 13959  1891 12700 13959  684 8372 11801  8372 11801 13960  4320 8372 13960  53 11801 13960  337 338 13961  337 13961 13962  688 13961 13962  336 337 13962  2684 10676 13191  10676 12565 13191  3935 12565 13191  2685 10676 12565  2800 12905 13964  12905 13963 13964  4053 12905 13963  2803 13963 13964  2694 12178 13965  12178 13012 13965  3919 13012 13965  2699 12178 13012  1521 12371 13967  12371 13966 13967  1525 12371 13966  1522 13966 13967  2655 13968 13969  13564 13968 13969  2740 13564 13968  2653 13564 13969  2687 13970 13972  13970 13971 13972  2708 13970 13971  2659 13971 13972  1553 9390 12758  9390 12552 12758  3969 12552 12758  1551 9390 12552  2431 12919 13974  12919 13973 13974  4052 12919 13973  2434 13973 13974  2558 5264 13976  5264 13975 13976  2561 5264 13975  2560 13975 13976  4694 10134 13977  10134 13937 13977  4754 10134 13937  2917 13937 13977  639 640 13978  639 13978 13979  3832 13978 13979  638 639 13979  3035 13980 13982  13980 13981 13982  3036 13980 13981  2742 13981 13982  2208 11577 12857  11577 12369 12857  2212 12369 12857  1921 11577 12369  1204 12013 13983  12013 12272 13983  3683 12272 13983  843 12013 12272  1151 12012 13984  12012 12273 13984  3684 12273 13984  849 12012 12273  1965 13985 13987  13985 13986 13987  2414 13985 13986  2236 13986 13987  3075 7578 11235  7578 11235 13988  4422 7578 13988  2052 11235 13988  2714 13989 13991  13989 13990 13991  2981 13989 13990  2689 13990 13991  625 626 13992  625 13992 13993  689 13992 13993  624 625 13993  1347 11854 12908  11854 12908 13994  1348 12908 13994  1345 11854 13994  1566 9940 13995  9940 12346 13995  3762 12346 13995  1564 9940 12346  2763 9025 9135  9025 9135 12719  3978 9135 12719  2765 9025 12719  341 342 13996  341 13996 13997  765 13996 13997  340 341 13997  1503 12585 13999  12585 13998 13999  4056 12585 13998  1688 13998 13999  623 624 14000  623 14000 14001  3845 14000 14001  622 623 14001  1432 11681 14002  11681 12862 14002  1435 12862 14002  1434 11681 12862  631 632 14003  631 6114 14003  720 6114 14003  630 631 6114  2730 14004 14006  14004 14005 14006  3692 14004 14005  2727 14005 14006  1968 14007 14008  7501 14007 14008  2063 7501 14007  1959 7501 14008  1957 6651 14010  6651 14009 14010  2452 6651 14009  1933 14009 14010  2554 14011 14013  14011 14012 14013  2557 14011 14012  2556 14012 14013  2848 6827 13623  6827 12541 13623  3785 6827 12541  2137 12541 13623  621 622 14014  621 14014 14015  766 14014 14015  620 621 14015  637 638 14016  637 14016 14017  699 14016 14017  636 637 14017  2755 9566 12698  9566 11917 12698  3968 11917 12698  2751 9566 11917  3084 14018 14019  11546 14018 14019  3465 11546 14018  3101 11546 14019  635 636 14020  635 14020 14021  3846 14020 14021  634 635 14021  633 634 14022  633 14022 14023  3843 14022 14023  632 633 14023  1120 11717 14024  11717 12876 14024  1123 12876 14024  1122 11717 12876  3260 5370 6778  5370 6778 14025  4272 6778 14025  3356 5370 14025  3598 10292 14026  5364 10292 14026  4637 5364 14026  3282 5364 10292  1198 12634 14027  12634 12690 14027  1205 12690 14027  1199 12634 12690  3513 14028 14029  8005 14028 14029  4444 8005 14028  2583 8005 14029  126 127 14030  126 11779 14030  4685 11779 14030  125 126 11779  2654 13474 14031  11702 13474 14031  4085 11702 14031  2712 11702 13474  2152 11130 14032  11130 14032 14033  4061 14032 14033  2151 11130 14033  627 628 6046  627 6046 14034  3840 6046 14034  626 627 14034  2032 5220 14035  5220 5702 14035  4537 5702 14035  3345 5220 5702  1178 11908 14036  11908 14036 14037  3775 14036 14037  1144 11908 14037  3126 6263 11861  6263 11861 14038  4257 6263 14038  3128 11861 14038  347 348 14039  347 14039 14040  680 14039 14040  346 347 14040  692 14041 14043  14041 14042 14043  3897 14041 14042  3826 14042 14043  1104 7628 11796  7628 11796 14044  1118 7628 14044  1117 11796 14044  2550 14045 14047  14045 14046 14047  2553 14045 14046  2552 14046 14047  615 616 14048  615 14048 14049  678 14048 14049  614 615 14049  1909 12631 14050  12631 14050 14051  2119 14050 14051  1910 12631 14051  345 346 14052  345 14052 14053  3849 14052 14053  344 345 14053  1423 11731 14054  11731 12896 14054  1431 12896 14054  1425 11731 12896  1144 11880 14055  4966 11880 14055  1145 4966 14055  1135 4966 11880  2753 9194 12431  9194 12431 12768  3984 12431 12768  2756 9194 12768  1990 11630 12615  11630 12615 14056  2838 12615 14056  2118 11630 14056  1337 11873 12948  11873 12948 14057  1344 12948 14057  1314 11873 14057  2315 7670 14058  7670 13273 14058  4000 7670 13273  1812 13273 14058  1356 9418 12385  9418 12385 14059  4054 12385 14059  1486 9418 14059  343 344 14060  343 14060 14061  3841 14060 14061  342 343 14061  617 618 14062  617 14062 14063  3848 14062 14063  616 617 14063  1826 14064 14065  11231 14064 14065  1936 11231 14064  1627 11231 14065  353 354 14066  353 14066 14067  721 14066 14067  352 353 14067  708 12526 14068  12526 13819 14068  3818 13819 14068  3708 12526 13819  2348 7434 11457  7434 11457 14069  4831 11457 14069  4209 7434 14069  3759 7889 12589  7889 12589 14070  4594 7889 14070  2426 12589 14070  2546 14071 14073  14071 14072 14073  2549 14071 14072  2548 14072 14073  1834 11625 12927  11625 12679 12927  3249 12679 12927  1720 11625 12679  1109 11782 14074  11782 12922 14074  1119 12922 14074  1115 11782 12922  3495 5596 14076  5596 14075 14076  4220 5596 14075  3683 14075 14076  2273 11769 14077  11769 12915 14077  2367 12915 14077  2301 11769 12915  942 11975 14078  11975 11987 14078  4347 11987 14078  1557 11975 11987  609 610 14079  609 14079 14080  722 14079 14080  608 609 14080  1495 5613 12474  5613 12474 14081  3994 5613 14081  3960 12474 14081  4281 6809 14082  6809 13416 14082  4416 6809 13416  2897 13416 14082  1642 12883 14083  12652 12883 14083  1884 12652 14083  1643 12652 12883  2454 14084 14086  14084 14085 14086  2457 14084 14085  2456 14085 14086  1694 13105 14087  13105 14087 14088  4025 14087 14088  1839 13105 14088  1417 11695 14089  11695 12946 14089  1420 12946 14089  1419 11695 12946  2634 13892 14090  13892 14090 14091  4127 14090 14091  2597 13892 14091  1962 11001 14093  11001 14092 14093  2246 11001 14092  2245 14092 14093  4437 6988 14094  6988 12725 14094  4800 12725 14094  3046 6988 12725  3138 5261 11871  5261 11871 14095  3740 5261 14095  2070 11871 14095  359 360 14096  359 14096 14097  679 14096 14097  358 359 14097  2175 13250 14098  7284 13250 14098  4028 7284 13250  3457 7284 14098  1023 11819 14099  11819 14099 14100  1029 14099 14100  1028 11819 14100  3292 11906 12563  11906 12563 14101  4179 12563 14101  3288 11906 14101  2072 11852 12995  11852 12995 14102  2184 12995 14102  1976 11852 14102  734 7234 13406  7234 13209 13406  3789 7234 13209  312 13209 13406  3704 13039 14103  12951 13039 14103  3817 12951 14103  2252 12951 13039  1312 11847 12989  11847 12989 14104  1313 12989 14104  1309 11847 14104  2303 12835 14105  12835 14105 14106  4207 14105 14106  3938 12835 14106  1095 11723 14107  11723 12963 14107  1108 12963 14107  1106 11723 12963  603 604 14108  603 14108 14109  675 14108 14109  602 603 14109  3394 7440 14110  7440 13151 14110  4875 13151 14110  3696 7440 13151  2027 11459 12415  11459 12415 14111  4045 12415 14111  2950 11459 14111  1576 14112 14114  14112 14113 14114  2008 14112 14113  1791 14113 14114  3724 11522 14115  5286 11522 14115  4680 5286 14115  716 5286 11522  2404 5603 14117  5603 14116 14117  4275 5603 14116  3507 14116 14117  2394 11814 14118  11814 12941 14118  3070 12941 14118  2514 11814 12941  365 366 14119  365 14119 14120  723 14119 14120  364 365 14120  2395 11406 14121  11406 14121 14122  4420 14121 14122  2397 11406 14122  1832 13121 14123  4997 13121 14123  3956 4997 14123  2938 4997 13121  357 358 14124  357 14124 14125  3851 14124 14125  356 357 14125  2562 13745 13925  13745 13925 14126  3962 13745 14126  2565 13925 14126  1009 11839 14127  11839 14127 14128  1591 14127 14128  1016 11839 14128  597 598 14129  597 14129 14130  724 14129 14130  596 597 14130  1517 14131 14133  14131 14132 14133  1521 14131 14132  1519 14132 14133  2606 14134 14135  12670 14134 14135  4074 12670 14134  2604 12670 14135  1764 12655 14136  12655 12734 14136  1792 12734 14136  1765 12655 12734  3683 9223 14075  9223 12400 14075  4220 12400 14075  3502 9223 12400  2542 12972 14138  12972 14137 14138  2545 12972 14137  2544 14137 14138  371 372 14139  371 14139 14140  673 14139 14140  370 371 14140  593 594 14141  593 14141 14142  767 14141 14142  592 593 14142  2853 11289 12545  11289 12545 14143  4057 12545 14143  2904 11289 14143  369 370 14144  369 14144 14145  3857 14144 14145  368 369 14145  1778 14146 14148  14146 14147 14148  2019 14146 14147  1888 14147 14148  2262 11767 14150  11767 14149 14150  3750 11767 14149  2839 14149 14150  377 378 14151  377 14151 14152  725 14151 14152  376 377 14152  367 368 14153  367 14153 14154  3855 14153 14154  366 367 14154  589 590 14155  589 14155 14156  674 14155 14156  588 589 14156  9 12837 12950  6632 12837 12950  3754 6632 12950  789 6632 12837  2602 14157 14158  12694 14157 14158  4075 12694 14157  2600 12694 14158  379 380 14159  379 14159 14160  3859 14159 14160  378 379 14160  2493 14161 14162  13327 14161 14162  4032 13327 14161  2110 13327 14162  1792 12733 14163  12733 14163 14164  1830 14163 14164  1793 12733 14164  381 382 14165  381 14165 14166  768 14165 14166  380 381 14166  375 376 14167  375 14167 14168  3861 14167 14168  374 375 14168  1426 9746 12880  9746 12116 12880  3992 12116 12880  1386 9746 12116  996 11865 14169  11865 14169 14170  1001 14169 14170  1000 11865 14170  383 384 14171  383 14171 14172  3860 14171 14172  382 383 14172  583 584 7309  583 7309 14173  726 7309 14173  582 583 14173  385 386 6034  385 6034 14174  671 6034 14174  384 385 14174  373 374 14175  373 14175 14176  3856 14175 14176  372 373 14176  581 582 14177  581 14177 14178  3865 14177 14178  580 581 14178  3245 12686 14179  12686 12750 14179  3247 12750 14179  3246 12686 12750  579 580 14180  579 14180 14181  769 14180 14181  578 579 14181  2435 14182 14183  12683 14182 14183  4096 12683 14182  2433 12683 14183  389 390 14184  389 6036 14184  770 6036 14184  388 389 6036  577 578 14185  577 14185 14186  3863 14185 14186  576 577 14186  2538 8173 14188  8173 14187 14188  2541 8173 14187  2540 14187 14188  2618 14189 14190  12704 14189 14190  4080 12704 14189  2616 12704 14190  575 576 14191  575 14191 14192  672 14191 14192  574 575 14192  1087 11818 14193  11818 13018 14193  1090 13018 14193  1089 11818 13018  2706 14194 14195  12707 14194 14195  4079 12707 14194  2686 12707 14195  1407 11884 14196  11884 12998 14196  1410 12998 14196  1409 11884 12998  1783 11706 13000  11706 12532 13000  1785 12532 13000  1652 11706 12532  573 574 14197  573 14197 14198  3868 14197 14198  572 573 14198  393 394 14199  393 14199 14200  702 14199 14200  392 393 14200  1848 8079 14201  8079 14201 14202  4213 14201 14202  3658 8079 14202  1612 14203 14204  12609 14203 14204  3761 12609 14203  1362 12609 14204  571 572 14205  571 14205 14206  773 14205 14206  570 571 14206  395 396 14207  395 14207 14208  3869 14207 14208  394 395 14208  569 570 14209  569 14209 14210  3867 14209 14210  568 569 14210  397 398 14211  397 14211 14212  771 14211 14212  396 397 14212  985 11860 14213  11860 14213 14214  1596 14213 14214  991 11860 14214  595 596 14215  595 14215 14216  4048 14215 14216  594 595 14216  567 568 14217  567 14217 14218  703 14217 14218  566 567 14218  399 400 14219  399 14219 14220  3870 14219 14220  398 399 14220  1509 12710 14221  12710 14221 14222  1707 14221 14222  1510 12710 14222  565 566 14223  565 14223 14224  3873 14223 14224  564 565 14224  401 402 14225  401 14225 14226  670 14225 14226  400 401 14226  563 564 14227  563 14227 14228  772 14227 14228  562 563 14228  403 404 14229  403 14229 14230  3875 14229 14230  402 403 14230  2116 13358 14231  7841 13358 14231  4027 7841 13358  2448 7841 14231  1696 12817 14232  12817 14232 14233  1760 14232 14233  1695 12817 14233  405 406 14234  405 14234 14235  774 14234 14235  404 405 14235  561 562 14236  561 14236 14237  3872 14236 14237  560 561 14237  407 408 14238  407 14238 14239  3874 14238 14239  406 407 14239  409 410 14240  409 14240 14241  704 14240 14241  408 409 14241  559 560 14242  559 14242 14243  668 14242 14243  558 559 14243  3730 12187 14244  12187 14244 14245  3932 14244 14245  1131 12187 14245  411 412 14246  411 14246 14247  3878 14246 14247  410 411 14247  557 558 14248  557 14248 14249  3880 14248 14249  556 557 14249  413 414 14250  413 14250 14251  775 14250 14251  412 413 14251  1705 11940 14252  6322 11940 14252  1710 6322 11940  1709 6322 14252  555 556 14253  555 14253 14254  777 14253 14254  554 555 14254  974 11867 14255  11867 14255 14256  980 14255 14256  979 11867 14256  553 554 14257  553 14257 14258  3881 14257 14258  552 553 14258  1029 6315 14259  6315 13113 14259  4362 6315 13113  4249 13113 14259  551 552 14260  551 14260 14261  705 14260 14261  550 551 14261  1271 12057 13074  12057 13074 14262  1306 13074 14262  1266 12057 14262  549 550 14263  549 14263 14264  3882 14263 14264  548 549 14264  419 420 14265  419 14265 14266  669 14265 14266  418 419 14266  2906 13337 14267  13337 14267 14268  4013 14267 14268  1927 13337 14268  2112 14269 14270  13143 14269 14270  2255 13143 14269  1784 13143 14270  547 548 14271  547 14271 14272  776 14271 14272  546 547 14272  423 424 14273  423 14273 14274  779 14273 14274  422 423 14274  417 418 14275  417 14275 14276  3884 14275 14276  416 417 14276  2260 12806 14277  12806 14277 14278  3256 14277 14278  2261 12806 14278  425 426 14279  425 14279 14280  3883 14279 14280  424 425 14280  541 542 14281  541 14281 14282  667 14281 14282  540 541 14282  1111 12008 14283  12008 14283 14284  3847 14283 14284  1100 12008 14284  427 428 14285  427 14285 14286  706 14285 14286  426 427 14286  539 540 14287  539 14287 14288  3888 14287 14288  538 539 14288  415 416 14289  415 14289 14290  3879 14289 14290  414 415 14290  537 538 14291  537 14291 14292  778 14291 14292  536 537 14292  429 430 14293  429 14293 14294  3889 14293 14294  428 429 14294  2534 8336 14296  8336 14295 14296  2537 8336 14295  2536 14295 14296  431 432 14297  431 14297 14298  780 14297 14298  430 431 14298  3566 12992 14299  12992 14299 14300  3567 14299 14300  1299 12992 14300  2308 7428 7791  7428 7791 14301  4408 7428 14301  3923 7791 14301  531 532 14302  531 14302 14303  690 14302 14303  530 531 14303  529 530 14304  529 14304 14305  3890 14304 14305  528 529 14305  935 11891 14306  11891 14306 14307  1597 14306 14307  938 11891 14307  1079 11872 14308  11872 13088 14308  1084 13088 14308  1081 11872 13088  437 438 14309  437 14309 14310  665 14309 14310  436 437 14310  1401 11957 14311  11957 13050 14311  1404 13050 14311  1403 11957 13050  527 528 14312  527 14312 14313  781 14312 14313  526 527 14313  2375 12738 14314  12738 12800 14314  2377 12800 14314  2376 12738 12800  439 440 14315  439 14315 14316  3892 14315 14316  438 439 14316  533 534 14317  533 14317 14318  3893 14317 14318  532 533 14318  441 442 14319  441 14319 14320  782 14319 14320  440 441 14320  447 448 14321  447 14321 14322  691 14321 14322  446 447 14322  521 522 14323  521 14323 14324  666 14323 14324  520 521 14324  535 536 14325  535 14325 14326  3887 14325 14326  534 535 14326  2019 14327 14329  14327 14328 14329  2409 14327 14328  2150 14328 14329  517 518 14330  517 14330 14331  784 14330 14331  516 517 14331  451 452 14332  451 14332 14333  783 14332 14333  450 451 14333  1582 11793 13069  11793 12836 13069  2303 12836 13069  1488 11793 12836  2249 12831 13044  12831 13044 14334  2257 12831 14334  2047 13044 14334  927 11895 14335  11895 14335 14336  931 14335 14336  930 11895 14336  511 512 14337  511 14337 14338  692 14337 14338  510 511 14338  457 458 14339  457 14339 14340  663 14339 14340  456 457 14340  509 510 14341  509 14341 14342  3896 14341 14342  508 509 14342  525 526 14343  525 14343 14344  3891 14343 14344  524 525 14344  1666 13201 14345  13201 14345 14346  4040 14345 14346  1669 13201 14346  513 514 14347  513 14347 14348  3897 14347 14348  512 513 14348  455 456 14349  455 14349 14350  3898 14349 14350  454 455 14350  507 508 14351  507 14351 14352  785 14351 14352  506 507 14352  2327 13817 14353  13817 14353 14354  4175 14353 14354  3850 13817 14354  461 462 14355  461 14355 14356  786 14355 14356  460 461 14356  515 516 14357  515 14357 14358  3894 14357 14358  514 515 14358  453 454 14359  453 14359 14360  3895 14359 14360  452 453 14360  2726 12673 14362  12673 14361 14362  3793 12673 14361  2728 14361 14362  2194 5050 12982  5050 12298 12982  2487 5050 12298  2324 12298 12982  501 502 14363  501 14363 14364  664 14363 14364  500 501 14364  499 500 14365  499 14365 14366  3901 14365 14366  498 499 14366  467 468 14367  467 14367 14368  693 14367 14368  466 467 14368  497 498 14369  497 14369 14370  787 14369 14370  496 497 14370  491 492 14371  491 14371 14372  694 14371 14372  490 491 14372  1470 12751 14373  12751 12824 14373  1472 12824 14373  1471 12751 12824  2377 12799 14374  12799 12805 14374  2379 12805 14374  2378 12799 12805  473 474 14375  473 14375 14376  727 14375 14376  472 473 14376  503 504 14377  503 14377 14378  3899 14377 14378  502 503 14378  2379 12804 14379  12804 14379 14380  2992 14379 14380  2380 12804 14380  493 494 14381  493 14381 14382  3902 14381 14382  492 493 14382  485 486 14383  485 14383 14384  728 14383 14384  484 485 14384  1264 12109 13104  12109 13104 14385  1265 13104 14385  1260 12109 14385  495 496 14386  495 14386 14387  3900 14386 14387  494 495 14387  1100 12039 14388  12039 14388 14389  1101 14388 14389  1031 12039 14389  479 480 14390  479 5248 14390  662 5248 14390  478 479 5248  481 482 14391  481 14391 14392  3903 14391 14392  480 481 14392  1334 11716 14393  11716 12964 14393  3565 12964 14393  1319 11716 12964  2541 12228 14394  12228 12970 14394  3760 12228 12970  2542 12970 14394  3102 8158 8862  8158 8862 14395  4702 8862 14395  3663 8158 14395  3225 8426 14397  8426 14396 14397  4647 8426 14396  2637 14396 14397  652 13303 13468  13303 13468 14398  3795 13303 14398  732 13468 14398  3472 6475 11619  6475 11619 11983  3475 6475 11983  2690 11619 11983  916 11910 14399  11910 14399 14400  1599 14399 14400  923 11910 14400  1458 11892 14401  11892 14401 14402  1579 14401 14402  1475 11892 14402  1648 12863 14403  12863 14403 14404  1723 14403 14404  1649 12863 14404  1991 9115 12990  9115 12990 14405  4030 12990 14405  2424 9115 14405  2530 13863 14407  13863 14406 14407  2533 13863 14406  2532 14406 14407  4379 5482 7516  5482 7516 14408  4792 5482 14408  3172 7516 14408  2031 12046 14409  12046 14409 14410  2032 14409 14410  1829 12046 14410  1025 12030 14411  12030 14411 14412  1601 14411 14412  1014 12030 14412  1472 12823 14413  12823 12829 14413  1505 12829 14413  1473 12823 12829  4404 12246 14414  12246 14414 14415  4631 14414 14415  2197 12246 14415  911 11919 14416  11919 14416 14417  914 14416 14417  913 11919 14417  1831 11447 14419  11447 14418 14419  2262 11447 14418  2076 14418 14419  1397 12036 14420  12036 13101 14420  1400 13101 14420  1399 12036 13101  3190 6301 14421  6301 14421 14422  4650 14421 14422  3875 6301 14422  2938 13122 14423  13122 13239 14423  3982 13239 14423  1725 13122 13239  2354 13712 14424  13712 14424 14425  4470 14424 14425  2504 13712 14425  4070 5943 14426  5943 13881 14426  4512 13881 14426  3017 5943 13881  1318 11735 14427  11735 12991 14427  3566 12991 14427  1300 11735 12991  2001 13014 14428  12808 13014 14428  2260 12808 14428  2002 12808 13014  2526 14429 14431  14429 14430 14431  2529 14429 14430  2528 14430 14431  907 11933 14432  11933 14432 14433  1600 14432 14433  909 11933 14433  1630 14434 14436  14434 14435 14436  2316 14434 14435  2053 14435 14436  2292 11920 13052  11920 13052 14437  2461 13052 14437  1904 11920 14437  2404 12955 14117  12464 12955 14117  3507 12464 14117  2403 12464 12955  1155 12815 14438  12815 12882 14438  1157 12882 14438  1156 12815 12882  901 11928 14439  11928 14439 14440  904 14439 14440  903 11928 14440  1559 11864 13111  11864 13111 14441  1560 13111 14441  1354 11864 14441  2241 13424 14442  8125 13424 14442  4029 8125 13424  3616 8125 14442  1010 12077 14443  12077 14443 14444  1011 14443 14444  998 12077 14444  4671 14445 14447  14445 14446 14447  4847 14445 14446  3029 14446 14447  2199 12076 14448  12076 14448 14449  2202 14448 14449  2201 12076 14449  897 11944 14450  11944 14450 14451  1602 14450 14451  899 11944 14451  2045 13764 14452  8890 13764 14452  3767 8890 13764  1949 8890 14452  1485 14453 14454  6500 14453 14454  2122 6500 14453  1586 6500 14454  2275 5090 14456  5090 14455 14456  3047 5090 14455  2959 14455 14456  1258 12080 13157  12080 13157 14457  1259 13157 14457  1255 12080 14457  1533 9710 12877  9710 12877 13163  4010 12877 13163  1535 9710 13163  1071 12104 14458  12104 13130 14458  1074 13130 14458  1073 12104 13130  889 11954 14459  11954 14459 14460  892 14459 14460  891 11954 14460  2056 13319 14461  13319 14461 14462  4160 14461 14462  1996 13319 14462  2697 11952 13146  11952 13146 14463  2737 13146 14463  2649 11952 14463  1126 7317 11758  7317 11758 14464  4314 7317 14464  1112 11758 14464  2290 6098 11193  6098 11193 14465  4098 6098 14465  2289 11193 14465  878 11955 13009  11955 13009 14466  1855 13009 14466  880 11955 14466  1353 10616 13274  10616 12477 13274  4000 12477 13274  1317 10616 12477  1157 12881 14467  12881 12886 14467  1160 12886 14467  1158 12881 12886  882 11964 14468  11964 14468 14469  1099 14468 14469  884 11964 14469  3544 7866 9387  7866 9387 14470  4203 9387 14470  1816 7866 14470  1882 11997 14471  11997 13173 14471  2198 13173 14471  2091 11997 13173  1588 7237 14473  7237 14472 14473  2274 7237 14472  1590 14472 14473  3794 9451 14474  9451 14474 14475  4206 14474 14475  3067 9451 14475  1393 12114 14476  12114 13150 14476  1396 13150 14476  1395 12114 13150  993 12068 14477  12068 14477 14478  1603 14477 14478  989 12068 14478  2778 11982 12732  11982 12732 14479  2963 12732 14479  2780 11982 14479  1452 11972 14480  11972 13162 14480  1455 13162 14480  1454 11972 13162  1252 12152 14481  12152 14481 14482  3828 14481 14482  1250 12152 14482  1349 12907 14483  12907 14483 14484  1536 14483 14484  1348 12907 14484  2182 12825 14485  12825 12898 14485  2297 12898 14485  2183 12825 12898  3272 6213 11540  6213 11540 12372  3276 6213 12372  2128 11540 12372  2319 14486 14488  14486 14487 14488  2382 14486 14487  2381 14487 14488  2905 12185 14489  12185 14489 14490  2985 14489 14490  2855 12185 14490  1054 12027 14491  12027 14491 14492  1060 14491 14492  1057 12027 14492  972 12098 14493  12098 12793 14493  1606 12793 14493  970 12098 12793  1589 13079 14494  12864 13079 14494  1648 12864 14494  1647 12864 13079  3270 10465 14495  7892 10465 14495  4717 7892 14495  3273 7892 10465  1050 12020 14496  12020 14496 14497  1604 14496 14497  1052 12020 14497  1065 12041 14498  12041 13189 14498  1068 13189 14498  1067 12041 13189  1059 12042 14499  12042 14499 14500  1646 14499 14500  1062 12042 14500  982 12090 14501  12090 14501 14502  983 14501 14502  977 12090 14502  3382 11034 13633  10966 11034 13633  3383 10966 13633  3378 10966 11034  1045 12014 13053  12014 13053 14503  1869 13053 14503  1048 12014 14503  1387 12056 14504  12056 13193 14504  1390 13193 14504  1389 12056 13193  1374 12038 13061  12038 13061 14505  2232 13061 14505  1377 12038 14505  1379 12063 14506  12063 14506 14507  1385 14506 14507  1381 12063 14507  928 11971 13072  11971 13072 14508  3451 13072 14508  3449 11971 14508  1316 4980 13791  4980 12786 13791  3801 4980 12786  1315 12786 13791  1063 5141 8341  5141 8341 14509  4413 5141 14509  3763 8341 14509  3211 8333 11772  8333 11772 12119  3212 8333 12119  2776 11772 12119  2853 12127 13236  12127 12810 13236  2854 12810 13236  2240 12127 12810  1435 12860 14510  12860 12917 14510  1437 12917 14510  1436 12860 12917  3278 6928 8118  6928 8118 9542  3853 6928 9542  3799 8118 9542  2225 12935 12956  12935 12956 14511  2403 12956 14511  1608 12935 14511  1123 12875 14512  12875 13397 14512  1133 13397 14512  1124 12875 13397  3977 14513 14514  6382 14513 14514  4315 6382 14513  1649 6382 14514  1248 12197 13203  12197 13203 14515  1249 13203 14515  1246 12197 14515  2628 12035 13197  12035 13197 14516  2629 13197 14516  2626 12035 14516  1465 13247 14517  13247 14517 14518  4055 14517 14518  1531 13247 14518  1292 11837 13242  11837 13034 13242  3562 13034 13242  1262 11837 13034  1055 7886 9748  7886 9748 14519  4715 7886 14519  1051 9748 14519  3526 12049 12944  12049 12944 14520  3530 12944 14520  3529 12049 14520  1974 13040 14522  13040 14521 14522  2252 13040 14521  2251 14521 14522  1365 12086 13124  12086 13124 14523  1681 13124 14523  1368 12086 14523  1368 12101 14524  12101 14524 14525  3952 14524 14525  1598 12101 14525  2016 12141 13256  12141 13187 13256  2017 13187 13256  1780 12141 13187  1895 12095 13027  12095 13027 13230  2284 13027 13230  2052 12095 13230  1033 12082 13128  12082 13128 14526  2322 13128 14526  1035 12082 14526  3327 14527 14528  13807 14527 14528  4210 13807 14527  2212 13807 14528  1037 12089 14529  12089 13227 14529  1167 13227 14529  1039 12089 13227  2722 12067 12782  12067 12782 13216  2784 12782 13216  2724 12067 13216  3419 6953 11611  6953 11611 14530  3420 6953 14530  677 11611 14530  2074 5032 11823  5032 11823 13043  3564 5032 13043  1914 11823 13043  3848 5330 14531  5330 7002 14531  4517 7002 14531  3041 5330 7002  586 6712 14532  6712 14532 14533  4585 14532 14533  3677 6712 14533  3393 11804 14534  11804 14110 14534  4875 14110 14534  3394 11804 14110  857 11250 12007  7600 11250 12007  4026 7600 11250  1107 7600 12007  3530 5355 12943  5355 12943 14535  3924 12943 14535  3877 5355 14535  745 14536 14538  14536 14537 14538  4703 14536 14537  4545 14537 14538  1166 11969 14539  11969 13208 14539  3439 13208 14539  3438 11969 13208  2624 12159 14540  12159 14540 14541  2677 14540 14541  2599 12159 14541  3063 9363 14542  7179 9363 14542  4821 7179 14542  3062 7179 9363  435 436 14543  435 14543 14544  4064 14543 14544  434 435 14544  1706 9148 14545  9148 14545 14546  4896 14545 14546  3259 9148 14546  1733 12134 14548  12134 14547 14548  2030 12134 14547  1734 14547 14548  1557 11976 14549  11976 13106 14549  3591 13106 14549  940 11976 13106  3484 5956 6450  5956 6450 14550  4444 5956 14550  2817 6450 14550  2977 12856 13078  12856 13078 14528  3327 13078 14528  2212 12856 14528  961 12149 14551  12149 14551 14552  962 14551 14552  958 12149 14552  966 12153 13315  12153 13315 14553  1641 13315 14553  964 12153 14553  1244 12184 13283  12184 13283 14554  1245 13283 14554  1242 12184 14554  1548 9923 13090  9923 13090 13357  4027 13090 13357  1819 9923 13357  2703 12117 12849  12117 12849 13264  2818 12849 13264  2709 12117 13264  2520 7332 10149  7332 10149 14555  4327 7332 14555  2022 10149 14555  314 13405 13524  13405 13524 14556  3807 13524 14556  734 13405 14556  1779 14557 14559  14557 14558 14559  2319 14557 14558  2036 14558 14559  3290 10666 11183  7776 10666 11183  4111 7776 11183  3293 7776 10666  2936 6442 14560  6442 13595 14560  4172 6442 13595  4112 13595 14560  1741 12025 14561  12025 13135 14561  3596 13135 14561  1737 12025 13135  2651 9331 14562  9331 11953 14562  4815 11953 14562  2650 9331 11953  954 12164 14563  5375 12164 14563  1209 5375 14563  951 5375 12164  2318 14564 14566  14564 14565 14566  2525 14564 14565  2524 14565 14566  2411 12239 14567  12239 14567 14568  2478 14567 14568  2390 12239 14568  3140 8046 13222  8046 13222 14569  4890 13222 14569  2229 8046 14569  1868 12177 13312  12177 13312 14570  1912 13312 14570  1866 12177 14570  1445 12561 14571  12561 14571 14572  3838 14571 14572  1446 12561 14572  746 11653 13361  11653 12954 13361  3644 12954 13361  219 11653 12954  3914 12731 14573  5442 12731 14573  3915 5442 14573  2963 5442 12731  2185 6833 12994  6833 12994 14574  2302 6833 14574  2184 12994 14574  2265 12200 14575  6290 12200 14575  3989 6290 14575  2267 6290 12200  3877 9564 14535  9564 12663 14535  3924 12663 14535  2325 9564 12663  2768 12059 13168  12059 13168 13253  2903 13168 13253  2902 12059 13253  2062 12202 14576  12202 14576 14577  2488 14576 14577  2265 12202 14577  1721 9841 12303  9841 12303 13249  4028 12303 13249  1836 9841 13249  1238 12205 13342  12205 13342 14578  1239 13342 14578  1235 12205 14578  1645 12207 14579  12207 14579 14580  1853 14579 14580  1852 12207 14580  1864 12179 14581  12179 14581 14582  1972 14581 14582  1862 12179 14582  3300 7335 12154  7335 12154 14583  3949 7335 14583  2366 12154 14583  1728 9594 13328  9594 12986 13328  4032 12986 13328  1593 9594 12986  3306 6720 14584  6720 14584 14585  4585 14584 14585  674 6720 14585  2252 12953 14587  12953 14586 14587  3043 12953 14586  2490 14586 14587  1821 7499 12252  7499 12252 13237  3663 7499 13237  817 12252 13237  1230 12216 14588  12216 14588 14589  1233 14588 14589  1227 12216 14589  1420 12945 14590  12945 13007 14590  1422 13007 14590  1421 12945 13007  1261 12137 14591  12137 14591 14592  3911 14591 14592  1187 12137 14592  3831 11747 12978  11747 12978 13855  4038 11747 13855  1497 12978 13855  1339 13368 14593  13368 14593 14594  4059 14593 14594  1342 13368 14594  1187 12139 14595  12139 14595 14596  1189 14595 14596  1149 12139 14596  2872 9355 14597  9355 9767 14597  4604 9767 14597  3124 9355 9767  3498 11931 13335  11931 13335 14598  3499 13335 14598  1151 11931 14598  3493 11924 13332  11924 13332 14599  3495 13332 14599  1204 11924 14599  3513 12130 12822  12130 12822 13133  3514 12822 13133  2774 12130 13133  1697 10191 12391  10191 12391 13423  4029 12391 13423  1870 10191 13423  2846 14600 14602  14600 14601 14602  3160 14600 14601  3159 14601 14602  1913 12111 13296  12111 13296 14603  1915 13296 14603  1844 12111 14603  1223 12211 14604  12211 14604 14605  1253 14604 14605  1221 12211 14605  3113 6184 14606  6184 14105 14606  4207 6184 14105  2303 14105 14606  1841 12140 14607  12140 14607 14608  1842 14607 14608  1808 12140 14608  2692 12167 12938  12167 12938 14609  2729 12938 14609  2694 12167 14609  1434 10092 13211  8724 10092 13211  4039 8724 13211  1502 8724 10092  1932 13410 14610  13410 14610 14611  4034 14610 14611  2336 13410 14611  2388 12288 13355  7308 12288 13355  2389 7308 13355  2384 7308 12288  1752 12236 13366  12236 13366 14612  1755 13366 14612  1750 12236 14612  1860 12282 14613  12282 14613 14614  1970 14613 14614  1858 12282 14614  1745 12229 14615  12229 14615 14616  1753 14615 14616  1743 12229 14616  2368 7681 14617  7681 14617 14618  4729 14617 14618  3133 7681 14618  1619 11827 14620  11827 14619 14620  1733 11827 14619  1621 14619 14620  2760 12135 13246  12135 13246 14621  2820 13246 14621  2798 12135 14621  939 12222 13372  5904 12222 13372  987 5904 13372  932 5904 12222  1928 13041 14622  13031 13041 14622  2272 13031 14622  1929 13031 13041  1677 7870 12108  7870 12108 13316  3717 7870 13316  823 12108 13316  2168 12254 13379  12254 13379 14623  2383 13379 14623  2124 12254 14623  924 6265 12221  6265 12221 14624  1961 6265 14624  920 12221 14624  1350 12253 13385  12253 13385 14625  1639 13385 14625  1210 12253 14625  1774 13057 14626  13042 13057 14626  1928 13042 14626  1775 13042 13057  1736 12255 13390  12255 13390 14627  1985 13390 14627  1726 12255 14627  1108 12962 14628  12962 14628 14629  3791 14628 14629  1109 12962 14629  2518 12508 14630  12508 14630 14631  3944 14630 14631  1814 12508 14631  918 8772 14632  8772 14632 14633  4009 14632 14633  3707 8772 14633  1610 13064 14634  13059 13064 14634  1774 13059 14634  1611 13059 13064  1814 12534 14635  12534 14058 14635  2315 14058 14635  1812 12534 14058  2070 13098 14636  13098 14636 14637  2356 14636 14637  2069 13098 14637  1410 12997 14638  12997 13082 14638  1412 13082 14638  1411 12997 13082  1523 13083 14639  13066 13083 14639  1610 13066 14639  1524 13066 13083  647 648 14640  647 14640 14641  4081 14640 14641  646 647 14641  1307 13073 14642  13073 14642 14643  1528 14642 14643  1306 13073 14643  2680 12248 14644  12248 13391 14644  3585 13391 14644  3583 12248 13391  1090 13017 14645  13017 13096 14645  1092 13096 14645  1091 13017 13096  2015 12327 14646  12327 14646 14647  2471 14646 14647  2013 12327 14647  2670 12241 14648  12241 14648 14649  2711 14648 14649  2674 12241 14649  1414 13085 14650  13085 14650 14651  1577 14650 14651  1415 13085 14651  2149 8458 14652  8458 8595 14652  4186 8595 14652  3630 8458 8595  1496 5462 12024  5462 12024 13317  3737 5462 13317  833 12024 13317  1412 13081 14653  13081 13086 14653  1414 13086 14653  1413 13081 13086  2044 14654 14656  14654 14655 14656  2846 14654 14655  2845 14655 14656  2968 11377 11465  11377 11465 14657  4898 11465 14657  2105 11377 14657  2750 12204 14658  12204 14658 14659  2754 14658 14659  2752 12204 14659  3638 10054 14660  10054 14660 14661  4920 14660 14661  3640 10054 14661  3289 9212 9492  9212 9492 14662  4110 9492 14662  3291 9212 14662  1092 13095 14663  13095 14663 14664  1512 14663 14664  1093 13095 14664  1799 12292 14665  12292 13392 14665  2276 13392 14665  1797 12292 13392  2011 12300 13431  12300 13431 14666  2012 13431 14666  1818 12300 14666  2920 10144 12267  10144 12267 14667  4489 10144 14667  3840 12267 14667  2162 13495 14668  13495 14668 14669  4047 14668 14669  1980 13495 14669  3352 7491 11062  7491 11062 14670  4307 7491 14670  3426 11062 14670  3694 8713 14671  8713 14671 14672  4024 14671 14672  1558 8713 14672  687 8422 14673  5367 8422 14673  4454 5367 14673  3626 5367 8422  2728 13461 14361  13461 14361 14674  3793 14361 14674  2973 13461 14674  4057 8213 14143  7736 8213 14143  4732 7736 8213  2904 7736 14143  2609 13580 14675  13580 14675 14676  3928 14675 14676  2603 13580 14676  1404 13049 14677  13049 13119 14677  1406 13119 14677  1405 13049 13119  1661 12305 14678  12305 13453 14678  1880 13453 14678  1879 12305 13453  1825 13099 13304  13099 13304 14679  2069 13099 14679  1824 13304 14679  1518 13278 14680  13084 13278 14680  1523 13084 14680  1520 13084 13278  2087 14681 14683  14681 14682 14683  2472 14681 14682  2259 14682 14683  1692 7812 14684  7812 9586 14684  4215 9586 14684  3577 7812 9586  1969 12999 13094  12999 13094 14685  2092 13094 14685  1785 12999 14685  2673 13463 13574  6160 13463 13574  4002 6160 13574  2815 6160 13463  732 13469 14686  13469 13644 14686  3810 13644 14686  650 13469 13644  1084 13087 14687  13087 14687 14688  1951 14687 14688  1085 13087 14688  2305 9819 14689  9819 14689 14690  4614 14689 14690  2982 9819 14690  3931 12848 14691  12848 14691 14692  3939 14691 14692  2818 12848 14692  2048 13308 14693  13092 13308 14693  2393 13092 14693  2049 13092 13308  1756 13437 14694  13437 14694 14695  4267 14694 14695  2179 13437 14695  6 7 14696  6 14696 14697  4174 14696 14697  5 6 14697  1885 13482 14698  13482 14698 14699  4072 14698 14699  2216 13482 14699  1802 12333 14700  12333 13536 14700  2263 13536 14700  1876 12333 13536  1205 12689 14701  12689 14701 14702  3922 14701 14702  1206 12689 14702  2931 12871 14703  9921 12871 14703  4656 9921 14703  3722 9921 12871  1767 12417 13896  12417 12680 13896  2857 12680 13896  2856 12417 12680  2291 13093 14704  13093 14704 14705  3052 14704 14705  2092 13093 14705  2073 13336 14706  13336 14706 14707  2907 14706 14707  2906 13336 14707  2304 7946 13068  7946 13068 14606  3113 7946 14606  2303 13068 14606  1796 14708 14710  14708 14709 14710  2087 14708 14709  2086 14709 14710  3749 11734 14711  11734 14711 14712  4081 14711 14712  3810 11734 14712  3786 8168 12569  8168 12569 14713  4659 8168 14713  2852 12569 14713  3460 6339 8703  6339 8703 14714  4571 6339 14714  2508 8703 14714  2475 14715 14716  6275 14715 14716  4654 6275 14715  4224 6275 14716  753 11857 14717  11857 13021 14717  3664 13021 14717  259 11857 13021  2312 13352 14718  13352 14718 14719  2924 14718 14719  2895 13352 14719  601 602 14720  601 14720 14721  4033 14720 14721  600 601 14721  2735 12337 14722  12337 14722 14723  3099 14722 14723  2816 12337 14723  2057 14724 14726  14724 14725 14726  2466 14724 14725  2056 14725 14726  3187 7448 10101  7448 10101 14727  4176 10101 14727  3188 7448 14727  1074 13129 14728  13129 13195 14728  1076 13195 14728  1075 13129 13195  2460 12387 13621  12387 13621 14729  3222 13621 14729  2248 12387 14729  1690 11679 14730  11679 14571 14730  3838 11679 14571  1445 14571 14730  1716 14731 14733  14731 14732 14733  2321 14731 14732  1992 14732 14733  744 8317 11648  8317 11648 14734  4931 8317 14734  97 11648 14734  3953 13060 13214  5604 13060 13214  3954 5604 13214  2232 5604 13060  1076 10151 13194  10151 13194 14735  1684 10151 14735  1077 13194 14735  691 6153 14736  6153 14736 14737  4166 14736 14737  3726 6153 14737  1830 14164 14738  14164 14738 14739  3862 14738 14739  1793 14164 14739  2070 14095 14636  5116 14095 14636  3740 5116 14095  2356 5116 14636  2738 13145 13213  13145 13213 14740  2739 13213 14740  2737 13145 14740  685 11878 14741  11878 13062 14741  3671 13062 14741  263 11878 13062  2116 12537 14231  12537 14231 14742  2448 14231 14742  2446 12537 14742  1455 13161 14743  13161 14743 14744  1462 14743 14744  1456 13161 14744  2157 12419 13702  12419 13702 14745  2195 13702 14745  2155 12419 14745  3441 12730 13207  12730 13207 14746  4252 12730 14746  3438 13207 14746  2466 11206 14725  11206 14725 14747  4683 11206 14747  2056 14725 14747  3197 8881 14748  5788 8881 14748  4466 5788 14748  3199 5788 8881  1768 13110 13199  13110 13199 14749  1770 13199 14749  1560 13110 14749  3605 6269 8934  6269 8934 14750  4263 6269 14750  2785 8934 14750  324 13608 13675  13608 13675 14751  3816 13675 14751  761 13608 14751  1250 13202 14752  13202 14752 14753  1256 14752 14753  1249 13202 14753  2617 13568 13657  12981 13568 13657  4015 12981 13657  2657 12981 13568  2638 13565 13651  13565 13651 14754  4016 13651 14754  2676 13565 14754  1396 13149 14755  13149 14755 14756  3800 14755 14756  1397 13149 14756  3685 7471 14757  7471 14757 14758  4187 14757 14758  3594 7471 14758  2705 13552 13659  13552 13659 14759  4017 13659 14759  2831 13552 14759  3918 14760 14762  14760 14761 14762  4657 14760 14761  1601 14761 14762  99 11647 14763  11647 14763 14764  4319 14763 14764  744 11647 14764  1068 13188 14765  13188 13268 14765  1070 13268 14765  1069 13188 13268  1109 14074 14629  14074 14629 14766  3791 14629 14766  1119 14074 14766  2293 10186 14767  10186 13544 14767  4100 13544 14767  2292 10186 13544  2269 13257 14768  12870 13257 14768  2509 12870 14768  2270 12870 13257  1390 13192 14769  13192 13277 14769  1392 13277 14769  1391 13192 13277  3452 11703 14770  11703 14770 14771  4568 14770 14771  2712 11703 14771  1806 13266 13284  13266 13284 14772  1994 13266 14772  1805 13284 14772  3049 12456 14773  12456 14773 14774  3297 14773 14774  2338 12456 14774  2241 12608 14442  12608 14442 14775  3616 14442 14775  2986 12608 14775  2175 12479 14098  12479 13748 14098  3457 13748 14098  2867 12479 13748  745 11650 14538  11650 14538 14776  4545 14538 14776  89 11650 14776  3823 13298 14777  13298 14777 14778  3824 14777 14778  2609 13298 14778  3719 10199 14779  10199 14779 14780  4088 14779 14780  1625 10199 14780  1782 13155 14781  13155 14781 14782  4066 14781 14782  4065 13155 14782  3238 11727 12469  11727 12469 14783  4738 12469 14783  3016 11727 14783  2429 13232 13427  13232 13427 14784  3061 13232 14784  2421 13427 14784  2672 13584 13704  7065 13584 13704  4023 7065 13704  2743 7065 13584  113 12118 12976  6248 12118 12976  3812 6248 12976  3642 6248 12118  2630 13196 13281  13196 13281 14785  2631 13281 14785  2629 13196 14785  4061 14033 14786  14033 14786 14787  4282 14786 14787  2151 14033 14787  2982 14690 14789  14690 14788 14789  4614 14690 14788  3775 14788 14789  2349 13255 14790  13255 14790 14791  2350 14790 14791  2017 13255 14791  2349 14790 14792  14790 14792 14793  4232 14792 14793  2350 14790 14793  2294 14794 14796  14794 14795 14796  2295 14794 14795  1693 14795 14796  2082 12513 14797  12513 14797 14798  2983 14797 14798  1930 12513 14798  1160 12885 14799  12885 14799 14800  3951 14799 14800  1161 12885 14800  738 10264 14801  10264 12432 14801  4248 12432 14801  3813 10264 12432  2284 13229 14802  13229 14802 14803  3110 14802 14803  2910 13229 14803  2334 13456 14804  13456 14804 14805  2951 14804 14805  2335 13456 14805  2491 12476 14806  12476 14162 14806  2493 14162 14806  2110 12476 14162  2632 13280 14807  13280 14807 14808  2633 14807 14808  2631 13280 14808  4533 11364 14809  8893 11364 14809  4814 8893 14809  2954 8893 11364  1167 13226 14810  13226 13330 14810  1191 13330 14810  1168 13226 13330  1830 14738 14811  5555 14738 14811  4348 5555 14811  3862 5555 14738  2024 13472 14812  13258 13472 14812  2269 13258 14812  2026 13258 13472  3266 6481 12269  6481 12269 12620  3267 6481 12620  2136 12269 12620  1637 13285 13498  13285 13498 14813  1805 13285 14813  1635 13498 14813  1696 14232 14814  11959 14232 14814  3907 11959 14814  1760 11959 14232  1296 13325 14815  13321 13325 14815  1361 13321 14815  1297 13321 13325  1191 13329 14816  13326 13329 14816  1296 13326 14816  1192 13326 13329  1361 13320 14817  13320 14204 14817  1612 14204 14817  1362 13320 14204  1707 11137 14222  11137 14222 14818  3905 11137 14818  1510 14222 14818  4294 8944 14819  8944 14819 14820  4749 14819 14820  3302 8944 14820  3871 5750 13176  5750 13176 14134  4074 5750 14134  2606 13176 14134  3439 13206 14821  13206 14821 14822  3442 14821 14822  3441 13206 14822  2935 13160 13442  13160 13442 14823  2936 13160 14823  1967 13442 14823  1180 5696 10836  5696 10836 14824  4238 5696 14824  1195 10836 14824  2992 6259 14380  6259 14380 14825  3906 6259 14825  2380 14380 14825  3761 12610 14826  12610 14826 14827  4153 14826 14827  1428 12610 14827  1437 12916 14828  12916 14828 14829  3976 14828 14829  1438 12916 14829  3770 6105 7303  6105 7303 14830  4440 7303 14830  2515 6105 14830  1924 13311 13383  13311 13383 14831  2107 13383 14831  1912 13311 14831  3252 5925 7097  5925 7097 14832  4427 7097 14832  1555 5925 14832  2348 7436 13382  7436 13382 14833  2358 7436 14833  2107 13382 14833  701 7652 13771  7652 13674 13771  3816 7652 13674  326 13674 13771  2498 13503 14834  13503 14834 14835  2499 14834 14835  2342 13503 14835  1240 13341 14836  13341 14836 14837  1541 14836 14837  1239 13341 14837  2957 13314 14838  13314 14838 14839  2964 14838 14839  1641 13314 14839  2362 14840 14842  14840 14841 14842  2363 14840 14841  2295 14841 14842  251 11788 14843  8613 11788 14843  4531 8613 14843  751 8613 11788  1693 12450 14844  12450 14087 14844  4025 14087 14844  1694 12450 14087  2903 13251 14845  6373 13251 14845  3811 6373 14845  3031 6373 13251  1686 13097 14846  13097 14846 14847  4102 14846 14847  1894 13097 14847  2283 12735 14848  12735 12960 14848  4475 12960 14848  3705 12735 12960  3416 12121 13387  12121 13387 14849  4630 12121 14849  4495 13387 14849  1716 14850 14852  14850 14851 14852  1901 14850 14851  1665 14851 14852  3629 6166 14853  6166 14853 14854  4426 14853 14854  3054 6166 14854  1422 13006 14855  13006 14855 14856  3996 14855 14856  1423 13006 14856  1756 13365 13439  13365 13439 14857  1871 13439 14857  1755 13365 14857  757 12091 13957  12091 13112 13957  3689 13112 13957  277 12091 13112  2272 13030 14858  13030 14858 14859  3998 14858 14859  2273 13030 14859  2662 13591 13838  7085 13591 13838  4041 7085 13838  2707 7085 13591  1793 11464 14739  11464 14739 14860  3862 14739 14860  1966 11464 14860  2213 6207 10425  6207 10425 13641  4167 6207 13641  2072 10425 13641  731 11639 14861  11639 14861 14862  4572 14861 14862  121 11639 14862  2039 13395 14863  13394 13395 14863  2326 13394 14863  2325 13394 13395  2598 13586 14864  12617 13586 14864  4058 12617 14864  3822 12617 13586  2083 13295 13376  13295 13376 14865  2264 13376 14865  1915 13295 14865  1908 13400 14866  13396 13400 14866  2039 13396 14866  2037 13396 13400  1906 13420 14867  13401 13420 14867  1908 13401 14867  1907 13401 13420  1599 6638 14868  5441 6638 14868  4214 5441 14868  3972 5441 6638  2896 7432 7744  7432 7744 11392  3490 7744 11392  3372 7432 11392  3032 6070 13668  6070 13668 13857  4036 6070 13857  2120 13668 13857  2644 12832 14869  7995 12832 14869  4784 7995 14869  4041 7995 12832  1570 12551 14870  12551 13995 14870  3762 13995 14870  1566 12551 13995  2068 13389 13497  13389 13497 14871  2469 13497 14871  1985 13389 14871  827 12083 14872  9580 12083 14872  4478 9580 14872  3508 9580 12083  1640 13384 13477  13384 13477 14873  1857 13477 14873  1639 13384 14873  2595 13374 13626  13374 13626 14874  2596 13374 14874  2594 13626 14874  1406 13118 14875  13118 14875 14876  4013 14875 14876  1407 13118 14876  1580 10612 11574  10612 11574 12550  4156 11574 12550  1508 10612 12550  3250 7415 14877  7415 14877 14878  4210 14877 14878  3581 7415 14878  1028 11792 14879  11792 12909 14879  4249 12909 14879  1083 11792 12909  3640 6438 14880  6438 14880 14881  4380 14880 14881  1272 6438 14881  1506 13801 14882  13801 14882 14883  4087 14882 14883  1509 13801 14883  1004 13371 13471  5001 13371 13471  1005 5001 13471  987 5001 13371  1698 11713 14884  11713 14814 14884  3907 14814 14884  1696 11713 14814  1286 13743 14885  13743 14885 14886  4068 14885 14886  3839 13743 14886  1992 14887 14889  14887 14888 14889  2176 14887 14888  1901 14888 14889  2589 13403 13642  13403 13642 14890  2590 13403 14890  2588 13642 14890  1609 13710 14891  13710 13888 14891  4042 13888 14891  1320 13710 13888  328 13770 13806  13770 13806 14892  3827 13806 14892  701 13770 14892  2352 14893 14895  14893 14894 14895  2486 14893 14894  2176 14894 14895  505 506 14896  505 14896 14897  4137 14896 14897  504 505 14897  2871 6765 13706  6765 13706 14898  2914 6765 14898  2913 13706 14898  1281 13663 14899  13421 13663 14899  1906 13421 14899  1460 13421 13663  1510 11494 14818  11494 14818 14900  3905 14818 14900  1581 11494 14900  2113 8855 13511  8855 13511 14901  2465 8855 14901  2464 13511 14901  2104 13513 14902  13512 13513 14902  2113 13512 14902  2105 13512 13513  2192 8335 13733  8335 8818 13733  2912 8335 8818  2911 8818 13733  2887 13851 14903  6189 13851 14903  4067 6189 14903  3423 6189 13851  2102 5098 13521  5098 13515 13521  2104 5098 13515  2103 13515 13521  50 51 9171  50 9171 14904  4353 9171 14904  49 50 14904  2585 9830 13686  9830 13686 14905  2586 9830 14905  2584 13686 14905  4097 14906 14908  14906 14907 14908  4684 14906 14907  4497 14907 14908  2139 13036 14909  10963 13036 14909  4160 10963 14909  3152 10963 13036  2100 13538 14910  13522 13538 14910  2102 13522 14910  2101 13522 13538  1778 12666 14148  12666 14148 14911  1888 14148 14911  1714 12666 14911  3228 5477 11100  5477 11100 14912  4139 5477 14912  3350 11100 14912  3926 13571 13870  13571 13870 14913  3927 13870 14913  2349 13571 14913  2035 14914 14915  9719 14914 14915  4056 9719 14914  3774 9719 14915  4072 14916 14918  14916 14917 14918  4200 14916 14917  2850 14917 14918  1006 13470 13487  13470 13487 14919  1007 13487 14919  1005 13470 14919  1665 12486 14920  12486 14345 14920  4040 14345 14920  1666 12486 14345  1392 13276 14921  13276 14921 14922  4046 14921 14922  1393 13276 14922  1880 13452 14923  13452 13589 14923  1919 13589 14923  1918 13452 13589  2844 12638 14924  12638 13906 14924  3704 13906 14924  1988 12638 13906  2581 13731 14925  13731 14925 14926  2582 14925 14926  2580 13731 14926  2098 13559 14927  13539 13559 14927  2100 13539 14927  2099 13539 13559  3960 13071 14081  5087 13071 14081  3994 5087 14081  3451 5087 13071  1018 13486 13490  13486 13490 14928  1019 13490 14928  1007 13486 14928  1186 11669 14929  11669 14929 14930  4119 14929 14930  1267 11669 14930  1096 13489 13492  6962 13489 13492  1097 6962 13492  1019 6962 13489  1712 12743 14931  5623 12743 14931  1771 5623 14931  1710 5623 12743  1128 5812 13491  5812 13491 14932  1129 5812 14932  1097 13491 14932  2380 11524 14825  11524 14825 14933  3906 14825 14933  2451 11524 14933  2967 14934 14935  11443 14934 14935  4728 11443 14934  3405 11443 14935  2803 13649 13963  13649 13963 14936  4053 13963 14936  3830 13649 14936  3309 8280 14937  8280 8693 14937  4480 8693 14937  3308 8280 8693  1705 12721 14252  12721 14252 14938  1709 14252 14938  1683 12721 14938  1574 12727 14939  12727 14939 14940  1983 14939 14940  1572 12727 14940  2434 13680 13973  13680 13973 14941  4052 13973 14941  2519 13680 14941  3817 12952 14942  6768 12952 14942  4795 6768 14942  3043 6768 12952  1614 14943 14944  14730 14943 14944  1690 14730 14943  1445 14730 14944  1919 13588 14945  8831 13588 14945  2094 8831 14945  2093 8831 13588  2043 13109 14946  13109 14946 14947  4113 14946 14947  1769 13109 14947  763 13844 14948  13805 13844 14948  3827 13805 14948  330 13805 13844  4187 13600 14949  13600 14949 14950  4493 14949 14950  3410 13600 14950  707 10713 12188  10713 12188 13174  3699 10713 13174  281 12188 13174  1283 13494 13761  13494 13761 14951  1284 13494 14951  1282 13761 14951  1839 14088 14953  14088 14952 14953  4025 14088 14952  2057 14952 14953  1397 14420 14756  14420 14756 14954  3800 14756 14954  1400 14420 14954  1629 10559 14955  10559 14955 14956  4144 14955 14956  3752 10559 14956  3763 11258 14957  11258 14957 14958  4104 14957 14958  2193 11258 14958  2577 13520 13797  13520 13797 14959  2578 13520 14959  2576 13797 14959  1349 14483 14960  12217 14483 14960  3913 12217 14960  1536 12217 14483  1904 13198 14961  13198 14961 14962  4034 14961 14962  1770 13198 14962  662 5247 5415  5247 5415 14963  4734 5415 14963  3744 5247 14963  2390 13354 14964  7633 13354 14964  3809 7633 14964  2389 7633 13354  1499 6163 10753  6163 10753 14965  4534 6163 14965  1605 10753 14965  2263 13535 14966  13535 14966 14967  3108 14966 14967  2840 13535 14967  2096 13794 14968  13560 13794 14968  2098 13560 14968  2097 13560 13794  2599 13373 14969  13373 14969 14970  4058 14969 14970  2596 13373 14970  1496 5460 14971  5460 14971 14972  4873 14971 14972  4036 5460 14972  2044 14654 14973  14654 14973 14974  4143 14973 14974  2846 14654 14974  4258 6795 14976  6795 14975 14976  4441 6795 14975  2424 14975 14976  2744 13606 14977  13594 13606 14977  2746 13594 14977  2745 13594 13606  2746 13593 14978  13593 14978 14979  2748 14978 14979  2747 13593 14979  3866 13184 14980  13184 14980 14981  4093 14980 14981  1632 13184 14981  756 6811 12103  6811 12103 14982  4468 6811 14982  29 12103 14982  2484 11534 13655  11534 13655 14983  2485 11534 14983  2059 13655 14983  1443 13865 14984  13865 14984 14985  4091 14984 14985  1470 13865 14985  3268 7101 7725  5953 7101 7725  4504 5953 7101  1491 5953 7725  1980 12722 14669  12722 14669 14986  4047 14669 14986  1979 12722 14986  2058 13656 13676  13656 13676 14987  2059 13656 14987  2028 13676 14987  4381 9691 14988  9691 14988 14989  4932 14988 14989  2926 9691 14989  1534 9514 10515  9514 10515 12502  4120 10515 12502  1311 9514 12502  1364 11783 14990  11783 14960 14990  3913 14960 14990  1349 11783 14960  271 11921 14991  7145 11921 14991  4523 7145 14991  754 7145 11921  1636 13878 14992  13636 13878 14992  2084 13636 14992  1986 13636 13878  1547 11439 14993  11439 14846 14993  4102 14846 14993  1686 11439 14846  2351 12873 14994  12873 14994 14995  2510 14994 14995  2030 12873 14995  2504 13684 13713  13684 13713 14996  2505 13684 14996  2355 13713 14996  1688 13784 13998  13784 13998 14914  4056 13998 14914  2035 13784 14914  2506 13683 13692  5062 13683 13692  2507 5062 13692  2505 5062 13683  3214 14997 14998  12051 14997 14998  4769 12051 14997  4662 12051 14998  2573 13836 14999  13836 14999 15000  2574 14999 15000  2572 13836 15000  2975 13691 13698  13691 13698 15001  3022 13698 15001  2507 13691 15001  1250 14482 14752  12527 14482 14752  3828 12527 14482  1256 12527 14752  1464 12482 15002  12482 14517 15002  4055 14517 15002  1465 12482 14517  2927 13873 15003  13873 15003 15004  2928 15003 15004  2899 13873 15004  1207 15005 15006  5400 15005 15006  4280 5400 15005  4229 5400 15006  2431 13840 15007  13590 13840 15007  2433 13590 15007  2432 13590 13840  2373 9296 12201  9296 12201 15008  4140 12201 15008  3666 9296 15008  1676 7846 15009  7846 15009 15010  4295 15009 15010  3466 7846 15010  1979 15011 15013  15011 15012 15013  2173 15011 15012  2060 15012 15013  2800 13815 15014  5232 13815 15014  2802 5232 15014  2801 5232 13815  2569 13861 15015  13861 15015 15016  2570 15015 15016  2568 13861 15016  742 11754 15017  9621 11754 15017  4020 9621 15017  3622 9621 11754  1796 15018 15019  11947 15018 15019  1883 11947 15018  1690 11947 15019  1974 12899 14522  12899 14522 15020  2251 14522 15020  1935 12899 15020  2593 13849 15021  13607 13849 15021  2744 13607 15021  2635 13607 13849  711 13848 15022  13848 13885 15022  3833 13885 15022  644 13848 13885  1616 15023 15025  15023 15024 15025  2851 15023 15024  1338 15024 15025  2086 15026 15027  12703 15026 15027  2088 12703 15026  1883 12703 15027  1348 13994 15028  13994 15028 15029  4086 15028 15029  1345 13994 15029  3423 5559 13852  5559 13852 15030  3424 5559 15030  3422 13852 15030  1578 13402 15031  13402 14993 15031  4102 14993 15031  1547 13402 14993  2909 13653 15032  13653 15032 15033  4012 15032 15033  2055 13653 15033  2027 13677 13911  13677 13911 15034  2028 13677 15034  2025 13911 15034  1101 15035 15037  15035 15036 15037  4705 15035 15036  4574 15036 15037  3848 5705 15039  5705 15038 15039  4460 5705 15038  678 15038 15039  1839 13318 14953  13318 14726 14953  2057 14726 14953  2056 13318 14726  2420 13751 15040  13751 15040 15041  2449 15040 15041  2419 13751 15041  3575 9989 12598  9989 12598 15042  4605 12598 15042  3265 9989 15042  3498 9105 13333  6969 9105 13333  4084 6969 9105  3500 6969 13333  2354 13714 13929  13714 13929 15043  2355 13714 15043  2333 13929 15043  2418 13752 13758  13752 13758 15044  2419 13752 15044  2417 13758 15044  1579 14402 15045  13367 14402 15045  3842 13367 15045  1475 13367 14402  2196 13701 13826  13701 13826 15046  2364 13826 15046  2195 13701 15046  2416 13759 13766  13759 13766 15047  2417 13759 15047  2415 13766 15047  2078 13726 15048  13726 15048 15049  4076 15048 15049  2496 13726 15049  3541 5162 15050  5162 15050 15051  4620 15050 15051  2914 5162 15051  1723 13864 14404  13864 14404 14514  3977 13864 14514  1649 14404 14514  2565 13926 15052  13926 15052 15053  2566 15052 15053  2564 13926 15053  2842 6238 12546  6238 8355 12546  4632 6238 8355  3780 8355 12546  1132 11728 15054  11728 15054 15055  3930 15054 15055  1142 11728 15055  3288 8123 14101  8123 11762 14101  4179 11762 14101  1751 8123 11762  3044 13825 15056  13825 15056 15057  3045 15056 15057  2364 13825 15057  3336 6157 13454  6157 13454 14573  3915 6157 14573  3914 13454 14573  4587 12006 15058  8202 12006 15058  4778 8202 15058  1020 8202 12006  3528 12048 15059  6749 12048 15059  4124 6749 15059  3533 6749 12048  3156 8791 15060  8791 15060 15061  4619 15060 15061  1134 8791 15061  2005 11732 12319  11732 12319 13212  4108 11732 13212  2161 12319 13212  3435 13362 15062  13362 15062 15063  4859 15062 15063  4588 13362 15063  1858 13476 15064  13476 15064 15065  4076 15064 15065  1857 13476 15065  2913 13707 15066  13707 15066 15067  4006 15066 15067  1953 13707 15067  2307 15068 15070  15068 15069 15070  2317 15068 15069  2268 15069 15070  2173 15071 15072  5909 15071 15072  2932 5909 15071  2869 5909 15072  1338 12594 15073  12594 14593 15073  4059 14593 15073  1339 12594 14593  2561 13746 13975  13746 13975 15074  2562 13746 15074  2560 13975 15074  2708 6350 13971  6350 13971 15075  4083 6350 15075  2659 13971 15075  2414 13767 13986  13767 13986 15076  2415 13767 15076  2236 13986 15076  1043 9384 15077  9384 10382 15077  4322 10382 15077  1041 9384 10382  2335 15078 15079  11512 15078 15079  4857 11512 15078  4461 11512 15079  642 13886 13942  6521 13886 13942  3833 6521 13886  764 6521 13942  804 12247 13479  12247 13479 15080  808 13479 15080  807 12247 15080  3840 14667 15082  14667 15081 15082  4489 14667 15081  689 15081 15082  759 12175 12279  12175 12279 13228  3714 12175 13228  285 12279 13228  1432 14002 15083  14002 15083 15084  4094 15083 15084  1435 14002 15084  2645 13945 15085  13690 13945 15085  2661 13690 15085  2660 13690 13945  2557 6260 14012  6260 14012 15086  2558 6260 15086  2556 14012 15086  1826 14064 15087  13872 14064 15087  1937 13872 15087  1936 13872 14064  3134 8844 12366  8844 12366 15088  4761 12366 15088  1103 8844 15088  302 303 15089  302 15089 15090  3678 15089 15090  301 302 15090  1669 13407 15091  13407 14796 15091  2294 14796 15091  1693 13407 14796  1618 11211 15092  11211 14701 15092  3922 11211 14701  1205 14701 15092  3948 13026 15093  13026 15093 15094  4223 15093 15094  2284 13026 15094  3163 8600 12912  8600 12912 15095  4677 8600 15095  1613 12912 15095  1144 14037 14055  14037 14055 15096  3775 14037 15096  1145 14055 15096  4532 7060 15097  7060 7659 15097  4849 7659 15097  3364 7060 7659  1675 13440 15098  13440 15098 15099  4113 15098 15099  1676 13440 15099  3035 13980 15100  5451 13980 15100  3038 5451 15100  3036 5451 13980  1968 14007 15101  5650 14007 15101  2064 5650 15101  2063 5650 14007  2553 14046 15102  14046 15102 15103  2554 15102 15103  2552 14046 15103  1485 14453 15104  14453 15104 15105  4173 15104 15105  2122 14453 15105  1769 11391 14947  11391 14947 15098  4113 14947 15098  1675 11391 15098  2911 13734 15106  13734 15106 15107  4141 15106 15107  1952 13734 15107  2453 13344 13947  13344 13947 15108  2454 13344 15108  2009 13947 15108  1525 13952 13966  13952 13966 15109  1526 13952 15109  1522 13966 15109  1669 14346 15091  14346 15091 15110  4040 14346 15110  2294 15091 15110  2549 14072 15111  14072 15111 15112  2550 15111 15112  2548 14072 15112  732 14686 15113  11733 14686 15113  3908 11733 15113  3810 11733 14686  3810 13645 14712  13645 14640 14712  4081 14640 14712  648 13645 14640  2521 15114 15116  15114 15115 15116  2952 15114 15115  2522 15115 15116  717 13958 15117  13958 15117 15118  4443 15117 15118  3738 13958 15118  2246 5059 14092  5059 14092 15119  3088 5059 15119  2245 14092 15119  1131 11583 14245  11583 14245 15120  3932 14245 15120  1140 11583 15120  2603 14676 15121  13740 14676 15121  3928 13740 14676  2605 13740 15121  2044 15122 15124  15122 15123 15124  2061 15122 15123  1884 15123 15124  3626 5729 11759  5729 11759 15125  4374 5729 15125  746 11759 15125  2457 14085 15126  14085 15126 15127  2860 15126 15127  2456 14085 15127  1330 13493 15128  13493 15128 15129  4068 15128 15129  1284 13493 15129  1189 15130 15131  6403 15130 15131  4750 6403 15130  3518 6403 15131  1671 9813 15132  9813 15132 15133  4208 15132 15133  3803 9813 15133  2306 13813 15134  13813 15134 15135  3051 15134 15135  2162 13813 15135  764 13943 15136  13943 13978 15136  3832 13978 15136  640 13943 13978  2545 14137 15137  14137 15137 15138  2546 15137 15138  2544 14137 15138  2008 13948 14113  13948 14113 15139  2009 13948 15139  1791 14113 15139  1617 15140 15141  15092 15140 15141  1618 15092 15140  1205 15092 15141  2614 13894 15142  13894 14157 15142  4075 14157 15142  2602 13894 14157  1521 13967 14132  7839 13967 14132  1522 7839 13967  1519 7839 14132  1446 13310 14572  13310 14572 15143  3838 14572 15143  1464 13310 15143  741 9439 15144  9439 10474 15144  4289 10474 15144  3753 9439 10474  1884 12651 15145  12651 14698 15145  4072 14698 15145  1885 12651 14698  1966 13622 14860  12285 13622 14860  3862 12285 14860  2848 12285 13622  2112 14269 15146  5113 14269 15146  2256 5113 15146  2255 5113 14269  1183 12681 15147  12681 15147 15148  4130 15147 15148  1184 12681 15148  2386 5394 15149  5073 5394 15149  2990 5073 5394  2119 5073 15149  4652 11666 15151  11666 15150 15151  4666 11666 15150  1228 15150 15151  2963 5583 14479  5583 13525 14479  3858 5583 13525  2780 13525 14479  1662 7721 11834  7721 11834 15152  4825 7721 15152  824 11834 15152  2257 15153 15155  15153 15154 15155  3156 15153 15154  3029 15154 15155  2526 15156 15158  15156 15157 15158  2527 15156 15157  2524 15157 15158  2472 15159 15160  6773 15159 15160  4158 6773 15159  2473 6773 15160  2541 14187 14394  14187 14394 15161  2542 14394 15161  2540 14187 15161  3051 6203 15163  6203 15162 15163  4201 6203 15162  4047 15162 15163  1531 13517 15164  13517 14852 15164  1716 14852 15164  1665 13517 14852  1979 13959 15013  13959 15013 15165  2060 15013 15165  1891 13959 15165  2782 13932 15166  13932 14194 15166  4079 14194 15166  2706 13932 14194  3295 8208 8215  8208 8215 12496  4590 8208 12496  3294 8215 12496  2652 13935 15167  13935 14189 15167  4080 14189 15167  2618 13935 14189  2537 8026 14295  8026 14295 15168  2538 8026 15168  2536 14295 15168  449 450 15169  449 15169 15170  4166 15169 15170  448 449 15170  1760 13045 15172  13045 15171 15172  2047 13045 15171  1960 15171 15172  355 356 15173  355 15173 15174  4168 15173 15174  354 355 15174  2845 15175 15177  15175 15176 15177  2847 15175 15176  2061 15176 15177  2918 11501 15178  11501 15178 15179  4829 15178 15179  2919 11501 15179  3575 5791 12599  5791 12599 15180  4326 5791 15180  779 12599 15180  335 336 15181  335 8119 15181  4239 8119 15181  334 335 8119  3822 12616 13297  12616 13297 15182  4106 12616 15182  3823 13297 15182  1512 12317 14664  12317 14664 15183  3942 12317 15183  1093 14664 15183  3497 11930 15184  9104 11930 15184  4276 9104 15184  3498 9104 11930  3934 13509 15185  13509 15185 15186  4501 15185 15186  2429 13509 15186  689 13993 15187  13993 14000 15187  3845 14000 15187  624 13993 14000  1309 11941 15188  11941 15188 15189  3940 15188 15189  1307 11941 15189  744 12930 14764  12930 14764 15190  4319 14764 15190  3151 12930 15190  2529 13261 14430  13261 14430 15191  2530 13261 15191  2528 14430 15191  1619 15192 15193  8842 15192 15193  1620 8842 15192  1618 8842 15193  638 13979 14016  13979 14016 15194  3832 13979 15194  699 14016 15194  3254 9338 13127  9338 13127 15195  4259 13127 15195  3253 9338 15195  1307 14642 15189  11700 14642 15189  3940 11700 15189  1528 11700 14642  1306 14262 15196  14262 15196 15197  4088 15196 15197  1266 14262 15197  1621 15198 15199  12884 15198 15199  1642 12884 15198  1620 12884 15199  3938 12182 14106  11369 12182 14106  4207 11369 14106  1559 11369 12182  719 12362 15200  12362 13322 15200  3718 13322 15200  289 12362 13322  3132 11664 15201  11664 15201 15202  4764 15201 15202  3706 11664 15202  2525 14565 15203  14565 15158 15203  2526 15158 15203  2524 14565 15158  622 14001 14014  14001 14014 15204  3845 14001 15204  766 14014 15204  2661 13689 15205  13689 15205 15206  4095 15205 15206  2735 13689 15206  1848 8078 13753  8078 13753 14884  3907 8078 14884  1698 13753 14884  632 14003 14023  14003 14023 15207  3843 14023 15207  720 14003 15207  2051 15208 15210  15208 15209 15210  2221 15208 15209  1830 15209 15210  626 13992 14034  13992 14034 15082  3840 14034 15082  689 13992 15082  2262 14150 14418  14150 14418 15211  2839 14150 15211  2076 14418 15211  2533 8020 14406  8020 14406 15212  2534 8020 15212  2532 14406 15212  13 12519 15213  12519 14801 15213  4248 14801 15213  738 12519 14801  3223 5122 15214  5122 15214 15215  4833 15214 15215  3554 5122 15215  1581 13693 14900  13693 14900 15216  3905 14900 15216  1764 13693 15216  699 5092 14017  5092 14017 14020  3846 5092 14020  636 14017 14020  2019 14147 14329  14147 14329 15217  2150 14329 15217  1888 14147 15217  634 14021 14022  13483 14021 14022  3846 13483 14021  3843 13483 14022  646 13847 14641  13847 14641 15218  4081 14641 15218  711 13847 15218  2318 15219 15221  15219 15220 15221  2523 15219 15220  2317 15220 15221  1342 13688 15222  13688 14944 15222  1614 14944 15222  1445 13688 14944  3353 7938 15223  7938 13077 15223  4340 13077 15223  1498 7938 13077  1093 11859 15183  11859 15183 15224  3942 15183 15224  1095 11859 15224  2991 6181 13788  6181 13788 14182  4096 6181 14182  2435 13788 14182  2783 13904 15225  13904 15225 15226  4095 15225 15226  2665 13904 15226  1000 11843 15227  11843 15227 15228  3946 15227 15228  1009 11843 15228  4264 15229 15230  11898 15229 15230  4527 11898 15229  2468 11898 15230  1345 12947 15029  12947 15029 15231  4086 15029 15231  1344 12947 15231  342 13996 14061  13996 14061 15232  3841 14061 15232  765 13996 15232  2409 6606 14328  6606 14328 15233  2481 6606 15233  2150 14328 15233  2150 15217 15234  15217 15234 15235  2346 15234 15235  1888 15217 15235  2274 5283 14472  5283 14472 15236  2275 5283 15236  1590 14472 15236  2804 13777 15237  11589 13777 15237  4071 11589 15237  2807 11589 13777  1779 15238 15239  12374 15238 15239  1854 12374 15238  1707 12374 15239  3690 13956 15240  13350 13956 15240  4101 13350 15240  3689 13350 13956  3819 13271 15241  7004 13271 15241  4425 7004 15241  3820 7004 13271  2530 15191 15242  15191 15242 15243  2531 15242 15243  2528 15191 15243  2888 13822 15244  13822 15244 15245  4067 15244 15245  2885 13822 15245  1206 13582 14702  6437 13582 14702  3922 6437 14702  1272 6437 13582  1401 14311 15246  14311 15246 15247  4097 15246 15247  1404 14311 15247  2088 13755 15248  8943 13755 15248  2930 8943 15248  2929 8943 13755  1531 14518 15164  14518 15164 15249  4055 14518 15249  1716 15164 15249  2952 15250 15252  15250 15251 15252  3024 15250 15251  2953 15251 15252  2392 9873 13137  9873 13137 15253  4727 13137 15253  2391 9873 15253  2275 15236 15254  15236 15254 15255  2323 15254 15255  1590 15236 15255  2451 13742 14933  13742 14933 15256  3906 14933 15256  3245 13742 15256  852 5446 8955  5446 8955 15257  4391 5446 15257  854 8955 15257  1724 15258 15259  13016 15258 15259  2001 13016 15258  1723 13016 15259  1119 12921 15260  12921 15260 15261  4144 15260 15261  1120 12921 15261  2817 12129 14550  12129 14028 14550  4444 14028 14550  3513 12129 14028  1071 14458 15262  14458 15262 15263  4107 15262 15263  1074 14458 15263  680 14040 15264  14040 14052 15264  3849 14052 15264  346 14040 14052  1328 11786 15265  11786 15265 15266  4123 15265 15266  1274 11786 15266  1326 13821 15267  13821 15025 15267  1616 15025 15267  1338 13821 15025  3382 13632 15268  12408 13632 15268  4661 12408 15268  3384 12408 13632  1505 12828 15269  12828 14882 15269  4087 14882 15269  1506 12828 14882  3798 13205 15270  13205 15270 15271  4807 15270 15271  1604 13205 15271  1536 13148 15273  13148 15272 15273  1702 13148 15272  1623 15272 15273  1894 13670 15274  13670 15070 15274  2307 15070 15274  2268 13670 15070  3542 7795 8623  7795 8623 15275  4240 8623 15275  2169 7795 15275  321 322 15276  321 15276 15277  4164 15276 15277  320 321 15277  1485 15278 15280  15278 15279 15280  1585 15278 15279  1160 15279 15280  616 14048 14063  14048 14063 15039  3848 14063 15039  678 14048 15039  2403 12693 14511  12693 14511 15281  2405 12693 15281  1608 14511 15281  2030 14547 15282  14547 15282 15283  3909 15282 15283  1734 14547 15283  1760 14233 15172  14233 15172 15284  1960 15172 15284  1695 14233 15284  344 14053 14060  14053 14060 15285  3849 14053 15285  3841 14060 15285  1951 12438 14688  12438 14688 15286  3947 12438 15286  1085 14688 15286  2057 14724 15287  6029 14724 15287  2497 6029 15287  2466 6029 14724  1266 13103 15197  13103 15197 15288  4088 15197 15288  1265 13103 15288  2257 14334 15155  14334 15155 15289  3029 15155 15289  2047 14334 15289  2382 13126 14487  5361 13126 14487  3119 5361 13126  2381 5361 14487  320 13448 15277  13448 15277 15290  4164 15277 15290  713 13448 15290  1942 13900 15291  13900 15291 15292  4148 15291 15292  2908 13900 15292  1085 11929 15286  11929 15286 15293  3947 15286 15293  1087 11929 15293  2036 15294 15295  12983 15294 15295  2194 12983 15294  1854 12983 15295  2252 14521 14587  14521 14587 15296  2490 14587 15296  2251 14521 15296  1577 14651 15297  14651 15297 15298  4145 15297 15298  1415 14651 15298  2534 15212 15299  5121 15212 15299  2535 5121 15299  2532 5121 15212  1442 12797 15300  12797 14984 15300  4091 14984 15300  1443 12797 14984  2216 13876 15301  13876 15301 15302  2850 15301 15302  2230 13876 15302  1161 13854 14800  7359 13854 14800  3951 7359 14800  1164 7359 13854  2538 15168 15303  15168 15303 15304  2539 15303 15304  2536 15168 15304  2319 14488 14558  14488 14558 15305  2381 14488 15305  2036 14558 15305  867 9276 15306  7739 9276 15306  4355 7739 15306  865 7739 9276  1930 13951 15307  13951 15307 15308  4105 15307 15308  1526 13951 15308  2293 14767 15309  14767 15309 15310  4426 15309 15310  4100 14767 15310  3539 10114 12942  10114 12942 15311  4881 10114 15311  4001 12942 15311  979 11856 15312  11856 15312 15313  3959 15312 15313  985 11856 15313  3903 8245 15314  8245 8620 15314  4580 8620 15314  3096 8245 8620  3499 8140 15315  8140 11776 15315  4286 11776 15315  3494 8140 11776  3920 12115 13556  12115 13556 14691  3939 12115 14691  3931 13556 14691  3043 5224 14586  5224 14586 15316  3243 5224 15316  2490 14586 15316  1629 15317 15318  13240 15317 15318  1725 13240 15317  1133 13240 15318  1826 15087 15319  15087 15319 15320  1938 15319 15320  1937 15087 15320  1702 13132 15322  13132 15321 15322  2021 13132 15321  1784 15321 15322  3101 15323 15324  8159 15323 15324  3102 8159 15323  3100 8159 15324  1100 14284 14388  14284 14388 15325  3847 14284 15325  1101 14388 15325  2302 14574 15326  14574 15326 15327  3081 15326 15327  2184 14574 15327  1733 14548 14619  14548 14619 15328  1734 14548 15328  1621 14619 15328  1536 14484 15273  14484 15273 15329  1623 15273 15329  1348 14484 15329  2521 13827 15116  13827 15116 15330  2522 15116 15330  2043 13827 15330  3720 7235 12642  7235 12642 15331  4340 12642 15331  2306 7235 15331  1630 15332 15334  15332 15333 15334  1631 15332 15333  1437 15333 15334  2021 15335 15337  15335 15336 15337  2849 15335 15336  2112 15336 15337  1586 15338 15339  8941 15338 15339  1587 8941 15338  1585 8941 15339  1431 12895 15340  12895 15083 15340  4094 15083 15340  1432 12895 15083  1617 11108 15341  11108 15341 15342  4130 15341 15342  3766 11108 15342  1198 14027 15343  14027 15141 15343  1617 15141 15343  1205 14027 15141  709 5107 15344  5107 15344 15345  4846 15344 15345  3099 5107 15345  3284 8531 12910  8531 12910 13115  4249 12910 13115  2828 8531 13115  1588 15346 15347  13080 15346 15347  1589 13080 15346  1587 13080 15347  3160 14601 15348  5238 14601 15348  3161 5238 15348  3159 5238 14601  2959 15349 15351  15349 15350 15351  2960 15349 15350  2323 15350 15351  2340 13953 15352  13953 15352 15353  4117 15352 15353  2341 13953 15353  1909 14050 15354  14050 15149 15354  2386 15149 15354  2119 14050 15149  1249 14515 15355  14515 15355 15356  4093 15355 15356  1246 14515 15356  938 11887 15357  11887 15357 15358  3964 15357 15358  974 11887 15358  1671 9812 13898  9812 13898 14990  3913 9812 14990  1364 13898 14990  1526 15109 15359  6862 15109 15359  1575 6862 15359  1522 6862 15109  1246 13282 15356  13282 15356 15360  4093 15356 15360  1245 13282 15360  2542 15161 15361  15161 15361 15362  2543 15361 15362  2540 15161 15362  2846 14602 14655  14602 14655 15363  3159 14602 15363  2845 14655 15363  2478 14568 15364  14568 14964 15364  3809 14964 15364  2390 14568 14964  1438 13944 14829  13944 14829 15365  3976 14829 15365  1442 13944 15365  1014 12066 15366  12066 15366 15367  3970 15366 15367  1010 12066 15367  2087 14683 14709  14683 14709 15368  2259 14683 15368  2086 14709 15368  1642 14083 15369  14083 15124 15369  2044 15124 15369  1884 14083 15124  1342 14594 15222  14594 15222 15370  4059 14594 15370  1614 15222 15370  679 14097 15371  14097 14124 15371  3851 14124 15371  358 14097 14124  2472 14682 15160  14682 15160 15372  2473 15160 15372  2259 14682 15372  930 11885 15373  11885 15373 15374  3967 15373 15374  935 11885 15374  1070 13267 15375  13267 15262 15375  4107 15262 15375  1071 13267 15262  2294 14794 15376  14794 14842 15376  2362 14842 15376  2295 14794 14842  1423 14054 14856  14054 14856 15377  3996 14856 15377  1431 14054 15377  3088 15119 15378  15119 15378 15379  4065 15378 15379  2245 15119 15379  2454 15108 15380  15108 15380 15381  2455 15380 15381  2009 15108 15381  2273 14077 14859  14077 14859 15382  3998 14859 15382  2367 14077 15382  2364 15046 15383  15046 15383 15384  3071 15383 15384  2195 15046 15384  1400 13100 15385  13100 15246 15385  4097 15246 15385  1401 13100 15246  1393 14476 14922  14476 14922 15386  4046 14922 15386  1396 14476 15386  1672 12854 15387  12854 15132 15387  4208 15132 15387  1671 12854 15132  1407 14196 14876  14196 14876 15388  4013 14876 15388  1410 14196 15388  2546 15138 15389  15138 15389 15390  2547 15389 15390  2544 15138 15390  1195 10361 14824  8039 10361 14824  4238 8039 14824  1298 8039 10361  1831 15391 15392  13123 15391 15392  1832 13123 15391  1725 13123 15392  2335 13457 15393  13457 15393 15394  4268 15393 15394  2332 13457 15394  1528 9642 15396  9642 15395 15396  1626 9642 15395  1625 15395 15396  1528 14643 15396  14643 15396 15397  1625 15396 15397  1306 14643 15397  1456 12045 15398  12045 15398 15399  3961 15398 15399  1458 12045 15399  2076 15400 15402  15400 15401 15402  2077 15400 15401  1832 15401 15402  2053 15403 15404  13108 15403 15404  2482 13108 15403  1631 13108 15404  2309 15405 15407  15405 15406 15407  2310 15405 15406  1422 15406 15407  923 11912 15408  11912 15408 15409  3971 15408 15409  927 11912 15409  3558 13516 15410  13516 15410 15411  4401 15410 15411  4005 13516 15411  2621 13934 15412  5163 13934 15412  4082 5163 15412  2652 5163 13934  2268 12460 15413  7913 12460 15413  4114 7913 15413  2347 7913 12460  3010 12128 13244  12128 13244 13300  4109 13244 13300  3637 12128 13300  3636 8432 15414  8432 15414 15415  4370 15414 15415  3009 8432 15415  2550 15112 15416  15112 15416 15417  2551 15416 15417  2548 15112 15417  2017 13186 15418  13186 15418 15419  4228 15418 15419  3969 13186 15419  2285 15420 15422  15420 15421 15422  2974 15420 15421  2272 15421 15422  1636 14992 15423  14992 15423 15424  2328 15423 15424  2084 14992 15424  3982 12290 15425  12290 15425 15426  4446 15425 15426  3730 12290 15426  2968 11466 15427  11466 13022 15427  4933 13022 15427  3136 11466 13022  2356 6804 14637  6804 14637 15428  2357 6804 15428  2069 14637 15428  761 13528 13609  13528 13609 15276  4164 13528 15276  322 13609 15276  1648 14403 15429  14403 15259 15429  1724 15259 15429  1723 14403 15259  3567 14300 15430  13629 14300 15430  3570 13629 15430  1299 13629 14300  1157 14467 15431  14467 15280 15431  1485 15280 15431  1160 14467 15280  2505 5959 14996  5959 14996 15432  2925 5959 15432  2355 14996 15432  2485 14983 15433  14983 15433 15434  2898 15433 15434  2059 14983 15434  1462 12264 14744  12264 14744 15398  3961 12264 15398  1456 14744 15398  1792 14163 15435  14163 15210 15435  2051 15210 15435  1830 14163 15210  3721 15436 15438  15436 15437 15438  4456 15436 15437  730 15437 15438  3022 5666 15001  5666 6361 15001  3104 5666 6361  2507 6361 15001  1871 14857 15439  14857 15439 15440  1953 15439 15440  1755 14857 15440  366 14119 14154  5151 14119 14154  3855 5151 14154  723 5151 14119  2028 15034 15441  15034 15441 15442  2193 15441 15442  2025 15034 15442  1256 14753 15443  14753 15443 15444  1632 15443 15444  1249 14753 15444  1123 14512 15445  14512 15318 15445  1629 15318 15445  1133 14512 15318  2173 15012 15072  15012 15072 15446  2869 15072 15446  2060 15012 15446  1509 14221 15447  14221 15239 15447  1779 15239 15447  1707 14221 15239  2729 14609 15448  13965 14609 15448  3919 13965 15448  2694 13965 14609  1541 14837 15449  14837 15449 15450  1952 15449 15450  1239 14837 15450  2061 15451 15452  14916 15451 15452  4200 14916 15451  4072 14916 15452  2677 11659 14541  11659 14541 14969  4058 11659 14969  2599 14541 14969  2284 14802 15094  5873 14802 15094  4223 5873 15094  3110 5873 14802  1513 15453 15454  13275 15453 15454  1514 13275 15453  1512 13275 15454  998 12081 15455  12081 15455 15456  3980 15455 15456  993 12081 15456  2469 14871 15457  14871 15457 15458  2470 15457 15458  1985 14871 15458  2928 15004 15459  15004 15459 15460  3020 15459 15460  2899 15004 15460  1569 11409 12851  11409 12851 15461  4135 12851 15461  1700 11409 15461  297 12621 15462  12525 12621 15462  4329 12525 15462  739 12525 12621  1470 14373 15463  14373 15463 15464  1628 15463 15464  1472 14373 15464  2554 15103 15465  15103 15465 15466  2555 15465 15466  2552 15103 15466  2655 13968 15467  13968 15467 15468  4083 15467 15468  2740 13968 15468  1716 14733 14850  14733 14850 14889  1992 14733 14889  1901 14850 14889  3051 15135 15163  14668 15135 15163  4047 14668 15163  2162 14668 15135  2417 15047 15469  15047 15469 15470  3787 15469 15470  2415 15047 15470  673 14140 15471  14140 14144 15471  3857 14144 15471  370 14140 14144  1849 12787 15472  12787 14201 15472  4213 14201 15472  1848 12787 14201  3420 8310 14530  8310 13883 14530  3668 8310 13883  677 13883 14530  1267 13790 14930  6858 13790 14930  4119 6858 14930  1316 6858 13790  1684 6043 14735  6043 14735 15473  4146 6043 15473  1077 14735 15473  2263 14966 15474  5045 14966 15474  3109 5045 15474  3108 5045 14966  1996 11169 14462  11169 14462 14909  4160 14462 14909  2139 11169 14909  909 11934 15475  11934 15475 15476  3979 15475 15476  911 11934 15476  2861 15477 15479  15477 15478 15479  3006 15477 15478  2393 15478 15479  1994 14772 15480  14772 15480 15481  1995 15480 15481  1805 14772 15481  3885 7831 13234  7831 13234 15482  3886 7831 15482  3690 13234 15482  2558 15086 15483  11922 15086 15483  2559 11922 15483  2556 11922 15086  2107 14831 15484  14831 15484 15485  2339 15484 15485  1912 14831 15485  1857 14873 15486  14873 15486 15487  2055 15486 15487  1639 14873 15487  368 14145 14153  8034 14145 14153  3857 8034 14145  3855 8034 14153  1435 14510 15488  14510 15334 15488  1630 15334 15488  1437 14510 15334  2182 14485 15489  5025 14485 15489  3077 5025 15489  2297 5025 14485  1626 13305 15491  13305 15490 15491  1824 13305 15490  1627 15490 15491  1084 14687 15492  14687 15492 15493  2311 15492 15493  1951 14687 15493  2649 12100 15494  12100 15494 15495  3974 15494 15495  2632 12100 15495  1390 14769 15496  14769 15496 15497  1942 15496 15497  1392 14769 15497  1886 10126 15498  10126 15498 15499  4723 15498 15499  1887 10126 15499  378 14151 14160  14151 14160 15500  3859 14160 15500  725 14151 15500  3499 8139 14598  8139 13984 14598  3684 8139 13984  1151 13984 14598  1074 14728 15501  10657 14728 15501  1624 10657 15501  1076 10657 14728  3495 14076 14599  13983 14076 14599  3683 13983 14076  1204 13983 14599  372 14139 14176  14139 14176 15502  3856 14176 15502  673 14139 15502  1638 15503 15505  15503 15504 15505  1927 15503 15504  1406 15504 15505  724 13171 14130  13171 14130 14215  4048 13171 14215  596 14130 14215  1420 14590 15506  14590 15407 15506  2309 15407 15506  1422 14590 15407  1092 14663 15507  14663 15454 15507  1513 15454 15507  1512 14663 15454  1992 14887 15508  14887 14895 15508  2352 14895 15508  2176 14887 14895  3035 12767 15100  12767 15100 15509  3039 12767 15509  3038 15100 15509  1919 14945 15510  14945 15510 15511  2095 15510 15511  2094 14945 15511  1068 14765 15512  14765 15512 15513  2329 15512 15513  1070 14765 15513  725 14152 15514  14152 14167 15514  3861 14167 15514  376 14152 14167  2352 12367 14893  5586 12367 14893  3134 5586 12367  2486 5586 14893  4615 15515 15516  6672 15515 15516  4852 6672 15515  3470 6672 15516  2562 15074 15517  15074 15517 15518  2563 15517 15518  2560 15074 15518  1602 15519 15520  14474 15519 15520  4206 14474 15519  3794 14474 15520  768 5673 14166  5673 14159 14166  3859 5673 14159  380 14159 14166  1928 14622 15521  14622 15422 15521  2285 15422 15521  2272 14622 15422  1404 14677 15522  14677 15505 15522  1638 15505 15522  1406 14677 15505  2104 5189 14902  5189 8883 14902  2114 5189 8883  2113 8883 14902  2632 14807 15495  12554 14807 15495  3974 12554 15495  2633 12554 14807  2311 6201 15493  6201 13353 15493  2312 6201 13353  1951 13353 15493  899 11936 15523  11936 15523 15524  3981 15523 15524  901 11936 15524  1255 12069 15525  12069 15525 15526  3983 15525 15526  1252 12069 15526  1938 15527 15528  12401 15527 15528  2368 12401 15527  2207 12401 15528  2098 14927 15529  14927 15529 15530  2106 15529 15530  2100 14927 15530  1167 14810 15531  14810 15531 15532  1804 15531 15532  1191 14810 15532  1610 14634 15533  14634 15533 15534  1776 15533 15534  1774 14634 15534  2964 7208 14839  7208 14839 15535  3923 7208 15535  1641 14839 15535  1412 14653 15536  14653 15536 15537  1594 15536 15537  1414 14653 15537  594 14141 14216  14141 14216 15538  4048 14216 15538  767 14141 15538  382 14165 14172  11347 14165 14172  3860 11347 14172  768 11347 14165  374 14168 14175  14168 14175 15539  3861 14168 15539  3856 14175 15539  3011 12203 15540  12203 15516 15540  4615 15516 15540  3470 12203 15516  2566 15053 15541  15053 15541 15542  2567 15541 15542  2564 15053 15542  671 14174 15543  14171 14174 15543  3860 14171 15543  384 14171 14174  726 7590 14173  7590 14173 14177  3865 7590 14177  582 14173 14177  1585 12219 15279  12219 14799 15279  3951 12219 14799  1160 14799 15279  2461 14437 15544  14437 14961 15544  4034 14961 15544  1904 14437 14961  884 11965 15545  11965 15545 15546  3986 15545 15546  887 11965 15546  1455 14743 15547  14743 15547 15548  1923 15547 15548  1462 14743 15548  1556 12240 15549  6406 12240 15549  4853 6406 15549  3322 6406 12240  1515 15550 15551  8242 15550 15551  1516 8242 15550  1514 8242 15551  1296 14815 15552  14815 15552 15553  1439 15552 15553  1361 14815 15553  580 14178 14180  14178 14180 15554  3865 14178 15554  769 14180 15554  1517 15555 15556  13279 15555 15556  1518 13279 15555  1516 13279 15556  2570 15016 15557  15016 15557 15558  2571 15557 15558  2568 15016 15558  977 12110 15559  12110 15559 15560  3988 15559 15560  972 12110 15560  2039 14863 15561  14863 15561 15562  2327 15561 15562  2326 14863 15562  2578 14959 15563  14959 15563 15564  2579 15563 15564  2576 14959 15564  2829 13597 15565  13597 15565 15566  4334 15565 15566  4190 13597 15566  769 14181 15567  14181 14185 15567  3863 14185 15567  578 14181 14185  2048 14693 15568  14693 15479 15568  2861 15479 15568  2393 14693 15479  1007 14919 15569  8364 14919 15569  1310 8364 15569  1005 8364 14919  1700 13619 15461  13619 15461 15570  4135 15461 15570  1909 13619 15570  1906 14867 15571  14867 15571 15572  2502 15571 15572  1908 14867 15572  887 11966 15573  11966 15573 15574  3985 15573 15574  889 11966 15574  1129 14932 15575  5931 14932 15575  1176 5931 15575  1097 5931 14932  3567 15430 15576  11741 15430 15576  3571 11741 15576  3570 11741 15430  2574 15000 15577  15000 15577 15578  2575 15577 15578  2572 15000 15578  576 14186 14191  14186 14191 15579  3863 14186 15579  672 14191 15579  1968 15101 15580  15101 15580 15581  2065 15580 15581  2064 15101 15581  1576 15582 15583  9517 15582 15583  1790 9517 15582  1575 9517 15583  2582 14926 15584  8006 14926 15584  2583 8006 15584  2580 8006 14926  1994 13428 15480  13428 15480 15585  2421 13428 15585  1995 15480 15585  1576 14112 15586  6973 14112 15586  4105 6973 15586  2008 6973 14112  880 11963 15587  11963 15587 15588  3987 15587 15588  882 11963 15588  1256 9777 15443  9777 15443 15589  1633 9777 15589  1632 15443 15589  1284 14951 15590  14951 15590 15591  1285 15590 15591  1282 14951 15591  672 14192 15592  14192 14197 15592  3868 14197 15592  574 14192 14197  1976 11668 15593  11668 13144 15593  4131 13144 15593  1701 11668 13144  2633 14808 15594  14808 15594 15595  2646 15594 15595  2631 14808 15595  1775 13058 15596  13058 15596 15597  4372 15596 15597  1611 13058 15597  1962 15598 15599  13338 15598 15599  2073 13338 15598  1927 13338 15599  2586 14905 15600  14905 15600 15601  2587 15600 15601  2584 14905 15601  2746 14978 15602  14978 15602 15603  2799 15602 15603  2748 14978 15603  572 14198 14205  8236 14198 14205  3868 8236 14198  773 8236 14205  394 14199 14208  14199 14208 15604  3869 14208 15604  702 14199 15604  1142 13920 15055  13920 15055 15605  3930 15055 15605  1174 13920 15605  1791 15606 15607  13309 15606 15607  2048 13309 15606  1790 13309 15607  1681 14523 15608  14523 14524 15608  3952 14524 15608  1368 14523 14524  1838 6402 11498  6402 11498 15609  4435 6402 15609  1778 11498 15609  3385 6090 15610  6090 15610 15611  4675 15610 15611  1185 6090 15611  1614 14943 15612  14943 15019 15612  1796 15019 15612  1690 14943 15019  1274 13907 15266  13907 15266 15613  4123 15266 15613  1275 13907 15613  773 14206 15614  14206 14209 15614  3867 14209 15614  570 14206 14209  771 14212 15615  14207 14212 15615  3869 14207 15615  396 14207 14212  1140 13915 15120  13915 15120 15616  3932 15120 15616  1155 13915 15616  2590 14890 15617  7932 14890 15617  2591 7932 15617  2588 7932 14890  2329 15513 15618  15513 15618 15619  2330 15618 15619  1070 15513 15619  2295 14795 15620  14795 14844 15620  4025 14844 15620  1693 14795 14844  568 14210 14217  7806 14210 14217  3867 7806 14210  703 7806 14217  2456 15621 15623  15621 15622 15623  2915 15621 15622  2455 15622 15623  398 14211 14220  6509 14211 14220  3870 6509 14220  771 6509 14211  1942 15497 15624  15497 15624 15625  1943 15624 15625  1392 15497 15625  1057 12040 15626  12040 15626 15627  3993 15626 15627  1059 12040 15627  1923 15548 15628  12780 15548 15628  1964 12780 15628  1462 12780 15548  1048 12032 15629  12032 15629 15630  3991 15629 15630  1050 12032 15630  2414 13765 15631  5688 13765 15631  4477 5688 15631  2416 5688 13765  703 14218 15632  14218 14223 15632  3873 14223 15632  566 14218 14223  2431 13974 15007  13974 15007 15633  2434 13974 15633  2433 15007 15633  3949 14583 15634  14583 15634 15635  4115 15634 15635  2366 14583 15635  1770 14749 15636  14749 15636 15637  1931 15636 15637  1560 14749 15637  670 14226 15638  14219 14226 15638  3870 14219 15638  400 14219 14226  2800 13964 15014  13964 15014 15639  2803 13964 15639  2802 15014 15639  3424 15030 15640  15030 15640 15641  3425 15640 15641  3422 15030 15641  2596 14874 15642  14874 15642 15643  2597 15642 15643  2594 14874 15643  1209 5374 13023  5374 13023 15644  4933 13023 15644  3135 5374 15644  2645 13839 15085  13839 15085 15645  2662 13839 15645  2661 15085 15645  564 14224 14227  7521 14224 14227  3873 7521 14224  772 7521 14227  402 14225 14230  14225 14230 15646  3875 14230 15646  670 14225 15646  3052 5510 15648  5510 15647 15648  3054 5510 15647  3053 15647 15648  1242 12260 15649  12260 15649 15650  3990 15649 15650  1240 12260 15650  789 5198 12838  5198 12838 14696  4174 5198 14696  7 12838 14696  2264 14865 15651  14865 15651 15652  2343 15651 15652  1915 14865 15652  774 6302 14235  6302 14229 14235  3875 6302 14229  404 14229 14235  772 14228 15653  14228 14236 15653  3872 14236 15653  562 14228 14236  2544 15654 15655  5540 15654 15655  4070 5540 15654  2543 5540 15655  1796 14710 15018  14710 15018 15027  2086 14710 15027  1883 15018 15027  2216 14699 15301  14699 14918 15301  4072 14699 14918  2850 14918 15301  406 14234 14239  14234 14239 15656  3874 14239 15656  774 14234 15656  714 11752 15657  6056 11752 15657  4450 6056 15657  3620 6056 11752  3779 11136 15658  11136 15658 15659  4170 15658 15659  3905 11136 15659  3824 14778 15660  14675 14778 15660  3928 14675 15660  2609 14675 14778  1173 11691 15661  11691 15661 15662  4142 15661 15662  1186 11691 15662  704 14241 15663  14238 14241 15663  3874 14238 15663  408 14238 14241  560 14237 14242  14237 14242 15664  3872 14237 15664  668 14242 15664  1616 15023 15665  15023 15665 15666  3072 15665 15666  2851 15023 15666  3620 6058 8406  6058 8406 15667  4361 6058 15667  742 8406 15667  410 14240 14247  14240 14247 15668  3878 14247 15668  704 14240 15668  668 6626 14243  6626 14243 14248  3880 6626 14248  558 14243 14248  2956 15669 15670  13506 15669 15670  3083 13506 15669  2881 13506 15670  775 14251 15671  14246 14251 15671  3878 14246 15671  412 14246 14251  556 14249 14253  14249 14253 15672  3880 14249 15672  777 14253 15672  3052 14705 15648  14705 15648 15673  3053 15648 15673  2092 14705 15673  777 7418 14254  7418 14254 14257  3881 7418 14257  554 14254 14257  1633 13499 15675  13499 15674 15675  1635 13499 15674  1634 15674 15675  3439 14821 15676  14821 15676 15677  3443 15676 15677  3442 14821 15677  1722 11445 12783  11445 12783 15678  4150 12783 15678  2007 11445 15678  3515 6908 8917  6908 8917 15679  4291 6908 15679  1193 8917 15679  1541 13631 15449  13631 15449 15680  2191 13631 15680  1952 15449 15680  552 14258 14260  14258 14260 15681  3881 14258 15681  705 14260 15681  705 7884 14261  7884 14261 14263  3882 7884 14263  550 14261 14263  1770 15636 15682  15636 15682 15683  1932 15682 15683  1931 15636 15683  2328 15684 15686  15684 15685 15686  2516 15684 15685  2515 15685 15686  1871 15439 15687  15439 15687 15688  2870 15687 15688  1953 15439 15688  2626 12050 15689  12050 15689 15690  3995 15689 15690  2624 12050 15690  548 14264 14271  14264 14271 15691  3882 14264 15691  776 14271 15691  2331 15692 15694  15692 15693 15694  2332 15692 15693  2330 15693 15694  729 7070 7402  6370 7070 7402  4582 6370 7070  3593 6370 7402  2633 13467 15594  13467 15594 15695  2647 13467 15695  2646 15594 15695  414 14250 14290  5853 14250 14290  3879 5853 14290  775 5853 14250  669 14266 15696  14266 14275 15696  3884 14275 15696  418 14266 14275  1944 15697 15698  9659 15697 15698  1945 9659 15697  1943 9659 15698  2658 5409 13466  5409 13466 15699  4085 5409 15699  2647 13466 15699  2047 15171 15700  15171 15700 15701  4011 15700 15701  1960 15171 15701  2952 15115 15252  15115 15252 15702  2953 15252 15702  2522 15115 15702  2333 15703 15704  13458 15703 15704  2334 13458 15703  2332 13458 15704  838 8970 12850  8970 11433 12850  4182 11433 12850  840 8970 11433  2276 6583 15705  6422 6583 15705  4400 6422 15705  3224 6422 6583  424 14273 14280  14273 14280 15706  3883 14280 15706  779 14273 15706  1946 15707 15708  13473 15707 15708  2024 13473 15707  1945 13473 15708  1171 12717 15709  12717 15709 15710  4235 15709 15710  1172 12717 15710  706 14286 15711  14279 14286 15711  3883 14279 15711  426 14279 14286  416 14276 14289  14276 14289 15712  3884 14276 15712  3879 14289 15712  667 14282 15713  14282 14287 15713  3888 14287 15713  540 14282 14287  1965 15714 15715  13419 15714 15715  2234 13419 15714  1964 13419 15715  1218 6304 15716  6304 7970 15716  4407 7970 15716  3480 6304 7970  1970 14614 15717  14614 15064 15717  4076 15064 15717  1858 14614 15064  428 14285 14294  14285 14294 15718  3889 14294 15718  706 14285 15718  538 14288 14291  11451 14288 14291  3888 11451 14288  778 11451 14291  2880 15719 15721  15719 15720 15721  2881 15719 15720  2879 15720 15721  2236 15722 15724  15722 15723 15724  2868 15722 15723  2234 15723 15724  2077 5587 15401  5587 14123 15401  3956 5587 14123  1832 14123 15401  1608 13845 15725  13845 15265 15725  4123 15265 15725  1328 13845 15265  780 14298 15726  14293 14298 15726  3889 14293 15726  430 14293 14298  1415 11824 15298  11824 15298 15727  4145 15298 15727  1417 11824 15727  2469 15457 15728  6818 15457 15728  3080 6818 15728  2470 6818 15457  2488 14577 15729  14575 14577 15729  3989 14575 15729  2265 14575 14577  3084 15730 15731  7017 15730 15731  3100 7017 15730  3083 7017 15731  690 5018 14303  5018 14303 14304  3890 5018 14304  530 14303 14304  2526 14431 15156  14431 15156 15732  2528 14431 15732  2527 15156 15732  778 14292 15733  14292 14325 15733  3887 14325 15733  536 14292 14325  727 6610 15734  6610 15734 15735  4438 15734 15735  3743 6610 15735  532 14302 14318  14302 14318 15736  3893 14318 15736  690 14302 15736  528 14305 14312  14305 14312 15737  3890 14305 15737  781 14312 15737  1702 15272 15322  15272 15322 15738  1784 15322 15738  1623 15272 15738  438 14309 14316  14309 14316 15739  3892 14316 15739  665 14309 15739  1631 13378 15333  13378 14828 15333  3976 13378 14828  1437 14828 15333  1857 15486 15740  15486 15740 15741  2078 15740 15741  2055 15486 15741  2328 15424 15686  15424 15686 15742  2515 15686 15742  2084 15424 15742  782 8291 14320  8291 14315 14320  3892 8291 14315  440 14315 14320  2327 15562 15743  15562 15743 15744  2882 15743 15744  2326 15562 15744  2191 15745 15746  7880 15745 15746  3235 7880 15745  2192 7880 15746  2870 15688 15747  13708 15688 15747  2871 13708 15747  1953 13708 15688  3887 5316 14326  5316 14317 14326  3893 5316 14317  534 14317 14326  1077 12001 15473  12001 15473 15748  4146 15473 15748  1079 12001 15748  2021 15321 15337  14270 15321 15337  2112 14270 15337  1784 14270 15321  2870 15747 15749  7365 15747 15749  3103 7365 15749  2871 7365 15747  781 5100 14313  5100 14313 14343  3891 5100 14343  526 14313 14343  1938 15320 15528  15320 15528 15750  2207 15528 15750  1937 15320 15750  2191 15680 15746  13735 15680 15746  2192 13735 15746  1952 13735 15680  1814 14631 14635  6074 14631 14635  3944 6074 14631  2315 6074 14635  1932 13412 15752  13412 15751 15752  1956 13412 15751  1933 15751 15752  1617 11110 15140  11110 15140 15193  1619 11110 15193  1618 15140 15193  2987 5704 15753  5704 7292 15753  4733 7292 15753  4460 5704 7292  2596 15642 15754  15642 15754 15755  2598 15754 15755  2597 15642 15755  2647 15756 15758  15756 15757 15758  2654 15756 15757  2653 15757 15758  946 9319 13543  9319 13543 15759  4204 13543 15759  944 9319 15759  784 14331 15760  14331 14357 15760  3894 14357 15760  516 14331 14357  452 14332 14360  4940 14332 14360  3895 4940 14360  783 4940 14332  1852 12209 15761  12209 15761 15762  4003 15761 15762  2062 12209 15762  692 14338 15763  14338 14341 15763  3896 14341 15763  510 14338 14341  117 11632 15764  11632 15117 15764  4443 15117 15764  717 11632 15117  512 14337 14348  14041 14337 14348  3897 14041 14348  692 14041 14337  2590 8190 15617  8190 15617 15765  2592 8190 15765  2591 15617 15765  1956 15766 15768  15766 15767 15768  1958 15766 15767  1957 15767 15768  663 14340 15769  14340 14349 15769  3898 14349 15769  456 14340 14349  2307 15068 15770  15068 15221 15770  2318 15221 15770  2317 15068 15221  508 14342 14351  7575 14342 14351  3896 7575 14342  785 7575 14351  2654 13475 15772  13475 15771 15772  2656 13475 15771  2655 15771 15772  2103 11366 15773  10814 11366 15773  4898 10814 15773  2280 10814 11366  2673 13465 15775  13465 15774 15775  2688 13465 15774  2687 15774 15775  3894 14358 15776  14347 14358 15776  3897 14347 15776  514 14347 14358  454 14350 14359  12003 14350 14359  3898 12003 14350  3895 12003 14359  1240 14836 15650  12801 14836 15650  3990 12801 15650  1541 12801 14836  1235 12206 15777  12206 15777 15778  4141 15777 15778  1232 12206 15778  4047 15162 15780  15162 15779 15780  4201 15162 15779  2173 15779 15780  1626 15395 15491  10200 15395 15491  1627 10200 15491  1625 10200 15395  2688 15781 15783  15781 15782 15783  2713 15781 15782  2689 15782 15783  2586 13643 15600  8711 13643 15600  2588 8711 13643  2587 8711 15600  2656 13575 15785  13575 15784 15785  2673 13575 15784  2659 15784 15785  2044 14656 15122  14656 15122 15177  2845 14656 15177  2061 15122 15177  157 158 15786  157 15786 15787  4050 15786 15787  156 157 15787  2578 13732 15563  5203 13732 15563  2580 5203 13732  2579 5203 15563  2095 13613 15789  13613 15788 15789  2495 13613 15788  2096 15788 15789  664 14364 15790  14364 14365 15790  3901 14365 15790  500 14364 14365  2485 13874 15433  13874 15433 15791  2899 13874 15791  2898 15433 15791  1633 15589 15675  13185 15589 15675  1634 13185 15675  1632 13185 15589  498 14366 14369  14366 14369 15792  3901 14366 15792  787 14369 15792  2582 13687 15584  13687 15584 15793  2584 13687 15793  2583 15584 15793  4394 12774 15794  8744 12774 15794  4553 8744 15794  2494 8744 12774  2078 15741 15795  13654 15741 15795  2443 13654 15795  2055 13654 15741  1808 12243 15796  12243 15796 15797  3997 15796 15797  1330 12243 15797  502 14363 14378  14363 14378 15798  3899 14378 15798  664 14363 15798  1187 14592 14595  14592 14595 15799  3911 14592 15799  1189 14595 15799  3259 10692 14546  10692 14546 15800  4896 14546 15800  4487 10692 15800  1174 13921 15801  13921 15661 15801  4142 15661 15801  1173 13921 15661  1129 13729 15575  13729 15575 15802  1177 13729 15802  1176 15575 15802  787 14370 15803  14370 14386 15803  3900 14386 15803  496 14370 14386  492 14371 14382  14371 14382 15804  3902 14382 15804  694 14371 15804  2733 15805 15807  15805 15806 15807  2741 15805 15806  2734 15806 15807  2713 13447 15809  13447 15808 15809  2726 13447 15808  2714 15808 15809  1619 14620 15192  14620 15192 15199  1621 14620 15199  1620 15192 15199  964 12151 15810  12151 15810 15811  4152 15810 15811  961 12151 15811  2095 15511 15789  13795 15511 15789  2096 13795 15789  2094 13795 15511  1062 12043 15812  12043 15812 15813  4149 15812 15813  1065 12043 15813  1384 12058 15814  12058 15814 15815  4148 15814 15815  1387 12058 15815  2568 15816 15817  5833 15816 15817  4063 5833 15816  2567 5833 15817  3900 6235 14387  6235 14381 14387  3902 6235 14381  494 14381 14387  2741 13508 15819  13508 15818 15819  3034 13508 15818  2742 15818 15819  2366 13375 15635  13375 15635 15820  4115 15635 15820  2264 13375 15820  1958 13443 15822  13443 15821 15822  1967 13443 15821  1959 15821 15822  159 160 15823  159 15823 15824  740 15823 15824  158 159 15824  1313 14104 15825  14104 15188 15825  3940 15188 15825  1309 14104 15188  2421 15585 15826  15585 15826 15827  2422 15826 15827  1995 15585 15827  2878 15828 15830  15828 15829 15830  2879 15828 15829  2877 15829 15830  480 14390 14392  5662 14390 14392  3903 5662 14392  662 5662 14390  1177 15802 15831  7211 15802 15831  1200 7211 15831  1176 7211 15802  2926 12226 15832  7609 12226 15832  4242 7609 15832  3324 7609 12226  1635 15674 15833  13879 15674 15833  1636 13879 15833  1634 13879 15674  675 13025 14109  13025 14109 14720  4033 13025 14720  602 14109 14720  1284 15590 15834  15590 15834 15835  1286 15834 15835  1285 15590 15835  2264 15651 15836  15651 15836 15837  2344 15836 15837  2343 15651 15837  1866 12173 15838  12173 15838 15839  4147 15838 15839  1864 12173 15839  1824 15490 15840  14065 15490 15840  1826 14065 15840  1627 14065 15490  2065 13504 15842  13504 15841 15842  2342 13504 15841  2340 15841 15842  1485 14454 15278  14454 15278 15339  1586 14454 15339  1585 15278 15339  1428 11978 14827  11978 14827 15843  4153 14827 15843  1452 11978 15843  2530 14407 15242  6986 14407 15242  2532 6986 14407  2531 6986 15242  2078 13728 15795  5347 13728 15795  2444 5347 13728  2443 5347 15795  752 12136 15844  12136 14853 15844  4426 14853 15844  3629 12136 14853  2883 15845 15847  15845 15846 15847  2884 15845 15846  2882 15846 15847  3024 5839 15251  5839 15251 15848  3025 5839 15848  2953 15251 15848  2275 14456 15254  14456 15254 15351  2959 14456 15351  2323 15254 15351  2726 14362 15850  14362 15849 15850  2728 14362 15849  2727 15849 15850  1942 13901 15624  13901 15624 15698  1944 13901 15698  1943 15624 15698  2329 15618 15851  15618 15694 15851  2331 15694 15851  2330 15618 15694  2885 15852 15853  13615 15852 15853  2886 13615 15852  2884 13615 15853  1201 15854 15855  13664 15854 15855  1281 13664 15854  1200 13664 15855  1035 12097 15856  12097 15856 15857  4151 15856 15857  1037 12097 15857  2728 13462 15859  13462 15858 15859  2875 13462 15858  2730 15858 15859  2598 13587 15861  13587 15860 15861  2601 13587 15860  2600 15860 15861  1750 12233 15862  12233 15862 15863  4006 15862 15863  1747 12233 15863  2601 13581 15865  13581 15864 15865  2603 13581 15864  2602 15864 15865  2574 13798 15577  13798 15577 15866  2576 13798 15866  2575 15577 15866  1724 15258 15867  15258 15867 15868  2003 15867 15868  2001 15258 15868  2731 15869 15871  15869 15870 15871  2733 15869 15870  2732 15870 15871  1526 15359 15872  15359 15583 15872  1576 15583 15872  1575 15359 15583  2887 15873 15874  6498 15873 15874  3421 6498 15873  2886 6498 15874  2592 13627 15876  13627 15875 15876  2594 13627 15875  2593 15875 15876  2603 15121 15878  15121 15877 15878  2605 15121 15877  2604 15877 15878  2566 13862 15541  13862 15541 15817  2568 13862 15817  2567 15541 15817  3422 15879 15880  8645 15879 15880  4062 8645 15879  3421 8645 15880  1944 8331 15697  8331 15697 15708  1946 8331 15708  1945 15697 15708  1286 15835 15881  15835 15881 15882  1287 15881 15882  1285 15835 15882  2570 13837 15557  13837 15557 15883  2572 13837 15883  2571 15557 15883  1946 13912 15707  13912 15707 15884  2025 13912 15884  2024 15707 15884  2331 13930 15692  13930 15692 15704  2333 13930 15704  2332 15692 15704  1629 10561 15317  10561 15317 15392  1831 10561 15392  1725 15317 15392  2318 14566 15219  14566 15219 15885  2524 14566 15885  2523 15219 15885  2051 15208 15886  15208 15886 15887  2949 15886 15887  2221 15208 15887  1586 5740 15338  5740 15338 15347  1588 5740 15347  1587 15338 15347  1743 12220 15888  12220 15888 15889  4007 15888 15889  1741 12220 15889  1177 8273 15831  8273 15831 15855  1201 8273 15855  1200 15831 15855  2605 13579 15891  13579 15890 15891  2607 13579 15890  2606 15890 15891  1513 15453 15892  15453 15551 15892  1515 15551 15892  1514 15453 15551  2454 14086 15380  14086 15380 15623  2456 14086 15623  2455 15380 15623  975 9332 15893  9332 15893 15894  4209 15893 15894  3299 9332 15894  2880 15719 15895  15670 15719 15895  2956 15670 15895  2881 15670 15719  2546 14073 15389  14073 15389 15896  2548 14073 15896  2547 15389 15896  1288 15897 15898  13700 15897 15898  1304 13700 15897  1287 13700 15898  1638 15503 15899  15503 15599 15899  1962 15599 15899  1927 15503 15599  3731 5620 11935  5620 11935 13369  4090 5620 13369  2066 11935 13369  2705 13554 15901  13554 15900 15901  2731 13554 15900  2706 15900 15901  2286 15902 15903  13638 15902 15903  2287 13638 15902  2279 13638 15903  1779 14559 15238  14559 15238 15295  2036 14559 15295  1854 15238 15295  1588 14473 15346  14473 15346 15904  1590 14473 15904  1589 15346 15904  2607 13555 15906  13555 15905 15906  2610 13555 15905  2608 15905 15906  2610 4939 15908  4939 15907 15908  2612 4939 15907  2611 15907 15908  1201 13762 15854  13762 15854 15909  1282 13762 15909  1281 15854 15909  2612 13558 15911  13558 15910 15911  2615 13558 15910  2613 15910 15911  2407 10570 11851  8747 10570 11851  4099 8747 11851  3695 8747 10570  2662 13592 15913  13592 15912 15913  2666 13592 15912  2665 15912 15913  2538 14188 15303  14188 15303 15914  2540 14188 15914  2539 15303 15914  2562 13927 15517  13927 15517 15915  2564 13927 15915  2563 15517 15915  2679 13660 15917  13660 15916 15917  2705 13660 15916  2686 15916 15917  2288 15918 15920  15918 15919 15920  2877 15918 15919  2287 15919 15920  1901 14851 15921  14851 14920 15921  4040 14920 15921  1665 14851 14920  2534 14296 15299  14296 15299 15922  2536 14296 15922  2535 15299 15922  2309 15405 15923  15405 15923 15924  2517 15923 15924  2310 15405 15924  2615 13658 15926  13658 15925 15926  2617 13658 15925  2616 15925 15926  2327 13818 15743  13818 15743 15847  2883 13818 15847  2882 15743 15847  2434 15633 15927  14183 15633 15927  2435 14183 15927  2433 14183 15633  1515 15550 15928  15550 15556 15928  1517 15556 15928  1516 15550 15556  1354 11881 15929  11881 15929 15930  4155 15929 15930  1334 11881 15930  1305 15931 15932  13889 15931 15932  1320 13889 15931  1304 13889 15932  2344 15933 15935  15933 15934 15935  2430 15933 15934  2345 15934 15935  2617 13569 15937  13569 15936 15937  2620 13569 15936  2618 15936 15937  2672 13585 15939  13585 15938 15939  2679 13585 15938  2678 15938 15939  1630 14436 15332  14436 15332 15404  2053 14436 15404  1631 15332 15404  1286 13744 15881  13744 15881 15898  1288 13744 15898  1287 15881 15898  2666 13705 15941  13705 15940 15941  2672 13705 15940  2667 15940 15941  2620 13652 15943  13652 15942 15943  2638 13652 15942  2621 15942 15943  2803 15639 15944  13778 15639 15944  2804 13778 15944  2802 13778 15639  2642 15945 15947  15945 15946 15947  2644 15945 15946  2643 15946 15947  920 12215 15948  12215 14632 15948  4009 14632 15948  918 12215 14632  1095 14107 15224  14107 15224 15949  3942 15224 15949  1108 14107 15949  2638 13567 15951  13567 15950 15951  2642 13567 15950  2639 15950 15951  2799 12906 15603  12906 13816 15603  2800 12906 13816  2748 13816 15603  1831 14419 15391  14419 15391 15402  2076 14419 15402  1832 15391 15402  665 14310 15952  14310 14543 15952  4064 14543 15952  436 14310 14543  1962 14093 15598  14093 15598 15953  2245 14093 15953  2073 15598 15953  1923 15628 15954  15628 15715 15954  1965 15715 15954  1964 15628 15715  2558 13976 15483  13976 15483 15955  2560 13976 15955  2559 15483 15955  2550 14047 15416  14047 15416 15956  2552 14047 15956  2551 15416 15956  3933 8635 15957  8635 15957 15958  4809 15957 15958  1030 8635 15958  2542 14138 15361  14138 15361 15655  2544 14138 15655  2543 15361 15655  1288 13750 15897  13750 15897 15932  1305 13750 15932  1304 15897 15932  2803 13650 15944  13650 15944 15959  2805 13650 15959  2804 15944 15959  2554 14013 15465  10631 14013 15465  2556 10631 14013  2555 10631 15465  1517 14133 15555  14133 15555 15960  1519 14133 15960  1518 15555 15960  2883 13823 15845  13823 15845 15853  2885 13823 15853  2884 15845 15853  1321 15961 15962  13711 15961 15962  1322 13711 15961  1320 13711 15962  2278 15963 15965  15963 15964 15965  2279 15963 15964  2277 15964 15965  2434 13682 15927  13682 15927 15966  2436 13682 15966  2435 15927 15966  1210 12242 15967  12242 15967 15968  4012 15967 15968  1202 12242 15968  1001 14170 15969  14170 15227 15969  3946 15227 15969  1000 14170 15227  1576 14114 15582  14114 15582 15607  1791 14114 15607  1790 15582 15607  2747 12308 15970  12308 15970 15971  4004 15970 15971  2750 12308 15971  1323 15972 15974  15972 15973 15974  1359 15972 15973  1322 15973 15974  1965 13987 15714  13987 15714 15724  2236 13987 15724  2234 15714 15724  1305 15931 15975  15931 15962 15975  1321 15962 15975  1320 15931 15962  2846 14600 15976  14600 15976 15977  4325 15976 15977  3160 14600 15977  2805 13662 15979  13662 15978 15979  2808 13662 15978  2806 15978 15979  2363 14841 15980  14841 15980 15981  4230 15980 15981  2295 14841 15981  2647 15695 15758  13225 15695 15758  2653 13225 15758  2646 13225 15695  2592 15765 15876  13850 15765 15876  2593 13850 15876  2591 13850 15765  2810 15982 15984  15982 15983 15984  2812 15982 15983  2811 15983 15984  2808 15985 15987  15985 15986 15987  2810 15985 15986  2809 15986 15987  3195 9728 13165  9728 13165 15988  4882 13165 15988  4592 9728 15988  2885 15852 15989  15852 15874 15989  2887 15874 15989  2886 15852 15874  2436 15990 15992  15990 15991 15992  2438 15990 15991  2437 15991 15992  2081 15993 15994  13858 15993 15994  2120 13858 15993  2080 13858 15994  3430 8029 15995  8029 15995 15996  4371 15995 15996  722 8029 15996  1360 15997 15999  15997 15998 15999  1466 15997 15998  1359 15998 15999  2812 13648 16001  13648 16000 16001  2862 13648 16000  2813 16000 16001  2878 13868 15828  13868 15721 15828  2880 13868 15721  2879 15721 15828  2121 16002 16003  13669 16002 16003  2277 13669 16002  2120 13669 16003  2065 15581 15842  13954 15581 15842  2340 13954 15842  2064 13954 15581  1467 16004 16005  13716 16004 16005  1481 13716 16004  1466 13716 16005  1321 13769 15961  13769 15961 15974  1323 13769 15974  1322 15961 15974  2046 16006 16007  13679 16006 16007  2080 13679 16006  2045 13679 16007  2862 16008 16010  16008 16009 16010  2864 16008 16009  2863 16009 16010  2438 16011 16013  16011 16012 16013  2440 16011 16012  2439 16012 16013  2344 15837 15935  15837 15935 16014  2345 15935 16014  2343 15837 16014  1950 16015 16016  14452 16015 16016  2045 14452 16015  1949 14452 16016  2350 14791 16017  14791 15418 16017  4228 15418 16017  2017 14791 15418  1482 16018 16019  13856 16018 16019  1497 13856 16018  1481 13856 16019  1948 16020 16022  16020 16021 16022  1949 16020 16021  1947 16021 16022  1503 16023 16024  12979 16023 16024  1687 12979 16023  1497 12979 16024  2440 13725 16026  13725 16025 16026  2890 13725 16025  2889 16025 16026  2887 13853 15873  13853 15873 15880  3422 13853 15880  3421 15873 15880  1688 16027 16028  13723 16027 16028  1729 13723 16027  1687 13723 16028  1811 16029 16030  13719 16029 16030  1947 13719 16029  1810 13719 16030  2654 15757 15772  13969 15757 15772  2655 13969 15772  2653 13969 15757  1732 16031 16033  16031 16032 16033  1810 16031 16032  1731 16032 16033  1730 16034 16036  16034 16035 16036  1731 16034 16035  1729 16035 16036  1323 15972 16037  15972 15999 16037  1360 15999 16037  1359 15972 15999  2436 15966 15992  13789 15966 15992  2437 13789 15992  2435 13789 15966  2598 15755 15861  13893 15755 15861  2600 13893 15861  2597 13893 15755  2674 12251 16038  12251 16038 16039  4014 16038 16039  2680 12251 16039  2662 15645 15913  15645 15913 16040  2665 15913 16040  2661 15645 16040  2890 16041 16043  16041 16042 16043  2892 16041 16042  2891 16042 16043  1932 15683 15752  15683 15752 16044  1933 15752 16044  1931 15683 16044  2430 12920 15934  12920 13842 15934  2431 12920 13842  2345 13842 15934  2438 15991 16013  15991 16013 16045  2439 16013 16045  2437 15991 16045  2892 16046 16048  16046 16047 16048  3059 16046 16047  3058 16047 16048  1360 13776 15997  13776 15997 16005  1467 13776 16005  1466 15997 16005  1844 12124 16049  12124 16049 16050  4157 16049 16050  1841 12124 16050  2278 13833 15963  13833 15903 15963  2286 13833 15903  2279 15903 15963  1818 12301 16051  12301 16051 16052  4018 16051 16052  1799 12301 16052  2805 15959 15979  15959 15979 16053  2806 15979 16053  2804 15959 16053  2286 15902 16054  15902 15920 16054  2288 15920 16054  2287 15902 15920  2656 15771 15785  15771 15785 16055  2659 15785 16055  2655 15771 16055  3059 5319 16057  5319 16056 16057  3148 5319 16056  3060 16056 16057  2784 7140 16058  7140 16058 16059  4457 16058 16059  3962 7140 16059  1956 15751 15768  14010 15751 15768  1957 14010 15768  1933 14010 15751  1467 6041 16004  6041 16004 16019  1482 6041 16019  1481 16004 16019  2440 16012 16026  13782 16012 16026  2889 13782 16026  2439 13782 16012  2673 15775 15784  13972 15775 15784  2687 13972 15775  2659 13972 15784  2890 16025 16043  16025 16043 16060  2891 16043 16060  2889 16025 16060  1482 13779 16018  13779 16018 16024  1503 13779 16024  1497 16018 16024  2601 15860 15865  14158 15860 15865  2602 14158 15865  2600 14158 15860  2688 15774 15783  15774 15783 16061  2689 15783 16061  2687 15774 16061  2808 15978 15987  15978 15987 16062  2809 15987 16062  2806 15978 16062  2892 16042 16048  8808 16042 16048  3058 8808 16048  2891 8808 16042  1503 13999 16023  13999 16023 16028  1688 13999 16028  1687 16023 16028  2046 13804 16006  13804 15994 16006  2081 13804 15994  2080 15994 16006  3059 16047 16057  6640 16047 16057  3060 6640 16057  3058 6640 16047  2810 15984 15986  13811 15984 15986  2811 13811 15984  2809 13811 15986  3148 16056 16063  9720 16056 16063  3774 9720 16063  3060 9720 16056  2603 15864 15878  13895 15864 15878  2604 13895 15878  2602 13895 15864  2081 15993 16064  15993 16003 16064  2121 16003 16064  2120 15993 16003  2956 15669 16065  15669 15731 16065  3084 15731 16065  3083 15669 15731  1688 13786 16027  13786 16027 16036  1730 13786 16036  1729 16027 16036  1958 15767 15822  5991 15767 15822  1959 5991 15822  1957 5991 15767  1950 16015 16066  16007 16015 16066  2046 16007 16066  2045 16007 16015  1948 13800 16020  13800 16016 16020  1950 13800 16016  1949 16016 16020  1730 16034 16067  16033 16034 16067  1732 16033 16067  1731 16033 16034  1732 13793 16031  13793 16030 16031  1811 13793 16030  1810 16030 16031  1811 8077 16029  8077 16022 16029  1948 8077 16022  1947 16022 16029  2812 15983 16001  15983 16001 16068  2813 16001 16068  2811 15983 16068  2741 15806 15819  15806 15819 16069  2742 15819 16069  2734 15806 16069  2713 15782 15809  13991 15782 15809  2714 13991 15809  2689 13991 15782  2733 15807 15870  5305 15807 15870  2734 5305 15807  2732 5305 15870  2605 15877 15891  14135 15877 15891  2606 14135 15891  2604 14135 15877  2121 16002 16070  15965 16002 16070  2278 15965 16070  2277 15965 16002  2288 13859 15918  13859 15830 15918  2878 13859 15830  2877 15830 15918  2862 16000 16010  16000 16010 16071  2863 16010 16071  2813 16000 16071  2864 6534 16009  6534 13830 16009  2865 6534 13830  2863 13830 16009  4482 13940 16072  6340 13940 16072  4706 6340 13940  3581 6340 16072  4117 6159 15353  6159 6501 15353  4177 6159 6501  2341 6501 15353  1967 15821 16073  14008 15821 16073  1968 14008 16073  1959 14008 15821  2607 15890 15906  13177 15890 15906  2608 13177 15906  2606 13177 15890  1815 12507 16074  12074 12507 16074  4866 12074 16074  2518 12074 12507  2610 15905 15908  13917 15905 15908  2611 13917 15908  2608 13917 15905  2666 15912 15941  13905 15912 15941  2667 13905 15941  2665 13905 15912  2612 15907 15911  15907 15911 16075  2613 15911 16075  2611 15907 16075  2726 15808 15850  15808 15850 16076  2727 15850 16076  2714 15808 16076  3034 12085 15818  12085 13982 15818  3035 12085 13982  2742 13982 15818  2615 15910 15926  13923 15910 15926  2616 13923 15926  2613 13923 15910  2731 15871 15900  13933 15871 15900  2732 13933 15871  2706 13933 15900  2672 15939 15940  15939 15940 16077  2678 15939 16077  2667 15940 16077  3360 9134 16078  9134 16078 16079  4273 16078 16079  3978 9134 16079  2679 15917 15938  13924 15917 15938  2686 13924 15917  2678 13924 15938  894 11943 16080  11943 16080 16081  4206 16080 16081  897 11943 16081  2705 15901 15916  14195 15901 15916  2706 14195 15901  2686 14195 15916  2617 15925 15937  14190 15925 15937  2618 14190 15937  2616 14190 15925  2620 15936 15943  13936 15936 15943  2621 13936 15943  2618 13936 15936  1009 14127 15228  14127 15228 16082  3946 15228 16082  1591 14127 16082  2638 15942 15951  15942 15951 16083  2639 15951 16083  2621 15942 16083  1600 9689 16084  5569 9689 16084  4792 5569 9689  3979 5569 16084  2642 15947 15950  7719 15947 15950  2643 7719 15947  2639 7719 15950  2644 12834 15946  12834 13946 15946  2645 12834 13946  2643 13946 15946  2728 15849 15859  14006 15849 15859  2730 14006 15859  2727 14006 15849  1558 12296 14672  12296 14672 16085  4024 14672 16085  1661 12296 16085  3507 8161 14116  8161 14116 16086  4275 14116 16086  2392 8161 16086  3084 14019 15730  14019 15324 15730  3101 14019 15324  3100 15324 15730  2875 8337 15858  8337 15858 16087  2876 8337 16087  2730 15858 16087  980 14256 16088  14256 15312 16088  3959 15312 16088  979 14256 15312  130 131 6825  130 6825 16089  4876 6825 16089  129 130 16089  2831 5013 16090  5013 16090 16091  4608 16090 16091  3652 5013 16091  842 11719 13551  11719 13551 16092  4159 13551 16092  1166 11719 16092  2310 13914 15406  13914 14855 15406  3996 13914 14855  1422 14855 15406  1087 14193 15293  14193 15293 16093  3947 15293 16093  1090 14193 16093  1375 8922 11967  8922 11967 15093  4223 8922 15093  3948 11967 15093  2748 12889 14979  12889 14979 15970  4004 12889 15970  2747 14979 15970  1483 6884 13294  6884 13294 16094  4877 13294 16094  3256 6884 16094  1726 12054 16095  12054 13897 16095  4031 13897 16095  1372 12054 13897  1894 14847 15274  14847 15274 16096  4102 14847 16096  2307 15274 16096  2974 5403 15421  5403 14858 15421  3998 5403 14858  2272 14858 15421  3717 6708 8631  6708 8631 16097  4914 8631 16097  3085 6708 16097  2735 14722 15206  14722 15206 16098  4095 15206 16098  3099 14722 16098  2190 11286 16099  8577 11286 16099  4648 8577 16099  3057 8577 11286  1597 6021 14307  6021 14307 15357  3964 6021 15357  938 14307 15357  2500 10168 16100  6082 10168 16100  4237 6082 16100  3105 6082 10168  2664 12055 13774  12055 13774 16101  4037 13774 16101  2670 12055 16101  3152 13037 16102  13037 16102 16103  4327 16102 16103  2353 13037 16103  3230 7583 16104  7583 16104 16105  4467 16104 16105  1013 7583 16105  3156 8790 15154  8790 14447 15154  4671 8790 14447  3029 14447 15154  931 14336 16106  14336 15373 16106  3967 15373 16106  930 14336 15373  1207 10251 15006  10251 11053 15006  4229 11053 15006  3417 10251 11053  2510 14995 16107  14995 15282 16107  3909 15282 16107  2030 14995 15282  3561 11324 16108  11324 16108 16109  4431 16108 16109  2826 11324 16109  3769 7961 16110  7961 8313 16110  4577 8313 16110  3205 7961 8313  1646 14500 16111  14500 15812 16111  4149 15812 16111  1062 14500 15812  4378 6102 7830  6102 7830 11413  4607 6102 11413  3886 7830 11413  3692 5984 14005  5984 14005 16112  4269 5984 16112  2727 14005 16112  1509 14883 15447  14883 15447 16113  4087 14883 16113  1779 15447 16113  1417 14089 15727  14089 15727 16114  4145 15727 16114  1420 14089 16114  1599 5269 14400  5269 14400 15408  3971 5269 15408  923 14400 15408  354 14066 15174  5292 14066 15174  4168 5292 15174  721 5292 14066  985 14213 15313  11560 14213 15313  3959 11560 15313  1596 11560 14213  1359 16115 16116  5858 16115 16116  4490 5858 16115  4351 5858 16116  715 12332 16117  12332 16117 16118  4583 16117 16118  17 12332 16118  3841 15232 16119  6325 15232 16119  4098 6325 16119  765 6325 15232  1816 11979 14470  11979 14470 16120  4203 14470 16120  1882 11979 16120  1138 10172 16121  10172 12706 16121  4188 12706 16121  1127 10172 12706  2338 12457 16122  12457 16122 16123  4043 16122 16123  2082 12457 16123  4467 16124 16126  16124 16125 16126  4729 16124 16125  4287 16125 16126  1796 14708 16127  14708 16127 16128  4265 16127 16128  2087 14708 16128  1010 14443 15367  14443 15367 16129  3970 15367 16129  1011 14443 16129  1252 14481 15526  8300 14481 15526  3983 8300 15526  3828 8300 14481  2511 12623 16130  12623 16130 16131  4493 16130 16131  812 12623 16131  2522 15330 16132  14946 15330 16132  4113 14946 16132  2043 14946 15330  2300 10035 12276  10035 12276 16133  4395 12276 16133  3501 10035 16133  974 14255 15358  14255 15358 16134  3964 15358 16134  980 14255 16134  3851 8895 14125  8895 14125 15173  4168 8895 15173  356 14125 15173  1458 14401 15399  14401 15399 16135  3961 15399 16135  1579 14401 16135  1600 14433 16084  14433 15475 16084  3979 15475 16084  909 14433 15475  1486 12162 14059  12162 14059 16136  4054 14059 16136  1802 12162 16136  2196 13824 16137  13824 16137 16138  4417 16137 16138  3044 13824 16138  1630 14434 16139  14434 16139 16140  4094 16139 16140  2316 14434 16140  1607 13699 16141  13699 16141 16142  4308 16141 16142  1287 13699 16142  935 14306 15374  12237 14306 15374  3967 12237 15374  1597 12237 14306  2248 12381 16143  12381 14652 16143  4186 14652 16143  2149 12381 14652  1370 9714 12146  9714 12146 12564  4199 12146 12564  1366 9714 12564  1602 13436 14451  13436 14451 15523  3981 13436 15523  899 14451 15523  785 14352 16144  14352 14896 16144  4137 14896 16144  506 14352 14896  1979 14986 15011  14986 15011 15780  4047 14986 15780  2173 15011 15780  3886 11414 15482  11414 15240 15482  4101 11414 15240  3690 15240 15482  504 14377 14897  8823 14377 14897  4137 8823 14897  3899 8823 14377  2322 14526 16145  14526 15856 16145  4151 15856 16145  1035 14526 15856  1601 14412 16146  14412 15366 16146  3970 15366 16146  1014 14412 15366  927 14335 15409  14335 15409 16147  3971 15409 16147  931 14335 16147  993 14477 15456  6085 14477 15456  3980 6085 15456  1603 6085 14477  1099 14469 16148  14469 15545 16148  3986 15545 16148  884 14469 15545  1470 14985 15463  14985 15463 16149  4091 14985 16149  1628 15463 16149  1855 6128 14466  6128 14466 15587  3987 6128 15587  880 14466 15587  2814 13810 16150  13810 16150 16151  4300 16150 16151  2809 13810 16151  3580 6747 10140  6747 10140 16152  4219 6747 16152  3579 10140 16152  2851 15024 16153  15024 15073 16153  4059 15073 16153  1338 15024 15073  2176 11076 14888  11076 14888 16154  4243 11076 16154  1901 14888 16154  2155 12280 16155  12280 14032 16155  4061 14032 16155  2152 12280 14032  1927 14268 15504  14268 14875 15504  4013 14268 14875  1406 14875 15504  1623 15329 16156  15028 15329 16156  4086 15028 16156  1348 15028 15329  4593 16157 16159  16157 16158 16159  4743 16157 16158  3235 16158 16159  972 14493 15560  14493 15560 16160  3988 15560 16160  1606 14493 16160  2737 14463 16161  14463 15494 16161  3974 15494 16161  2649 14463 15494  1079 14308 15748  14308 15748 16162  4146 15748 16162  1084 14308 16162  1060 14492 16163  14492 15626 16163  3993 15626 16163  1057 14492 15626  4614 16164 16165  8476 16164 16165  4655 8476 16164  1145 8476 16165  816 10590 16166  10590 11663 16166  4702 11663 16166  3706 10590 11663  1829 12009 16167  12009 14684 16167  4215 14684 16167  1692 12009 14684  1869 14503 16168  14503 15629 16168  3991 15629 16168  1048 14503 15629  2983 7269 14798  7269 14798 15307  4105 7269 15307  1930 14798 15307  911 14416 15476  5570 14416 15476  3979 5570 15476  914 5570 14416  2624 14540 15690  14540 15690 16169  3995 15690 16169  2677 14540 16169  1480 7098 7524  7098 7524 16170  4492 7098 16170  3226 7524 16170  1011 14444 16171  14444 15455 16171  3980 15455 16171  998 14444 15455  1259 14457 16172  14457 15525 16172  3983 15525 16172  1255 14457 15525  788 6881 13020  6881 13020 16173  4236 6881 16173  308 13020 16173  2830 11674 13598  11674 13598 16174  4190 13598 16174  3281 11674 16174  3695 8974 9895  8974 9895 16175  4798 8974 16175  3004 9895 16175  901 14439 15524  7246 14439 15524  3981 7246 15524  904 7246 14439  3660 6337 16176  6337 16176 16177  4912 16176 16177  2815 6337 16177  1714 12678 16178  12678 16178 16179  4073 16178 16179  1712 12678 16179  889 14459 15574  5933 14459 15574  3985 5933 15574  892 5933 14459  2997 6425 16180  6425 16180 16181  4682 16180 16181  2996 6425 16181  3281 13639 16174  13639 16174 16182  4190 16174 16182  3760 13639 16182  2637 8567 14397  8567 14397 16183  4791 8567 16183  3225 14397 16183  1435 15084 15488  15084 15488 16139  4094 15084 16139  1630 15488 16139  882 14468 15588  14468 15588 16184  3987 15588 16184  1099 14468 16184  3967 12238 16185  12238 16185 16186  4312 16185 16186  3910 12238 16186  1334 14393 15930  14393 15930 16187  4155 15930 16187  3565 14393 16187  3309 16188 16190  16188 16189 16190  4799 16188 16189  767 16189 16190  448 14321 15170  14321 14736 15170  4166 14736 15170  691 14321 14736  783 14333 16191  14333 15169 16191  4166 15169 16191  450 14333 15169  1683 12724 16192  12724 16192 16193  4077 16192 16193  1574 12724 16193  1572 12716 16194  12716 16194 16195  4078 16194 16195  1570 12716 16195  2151 8533 14787  8533 8828 14787  4282 8828 14787  3651 8533 8828  983 11442 14502  11442 14502 15559  3988 11442 15559  977 14502 15559  1059 14499 15627  14499 15627 16196  3993 15627 16196  1646 14499 16196  1050 14496 15630  13048 14496 15630  3991 13048 15630  1604 13048 14496  673 15471 16197  8108 15471 16197  4089 8108 16197  3857 8108 15471  2061 15123 15452  15123 15145 15452  4072 15145 15452  1884 15123 15145  1864 14581 15839  5700 14581 15839  4147 5700 15839  1972 5700 14581  1245 14554 16198  14554 15649 16198  3990 15649 16198  1242 14554 15649  1596 6313 14214  6313 14214 16199  4211 6313 16199  991 14214 16199  3650 7330 16200  7330 16200 16201  4471 16200 16201  3443 7330 16201  1841 14607 16050  14607 16050 16202  4157 16050 16202  1842 14607 16202  961 14551 15811  14551 15811 16203  4152 15811 16203  962 14551 16203  3371 8012 16204  8012 16204 16205  4910 16204 16205  3370 8012 16205  1779 14557 16113  14557 16113 16206  4087 16113 16206  2319 14557 16206  1186 14929 15662  14929 15662 16207  4142 15662 16207  4119 14929 16207  2629 14516 16208  14516 15689 16208  3995 15689 16208  2626 14516 15689  1853 14580 16209  14580 15761 16209  4003 15761 16209  1852 14580 15761  1459 5897 12064  5897 12064 16210  4478 5897 16210  829 12064 16210  3024 5706 16211  5706 16211 16212  4895 16211 16212  3716 5706 16212  4623 12314 16214  12314 16213 16214  4630 12314 16213  2982 16213 16214  1560 14441 16215  14441 15929 16215  4155 15929 16215  1354 14441 15929  991 11858 16199  11858 16199 16216  4211 16199 16216  996 11858 16216  4436 8795 16218  8795 16217 16218  4464 8795 16217  3693 16217 16218  391 392 16219  391 16219 16220  4218 16219 16220  390 391 16220  769 15567 16221  15567 16221 16222  3864 16221 16222  3863 15567 16222  3935 12937 16223  12937 16223 16224  4261 16223 16224  2729 12937 16224  2958 10305 16225  10305 16225 16226  4921 16225 16226  4122 10305 16226  3506 6711 8907  6711 8907 16227  4818 8907 16227  2838 6711 16227  1625 14780 15397  14780 15196 15397  4088 14780 15196  1306 15196 15397  2031 14409 16228  14409 16228 16229  4165 16228 16229  2032 14409 16229  1770 14962 15682  14610 14962 15682  4034 14610 14962  1932 14610 15682  2734 5304 16230  5304 14115 16230  4680 14115 16230  3724 5304 14115  1917 9632 13179  9632 13179 16231  4286 9632 16231  3831 13179 16231  2432 13841 16232  13841 16232 16233  4338 16232 16233  2345 13841 16233  2314 5846 12062  5846 12062 16228  4165 5846 16228  2031 12062 16228  87 11651 16234  11651 13500 16234  4545 13500 16234  695 11651 13500  1842 14608 16235  14608 15796 16235  3997 15796 16235  1808 14608 15796  2062 14576 15762  14576 15762 16236  4003 15762 16236  2488 14576 16236  3969 12553 15419  6347 12553 15419  4228 6347 15419  2224 6347 12553  1943 13602 15625  13602 14921 15625  4046 13602 14921  1392 14921 15625  1641 14553 16237  14553 15810 16237  4152 15810 16237  964 14553 15810  2729 15448 16238  15448 16238 16239  3921 16238 16239  3919 15448 16239  2319 14486 16240  12932 14486 16240  4292 12932 16240  2382 12932 14486  3946 16241 16243  16241 16242 16243  4870 16241 16242  4767 16242 16243  2184 14102 16244  14102 15593 16244  4131 15593 16244  1976 14102 15593  3528 15059 16245  15059 16245 16246  4549 16245 16246  4124 15059 16246  1239 14578 16247  14578 15777 16247  4141 15777 16247  1235 14578 15777  2894 12669 16248  7113 12669 16248  4748 7113 16248  2893 7113 12669  1335 9682 12612  9682 12383 12612  4212 12383 12612  1356 9682 12383  3037 16249 16250  5905 16249 16250  4554 5905 16249  3680 5905 16250  1741 14561 15889  8263 14561 15889  4007 8263 15889  3596 8263 14561  4177 6614 16251  6614 16251 16252  4804 16251 16252  3562 6614 16252  2253 12316 13757  12316 13757 16253  4180 13757 16253  3942 12316 16253  3678 16254 16255  5357 16254 16255  3679 5357 16254  791 5357 16255  4371 16256 16258  16256 16257 16258  4681 16256 16257  606 16257 16258  2831 5012 13553  5012 13553 16259  4129 5012 16259  2731 13553 16259  1404 15247 15522  15247 15522 16260  4097 15247 16260  1638 15522 16260  996 14169 16216  5733 14169 16216  4211 5733 16216  1001 5733 14169  683 6543 11817  6543 11817 16261  4531 6543 16261  253 11817 16261  155 156 16262  155 16262 16263  4051 16262 16263  154 155 16263  4496 12601 16264  12601 16264 16265  4768 16264 16265  2834 12601 16265  1755 14612 16266  14612 15862 16266  4006 15862 16266  1750 14612 15862  1074 15263 15501  15263 15501 16267  4107 15263 16267  1624 15501 16267  2711 14649 16268  14649 16038 16268  4014 16038 16268  2674 14649 16038  1912 14570 16269  14570 15838 16269  4147 15838 16269  1866 14570 15838  190 191 13834  190 13834 16270  4255 13834 16270  189 190 16270  3997 15797 16271  15128 15797 16271  4068 15128 16271  1330 15128 15797  1799 14665 16052  14665 16052 16272  4018 16052 16272  2276 14665 16272  4527 12406 16274  12406 16273 16274  4625 12406 16273  2947 16273 16274  1753 6540 14616  6540 14616 15888  4007 6540 15888  1743 14616 15888  3640 14661 14880  14661 14880 16275  4920 14661 16275  4380 14880 16275  2331 13928 16276  13928 16276 16277  4332 16276 16277  2354 13928 16277  2865 13828 16278  7661 13828 16278  4161 7661 16278  2866 7661 13828  2230 6024 13877  6024 13877 16279  4158 6024 16279  2217 13877 16279  713 13449 16280  13449 16280 16281  4283 16280 16281  318 13449 16281  3147 6388 16282  6388 16176 16282  4912 16176 16282  3660 6388 16176  3029 15289 16283  15289 15700 16283  4011 15700 16283  2047 15289 15700  1961 6289 14624  6289 14624 15948  4009 6289 15948  920 14624 15948  2750 14658 15971  14658 15971 16284  4004 15971 16284  2754 14658 16284  2500 16100 16285  12858 16100 16285  4810 12858 16285  4237 12858 16100  1387 14504 15815  14504 15815 16286  4148 15815 16286  1390 14504 16286  27 12168 16287  7386 12168 16287  4468 7386 16287  708 7386 12168  1639 14625 16288  14625 15967 16288  4012 15967 16288  1210 14625 15967  1284 15129 15834  14885 15129 15834  4068 14885 15129  1286 14885 15834  814 11686 16289  11686 14757 16289  4187 14757 16289  3685 11686 14757  1632 14981 15444  14981 15355 15444  4093 14981 15355  1249 15355 15444  1065 14498 15813  14498 15813 16290  4149 15813 16290  1068 14498 16290  2596 14970 15754  14864 14970 15754  4058 14864 14970  2598 14864 15754  2581 8000 14925  8000 14925 16291  4360 8000 16291  2582 14925 16291  1037 14529 15857  14529 15857 16292  4151 15857 16292  1167 14529 16292  2547 15390 16293  15390 15654 16293  4070 15654 16293  2544 15390 15654  2834 5278 16265  5278 16265 16294  4768 16265 16294  4349 5278 16294  2680 14644 16039  13359 14644 16039  4014 13359 16039  3585 13359 14644  316 13523 16295  8266 13523 16295  4283 8266 16295  3807 8266 13523  2012 14666 16296  14666 16051 16296  4018 16051 16296  1818 14666 16051  2317 15069 16297  15069 15413 16297  4114 15413 16297  2268 15069 15413  1716 14731 15249  14731 15249 16298  4055 15249 16298  2321 14731 16298  607 608 16299  607 16258 16299  4371 16258 16299  606 607 16258  3802 12604 16300  12604 16300 16301  4481 16300 16301  3805 12604 16301  1452 14480 15843  14480 15843 16302  4153 15843 16302  1455 14480 16302  914 6120 14417  6120 14417 16303  4214 6120 16303  913 14417 16303  3168 6312 8721  6312 8721 16304  4598 6312 16304  3167 8721 16304  1184 13628 15148  13628 15148 16305  4130 15148 16305  1198 13628 16305  2940 12402 16306  12402 14760 16306  4657 14760 16306  3918 12402 14760  1857 15065 15740  15048 15065 15740  4076 15048 15065  2078 15048 15740  2480 13635 16307  13635 16307 16308  4563 16307 16308  1986 13635 16308  3744 9911 14963  9911 14963 16309  4734 14963 16309  3742 9911 16309  1915 14603 16310  14603 16049 16310  4157 16049 16310  1844 14603 16049  14 15 16311  14 15213 16311  4248 15213 16311  13 14 15213  1120 14024 15261  14024 15261 16312  4144 15261 16312  1123 14024 16312  2452 14009 16313  14009 16313 16314  4341 16313 16314  1933 14009 16314  685 13301 14741  13301 14741 16315  4109 13301 16315  3671 14741 16315  1661 14678 16085  14678 16085 16316  4024 16085 16316  1880 14678 16316  4278 5995 16317  5995 15185 16317  4501 15185 16317  3934 5995 15185  2132 5917 16318  5917 12812 16318  4561 12812 16318  3723 5917 12812  764 8748 15136  8748 15136 16319  4099 8748 16319  3832 15136 16319  1589 14494 16320  14494 16320 16321  4069 16320 16321  1648 14494 16321  696 7746 11961  7746 11961 16322  4523 7746 16322  273 11961 16322  3358 6061 16323  6061 16323 16324  4502 16323 16324  2322 6061 16324  3426 8082 16325  8082 16325 16326  4884 16325 16326  694 8082 16326  3933 15957 16327  15957 16327 16328  4906 16327 16328  4809 15957 16328  390 14184 16220  12160 14184 16220  4218 12160 16220  770 12160 14184  2488 15729 16329  15729 16329 16330  4267 16329 16330  3989 15729 16330  363 364 16331  363 16331 16332  4216 16331 16332  362 363 16332  702 14200 16333  14200 16219 16333  4218 16219 16333  392 14200 16219  1985 14627 16334  14627 16095 16334  4031 16095 16334  1726 14627 16095  1909 15354 15570  6714 15354 15570  4135 6714 15570  2386 6714 15354  1166 14539 16092  14539 16092 16335  4159 16092 16335  3439 14539 16335  2007 13949 15678  13949 15678 16336  4150 15678 16336  2182 13949 16336  3493 13331 16337  13331 16337 16338  4525 16337 16338  3496 13331 16338  2571 15558 16339  15558 15816 16339  4063 15816 16339  2568 15558 15816  1141 10155 16340  10155 16340 16341  4619 16340 16341  1179 10155 16341  2082 14797 16123  5759 14797 16123  4043 5759 16123  2983 5759 14797  3945 12763 16342  12763 16342 16343  4864 16342 16343  4261 12763 16343  3752 11822 16344  11822 16344 16345  4397 16344 16345  3751 11822 16345  2921 7958 8231  7958 8231 16346  4838 7958 16346  3736 8231 16346  2670 14648 16101  14648 16101 16347  4037 16101 16347  2711 14648 16347  3405 13075 14935  13075 14935 16348  4915 13075 16348  2967 14935 16348  1958 13441 16349  12335 13441 16349  4469 12335 16349  2935 12335 13441  723 14120 16350  14120 16331 16350  4216 16331 16350  364 14120 16331  3425 15641 16351  15641 15879 16351  4062 15879 16351  3422 15641 15879  2712 12358 14771  6485 12358 14771  4568 6485 14771  4002 6485 12358  3975 7734 13340  7734 13340 16352  4576 7734 16352  2514 13340 16352  1324 10463 16353  10463 16353 16354  4843 16353 16354  1278 10463 16354  2441 12830 16355  12830 16355 16356  4191 16355 16356  2257 12830 16356  2927 15003 16357  11277 15003 16357  4714 11277 16357  2928 11277 15003  4503 8691 16358  8691 16358 16359  4567 16358 16359  962 8691 16359  3370 8290 16205  8290 16205 16360  4910 16205 16360  3892 8290 16360  2405 15281 16361  15281 15725 16361  4123 15725 16361  1608 15281 15725  1526 15308 15872  15308 15586 15872  4105 15308 15586  1576 15586 15872  2714 13989 16362  13370 13989 16362  4269 13370 16362  2981 13370 13989  4045 14111 16363  14111 16363 16364  4579 16363 16364  2950 14111 16364  2895 12437 16365  12437 16365 16366  4181 16365 16366  3947 12437 16366  1223 14604 16367  14604 16367 16368  4183 16367 16368  1253 14604 16368  2665 15226 16040  15205 15226 16040  4095 15205 15226  2661 15205 16040  4668 12821 16369  10113 12821 16369  4881 10113 16369  3514 10113 12821  3071 5652 16370  5652 14786 16370  4282 5652 14786  4061 14786 16370  3297 4976 14774  4976 14774 16122  4043 4976 16122  2338 14774 16122  916 14399 16371  14399 14868 16371  4214 14868 16371  1599 14399 14868  904 5937 14440  5937 14440 16372  4244 5937 16372  903 14440 16372  3760 12971 16182  12971 16182 16373  4190 16182 16373  2545 12971 16373  1225 12212 16374  12212 16367 16374  4183 16367 16374  1223 12212 16367  2647 15699 15756  14031 15699 15756  4085 14031 15699  2654 14031 15756  3834 12969 13808  12969 13808 14877  4210 13808 14877  3250 12969 14877  1965 13985 16375  13985 16375 16376  4365 16375 16376  2414 13985 16376  4312 6560 16377  6560 9868 16377  4789 9868 16377  3474 6560 9868  3919 13010 16378  5430 13010 16378  4169 5430 16378  3920 5430 13010  2197 9922 14415  6177 9922 14415  4631 6177 14415  1838 6177 9922  1013 9532 16379  9532 11911 16379  4274 11911 16379  3312 9532 11911  307 308 16173  307 16173 16380  4236 16173 16380  306 307 16380  4291 6364 15679  6364 15679 16381  4903 6364 16381  1193 15679 16381  2885 15245 15989  14903 15245 15989  4067 14903 15245  2887 14903 15989  887 15546 15573  12606 15546 15573  3986 12606 15546  3985 12606 15573  1802 14700 16136  14700 16136 16382  4054 16136 16382  2263 14700 16382  913 11909 16303  11909 16303 16371  4214 16303 16371  916 11909 16371  2806 16053 16383  15237 16053 16383  4071 15237 16383  2804 15237 16053  1785 12531 16384  12531 16384 16385  4271 16384 16385  3876 12531 16385  1147 6463 16386  6463 13413 16386  4414 13413 16386  3698 6463 13413  670 15638 16387  6516 15638 16387  4176 6516 16387  3870 6516 15638  2546 14071 16388  14071 16388 16389  4334 16388 16389  2549 14071 16389  3989 8349 16330  8349 16330 16390  4267 16330 16390  1757 8349 16390  3742 5500 16309  5500 7260 16309  4734 7260 16309  2999 5500 7260  3501 10065 16391  10065 15596 16391  4372 15596 16391  1775 10065 15596  2454 13343 14084  13343 14084 16392  4221 13343 16392  2457 14084 16392  3231 5835 16393  5835 16393 16394  4891 16393 16394  2567 5835 16394  2519 5593 13681  5593 13681 16395  4178 5593 16395  2436 13681 16395  4066 5184 16396  5184 15214 16396  4833 15214 16396  3223 5184 15214  2297 7748 12897  7748 12897 16397  4343 7748 16397  2298 12897 16397  897 14450 16081  14450 15519 16081  4206 15519 16081  1602 14450 15519  2446 12543 16398  7654 12543 16398  4344 7654 16398  3042 7654 12543  4092 16399 16401  16399 16400 16401  4287 16399 16400  1938 16400 16401  3438 10268 14746  7966 10268 14746  4252 7966 14746  3440 7966 10268  2195 14745 16402  14745 16155 16402  4061 16155 16402  2155 14745 16155  3362 6279 6555  6279 6555 16403  4384 6279 16403  1577 6555 16403  3222 6077 14729  6077 14729 16143  4186 6077 16143  2248 14729 16143  2069 14679 16404  14679 16404 16405  4092 16404 16405  1824 14679 16405  1900 7104 16406  7104 12773 16406  4394 12773 16406  3764 7104 12773  4100 13545 16407  12540 13545 16407  4353 12540 16407  2923 12540 13545  3481 11773 16408  11773 16408 16409  4701 16408 16409  3483 11773 16409  1712 14931 16179  9537 14931 16179  4073 9537 16179  1771 9537 14931  2812 13646 16410  7657 13646 16410  4465 7657 16410  3225 7657 13646  3018 11532 16411  7756 11532 16411  4738 7756 16411  3242 7756 11532  2257 15153 16356  15153 16356 16412  4191 16356 16412  3156 15153 16412  2318 14564 16413  14564 16413 16414  4293 16413 16414  2525 14564 16414  3680 16250 16415  7720 16250 16415  4825 7720 16415  3037 7720 16250  2659 15075 16055  15075 15467 16055  4083 15075 15467  2655 15467 16055  2639 12961 16083  12961 15412 16083  4082 12961 15412  2621 15412 16083  3713 6374 16416  6374 16416 16417  4834 16416 16417  1527 6374 16417  2330 15619 16418  15375 15619 16418  4107 15375 16418  1070 15375 15619  2357 16419 16420  16399 16419 16420  4287 16399 16419  4092 16399 16420  301 13217 15090  13217 15090 16255  3678 15090 16255  791 13217 16255  2323 15255 16421  15255 16421 16422  4069 16421 16422  1590 15255 16422  4134 16423 16425  16423 16424 16425  4303 16423 16424  2861 16424 16425  338 13961 16426  13961 16426 16427  4277 16426 16427  688 13961 16427  752 16428 16429  16407 16428 16429  4353 16407 16428  4100 16407 16429  4009 13141 14633  13141 14633 16430  4599 13141 16430  3707 14633 16430  1574 14939 16193  5154 14939 16193  4077 5154 16193  1983 5154 14939  3124 8569 9356  8569 9356 10089  4491 8569 10089  2874 9356 10089  4657 16431 16433  16431 16432 16433  4710 16431 16432  3970 16432 16433  907 14432 16434  6622 14432 16434  4244 6622 16434  1600 6622 14432  765 11624 13997  11624 13997 16435  4277 11624 16435  340 13997 16435  1888 14911 16436  14911 16178 16436  4073 16178 16436  1714 14911 16178  986 5240 16437  5240 16437 16438  4613 16437 16438  3159 5240 16438  3757 11678 16439  11678 16439 16440  4285 16439 16440  3838 11678 16440  2785 10219 14750  10219 13950 14750  4263 13950 14750  2786 10219 13950  3876 13182 16385  5227 13182 16385  4271 5227 16385  2304 5227 13182  1709 5373 14938  5373 14938 16192  4077 5373 16192  1683 14938 16192  2258 13799 16441  13799 16441 16442  4121 16441 16442  1950 13799 16442  3945 12762 13880  8314 12762 13880  4828 8314 12762  2581 8314 13880  1420 15506 16114  15506 16114 16443  4145 16114 16443  2309 15506 16443  1983 5413 14940  5413 14940 16194  4078 5413 16194  1572 14940 16194  2729 16224 16238  16224 16238 16444  4261 16224 16444  3921 16238 16444  2754 5927 14659  5927 14659 16445  4202 5927 16445  2752 14659 16445  468 14367 16446  11371 14367 16446  4250 11371 16446  693 11371 14367  1695 13875 16447  13875 15387 16447  4208 15387 16447  1672 13875 15387  3621 5114 16449  5114 16448 16449  4509 5114 16448  4289 16448 16449  469 470 16450  469 16446 16450  4250 16446 16450  468 469 16446  1272 12613 14881  12613 14881 16451  4380 14881 16451  1273 12613 16451  814 16289 16452  14949 16289 16452  4493 14949 16452  4187 14949 16289  1570 14870 16195  8676 14870 16195  4078 8676 16195  3762 8676 14870  3594 11781 14758  11781 13599 14758  4187 13599 14758  3411 11781 13599  1820 8872 13715  8872 13715 16453  4490 8872 16453  1466 13715 16453  2088 15248 16454  15248 16454 16455  4138 16454 16455  2930 15248 16455  3140 9009 10048  9009 10048 16456  4744 10048 16456  4626 9009 16456  1882 14471 16120  5894 14471 16120  4203 5894 16120  2198 5894 14471  1318 14427 16457  14427 16457 16458  4498 16457 16458  3566 14427 16458  3974 12555 16459  11263 12555 16459  4189 11263 16459  2658 11263 12555  1159 9925 16460  9925 12865 16460  4241 12865 16460  1139 9925 12865  153 154 16461  153 16461 16462  730 16461 16462  152 153 16462  2731 15869 16259  15869 16259 16463  4129 16259 16463  2733 15869 16463  3161 5571 16464  5571 13293 16464  4877 13293 16464  4366 5571 13293  3163 12911 13781  12911 13781 16465  4484 12911 16465  2439 13781 16465  1826 15319 16466  15319 16401 16466  4092 16401 16466  1938 15319 16401  4443 16467 16469  16467 16468 16469  4572 16467 16468  2948 16468 16469  95 11649 16470  11649 16470 16471  4931 16470 16471  700 11649 16471  432 14297 16472  6327 14297 16472  4260 6327 16472  780 6327 14297  1590 15904 16422  15904 16320 16422  4069 16320 16422  1589 15904 16320  351 352 16473  351 6987 16473  4437 6987 16473  350 351 6987  1013 16105 16379  6866 16105 16379  4467 6866 16105  4274 6866 16379  3031 8137 13252  8137 13252 16474  4756 8137 16474  2902 13252 16474  1492 5718 9456  5718 9456 13408  4700 5718 13408  3218 9456 13408  3101 5671 15323  5671 15323 16475  4185 5671 16475  3102 15323 16475  678 8813 15038  7388 8813 15038  4460 7388 15038  3433 7388 8813  4020 7828 16476  7828 16441 16476  4121 16441 16476  2258 7828 16441  1084 15492 16162  6362 15492 16162  4146 6362 16162  2311 6362 15492  3815 11305 16477  11305 14082 16477  4281 14082 16477  2897 11305 14082  2086 15026 16478  15026 16454 16478  4138 16454 16478  2088 15026 16454  2169 11737 15275  5498 11737 15275  4240 5498 15275  2999 5498 11737  791 8522 13218  8522 13218 16479  4329 8522 16479  299 13218 16479  1805 14813 16480  14813 16480 16481  4103 16480 16481  1635 14813 16481  2503 9986 16482  9986 16482 16483  4541 16482 16483  2450 9986 16483  2024 14812 16484  14812 16484 16485  4104 16484 16485  2269 14812 16485  678 8812 14049  8812 14049 16486  4279 8812 16486  614 14049 16486  4062 10296 16487  10296 16487 16488  4276 16487 16488  3710 10296 16488  2468 16489 16490  12958 16489 16490  4636 12958 16489  4475 12958 16490  3059 5157 16491  5157 16491 16492  4887 16491 16492  3406 5157 16492  2741 13507 16493  13507 16249 16493  4554 16249 16493  3037 13507 16249  1891 13640 16494  13640 15472 16494  4213 15472 16494  1849 13640 15472  4247 12449 16495  7492 12449 16495  4409 7492 16495  1540 7492 12449  2743 7421 12409  7421 12409 16496  4262 7421 16496  4017 12409 16496  2264 15820 15836  15820 15836 16497  4115 15820 16497  2344 15836 16497  1298 8060 9934  8060 9934 16498  4676 8060 16498  3353 9934 16498  2346 10441 15235  10441 15235 16436  4073 10441 16436  1888 15235 16436  903 11927 16372  11927 16372 16434  4244 16372 16434  907 11927 16434  2850 15302 16499  8056 15302 16499  4197 8056 16499  2230 8056 15302  4064 14544 16500  14544 16500 16501  4260 16500 16501  434 14544 16501  2565 6395 15052  6395 15052 16502  4442 6395 16502  2566 15052 16502  2962 10693 12390  10693 12390 16503  4487 10693 16503  2420 12390 16503  4270 6055 16505  6055 16504 16505  4465 6055 16504  2810 16504 16505  4049 13814 16506  6893 13814 16506  4793 6893 16506  3688 6893 13814  1636 15423 16507  15423 16507 16508  4103 16507 16508  2328 15423 16508  1642 15369 16509  14973 15369 16509  4143 14973 16509  2044 14973 15369  1824 15840 16405  15840 16405 16466  4092 16405 16466  1826 15840 16466  2193 14958 15442  14958 15442 16510  4104 14958 16510  2025 15442 16510  123 11638 16511  11638 16511 16512  4801 16511 16512  731 11638 16512  2933 16513 16515  16513 16514 16515  4417 16513 16514  4305 16514 16515  3831 11748 16231  11748 16231 16516  4286 16231 16516  3500 11748 16516  3767 12158 16517  12158 16517 16518  4686 16517 16518  3503 12158 16518  1193 7824 16381  7824 16381 16519  4903 16381 16519  3330 7824 16519  2936 14560 14823  14560 14823 16520  4112 14560 16520  1967 14823 16520  2922 16521 16523  16521 16522 16523  4873 16521 16522  4686 16522 16523  1279 8143 12575  8143 12575 16524  4418 8143 16524  1280 12575 16524  1208 11463 12662  11463 12662 15005  4280 12662 15005  1207 11463 15005  3671 10177 16525  10177 16525 16526  4370 16525 16526  753 10177 16526  3466 11111 16527  5332 11111 16527  4658 5332 16527  2404 5332 11111  2752 12194 16445  6924 12194 16445  4202 6924 16445  2759 6924 12194  2499 14835 16528  14835 16528 16529  4133 16528 16529  2342 14835 16529  1398 7987 16530  7987 16530 16531  4776 16530 16531  3536 7987 16531  433 434 16501  433 16472 16501  4260 16472 16501  432 433 16472  4204 7443 15759  7443 15759 16532  4347 7443 16532  944 15759 16532  4255 5717 16270  5717 16270 16533  4336 5717 16533  189 16270 16533  1860 14613 16534  5837 14613 16534  4288 5837 16534  1970 5837 14613  1931 15637 16535  15637 16215 16535  4155 16215 16535  1560 15637 16215  147 148 6725  147 6725 16536  760 6725 16536  146 147 16536  1920 11022 16537  6444 11022 16537  4310 6444 16537  2320 6444 11022  2455 16538 16539  16423 16538 16539  4303 16423 16538  4134 16423 16539  3738 13738 15118  13738 15118 16469  4443 15118 16469  2948 13738 16469  3081 12235 15327  12235 15327 16244  4131 12235 16244  2184 15327 16244  3529 10495 16540  10495 13140 16540  4599 13140 16540  3531 10495 13140  1910 11448 16541  11448 16541 16542  4795 16541 16542  2189 11448 16542  4610 11204 16543  11204 13696 16543  4897 13696 16543  3538 11204 13696  751 8797 11789  8797 11789 16544  4917 8797 16544  249 11789 16544  2371 12775 16545  12775 16545 16546  4398 16545 16546  2372 12775 16546  1621 15198 16547  15198 16509 16547  4143 16509 16547  1642 15198 16509  3929 12781 16548  12781 16058 16548  4457 16058 16548  2784 12781 16058  1952 15107 15450  15107 15450 16247  4141 15107 16247  1239 15450 16247  3617 9816 11739  9816 11739 16549  4790 9816 16549  3408 11739 16549  2394 14118 16550  8683 14118 16550  4350 8683 16550  3070 8683 14118  2015 14646 16551  5655 14646 16551  4284 5655 16551  2471 5655 14646  1953 15067 15440  15067 15440 16266  4006 15067 16266  1755 15440 16266  2523 15220 16552  15220 16552 16553  4399 16552 16553  2317 15220 16553  3923 15535 16554  15535 16237 16554  4152 16237 16554  1641 15535 16237  2547 16555 16557  16555 16556 16557  4546 16555 16556  4512 16556 16557  1472 14413 16558  14413 16558 16559  4154 16558 16559  1505 14413 16559  3574 9058 16560  9058 16537 16560  4310 16537 16560  1920 9058 16537  2173 15071 15779  15071 15779 16561  4201 15779 16561  2932 15071 16561  1968 15580 16562  13561 15580 16562  4112 13561 16562  2065 13561 15580  1281 14899 16563  14899 16563 16564  4118 16563 16564  1906 14899 16564  2436 15990 16395  15990 16395 16565  4178 16395 16565  2438 15990 16565  4071 8610 16566  8610 16566 16567  4300 16566 16567  3414 8610 16567  1285 15591 16568  15591 16568 16569  4118 16568 16569  1282 15591 16569  1635 15833 16481  15833 16481 16507  4103 16481 16507  1636 15833 16507  1648 15429 16321  15429 16321 16570  4069 16321 16570  1724 15429 16570  2339 6454 15485  6454 15485 16269  4147 6454 16269  1912 15485 16269  2055 15033 15487  15033 15487 16288  4012 15033 16288  1639 15487 16288  1301 5711 11527  5711 11527 16571  4544 5711 16571  3694 11527 16571  4514 7542 13891  7542 13891 16572  4667 7542 16572  2944 13891 16572  2025 15884 16510  15884 16484 16510  4104 16484 16510  2024 15884 16484  2048 15568 16573  15568 16425 16573  4134 16425 16573  2861 15568 16425  676 12596 16574  12596 15634 16574  4115 15634 16574  3949 12596 15634  2972 16575 16577  16575 16576 16577  4547 16575 16576  4392 16576 16577  2847 10234 15176  10234 15176 15451  4200 10234 15451  2061 15176 15451  2032 5219 14410  5219 14410 16167  4215 5219 16167  1829 14410 16167  2092 14685 16578  14685 16384 16578  4271 16384 16578  1785 14685 16384  3071 15384 16370  15384 16370 16402  4061 16370 16402  2195 15384 16402  4305 16514 16580  16514 16579 16580  4417 16514 16579  2254 16579 16580  3009 13243 15415  13243 15415 16581  4370 15415 16581  4109 13243 16581  2470 13158 15458  13158 15458 16334  4031 13158 16334  1985 15458 16334  3118 11372 11558  11372 11558 16582  4250 11372 16582  3117 11558 16582  1390 15496 16286  15291 15496 16286  4148 15291 16286  1942 15291 15496  2357 15428 16420  15428 16404 16420  4092 16404 16420  2069 15428 16404  1764 14136 16583  14136 16583 16584  4170 16583 16584  1792 14136 16584  1068 15512 16290  15512 16290 16585  4149 16290 16585  2329 15512 16585  2483 8627 16586  8627 12005 16586  4587 12005 16586  3552 8627 12005  2597 14091 15643  14091 15643 16587  4127 14091 16587  2594 15643 16587  1167 15531 16292  15531 16292 16588  4151 16292 16588  1804 15531 16588  700 11321 16471  8316 11321 16471  4931 8316 16471  3149 8316 11321  2371 16545 16589  16545 16589 16590  4712 16589 16590  4398 16545 16590  2096 14968 16591  14968 16591 16592  4125 16591 16592  2098 14968 16592  2508 11850 14714  11850 14714 16593  4571 14714 16593  4099 11850 16593  3235 8103 16158  7243 8103 16158  4743 7243 16158  1872 7243 8103  1732 13792 16594  13792 16318 16594  4561 16318 16594  2132 13792 16318  1220 7978 9235  7978 9235 12404  4318 7978 12404  1217 9235 12404  2263 15474 16382  13485 15474 16382  4054 13485 16382  3109 13485 15474  2355 15043 16595  15043 16595 16596  4126 16595 16596  2333 15043 16596  1594 16597 16598  11543 16597 16598  4163 11543 16597  4162 11543 16598  2730 14004 16599  11361 14004 16599  4184 11361 16599  3692 11361 14004  1285 16568 16600  16568 16600 16601  4308 16600 16601  4118 16568 16601  1950 16066 16442  13909 16066 16442  4121 13909 16442  2046 13909 16066  1198 15343 16305  15341 15343 16305  4130 15341 16305  1617 15341 15343  3425 9082 16351  9082 16351 16487  4276 9082 16487  4062 16351 16487  2333 15703 16596  15703 16596 16602  4126 16596 16602  2334 15703 16602  3775 14788 15096  14788 15096 16165  4614 14788 16165  1145 15096 16165  1455 15547 16302  15547 16302 16603  4153 16302 16603  1923 15547 16603  3641 8471 16604  8471 16604 16605  4296 16604 16605  676 8471 16605  3908 6246 16606  6246 16248 16606  4748 16248 16606  2894 6246 16248  1282 15909 16569  15909 16563 16569  4118 16563 16569  1281 15909 16563  1791 15606 16607  15606 16573 16607  4134 16573 16607  2048 15606 16573  2593 15021 16608  15021 16608 16609  4127 16608 16609  2744 15021 16609  1967 16073 16520  16073 16520 16562  4112 16520 16562  1968 16073 16562  2455 15381 16539  15381 16539 16610  4134 16539 16610  2009 15381 16610  2060 15165 16611  15165 16494 16611  4213 16494 16611  1891 15165 16494  1123 15445 16312  14955 15445 16312  4144 14955 16312  1629 14955 15445  4375 7922 13409  7922 13409 16612  4700 13409 16612  2358 7922 16612  1172 13736 15710  13736 15710 16613  4235 15710 16613  1183 13736 16613  2583 14029 16614  12820 14029 16614  4668 12820 16614  3513 12820 14029  1995 15481 16615  15481 16480 16615  4103 16480 16615  1805 15481 16480  2501 13532 16616  13532 16616 16617  4617 16616 16617  4472 13532 16617  2236 15722 16618  5469 15722 16618  4128 5469 16618  2868 5469 15722  2343 15652 16619  15652 16310 16619  4157 16310 16619  1915 15652 16310  2495 8041 15788  8041 15788 16591  4125 8041 16591  2096 15788 16591  2415 15076 16620  15076 16618 16620  4128 16618 16620  2236 15076 16618  3835 13478 16621  13478 16621 16622  4635 16621 16622  808 13478 16622  2456 15621 16623  5322 15621 16623  4136 5322 16623  2915 5322 15621  2925 15432 16624  15432 16595 16624  4126 16595 16624  2355 15432 16595  1385 14507 16625  14507 16625 16626  4321 16625 16626  1381 14507 16626  1155 14438 16627  14438 16627 16628  4173 16627 16628  1157 14438 16628  2989 7727 16629  7727 16629 16630  4558 16629 16630  3318 7727 16630  3346 6740 7013  6740 7013 16631  4452 7013 16631  1869 6740 16631  3649 9458 13695  9458 13695 16632  4787 13695 16632  3650 9458 16632  1972 9629 14582  9629 14582 16633  4288 9629 16633  1862 14582 16633  1414 14650 16634  6553 14650 16634  4162 6553 16634  1577 6553 14650  3787 9814 15470  9814 15470 16620  4128 9814 16620  2415 15470 16620  3558 6175 15410  6175 15410 16635  4539 6175 16635  4401 15410 16635  2594 15875 16587  15875 16587 16608  4127 16587 16608  2593 15875 16608  3911 8294 16636  8294 16636 16637  4804 16636 16637  2976 8294 16637  2182 15489 16336  10948 15489 16336  4150 10948 16336  3077 10948 15489  1507 7506 10136  7506 10136 16638  4298 7506 16638  3349 10136 16638  975 15893 16639  7921 15893 16639  4375 7921 16639  4209 7921 15893  4555 8351 12321  8351 12321 16640  4716 12321 16640  3732 8351 16640  486 14383 16641  7490 14383 16641  4307 7490 16641  728 7490 14383  2009 15139 16610  15139 16607 16610  4134 16607 16610  1791 15139 16607  3439 15676 16335  12646 15676 16335  4159 12646 16335  3443 12646 15676  3798 13204 13306  13204 13306 16642  4924 13204 16642  2975 13306 16642  3503 11938 16518  11938 16518 16643  4686 16518 16643  1331 11938 16643  1960 15284 16644  15284 16447 16644  4208 16447 16644  1695 15284 16447  2189 16542 16645  14942 16542 16645  4795 14942 16542  3817 14942 16645  2383 11514 14623  11514 14623 16646  4284 11514 16646  2124 14623 16646  4110 7354 14662  7354 14662 16647  4193 7354 16647  3291 14662 16647  750 11749 16648  11749 13380 16648  4747 13380 16648  3657 11749 13380  2098 15529 16592  15529 16592 16649  4125 16592 16649  2106 15529 16649  2860 15127 16650  15127 16623 16650  4136 16623 16650  2456 15127 16623  2342 15841 16651  15841 16651 16652  4132 16651 16652  2340 15841 16652  1940 8085 12070  8085 10844 12070  4233 8085 10844  3676 10844 12070  4337 11926 16653  8760 11926 16653  4386 8760 16653  1595 8760 11926  1757 11341 16390  11341 14694 16390  4267 14694 16390  1756 11341 14694  1906 15571 16564  15571 16564 16654  4118 16564 16654  2502 15571 16654  2259 15368 16655  15368 16478 16655  4138 16478 16655  2086 15368 16478  3128 11868 14038  11868 14038 16656  4257 14038 16656  3131 11868 16656  0 661 16657  661 16657 16658  4802 16657 16658  660 661 16658  1230 14588 16659  6214 14588 16659  4316 6214 16659  1233 6214 14588  2486 14894 16660  11077 14894 16660  4217 11077 16660  2176 11077 14894  2713 13446 16661  13446 16282 16661  4912 16282 16661  3147 13446 16282  4423 13548 16662  13548 14026 16662  4637 14026 16662  3598 13548 14026  4107 16267 16663  16267 16663 16664  4268 16663 16664  1624 16267 16664  1601 14761 16146  14761 16146 16433  4657 14761 16433  3970 16146 16433  3820 5377 7800  5377 7800 16665  4691 7800 16665  2981 5377 16665  2142 11046 12307  11046 12307 12414  4309 12307 12414  2247 11046 12414  4622 6124 11712  6124 11712 16666  4815 6124 16666  2668 11712 16666  1745 14615 16667  14615 16667 16668  4317 16667 16668  1753 14615 16668  1606 6053 12792  6053 12792 16669  4524 6053 16669  3917 12792 16669  339 340 16435  339 16426 16435  4277 16426 16435  338 339 16426  3613 12311 12985  7348 12311 12985  4430 7348 12985  2821 7348 12311  3890 7431 15737  5284 7431 15737  4387 5284 7431  781 5284 15737  4118 16601 16654  16601 16654 16670  4308 16601 16670  2502 16654 16670  462 14355 16671  8602 14355 16671  4306 8602 16671  786 8602 14355  2198 12744 13172  12744 13172 16672  4403 12744 16672  2199 13172 16672  420 14265 16673  5501 14265 16673  4326 5501 16673  669 5501 14265  2261 12807 16674  12190 12807 16674  4234 12190 16674  2002 12190 12807  779 14274 15180  14274 15180 16675  4326 15180 16675  422 14274 16675  4372 15597 16676  13754 15597 16676  4445 13754 16676  1611 13754 15597  1734 15328 16677  15328 16547 16677  4143 16547 16677  1621 15328 16547  1579 15045 16678  12675 15045 16678  4221 12675 16678  3842 12675 15045  3240 5542 16679  5542 16679 16680  4856 16679 16680  2543 5542 16680  1277 4951 16681  4951 16681 16682  4843 16681 16682  3243 4951 16682  826 12325 16683  12325 16415 16683  4825 16415 16683  3680 12325 16415  2898 15434 16684  15434 16684 16685  4171 16684 16685  2059 15434 16685  2340 15352 16652  5214 15352 16652  4132 5214 16652  4117 5214 15352  3085 13505 16097  13505 16097 16686  4914 16097 16686  2881 13505 16686  2117 6967 11831  6967 11831 16687  4529 6967 16687  3757 11831 16687  150 6121 16688  6121 16688 16689  4456 16688 16689  3722 6121 16689  2876 16087 16690  16087 16599 16690  4184 16599 16690  2730 16087 16599  1108 14628 16691  14628 16691 16692  4180 16691 16692  3791 14628 16692  4190 15566 16373  15566 16373 16693  4334 15566 16693  2545 16373 16693  3356 11487 14025  5491 11487 14025  4272 5491 14025  3359 5491 11487  3556 6683 11278  6683 11278 16694  4714 11278 16694  1681 6683 16694  686 8466 10889  8466 10889 15062  4859 8466 15062  3435 10889 15062  4377 12352 16696  12352 16695 16696  4540 12352 16695  3654 16695 16696  1792 15435 16584  15435 16584 16697  4170 16584 16697  2051 15435 16697  1157 15431 16628  15104 15431 16628  4173 15104 16628  1485 15104 15431  1090 14645 16698  14645 16698 16699  4181 16698 16699  1092 14645 16699  1628 7905 15464  7905 15464 16558  4154 7905 16558  1472 15464 16558  3079 11677 16700  11677 15995 16700  4371 15995 16700  3430 11677 15995  2118 11662 16701  7751 11662 16701  4639 7751 16701  2476 7751 11662  2321 14732 16702  14732 16702 16703  4246 16702 16703  1992 14732 16703  1360 13775 16704  8599 13775 16704  4677 8599 16704  1789 8599 13775  2972 8997 16577  6551 8997 16577  4392 6551 16577  3040 6551 8997  681 8555 11516  8555 11516 16696  4377 11516 16696  3654 8555 16696  2039 15561 16705  14353 15561 16705  4175 14353 16705  2327 14353 15561  688 13962 16706  13962 15181 16706  4239 15181 16706  336 13962 15181  1908 14866 16707  14866 16705 16707  4175 16705 16707  2039 14866 16705  298 299 16479  298 15462 16479  4329 15462 16479  297 298 15462  305 306 16708  305 16708 16709  4816 16708 16709  3 305 16709  3814 12263 16710  12263 16710 16711  4311 16710 16711  3961 12263 16711  2059 14987 16685  14987 16685 16712  4171 16685 16712  2028 14987 16712  317 318 16281  317 16281 16295  4283 16281 16295  316 317 16295  1092 15507 16699  15507 16699 16713  4181 16699 16713  1513 15507 16713  613 614 16486  613 16486 16714  4279 16486 16714  612 613 16714  2028 15441 16712  15441 16712 16715  4171 16712 16715  2193 15441 16715  2637 13922 14396  13922 14396 16716  4647 14396 16716  2613 13922 16716  3905 15216 15659  15216 15659 16583  4170 15659 16583  1764 15216 16583  2336 5946 13411  5946 13411 16717  4469 5946 16717  1956 13411 16717  3028 8203 13614  8203 13614 16718  4778 8203 16718  2884 13614 16718  1594 15537 16598  15537 16598 16634  4162 16598 16634  1414 15537 16634  2330 16418 16719  16418 16663 16719  4268 16663 16719  4107 16418 16663  3678 16254 16720  6880 16254 16720  4236 6880 16720  3679 6880 16254  1919 15510 16721  13720 15510 16721  4195 13720 16721  2095 13720 15510  4692 13117 16722  13117 16722 16723  4919 16722 16723  3734 13117 16723  2933 10324 16515  10324 16515 16724  4305 16515 16724  2934 10324 16724  2560 15955 16725  13364 15955 16725  4358 13364 16725  2559 13364 15955  3449 11974 16726  11974 14770 16726  4568 14770 16726  3452 11974 14770  3681 12345 13941  12345 13941 16727  4482 13941 16727  697 12345 16727  1494 11825 16728  11554 11825 16728  4262 11554 16728  3648 11554 11825  1992 15508 16703  5631 15508 16703  4246 5631 16703  2352 5631 15508  3766 12326 16729  7553 12326 16729  4390 7553 16729  2313 7553 12326  3069 10194 16730  6145 10194 16730  4419 6145 16730  2143 6145 10194  3921 16239 16731  16239 16378 16731  4169 16378 16731  3919 16239 16378  3050 6116 13377  6116 13377 16732  4231 6116 16732  3976 13377 16732  2646 13919 15595  13919 15595 16733  4192 13919 16733  2631 15595 16733  2739 5546 14740  5546 14740 16734  4189 5546 16734  2737 14740 16734  2087 14681 16735  7925 14681 16735  4412 7925 16735  2472 7925 14681  2502 15572 16736  15572 16707 16736  4175 16707 16736  1908 15572 16707  2438 16011 16737  9772 16011 16737  4354 9772 16737  2440 9772 16011  1183 15147 16738  15147 16738 16739  4390 16738 16739  4130 15147 16739  1517 14131 16740  5962 14131 16740  4569 5962 16740  1521 5962 14131  2652 6776 15167  6001 6776 15167  4116 6001 6776  4080 6001 15167  2358 14833 16741  14833 16741 16742  4245 16741 16742  2107 14833 16742  3061 8513 14784  8513 14784 16743  4290 8513 16743  2421 14784 16743  2922 13763 16523  13763 16517 16523  4686 16517 16523  3767 13763 16517  2631 14785 16733  14785 16733 16744  4192 16733 16744  2629 14785 16744  3950 13008 16745  12984 13008 16745  4430 12984 16745  1855 12984 13008  2107 15484 16742  7716 15484 16742  4245 7716 16742  2339 7716 15484  3153 5021 16746  5021 16746 16747  4929 16746 16747  2915 5021 16747  704 15663 16748  15663 16748 16749  4224 16748 16749  3874 15663 16749  2472 7927 15159  7927 15159 16750  4330 7927 16750  4158 15159 16750  3932 15616 16751  15616 16627 16751  4173 16627 16751  1155 15616 16627  1261 14591 16752  14591 16636 16752  4804 16636 16752  3911 14591 16636  767 16190 16753  14937 16190 16753  4480 14937 16753  3309 14937 16190  4847 16754 16756  16754 16755 16756  4869 16754 16755  4011 16755 16756  4089 8615 16757  8615 12600 16757  4496 12600 16757  2833 8615 12600  3976 15365 16732  15365 16732 16758  4231 16732 16758  1442 15365 16758  4373 5628 16760  5628 16759 16760  4406 5628 16759  1034 16759 16760  1305 15975 16761  12784 15975 16761  4253 12784 16761  1321 12784 15975  1412 15536 16762  15536 16762 16763  4251 16762 16763  1594 15536 16763  3360 12533 16078  11515 12533 16078  4377 11515 12533  4273 11515 16078  2510 10824 16107  10824 16107 16764  4234 10824 16764  3909 16107 16764  2981 13990 16665  13990 16665 16765  4691 16665 16765  2689 13990 16765  1221 12196 16766  12196 15716 16766  4407 15716 16766  1218 12196 15716  2956 7123 16065  7123 16065 16767  4562 7123 16767  3084 16065 16767  4227 13287 16768  13287 16730 16768  4419 13287 16730  3069 16730 16768  2166 13363 16769  13363 16769 16770  4636 16769 16770  2020 13363 16770  4193 12445 16647  12445 16647 16771  4719 12445 16771  3291 16647 16771  4296 16772 16774  16772 16773 16774  4573 16772 16773  2430 16773 16774  2286 16054 16775  12973 16054 16775  4266 12973 16775  2288 12973 16054  100 101 13611  100 13611 14763  4319 13611 14763  99 100 14763  188 189 16533  188 13605 16533  4336 13605 16533  187 188 13605  3990 12802 16776  12802 16776 16777  4304 16776 16777  2458 12802 16777  2351 14994 16778  14994 16778 16779  4315 16778 16779  2510 14994 16779  697 8289 16727  8289 16727 16780  4482 16727 16780  3327 8289 16780  4079 12708 16781  12708 13887 16781  4628 13887 16781  2819 12708 13887  2417 15469 16782  15469 16782 16783  4247 16782 16783  3787 15469 16783  3787 7650 16783  7650 12448 16783  4247 12448 16783  3200 7650 12448  3350 6980 16784  6980 16784 16785  4722 16784 16785  2445 6980 16785  1880 14923 16786  14923 16721 16786  4195 16721 16786  1919 14923 16721  2919 7183 15179  7183 15179 16787  4829 15179 16787  4402 7183 16787  1149 12155 16788  12155 16386 16788  4414 16386 16788  1147 12155 16386  2808 15985 16789  15985 16505 16789  4270 16505 16789  2810 15985 16505  4172 8732 13596  8732 13596 16790  4411 8732 16790  2498 13596 16790  1646 16111 16791  16111 16791 16792  4332 16791 16792  4149 16111 16792  1555 12198 14832  12198 14832 16793  4427 14832 16793  1645 12198 16793  3743 9910 15735  7219 9910 15735  4438 7219 15735  3744 7219 9910  1029 14100 14259  14100 14259 14879  4249 14259 14879  1028 14100 14879  4103 16508 16794  16508 16794 16795  4323 16794 16795  2328 16508 16795  545 546 16796  545 8207 16796  4590 8207 16796  544 545 8207  1112 10809 14464  10809 14464 16797  4314 14464 16797  1111 10809 16797  3829 5682 6484  5682 6484 16798  4479 5682 16798  666 6484 16798  1442 15300 16758  15300 16758 16799  4231 16758 16799  4091 15300 16799  3584 13190 16800  13190 16223 16800  4261 16223 16800  3935 13190 16223  3946 16082 16243  7967 16082 16243  4767 7967 16243  1591 7967 16082  3942 15949 16253  15949 16253 16691  4180 16253 16691  1108 15949 16691  2124 12261 16646  12261 16551 16646  4284 16551 16646  2015 12261 16551  1862 12189 16633  12189 16534 16633  4288 16534 16633  1860 12189 16534  3658 11950 16801  11950 12840 16801  4473 12840 16801  2441 11950 12840  2285 5786 15420  5786 7566 15420  4222 5786 7566  2974 7566 15420  3540 11866 16802  11866 16802 16803  4749 16802 16803  4411 11866 16803  3927 6173 16804  6173 7413 16804  4543 7413 16804  1664 6173 7413  2550 14045 16805  14045 16805 16806  4627 16805 16806  2553 14045 16806  1410 14638 16807  14638 16762 16807  4251 16762 16807  1412 14638 16762  674 8050 16808  8050 16188 16808  4799 16188 16808  3309 8050 16188  4030 14405 16809  14405 14976 16809  4258 14976 16809  2424 14405 14976  2910 12150 16810  8216 12150 16810  4781 8216 16810  3076 8216 12150  2342 16529 16651  6561 16529 16651  4133 6561 16529  4132 6561 16651  3241 8962 16811  8962 16811 16812  4363 16811 16812  3240 8962 16812  2473 15372 16813  15372 16813 16814  4254 16813 16814  2259 15372 16814  3120 5470 16815  5470 16815 16816  4871 16815 16816  2868 5470 16816  3863 15579 16817  15579 16817 16818  4205 16817 16818  672 15579 16818  4119 7111 16207  7111 16207 16819  4142 16207 16819  3602 7111 16819  956 6669 12165  6669 12165 16820  4621 6669 16820  954 12165 16820  3947 16093 16366  16093 16366 16698  4181 16366 16698  1090 16093 16698  1935 12887 16821  12887 16406 16821  4394 16406 16821  1900 12887 16406  2357 6867 16419  6867 16126 16419  4467 6867 16126  4287 16126 16419  1464 15002 16822  15002 16822 16823  4285 16822 16823  4055 15002 16823  731 6922 14861  6922 14861 16824  4641 6922 16824  4572 14861 16824  4013 15388 16825  15388 16807 16825  4251 16807 16825  1410 15388 16807  4157 16202 16826  16202 16826 16827  4338 16826 16827  1842 16202 16827  52 53 13960  52 9172 13960  4320 9172 13960  51 52 9172  2569 9519 15015  9519 15015 16828  4624 9519 16828  2570 15015 16828  1041 9698 10384  9698 10384 13054  4302 10384 13054  1038 9698 13054  2437 13787 16829  6125 13787 16829  4484 6125 16829  2991 6125 13787  2419 15044 16830  15044 16782 16830  4247 16782 16830  2417 15044 16782  487 488 16831  487 16641 16831  4307 16641 16831  486 487 16641  3522 7383 12765  7383 12765 16832  4755 7383 16832  3521 12765 16832  1995 16615 16833  16615 16794 16833  4323 16794 16833  4103 16615 16794  1179 16341 16835  16341 16834 16835  4619 16341 16834  4191 16834 16835  2806 16383 16836  16383 16566 16836  4300 16566 16836  4071 16383 16566  1384 15814 16837  15814 16837 16838  4321 16837 16838  4148 15814 16838  3874 15656 16839  6836 15656 16839  4225 6836 16839  774 6836 15656  3021 7755 12488  7755 12488 16840  4548 7755 16840  2491 12488 16840  3636 15414 16841  15414 16841 16842  4695 16841 16842  4370 15414 16842  4388 12522 16843  12522 16437 16843  4613 16437 16843  986 12522 16437  3621 11755 16449  11755 15144 16449  4289 15144 16449  741 11755 15144  1294 8478 16844  6018 8478 16844  4486 6018 8478  4433 6018 16844  1119 15260 16845  15260 16845 16846  4397 16845 16846  4144 15260 16846  3137 6946 16847  6946 16847 16848  4503 16847 16848  2280 6946 16848  1941 6196 9553  6196 9553 16849  4506 6196 16849  3233 9553 16849  2207 15750 16850  15750 16850 16851  4278 16850 16851  1937 15750 16851  3962 14126 16059  6393 14126 16059  4457 6393 16059  2565 6393 14126  3794 13812 15520  13435 13812 15520  4359 13435 13812  1602 13435 15520  2737 16161 16734  16161 16459 16734  4189 16459 16734  3974 16161 16459  2279 12112 15964  12112 15964 16852  4301 12112 16852  2277 15964 16852  3006 5884 15478  5884 15478 16853  4350 5884 16853  2393 15478 16853  2528 15732 16854  12902 15732 16854  4447 12902 16854  2527 12902 15732  1385 16855 16857  16855 16856 16857  4886 16855 16856  3955 16856 16857  3004 13530 16175  13530 16175 16858  4798 16175 16858  4429 13530 16858  1810 16032 16859  10932 16032 16859  4731 10932 16859  1731 10932 16032  3761 14826 16860  14826 16860 16861  4365 16860 16861  4153 14826 16861  3255 6511 16862  6511 16862 16863  4757 16862 16863  771 6511 16863  161 162 16864  161 16864 16865  4346 16864 16865  160 161 16865  1578 15031 16866  15031 16866 16867  4293 16866 16867  4102 15031 16867  4113 15099 16868  15009 15099 16868  4295 15009 16868  1676 15009 15099  2634 14090 16869  14090 16869 16870  4313 16869 16870  4127 14090 16870  740 15824 16871  15786 15824 16871  4050 15786 16871  158 15786 15824  2742 16069 16872  16069 16230 16872  4680 16230 16872  2734 16069 16230  4522 13002 16873  13002 16873 16874  4773 16873 16874  1024 13002 16874  3547 13415 16875  13415 16875 16876  4751 16875 16876  4314 13415 16876  4141 15778 16877  15778 16877 16878  4316 16877 16878  1232 15778 16878  2629 16208 16744  16208 16744 16879  4192 16744 16879  3995 16208 16879  1887 7754 15499  7754 15499 16880  4723 15499 16880  4548 7754 16880  3310 12287 13291  8055 12287 13291  4198 8055 12287  4197 8055 13291  2463 7022 13832  7022 13832 16775  4266 7022 16775  2286 13832 16775  3194 5761 10832  5691 5761 10832  4297 5691 10832  3667 5691 5761  2411 14567 16881  14567 16881 16882  4462 16881 16882  2478 14567 16882  2892 16046 16883  16046 16491 16883  4887 16491 16883  3059 16046 16491  2906 14267 16884  14267 16825 16884  4251 16825 16884  4013 14267 16825  2344 15933 16885  15933 16774 16885  4296 16774 16885  2430 15933 16774  2746 15602 16886  15602 16886 16887  4313 16886 16887  2799 15602 16887  3864 16222 16888  16222 16817 16888  4205 16817 16888  3863 16222 16817  474 14375 16889  14375 15734 16889  4438 15734 16889  727 14375 15734  4006 15863 16890  15863 16890 16891  4317 16890 16891  1747 15863 16891  2465 14901 16892  14901 16892 16893  4530 16892 16893  2464 14901 16893  4155 16187 16894  16187 16894 16895  4341 16894 16895  3565 16187 16895  463 464 16896  463 16671 16896  4306 16671 16896  462 463 16671  1463 6604 13749  6604 13749 16761  4253 6604 16761  1305 13749 16761  4148 15292 16838  15292 16838 16897  4321 16838 16897  2908 15292 16897  442 14319 16898  14319 16898 16899  4432 16898 16899  782 14319 16899  2482 7783 16900  6981 7783 16900  4333 6981 16900  4256 6981 7783  2913 15066 16901  15066 16890 16901  4317 16890 16901  4006 15066 16890  3710 12271 16488  12271 15184 16488  4276 15184 16488  3497 12271 15184  4265 16128 16902  16128 16735 16902  4412 16735 16902  2087 16128 16735  2911 5661 15106  5661 15106 16877  4316 5661 16877  4141 15106 16877  3893 8820 15736  5428 8820 15736  4428 5428 8820  690 5428 15736  978 10458 12866  10458 12412 12866  4366 12412 12866  973 10458 12412  4617 16903 16905  16903 16904 16905  4901 16903 16904  3839 16904 16905  807 13248 16906  13248 13760 16906  4331 13760 16906  2138 13248 13760  2510 10825 16779  10825 14513 16779  4315 14513 16779  3977 10825 14513  3237 8237 16907  8237 16907 16908  4860 16907 16908  3518 8237 16908  2526 14429 16909  14429 16909 16910  4690 16909 16910  2529 14429 16910  679 15371 16911  6571 15371 16911  4264 6571 16911  3851 6571 15371  4024 16316 16912  16316 16786 16912  4195 16786 16912  1880 16316 16786  2480 16913 16914  16157 16913 16914  4743 16157 16913  4593 16157 16914  944 9327 16532  9327 14078 16532  4347 14078 16532  942 9327 14078  2839 15211 16915  15211 16915 16916  4324 16915 16916  2076 15211 16916  1036 7266 10599  7266 10599 16760  4373 7266 16760  1034 10599 16760  3247 11353 12748  10123 11353 12748  4698 10123 11353  3248 10123 12748  421 422 16675  421 16673 16675  4326 16673 16675  420 421 16673  1545 9421 12742  9421 12742 13102  4382 12742 13102  1691 9421 13102  4470 14425 16917  11472 14425 16917  4643 11472 16917  2504 11472 14425  2863 16071 16918  9583 16071 16918  4909 9583 16918  2813 9583 16071  1505 15269 16919  15269 16919 16920  4292 16919 16920  4087 15269 16920  2909 12874 15032  12874 15032 16921  4322 12874 16921  4012 15032 16921  4012 15968 16921  15968 16921 16922  4322 16921 16922  1202 15968 16922  543 544 8312  543 8312 16923  4718 8312 16923  542 543 16923  2382 12934 13125  12934 13125 16809  4258 12934 16809  4030 13125 16809  2539 6103 15304  6103 15304 16924  4378 6103 16924  2536 15304 16924  2121 10976 16070  10976 16070 16925  4826 10976 16925  2278 16070 16925  1601 14762 16926  14762 16926 16927  4574 16926 16927  3918 14762 16927  3884 10135 15712  6335 10135 15712  4694 6335 10135  3879 6335 15712  2353 11165 16103  7331 11165 16103  4327 7331 16103  3364 7331 11165  2960 7189 15350  7189 15350 16928  4328 7189 16928  2323 15350 16928  3244 6329 16929  6329 16929 16930  4824 16929 16930  780 6329 16930  2057 15287 16931  15287 16931 16932  4230 16931 16932  2497 15287 16932  3669 7952 11529  7952 11529 16933  4335 7952 16933  3231 11529 16933  766 7003 14015  7003 14015 16934  4517 7003 16934  620 14015 16934  3561 16108 16935  16108 16935 16936  4627 16935 16936  4431 16108 16936  1359 15973 16116  15973 16116 16937  4351 16116 16937  1322 15973 16937  2573 14999 16938  14999 16938 16939  4785 16938 16939  2574 14999 16939  3824 6901 15660  6901 15660 16940  4425 6901 16940  3928 15660 16940  3927 6172 14913  6172 14792 14913  4232 6172 14792  2349 14792 14913  3602 9125 16941  9125 13547 16941  4423 13547 16941  3600 9125 13547  4313 16887 16942  16887 16942 16943  4499 16942 16943  2799 16887 16943  3955 5313 16856  5313 16856 16944  4886 16856 16944  2232 5313 16944  3988 11187 16160  6051 11187 16160  4674 6051 11187  1606 6051 16160  4025 14952 16945  14952 16931 16945  4230 16931 16945  2057 14952 16931  1178 14036 16946  14036 16946 16947  4623 16946 16947  3775 14036 16947  664 15790 16948  15790 16948 16949  4242 16948 16949  3901 15790 16949  618 14062 16950  14062 14531 16950  4517 14531 16950  3848 14062 14531  349 350 7096  349 7096 16951  4788 7096 16951  348 349 16951  3715 16952 16953  8363 16952 16953  4644 8363 16952  1310 8363 16953  3519 16954 16956  16954 16955 16956  4805 16954 16955  1804 16955 16956  2934 10325 13666  9690 10325 13666  4381 9690 13666  2406 9690 10325  1937 13871 16851  5907 13871 16851  4278 5907 16851  2359 5907 13871  4005 7838 15411  7838 15411 16957  4401 15411 16957  1519 7838 16957  4325 15977 16958  15977 16958 16959  4451 16958 16959  3160 15977 16959  4545 13501 14537  13501 14537 16960  4703 14537 16960  3361 13501 16960  666 14324 16798  14324 16798 16961  4479 16798 16961  520 14324 16961  3359 11488 16962  11488 16962 16963  4858 16962 16963  3358 11488 16963  518 14330 16964  5681 14330 16964  4479 5681 16964  784 5681 14330  2035 10096 13785  10096 13785 16965  4561 10096 16965  1730 13785 16965  522 14323 16966  5131 14323 16966  4488 5131 16966  666 5131 14323  3891 14344 16967  14344 16967 16968  4488 16967 16968  524 14344 16968  4143 14974 16969  14974 15976 16969  4325 15976 16969  2846 14974 15976  3858 6636 13526  6636 13526 16970  4699 6636 16970  2822 13526 16970  982 14501 16971  12737 14501 16971  4559 12737 16971  983 12737 14501  3489 7367 8648  7367 8648 16972  4516 7367 16972  3055 8648 16972  663 5693 16973  5693 16973 16974  4900 16973 16974  3667 5693 16974  2859 6100 13661  6100 13661 16789  4270 6100 16789  2808 13661 16789  1025 14411 16975  14411 16926 16975  4574 16926 16975  1601 14411 16926  3667 5762 16974  5762 16974 16976  4900 16974 16976  786 5762 16976  2985 7414 14490  7414 14490 16977  4543 7414 16977  2855 14490 16977  708 7599 14068  7599 13136 14068  4727 7599 13136  3818 13136 14068  2294 15376 16978  12231 15376 16978  4243 12231 16978  2362 12231 15376  3677 9759 14533  9759 14533 14584  4585 14533 14584  3306 9759 14584  1591 13220 14128  13220 14128 16979  4645 13220 16979  1016 14128 16979  3210 5424 16980  5424 16980 16981  4870 16980 16981  1001 5424 16981  4418 16982 16984  16982 16983 16984  4889 16982 16983  1616 16983 16984  2332 15394 15693  15394 15693 16719  4268 15394 16719  2330 15693 16719  2727 16076 16112  16076 16112 16362  4269 16112 16362  2714 16076 16362  2553 7053 15102  7053 15102 16985  4819 7053 16985  2554 15102 16985  715 16117 16986  16117 16986 16987  4711 16986 16987  4583 16117 16987  2387 7837 10907  7430 7837 10907  4387 7430 7837  3725 7430 10907  2585 9828 16988  9828 16218 16988  4436 16218 16988  3693 9828 16218  782 7076 16899  7076 16899 16989  4432 16899 16989  4140 7076 16989  4093 15360 16990  15360 16990 16991  4304 16990 16991  1245 15360 16991  3662 6748 12772  6748 12772 16778  4315 6748 16778  2351 12772 16778  3176 6741 16992  6741 7675 16992  4550 7675 16992  3177 6741 7675  958 12157 16993  6433 12157 16993  4567 6433 16993  956 6433 12157  2234 13418 16994  12053 13418 16994  4662 12053 16994  2235 12053 13418  3980 6064 16995  6064 16995 16996  4812 16995 16996  3675 6064 16996  4149 16585 16792  16585 16792 16997  4332 16792 16997  2329 16585 16997  892 14460 16998  14460 16998 16999  4595 16998 16999  891 14460 16999  1232 12210 16878  12210 16659 16878  4316 16659 16878  1230 12210 16659  1118 13033 14044  13033 14044 17000  4918 13033 17000  1117 14044 17000  3053 5597 15673  5597 15673 16578  4271 5597 16578  2092 15673 16578  4050 13346 15787  13346 15787 16262  4051 13346 16262  156 15787 16262  2323 16421 16928  16421 16928 17001  4328 16928 17001  4069 16421 17001  1747 12230 16891  12230 16667 16891  4317 16667 16891  1745 12230 16667  4357 17002 17003  6808 17002 17003  4416 6808 17002  790 6808 17003  2324 5802 12375  5802 12375 17004  4483 5802 17004  3779 12375 17004  4069 16570 17001  16570 17001 17005  4328 17001 17005  1724 16570 17005  2450 10142 16483  10142 16483 17006  4541 16483 17006  3371 10142 17006  610 14079 17007  14079 17007 17008  4557 17007 17008  722 14079 17008  2893 6380 11311  6380 11311 13459  4376 6380 13459  2400 11311 13459  4102 16096 16867  16096 16867 17009  4293 16867 17009  2307 16096 17009  1381 12061 16626  12061 16626 16837  4321 16626 16837  1384 12061 16837  2343 16619 17010  16619 16826 17010  4338 16826 17010  4157 16619 16826  3780 9469 17011  9469 13583 17011  4606 13583 17011  3296 9469 13583  4033 17012 17013  12028 17012 17013  4862 12028 17012  3486 12028 17013  990 10415 11145  10415 11145 12521  4388 11145 12521  984 10415 12521  1202 12044 16922  12044 15077 16922  4322 15077 16922  1043 12044 15077  808 6983 16622  6983 16622 17014  4635 16622 17014  4257 6983 17014  3321 6549 17015  6549 8357 17015  4434 8357 17015  3074 6549 8357  1614 15612 17016  15612 16127 17016  4265 16127 17016  1796 15612 16127  2522 16132 17017  16132 16868 17017  4295 16868 17017  4113 16132 16868  3587 7843 8359  7843 8359 17018  4510 8359 17018  2448 7843 17018  3584 16800 17019  12761 16800 17019  4828 12761 17019  4261 12761 16800  4109 16315 16581  16315 16525 16581  4370 16525 16581  3671 16315 16525  3826 14043 17020  14043 17020 17021  4664 17020 17021  692 14043 17021  4251 16763 17022  16763 17022 17023  4455 17022 17023  1594 16763 17023  968 9015 9442  9015 9442 16639  4375 9015 16639  975 9442 16639  3447 7349 10016  7349 10016 16745  4430 7349 16745  3950 10016 16745  4040 15110 17024  15110 16978 17024  4243 16978 17024  2294 15110 16978  3734 8347 16723  8347 16723 17025  4919 16723 17025  2527 8347 17025  2421 15826 16743  15826 16743 17026  4290 16743 17026  2422 15826 17026  2202 17027 17029  17027 17028 17029  4762 17027 17028  4519 17028 17029  4397 16345 17030  16345 17030 17031  4609 17030 17031  3751 16345 17031  2326 13393 17032  13393 16586 17032  4587 16586 17032  2483 13393 16586  3838 15143 16440  15143 16440 16822  4285 16440 16822  1464 15143 16822  1931 16535 17033  16535 16894 17033  4341 16894 17033  4155 16535 16894  2316 14435 17034  14435 17034 17035  4508 17034 17035  2053 14435 17035  4169 5431 17036  5431 16938 17036  4785 16938 17036  2573 5431 16938  2475 11394 17037  11394 17037 17038  4507 17037 17038  2474 11394 17038  4121 13910 17039  6211 13910 17039  4361 6211 17039  2365 6211 13910  1314 12988 17040  10047 12988 17040  4744 10047 17040  1313 10047 12988  1519 15960 16957  15960 16957 17041  4401 16957 17041  1518 15960 17041  2529 13259 17042  7264 13259 17042  4803 7264 17042  3963 7264 13259  4129 5544 16463  5544 16463 17043  4554 5544 17043  2733 16463 17043  3532 12420 17044  12420 16952 17044  4644 16952 17044  3715 12420 16952  4046 15386 17045  15386 17045 17046  4356 17045 17046  1396 15386 17046  1938 15527 16400  15527 16400 17047  4287 16400 17047  2368 15527 17047  1060 17048 17049  15270 17048 17049  4807 15270 17048  3798 15270 17049  1034 10447 16759  10447 12602 16759  4406 12602 16759  952 10447 12602  2367 12913 17050  6978 12913 17050  4492 6978 17050  2445 6978 12913  4345 6000 17051  6000 17051 17052  4526 17051 17052  3332 6000 17052  1439 8755 17053  8755 16954 17053  4805 16954 17053  3519 8755 16954  4248 12433 17054  12433 17054 17055  4583 17054 17055  2939 12433 17055  2754 5928 17056  5928 9766 17056  4616 9766 17056  3727 5928 9766  3957 4949 17057  4949 17057 17058  4854 17057 17058  2938 4949 17058  1260 13156 17059  12320 13156 17059  4716 12320 17059  1259 12320 13156  2295 15620 15981  15620 15981 16945  4230 15981 16945  4025 15620 16945  2287 13637 17060  13013 13637 17060  4673 13013 17060  2937 13013 13637  674 14156 14585  14156 14585 17061  4585 14585 17061  588 14156 17061  4227 8002 13913  8002 13913 17062  4352 8002 17062  3996 13913 17062  2379 14379 17063  7612 14379 17063  4298 7612 17063  2992 7612 14379  3911 8293 15799  8293 15130 15799  4750 8293 15130  1189 15130 15799  2828 9794 13114  9794 13114 13425  4362 13114 13425  2825 9794 13425  2515 14830 15742  14830 15742 17064  4440 14830 17064  2084 15742 17064  2907 4996 17065  4996 17065 17066  4908 17065 17066  4066 4996 17066  2100 14910 17067  8318 14910 17067  4393 8318 17067  2102 8318 14910  3978 13167 16079  13167 16079 17068  4273 16079 17068  2903 13167 17068  2309 15923 17069  6278 15923 17069  4384 6278 17069  2517 6278 15923  3996 15377 17062  15377 17062 17070  4352 17062 17070  1431 15377 17070  3323 10233 17071  10233 17071 17072  4794 17071 17072  4200 10233 17072  4184 12980 17073  11037 12980 17073  4535 11037 17073  2657 11037 12980  693 14368 17074  14368 17074 17075  4570 17074 17075  466 14368 17075  2471 8836 14647  8836 14647 17076  4581 8836 17076  2013 14647 17076  3098 12967 13024  12967 13024 17012  4862 12967 17012  4033 13024 17012  1326 15267 17077  15267 16984 17077  4418 16984 17077  1616 15267 16984  360 14096 17078  12405 14096 17078  4625 12405 17078  679 12405 14096  1294 9278 16844  9278 13269 16844  4433 13269 16844  1295 9278 13269  728 8621 14384  8621 14384 17079  4580 8621 17079  484 14384 17079  482 14391 17080  14391 15314 17080  4580 15314 17080  3903 14391 15314  2611 13916 17081  8425 13916 17081  4647 8425 17081  2622 8425 13916  4224 6277 16749  6277 16749 16839  4225 6277 16839  3874 16749 16839  4181 16713 17082  16713 17082 17083  4459 17082 17083  1513 16713 17083  4126 16602 17084  16602 17084 17085  4342 17084 17085  2334 16602 17085  3500 13334 16516  13334 15315 16516  4286 15315 16516  3499 13334 15315  4471 7084 17086  7084 17086 17087  4787 17086 17087  2707 7084 17087  1613 13768 15095  13768 15095 17088  4677 15095 17088  1323 13768 17088  4153 16603 16861  16603 16861 17089  4365 16861 17089  1923 16603 17089  2021 15335 17090  11418 15335 17090  4634 11418 17090  2849 11418 15335  3233 8807 17091  8807 17091 17092  4797 17091 17092  3864 8807 17092  4064 17093 17094  16482 17093 17094  4541 16482 17093  2503 16482 17094  2445 12914 17095  12914 17095 17096  4565 17095 17096  2301 12914 17096  3184 11292 17097  11292 17097 17098  4369 17097 17098  3183 11292 17098  3064 8065 17099  8065 11363 17099  4533 11363 17099  3537 8065 11363  1275 12315 13908  12315 13908 17100  4623 12315 17100  1194 13908 17100  4324 17101 17102  8111 17101 17102  4395 8111 17101  2077 8111 17102  1784 13142 15738  13142 15738 17103  4367 13142 17103  1623 15738 17103  4201 8040 16561  5816 8040 16561  4238 5816 8040  2932 5816 16561  1165 13783 17104  13783 17104 17105  4774 17104 17105  1171 13783 17105  2424 9575 14975  9575 14975 17106  4441 14975 17106  2425 9575 17106  2259 16655 16814  16655 16814 17107  4254 16814 17107  4138 16655 17107  2978 11667 13496  11667 13496 17108  4652 11667 17108  2469 13496 17108  1949 8889 16021  8889 16021 17109  4485 8889 17109  1947 16021 17109  4574 15036 16927  15036 16927 17110  4705 15036 17110  3918 16927 17110  2232 14505 16944  14505 16944 17111  4886 16944 17111  1377 14505 17111  3775 14789 16947  14789 16214 16947  4623 16214 16947  2982 14789 16214  1604 14497 15271  14497 15271 17112  4807 15271 17112  1052 14497 17112  2972 16575 17113  16575 17113 17114  4584 17113 17114  4547 16575 17114  1179 6729 10156  6729 10156 12878  4421 6729 12878  1152 10156 12878  2582 13685 16291  13685 16291 17115  4360 16291 17115  2585 13685 17115  1603 9189 14478  9189 14478 17116  4559 9189 17116  989 14478 17116  2967 12572 16348  12572 16348 17117  4915 16348 17117  2398 12572 17117  2328 15684 16795  15684 16795 17118  4323 16795 17118  2516 15684 17118  3465 11780 17119  11780 17119 17120  4801 17119 17120  125 11780 17120  1101 14389 15037  14389 15037 17121  4574 15037 17121  1031 14389 17121  3213 6507 9396  6507 9396 17122  4538 6507 17122  3214 9396 17122  2916 9887 17123  9887 17123 17124  4404 17123 17124  2917 9887 17124  2953 15702 17125  15702 17017 17125  4295 17017 17125  2522 15702 17017  2307 15770 17009  15770 16413 17009  4293 16413 17009  2318 15770 16413  3921 17126 17128  17126 17127 17128  4864 17126 17127  4785 17127 17128  604 14108 17129  4992 14108 17129  4681 4992 17129  675 4992 14108  3841 16119 17130  16119 17130 17131  4383 17130 17131  4098 16119 17131  2410 10811 12462  8819 10811 12462  4428 8819 12462  2412 8819 10811  2271 7200 12577  7200 12577 17132  4611 7200 17132  4356 12577 17132  3748 8838 12538  8838 12538 17133  4811 8838 17133  3747 12538 17133  746 13360 15125  13360 15125 17134  4374 15125 17134  3645 13360 17134  4591 17135 17137  17135 17136 17137  4907 17135 17136  1253 17136 17137  4055 16298 16823  16298 16823 17138  4285 16823 17138  2321 16298 17138  1873 10285 17139  10285 17139 17140  4867 17139 17140  3837 10285 17140  4710 17141 17143  17141 17142 17143  4812 17141 17142  1011 17142 17143  2367 17050 17144  17050 17144 17145  4740 17144 17145  4492 17050 17145  4171 16715 17146  11256 16715 17146  4259 11256 17146  2193 11256 16715  3866 14980 17147  14980 16990 17147  4304 16990 17147  4093 14980 16990  2503 6885 17094  6885 16500 17094  4260 6885 16500  4064 16500 17094  1579 16678 17148  16678 17148 17149  4311 17148 17149  4221 16678 17149  1901 15921 16154  15921 16154 17024  4243 16154 17024  4040 15921 17024  2687 13970 17150  7799 13970 17150  4691 7799 17150  2708 7799 13970  2426 9866 14070  9866 14070 17151  4594 14070 17151  3786 9866 17151  4127 16609 16870  16609 16870 17152  4313 16870 17152  2744 16609 17152  1734 16677 17153  16677 16969 17153  4325 16969 17153  4143 16677 16969  2551 15417 17154  15417 17154 17155  4546 17154 17155  2548 15417 17155  4414 13414 17156  13414 16907 17156  4860 16907 17156  3237 13414 16907  2938 14423 17058  14423 17058 17157  4854 17058 17157  3982 14423 17157  3518 15131 16908  15131 16908 17158  4860 16908 17158  1189 15131 17158  2815 13464 16177  13464 16177 17159  4912 16177 17159  2688 13464 17159  1021 8243 17160  8243 17160 17161  4391 17160 17161  3793 8243 17161  2678 8900 16077  8900 16077 17162  4494 8900 17162  2667 16077 17162  2076 15400 16916  15400 16916 17102  4324 16916 17102  2077 15400 17102  3747 8500 17133  8500 17133 17163  4811 17133 17163  1795 8500 17163  2179 7767 13438  7767 13438 17164  4704 7767 17164  1871 13438 17164  2277 13667 16852  7416 13667 16852  4301 7416 16852  3032 7416 13667  808 6982 15080  6982 15080 16906  4331 6982 16906  807 15080 16906  2844 14924 17165  14924 17165 17166  4930 17165 17166  3704 14924 17166  2744 14977 17152  14977 16886 17152  4313 16886 17152  2746 14977 16886  2915 15622 17167  15622 16538 17167  4303 16538 17167  2455 15622 16538  4226 6525 8003  6525 8003 16768  4227 8003 16768  3069 6525 16768  2903 14845 17068  11293 14845 17068  4273 11293 17068  3811 11293 14845  2501 16616 17168  16616 16903 17168  4901 16903 17168  4617 16616 16903  2521 15114 17169  15114 17169 17170  4711 17169 17170  2952 15114 17170  2393 13091 16853  13091 16550 16853  4350 16550 16853  2394 13091 16550  1622 5354 10279  5354 8204 10279  4542 5354 8204  1474 8204 10279  3910 13618 16186  6559 13618 16186  4312 6559 16186  2794 6559 13618  1023 14099 17171  12770 14099 17171  4645 12770 17171  1029 12770 14099  4 5 17172  4 16657 17172  4802 16657 17172  0 4 16657  2377 14374 17173  14374 17173 17174  4337 17173 17174  2379 14374 17174  49 11844 14904  11844 14904 16428  4353 14904 16428  752 11844 16428  4370 16526 16842  16526 16842 17175  4695 16842 17175  753 16526 17175  3225 13647 16183  13647 16183 17176  4791 16183 17176  2862 13647 17176  2809 16062 16151  16062 16151 16836  4300 16151 16836  2806 16062 16836  1171 17105 17178  17105 17177 17178  4774 17105 17177  4122 17177 17178  4059 15370 17179  15370 17016 17179  4265 17016 17179  1614 15370 17016  4672 12019 17180  12019 16353 17180  4843 16353 17180  1324 12019 16353  2499 16528 17181  8222 16528 17181  4294 8222 17181  4133 8222 16528  2298 13899 16397  13899 16397 17182  4343 16397 17182  2371 13899 17182  2365 13803 17183  13803 17183 17184  4752 17183 17184  2081 13803 17184  1960 16644 17185  16644 17185 17186  4439 17185 17186  4208 16644 17186  2060 16611 17187  16611 17187 17188  4473 17187 17188  4213 16611 17188  3392 7556 8196  7556 8196 14715  4654 8196 14715  2475 7556 14715  3878 17189 17191  17189 17190 17191  4713 17189 17190  4507 17190 17191  2053 15403 17192  15403 16900 17192  4333 16900 17192  2482 15403 16900  2320 6727 17193  6727 16754 17193  4869 6727 16754  4847 16754 17193  3641 16604 17194  16604 16772 17194  4573 16772 17194  4296 16604 16772  2364 15383 17195  10803 15383 17195  4458 10803 17195  3071 10803 15383  4066 14782 17066  14782 17066 17196  4908 17066 17196  4065 14782 17196  2551 17197 17198  15515 17197 17198  4852 15515 17197  4615 15515 17198  3291 11182 16771  11182 16771 17199  4719 16771 17199  4111 11182 17199  694 8080 17200  8080 17200 17201  4709 17200 17201  3804 8080 17201  598 14129 17202  13480 14129 17202  4883 13480 17202  724 13480 14129  3528 12658 16245  12658 16245 17203  4899 12658 17203  4549 16245 17203  1287 15882 16142  15882 16142 16600  4308 16142 16600  1285 15882 16600  767 14142 16189  14142 16189 17204  4799 16189 17204  592 14142 17204  4087 16206 16920  16206 16240 16920  4292 16240 16920  2319 16206 16240  766 5969 17205  5969 17205 17206  4841 17205 17206  3733 5969 17206  3661 10310 17207  6743 10310 17207  4712 6743 17207  1468 6743 10310  590 14155 17208  14155 16808 17208  4799 16808 17208  674 14155 16808  2260 8572 14277  6882 8572 14277  4739 6882 8572  3256 6882 14277  2334 14804 17085  14804 17085 17209  4342 17085 17209  2951 14804 17209  2191 15745 17210  15745 16159 17210  4593 16159 17210  3235 15745 16159  3804 11229 17211  11229 16580 17211  4305 16580 17211  2254 11229 16580  2924 14719 17212  14719 17212 17213  4459 17212 17213  2895 14719 17213  2285 5787 17214  5787 8652 17214  4640 8652 17214  3975 5787 8652  2280 9859 16848  9859 10000 16848  4503 10000 16848  3491 9859 10000  2642 15945 17215  15945 17215 17216  4601 17215 17216  2644 15945 17216  1358 6950 12034  6950 12034 15306  4355 6950 15306  867 12034 15306  2811 13809 17217  13809 17217 17218  4806 17217 17218  2814 13809 17218  4307 14670 17219  14670 16325 17219  4884 16325 17219  3426 14670 16325  2219 17220 17222  17220 17221 17222  4764 17220 17221  4635 17221 17222  3 304 16709  304 16709 17223  4816 16709 17223  303 304 17223  2889 13780 17224  11107 13780 17224  4842 11107 17224  3163 11107 13780  931 16106 17225  16106 16185 17225  4312 16185 17225  3967 16106 16185  727 7586 14376  7586 14376 17226  4763 7586 17226  472 14376 17226  691 5630 14322  5630 14322 17227  4770 5630 17227  446 14322 17227  2221 15209 17228  14811 15209 17228  4348 14811 17228  1830 14811 15209  2677 11657 17229  11657 17229 17230  4415 17229 17230  4106 11657 17230  4226 7860 17231  7860 17034 17231  4508 17034 17231  2316 7860 17034  4701 16409 17232  10210 16409 17232  4878 10210 17232  3483 10210 16409  3802 16300 17233  16300 17233 17234  4690 17233 17234  4481 16300 17234  458 14339 17235  14339 16973 17235  4900 16973 17235  663 14339 16973  786 14356 16976  14356 16976 17236  4900 16976 17236  460 14356 17236  2293 15309 17237  15309 17237 17238  4765 17237 17238  4426 15309 17238  4130 15342 16739  15342 16729 16739  4390 16729 16739  3766 15342 16729  4267 14695 17239  14695 17239 17240  4389 17239 17240  2179 14695 17240  15 16311 17241  16311 17054 17241  4583 17054 17241  4248 16311 17054  1245 16198 16991  16198 16776 16991  4304 16776 16991  3990 16198 16776  4365 16376 17242  15631 16376 17242  4477 15631 17242  2414 15631 16376  4193 7627 11450  7627 11450 17243  4449 7627 17243  778 11450 17243  694 14372 16326  14372 16326 17244  4884 16326 17244  490 14372 17244  2235 12928 17245  12928 17245 17246  4552 17245 17246  3814 12928 17246  1610 15533 17247  6174 15533 17247  4539 6174 17247  1776 6174 15533  2448 14742 17248  14742 16398 17248  4344 16398 17248  2446 14742 16398  3566 14299 17249  14299 17249 17250  4837 17249 17250  3567 14299 17250  2052 12096 13988  12096 12957 13988  4422 12957 13988  1896 12096 12957  4098 14465 17131  14465 17131 17251  4383 17131 17251  2289 14465 17251  4360 7934 17115  7934 16988 17115  4436 7934 16988  2585 16988 17115  3368 7227 8298  7227 8298 8571  4739 7227 8571  3229 8298 8571  2584 15793 17252  15793 16614 17252  4668 16614 17252  2583 15793 16614  3909 15283 17253  15283 17153 17253  4325 17153 17253  1734 15283 17153  145 146 17254  145 17254 17255  4339 17254 17255  144 145 17255  2575 15578 17256  15578 17256 17257  4600 17256 17257  2572 15578 17257  2468 15230 16490  8274 15230 16490  4475 8274 16490  4264 8274 15230  2854 13869 17258  13869 16804 17258  4543 16804 17258  3927 13869 16804  2527 15157 17025  15157 17025 17259  4919 17025 17259  2524 15157 17259  3961 16135 16711  16135 16711 17148  4311 16711 17148  1579 16135 17148  2460 13620 17260  5183 13620 17260  4586 5183 17260  3223 5183 13620  2422 15827 17261  15827 16833 17261  4323 16833 17261  1995 15827 16833  2820 6357 14621  6357 12351 14621  4540 6357 12351  2798 12351 14621  2895 16365 17213  16365 17082 17213  4459 17082 17213  4181 16365 17082  160 15823 16865  15823 16865 17262  4346 16865 17262  740 15823 17262  1731 11210 16035  11210 16035 17263  4589 11210 17263  1729 16035 17263  2160 9627 17264  9627 17264 17265  4832 17264 17265  1878 9627 17265  3214 9397 17266  9397 17266 17267  4871 17266 17267  1759 9397 17267  154 16263 16461  12644 16263 16461  4051 12644 16263  730 12644 16461  894 16080 17268  16080 17268 17269  4595 17268 17269  4206 16080 17269  3795 7114 14398  7114 14398 17270  4748 7114 17270  732 14398 17270  2545 15137 16693  15137 16388 16693  4334 16388 16693  2546 15137 16388  118 119 17271  118 15764 17271  4443 15764 17271  117 118 15764  4497 12166 14907  12166 14907 17272  4684 14907 17272  3339 12166 17272  2346 8379 10442  8379 10442 17273  4661 8379 17273  3943 10442 17273  4170 16697 17274  16697 17274 17275  4483 17274 17275  2051 16697 17275  4334 16389 17276  16389 17276 17277  4431 17276 17277  2549 16389 17277  4144 14956 16846  14956 16344 16846  4397 16344 16846  3752 14956 16344  2001 14428 17278  8380 14428 17278  4642 8380 17278  2260 8380 14428  3567 17250 17280  17250 17279 17280  4837 17250 17279  3778 17279 17280  3020 8612 15460  8612 15460 17281  4670 8612 17281  2899 15460 17281  3571 5649 17282  5649 17282 17283  4925 17282 17283  2063 5649 17283  1612 5863 17284  5863 12323 17284  4708 12323 17284  3936 5863 12323  1002 12293 17285  12293 17071 17285  4794 17071 17285  3323 12293 17071  4033 14721 17286  14721 17286 17287  4883 17286 17287  600 14721 17287  1724 15867 17005  7535 15867 17005  4328 7535 17005  2003 7535 15867  2634 16869 17288  16869 16942 17288  4499 16942 17288  4313 16869 16942  2329 15851 16997  15851 16276 16997  4332 16276 16997  2331 15851 16276  2851 16153 17289  16153 17179 17289  4265 17179 17289  4059 16153 17179  3643 11556 17290  11556 15657 17290  4450 15657 17290  714 11556 15657  698 8419 17291  8419 17291 17292  4547 17291 17292  3625 8419 17292  3332 8674 17052  8674 12794 17052  4526 12794 17052  3333 8674 12794  2880 15895 17293  6921 15895 17293  4641 6921 17293  2956 6921 15895  778 15733 17243  5772 15733 17243  4449 5772 17243  3887 5772 15733  1638 15899 17294  10999 15899 17294  4497 10999 17294  1962 10999 15899  2202 14449 17029  14449 17029 17295  4519 17029 17295  2201 14449 17295  4079 16781 17296  16781 17296 17297  4758 17296 17297  4628 16781 17297  4690 16910 17298  16910 17042 17298  4803 17042 17298  2529 16910 17042  702 16333 17299  16333 17299 17300  4575 17299 17300  4218 16333 17300  3135 10913 15644  10913 15427 15644  4933 15427 15644  2968 10913 15427  4154 13955 16559  13955 16559 16919  4292 13955 16919  1505 16559 16919  722 14080 15996  14080 15996 16299  4371 15996 16299  608 14080 16299  2906 16884 17301  16884 17022 17301  4455 17022 17301  4251 16884 17022  1116 11718 17302  11718 13178 17302  4453 13178 17302  850 11718 13178  4392 16576 17304  16576 17303 17304  4547 16576 17303  4161 17303 17304  2890 16041 17305  16041 17305 17306  4703 17305 17306  2892 16041 17306  3088 8911 15378  8911 13154 15378  4902 8911 13154  4065 13154 15378  2345 16014 16233  16014 16233 17010  4338 16233 17010  2343 16014 17010  3079 4993 16700  4993 16256 16700  4681 4993 16256  4371 16256 16700  2851 17289 17307  16902 17289 17307  4412 16902 17307  4265 16902 17289  4219 11269 16152  11269 16152 17308  4588 11269 17308  3579 16152 17308  854 11721 15257  11721 15257 17160  4391 15257 17160  1021 11721 17160  2523 16552 17309  16552 17309 17310  4692 17309 17310  4399 16552 17310  28 29 14982  28 14982 16287  4468 14982 16287  27 28 16287  3053 5598 17311  5598 17311 17312  4765 17311 17312  4196 5598 17312  2835 6232 11096  6232 11096 14121  4420 6232 14121  2395 11096 14121  3529 16540 17313  16540 17313 17314  4779 17313 17314  4599 16540 17314  1933 16044 16314  16044 16314 17033  4341 16314 17033  1931 16044 17033  3054 15647 17315  15647 17311 17315  4765 17311 17315  3053 15647 17311  3188 11006 17316  11006 14421 17316  4650 14421 17316  3190 11006 14421  3005 11232 13531  11232 13531 17317  4429 13531 17317  3749 11232 17317  4065 15379 17196  15379 17196 17318  4908 17196 17318  2245 15379 17318  668 6627 17319  6627 12517 17319  4629 12517 17319  3776 6627 12517  1233 7572 14589  7572 14589 17320  4741 7572 17320  1227 14589 17320  2493 13152 14161  13152 14161 17321  4875 13152 17321  4032 14161 17321  3653 8782 11475  8782 11475 17322  4410 8782 17322  3482 11475 17322  4124 6961 16246  6961 16246 17323  4549 16246 17323  1019 6961 17323  4104 16485 17324  16485 17324 17325  4413 17324 17325  2269 16485 17325  3385 8306 15610  8306 15610 17326  4892 8306 17326  4675 15610 17326  3431 6902 8992  6902 8992 17327  4888 8992 17327  3432 6902 17327  3904 13918 17328  13918 17328 17329  4415 17328 17329  4192 13918 17329  3406 6887 16492  6887 16492 17330  4887 16492 17330  745 6887 17330  3612 12578 13601  12578 13601 17045  4356 12578 17045  4046 13601 17045  1753 6541 17331  6541 15050 17331  4620 15050 17331  3541 6541 15050  3138 7079 17332  7079 13221 17332  4890 13221 17332  3139 7079 13221  3262 5132 7511  5132 7511 16967  4488 5132 16967  3891 7511 16967  1054 14491 17333  14491 17048 17333  4807 17048 17333  1060 14491 17048  3549 8477 9169  8477 9169 17334  4655 8477 17334  3458 9169 17334  1396 14755 17046  14755 17046 17335  4356 17046 17335  3800 14755 17335  2540 15914 17336  15914 17336 17337  4856 17336 17337  2539 15914 17337  1019 14928 17323  14928 17323 17338  4549 17323 17338  1007 14928 17338  1928 15521 17339  15521 17214 17339  4640 17214 17339  2285 15521 17214  4293 16414 17340  16414 17340 17341  4481 17340 17341  2525 16414 17341  3952 7638 14525  7638 12900 14525  4368 7638 12900  1598 12900 14525  3014 8981 13882  8981 13882 17342  4512 13882 17342  3013 8981 17342  4635 17221 17344  17221 17343 17344  4764 17221 17343  3131 17343 17344  2555 6673 15466  6673 15466 17345  4852 6673 17345  2552 15466 17345  1379 14506 17346  14506 16855 17346  4886 16855 17346  1385 14506 16855  1322 13709 16937  6689 13709 16937  4351 6689 16937  1609 6689 13709  731 7122 16512  7122 16512 17347  4801 16512 17347  4562 7122 17347  4579 16364 17348  13549 16364 17348  4904 13549 17348  2950 13549 16364  3878 15668 17191  15668 17191 17349  4507 17191 17349  704 15668 17349  673 16197 17350  16197 16757 17350  4496 16757 17350  4089 16197 16757  2563 5352 15518  5352 15518 16725  4358 5352 16725  2560 15518 16725  3327 14527 16780  14527 16780 17351  4482 16780 17351  4210 14527 17351  3693 11174 16217  11174 16217 17352  4464 16217 17352  3123 11174 17352  4208 15133 17186  15133 17186 17353  4439 17186 17353  3803 15133 17353  2564 15915 17354  15915 17354 17355  4891 17354 17355  2563 15915 17355  2579 10211 15564  10211 15564 17356  4878 10211 17356  2576 15564 17356  2256 5743 17357  5743 16327 17357  4906 16327 17357  3933 5743 16327  3049 11513 14773  7596 11513 14773  4857 7596 11513  3297 7596 14773  2379 17063 17174  17063 17174 17358  4337 17174 17358  4298 17063 17358  2254 11508 16579  11508 16137 16579  4417 16137 16579  2196 11508 16137  2907 14707 17359  14707 17301 17359  4455 17301 17359  2906 14707 17301  2194 5048 17360  5048 16506 17360  4793 16506 17360  4049 5048 16506  2479 9521 11550  9521 11550 17361  4889 11550 17361  3639 9521 17361  1763 6258 13604  6258 13604 17362  4618 13604 17362  3906 6258 17362  4020 16476 17363  16476 17039 17363  4361 17039 17363  4121 16476 17039  2480 16307 16914  16307 16914 17364  4593 16914 17364  4563 16307 17364  4194 8825 11157  8825 11157 17365  4656 8825 17365  3158 11157 17365  3248 12749 17366  12749 17366 17367  4474 17366 17367  3246 12749 17367  1577 15297 16403  15297 16403 17368  4384 16403 17368  4145 15297 17368  1273 13488 16451  13488 16451 17369  4380 16451 17369  1279 13488 17369  3174 7759 9094  7759 9094 17370  4696 7759 17370  3176 9094 17370  2547 16293 16557  14426 16293 16557  4512 14426 16557  4070 14426 16293  3779 15658 17004  15658 17004 17274  4483 17004 17274  4170 15658 17274  3691 12180 13233  5993 12180 13233  4405 5993 12180  3885 5993 13233  3756 7361 17371  7361 17371 17372  4774 17371 17372  1164 7361 17372  829 9250 16210  9250 14872 16210  4478 14872 16210  827 9250 14872  3159 15363 16438  15363 16438 17373  4613 16438 17373  2845 15363 17373  725 15514 17374  15514 17374 17375  4349 17374 17375  3861 15514 17375  4175 14354 17376  14354 17376 17377  4424 17376 17377  3850 14354 17377  1132 15054 17378  15054 17378 17379  4918 17378 17379  3930 15054 17379  3318 13537 16630  5876 13537 16630  4558 5876 16630  4297 5876 13537  2462 9546 11899  9546 11899 16274  4527 11899 16274  2947 9546 16274  4158 16279 16750  12789 16279 16750  4330 12789 16750  2217 12789 16279  2566 13860 16502  13860 16502 17380  4442 16502 17380  2569 13860 17380  2818 13262 17381  13262 17381 17382  4724 17381 17382  2965 13262 17382  475 476 7220  475 7220 16889  4438 7220 16889  474 475 16889  4216 16332 17383  16332 17383 17384  4625 17383 17384  362 16332 17384  2201 11932 17295  11932 17295 17385  4519 17295 17385  2933 11932 17385  2814 5368 16150  5368 16150 17386  4454 5368 17386  4300 16150 17386  3652 8502 16091  8502 16091 17387  4608 16091 17387  1494 8502 17387  3847 7882 17388  7882 17388 17389  4751 17388 17389  3548 7882 17389  3906 15256 17362  15256 17362 17390  4618 17362 17390  3245 15256 17390  2375 14314 17391  14314 17391 17392  4386 17391 17392  2377 14314 17392  1296 15552 17393  15552 17053 17393  4805 17053 17393  1439 15552 17053  3335 5207 17394  5207 17394 17395  4834 17394 17395  2509 5207 17395  3511 6413 7213  6413 7213 17396  4535 6413 17396  2876 7213 17396  4519 17028 17398  17028 17397 17398  4762 17028 17397  3044 17397 17398  3759 7523 17399  7523 17399 17400  4500 17399 17400  772 7523 17400  3773 11559 17401  11559 14748 17401  4466 14748 17401  3197 11559 14748  4213 14202 17188  14202 16801 17188  4473 16801 17188  3658 14202 16801  784 12795 15760  12795 15760 17402  4526 12795 17402  3894 15760 17402  4165 12654 16229  12654 14035 16229  4537 12654 14035  2032 14035 16229  2419 16830 17403  16495 16830 17403  4409 16495 17403  4247 16495 16830  1378 10543 17404  10543 12639 17404  4927 12639 17404  1376 10543 12639  1923 15954 17089  15954 16375 17089  4365 16375 17089  1965 15954 16375  1222 9716 17405  9716 17405 17406  4783 17405 17406  1228 9716 17406  1778 14146 15609  14146 15609 17407  4435 15609 17407  2019 14146 17407  1776 8653 15534  8653 15534 17408  4640 8653 17408  1774 15534 17408  2301 11770 17409  11770 12274 17409  4520 12274 17409  2300 11770 12274  2796 11988 13902  11988 13902 17410  4521 13902 17410  2955 11988 17410  3803 13046 17353  13046 17353 17411  4439 17353 17411  3797 13046 17411  2372 13846 16546  13846 16546 17412  4398 16546 17412  2375 13846 17412  4142 16819 17413  16819 16941 17413  4423 16941 17413  3602 16819 16941  443 444 17414  443 16898 17414  4432 16898 17414  442 443 16898  4711 17170 17415  17170 17415 17416  4895 17415 17416  2952 17170 17416  1027 10540 11297  10540 11297 13001  4522 11297 13001  1022 10540 13001  3057 11287 17417  11287 12618 17417  4736 12618 17417  3019 11287 12618  743 8416 17418  8416 17418 17419  4646 17418 17419  3624 8416 17419  3446 8275 8758  8275 8758 14848  4475 8275 14848  2283 8758 14848  2839 17420 17421  16676 17420 17421  4445 16676 17420  4372 16676 17421  2836 6242 11081  6242 7072 11081  4511 6242 7072  2835 7072 11081  1225 16374 17422  16374 17422 17423  4741 17422 17423  4183 16374 17423  4304 16777 17424  16777 17424 17425  4563 17424 17425  2458 16777 17425  3230 16104 17426  16104 16124 17426  4729 16124 17426  4467 16104 16124  3400 8860 17427  8860 11160 17427  4651 11160 17427  3543 8860 11160  4099 16319 16593  16319 16593 17428  4571 16593 17428  3832 16319 17428  3576 12478 17429  8906 12478 17429  4818 8906 17429  2181 8906 12478  2511 12105 16130  12105 16130 17430  4649 12105 17430  4493 16130 17430  4376 13460 17431  13460 16285 17431  4810 16285 17431  2500 13460 16285  4332 16277 17432  14424 16277 17432  4470 14424 17432  2354 14424 16277  1431 15340 17070  15340 17070 17433  4352 17070 17433  4094 15340 17433  3456 6336 12245  6336 12245 17434  4694 6336 17434  4404 12245 17434  2261 17435 17437  17435 17436 17437  4536 17435 17436  4451 17436 17437  3791 14766 17438  14766 16845 17438  4397 16845 17438  1119 14766 16845  2073 14706 17439  14706 17065 17439  4908 17065 17439  2907 14706 17065  272 273 16322  272 14991 16322  4523 14991 16322  271 272 14991  1361 14817 17440  14817 17284 17440  4708 17284 17440  1612 14817 17284  2302 11744 15326  7854 11744 15326  4905 7854 11744  3081 7854 15326  4279 16714 17441  16714 17441 17442  4557 17441 17442  612 16714 17442  3897 14042 17443  6915 14042 17443  4345 6915 17443  3826 6915 14042  4451 16959 17436  16959 17436 17444  4536 17436 17444  3160 16959 17444  3399 8654 12814  8654 12814 17445  4863 12814 17445  3400 8654 17445  252 253 16261  252 14843 16261  4531 14843 16261  251 252 14843  4512 16556 17342  16556 17342 17446  4546 16556 17446  3013 17342 17446  119 17271 17447  16467 17271 17447  4572 16467 17447  4443 16467 17271  1159 5980 16460  5980 16460 17448  4299 5980 17448  4241 16460 17448  2826 11916 16109  11916 16109 17449  4431 16109 17449  2829 11916 17449  3722 12872 16689  12872 15436 16689  4456 15436 16689  3721 12872 15436  3894 15776 17450  15776 17443 17450  4345 17443 17450  3897 15776 17443  3639 8142 17361  8142 16982 17361  4889 16982 17361  4418 8142 16982  3302 6676 14820  6676 14820 16802  4749 14820 16802  3540 6676 16802  4262 16496 17451  16496 17451 17452  4608 17451 17452  4017 16496 17452  2106 15530 17453  15530 17067 17453  4393 17067 17453  2100 15530 17067  740 17262 17454  5752 17262 17454  4346 5752 17262  4281 5752 17454  3554 8551 15215  8551 15215 17455  4833 15215 17455  1782 8551 17455  3664 10051 17456  10051 17456 17457  4822 17456 17457  3429 10051 17457  3869 15604 17458  15604 17458 17459  4369 17458 17459  702 15604 17459  2432 13533 16232  13533 16232 17460  4472 13533 17460  4338 16232 17460  3928 13741 16940  13741 15241 16940  4425 15241 16940  3819 13741 15241  3560 8184 17461  8184 17461 17462  4780 17461 17462  747 8184 17462  3849 15285 17463  15285 17130 17463  4383 17130 17463  3841 15285 17130  742 15017 15667  15017 15667 17363  4361 15667 17363  4020 15017 17363  2251 15020 17464  15020 16821 17464  4394 16821 17464  1935 15020 16821  2392 13138 17465  13138 17465 17466  4796 17465 17466  3818 13138 17466  2199 14448 16672  14448 16672 17467  4403 16672 17467  2202 14448 17467  4241 7156 17448  7156 12297 17448  4299 12297 17448  2487 7156 12297  2036 15294 17468  15294 17360 17468  4793 17360 17468  2194 15294 17360  1518 14680 17041  14680 17041 17469  4401 17041 17469  1523 14680 17469  3456 5855 17470  5855 17470 17471  4713 17470 17471  775 5855 17471  1219 8087 10850  8087 10850 17405  4783 8087 17405  1222 10850 17405  3530 13005 14520  13005 14520 17313  4779 13005 17313  3529 14520 17313  1228 9461 15150  5674 9461 15150  4666 5674 15150  3277 5674 9461  3274 12329 17472  12329 17020 17472  4664 17020 17472  3826 12329 17020  812 10761 16131  10761 16131 16452  4493 16131 16452  814 10761 16452  705 7885 17473  7885 17011 17473  4606 17011 17473  3780 7885 17011  2377 17173 17392  16653 17173 17392  4386 16653 17392  4337 16653 17173  4398 10843 16590  10843 16590 17207  4712 16590 17207  3661 10843 17207  4415 17230 17474  17230 17474 17475  4760 17474 17475  4106 17230 17475  902 10357 13884  10357 12923 13884  4560 12923 13884  900 10357 12923  2498 14834 16790  14834 16790 17476  4411 16790 17476  2499 14834 17476  3763 14509 14957  14509 14957 17324  4413 14509 17324  4104 14957 17324  2112 15146 17477  15146 17357 17477  4906 17357 17477  2256 15146 17357  1280 13422 16524  13422 16524 17077  4418 16524 17077  1326 13422 17077  676 16574 16605  16574 16605 17478  4296 16605 17478  4115 16574 17478  2335 15079 15393  15079 15393 17479  4461 15079 17479  4268 15393 17479  777 7419 17480  7419 16110 17480  4577 16110 17480  3769 7419 16110  3883 7344 15706  7344 12597 15706  4605 7344 12597  779 12597 15706  3521 9991 16832  9991 12759 16832  4755 12759 16832  2977 9991 12759  1400 15385 17481  14906 15385 17481  4684 14906 17481  4097 14906 15385  1253 14605 17482  14605 16766 17482  4407 16766 17482  1221 14605 16766  2084 13634 17064  13634 17064 17483  4440 17064 17483  2480 13634 17483  2946 11132 11444  11132 11444 17484  4728 11444 17484  3550 11132 17484  2536 15922 16924  7306 15922 16924  4378 7306 16924  2535 7306 15922  3865 6558 15554  6558 15554 17485  4687 6558 17485  769 15554 17485  4004 16284 17486  16284 17056 17486  4616 17056 17486  2754 16284 17056  3793 14674 17161  5529 14674 17161  4391 5529 17161  2973 5529 14674  3462 7184 13484  7184 13484 17487  4402 7184 17487  3843 13484 17487  3786 7808 17151  7808 17151 17488  4594 17151 17488  703 7808 17488  88 89 14776  88 14776 16234  4545 14776 16234  87 88 16234  1971 7602 8878  6405 7602 8878  4848 6405 8878  3286 6405 7602  4068 14886 17489  14886 16905 17489  4617 16905 17489  3839 14886 16905  4584 17490 17491  17418 17490 17491  4646 17418 17490  743 17418 17491  3414 11568 17492  11568 14673 17492  4454 14673 17492  687 11568 14673  4627 16806 17493  6635 16806 17493  4699 6635 17493  2553 6635 16806  2452 16313 17494  16313 17494 17495  4498 17494 17495  4341 16313 17495  3150 7000 17496  7000 17496 17497  4777 17496 17497  3149 7000 17497  795 17498 17499  8826 17498 17499  4339 8826 17498  4194 8826 17499  3183 9751 17500  9751 16862 17500  4757 16862 17500  3255 9751 16862  4115 16497 17478  16497 16885 17478  4296 16885 17478  2344 16497 16885  3519 6896 17501  6896 16962 17501  4858 16962 17501  3359 6896 16962  3501 16133 17502  16133 17101 17502  4395 16133 17101  4324 17101 17502  4417 16138 17503  16138 17398 17503  4519 17398 17503  3044 16138 17398  4221 16392 17149  16392 17149 17504  4311 17149 17504  2457 16392 17504  3590 6020 17505  6020 17505 17506  4745 17505 17506  3964 6020 17506  2150 15234 17507  8305 15234 17507  4892 8305 17507  2346 8305 15234  3843 15207 17487  15207 17487 17508  4402 17487 17508  720 15207 17508  3866 17147 17509  17147 17424 17509  4563 17424 17509  4304 17147 17424  4173 15105 17510  15105 17510 17511  4446 17510 17511  2122 15105 17511  1494 16728 17387  16728 17387 17451  4608 17387 17451  4262 16728 17451  2839 16915 17421  16915 17421 17512  4372 17421 17512  4324 16915 17512  1804 15532 16955  15532 16955 17513  4805 16955 17513  1191 15532 17513  730 12643 15438  7519 12643 15438  4786 7519 12643  3721 7519 15438  2840 11424 17514  11340 11424 17514  4518 11340 17514  2841 11340 11424  470 16450 17515  16450 17515 17516  4763 17515 17516  4250 16450 17516  2449 15041 17517  15041 17403 17517  4409 17403 17517  2419 15041 17403  3805 12142 16301  12142 16301 17518  4481 16301 17518  1578 12142 17518  1804 16956 17519  16956 17501 17519  4858 17501 17519  3519 16956 17501  721 14067 17520  14067 16473 17520  4437 16473 17520  352 14067 16473  2965 6876 13572  6876 13572 16548  4457 6876 16548  3929 13572 16548  519 520 16961  519 16961 16964  4479 16961 16964  518 519 16964  3226 9357 17521  9357 13772 17521  4740 13772 17521  917 9357 13772  3595 7131 8286  7131 8286 16648  4747 7131 16648  750 8286 16648  2429 13231 15186  7787 13231 15186  4501 7787 15186  3089 7787 13231  4178 9549 16565  9549 16565 16737  4354 9549 16737  2438 16565 16737  2221 17228 17522  7074 17228 17522  4597 7074 17522  4348 7074 17228  4686 16522 17524  16522 17523 17524  4873 16522 17523  3712 17523 17524  2829 15565 17449  15565 17276 17449  4431 17276 17449  4334 15565 17276  1189 14596 17525  14596 16788 17525  4414 16788 17525  1149 14596 16788  4003 16236 17526  16236 17526 17527  4389 17526 17527  2488 16236 17527  2924 6080 17212  6080 17212 17528  4569 6080 17528  4459 17212 17528  670 16387 17529  16387 17529 17530  4650 17529 17530  4176 16387 17530  3909 17253 17531  16958 17253 17531  4451 16958 17531  4325 16958 17253  3445 5294 17532  5294 17532 17533  4800 17532 17533  721 5294 17533  1578 16866 17518  16866 17340 17518  4481 17340 17518  4293 16866 17340  523 524 16968  523 16966 16968  4488 16966 16968  522 523 16966  2914 14898 15051  14898 15051 17534  4620 15051 17534  2913 14898 17534  2269 14768 17325  5206 14768 17325  4413 5206 17325  2509 5206 14768  464 16896 17535  16896 17535 17536  4570 17535 17536  4306 16896 17536  1607 16141 17537  16141 17537 17538  4424 17537 17538  4308 16141 17538  3750 6420 14149  6420 14149 17420  4445 6420 17420  2839 14149 17420  3299 9333 17539  6917 9333 17539  4830 6917 17539  3298 6917 9333  1645 14579 16793  14579 16793 17540  4427 16793 17540  1853 14579 17540  4435 7216 17407  7216 17407 17541  4638 7216 17541  2019 17407 17541  1623 16156 17103  16156 17103 17542  4367 17103 17542  4086 16156 17542  2563 5353 17355  5353 17355 17543  4891 17355 17543  4335 5353 17543  787 15803 17544  13665 15803 17544  4381 13665 17544  3900 13665 15803  1331 8749 16643  8749 16643 17524  4686 16643 17524  3712 8749 17524  3494 10378 11775  10378 11775 16337  4525 11775 16337  3493 10378 16337  712 8401 17545  8401 11698 17545  4758 11698 17545  3617 8401 11698  2783 15225 17546  15225 17546 17547  4509 17546 17547  4095 15225 17547  4420 14122 17548  7698 14122 17548  4861 7698 17548  2397 7698 14122  2928 6087 15459  6087 8877 15459  4848 6087 8877  3020 8877 15459  3055 9347 17549  7043 9347 17549  4836 7043 17549  2467 7043 9347  1624 10656 17550  7621 10656 17550  4461 7621 17550  3765 7621 10656  3486 13481 17013  13481 17013 17286  4883 13481 17286  4033 17013 17286  2916 17123 17551  14414 17123 17551  4631 14414 17551  4404 14414 17123  1134 10796 15061  10796 15061 16340  4619 15061 16340  1141 10796 16340  2413 9840 12156  9840 12156 16881  4462 9840 16881  2411 12156 16881  4018 16272 17552  15705 16272 17552  4400 15705 17552  2276 15705 16272  151 152 17553  151 16688 17553  4456 16688 17553  150 151 16688  3902 7857 15804  7857 15804 17200  4709 7857 17200  694 15804 17200  2852 12544 14713  12544 14713 17554  4659 14713 17554  4057 12544 17554  3072 8926 15666  8926 15666 17307  4412 8926 17307  2851 15666 17307  1795 10773 17163  10773 13445 17163  4811 13445 17163  3772 10773 13445  1856 17555 17556  7876 17555 17556  4663 7876 17555  4633 7876 17556  3983 8301 17557  8301 8763 17557  4555 8763 17557  3615 8301 8763  2539 7206 17337  7206 17337 17558  4856 17337 17558  4363 7206 17558  660 12348 16658  12348 16658 17559  4802 16658 17559  794 12348 17559  2531 5066 15243  5066 15243 16854  4447 5066 16854  2528 15243 16854  663 5877 15769  5877 15769 17560  4558 5877 17560  3898 15769 17560  3860 11348 17561  11348 17015 17561  4434 17015 17561  3321 11348 17015  4094 16140 17433  7858 16140 17433  4352 7858 17433  2316 7858 16140  1174 15801 17562  15801 17413 17562  4423 17413 17562  4142 15801 17413  4281 17454 17563  17454 17563 17564  4827 17563 17564  740 17454 17564  4075 12695 17565  12695 17288 17565  4499 17288 17565  2634 12695 17288  4324 17502 17512  16391 17502 17512  4372 16391 17512  3501 16391 17502  2799 12904 16943  12904 16943 17566  4499 16943 17566  4053 12904 17566  4036 12511 14972  12511 14972 16521  4873 14972 16521  2922 12511 16521  4431 16936 17277  16936 17277 17567  4627 16936 17567  2549 17277 17567  4195 13721 17568  5710 13721 17568  4544 5710 17568  3001 5710 13721  3207 8753 9678  8753 9678 17569  4907 8753 17569  3208 9678 17569  4547 17114 17292  17114 17292 17570  4584 17114 17570  3625 17292 17570  2814 5728 17218  5728 17218 17571  4806 17218 17571  4374 5728 17571  2375 17391 17412  10842 17391 17412  4398 10842 17412  4386 10842 17391  2229 11870 14569  11870 14569 17332  4890 14569 17332  3138 11870 17332  2865 5379 16278  5379 16278 17304  4392 5379 17304  4161 16278 17304  2517 6209 15924  6209 13286 15924  4419 6209 13286  2310 13286 15924  730 15437 16462  15437 16462 17553  4456 15437 17553  152 16462 17553  4340 15331 17572  15331 17572 17573  4676 17572 17573  2306 15331 17573  4100 15310 16429  15310 15844 16429  4426 15310 15844  752 15844 16429  120 121 14862  120 14862 17447  4572 14862 17447  119 120 17447  1856 9837 17556  9837 12125 17556  4633 12125 17556  3366 9837 12125  4145 16443 17368  16443 17069 17368  4384 17069 17368  2309 16443 17069  1605 10951 14965  8498 10951 14965  4534 8498 14965  1795 8498 10951  2514 11815 16352  11815 13339 16352  4576 13339 16352  2513 11815 13339  1099 16148 17574  16148 17574 17575  4533 17574 17575  3986 16148 17575  719 15200 17576  15200 17576 17577  4399 17576 17577  3718 15200 17577  4609 17031 17578  17031 17578 17579  4867 17578 17579  3751 17031 17579  619 620 16934  619 16934 16950  4517 16934 16950  618 619 16950  4648 8578 17580  8578 17165 17580  4930 17165 17580  2844 8578 17165  1869 16168 16631  7975 16168 16631  4452 7975 16631  3991 7975 16168  3930 5182 17379  5182 13032 17379  4918 13032 17379  3283 5182 13032  4011 15701 17581  15701 17185 17581  4439 17185 17581  1960 15701 17185  3845 15204 17582  15204 17205 17582  4841 17205 17582  766 15204 17205  3761 16860 17583  16860 17242 17583  4477 17242 17583  4365 16860 17242  3565 12965 17584  12965 16457 17584  4498 16457 17584  1318 12965 16457  3208 6863 17569  6863 17135 17569  4907 17135 17569  4591 6863 17135  3133 9499 14618  9499 14618 17426  4729 14618 17426  3230 9499 17426  1385 16625 17585  16625 17585 17586  4579 17585 17586  4321 16625 17586  3995 16169 17587  16169 17229 17587  4415 17229 17587  2677 16169 17229  4183 11343 16368  11343 16368 17137  4591 11343 17137  1253 16368 17137  3757 16439 16687  16439 16687 17588  4529 16687 17588  4285 16439 17588  4314 16797 16876  16797 16876 17589  4751 16876 17589  1111 16797 17589  3625 11757 17570  11757 17491 17570  4584 17491 17570  743 11757 17491  3904 17328 17590  17328 17474 17590  4760 17474 17590  4415 17328 17474  4383 7174 17251  7174 17251 17591  4840 7174 17591  2289 17251 17591  688 17592 17594  17592 17593 17594  4922 17592 17593  4753 17593 17594  3718 11593 17595  11593 13116 17595  4692 13116 17595  759 11593 13116  4206 14475 17269  14475 17269 17596  4595 17269 17596  3067 14475 17596  1956 15766 16717  15766 16349 16717  4469 16349 16717  1958 15766 16349  3730 14244 15426  14244 15426 17597  4446 15426 17597  3932 14244 17597  2461 15544 17598  15544 17598 17599  4911 17598 17599  4034 15544 17599  4524 7257 17601  7257 17600 17601  4844 7257 17600  2957 17600 17601  3241 17602 17603  10330 17602 17603  4707 10330 17602  4607 10330 17603  16 17 16118  16 16118 17241  4583 16118 17241  15 16 17241  2982 9820 16213  9820 12120 16213  4630 12120 16213  2477 9820 12120  4210 14878 17351  14878 16072 17351  4482 16072 17351  3581 14878 16072  3246 12687 17604  12687 16929 17604  4824 16929 17604  3244 12687 16929  1185 9927 15611  9927 15611 17605  4675 15611 17605  3257 9927 17605  4192 16879 17329  16879 17329 17587  4415 17329 17587  3995 16879 17587  4285 17138 17588  17138 17588 17606  4529 17588 17606  2321 17138 17606  1878 10979 17265  10979 12624 17265  4832 12624 17265  1660 10979 12624  1136 9764 17607  9764 13866 17607  4671 13866 17607  1125 9764 13866  2810 15982 16504  15982 16410 16504  4465 16410 16504  2812 15982 16410  747 11840 17608  11840 17194 17608  4573 17194 17608  3641 11840 17194  1399 8706 12037  8706 12037 17609  4730 8706 17609  1398 12037 17609  3045 15057 17610  15057 17195 17610  4458 17195 17610  2364 15057 17195  4218 12161 17300  12161 17300 17611  4575 17300 17611  3488 12161 17611  3984 13245 17612  13245 17612 17613  4874 17612 17613  2820 13245 17613  4081 15218 17614  15218 17614 17615  4429 17614 17615  711 15218 17615  4183 11344 17423  7571 11344 17423  4741 7571 17423  3146 7571 11344  3723 12811 13429  12811 13429 17616  4678 12811 17616  3150 13429 17616  4424 17377 17617  17377 17617 17618  4775 17617 17618  3850 17377 17618  4235 9550 16613  9550 16613 16738  4390 9550 16738  1183 16613 16738  706 15711 17619  7342 15711 17619  4772 7342 17619  3883 7342 15711  3917 13577 16669  13577 16669 17601  4524 16669 17601  2957 13577 17601  3271 8780 17620  8780 14495 17620  4717 14495 17620  3270 8780 14495  2449 17621 17623  17621 17622 17623  4896 17621 17622  4850 17622 17623  1615 8777 17624  8777 13004 17624  4779 13004 17624  3711 8777 13004  2516 15685 17625  6104 15685 17625  4463 6104 17625  2515 6104 15685  2488 16329 17527  16329 17239 17527  4389 17239 17527  4267 16329 17239  2166 8469 16769  8469 16769 17626  4725 8469 17626  4636 16769 17626  1607 17537 17627  17537 17617 17627  4775 17617 17627  4424 17537 17617  4295 15010 17628  15010 16527 17628  4658 16527 17628  3466 15010 16527  4300 16567 17386  16567 17386 17492  4454 17386 17492  3414 16567 17492  3579 12078 17308  12078 17308 17629  4588 17308 17629  2291 12078 17629  4525 16338 17630  11209 16338 17630  4589 11209 17630  3496 11209 16338  4008 13404 17631  8371 13404 17631  4505 8371 17631  684 8371 13404  488 16831 17632  16831 17219 17632  4884 17219 17632  4307 16831 17219  1754 9341 9729  9341 9729 17633  4592 9729 17633  3319 9341 17633  2496 6111 13727  6111 7209 13727  4504 6111 7209  2444 7209 13727  2997 7574 16180  7574 16180 17634  4817 7574 17634  4682 16180 17634  3986 12607 17575  12607 17099 17575  4533 17099 17575  3064 12607 17099  143 144 17635  143 17635 17636  795 17635 17636  142 143 17636  2970 17637 17638  17490 17637 17638  4646 17490 17637  4584 17490 17638  3468 8827 17639  8827 17639 17640  4922 17639 17640  3469 8827 17640  1313 11942 15825  11942 15825 17641  4693 11942 17641  3940 15825 17641  2519 5594 17642  5594 17461 17642  4780 17461 17642  3560 5594 17461  2970 9176 17638  9176 17113 17638  4584 17113 17638  2972 9176 17113  4114 11083 17643  11083 17576 17643  4399 17576 17643  719 11083 17576  4450 6210 17644  6210 17183 17644  4752 17183 17644  2365 6210 17183  4205 6781 17645  6781 17645 17646  4797 17645 17646  2905 6781 17646  1513 15892 17083  15892 17083 17647  4459 17083 17647  1515 15892 17647  2317 16297 16553  16297 16553 17643  4399 16553 17643  4114 16297 17643  2439 16045 16465  16045 16465 16829  4484 16465 16829  2437 16045 16829  3311 8871 12286  8871 12286 17648  4872 8871 17648  4198 12286 17648  2502 16736 17649  16736 17376 17649  4424 17376 17649  4175 16736 17376  3655 11683 17650  11683 17650 17651  4822 17650 17651  2795 11683 17651  3339 6563 17272  6563 17272 17652  4684 17272 17652  4611 6563 17652  1136 17607 17653  14445 17607 17653  4847 14445 17653  4671 14445 17607  2795 11704 17654  11704 16841 17654  4695 16841 17654  3636 11704 16841  2054 9655 12393  9187 9655 12393  4556 9187 9655  3576 9187 12393  2952 15250 17416  15250 16211 17416  4895 16211 17416  3024 15250 16211  3167 12746 16304  5550 12746 16304  4598 5550 16304  3170 5550 12746  2947 12459 16273  12459 16273 17383  4625 16273 17383  4216 12459 17383  3152 12075 16102  12075 16102 17655  4866 12075 17655  4327 16102 17655  2873 12094 17656  12094 14597 17656  4604 14597 17656  2872 12094 14597  4091 16149 17657  16149 17657 17658  4720 17657 17658  1628 16149 17658  2420 15040 16503  15040 16503 17659  4487 16503 17659  2449 15040 17659  3443 15677 16201  6503 15677 16201  4471 6503 16201  3442 6503 15677  4298 16638 17358  11925 16638 17358  4337 11925 17358  3349 11925 16638  3510 7286 8687  7286 8687 17660  4759 7286 17660  1116 8687 17660  3970 16129 16432  16129 16432 17143  4710 16432 17143  1011 16129 17143  3084 14018 16767  14018 16767 17661  4562 16767 17661  3465 14018 17661  1947 13717 17109  7157 13717 17109  4485 7157 17109  2075 7157 13717  1466 15998 16453  15998 16115 16453  4490 16115 16453  1359 15998 16115  1970 15717 17662  15717 17662 17663  4855 17662 17663  4076 15717 17663  2571 16339 17664  8814 16339 17664  4410 8814 17664  4063 8814 16339  2945 10427 13200  10427 13200 17665  4669 13200 17665  3427 10427 17665  671 15543 17666  15543 17561 17666  4434 17561 17666  3860 15543 17561  1612 5862 14203  5862 14203 17583  4477 5862 17583  3761 14203 17583  4101 10331 13351  8068 10331 13351  4707 8068 10331  696 8068 13351  2189 9976 17667  9976 16099 17667  4648 16099 17667  2190 9976 16099  4498 16458 17668  16458 17249 17668  4837 17249 17668  3566 16458 17249  2869 11119 15446  11119 15446 17187  4473 11119 17187  2060 15446 17187  2474 10131 17669  10131 17470 17669  4713 17470 17669  3456 10131 17470  4140 15008 16989  15008 16989 17670  4432 16989 17670  3666 15008 17670  2905 14489 17671  6612 14489 17671  4506 6612 17671  2985 6612 14489  3654 11962 16695  5988 11962 16695  4540 5988 16695  749 5988 11962  2953 17125 17672  17125 17628 17672  4658 17628 17672  4295 17125 17628  3932 16751 17597  16751 17510 17597  4446 17510 17597  4173 16751 17510  4152 16203 17673  8692 16203 17673  4408 8692 17673  962 8692 16203  1594 16597 17023  16597 17023 17674  4455 17023 17674  4163 16597 17674  3330 8016 16519  8016 16519 17675  4903 16519 17675  4513 8016 17675  3256 14278 17676  14278 17435 17676  4536 17435 17676  2261 14278 17435  1051 10507 14519  10507 13169 14519  4715 13169 14519  1049 10507 13169  4492 16170 17145  16170 17145 17521  4740 17145 17521  3226 16170 17521  713 16280 17677  16280 17677 17678  4820 17677 17678  4283 16280 17678  3814 16710 17246  16710 17246 17679  4552 17246 17679  4311 16710 17679  3872 15664 17680  15664 17319 17680  4629 17319 17680  668 15664 17319  3921 16731 17128  16731 17036 17128  4785 17036 17128  4169 16731 17036  2955 9005 17681  9005 17505 17681  4745 17505 17681  3590 9005 17505  4250 16582 17516  7585 16582 17516  4763 7585 17516  3117 7585 16582  2667 13903 17162  9554 13903 17162  4494 9554 17162  2783 9554 13903  4588 15063 17629  15063 17629 17682  4859 15063 17682  2291 17629 17682  3367 9008 17683  9008 17683 17684  4766 17683 17684  3485 9008 17684  2363 6531 15980  6531 15980 17685  4513 6531 17685  4230 15980 17685  3955 13550 16857  13550 16857 17686  4904 13550 17686  1385 16857 17686  3219 9310 10028  9310 10028 17687  4767 10028 17687  2901 9310 17687  2711 16268 17688  8794 16268 17688  4464 8794 17688  4014 8794 16268  4205 7737 16818  7737 16818 17689  4732 7737 17689  672 16818 17689  3172 9588 14408  9588 9688 14408  4792 9688 14408  3171 9588 9688  1066 9756 13029  8910 9756 13029  4902 8910 13029  1527 8910 9756  611 612 17442  611 17007 17442  4557 17007 17442  610 611 17007  710 9815 13610  9815 13610 17690  4916 9815 17690  4319 13610 17690  3837 17140 17691  17140 17578 17691  4867 17140 17578  4609 17578 17691  3432 13241 17692  13241 17441 17692  4557 17441 17692  4279 13241 17441  2464 12304 16893  12304 13398 16893  4530 13398 16893  2969 12304 13398  4317 16668 17693  16668 17331 17693  4620 17331 17693  1753 16668 17331  3675 8515 16996  8515 16996 17694  4812 16996 17694  3674 8515 17694  4035 8339 10125  8339 10125 17695  4772 8339 17695  3248 10125 17695  3586 8315 11416  8315 11416 17019  4828 8315 17019  3584 11416 17019  892 7180 16998  7180 16998 17696  4821 7180 17696  4595 16998 17696  3726 11605 17697  11337 11605 17697  4578 11337 17697  3463 11337 11605  3151 5901 17698  5901 9052 17698  4916 9052 17698  4022 5901 9052  1681 15608 16694  15608 16694 17699  4714 16694 17699  3952 15608 17699  2405 13388 16361  13388 16361 17700  4495 13388 17700  4123 16361 17700  2322 16145 16324  16145 16324 17701  4502 16324 17701  4151 16145 17701  4507 17038 17190  17038 17190 17669  4713 17190 17669  2474 17038 17669  2465 16892 17702  16892 17702 17703  4610 17702 17703  4530 16892 17703  2759 12430 17704  12430 17612 17704  4874 17612 17704  3984 12430 17612  1646 16791 17705  16791 17432 17705  4470 17432 17705  4332 16791 17432  3674 9945 17706  9945 17706 17707  4710 17706 17707  2941 9945 17707  2051 15886 17275  6047 15886 17275  4483 6047 17275  2949 6047 15886  3027 9217 17708  5849 9217 17708  4893 5849 17708  3026 5849 9217  2782 11699 15166  11699 15166 17296  4758 11699 17296  4079 15166 17296  2867 12480 17709  12480 14689 17709  4614 14689 17709  2305 12480 14689  4123 15613 17700  15613 17700 17710  4495 17700 17710  1275 15613 17710  3791 17438 17711  17030 17438 17711  4609 17030 17711  4397 17030 17438  3609 6358 11510  6358 11510 17712  4674 6358 17712  2873 11510 17712  4176 14727 17530  14727 17316 17530  4650 17316 17530  3188 14727 17316  3898 12004 17560  12004 16629 17560  4558 16629 17560  2989 12004 16629  3889 15718 17713  15718 17713 17714  4474 17713 17714  706 15718 17714  2476 7753 10343  7753 10343 10831  4556 7753 10831  3194 10343 10831  3952 7639 17699  7639 16357 17699  4714 16357 17699  2927 7639 16357  1174 17562 17715  16662 17562 17715  4637 16662 17715  4423 16662 17562  2855 13235 16977  13235 16977 17258  4543 16977 17258  2854 13235 17258  2996 9970 16181  9970 16181 17716  4682 16181 17716  3046 9970 17716  3548 13270 17389  13270 16875 17389  4751 16875 17389  3547 13270 16875  3993 16196 17717  16196 17705 17717  4470 17705 17717  1646 16196 17705  3358 16323 16963  16323 16963 17718  4858 16963 17718  4502 16323 17718  2941 12138 17719  12138 16306 17719  4657 16306 17719  2940 12138 16306  163 164 17720  163 17720 17721  790 17720 17721  162 163 17721  1030 9573 15958  5960 9573 15958  4809 5960 15958  3320 5960 9573  3273 12208 17722  12208 17472 17722  4664 17472 17722  3274 12208 17472  3257 17605 17724  17605 17723 17724  4675 17605 17723  4597 17723 17724  735 6538 11636  6538 11636 14030  4685 6538 14030  127 11636 14030  3674 17694 17706  17141 17694 17706  4812 17141 17694  4710 17141 17706  1259 12322 16172  12322 16172 17557  4555 12322 17557  3983 16172 17557  931 17225 17725  16377 17225 17725  4789 16377 17725  4312 16377 17225  3982 15425 17157  15425 17157 17726  4854 17157 17726  4446 15425 17726  2430 12918 16773  12918 16773 17727  4573 16773 17727  4052 12918 17727  4400 5396 17728  5396 7940 17728  4689 7940 17728  3076 5396 7940  2801 7029 12888  7029 12888 17486  4616 7029 17486  4004 12888 17486  989 12073 17116  12073 16971 17116  4559 16971 17116  982 12073 16971  3013 9320 17729  9320 15540 17729  4615 15540 17729  3011 9320 15540  3242 8069 11533  8069 11533 17602  4707 8069 17602  3241 11533 17602  2908 8914 17730  8914 16363 17730  4579 16363 17730  4045 8914 16363  3785 6178 12542  6178 12542 17551  4631 6178 17551  2916 12542 17551  4767 16242 17687  16242 17687 17731  4870 16242 17731  2901 17687 17731  3130 11027 17732  11027 17732 17733  4928 17732 17733  3129 11027 17733  2575 17256 17734  17256 17734 17735  4701 17734 17735  4600 17256 17735  1842 16235 17736  16235 17736 17737  4472 17736 17737  3997 16235 17737  2840 17514 17738  6005 17514 17738  4679 6005 17738  4518 6005 17514  2873 17656 17712  11186 17656 17712  4674 11186 17712  4604 11186 17656  3825 6286 17739  6286 17704 17739  4874 17704 17739  2759 6286 17704  1110 9435 10564  9435 10564 13546  4742 9435 13546  1098 10564 13546  465 466 17075  465 17075 17535  4570 17075 17535  464 465 17535  3896 7576 17740  7576 17722 17740  4664 17722 17740  3273 7576 17722  4462 16882 17741  16882 17741 17742  4592 17741 17742  2478 16882 17742  2995 10407 12726  10407 12726 17532  4800 12726 17532  3445 10407 17532  3639 9522 10955  9522 10955 14660  4920 10955 14660  3638 9522 14660  4311 17504 17679  17504 17679 17743  4552 17679 17743  2457 17504 17743  1963 9919 12611  9919 12567 12611  4782 12567 12611  1761 9919 12567  3943 12667 17273  12667 15268 17273  4661 15268 17273  3382 12667 15268  4401 16635 17469  16635 17469 17744  4539 16635 17744  1523 17469 17744  3647 10053 12790  10053 12790 17745  4660 10053 17745  3825 12790 17745  4338 16827 17460  16827 17460 17736  4472 17460 17736  1842 16827 17736  3047 12484 14455  12484 14455 17746  4520 12484 17746  2959 14455 17746  2907 4995 17359  4995 17359 17747  4586 4995 17747  4455 17359 17747  3856 15502 17748  15502 17350 17748  4496 17350 17748  673 15502 17350  2570 13835 16828  5244 13835 16828  4624 5244 16828  2573 5244 13835  3696 10646 13617  10646 13617 15498  4723 13617 15498  1886 10646 15498  483 484 17079  483 17079 17080  4580 17079 17080  482 483 17080  1382 9744 17749  9744 17404 17749  4927 17404 17749  1378 9744 17404  2856 6663 12418  6663 12418 17555  4663 6663 17555  1856 12418 17555  4232 12777 14793  12777 14793 17750  4651 12777 17750  2350 14793 17750  3429 5466 17457  5466 17457 17650  4822 17457 17650  3655 5466 17650  4095 16098 17547  5105 16098 17547  4509 5105 17547  3099 5105 16098  760 7178 16536  7178 16536 17254  4339 7178 17254  146 16536 17254  587 588 17061  587 14532 17061  4585 14532 17061  586 587 14532  2816 10881 17751  10881 17637 17751  4646 17637 17751  2970 10881 17637  3837 13756 17691  13756 17691 17752  4609 17691 17752  4180 13756 17752  2251 17464 17753  15794 17464 17753  4553 15794 17753  4394 15794 17464  2010 7821 12628  5999 7821 12628  4885 5999 12628  3332 5999 7821  2967 17754 17756  17754 17755 17756  4820 17754 17755  4564 17755 17756  664 16948 17757  12741 16948 17757  4771 12741 17757  4242 12741 16948  4234 16764 17758  16764 17531 17758  4451 17531 17758  3909 16764 17531  1031 12047 17121  12047 16975 17121  4574 16975 17121  1025 12047 16975  4057 8235 17554  8235 17554 17759  4659 17554 17759  773 8235 17759  2491 14806 16840  14806 16840 17760  4548 16840 17760  2493 14806 17760  4224 14716 17761  14716 17037 17761  4507 17037 17761  2475 14716 17037  783 5537 16191  5537 16191 17762  4578 5537 17762  4166 16191 17762  4111 12893 17199  12893 17199 17763  4719 17199 17763  667 12893 17763  2320 11023 17193  11023 17193 17653  4847 17193 17653  1136 11023 17653  4259 15195 17764  8886 15195 17764  4448 8886 17764  3253 8886 15195  3749 14711 17317  14711 17317 17614  4429 17317 17614  4081 14711 17614  2867 17709 17765  16164 17709 17765  4655 16164 17765  4614 16164 17709  4341 16895 17495  16895 17495 17584  4498 17495 17584  3565 16895 17584  2837 11835 12481  11835 12481 13931  4602 12481 13931  3097 11835 13931  2861 15477 17766  11009 15477 17766  4839 11009 17766  3006 11009 15477  3607 12590 17767  12590 17767 17768  4612 17767 17768  4037 12590 17768  980 16088 17769  7982 16088 17769  4521 7982 17769  3959 7982 16088  3750 6421 17770  6421 17139 17770  4867 17139 17770  1873 6421 17139  1523 14639 17744  14639 17247 17744  4539 17247 17744  1610 14639 17247  3827 14892 17771  6660 14892 17771  4532 6660 17771  701 6660 14892  3847 7881 15325  7881 15325 17772  4514 7881 17772  1101 15325 17772  4306 13356 17536  13356 17536 17773  4570 17536 17773  3027 13356 17773  2733 15805 17043  15805 16493 17043  4554 16493 17043  2741 15805 16493  3923 14301 16554  14301 16554 17673  4408 14301 17673  4152 16554 17673  1759 12183 17267  12183 16815 17267  4871 16815 17267  3120 12183 16815  4459 17528 17647  17528 17647 17774  4569 17528 17774  1515 17647 17774  4242 16949 17775  16949 17775 17776  4932 17775 17776  3901 16949 17776  4024 16912 17777  16912 17568 17777  4544 17568 17777  4195 16912 17568  4308 16670 17538  16670 17538 17649  4424 17538 17649  2502 16670 17649  1278 11432 16354  11432 16354 16681  4843 16354 16681  1277 11432 16681  3016 9035 14783  9035 14783 16411  4738 14783 16411  3018 9035 16411  2289 9899 17591  9899 13843 17591  4840 13843 17591  2130 9899 13843  4088 15288 17778  15288 17778 17779  4515 17778 17779  1265 15288 17779  3458 13747 17334  13747 17334 17765  4655 17334 17765  2867 13747 17765  2965 6877 17382  6877 17382 17780  4724 17382 17780  4442 6877 17780  3694 14671 16571  14671 16571 17777  4544 16571 17777  4024 14671 17777  2362 14840 17781  5804 14840 17781  4528 5804 17781  2363 5804 14840  4126 17084 17782  17084 17782 17783  4853 17782 17783  4342 17084 17783  3408 11521 16549  5137 11521 16549  4790 5137 16549  3724 5137 11521  3160 15348 17444  15348 17444 17784  4536 17444 17784  3161 15348 17784  3112 11276 13290  11276 13290 17785  4850 13290 17785  3111 11276 17785  2019 14327 17541  5324 14327 17541  4638 5324 17541  2409 5324 14327  3451 6486 14508  6486 14508 16726  4568 6486 16726  3449 14508 16726  772 15653 17400  15653 17400 17786  4500 17400 17786  3872 15653 17786  755 12277 17787  12277 13939 17787  4706 13939 17787  3681 12277 13939  2391 12764 15253  7598 12764 15253  4727 7598 15253  3522 7598 12764  1730 16067 16965  16067 16594 16965  4561 16594 16965  1732 16067 16594  3158 13070 17365  13070 14703 17365  4656 14703 17365  2931 13070 14703  4592 15988 17742  15988 17742 17788  4882 15988 17788  2478 17742 17788  2457 15126 17743  15126 17743 17789  4552 17743 17789  2860 15126 17789  3706 12223 15202  12223 15202 17220  4764 15202 17220  2219 12223 17220  3482 10606 17790  10606 16408 17790  4701 16408 17790  3481 10606 16408  4310 7290 17791  7290 17791 17792  4634 17791 17792  2237 7290 17792  3488 8868 17793  6544 8868 17793  4688 6544 17793  3087 6544 8868  2976 6065 16637  6065 16251 16637  4804 16251 16637  4177 6065 16251  2944 10213 17794  5723 10213 17794  4726 5723 17794  2943 5723 10213  3184 17097 17795  17097 17795 17796  4575 17795 17796  4369 17097 17796  361 362 17384  361 17078 17384  4625 17078 17384  360 361 17078  891 11945 16999  11945 16999 17268  4595 16999 17268  894 11945 17268  3707 12262 16430  12262 16430 17797  4599 16430 17797  1615 12262 17797  1194 11838 17100  11838 16946 17100  4623 16946 17100  1178 11838 16946  4753 6529 17593  6529 17593 17639  4922 17593 17639  3468 6529 17639  3400 17427 17445  17427 17445 17798  4863 17445 17798  4651 17427 17798  3265 13345 15042  8340 13345 15042  4605 8340 15042  4035 8340 13345  3036 5287 13981  5287 13981 16872  4680 5287 16872  2742 13981 16872  444 17414 17799  17414 17799 17800  4770 17799 17800  4432 17414 17800  3778 6650 17279  6650 17279 17801  4837 17279 17801  2452 6650 17801  2960 7190 17802  7190 17802 17803  4722 17802 17803  4139 7190 17803  3619 11753 13625  11753 13625 17804  4628 13625 17804  712 11753 17804  704 16748 17349  16748 17349 17761  4507 17349 17761  4224 16748 17761  4305 16724 17805  7856 16724 17805  4709 7856 17805  2934 7856 16724  2711 17688 17806  17688 17806 17807  4612 17806 17807  4464 17688 17807  2571 17664 17808  17664 17808 17809  4600 17808 17809  4410 17664 17809  3728 5503 13938  5503 13938 17810  4754 13938 17810  669 5503 17810  1007 15569 17338  15569 17338 17811  4549 17338 17811  1310 15569 17811  2898 17812 17813  13386 17812 17813  4670 13386 17812  4448 13386 17813  3425 9083 17814  6399 9083 17814  4737 6399 17814  4084 6399 9083  124 125 17120  124 16511 17120  4801 16511 17120  123 124 16511  2490 15296 17815  15296 17753 17815  4553 17753 17815  2251 15296 17753  2013 13430 17076  13430 17076 17816  4581 17076 17816  2012 13430 17816  2020 11281 16770  11281 16489 16770  4636 16489 16770  2468 11281 16489  665 15952 17817  15952 17093 17817  4541 17093 17817  4064 15952 17093  4399 17310 17577  17310 17577 17595  4692 17310 17595  3718 17577 17595  4367 17542 17818  17542 17818 17819  4626 17818 17819  4086 17542 17819  2207 6536 16850  6536 16317 16850  4501 6536 16317  4278 16317 16850  96 97 14734  96 14734 16470  4931 14734 16470  95 96 16470  2898 16684 17813  16684 17813 17820  4448 17813 17820  4171 16684 17820  2795 17651 17654  17651 17654 17821  4822 17651 17821  4695 17654 17821  2056 14461 14747  14461 14747 17822  4683 14747 17822  4160 14461 17822  3111 11918 17823  11918 14545 17823  4896 14545 17823  1706 11918 14545  4185 17824 17825  17732 17824 17825  4928 17732 17824  3130 17732 17825  785 7893 16144  7893 16144 17826  4717 7893 17826  4137 16144 17826  2548 15896 17155  15896 16555 17155  4546 16555 17155  2547 15896 16555  3410 11271 17827  10085 11271 17827  4649 10085 17827  733 10085 11271  248 249 16544  248 5726 16544  4917 5726 16544  247 248 5726  962 14552 16359  14552 16359 16993  4567 16359 16993  958 14552 16993  4785 17127 17829  17127 17828 17829  4864 17127 17828  2577 17828 17829  3093 12380 17830  12380 17830 17831  4827 17830 17831  3815 12380 17831  4197 13292 17832  13292 17285 17832  4794 17285 17832  1002 13292 17285  692 15763 17021  15763 17021 17740  4664 17021 17740  3896 15763 17740  4513 17675 17833  6363 17675 17833  4903 6363 17675  2497 6363 17833  1016 11830 16979  11830 16979 17171  4645 16979 17171  1023 11830 17171  3132 10589 11316  10589 11316 17834  4880 10589 17834  3130 11316 17834  2219 13399 17222  13399 16621 17222  4635 16621 17222  3835 13399 16621  165 166 17835  165 17835 17836  4357 17835 17836  164 165 17836  1986 13450 16308  13450 16308 17509  4563 16308 17509  3866 13450 17509  2458 13630 17837  13630 17210 17837  4593 17210 17837  2191 13630 17210  3782 8942 17838  8942 17838 17839  4894 17838 17839  2929 8942 17839  4139 14912 17803  14912 16784 17803  4722 16784 17803  3350 14912 16784  2122 6499 17840  6499 17057 17840  4854 17057 17840  3957 6499 17057  4097 14908 16260  14908 16260 17294  4497 14908 17294  1638 16260 17294  776 12497 14272  12497 14272 16796  4590 12497 16796  546 14272 16796  4289 9556 16448  9556 16448 17546  4509 16448 17546  2783 9556 17546  2901 12144 17731  12144 16980 17731  4870 16980 17731  3210 12144 16980  3732 11319 16640  11319 16640 17841  4716 16640 17841  4515 11319 17841  2075 5385 13718  5385 13718 16859  4731 5385 16859  1810 13718 16859  1527 12163 16417  12163 16417 17394  4834 16417 17394  3335 12163 17394  2838 14056 17842  14056 16701 17842  4639 16701 17842  2118 14056 16701  2850 16499 17843  16499 17832 17843  4794 17832 17843  4197 16499 17832  3940 11701 17641  11438 11701 17641  4693 11438 17641  3572 11438 11701  954 14563 16820  8070 14563 16820  4621 8070 16820  1209 8070 14563  2882 15744 17844  15744 17032 17844  4587 17032 17844  2326 15744 17032  824 9136 15152  9136 15152 16683  4825 15152 16683  826 9136 16683  1557 14549 17845  11203 14549 17845  4610 11203 17845  3591 11203 14549  4151 16588 17701  16588 17701 17846  4502 17701 17846  1804 16588 17846  4675 17326 17848  17326 17847 17848  4892 17326 17847  2481 17847 17848  4236 16380 17849  16380 16708 17849  4816 16708 17849  306 16380 16708  725 17374 17850  17374 17850 17851  4736 17850 17851  4349 17374 17851  3067 9599 17852  9599 14542 17852  4821 14542 17852  3063 9599 14542  3918 12403 17110  11710 12403 17110  4705 11710 17110  2942 11710 12403  2668 9603 16666  9603 14562 16666  4815 14562 16666  2651 9603 14562  4850 17622 17785  17622 17785 17823  4896 17622 17823  3111 17785 17823  2235 12052 17245  12052 17245 17853  4769 12052 17853  4552 17245 17853  1478 12199 17854  12199 16746 17854  4929 16746 17854  3153 12199 16746  4164 15290 17855  15290 17855 17856  4564 17855 17856  713 15290 17856  1515 15928 17774  15928 16740 17774  4569 16740 17774  1517 15928 16740  2496 6112 17857  6112 17857 17858  4855 17857 17858  3773 6112 17858  4042 12548 17859  12548 17627 17859  4775 17627 17859  1607 12548 17627  747 17462 17608  17462 17608 17860  4780 17462 17860  4573 17608 17860  3678 16720 17861  16720 17849 17861  4816 17849 17861  4236 16720 17849  2676 12846 13566  12846 13566 17215  4601 12846 17215  2642 13566 17215  2237 13131 17792  13131 17090 17792  4634 17090 17792  2021 13131 17090  4171 17146 17820  17146 17764 17820  4448 17764 17820  4259 17146 17764  2959 15349 17862  15349 17862 17863  4565 17862 17863  2960 15349 17863  2465 17702 17864  16543 17702 17864  4897 16543 17864  4610 16543 17702  4411 16803 17476  16803 17476 17865  4749 16803 17865  2499 17476 17865  4349 16294 17375  16294 17375 17866  4768 16294 17866  3861 17375 17866  4122 5982 17177  5982 17177 17371  4774 17177 17371  3756 5982 17371  4268 16664 17479  16664 17479 17550  4461 17479 17550  1624 16664 17550  2398 11176 17117  11176 12924 17117  4915 12924 17117  3771 11176 12924  4564 17756 17867  14934 17756 17867  4728 14934 17867  2967 14934 17756  4481 17234 17341  17234 17341 17868  4690 17234 17868  2525 17341 17868  1103 13166 17869  13166 17838 17869  4894 17838 17869  3782 13166 17838  605 606 16257  605 16257 17129  4681 16257 17129  604 605 17129  4597 7075 17723  7075 17723 17848  4675 17723 17848  2481 7075 17848  4455 17674 17747  17674 17747 17870  4586 17747 17870  4163 17674 17870  4217 12232 17871  12232 17781 17871  4528 17781 17871  2362 12232 17781  3131 11315 17343  11315 15201 17343  4764 15201 17343  3132 11315 15201  2933 16513 17385  16513 17385 17503  4519 17385 17503  4417 16513 17503  2261 16674 17437  16674 17437 17758  4451 17437 17758  4234 16674 17758  4321 16897 17586  16897 17586 17730  4579 17586 17730  2908 16897 17730  3774 14915 17872  10094 14915 17872  4678 10094 17872  2035 10094 14915  3039 6371 15509  6371 6930 15509  4582 6371 6930  3038 6930 15509  3624 11756 17873  11756 15344 17873  4846 15344 17873  709 11756 15344  4528 6333 17874  6333 17874 17875  4868 17874 17875  1138 6333 17875  3832 15194 17428  6338 15194 17428  4571 6338 17428  699 6338 15194  2986 11492 17876  11492 15753 17876  4733 15753 17876  2987 11492 15753  723 8839 16350  8839 12458 16350  4566 8839 12458  4216 12458 16350  4520 17746 17877  17746 17862 17877  4565 17862 17877  2959 17746 17862  3029 14446 16283  14446 16283 16756  4847 14446 16756  4011 16283 16756  2980 5675 12299  5675 11665 12299  4666 5675 11665  2978 11665 12299  4651 17750 17798  17750 17798 17878  4863 17798 17878  2350 17750 17878  2924 6081 17879  6081 8463 17879  4923 8463 17879  3973 6081 8463  2941 17707 17719  16431 17707 17719  4710 16431 17707  4657 16431 17719  2574 13796 16939  13796 16939 17829  4785 16939 17829  2577 13796 17829  1729 13722 17263  13722 17263 17880  4589 17263 17880  1917 13722 17880  3869 17458 17881  17458 17881 17882  4757 17881 17882  4369 17458 17882  4254 17107 17883  17107 17883 17884  4773 17883 17884  4138 17107 17884  4075 17565 17885  17565 17885 17886  4735 17885 17886  4499 17565 17886  3123 11299 17887  10152 11299 17887  4823 10152 17887  3122 10152 11299  2321 16702 17606  8083 16702 17606  4529 8083 17606  4246 8083 16702  3849 17463 17888  7175 17463 17888  4817 7175 17888  4383 7175 17463  980 17769 17889  17769 17889 17890  4745 17889 17890  4521 17769 17890  3137 6434 16847  6434 16358 16847  4567 6434 16358  4503 16358 16847  2966 12571 17891  12571 17754 17891  4820 17754 17891  2967 12571 17754  1628 7904 17658  7904 17658 17892  4720 17658 17892  4441 7904 17892  2948 13867 17893  13867 17293 17893  4641 17293 17893  2880 13867 17293  4410 17322 17809  17322 17809 17894  4600 17809 17894  3482 17322 17894  4032 12987 17321  12987 14534 17321  4875 14534 17321  3393 12987 14534  3245 14179 17390  14179 17390 17895  4618 17390 17895  3247 14179 17895  2949 5647 15887  5647 15887 17896  4596 5647 17896  2221 15887 17896  3783 5338 7682  5338 7682 17044  4644 5338 17044  3532 7682 17044  2549 15111 17567  15111 16805 17567  4627 16805 17567  2550 15111 16805  1001 15969 16981  15969 16241 16981  4870 16241 16981  3946 15969 16241  2860 16650 17897  6857 16650 17897  4538 6857 17897  4136 6857 16650  2278 13831 16925  5920 13831 16925  4826 5920 16925  2463 5920 13831  4125 6222 16649  6222 16649 17898  4550 6222 17898  2106 16649 17898  4505 6037 17899  6037 17598 17899  4911 17598 17899  2461 6037 17598  2428 6524 6872  6524 6872 17231  4508 6872 17231  4226 6524 17231  3880 6219 15672  6219 15672 17480  4577 6219 17480  777 15672 17480  2577 13518 17828  13518 16342 17828  4864 16342 17828  3945 13518 16342  4429 16858 17615  16858 17615 17900  4798 16858 17900  711 17615 17900  2469 15728 17108  15728 17108 17901  4652 17108 17901  3080 15728 17901  2845 15175 17373  15175 17373 17902  4613 17373 17902  2847 15175 17902  2022 10203 17903  10203 16074 17903  4866 16074 17903  1815 10203 16074  2105 13514 14657  13514 14657 15773  4898 14657 15773  2103 13514 15773  2707 12425 17087  12425 13694 17087  4787 13694 17087  4023 12425 13694  4499 17566 17886  17566 17886 17904  4735 17886 17904  4053 17566 17904  2613 16075 16716  16075 16716 17081  4647 16716 17081  2611 16075 17081  4166 14737 17762  14737 17697 17762  4578 17697 17762  3726 14737 17697  4662 14998 17905  14998 17266 17905  4871 17266 17905  3214 14998 17266  2866 5686 13829  5686 13829 16918  4909 5686 16918  2863 13829 16918  2868 15723 17906  15723 16994 17906  4662 16994 17906  2234 15723 16994  2301 17096 17409  17096 17409 17877  4565 17096 17877  4520 17409 17877  2554 14011 16985  5128 14011 16985  4819 5128 16985  2557 5128 14011  3719 13529 14779  13529 14779 17778  4515 13529 17778  4088 14779 17778  3802 17233 17907  17233 17298 17907  4803 17298 17907  4690 17233 17298  2902 11608 16474  11608 13139 16474  4756 13139 16474  3604 11608 13139  2975 13697 16642  7137 13697 16642  4924 7137 16642  3023 7137 13697  2572 15883 17257  15883 17257 17808  4600 17257 17808  2571 15883 17808  1310 16953 17908  12657 16953 17908  4899 12657 17908  3715 12657 16953  3663 13238 14395  13238 14395 16166  4702 14395 16166  816 13238 16166  703 15632 17488  7888 15632 17488  4594 7888 17488  3873 7888 15632  3733 12122 17206  12122 17206 17909  4841 17206 17909  2512 12122 17909  2822 11970 16970  11970 16970 17910  4699 16970 17910  3561 11970 17910  3044 15056 17397  15056 17397 17911  4762 17397 17911  3045 15056 17911  1774 14626 17408  14626 17339 17408  4640 17339 17408  1928 14626 17339  2876 16690 17396  16690 17073 17396  4535 17073 17396  4184 16690 17073  2516 17625 17912  11456 17625 17912  4831 11456 17912  4463 11456 17625  3736 6033 16346  6033 16346 17913  4838 16346 17913  671 6033 17913  2926 14989 15832  14989 15832 17775  4932 14989 17775  4242 15832 17775  3741 6200 8464  6200 8464 17914  4923 8464 17914  2312 6200 17914  2939 12499 17915  12499 17169 17915  4711 17169 17915  2521 12499 17169  3108 14967 17916  14967 17738 17916  4679 17738 17916  2840 14967 17738  4583 16987 17055  16987 17055 17915  4711 16987 17915  2939 17055 17915  4466 5836 17917  5836 17662 17917  4855 17662 17917  1970 5836 17662  679 12407 16911  12407 15229 16911  4527 12407 15229  4264 15229 16911  4541 17006 17918  16204 17006 17918  4910 16204 17918  3371 16204 17006  4017 14759 17452  14759 16090 17452  4608 16090 17452  2831 14759 16090  4042 17859 17919  17859 17919 17920  4934 17919 17920  4775 17859 17920  3130 17825 17834  17825 17834 17921  4880 17834 17921  4185 17825 17921  4611 17652 17923  17652 17922 17923  4684 17652 17922  3800 17922 17923  4257 16656 17014  16656 17014 17344  4635 17014 17344  3131 16656 17344  2877 15919 17924  15919 17060 17924  4673 17060 17924  2287 15919 17060  4161 7944 17303  7944 17291 17303  4547 17291 17303  698 7944 17291  1463 6180 17925  6180 17925 17926  4901 17925 17926  4096 6180 17926  4550 17898 17927  17898 17927 17928  4696 17927 17928  2106 17898 17928  720 6113 17929  6113 17929 17930  4829 17929 17930  3844 6113 17930  3881 7678 15681  7678 15681 17473  4606 7678 17473  705 15681 17473  3997 16271 17931  16271 17489 17931  4617 17489 17931  4068 16271 17489  3705 13076 17932  8353 13076 17932  4725 8353 17932  2858 8353 13076  4198 6772 17648  6772 17648 17933  4872 17648 17933  2473 6772 17933  2587 15601 17934  15601 17252 17934  4668 17252 17934  2584 15601 17252  4001 8710 15311  8710 15311 17935  4881 15311 17935  2587 8710 17935  715 16986 17936  16986 17415 17936  4895 17415 17936  4711 16986 17415  2913 16901 17534  16901 17534 17693  4620 17534 17693  4317 16901 17693  4703 17306 17937  16883 17306 17937  4887 16883 17937  2892 16883 17306  2003 5170 15868  5170 15868 17278  4642 5170 17278  2001 15868 17278  4048 15538 17938  15538 17938 17939  4766 17938 17939  767 15538 17939  2551 17154 17198  17154 17198 17940  4615 17198 17940  4546 17154 17940  4679 6343 17941  6343 17264 17941  4832 17264 17941  2160 6343 17264  2490 17815 17942  12018 17815 17942  4672 12018 17942  4553 12018 17815  1323 16037 17088  16037 16704 17088  4677 16704 17088  1360 16037 16704  4573 17727 17860  17727 17860 17943  4780 17860 17943  4052 17727 17943  3697 8576 8854  8576 8854 17864  4897 8576 17864  2465 8854 17864  4599 17314 17797  17314 17624 17797  4779 17314 17624  1615 17624 17797  3025 5333 15848  5333 15848 17672  4658 5333 17672  2953 15848 17672  4230 16932 17685  16932 17685 17833  4513 17685 17833  2497 16932 17833  4086 15231 17819  15231 17819 17944  4626 17819 17944  1344 15231 17944  2053 17035 17192  6940 17035 17192  4508 6940 17035  4333 6940 17192  4628 17297 17804  17297 17545 17804  4758 17297 17545  712 17545 17804  4515 17779 17841  17779 17841 17945  4716 17841 17945  1265 17779 17945  4380 16275 17369  10954 16275 17369  4920 10954 16275  1279 10954 17369  3930 5181 15605  5181 15605 17715  4637 5181 17715  1174 15605 17715  2518 14630 17946  11205 14630 17946  4683 11205 17946  3944 11205 14630  2929 12514 17839  12514 17839 17947  4894 17839 17947  2993 12514 17947  4432 17670 17800  5629 17670 17800  4770 5629 17800  3666 5629 17670  4464 17352 17807  17352 17807 17948  4612 17807 17948  3123 17352 17948  4357 6519 17002  6519 17002 17949  4879 6519 17949  4416 17002 17949  2882 17844 17950  15058 17844 17950  4778 15058 17950  4587 15058 17844  3751 11766 17579  11766 17579 17770  4867 17579 17770  3750 11766 17770  3800 14954 17922  14954 17481 17922  4684 17481 17922  1400 14954 17481  787 17544 17951  14988 17544 17951  4932 14988 17951  4381 14988 17544  4646 17419 17952  17419 17873 17952  4846 17873 17952  3624 17419 17873  1116 17302 17660  6736 17302 17660  4759 6736 17660  4453 6736 17302  3139 9010 12691  9010 12691 17818  4626 9010 17818  4367 12691 17818  4137 8824 17826  8824 17620 17826  4717 17620 17826  3271 8824 17620  2816 17751 17953  17751 17952 17953  4846 17952 17953  4646 17751 17952  2689 16061 16765  16061 16765 17150  4691 16765 17150  2687 16061 17150  4472 16617 17737  16617 17737 17931  4617 16617 17931  3997 17737 17931  2445 16785 17095  16785 17095 17954  4722 16785 17954  4565 17095 17954  4018 17552 17955  17552 17728 17955  4689 17728 17955  4400 17552 17728  4572 16468 16824  16468 16824 17893  4641 16824 17893  2948 16468 17893  471 472 17226  471 17226 17515  4763 17226 17515  470 471 17515  1871 15687 17164  15687 17164 17956  4704 17164 17956  2870 15687 17956  4775 17920 17958  17920 17957 17958  4934 17920 17957  2888 17957 17958  3716 12745 16212  12745 16212 17936  4895 16212 17936  715 12745 17936  2306 15134 17573  8059 15134 17573  4676 8059 17573  3051 8059 15134  753 14717 17175  14717 17175 17959  4695 17175 17959  3664 14717 17959  4283 8267 17678  8267 17678 17891  4820 17678 17891  2966 8267 17891  4695 17821 17959  17456 17821 17959  4822 17456 17821  3664 17456 17959  4667 6608 16572  6608 16572 17794  4726 6608 17794  2944 16572 17794  4521 17410 17890  17410 17681 17890  4745 17681 17890  2955 17410 17681  3882 8356 15691  8356 11274 15691  4632 8356 11274  776 11274 15691  3243 15316 17960  15316 17942 17960  4672 17942 17960  2490 15316 17942  794 6488 17559  6488 17559 17961  4802 17559 17961  4174 6488 17961  4016 7333 14754  7333 14754 17962  4603 7333 17962  2676 14754 17962  3807 6666 14556  6666 14556 17963  4861 6666 17963  734 14556 17963  2525 15203 17868  15203 16909 17868  4690 16909 17868  2526 15203 16909  3864 16888 17092  16888 17092 17645  4797 17092 17645  4205 16888 17645  4327 14555 17655  14555 17655 17903  4866 17655 17903  2022 14555 17903  445 446 17227  445 17227 17799  4770 17227 17799  444 445 17799  1227 12213 17320  12213 17320 17422  4741 17320 17422  1225 12213 17422  3939 11613 14692  11613 14692 17381  4724 11613 17381  2818 14692 17381  3361 13724 16960  13724 16960 17305  4703 16960 17305  2890 13724 17305  1060 16163 17964  16163 17964 17965  4643 17964 17965  3993 16163 17965  3739 12843 12859  12843 12859 17966  4810 12859 17966  762 12843 17966  2441 12839 16355  12839 16355 17967  4665 12839 17967  4191 16355 17967  3427 7651 17665  7651 17665 17968  4669 17665 17968  3816 7651 17968  4219 6746 7459  6746 7459 17787  4706 6746 17787  755 7459 17787  3816 14751 17968  11994 14751 17968  4669 11994 17968  761 11994 14751  4037 16347 17768  16347 17768 17806  4612 17768 17806  2711 16347 17806  769 16221 17485  8805 16221 17485  4687 8805 17485  3864 8805 16221  2899 15791 17281  15791 17281 17812  4670 17281 17812  2898 15791 17812  4074 12671 17969  12671 17969 17970  4865 17969 17970  2614 12671 17970  3875 14422 15646  14422 15646 17529  4650 14422 17529  670 15646 17529  2119 6769 14051  6769 14051 16541  4795 6769 16541  1910 14051 16541  1111 14283 17589  14283 17388 17589  4751 17388 17589  3847 14283 17388  4191 16412 16834  15060 16412 16834  4619 15060 16834  3156 15060 16412  4163 12528 17870  12528 17260 17870  4586 17260 17870  2460 12528 17260  591 592 17204  591 17204 17208  4799 17204 17208  590 591 17208  773 15614 17759  8167 15614 17759  4659 8167 17759  3867 8167 15614  542 14281 16923  12892 14281 16923  4718 12892 16923  667 12892 14281  4349 5327 17851  5327 17417 17851  4736 17417 17851  3057 5327 17417  4760 17971 17973  17971 17972 17973  4926 17971 17972  3823 17972 17973  3818 13820 17466  6850 13820 17466  4796 6850 17466  3709 6850 13820  4003 17526 17974  17526 17974 17975  4721 17974 17975  4389 17526 17975  3856 17748 17976  16264 17748 17976  4768 16264 17976  4496 16264 17748  4581 7486 17816  7486 17816 17977  4689 7486 17977  2012 17816 17977  4180 16692 17752  16692 17711 17752  4609 17711 17752  3791 16692 17711  3204 12518 17979  12518 17978 17979  4629 12518 17978  4500 17978 17979  4096 12684 17926  12684 17168 17926  4901 17168 17926  2501 12684 17168  2877 17924 17980  8171 17924 17980  4813 8171 17980  4673 8171 17924  4639 9186 17981  9186 17429 17981  4818 17429 17981  3576 9186 17429  2740 17982 17983  17971 17982 17983  4926 17971 17982  4760 17971 17983  2575 17734 17984  17232 17734 17984  4878 17232 17984  4701 17232 17734  1164 12755 17372  12755 17104 17372  4774 17104 17372  1165 12755 17104  3889 17713 17985  17713 17985 17986  4824 17985 17986  4474 17713 17986  2847 8151 17902  8151 16843 17902  4613 16843 17902  4388 8151 16843  3550 13527 17987  13527 17855 17987  4564 17855 17987  4164 13527 17855  3894 17402 17450  17051 17402 17450  4526 17051 17402  4345 17051 17450  4342 11490 17209  5077 11490 17209  4542 5077 11490  2951 5077 17209  1265 14385 17945  14385 17059 17945  4716 17059 17945  1260 14385 17059  3827 17771 17988  15097 17771 17988  4849 15097 17988  4532 15097 17771  2422 17989 17991  17989 17990 17991  4830 17989 17990  4746 17990 17991  3993 17717 17965  16917 17717 17965  4643 16917 17965  4470 16917 17717  3801 7265 12341  7265 12341 17907  4803 7265 17907  3802 12341 17907  3562 13035 16252  13035 16252 16752  4804 16252 16752  1261 13035 16752  732 15113 17270  15113 16606 17270  4748 16606 17270  3908 15113 16606  740 16871 17564  16871 17564 17992  4827 17564 17992  4050 16871 17992  3110 14803 17993  14803 16810 17993  4781 16810 17993  2910 14803 16810  1439 5006 15553  5006 15553 17440  4708 5006 17440  1361 15553 17440  4601 17216 17994  14869 17216 17994  4784 14869 17994  2644 14869 17216  4188 5585 17995  5585 17995 17996  4868 17995 17996  2486 5585 17996  3815 16477 17831  16477 17563 17831  4827 17563 17831  4281 16477 17563  2448 17018 17248  7287 17018 17248  4510 7287 17018  4344 7287 17248  1052 12017 17112  12017 17112 17333  4807 17112 17333  1054 12017 17333  2336 5547 17997  5547 17997 17998  4911 17997 17998  4008 5547 17998  790 5753 17721  5753 16864 17721  4346 5753 16864  162 16864 17721  3149 11322 17497  11322 17497 17999  4777 17497 17999  3148 11322 17999  3353 15223 16498  15223 16498 17572  4676 16498 17572  4340 15223 17572  4369 17098 17882  17098 17500 17882  4757 17500 17882  3183 17098 17500  3442 7996 14822  7996 14822 18000  4784 7996 18000  3441 14822 18000  4704 8605 17956  8605 17956 18001  4835 8605 18001  2870 17956 18001  1024 10880 16874  10880 16874 17883  4773 16874 17883  4254 10880 17883  3712 12270 17523  12270 14971 17523  4873 14971 17523  1496 12270 14971  3824 6349 18002  6349 18002 18003  4926 18002 18003  4083 6349 18003  2081 16064 17184  12010 16064 17184  4752 12010 17184  2121 12010 16064  2676 12847 17962  7965 12847 17962  4603 7965 17962  4252 7965 12847  3704 14103 17166  14103 17166 18004  4930 17166 18004  3817 14103 18004  599 600 17287  599 17202 17287  4883 17202 17287  598 599 17202  4474 17367 17986  17367 17604 17986  4824 17604 17986  3246 17367 17604  4335 16933 17543  16393 16933 17543  4891 16393 17543  3231 16393 16933  489 490 17244  489 17244 17632  4884 17244 17632  488 489 17632  4122 16226 17178  16226 17178 18005  4921 16226 18005  1171 17178 18005  2986 17876 18006  12841 17876 18006  4913 12841 18006  4733 12841 17876  3817 16645 18004  16645 18004 18007  4930 18004 18007  2189 16645 18007  4342 11491 17783  11491 15549 17783  4853 15549 17783  1556 11491 15549  2012 16296 17977  16296 17955 17977  4689 17955 17977  4018 16296 17955  4682 17634 18009  17634 18008 18009  4817 17634 18008  680 18008 18009  4626 16456 17944  16456 17944 18010  4744 16456 18010  1344 17944 18010  459 460 17236  459 17235 17236  4900 17235 17236  458 459 17235  4374 17134 17571  10056 17134 17571  4806 10056 17571  3645 10056 17134  4735 18011 18013  18011 18012 18013  4865 18011 18012  3830 18012 18013  1344 14057 18010  14057 17040 18010  4744 17040 18010  1314 14057 17040  3839 13541 16904  13541 16904 17925  4901 16904 17925  1463 13541 17925  2884 15846 16718  15846 16718 17950  4778 16718 17950  2882 15846 17950  1782 14781 17455  14781 16396 17455  4833 16396 17455  4066 14781 16396  689 15187 18014  15187 18014 18015  4697 18014 18015  3845 15187 18015  348 14039 16951  14039 16951 18016  4788 16951 18016  680 14039 18016  2614 17970 18017  17970 18011 18017  4865 17970 18011  4735 18011 18017  2427 5490 12588  5490 12588 18018  4845 5490 18018  3759 12588 18018  129 11635 16089  11635 16089 18019  4876 16089 18019  735 11635 18019  3176 16992 17370  16992 17370 17927  4696 17370 17927  4550 16992 17927  3650 16200 16632  16200 16632 17086  4787 16632 17086  4471 16200 17086  2862 16008 17176  5577 16008 17176  4791 5577 17176  2864 5577 16008  1117 11764 17000  11764 17000 17378  4918 17000 17378  1132 11764 17378  3850 13672 17618  13672 17618 17958  4775 17618 17958  2888 13672 17958  3561 16935 17910  16935 17493 17910  4699 17493 17910  4627 16935 17493  2740 13563 17983  13563 17590 17983  4760 17590 17983  3904 13563 17590  3844 12498 17930  12498 15178 17930  4829 15178 17930  2918 12498 15178  2291 14704 17682  8465 14704 17682  4859 8465 17682  3052 8465 14704  4557 17008 18020  8027 17008 18020  4888 8027 18020  722 8027 17008  2859 5749 18021  5749 17969 18021  4865 17969 18021  4074 5749 17969  1228 15151 17406  15151 17406 18022  4783 17406 18022  4652 15151 18022  665 17817 18023  17817 17918 18023  4910 17918 18023  4541 17817 17918  1011 16171 17142  16171 16995 17142  4812 16995 17142  3980 16171 16995  693 5736 17074  5736 17074 18024  4893 5736 18024  4570 17074 18024  2879 15829 18025  15829 17980 18025  4813 17980 18025  2877 15829 17980  4403 7412 17467  7412 17467 18026  4551 7412 18026  2202 17467 18026  4191 16835 17967  6728 16835 17967  4665 6728 17967  1179 6728 16835  2820 6356 17613  6356 17613 18027  4874 17613 18027  4660 6356 18027  2957 14838 17600  5434 14838 17600  4844 5434 17600  2964 5434 14838  3823 14777 17972  14777 17972 18002  4926 17972 18002  3824 14777 18002  4034 14611 17599  14611 17599 17997  4911 17599 17997  2336 14611 17997  2509 12869 17395  12869 16416 17395  4834 16416 17395  3713 12869 16416  1377 12060 17111  12060 17111 17346  4886 17111 17346  1379 12060 17346  2951 7597 14805  7597 14805 15078  4857 7597 15078  2335 14805 15078  3998 13773 15382  13773 15382 17144  4740 13773 17144  2367 15382 17144  3778 17280 18028  17280 18028 18029  4925 18028 18029  3567 17280 18029  2543 15362 16680  15362 16680 17336  4856 16680 17336  2540 15362 17336  2813 10057 16068  10057 16068 17217  4806 10057 17217  2811 16068 17217  3257 13147 17724  13147 17724 18030  4597 17724 18030  4596 13147 18030  688 16706 17594  13703 16706 17594  4753 13703 17594  4239 13703 16706  2312 14718 17914  14718 17879 17914  4923 17879 17914  2924 14718 17879  3099 14723 15345  14723 15345 17953  4846 15345 17953  2816 14723 17953  667 15713 17763  12444 15713 17763  4719 12444 17763  3888 12444 15713  4160 10964 17822  10964 17822 17946  4683 17822 17946  2518 10964 17946  775 15671 17471  15671 17189 17471  4713 17189 17471  3878 15671 17189  2870 15749 18001  5713 15749 18001  4835 5713 18001  3103 5713 15749  3424 8130 15640  8130 15640 17814  4737 8130 17814  3425 15640 17814  4389 17240 18031  7366 17240 18031  4516 7366 18031  2179 7366 17240  4067 6190 18032  6190 18032 18033  4934 18032 18033  1609 6190 18033  2879 18025 18034  8630 18025 18034  4914 8630 18034  4813 8630 18025  1099 17574 18035  14809 17574 18035  4814 14809 18035  4533 14809 17574  4196 5147 17312  5147 17237 17312  4765 17237 17312  2293 5147 17237  2891 8229 16060  8229 16060 17224  4842 8229 17224  2889 16060 17224  1853 16209 18036  16209 17974 18036  4721 17974 18036  4003 16209 17974  3859 12619 15500  12619 15500 17850  4736 12619 17850  725 15500 17850  672 15592 17689  8212 15592 17689  4732 8212 17689  3868 8212 15592  3830 13433 18012  13433 18012 18021  4865 18012 18021  2859 13433 18021  3184 8686 17795  8686 17795 18037  4688 8686 18037  4575 17795 18037  3964 16134 17506  16134 17506 17889  4745 17506 17889  980 16134 17889  4563 17364 17425  17364 17425 17837  4593 17364 17837  2458 17425 17837  3567 15576 18029  15576 17282 18029  4925 17282 18029  3571 15576 17282  2486 16660 17996  16660 17996 18038  4868 17996 18038  4217 16660 18038  4493 14950 17430  14950 17430 17827  4649 17430 17827  3410 14950 17827  2567 15542 16394  15542 16394 17354  4891 16394 17354  2564 15542 17354  4053 14936 17904  14936 17904 18013  4735 17904 18013  3830 14936 18013  4261 16343 16444  16343 16444 17126  4864 16343 17126  3921 16444 17126  3574 11419 16560  11419 16560 17791  4634 11419 17791  4310 16560 17791  2381 6894 15305  6894 15305 17468  4793 6894 17468  2036 15305 17468  4076 15049 17663  15049 17663 17857  4855 17663 17857  2496 15049 17857  2688 15781 17159  15781 16661 17159  4912 16661 17159  2713 15781 16661  3319 8935 17633  8935 17633 17741  4592 17633 17741  4462 8935 17741  2881 15720 16686  15720 16686 18034  4914 16686 18034  2879 15720 18034  3616 6879 14775  6879 14775 18006  4913 6879 18006  2986 14775 18006  1191 14816 17513  14816 17393 17513  4805 17393 17513  1296 14816 17393  4106 15182 17475  15182 17475 17973  4760 17475 17973  3823 15182 17973  3550 17484 17987  17484 17867 17987  4728 17484 17867  4564 17867 17987  4209 14069 15894  14069 15894 18039  4831 14069 18039  3299 15894 18039  771 15615 16863  15615 16863 17881  4757 16863 17881  3869 15615 17881  4369 17459 17796  17299 17459 17796  4575 17299 17796  702 17299 17459  144 17255 17635  17255 17498 17635  4339 17255 17498  795 17498 17635  4174 14697 17961  14697 17172 17961  4802 17172 17961  5 14697 17172  2915 16747 17167  16747 17167 18040  4929 16747 18040  4303 17167 18040  711 15022 17900  8973 15022 17900  4798 8973 17900  3833 8973 15022  2614 15142 18017  15142 17885 18017  4735 17885 18017  4075 15142 17885  3861 15539 17866  15539 17866 17976  4768 17866 17976  3856 15539 17976  4389 17975 18031  17975 18031 18041  4721 17975 18041  4516 18031 18041  4356 17132 17335  17132 17335 17923  4611 17132 17923  3800 17335 17923  669 15696 17810  10133 15696 17810  4754 10133 17810  3884 10133 15696  4200 14917 17072  14917 17072 17843  4794 17072 17843  2850 14917 17843  3148 16063 17999  16063 17999 18042  4777 17999 18042  3774 16063 18042  4319 15190 17690  15190 17690 17698  4916 17690 17698  3151 15190 17698  2888 15244 17957  15244 17957 18032  4934 17957 18032  4067 15244 18032  4194 17499 18043  5763 17499 18043  4851 5763 18043  795 5763 17499  3899 6906 15798  6906 15798 17757  4771 6906 17757  664 15798 17757  1853 18036 18044  18036 18044 18045  4836 18044 18045  4721 18036 18045  2358 16612 16741  5485 16612 16741  4700 5485 16612  4245 5485 16741  3536 7411 16531  7411 16531 18046  4776 16531 18046  4551 7411 18046  3971 5848 16147  5848 16147 17725  4789 5848 17725  931 16147 17725  4500 17786 17978  17680 17786 17978  4629 17680 17978  3872 17680 17786  2063 7500 17283  7500 17283 18028  4925 17283 18028  3778 7500 18028  1616 15665 16983  11549 15665 16983  4889 11549 16983  3072 11549 15665  4083 15468 18003  15468 17982 18003  4926 17982 18003  2740 15468 17982  4231 12171 16799  12171 16799 17657  4720 12171 17657  4091 16799 17657  4050 13347 17992  13347 17830 17992  4827 17830 17992  3093 13347 17830  4600 17735 17894  17735 17790 17894  4701 17735 17790  3482 17790 17894  4363 16812 17558  16679 16812 17558  4856 16679 17558  3240 16679 16812  4746 17990 18047  17539 17990 18047  4830 17539 17990  3299 17539 18047  4052 14941 17943  14941 17642 17943  4780 17642 17943  2519 14941 17642  3241 16811 17603  7205 16811 17603  4607 7205 17603  4363 7205 16811  4552 17789 17853  17789 17853 18048  4769 17853 18048  2860 17789 18048  4721 18045 18049  17549 18045 18049  4836 17549 18045  3055 17549 18049  763 5448 14948  5448 14948 17988  4849 5448 17988  3827 14948 17988  4138 16455 17884  16455 17884 18050  4773 17884 18050  2930 16455 18050  680 15264 18008  15264 17888 18008  4817 17888 18008  3849 15264 17888  303 15089 17223  15089 17223 17861  4816 17223 17861  3678 15089 17861  2481 15233 17847  15233 17507 17847  4892 17507 17847  2150 15233 17507  792 9478 11156  9478 11156 18043  4851 9478 18043  4194 11156 18043  3987 6272 16184  6272 16184 18035  4814 6272 18035  1099 16184 18035  2552 15956 17345  15956 17197 17345  4852 17197 17345  2551 15956 17197  3248 17366 17695  17366 17695 18051  4772 17695 18051  4474 17366 18051  4595 17596 17696  17596 17696 17852  4821 17696 17852  3067 17596 17852  4530 11986 17703  11986 17703 17845  4610 17703 17845  1557 11986 17845  2478 15364 17788  6678 15364 17788  4882 6678 17788  3809 6678 15364  780 15726 16930  15726 16930 17985  4824 16930 17985  3889 15726 17985  2576 15866 17356  15866 17356 17984  4878 17356 17984  2575 15866 17984  1171 15709 18005  15709 18005 18052  4921 18005 18052  4235 15709 18052  2524 15885 17259  15885 17259 18053  4919 17259 18053  2523 15885 18053  2849 15336 18054  15336 17477 18054  4906 17477 18054  2112 15336 17477  4762 17911 18055  17911 18055 18056  4776 18055 18056  3045 17911 18056  2245 15953 17318  15953 17318 17439  4908 17318 17439  2073 15953 17439  3485 13170 17684  13170 17684 17938  4766 17684 17938  4048 13170 17938  1138 16121 17875  16121 17875 17995  4868 17875 17995  4188 16121 17995  4442 17380 17780  11612 17380 17780  4724 11612 17780  2569 11612 17380  3804 17201 17211  17201 17211 17805  4709 17201 17805  4305 17211 17805  4185 16475 17921  10588 16475 17921  4880 10588 17921  3102 10588 16475  3774 17872 18042  17872 18042 18057  4777 18042 18057  4678 17872 18057  4277 16427 18058  16427 17592 18058  4922 17592 18058  688 16427 17592  2499 17181 17865  14819 17181 17865  4749 14819 17865  4294 14819 17181  2523 17309 18053  16722 17309 18053  4919 16722 18053  4692 16722 17309  1609 14891 18033  14891 17919 18033  4934 17919 18033  4042 14891 17919  762 11029 17966  11029 17431 17966  4810 17431 17966  4376 11029 17431  3607 8771 17767  8771 17767 18059  4823 8771 18059  4612 17767 18059  4565 17863 17954  17802 17863 17954  4722 17802 17954  2960 17802 17863  4678 17616 18057  17496 17616 18057  4777 17496 18057  3150 17496 17616  2452 17494 17801  17494 17668 17801  4837 17668 17801  4498 17494 17668  3892 15739 16360  15739 16360 18023  4910 16360 18023  665 15739 18023  767 16753 17939  16753 17939 18060  4766 17939 18060  4480 16753 18060  4343 6697 17182  6697 16589 17182  4712 6697 16589  2371 16589 17182  4636 12959 17626  12959 17626 17932  4725 17626 17932  3705 12959 17932  2422 17261 17991  17261 17991 18061  4746 17991 18061  4323 17261 18061  3901 15792 17776  15792 17776 17951  4932 17776 17951  787 15792 17951  4596 17896 18030  17522 17896 18030  4597 17522 18030  2221 17522 17896  2930 8099 18050  8099 16873 18050  4773 16873 18050  4522 8099 16873  4500 17979 18062  7148 17979 18062  4845 7148 18062  3204 7148 17979  4275 7653 16086  7653 16086 17465  4796 7653 17465  2392 16086 17465  734 7233 17963  7233 17548 17963  4861 17548 17963  4420 7233 17548  4446 17511 17726  17511 17726 17840  4854 17726 17840  2122 17511 17840  2350 16017 17878  12813 16017 17878  4863 12813 17878  4228 12813 16017  4217 17871 18038  17871 17874 18038  4868 17874 18038  4528 17871 17874  4323 17118 18061  17118 18061 18063  4746 18061 18063  2516 17118 18063  4502 17718 17846  17519 17718 17846  4858 17519 17718  1804 17519 17846  3643 12011 17290  12011 17290 17644  4752 12011 17644  4450 17290 17644  2925 6407 16624  6407 16624 17782  4853 6407 17782  4126 16624 17782  4404 17124 17434  13977 17124 17434  4694 13977 17434  2917 13977 17124  1917 9630 17880  9630 17630 17880  4589 17630 17880  4525 9630 17630  4495 14849 17710  12313 14849 17710  4630 12313 14849  1275 12313 17710  2106 17453 17928  8308 17453 17928  4696 8308 17928  4393 8308 17453  4287 16125 17047  14617 16125 17047  4729 14617 16125  2368 14617 17047  4441 17106 17892  12170 17106 17892  4720 12170 17892  2425 12170 17106  4809 5825 16328  5825 16328 18054  4906 16328 18054  2849 5825 18054  2587 17934 17935  16369 17934 17935  4881 16369 17935  4668 16369 17934  2473 16813 17933  10879 16813 17933  4872 10879 17933  4254 10879 16813  4506 16849 18064  16849 17091 18064  4797 17091 18064  3233 16849 17091  4551 18046 18065  18046 18055 18065  4776 18046 18055  4762 18055 18065  4303 16424 18066  16424 17766 18066  4839 17766 18066  2861 16424 17766  4546 17446 17940  17446 17729 17940  4615 17729 17940  3013 17446 17729  735 6539 18067  6539 17824 18067  4928 17824 18067  4185 6539 17824  4564 17755 17856  17677 17755 17856  4820 17677 17755  713 17677 17856  4426 14854 17238  14854 17238 17315  4765 17238 17315  3054 14854 17315  4290 6918 17026  6918 17026 17989  4830 6918 17989  2422 17026 17989  4489 8255 15081  8255 15081 18014  4697 8255 18014  689 15081 18014  4612 17948 18059  17887 17948 18059  4823 17887 18059  3123 17887 17948  4235 9551 18052  9551 16225 18052  4921 16225 18052  2958 9551 16225  4440 7302 17483  7302 16913 17483  4743 7302 16913  2480 16913 17483  3045 18056 18069  18056 18068 18069  4776 18056 18068  4730 18068 18069  4487 15800 17659  15800 17621 17659  4896 15800 17621  2449 17621 17659  4514 13890 17772  13890 15035 17772  4705 13890 15035  1101 15035 17772  2860 17897 18048  17897 18048 18070  4769 18048 18070  4538 17897 18070  3045 17610 18069  11539 17610 18069  4730 11539 18069  4458 11539 17610  3773 17401 17858  17401 17858 17917  4855 17858 17917  4466 17401 17917  164 17720 17836  17003 17720 17836  4357 17003 17836  790 17003 17720  4402 16787 17508  16787 17508 17929  4829 16787 17929  720 17508 17929  4516 16972 18041  16972 18041 18049  4721 18041 18049  3055 16972 18049  4474 17714 18051  17619 17714 18051  4772 17619 18051  706 17619 17714  4781 8217 18071  8217 17749 18071  4927 17749 18071  1382 8217 17749  4416 13417 17949  8991 13417 17949  4879 8991 17949  793 8991 13417  4480 8694 18060  8694 17683 18060  4766 17683 18060  3367 8694 17683  4575 17611 18037  17611 17793 18037  4688 17793 18037  3488 17611 17793  745 14536 17330  14536 17330 17937  4887 17330 17937  4703 14536 17937  4008 17631 17998  17631 17899 17998  4911 17899 17998  4505 17631 17899  721 17520 17533  14094 17520 17533  4800 14094 17533  4437 14094 17520  4439 17411 18072  6726 17411 18072  4869 6726 18072  3797 6726 17411  4548 16880 17760  13616 16880 17760  4723 13616 16880  2493 13616 17760  4730 17609 18068  16530 17609 18068  4776 16530 18068  1398 16530 17609  671 17666 17913  7957 17666 17913  4838 7957 17913  4434 7957 17666  3469 11623 17640  11623 17640 18058  4922 17640 18058  4277 11623 18058  2449 17517 17623  13289 17517 17623  4850 13289 17623  4409 13289 17517  3441 12728 18000  12728 17994 18000  4784 17994 18000  4601 12728 17994  4427 7044 17540  7044 17540 18044  4836 7044 18044  1853 17540 18044  2905 17646 17671  17646 17671 18064  4797 17646 18064  4506 17671 18064  4551 18026 18065  17027 18026 18065  4762 17027 18065  2202 17027 18026  4538 17122 18070  14997 17122 18070  4769 14997 18070  3214 14997 17122  3759 17399 18018  17399 18018 18062  4845 18018 18062  4500 17399 18062  1189 17158 17525  17156 17158 17525  4860 17156 17158  4414 17156 17525  680 18009 18016  18009 18016 18073  4788 18016 18073  4682 18009 18073  1253 17136 17482  8752 17136 17482  4907 8752 17136  4407 8752 17482  3256 16094 17676  16094 17676 18074  4877 16094 18074  4536 17676 18074  4682 17716 18073  7095 17716 18073  4788 7095 18073  3046 7095 17716  4536 17784 18074  16464 17784 18074  4877 16464 18074  3161 16464 17784  4562 17347 17661  17119 17347 17661  4801 17119 17347  3465 17119 17661  4011 16755 17581  16755 17581 18072  4869 16755 18072  4439 17581 18072  2993 5871 17947  5871 17947 18075  4894 17947 18075  4761 5871 18075  3432 17327 17692  17327 17692 18020  4888 17327 18020  4557 17692 18020  4618 13603 17895  11351 13603 17895  4782 11351 13603  3247 11351 17895  4570 17773 18024  17708 17773 18024  4893 17708 18024  3027 17708 17773  4652 17901 18022  8086 17901 18022  4783 8086 18022  3080 8086 17901  3299 18039 18047  18039 18047 18076  4831 18039 18076  4746 18047 18076  4549 17203 17811  17203 17811 17908  4899 17203 17908  1310 17811 17908  2838 16227 17842  16227 17842 17981  4818 16227 17981  4639 17842 17981  1385 17585 17686  17348 17585 17686  4904 17348 17686  4579 17348 17585  2512 8092 17909  8092 17909 18077  4841 17909 18077  4697 8092 18077  3243 16682 17960  16682 17180 17960  4843 16682 17180  4672 17180 17960  3108 12625 17916  12625 17916 17941  4832 12625 17941  4679 17916 17941  4697 18015 18077  17582 18015 18077  4841 17582 18077  3845 17582 18015  4746 18063 18076  17912 18063 18076  4831 17912 18076  2516 17912 18063  2868 16816 17906  16816 17905 17906  4871 16816 17905  4662 17905 17906  4660 17745 18027  17739 17745 18027  4874 17739 18027  3825 17739 17745  2189 17667 18007  17580 17667 18007  4930 17580 18007  4648 17580 17667  4839 11010 18078  11010 17854 18078  4929 17854 18078  1478 11010 17854  4761 15088 18075  15088 17869 18075  4894 17869 18075  1103 15088 17869  4876 18019 18079  18019 18067 18079  4928 18067 18079  735 18019 18067  3110 12640 17993  12640 17993 18071  4927 12640 18071  4781 17993 18071  4303 18040 18066  18040 18066 18078  4929 18040 18078  4839 18066 18078  3129 6824 17733  6824 17733 18079  4928 17733 18079  4876 6824 18079  1 140 18080  140 5765 18080  795 5765 18080  139 140 5765  141 142 17636  141 17636 18080  795 17636 18080  1 141 18080  2 167 18081  167 17835 18081  4357 17835 18081  166 167 17835  168 169 6520  168 6520 18081  4357 6520 18081  2 168 18081  3798 4990 17049  4990 17049 17964  4643 4990 17964  1060 17049 17964  </DataArray>
<DataArray  type="UInt32"  Name="offsets"  format="ascii">3 6 9 12 15 18 21 24 27 30 33 36 39 42 45 48 51 54 57 60 63 66 69 72 75 78 81 84 87 90 93 96 99 102 105 108 111 114 117 120 123 126 129 132 135 138 141 144 147 150 153 156 159 162 165 168 171 174 177 180 183 186 189 192 195 198 201 204 207 210 213 216 219 222 225 228 231 234 237 240 243 246 249 252 255 258 261 264 267 270 273 276 279 282 285 288 291 294 297 300 303 306 309 312 315 318 321 324 327 330 333 336 339 342 345 348 351 354 357 360 363 366 369 372 375 378 381 384 387 390 393 396 399 402 405 408 411 414 417 420 423 426 429 432 435 438 441 444 447 450 453 456 459 462 465 468 471 474 477 480 483 486 489 492 495 498 501 504 507 510 513 516 519 522 525 528 531 534 537 540 543 546 549 552 555 558 561 564 567 570 573 576 579 582 585 588 591 594 597 600 603 606 609 612 615 618 621 624 627 630 633 636 639 642 645 648 651 654 657 660 663 666 669 672 675 678 681 684 687 690 693 696 699 702 705 708 711 714 717 720 723 726 729 732 735 738 741 744 747 750 753 756 759 762 765 768 771 774 777 780 783 786 789 792 795 798 801 804 807 810 813 816 819 822 825 828 831 834 837 840 843 846 849 852 855 858 861 864 867 870 873 876 879 882 885 888 891 894 897 900 903 906 909 912 915 918 921 924 927 930 933 936 939 942 945 948 951 954 957 960 963 966 969 972 975 978 981 984 987 990 993 996 999 1002 1005 1008 1011 1014 1017 1020 1023 1026 1029 1032 1035 1038 1041 1044 1047 1050 1053 1056 1059 1062 1065 1068 1071 1074 1077 1080 1083 1086 1089 1092 1095 1098 1101 1104 1107 1110 1113 1116 1119 1122 1125 1128 1131 1134 1137 1140 1143 1146 1149 1152 1155 1158 1161 1164 1167 1170 1173 1176 1179 1182 1185 1188 1191 1194 1197 1200 1203 1206 1209 1212 1215 1218 1221 1224 1227 1230 1233 1236 1239 1242 1245 1248 1251 1254 1257 1260 1263 1266 1269 1272 1275 1278 1281 1284 1287 1290 1293 1296 1299 1302 1305 1308 1311 1314 1317 1320 1323 1326 1329 1332 1335 1338 1341 1344 1347 1350 1353 1356 1359 1362 1365 1368 1371 1374 1377 1380 1383 1386 1389 1392 1395 1398 1401 1404 1407 1410 1413 1416 1419 1422 1425 1428 1431 1434 1437 1440 1443 1446 1449 1452 1455 1458 1461 1464 1467 1470 1473 1476 1479 1482 1485 1488 1491 1494 1497 1500 1503 1506 1509 1512 1515 1518 1521 1524 1527 1530 1533 1536 1539 1542 1545 1548 1551 1554 1557 1560 1563 1566 1569 1572 1575 1578 1581 1584 1587 1590 1593 1596 1599 1602 1605 1608 1611 1614 1617 1620 1623 1626 1629 1632 1635 1638 1641 1644 1647 1650 1653 1656 1659 1662 1665 1668 1671 1674 1677 1680 1683 1686 1689 1692 1695 1698 1701 1704 1707 1710 1713 1716 1719 1722 1725 1728 1731 1734 1737 1740 1743 1746 1749 1752 1755 1758 1761 1764 1767 1770 1773 1776 1779 1782 1785 1788 1791 1794 1797 1800 1803 1806 1809 1812 1815 1818 1821 1824 1827 1830 1833 1836 1839 1842 1845 1848 1851 1854 1857 1860 1863 1866 1869 1872 1875 1878 1881 1884 1887 1890 1893 1896 1899 1902 1905 1908 1911 1914 1917 1920 1923 1926 1929 1932 1935 1938 1941 1944 1947 1950 1953 1956 1959 1962 1965 1968 1971 1974 1977 1980 1983 1986 1989 1992 1995 1998 2001 2004 2007 2010 2013 2016 2019 2022 2025 2028 2031 2034 2037 2040 2043 2046 2049 2052 2055 2058 2061 2064 2067 2070 2073 2076 2079 2082 2085 2088 2091 2094 2097 2100 2103 2106 2109 2112 2115 2118 2121 2124 2127 2130 2133 2136 2139 2142 2145 2148 2151 2154 2157 2160 2163 2166 2169 2172 2175 2178 2181 2184 2187 2190 2193 2196 2199 2202 2205 2208 2211 2214 2217 2220 2223 2226 2229 2232 2235 2238 2241 2244 2247 2250 2253 2256 2259 2262 2265 2268 2271 2274 2277 2280 2283 2286 2289 2292 2295 2298 2301 2304 2307 2310 2313 2316 2319 2322 2325 2328 2331 2334 2337 2340 2343 2346 2349 2352 2355 2358 2361 2364 2367 2370 2373 2376 2379 2382 2385 2388 2391 2394 2397 2400 2403 2406 2409 2412 2415 2418 2421 2424 2427 2430 2433 2436 2439 2442 2445 2448 2451 2454 2457 2460 2463 2466 2469 2472 2475 2478 2481 2484 2487 2490 2493 2496 2499 2502 2505 2508 2511 2514 2517 2520 2523 2526 2529 2532 2535 2538 2541 2544 2547 2550 2553 2556 2559 2562 2565 2568 2571 2574 2577 2580 2583 2586 2589 2592 2595 2598 2601 2604 2607 2610 2613 2616 2619 2622 2625 2628 2631 2634 2637 2640 2643 2646 2649 2652 2655 2658 2661 2664 2667 2670 2673 2676 2679 2682 2685 2688 2691 2694 2697 2700 2703 2706 2709 2712 2715 2718 2721 2724 2727 2730 2733 2736 2739 2742 2745 2748 2751 2754 2757 2760 2763 2766 2769 2772 2775 2778 2781 2784 2787 2790 2793 2796 2799 2802 2805 2808 2811 2814 2817 2820 2823 2826 2829 2832 2835 2838 2841 2844 2847 2850 2853 2856 2859 2862 2865 2868 2871 2874 2877 2880 2883 2886 2889 2892 2895 2898 2901 2904 2907 2910 2913 2916 2919 2922 2925 2928 2931 2934 2937 2940 2943 2946 2949 2952 2955 2958 2961 2964 2967 2970 2973 2976 2979 2982 2985 2988 2991 2994 2997 3000 3003 3006 3009 3012 3015 3018 3021 3024 3027 3030 3033 3036 3039 3042 3045 3048 3051 3054 3057 3060 3063 3066 3069 3072 3075 3078 3081 3084 3087 3090 3093 3096 3099 3102 3105 3108 3111 3114 3117 3120 3123 3126 3129 3132 3135 3138 3141 3144 3147 3150 3153 3156 3159 3162 3165 3168 3171 3174 3177 3180 3183 3186 3189 3192 3195 3198 3201 3204 3207 3210 3213 3216 3219 3222 3225 3228 3231 3234 3237 3240 3243 3246 3249 3252 3255 3258 3261 3264 3267 3270 3273 3276 3279 3282 3285 3288 3291 3294 3297 3300 3303 3306 3309 3312 3315 3318 3321 3324 3327 3330 3333 3336 3339 3342 3345 3348 3351 3354 3357 3360 3363 3366 3369 3372 3375 3378 3381 3384 3387 3390 3393 3396 3399 3402 3405 3408 3411 3414 3417 3420 3423 3426 3429 3432 3435 3438 3441 3444 3447 3450 3453 3456 3459 3462 3465 3468 3471 3474 3477 3480 3483 3486 3489 3492 3495 3498 3501 3504 3507 3510 3513 3516 3519 3522 3525 3528 3531 3534 3537 3540 3543 3546 3549 3552 3555 3558 3561 3564 3567 3570 3573 3576 3579 3582 3585 3588 3591 3594 3597 3600 3603 3606 3609 3612 3615 3618 3621 3624 3627 3630 3633 3636 3639 3642 3645 3648 3651 3654 3657 3660 3663 3666 3669 3672 3675 3678 3681 3684 3687 3690 3693 3696 3699 3702 3705 3708 3711 3714 3717 3720 3723 3726 3729 3732 3735 3738 3741 3744 3747 3750 3753 3756 3759 3762 3765 3768 3771 3774 3777 3780 3783 3786 3789 3792 3795 3798 3801 3804 3807 3810 3813 3816 3819 3822 3825 3828 3831 3834 3837 3840 3843 3846 3849 3852 3855 3858 3861 3864 3867 3870 3873 3876 3879 3882 3885 3888 3891 3894 3897 3900 3903 3906 3909 3912 3915 3918 3921 3924 3927 3930 3933 3936 3939 3942 3945 3948 3951 3954 3957 3960 3963 3966 3969 3972 3975 3978 3981 3984 3987 3990 3993 3996 3999 4002 4005 4008 4011 4014 4017 4020 4023 4026 4029 4032 4035 4038 4041 4044 4047 4050 4053 4056 4059 4062 4065 4068 4071 4074 4077 4080 4083 4086 4089 4092 4095 4098 4101 4104 4107 4110 4113 4116 4119 4122 4125 4128 4131 4134 4137 4140 4143 4146 4149 4152 4155 4158 4161 4164 4167 4170 4173 4176 4179 4182 4185 4188 4191 4194 4197 4200 4203 4206 4209 4212 4215 4218 4221 4224 4227 4230 4233 4236 4239 4242 4245 4248 4251 4254 4257 4260 4263 4266 4269 4272 4275 4278 4281 4284 4287 4290 4293 4296 4299 4302 4305 4308 4311 4314 4317 4320 4323 4326 4329 4332 4335 4338 4341 4344 4347 4350 4353 4356 4359 4362 4365 4368 4371 4374 4377 4380 4383 4386 4389 4392 4395 4398 4401 4404 4407 4410 4413 4416 4419 4422 4425 4428 4431 4434 4437 4440 4443 4446 4449 4452 4455 4458 4461 4464 4467 4470 4473 4476 4479 4482 4485 4488 4491 4494 4497 4500 4503 4506 4509 4512 4515 4518 4521 4524 4527 4530 4533 4536 4539 4542 4545 4548 4551 4554 4557 4560 4563 4566 4569 4572 4575 4578 4581 4584 4587 4590 4593 4596 4599 4602 4605 4608 4611 4614 4617 4620 4623 4626 4629 4632 4635 4638 4641 4644 4647 4650 4653 4656 4659 4662 4665 4668 4671 4674 4677 4680 4683 4686 4689 4692 4695 4698 4701 4704 4707 4710 4713 4716 4719 4722 4725 4728 4731 4734 4737 4740 4743 4746 4749 4752 4755 4758 4761 4764 4767 4770 4773 4776 4779 4782 4785 4788 4791 4794 4797 4800 4803 4806 4809 4812 4815 4818 4821 4824 4827 4830 4833 4836 4839 4842 4845 4848 4851 4854 4857 4860 4863 4866 4869 4872 4875 4878 4881 4884 4887 4890 4893 4896 4899 4902 4905 4908 4911 4914 4917 4920 4923 4926 4929 4932 4935 4938 4941 4944 4947 4950 4953 4956 4959 4962 4965 4968 4971 4974 4977 4980 4983 4986 4989 4992 4995 4998 5001 5004 5007 5010 5013 5016 5019 5022 5025 5028 5031 5034 5037 5040 5043 5046 5049 5052 5055 5058 5061 5064 5067 5070 5073 5076 5079 5082 5085 5088 5091 5094 5097 5100 5103 5106 5109 5112 5115 5118 5121 5124 5127 5130 5133 5136 5139 5142 5145 5148 5151 5154 5157 5160 5163 5166 5169 5172 5175 5178 5181 5184 5187 5190 5193 5196 5199 5202 5205 5208 5211 5214 5217 5220 5223 5226 5229 5232 5235 5238 5241 5244 5247 5250 5253 5256 5259 5262 5265 5268 5271 5274 5277 5280 5283 5286 5289 5292 5295 5298 5301 5304 5307 5310 5313 5316 5319 5322 5325 5328 5331 5334 5337 5340 5343 5346 5349 5352 5355 5358 5361 5364 5367 5370 5373 5376 5379 5382 5385 5388 5391 5394 5397 5400 5403 5406 5409 5412 5415 5418 5421 5424 5427 5430 5433 5436 5439 5442 5445 5448 5451 5454 5457 5460 5463 5466 5469 5472 5475 5478 5481 5484 5487 5490 5493 5496 5499 5502 5505 5508 5511 5514 5517 5520 5523 5526 5529 5532 5535 5538 5541 5544 5547 5550 5553 5556 5559 5562 5565 5568 5571 5574 5577 5580 5583 5586 5589 5592 5595 5598 5601 5604 5607 5610 5613 5616 5619 5622 5625 5628 5631 5634 5637 5640 5643 5646 5649 5652 5655 5658 5661 5664 5667 5670 5673 5676 5679 5682 5685 5688 5691 5694 5697 5700 5703 5706 5709 5712 5715 5718 5721 5724 5727 5730 5733 5736 5739 5742 5745 5748 5751 5754 5757 5760 5763 5766 5769 5772 5775 5778 5781 5784 5787 5790 5793 5796 5799 5802 5805 5808 5811 5814 5817 5820 5823 5826 5829 5832 5835 5838 5841 5844 5847 5850 5853 5856 5859 5862 5865 5868 5871 5874 5877 5880 5883 5886 5889 5892 5895 5898 5901 5904 5907 5910 5913 5916 5919 5922 5925 5928 5931 5934 5937 5940 5943 5946 5949 5952 5955 5958 5961 5964 5967 5970 5973 5976 5979 5982 5985 5988 5991 5994 5997 6000 6003 6006 6009 6012 6015 6018 6021 6024 6027 6030 6033 6036 6039 6042 6045 6048 6051 6054 6057 6060 6063 6066 6069 6072 6075 6078 6081 6084 6087 6090 6093 6096 6099 6102 6105 6108 6111 6114 6117 6120 6123 6126 6129 6132 6135 6138 6141 6144 6147 6150 6153 6156 6159 6162 6165 6168 6171 6174 6177 6180 6183 6186 6189 6192 6195 6198 6201 6204 6207 6210 6213 6216 6219 6222 6225 6228 6231 6234 6237 6240 6243 6246 6249 6252 6255 6258 6261 6264 6267 6270 6273 6276 6279 6282 6285 6288 6291 6294 6297 6300 6303 6306 6309 6312 6315 6318 6321 6324 6327 6330 6333 6336 6339 6342 6345 6348 6351 6354 6357 6360 6363 6366 6369 6372 6375 6378 6381 6384 6387 6390 6393 6396 6399 6402 6405 6408 6411 6414 6417 6420 6423 6426 6429 6432 6435 6438 6441 6444 6447 6450 6453 6456 6459 6462 6465 6468 6471 6474 6477 6480 6483 6486 6489 6492 6495 6498 6501 6504 6507 6510 6513 6516 6519 6522 6525 6528 6531 6534 6537 6540 6543 6546 6549 6552 6555 6558 6561 6564 6567 6570 6573 6576 6579 6582 6585 6588 6591 6594 6597 6600 6603 6606 6609 6612 6615 6618 6621 6624 6627 6630 6633 6636 6639 6642 6645 6648 6651 6654 6657 6660 6663 6666 6669 6672 6675 6678 6681 6684 6687 6690 6693 6696 6699 6702 6705 6708 6711 6714 6717 6720 6723 6726 6729 6732 6735 6738 6741 6744 6747 6750 6753 6756 6759 6762 6765 6768 6771 6774 6777 6780 6783 6786 6789 6792 6795 6798 6801 6804 6807 6810 6813 6816 6819 6822 6825 6828 6831 6834 6837 6840 6843 6846 6849 6852 6855 6858 6861 6864 6867 6870 6873 6876 6879 6882 6885 6888 6891 6894 6897 6900 6903 6906 6909 6912 6915 6918 6921 6924 6927 6930 6933 6936 6939 6942 6945 6948 6951 6954 6957 6960 6963 6966 6969 6972 6975 6978 6981 6984 6987 6990 6993 6996 6999 7002 7005 7008 7011 7014 7017 7020 7023 7026 7029 7032 7035 7038 7041 7044 7047 7050 7053 7056 7059 7062 7065 7068 7071 7074 7077 7080 7083 7086 7089 7092 7095 7098 7101 7104 7107 7110 7113 7116 7119 7122 7125 7128 7131 7134 7137 7140 7143 7146 7149 7152 7155 7158 7161 7164 7167 7170 7173 7176 7179 7182 7185 7188 7191 7194 7197 7200 7203 7206 7209 7212 7215 7218 7221 7224 7227 7230 7233 7236 7239 7242 7245 7248 7251 7254 7257 7260 7263 7266 7269 7272 7275 7278 7281 7284 7287 7290 7293 7296 7299 7302 7305 7308 7311 7314 7317 7320 7323 7326 7329 7332 7335 7338 7341 7344 7347 7350 7353 7356 7359 7362 7365 7368 7371 7374 7377 7380 7383 7386 7389 7392 7395 7398 7401 7404 7407 7410 7413 7416 7419 7422 7425 7428 7431 7434 7437 7440 7443 7446 7449 7452 7455 7458 7461 7464 7467 7470 7473 7476 7479 7482 7485 7488 7491 7494 7497 7500 7503 7506 7509 7512 7515 7518 7521 7524 7527 7530 7533 7536 7539 7542 7545 7548 7551 7554 7557 7560 7563 7566 7569 7572 7575 7578 7581 7584 7587 7590 7593 7596 7599 7602 7605 7608 7611 7614 7617 7620 7623 7626 7629 7632 7635 7638 7641 7644 7647 7650 7653 7656 7659 7662 7665 7668 7671 7674 7677 7680 7683 7686 7689 7692 7695 7698 7701 7704 7707 7710 7713 7716 7719 7722 7725 7728 7731 7734 7737 7740 7743 7746 7749 7752 7755 7758 7761 7764 7767 7770 7773 7776 7779 7782 7785 7788 7791 7794 7797 7800 7803 7806 7809 7812 7815 7818 7821 7824 7827 7830 7833 7836 7839 7842 7845 7848 7851 7854 7857 7860 7863 7866 7869 7872 7875 7878 7881 7884 7887 7890 7893 7896 7899 7902 7905 7908 7911 7914 7917 7920 7923 7926 7929 7932 7935 7938 7941 7944 7947 7950 7953 7956 7959 7962 7965 7968 7971 7974 7977 7980 7983 7986 7989 7992 7995 7998 8001 8004 8007 8010 8013 8016 8019 8022 8025 8028 8031 8034 8037 8040 8043 8046 8049 8052 8055 8058 8061 8064 8067 8070 8073 8076 8079 8082 8085 8088 8091 8094 8097 8100 8103 8106 8109 8112 8115 8118 8121 8124 8127 8130 8133 8136 8139 8142 8145 8148 8151 8154 8157 8160 8163 8166 8169 8172 8175 8178 8181 8184 8187 8190 8193 8196 8199 8202 8205 8208 8211 8214 8217 8220 8223 8226 8229 8232 8235 8238 8241 8244 8247 8250 8253 8256 8259 8262 8265 8268 8271 8274 8277 8280 8283 8286 8289 8292 8295 8298 8301 8304 8307 8310 8313 8316 8319 8322 8325 8328 8331 8334 8337 8340 8343 8346 8349 8352 8355 8358 8361 8364 8367 8370 8373 8376 8379 8382 8385 8388 8391 8394 8397 8400 8403 8406 8409 8412 8415 8418 8421 8424 8427 8430 8433 8436 8439 8442 8445 8448 8451 8454 8457 8460 8463 8466 8469 8472 8475 8478 8481 8484 8487 8490 8493 8496 8499 8502 8505 8508 8511 8514 8517 8520 8523 8526 8529 8532 8535 8538 8541 8544 8547 8550 8553 8556 8559 8562 8565 8568 8571 8574 8577 8580 8583 8586 8589 8592 8595 8598 8601 8604 8607 8610 8613 8616 8619 8622 8625 8628 8631 8634 8637 8640 8643 8646 8649 8652 8655 8658 8661 8664 8667 8670 8673 8676 8679 8682 8685 8688 8691 8694 8697 8700 8703 8706 8709 8712 8715 8718 8721 8724 8727 8730 8733 8736 8739 8742 8745 8748 8751 8754 8757 8760 8763 8766 8769 8772 8775 8778 8781 8784 8787 8790 8793 8796 8799 8802 8805 8808 8811 8814 8817 8820 8823 8826 8829 8832 8835 8838 8841 8844 8847 8850 8853 8856 8859 8862 8865 8868 8871 8874 8877 8880 8883 8886 8889 8892 8895 8898 8901 8904 8907 8910 8913 8916 8919 8922 8925 8928 8931 8934 8937 8940 8943 8946 8949 8952 8955 8958 8961 8964 8967 8970 8973 8976 8979 8982 8985 8988 8991 8994 8997 9000 9003 9006 9009 9012 9015 9018 9021 9024 9027 9030 9033 9036 9039 9042 9045 9048 9051 9054 9057 9060 9063 9066 9069 9072 9075 9078 9081 9084 9087 9090 9093 9096 9099 9102 9105 9108 9111 9114 9117 9120 9123 9126 9129 9132 9135 9138 9141 9144 9147 9150 9153 9156 9159 9162 9165 9168 9171 9174 9177 9180 9183 9186 9189 9192 9195 9198 9201 9204 9207 9210 9213 9216 9219 9222 9225 9228 9231 9234 9237 9240 9243 9246 9249 9252 9255 9258 9261 9264 9267 9270 9273 9276 9279 9282 9285 9288 9291 9294 9297 9300 9303 9306 9309 9312 9315 9318 9321 9324 9327 9330 9333 9336 9339 9342 9345 9348 9351 9354 9357 9360 9363 9366 9369 9372 9375 9378 9381 9384 9387 9390 9393 9396 9399 9402 9405 9408 9411 9414 9417 9420 9423 9426 9429 9432 9435 9438 9441 9444 9447 9450 9453 9456 9459 9462 9465 9468 9471 9474 9477 9480 9483 9486 9489 9492 9495 9498 9501 9504 9507 9510 9513 9516 9519 9522 9525 9528 9531 9534 9537 9540 9543 9546 9549 9552 9555 9558 9561 9564 9567 9570 9573 9576 9579 9582 9585 9588 9591 9594 9597 9600 9603 9606 9609 9612 9615 9618 9621 9624 9627 9630 9633 9636 9639 9642 9645 9648 9651 9654 9657 9660 9663 9666 9669 9672 9675 9678 9681 9684 9687 9690 9693 9696 9699 9702 9705 9708 9711 9714 9717 9720 9723 9726 9729 9732 9735 9738 9741 9744 9747 9750 9753 9756 9759 9762 9765 9768 9771 9774 9777 9780 9783 9786 9789 9792 9795 9798 9801 9804 9807 9810 9813 9816 9819 9822 9825 9828 9831 9834 9837 9840 9843 9846 9849 9852 9855 9858 9861 9864 9867 9870 9873 9876 9879 9882 9885 9888 9891 9894 9897 9900 9903 9906 9909 9912 9915 9918 9921 9924 9927 9930 9933 9936 9939 9942 9945 9948 9951 9954 9957 9960 9963 9966 9969 9972 9975 9978 9981 9984 9987 9990 9993 9996 9999 10002 10005 10008 10011 10014 10017 10020 10023 10026 10029 10032 10035 10038 10041 10044 10047 10050 10053 10056 10059 10062 10065 10068 10071 10074 10077 10080 10083 10086 10089 10092 10095 10098 10101 10104 10107 10110 10113 10116 10119 10122 10125 10128 10131 10134 10137 10140 10143 10146 10149 10152 10155 10158 10161 10164 10167 10170 10173 10176 10179 10182 10185 10188 10191 10194 10197 10200 10203 10206 10209 10212 10215 10218 10221 10224 10227 10230 10233 10236 10239 10242 10245 10248 10251 10254 10257 10260 10263 10266 10269 10272 10275 10278 10281 10284 10287 10290 10293 10296 10299 10302 10305 10308 10311 10314 10317 10320 10323 10326 10329 10332 10335 10338 10341 10344 10347 10350 10353 10356 10359 10362 10365 10368 10371 10374 10377 10380 10383 10386 10389 10392 10395 10398 10401 10404 10407 10410 10413 10416 10419 10422 10425 10428 10431 10434 10437 10440 10443 10446 10449 10452 10455 10458 10461 10464 10467 10470 10473 10476 10479 10482 10485 10488 10491 10494 10497 10500 10503 10506 10509 10512 10515 10518 10521 10524 10527 10530 10533 10536 10539 10542 10545 10548 10551 10554 10557 10560 10563 10566 10569 10572 10575 10578 10581 10584 10587 10590 10593 10596 10599 10602 10605 10608 10611 10614 10617 10620 10623 10626 10629 10632 10635 10638 10641 10644 10647 10650 10653 10656 10659 10662 10665 10668 10671 10674 10677 10680 10683 10686 10689 10692 10695 10698 10701 10704 10707 10710 10713 10716 10719 10722 10725 10728 10731 10734 10737 10740 10743 10746 10749 10752 10755 10758 10761 10764 10767 10770 10773 10776 10779 10782 10785 10788 10791 10794 10797 10800 10803 10806 10809 10812 10815 10818 10821 10824 10827 10830 10833 10836 10839 10842 10845 10848 10851 10854 10857 10860 10863 10866 10869 10872 10875 10878 10881 10884 10887 10890 10893 10896 10899 10902 10905 10908 10911 10914 10917 10920 10923 10926 10929 10932 10935 10938 10941 10944 10947 10950 10953 10956 10959 10962 10965 10968 10971 10974 10977 10980 10983 10986 10989 10992 10995 10998 11001 11004 11007 11010 11013 11016 11019 11022 11025 11028 11031 11034 11037 11040 11043 11046 11049 11052 11055 11058 11061 11064 11067 11070 11073 11076 11079 11082 11085 11088 11091 11094 11097 11100 11103 11106 11109 11112 11115 11118 11121 11124 11127 11130 11133 11136 11139 11142 11145 11148 11151 11154 11157 11160 11163 11166 11169 11172 11175 11178 11181 11184 11187 11190 11193 11196 11199 11202 11205 11208 11211 11214 11217 11220 11223 11226 11229 11232 11235 11238 11241 11244 11247 11250 11253 11256 11259 11262 11265 11268 11271 11274 11277 11280 11283 11286 11289 11292 11295 11298 11301 11304 11307 11310 11313 11316 11319 11322 11325 11328 11331 11334 11337 11340 11343 11346 11349 11352 11355 11358 11361 11364 11367 11370 11373 11376 11379 11382 11385 11388 11391 11394 11397 11400 11403 11406 11409 11412 11415 11418 11421 11424 11427 11430 11433 11436 11439 11442 11445 11448 11451 11454 11457 11460 11463 11466 11469 11472 11475 11478 11481 11484 11487 11490 11493 11496 11499 11502 11505 11508 11511 11514 11517 11520 11523 11526 11529 11532 11535 11538 11541 11544 11547 11550 11553 11556 11559 11562 11565 11568 11571 11574 11577 11580 11583 11586 11589 11592 11595 11598 11601 11604 11607 11610 11613 11616 11619 11622 11625 11628 11631 11634 11637 11640 11643 11646 11649 11652 11655 11658 11661 11664 11667 11670 11673 11676 11679 11682 11685 11688 11691 11694 11697 11700 11703 11706 11709 11712 11715 11718 11721 11724 11727 11730 11733 11736 11739 11742 11745 11748 11751 11754 11757 11760 11763 11766 11769 11772 11775 11778 11781 11784 11787 11790 11793 11796 11799 11802 11805 11808 11811 11814 11817 11820 11823 11826 11829 11832 11835 11838 11841 11844 11847 11850 11853 11856 11859 11862 11865 11868 11871 11874 11877 11880 11883 11886 11889 11892 11895 11898 11901 11904 11907 11910 11913 11916 11919 11922 11925 11928 11931 11934 11937 11940 11943 11946 11949 11952 11955 11958 11961 11964 11967 11970 11973 11976 11979 11982 11985 11988 11991 11994 11997 12000 12003 12006 12009 12012 12015 12018 12021 12024 12027 12030 12033 12036 12039 12042 12045 12048 12051 12054 12057 12060 12063 12066 12069 12072 12075 12078 12081 12084 12087 12090 12093 12096 12099 12102 12105 12108 12111 12114 12117 12120 12123 12126 12129 12132 12135 12138 12141 12144 12147 12150 12153 12156 12159 12162 12165 12168 12171 12174 12177 12180 12183 12186 12189 12192 12195 12198 12201 12204 12207 12210 12213 12216 12219 12222 12225 12228 12231 12234 12237 12240 12243 12246 12249 12252 12255 12258 12261 12264 12267 12270 12273 12276 12279 12282 12285 12288 12291 12294 12297 12300 12303 12306 12309 12312 12315 12318 12321 12324 12327 12330 12333 12336 12339 12342 12345 12348 12351 12354 12357 12360 12363 12366 12369 12372 12375 12378 12381 12384 12387 12390 12393 12396 12399 12402 12405 12408 12411 12414 12417 12420 12423 12426 12429 12432 12435 12438 12441 12444 12447 12450 12453 12456 12459 12462 12465 12468 12471 12474 12477 12480 12483 12486 12489 12492 12495 12498 12501 12504 12507 12510 12513 12516 12519 12522 12525 12528 12531 12534 12537 12540 12543 12546 12549 12552 12555 12558 12561 12564 12567 12570 12573 12576 12579 12582 12585 12588 12591 12594 12597 12600 12603 12606 12609 12612 12615 12618 12621 12624 12627 12630 12633 12636 12639 12642 12645 12648 12651 12654 12657 12660 12663 12666 12669 12672 12675 12678 12681 12684 12687 12690 12693 12696 12699 12702 12705 12708 12711 12714 12717 12720 12723 12726 12729 12732 12735 12738 12741 12744 12747 12750 12753 12756 12759 12762 12765 12768 12771 12774 12777 12780 12783 12786 12789 12792 12795 12798 12801 12804 12807 12810 12813 12816 12819 12822 12825 12828 12831 12834 12837 12840 12843 12846 12849 12852 12855 12858 12861 12864 12867 12870 12873 12876 12879 12882 12885 12888 12891 12894 12897 12900 12903 12906 12909 12912 12915 12918 12921 12924 12927 12930 12933 12936 12939 12942 12945 12948 12951 12954 12957 12960 12963 12966 12969 12972 12975 12978 12981 12984 12987 12990 12993 12996 12999 13002 13005 13008 13011 13014 13017 13020 13023 13026 13029 13032 13035 13038 13041 13044 13047 13050 13053 13056 13059 13062 13065 13068 13071 13074 13077 13080 13083 13086 13089 13092 13095 13098 13101 13104 13107 13110 13113 13116 13119 13122 13125 13128 13131 13134 13137 13140 13143 13146 13149 13152 13155 13158 13161 13164 13167 13170 13173 13176 13179 13182 13185 13188 13191 13194 13197 13200 13203 13206 13209 13212 13215 13218 13221 13224 13227 13230 13233 13236 13239 13242 13245 13248 13251 13254 13257 13260 13263 13266 13269 13272 13275 13278 13281 13284 13287 13290 13293 13296 13299 13302 13305 13308 13311 13314 13317 13320 13323 13326 13329 13332 13335 13338 13341 13344 13347 13350 13353 13356 13359 13362 13365 13368 13371 13374 13377 13380 13383 13386 13389 13392 13395 13398 13401 13404 13407 13410 13413 13416 13419 13422 13425 13428 13431 13434 13437 13440 13443 13446 13449 13452 13455 13458 13461 13464 13467 13470 13473 13476 13479 13482 13485 13488 13491 13494 13497 13500 13503 13506 13509 13512 13515 13518 13521 13524 13527 13530 13533 13536 13539 13542 13545 13548 13551 13554 13557 13560 13563 13566 13569 13572 13575 13578 13581 13584 13587 13590 13593 13596 13599 13602 13605 13608 13611 13614 13617 13620 13623 13626 13629 13632 13635 13638 13641 13644 13647 13650 13653 13656 13659 13662 13665 13668 13671 13674 13677 13680 13683 13686 13689 13692 13695 13698 13701 13704 13707 13710 13713 13716 13719 13722 13725 13728 13731 13734 13737 13740 13743 13746 13749 13752 13755 13758 13761 13764 13767 13770 13773 13776 13779 13782 13785 13788 13791 13794 13797 13800 13803 13806 13809 13812 13815 13818 13821 13824 13827 13830 13833 13836 13839 13842 13845 13848 13851 13854 13857 13860 13863 13866 13869 13872 13875 13878 13881 13884 13887 13890 13893 13896 13899 13902 13905 13908 13911 13914 13917 13920 13923 13926 13929 13932 13935 13938 13941 13944 13947 13950 13953 13956 13959 13962 13965 13968 13971 13974 13977 13980 13983 13986 13989 13992 13995 13998 14001 14004 14007 14010 14013 14016 14019 14022 14025 14028 14031 14034 14037 14040 14043 14046 14049 14052 14055 14058 14061 14064 14067 14070 14073 14076 14079 14082 14085 14088 14091 14094 14097 14100 14103 14106 14109 14112 14115 14118 14121 14124 14127 14130 14133 14136 14139 14142 14145 14148 14151 14154 14157 14160 14163 14166 14169 14172 14175 14178 14181 14184 14187 14190 14193 14196 14199 14202 14205 14208 14211 14214 14217 14220 14223 14226 14229 14232 14235 14238 14241 14244 14247 14250 14253 14256 14259 14262 14265 14268 14271 14274 14277 14280 14283 14286 14289 14292 14295 14298 14301 14304 14307 14310 14313 14316 14319 14322 14325 14328 14331 14334 14337 14340 14343 14346 14349 14352 14355 14358 14361 14364 14367 14370 14373 14376 14379 14382 14385 14388 14391 14394 14397 14400 14403 14406 14409 14412 14415 14418 14421 14424 14427 14430 14433 14436 14439 14442 14445 14448 14451 14454 14457 14460 14463 14466 14469 14472 14475 14478 14481 14484 14487 14490 14493 14496 14499 14502 14505 14508 14511 14514 14517 14520 14523 14526 14529 14532 14535 14538 14541 14544 14547 14550 14553 14556 14559 14562 14565 14568 14571 14574 14577 14580 14583 14586 14589 14592 14595 14598 14601 14604 14607 14610 14613 14616 14619 14622 14625 14628 14631 14634 14637 14640 14643 14646 14649 14652 14655 14658 14661 14664 14667 14670 14673 14676 14679 14682 14685 14688 14691 14694 14697 14700 14703 14706 14709 14712 14715 14718 14721 14724 14727 14730 14733 14736 14739 14742 14745 14748 14751 14754 14757 14760 14763 14766 14769 14772 14775 14778 14781 14784 14787 14790 14793 14796 14799 14802 14805 14808 14811 14814 14817 14820 14823 14826 14829 14832 14835 14838 14841 14844 14847 14850 14853 14856 14859 14862 14865 14868 14871 14874 14877 14880 14883 14886 14889 14892 14895 14898 14901 14904 14907 14910 14913 14916 14919 14922 14925 14928 14931 14934 14937 14940 14943 14946 14949 14952 14955 14958 14961 14964 14967 14970 14973 14976 14979 14982 14985 14988 14991 14994 14997 15000 15003 15006 15009 15012 15015 15018 15021 15024 15027 15030 15033 15036 15039 15042 15045 15048 15051 15054 15057 15060 15063 15066 15069 15072 15075 15078 15081 15084 15087 15090 15093 15096 15099 15102 15105 15108 15111 15114 15117 15120 15123 15126 15129 15132 15135 15138 15141 15144 15147 15150 15153 15156 15159 15162 15165 15168 15171 15174 15177 15180 15183 15186 15189 15192 15195 15198 15201 15204 15207 15210 15213 15216 15219 15222 15225 15228 15231 15234 15237 15240 15243 15246 15249 15252 15255 15258 15261 15264 15267 15270 15273 15276 15279 15282 15285 15288 15291 15294 15297 15300 15303 15306 15309 15312 15315 15318 15321 15324 15327 15330 15333 15336 15339 15342 15345 15348 15351 15354 15357 15360 15363 15366 15369 15372 15375 15378 15381 15384 15387 15390 15393 15396 15399 15402 15405 15408 15411 15414 15417 15420 15423 15426 15429 15432 15435 15438 15441 15444 15447 15450 15453 15456 15459 15462 15465 15468 15471 15474 15477 15480 15483 15486 15489 15492 15495 15498 15501 15504 15507 15510 15513 15516 15519 15522 15525 15528 15531 15534 15537 15540 15543 15546 15549 15552 15555 15558 15561 15564 15567 15570 15573 15576 15579 15582 15585 15588 15591 15594 15597 15600 15603 15606 15609 15612 15615 15618 15621 15624 15627 15630 15633 15636 15639 15642 15645 15648 15651 15654 15657 15660 15663 15666 15669 15672 15675 15678 15681 15684 15687 15690 15693 15696 15699 15702 15705 15708 15711 15714 15717 15720 15723 15726 15729 15732 15735 15738 15741 15744 15747 15750 15753 15756 15759 15762 15765 15768 15771 15774 15777 15780 15783 15786 15789 15792 15795 15798 15801 15804 15807 15810 15813 15816 15819 15822 15825 15828 15831 15834 15837 15840 15843 15846 15849 15852 15855 15858 15861 15864 15867 15870 15873 15876 15879 15882 15885 15888 15891 15894 15897 15900 15903 15906 15909 15912 15915 15918 15921 15924 15927 15930 15933 15936 15939 15942 15945 15948 15951 15954 15957 15960 15963 15966 15969 15972 15975 15978 15981 15984 15987 15990 15993 15996 15999 16002 16005 16008 16011 16014 16017 16020 16023 16026 16029 16032 16035 16038 16041 16044 16047 16050 16053 16056 16059 16062 16065 16068 16071 16074 16077 16080 16083 16086 16089 16092 16095 16098 16101 16104 16107 16110 16113 16116 16119 16122 16125 16128 16131 16134 16137 16140 16143 16146 16149 16152 16155 16158 16161 16164 16167 16170 16173 16176 16179 16182 16185 16188 16191 16194 16197 16200 16203 16206 16209 16212 16215 16218 16221 16224 16227 16230 16233 16236 16239 16242 16245 16248 16251 16254 16257 16260 16263 16266 16269 16272 16275 16278 16281 16284 16287 16290 16293 16296 16299 16302 16305 16308 16311 16314 16317 16320 16323 16326 16329 16332 16335 16338 16341 16344 16347 16350 16353 16356 16359 16362 16365 16368 16371 16374 16377 16380 16383 16386 16389 16392 16395 16398 16401 16404 16407 16410 16413 16416 16419 16422 16425 16428 16431 16434 16437 16440 16443 16446 16449 16452 16455 16458 16461 16464 16467 16470 16473 16476 16479 16482 16485 16488 16491 16494 16497 16500 16503 16506 16509 16512 16515 16518 16521 16524 16527 16530 16533 16536 16539 16542 16545 16548 16551 16554 16557 16560 16563 16566 16569 16572 16575 16578 16581 16584 16587 16590 16593 16596 16599 16602 16605 16608 16611 16614 16617 16620 16623 16626 16629 16632 16635 16638 16641 16644 16647 16650 16653 16656 16659 16662 16665 16668 16671 16674 16677 16680 16683 16686 16689 16692 16695 16698 16701 16704 16707 16710 16713 16716 16719 16722 16725 16728 16731 16734 16737 16740 16743 16746 16749 16752 16755 16758 16761 16764 16767 16770 16773 16776 16779 16782 16785 16788 16791 16794 16797 16800 16803 16806 16809 16812 16815 16818 16821 16824 16827 16830 16833 16836 16839 16842 16845 16848 16851 16854 16857 16860 16863 16866 16869 16872 16875 16878 16881 16884 16887 16890 16893 16896 16899 16902 16905 16908 16911 16914 16917 16920 16923 16926 16929 16932 16935 16938 16941 16944 16947 16950 16953 16956 16959 16962 16965 16968 16971 16974 16977 16980 16983 16986 16989 16992 16995 16998 17001 17004 17007 17010 17013 17016 17019 17022 17025 17028 17031 17034 17037 17040 17043 17046 17049 17052 17055 17058 17061 17064 17067 17070 17073 17076 17079 17082 17085 17088 17091 17094 17097 17100 17103 17106 17109 17112 17115 17118 17121 17124 17127 17130 17133 17136 17139 17142 17145 17148 17151 17154 17157 17160 17163 17166 17169 17172 17175 17178 17181 17184 17187 17190 17193 17196 17199 17202 17205 17208 17211 17214 17217 17220 17223 17226 17229 17232 17235 17238 17241 17244 17247 17250 17253 17256 17259 17262 17265 17268 17271 17274 17277 17280 17283 17286 17289 17292 17295 17298 17301 17304 17307 17310 17313 17316 17319 17322 17325 17328 17331 17334 17337 17340 17343 17346 17349 17352 17355 17358 17361 17364 17367 17370 17373 17376 17379 17382 17385 17388 17391 17394 17397 17400 17403 17406 17409 17412 17415 17418 17421 17424 17427 17430 17433 17436 17439 17442 17445 17448 17451 17454 17457 17460 17463 17466 17469 17472 17475 17478 17481 17484 17487 17490 17493 17496 17499 17502 17505 17508 17511 17514 17517 17520 17523 17526 17529 17532 17535 17538 17541 17544 17547 17550 17553 17556 17559 17562 17565 17568 17571 17574 17577 17580 17583 17586 17589 17592 17595 17598 17601 17604 17607 17610 17613 17616 17619 17622 17625 17628 17631 17634 17637 17640 17643 17646 17649 17652 17655 17658 17661 17664 17667 17670 17673 17676 17679 17682 17685 17688 17691 17694 17697 17700 17703 17706 17709 17712 17715 17718 17721 17724 17727 17730 17733 17736 17739 17742 17745 17748 17751 17754 17757 17760 17763 17766 17769 17772 17775 17778 17781 17784 17787 17790 17793 17796 17799 17802 17805 17808 17811 17814 17817 17820 17823 17826 17829 17832 17835 17838 17841 17844 17847 17850 17853 17856 17859 17862 17865 17868 17871 17874 17877 17880 17883 17886 17889 17892 17895 17898 17901 17904 17907 17910 17913 17916 17919 17922 17925 17928 17931 17934 17937 17940 17943 17946 17949 17952 17955 17958 17961 17964 17967 17970 17973 17976 17979 17982 17985 17988 17991 17994 17997 18000 18003 18006 18009 18012 18015 18018 18021 18024 18027 18030 18033 18036 18039 18042 18045 18048 18051 18054 18057 18060 18063 18066 18069 18072 18075 18078 18081 18084 18087 18090 18093 18096 18099 18102 18105 18108 18111 18114 18117 18120 18123 18126 18129 18132 18135 18138 18141 18144 18147 18150 18153 18156 18159 18162 18165 18168 18171 18174 18177 18180 18183 18186 18189 18192 18195 18198 18201 18204 18207 18210 18213 18216 18219 18222 18225 18228 18231 18234 18237 18240 18243 18246 18249 18252 18255 18258 18261 18264 18267 18270 18273 18276 18279 18282 18285 18288 18291 18294 18297 18300 18303 18306 18309 18312 18315 18318 18321 18324 18327 18330 18333 18336 18339 18342 18345 18348 18351 18354 18357 18360 18363 18366 18369 18372 18375 18378 18381 18384 18387 18390 18393 18396 18399 18402 18405 18408 18411 18414 18417 18420 18423 18426 18429 18432 18435 18438 18441 18444 18447 18450 18453 18456 18459 18462 18465 18468 18471 18474 18477 18480 18483 18486 18489 18492 18495 18498 18501 18504 18507 18510 18513 18516 18519 18522 18525 18528 18531 18534 18537 18540 18543 18546 18549 18552 18555 18558 18561 18564 18567 18570 18573 18576 18579 18582 18585 18588 18591 18594 18597 18600 18603 18606 18609 18612 18615 18618 18621 18624 18627 18630 18633 18636 18639 18642 18645 18648 18651 18654 18657 18660 18663 18666 18669 18672 18675 18678 18681 18684 18687 18690 18693 18696 18699 18702 18705 18708 18711 18714 18717 18720 18723 18726 18729 18732 18735 18738 18741 18744 18747 18750 18753 18756 18759 18762 18765 18768 18771 18774 18777 18780 18783 18786 18789 18792 18795 18798 18801 18804 18807 18810 18813 18816 18819 18822 18825 18828 18831 18834 18837 18840 18843 18846 18849 18852 18855 18858 18861 18864 18867 18870 18873 18876 18879 18882 18885 18888 18891 18894 18897 18900 18903 18906 18909 18912 18915 18918 18921 18924 18927 18930 18933 18936 18939 18942 18945 18948 18951 18954 18957 18960 18963 18966 18969 18972 18975 18978 18981 18984 18987 18990 18993 18996 18999 19002 19005 19008 19011 19014 19017 19020 19023 19026 19029 19032 19035 19038 19041 19044 19047 19050 19053 19056 19059 19062 19065 19068 19071 19074 19077 19080 19083 19086 19089 19092 19095 19098 19101 19104 19107 19110 19113 19116 19119 19122 19125 19128 19131 19134 19137 19140 19143 19146 19149 19152 19155 19158 19161 19164 19167 19170 19173 19176 19179 19182 19185 19188 19191 19194 19197 19200 19203 19206 19209 19212 19215 19218 19221 19224 19227 19230 19233 19236 19239 19242 19245 19248 19251 19254 19257 19260 19263 19266 19269 19272 19275 19278 19281 19284 19287 19290 19293 19296 19299 19302 19305 19308 19311 19314 19317 19320 19323 19326 19329 19332 19335 19338 19341 19344 19347 19350 19353 19356 19359 19362 19365 19368 19371 19374 19377 19380 19383 19386 19389 19392 19395 19398 19401 19404 19407 19410 19413 19416 19419 19422 19425 19428 19431 19434 19437 19440 19443 19446 19449 19452 19455 19458 19461 19464 19467 19470 19473 19476 19479 19482 19485 19488 19491 19494 19497 19500 19503 19506 19509 19512 19515 19518 19521 19524 19527 19530 19533 19536 19539 19542 19545 19548 19551 19554 19557 19560 19563 19566 19569 19572 19575 19578 19581 19584 19587 19590 19593 19596 19599 19602 19605 19608 19611 19614 19617 19620 19623 19626 19629 19632 19635 19638 19641 19644 19647 19650 19653 19656 19659 19662 19665 19668 19671 19674 19677 19680 19683 19686 19689 19692 19695 19698 19701 19704 19707 19710 19713 19716 19719 19722 19725 19728 19731 19734 19737 19740 19743 19746 19749 19752 19755 19758 19761 19764 19767 19770 19773 19776 19779 19782 19785 19788 19791 19794 19797 19800 19803 19806 19809 19812 19815 19818 19821 19824 19827 19830 19833 19836 19839 19842 19845 19848 19851 19854 19857 19860 19863 19866 19869 19872 19875 19878 19881 19884 19887 19890 19893 19896 19899 19902 19905 19908 19911 19914 19917 19920 19923 19926 19929 19932 19935 19938 19941 19944 19947 19950 19953 19956 19959 19962 19965 19968 19971 19974 19977 19980 19983 19986 19989 19992 19995 19998 20001 20004 20007 20010 20013 20016 20019 20022 20025 20028 20031 20034 20037 20040 20043 20046 20049 20052 20055 20058 20061 20064 20067 20070 20073 20076 20079 20082 20085 20088 20091 20094 20097 20100 20103 20106 20109 20112 20115 20118 20121 20124 20127 20130 20133 20136 20139 20142 20145 20148 20151 20154 20157 20160 20163 20166 20169 20172 20175 20178 20181 20184 20187 20190 20193 20196 20199 20202 20205 20208 20211 20214 20217 20220 20223 20226 20229 20232 20235 20238 20241 20244 20247 20250 20253 20256 20259 20262 20265 20268 20271 20274 20277 20280 20283 20286 20289 20292 20295 20298 20301 20304 20307 20310 20313 20316 20319 20322 20325 20328 20331 20334 20337 20340 20343 20346 20349 20352 20355 20358 20361 20364 20367 20370 20373 20376 20379 20382 20385 20388 20391 20394 20397 20400 20403 20406 20409 20412 20415 20418 20421 20424 20427 20430 20433 20436 20439 20442 20445 20448 20451 20454 20457 20460 20463 20466 20469 20472 20475 20478 20481 20484 20487 20490 20493 20496 20499 20502 20505 20508 20511 20514 20517 20520 20523 20526 20529 20532 20535 20538 20541 20544 20547 20550 20553 20556 20559 20562 20565 20568 20571 20574 20577 20580 20583 20586 20589 20592 20595 20598 20601 20604 20607 20610 20613 20616 20619 20622 20625 20628 20631 20634 20637 20640 20643 20646 20649 20652 20655 20658 20661 20664 20667 20670 20673 20676 20679 20682 20685 20688 20691 20694 20697 20700 20703 20706 20709 20712 20715 20718 20721 20724 20727 20730 20733 20736 20739 20742 20745 20748 20751 20754 20757 20760 20763 20766 20769 20772 20775 20778 20781 20784 20787 20790 20793 20796 20799 20802 20805 20808 20811 20814 20817 20820 20823 20826 20829 20832 20835 20838 20841 20844 20847 20850 20853 20856 20859 20862 20865 20868 20871 20874 20877 20880 20883 20886 20889 20892 20895 20898 20901 20904 20907 20910 20913 20916 20919 20922 20925 20928 20931 20934 20937 20940 20943 20946 20949 20952 20955 20958 20961 20964 20967 20970 20973 20976 20979 20982 20985 20988 20991 20994 20997 21000 21003 21006 21009 21012 21015 21018 21021 21024 21027 21030 21033 21036 21039 21042 21045 21048 21051 21054 21057 21060 21063 21066 21069 21072 21075 21078 21081 21084 21087 21090 21093 21096 21099 21102 21105 21108 21111 21114 21117 21120 21123 21126 21129 21132 21135 21138 21141 21144 21147 21150 21153 21156 21159 21162 21165 21168 21171 21174 21177 21180 21183 21186 21189 21192 21195 21198 21201 21204 21207 21210 21213 21216 21219 21222 21225 21228 21231 21234 21237 21240 21243 21246 21249 21252 21255 21258 21261 21264 21267 21270 21273 21276 21279 21282 21285 21288 21291 21294 21297 21300 21303 21306 21309 21312 21315 21318 21321 21324 21327 21330 21333 21336 21339 21342 21345 21348 21351 21354 21357 21360 21363 21366 21369 21372 21375 21378 21381 21384 21387 21390 21393 21396 21399 21402 21405 21408 21411 21414 21417 21420 21423 21426 21429 21432 21435 21438 21441 21444 21447 21450 21453 21456 21459 21462 21465 21468 21471 21474 21477 21480 21483 21486 21489 21492 21495 21498 21501 21504 21507 21510 21513 21516 21519 21522 21525 21528 21531 21534 21537 21540 21543 21546 21549 21552 21555 21558 21561 21564 21567 21570 21573 21576 21579 21582 21585 21588 21591 21594 21597 21600 21603 21606 21609 21612 21615 21618 21621 21624 21627 21630 21633 21636 21639 21642 21645 21648 21651 21654 21657 21660 21663 21666 21669 21672 21675 21678 21681 21684 21687 21690 21693 21696 21699 21702 21705 21708 21711 21714 21717 21720 21723 21726 21729 21732 21735 21738 21741 21744 21747 21750 21753 21756 21759 21762 21765 21768 21771 21774 21777 21780 21783 21786 21789 21792 21795 21798 21801 21804 21807 21810 21813 21816 21819 21822 21825 21828 21831 21834 21837 21840 21843 21846 21849 21852 21855 21858 21861 21864 21867 21870 21873 21876 21879 21882 21885 21888 21891 21894 21897 21900 21903 21906 21909 21912 21915 21918 21921 21924 21927 21930 21933 21936 21939 21942 21945 21948 21951 21954 21957 21960 21963 21966 21969 21972 21975 21978 21981 21984 21987 21990 21993 21996 21999 22002 22005 22008 22011 22014 22017 22020 22023 22026 22029 22032 22035 22038 22041 22044 22047 22050 22053 22056 22059 22062 22065 22068 22071 22074 22077 22080 22083 22086 22089 22092 22095 22098 22101 22104 22107 22110 22113 22116 22119 22122 22125 22128 22131 22134 22137 22140 22143 22146 22149 22152 22155 22158 22161 22164 22167 22170 22173 22176 22179 22182 22185 22188 22191 22194 22197 22200 22203 22206 22209 22212 22215 22218 22221 22224 22227 22230 22233 22236 22239 22242 22245 22248 22251 22254 22257 22260 22263 22266 22269 22272 22275 22278 22281 22284 22287 22290 22293 22296 22299 22302 22305 22308 22311 22314 22317 22320 22323 22326 22329 22332 22335 22338 22341 22344 22347 22350 22353 22356 22359 22362 22365 22368 22371 22374 22377 22380 22383 22386 22389 22392 22395 22398 22401 22404 22407 22410 22413 22416 22419 22422 22425 22428 22431 22434 22437 22440 22443 22446 22449 22452 22455 22458 22461 22464 22467 22470 22473 22476 22479 22482 22485 22488 22491 22494 22497 22500 22503 22506 22509 22512 22515 22518 22521 22524 22527 22530 22533 22536 22539 22542 22545 22548 22551 22554 22557 22560 22563 22566 22569 22572 22575 22578 22581 22584 22587 22590 22593 22596 22599 22602 22605 22608 22611 22614 22617 22620 22623 22626 22629 22632 22635 22638 22641 22644 22647 22650 22653 22656 22659 22662 22665 22668 22671 22674 22677 22680 22683 22686 22689 22692 22695 22698 22701 22704 22707 22710 22713 22716 22719 22722 22725 22728 22731 22734 22737 22740 22743 22746 22749 22752 22755 22758 22761 22764 22767 22770 22773 22776 22779 22782 22785 22788 22791 22794 22797 22800 22803 22806 22809 22812 22815 22818 22821 22824 22827 22830 22833 22836 22839 22842 22845 22848 22851 22854 22857 22860 22863 22866 22869 22872 22875 22878 22881 22884 22887 22890 22893 22896 22899 22902 22905 22908 22911 22914 22917 22920 22923 22926 22929 22932 22935 22938 22941 22944 22947 22950 22953 22956 22959 22962 22965 22968 22971 22974 22977 22980 22983 22986 22989 22992 22995 22998 23001 23004 23007 23010 23013 23016 23019 23022 23025 23028 23031 23034 23037 23040 23043 23046 23049 23052 23055 23058 23061 23064 23067 23070 23073 23076 23079 23082 23085 23088 23091 23094 23097 23100 23103 23106 23109 23112 23115 23118 23121 23124 23127 23130 23133 23136 23139 23142 23145 23148 23151 23154 23157 23160 23163 23166 23169 23172 23175 23178 23181 23184 23187 23190 23193 23196 23199 23202 23205 23208 23211 23214 23217 23220 23223 23226 23229 23232 23235 23238 23241 23244 23247 23250 23253 23256 23259 23262 23265 23268 23271 23274 23277 23280 23283 23286 23289 23292 23295 23298 23301 23304 23307 23310 23313 23316 23319 23322 23325 23328 23331 23334 23337 23340 23343 23346 23349 23352 23355 23358 23361 23364 23367 23370 23373 23376 23379 23382 23385 23388 23391 23394 23397 23400 23403 23406 23409 23412 23415 23418 23421 23424 23427 23430 23433 23436 23439 23442 23445 23448 23451 23454 23457 23460 23463 23466 23469 23472 23475 23478 23481 23484 23487 23490 23493 23496 23499 23502 23505 23508 23511 23514 23517 23520 23523 23526 23529 23532 23535 23538 23541 23544 23547 23550 23553 23556 23559 23562 23565 23568 23571 23574 23577 23580 23583 23586 23589 23592 23595 23598 23601 23604 23607 23610 23613 23616 23619 23622 23625 23628 23631 23634 23637 23640 23643 23646 23649 23652 23655 23658 23661 23664 23667 23670 23673 23676 23679 23682 23685 23688 23691 23694 23697 23700 23703 23706 23709 23712 23715 23718 23721 23724 23727 23730 23733 23736 23739 23742 23745 23748 23751 23754 23757 23760 23763 23766 23769 23772 23775 23778 23781 23784 23787 23790 23793 23796 23799 23802 23805 23808 23811 23814 23817 23820 23823 23826 23829 23832 23835 23838 23841 23844 23847 23850 23853 23856 23859 23862 23865 23868 23871 23874 23877 23880 23883 23886 23889 23892 23895 23898 23901 23904 23907 23910 23913 23916 23919 23922 23925 23928 23931 23934 23937 23940 23943 23946 23949 23952 23955 23958 23961 23964 23967 23970 23973 23976 23979 23982 23985 23988 23991 23994 23997 24000 24003 24006 24009 24012 24015 24018 24021 24024 24027 24030 24033 24036 24039 24042 24045 24048 24051 24054 24057 24060 24063 24066 24069 24072 24075 24078 24081 24084 24087 24090 24093 24096 24099 24102 24105 24108 24111 24114 24117 24120 24123 24126 24129 24132 24135 24138 24141 24144 24147 24150 24153 24156 24159 24162 24165 24168 24171 24174 24177 24180 24183 24186 24189 24192 24195 24198 24201 24204 24207 24210 24213 24216 24219 24222 24225 24228 24231 24234 24237 24240 24243 24246 24249 24252 24255 24258 24261 24264 24267 24270 24273 24276 24279 24282 24285 24288 24291 24294 24297 24300 24303 24306 24309 24312 24315 24318 24321 24324 24327 24330 24333 24336 24339 24342 24345 24348 24351 24354 24357 24360 24363 24366 24369 24372 24375 24378 24381 24384 24387 24390 24393 24396 24399 24402 24405 24408 24411 24414 24417 24420 24423 24426 24429 24432 24435 24438 24441 24444 24447 24450 24453 24456 24459 24462 24465 24468 24471 24474 24477 24480 24483 24486 24489 24492 24495 24498 24501 24504 24507 24510 24513 24516 24519 24522 24525 24528 24531 24534 24537 24540 24543 24546 24549 24552 24555 24558 24561 24564 24567 24570 24573 24576 24579 24582 24585 24588 24591 24594 24597 24600 24603 24606 24609 24612 24615 24618 24621 24624 24627 24630 24633 24636 24639 24642 24645 24648 24651 24654 24657 24660 24663 24666 24669 24672 24675 24678 24681 24684 24687 24690 24693 24696 24699 24702 24705 24708 24711 24714 24717 24720 24723 24726 24729 24732 24735 24738 24741 24744 24747 24750 24753 24756 24759 24762 24765 24768 24771 24774 24777 24780 24783 24786 24789 24792 24795 24798 24801 24804 24807 24810 24813 24816 24819 24822 24825 24828 24831 24834 24837 24840 24843 24846 24849 24852 24855 24858 24861 24864 24867 24870 24873 24876 24879 24882 24885 24888 24891 24894 24897 24900 24903 24906 24909 24912 24915 24918 24921 24924 24927 24930 24933 24936 24939 24942 24945 24948 24951 24954 24957 24960 24963 24966 24969 24972 24975 24978 24981 24984 24987 24990 24993 24996 24999 25002 25005 25008 25011 25014 25017 25020 25023 25026 25029 25032 25035 25038 25041 25044 25047 25050 25053 25056 25059 25062 25065 25068 25071 25074 25077 25080 25083 25086 25089 25092 25095 25098 25101 25104 25107 25110 25113 25116 25119 25122 25125 25128 25131 25134 25137 25140 25143 25146 25149 25152 25155 25158 25161 25164 25167 25170 25173 25176 25179 25182 25185 25188 25191 25194 25197 25200 25203 25206 25209 25212 25215 25218 25221 25224 25227 25230 25233 25236 25239 25242 25245 25248 25251 25254 25257 25260 25263 25266 25269 25272 25275 25278 25281 25284 25287 25290 25293 25296 25299 25302 25305 25308 25311 25314 25317 25320 25323 25326 25329 25332 25335 25338 25341 25344 25347 25350 25353 25356 25359 25362 25365 25368 25371 25374 25377 25380 25383 25386 25389 25392 25395 25398 25401 25404 25407 25410 25413 25416 25419 25422 25425 25428 25431 25434 25437 25440 25443 25446 25449 25452 25455 25458 25461 25464 25467 25470 25473 25476 25479 25482 25485 25488 25491 25494 25497 25500 25503 25506 25509 25512 25515 25518 25521 25524 25527 25530 25533 25536 25539 25542 25545 25548 25551 25554 25557 25560 25563 25566 25569 25572 25575 25578 25581 25584 25587 25590 25593 25596 25599 25602 25605 25608 25611 25614 25617 25620 25623 25626 25629 25632 25635 25638 25641 25644 25647 25650 25653 25656 25659 25662 25665 25668 25671 25674 25677 25680 25683 25686 25689 25692 25695 25698 25701 25704 25707 25710 25713 25716 25719 25722 25725 25728 25731 25734 25737 25740 25743 25746 25749 25752 25755 25758 25761 25764 25767 25770 25773 25776 25779 25782 25785 25788 25791 25794 25797 25800 25803 25806 25809 25812 25815 25818 25821 25824 25827 25830 25833 25836 25839 25842 25845 25848 25851 25854 25857 25860 25863 25866 25869 25872 25875 25878 25881 25884 25887 25890 25893 25896 25899 25902 25905 25908 25911 25914 25917 25920 25923 25926 25929 25932 25935 25938 25941 25944 25947 25950 25953 25956 25959 25962 25965 25968 25971 25974 25977 25980 25983 25986 25989 25992 25995 25998 26001 26004 26007 26010 26013 26016 26019 26022 26025 26028 26031 26034 26037 26040 26043 26046 26049 26052 26055 26058 26061 26064 26067 26070 26073 26076 26079 26082 26085 26088 26091 26094 26097 26100 26103 26106 26109 26112 26115 26118 26121 26124 26127 26130 26133 26136 26139 26142 26145 26148 26151 26154 26157 26160 26163 26166 26169 26172 26175 26178 26181 26184 26187 26190 26193 26196 26199 26202 26205 26208 26211 26214 26217 26220 26223 26226 26229 26232 26235 26238 26241 26244 26247 26250 26253 26256 26259 26262 26265 26268 26271 26274 26277 26280 26283 26286 26289 26292 26295 26298 26301 26304 26307 26310 26313 26316 26319 26322 26325 26328 26331 26334 26337 26340 26343 26346 26349 26352 26355 26358 26361 26364 26367 26370 26373 26376 26379 26382 26385 26388 26391 26394 26397 26400 26403 26406 26409 26412 26415 26418 26421 26424 26427 26430 26433 26436 26439 26442 26445 26448 26451 26454 26457 26460 26463 26466 26469 26472 26475 26478 26481 26484 26487 26490 26493 26496 26499 26502 26505 26508 26511 26514 26517 26520 26523 26526 26529 26532 26535 26538 26541 26544 26547 26550 26553 26556 26559 26562 26565 26568 26571 26574 26577 26580 26583 26586 26589 26592 26595 26598 26601 26604 26607 26610 26613 26616 26619 26622 26625 26628 26631 26634 26637 26640 26643 26646 26649 26652 26655 26658 26661 26664 26667 26670 26673 26676 26679 26682 26685 26688 26691 26694 26697 26700 26703 26706 26709 26712 26715 26718 26721 26724 26727 26730 26733 26736 26739 26742 26745 26748 26751 26754 26757 26760 26763 26766 26769 26772 26775 26778 26781 26784 26787 26790 26793 26796 26799 26802 26805 26808 26811 26814 26817 26820 26823 26826 26829 26832 26835 26838 26841 26844 26847 26850 26853 26856 26859 26862 26865 26868 26871 26874 26877 26880 26883 26886 26889 26892 26895 26898 26901 26904 26907 26910 26913 26916 26919 26922 26925 26928 26931 26934 26937 26940 26943 26946 26949 26952 26955 26958 26961 26964 26967 26970 26973 26976 26979 26982 26985 26988 26991 26994 26997 27000 27003 27006 27009 27012 27015 27018 27021 27024 27027 27030 27033 27036 27039 27042 27045 27048 27051 27054 27057 27060 27063 27066 27069 27072 27075 27078 27081 27084 27087 27090 27093 27096 27099 27102 27105 27108 27111 27114 27117 27120 27123 27126 27129 27132 27135 27138 27141 27144 27147 27150 27153 27156 27159 27162 27165 27168 27171 27174 27177 27180 27183 27186 27189 27192 27195 27198 27201 27204 27207 27210 27213 27216 27219 27222 27225 27228 27231 27234 27237 27240 27243 27246 27249 27252 27255 27258 27261 27264 27267 27270 27273 27276 27279 27282 27285 27288 27291 27294 27297 27300 27303 27306 27309 27312 27315 27318 27321 27324 27327 27330 27333 27336 27339 27342 27345 27348 27351 27354 27357 27360 27363 27366 27369 27372 27375 27378 27381 27384 27387 27390 27393 27396 27399 27402 27405 27408 27411 27414 27417 27420 27423 27426 27429 27432 27435 27438 27441 27444 27447 27450 27453 27456 27459 27462 27465 27468 27471 27474 27477 27480 27483 27486 27489 27492 27495 27498 27501 27504 27507 27510 27513 27516 27519 27522 27525 27528 27531 27534 27537 27540 27543 27546 27549 27552 27555 27558 27561 27564 27567 27570 27573 27576 27579 27582 27585 27588 27591 27594 27597 27600 27603 27606 27609 27612 27615 27618 27621 27624 27627 27630 27633 27636 27639 27642 27645 27648 27651 27654 27657 27660 27663 27666 27669 27672 27675 27678 27681 27684 27687 27690 27693 27696 27699 27702 27705 27708 27711 27714 27717 27720 27723 27726 27729 27732 27735 27738 27741 27744 27747 27750 27753 27756 27759 27762 27765 27768 27771 27774 27777 27780 27783 27786 27789 27792 27795 27798 27801 27804 27807 27810 27813 27816 27819 27822 27825 27828 27831 27834 27837 27840 27843 27846 27849 27852 27855 27858 27861 27864 27867 27870 27873 27876 27879 27882 27885 27888 27891 27894 27897 27900 27903 27906 27909 27912 27915 27918 27921 27924 27927 27930 27933 27936 27939 27942 27945 27948 27951 27954 27957 27960 27963 27966 27969 27972 27975 27978 27981 27984 27987 27990 27993 27996 27999 28002 28005 28008 28011 28014 28017 28020 28023 28026 28029 28032 28035 28038 28041 28044 28047 28050 28053 28056 28059 28062 28065 28068 28071 28074 28077 28080 28083 28086 28089 28092 28095 28098 28101 28104 28107 28110 28113 28116 28119 28122 28125 28128 28131 28134 28137 28140 28143 28146 28149 28152 28155 28158 28161 28164 28167 28170 28173 28176 28179 28182 28185 28188 28191 28194 28197 28200 28203 28206 28209 28212 28215 28218 28221 28224 28227 28230 28233 28236 28239 28242 28245 28248 28251 28254 28257 28260 28263 28266 28269 28272 28275 28278 28281 28284 28287 28290 28293 28296 28299 28302 28305 28308 28311 28314 28317 28320 28323 28326 28329 28332 28335 28338 28341 28344 28347 28350 28353 28356 28359 28362 28365 28368 28371 28374 28377 28380 28383 28386 28389 28392 28395 28398 28401 28404 28407 28410 28413 28416 28419 28422 28425 28428 28431 28434 28437 28440 28443 28446 28449 28452 28455 28458 28461 28464 28467 28470 28473 28476 28479 28482 28485 28488 28491 28494 28497 28500 28503 28506 28509 28512 28515 28518 28521 28524 28527 28530 28533 28536 28539 28542 28545 28548 28551 28554 28557 28560 28563 28566 28569 28572 28575 28578 28581 28584 28587 28590 28593 28596 28599 28602 28605 28608 28611 28614 28617 28620 28623 28626 28629 28632 28635 28638 28641 28644 28647 28650 28653 28656 28659 28662 28665 28668 28671 28674 28677 28680 28683 28686 28689 28692 28695 28698 28701 28704 28707 28710 28713 28716 28719 28722 28725 28728 28731 28734 28737 28740 28743 28746 28749 28752 28755 28758 28761 28764 28767 28770 28773 28776 28779 28782 28785 28788 28791 28794 28797 28800 28803 28806 28809 28812 28815 28818 28821 28824 28827 28830 28833 28836 28839 28842 28845 28848 28851 28854 28857 28860 28863 28866 28869 28872 28875 28878 28881 28884 28887 28890 28893 28896 28899 28902 28905 28908 28911 28914 28917 28920 28923 28926 28929 28932 28935 28938 28941 28944 28947 28950 28953 28956 28959 28962 28965 28968 28971 28974 28977 28980 28983 28986 28989 28992 28995 28998 29001 29004 29007 29010 29013 29016 29019 29022 29025 29028 29031 29034 29037 29040 29043 29046 29049 29052 29055 29058 29061 29064 29067 29070 29073 29076 29079 29082 29085 29088 29091 29094 29097 29100 29103 29106 29109 29112 29115 29118 29121 29124 29127 29130 29133 29136 29139 29142 29145 29148 29151 29154 29157 29160 29163 29166 29169 29172 29175 29178 29181 29184 29187 29190 29193 29196 29199 29202 29205 29208 29211 29214 29217 29220 29223 29226 29229 29232 29235 29238 29241 29244 29247 29250 29253 29256 29259 29262 29265 29268 29271 29274 29277 29280 29283 29286 29289 29292 29295 29298 29301 29304 29307 29310 29313 29316 29319 29322 29325 29328 29331 29334 29337 29340 29343 29346 29349 29352 29355 29358 29361 29364 29367 29370 29373 29376 29379 29382 29385 29388 29391 29394 29397 29400 29403 29406 29409 29412 29415 29418 29421 29424 29427 29430 29433 29436 29439 29442 29445 29448 29451 29454 29457 29460 29463 29466 29469 29472 29475 29478 29481 29484 29487 29490 29493 29496 29499 29502 29505 29508 29511 29514 29517 29520 29523 29526 29529 29532 29535 29538 29541 29544 29547 29550 29553 29556 29559 29562 29565 29568 29571 29574 29577 29580 29583 29586 29589 29592 29595 29598 29601 29604 29607 29610 29613 29616 29619 29622 29625 29628 29631 29634 29637 29640 29643 29646 29649 29652 29655 29658 29661 29664 29667 29670 29673 29676 29679 29682 29685 29688 29691 29694 29697 29700 29703 29706 29709 29712 29715 29718 29721 29724 29727 29730 29733 29736 29739 29742 29745 29748 29751 29754 29757 29760 29763 29766 29769 29772 29775 29778 29781 29784 29787 29790 29793 29796 29799 29802 29805 29808 29811 29814 29817 29820 29823 29826 29829 29832 29835 29838 29841 29844 29847 29850 29853 29856 29859 29862 29865 29868 29871 29874 29877 29880 29883 29886 29889 29892 29895 29898 29901 29904 29907 29910 29913 29916 29919 29922 29925 29928 29931 29934 29937 29940 29943 29946 29949 29952 29955 29958 29961 29964 29967 29970 29973 29976 29979 29982 29985 29988 29991 29994 29997 30000 30003 30006 30009 30012 30015 30018 30021 30024 30027 30030 30033 30036 30039 30042 30045 30048 30051 30054 30057 30060 30063 30066 30069 30072 30075 30078 30081 30084 30087 30090 30093 30096 30099 30102 30105 30108 30111 30114 30117 30120 30123 30126 30129 30132 30135 30138 30141 30144 30147 30150 30153 30156 30159 30162 30165 30168 30171 30174 30177 30180 30183 30186 30189 30192 30195 30198 30201 30204 30207 30210 30213 30216 30219 30222 30225 30228 30231 30234 30237 30240 30243 30246 30249 30252 30255 30258 30261 30264 30267 30270 30273 30276 30279 30282 30285 30288 30291 30294 30297 30300 30303 30306 30309 30312 30315 30318 30321 30324 30327 30330 30333 30336 30339 30342 30345 30348 30351 30354 30357 30360 30363 30366 30369 30372 30375 30378 30381 30384 30387 30390 30393 30396 30399 30402 30405 30408 30411 30414 30417 30420 30423 30426 30429 30432 30435 30438 30441 30444 30447 30450 30453 30456 30459 30462 30465 30468 30471 30474 30477 30480 30483 30486 30489 30492 30495 30498 30501 30504 30507 30510 30513 30516 30519 30522 30525 30528 30531 30534 30537 30540 30543 30546 30549 30552 30555 30558 30561 30564 30567 30570 30573 30576 30579 30582 30585 30588 30591 30594 30597 30600 30603 30606 30609 30612 30615 30618 30621 30624 30627 30630 30633 30636 30639 30642 30645 30648 30651 30654 30657 30660 30663 30666 30669 30672 30675 30678 30681 30684 30687 30690 30693 30696 30699 30702 30705 30708 30711 30714 30717 30720 30723 30726 30729 30732 30735 30738 30741 30744 30747 30750 30753 30756 30759 30762 30765 30768 30771 30774 30777 30780 30783 30786 30789 30792 30795 30798 30801 30804 30807 30810 30813 30816 30819 30822 30825 30828 30831 30834 30837 30840 30843 30846 30849 30852 30855 30858 30861 30864 30867 30870 30873 30876 30879 30882 30885 30888 30891 30894 30897 30900 30903 30906 30909 30912 30915 30918 30921 30924 30927 30930 30933 30936 30939 30942 30945 30948 30951 30954 30957 30960 30963 30966 30969 30972 30975 30978 30981 30984 30987 30990 30993 30996 30999 31002 31005 31008 31011 31014 31017 31020 31023 31026 31029 31032 31035 31038 31041 31044 31047 31050 31053 31056 31059 31062 31065 31068 31071 31074 31077 31080 31083 31086 31089 31092 31095 31098 31101 31104 31107 31110 31113 31116 31119 31122 31125 31128 31131 31134 31137 31140 31143 31146 31149 31152 31155 31158 31161 31164 31167 31170 31173 31176 31179 31182 31185 31188 31191 31194 31197 31200 31203 31206 31209 31212 31215 31218 31221 31224 31227 31230 31233 31236 31239 31242 31245 31248 31251 31254 31257 31260 31263 31266 31269 31272 31275 31278 31281 31284 31287 31290 31293 31296 31299 31302 31305 31308 31311 31314 31317 31320 31323 31326 31329 31332 31335 31338 31341 31344 31347 31350 31353 31356 31359 31362 31365 31368 31371 31374 31377 31380 31383 31386 31389 31392 31395 31398 31401 31404 31407 31410 31413 31416 31419 31422 31425 31428 31431 31434 31437 31440 31443 31446 31449 31452 31455 31458 31461 31464 31467 31470 31473 31476 31479 31482 31485 31488 31491 31494 31497 31500 31503 31506 31509 31512 31515 31518 31521 31524 31527 31530 31533 31536 31539 31542 31545 31548 31551 31554 31557 31560 31563 31566 31569 31572 31575 31578 31581 31584 31587 31590 31593 31596 31599 31602 31605 31608 31611 31614 31617 31620 31623 31626 31629 31632 31635 31638 31641 31644 31647 31650 31653 31656 31659 31662 31665 31668 31671 31674 31677 31680 31683 31686 31689 31692 31695 31698 31701 31704 31707 31710 31713 31716 31719 31722 31725 31728 31731 31734 31737 31740 31743 31746 31749 31752 31755 31758 31761 31764 31767 31770 31773 31776 31779 31782 31785 31788 31791 31794 31797 31800 31803 31806 31809 31812 31815 31818 31821 31824 31827 31830 31833 31836 31839 31842 31845 31848 31851 31854 31857 31860 31863 31866 31869 31872 31875 31878 31881 31884 31887 31890 31893 31896 31899 31902 31905 31908 31911 31914 31917 31920 31923 31926 31929 31932 31935 31938 31941 31944 31947 31950 31953 31956 31959 31962 31965 31968 31971 31974 31977 31980 31983 31986 31989 31992 31995 31998 32001 32004 32007 32010 32013 32016 32019 32022 32025 32028 32031 32034 32037 32040 32043 32046 32049 32052 32055 32058 32061 32064 32067 32070 32073 32076 32079 32082 32085 32088 32091 32094 32097 32100 32103 32106 32109 32112 32115 32118 32121 32124 32127 32130 32133 32136 32139 32142 32145 32148 32151 32154 32157 32160 32163 32166 32169 32172 32175 32178 32181 32184 32187 32190 32193 32196 32199 32202 32205 32208 32211 32214 32217 32220 32223 32226 32229 32232 32235 32238 32241 32244 32247 32250 32253 32256 32259 32262 32265 32268 32271 32274 32277 32280 32283 32286 32289 32292 32295 32298 32301 32304 32307 32310 32313 32316 32319 32322 32325 32328 32331 32334 32337 32340 32343 32346 32349 32352 32355 32358 32361 32364 32367 32370 32373 32376 32379 32382 32385 32388 32391 32394 32397 32400 32403 32406 32409 32412 32415 32418 32421 32424 32427 32430 32433 32436 32439 32442 32445 32448 32451 32454 32457 32460 32463 32466 32469 32472 32475 32478 32481 32484 32487 32490 32493 32496 32499 32502 32505 32508 32511 32514 32517 32520 32523 32526 32529 32532 32535 32538 32541 32544 32547 32550 32553 32556 32559 32562 32565 32568 32571 32574 32577 32580 32583 32586 32589 32592 32595 32598 32601 32604 32607 32610 32613 32616 32619 32622 32625 32628 32631 32634 32637 32640 32643 32646 32649 32652 32655 32658 32661 32664 32667 32670 32673 32676 32679 32682 32685 32688 32691 32694 32697 32700 32703 32706 32709 32712 32715 32718 32721 32724 32727 32730 32733 32736 32739 32742 32745 32748 32751 32754 32757 32760 32763 32766 32769 32772 32775 32778 32781 32784 32787 32790 32793 32796 32799 32802 32805 32808 32811 32814 32817 32820 32823 32826 32829 32832 32835 32838 32841 32844 32847 32850 32853 32856 32859 32862 32865 32868 32871 32874 32877 32880 32883 32886 32889 32892 32895 32898 32901 32904 32907 32910 32913 32916 32919 32922 32925 32928 32931 32934 32937 32940 32943 32946 32949 32952 32955 32958 32961 32964 32967 32970 32973 32976 32979 32982 32985 32988 32991 32994 32997 33000 33003 33006 33009 33012 33015 33018 33021 33024 33027 33030 33033 33036 33039 33042 33045 33048 33051 33054 33057 33060 33063 33066 33069 33072 33075 33078 33081 33084 33087 33090 33093 33096 33099 33102 33105 33108 33111 33114 33117 33120 33123 33126 33129 33132 33135 33138 33141 33144 33147 33150 33153 33156 33159 33162 33165 33168 33171 33174 33177 33180 33183 33186 33189 33192 33195 33198 33201 33204 33207 33210 33213 33216 33219 33222 33225 33228 33231 33234 33237 33240 33243 33246 33249 33252 33255 33258 33261 33264 33267 33270 33273 33276 33279 33282 33285 33288 33291 33294 33297 33300 33303 33306 33309 33312 33315 33318 33321 33324 33327 33330 33333 33336 33339 33342 33345 33348 33351 33354 33357 33360 33363 33366 33369 33372 33375 33378 33381 33384 33387 33390 33393 33396 33399 33402 33405 33408 33411 33414 33417 33420 33423 33426 33429 33432 33435 33438 33441 33444 33447 33450 33453 33456 33459 33462 33465 33468 33471 33474 33477 33480 33483 33486 33489 33492 33495 33498 33501 33504 33507 33510 33513 33516 33519 33522 33525 33528 33531 33534 33537 33540 33543 33546 33549 33552 33555 33558 33561 33564 33567 33570 33573 33576 33579 33582 33585 33588 33591 33594 33597 33600 33603 33606 33609 33612 33615 33618 33621 33624 33627 33630 33633 33636 33639 33642 33645 33648 33651 33654 33657 33660 33663 33666 33669 33672 33675 33678 33681 33684 33687 33690 33693 33696 33699 33702 33705 33708 33711 33714 33717 33720 33723 33726 33729 33732 33735 33738 33741 33744 33747 33750 33753 33756 33759 33762 33765 33768 33771 33774 33777 33780 33783 33786 33789 33792 33795 33798 33801 33804 33807 33810 33813 33816 33819 33822 33825 33828 33831 33834 33837 33840 33843 33846 33849 33852 33855 33858 33861 33864 33867 33870 33873 33876 33879 33882 33885 33888 33891 33894 33897 33900 33903 33906 33909 33912 33915 33918 33921 33924 33927 33930 33933 33936 33939 33942 33945 33948 33951 33954 33957 33960 33963 33966 33969 33972 33975 33978 33981 33984 33987 33990 33993 33996 33999 34002 34005 34008 34011 34014 34017 34020 34023 34026 34029 34032 34035 34038 34041 34044 34047 34050 34053 34056 34059 34062 34065 34068 34071 34074 34077 34080 34083 34086 34089 34092 34095 34098 34101 34104 34107 34110 34113 34116 34119 34122 34125 34128 34131 34134 34137 34140 34143 34146 34149 34152 34155 34158 34161 34164 34167 34170 34173 34176 34179 34182 34185 34188 34191 34194 34197 34200 34203 34206 34209 34212 34215 34218 34221 34224 34227 34230 34233 34236 34239 34242 34245 34248 34251 34254 34257 34260 34263 34266 34269 34272 34275 34278 34281 34284 34287 34290 34293 34296 34299 34302 34305 34308 34311 34314 34317 34320 34323 34326 34329 34332 34335 34338 34341 34344 34347 34350 34353 34356 34359 34362 34365 34368 34371 34374 34377 34380 34383 34386 34389 34392 34395 34398 34401 34404 34407 34410 34413 34416 34419 34422 34425 34428 34431 34434 34437 34440 34443 34446 34449 34452 34455 34458 34461 34464 34467 34470 34473 34476 34479 34482 34485 34488 34491 34494 34497 34500 34503 34506 34509 34512 34515 34518 34521 34524 34527 34530 34533 34536 34539 34542 34545 34548 34551 34554 34557 34560 34563 34566 34569 34572 34575 34578 34581 34584 34587 34590 34593 34596 34599 34602 34605 34608 34611 34614 34617 34620 34623 34626 34629 34632 34635 34638 34641 34644 34647 34650 34653 34656 34659 34662 34665 34668 34671 34674 34677 34680 34683 34686 34689 34692 34695 34698 34701 34704 34707 34710 34713 34716 34719 34722 34725 34728 34731 34734 34737 34740 34743 34746 34749 34752 34755 34758 34761 34764 34767 34770 34773 34776 34779 34782 34785 34788 34791 34794 34797 34800 34803 34806 34809 34812 34815 34818 34821 34824 34827 34830 34833 34836 34839 34842 34845 34848 34851 34854 34857 34860 34863 34866 34869 34872 34875 34878 34881 34884 34887 34890 34893 34896 34899 34902 34905 34908 34911 34914 34917 34920 34923 34926 34929 34932 34935 34938 34941 34944 34947 34950 34953 34956 34959 34962 34965 34968 34971 34974 34977 34980 34983 34986 34989 34992 34995 34998 35001 35004 35007 35010 35013 35016 35019 35022 35025 35028 35031 35034 35037 35040 35043 35046 35049 35052 35055 35058 35061 35064 35067 35070 35073 35076 35079 35082 35085 35088 35091 35094 35097 35100 35103 35106 35109 35112 35115 35118 35121 35124 35127 35130 35133 35136 35139 35142 35145 35148 35151 35154 35157 35160 35163 35166 35169 35172 35175 35178 35181 35184 35187 35190 35193 35196 35199 35202 35205 35208 35211 35214 35217 35220 35223 35226 35229 35232 35235 35238 35241 35244 35247 35250 35253 35256 35259 35262 35265 35268 35271 35274 35277 35280 35283 35286 35289 35292 35295 35298 35301 35304 35307 35310 35313 35316 35319 35322 35325 35328 35331 35334 35337 35340 35343 35346 35349 35352 35355 35358 35361 35364 35367 35370 35373 35376 35379 35382 35385 35388 35391 35394 35397 35400 35403 35406 35409 35412 35415 35418 35421 35424 35427 35430 35433 35436 35439 35442 35445 35448 35451 35454 35457 35460 35463 35466 35469 35472 35475 35478 35481 35484 35487 35490 35493 35496 35499 35502 35505 35508 35511 35514 35517 35520 35523 35526 35529 35532 35535 35538 35541 35544 35547 35550 35553 35556 35559 35562 35565 35568 35571 35574 35577 35580 35583 35586 35589 35592 35595 35598 35601 35604 35607 35610 35613 35616 35619 35622 35625 35628 35631 35634 35637 35640 35643 35646 35649 35652 35655 35658 35661 35664 35667 35670 35673 35676 35679 35682 35685 35688 35691 35694 35697 35700 35703 35706 35709 35712 35715 35718 35721 35724 35727 35730 35733 35736 35739 35742 35745 35748 35751 35754 35757 35760 35763 35766 35769 35772 35775 35778 35781 35784 35787 35790 35793 35796 35799 35802 35805 35808 35811 35814 35817 35820 35823 35826 35829 35832 35835 35838 35841 35844 35847 35850 35853 35856 35859 35862 35865 35868 35871 35874 35877 35880 35883 35886 35889 35892 35895 35898 35901 35904 35907 35910 35913 35916 35919 35922 35925 35928 35931 35934 35937 35940 35943 35946 35949 35952 35955 35958 35961 35964 35967 35970 35973 35976 35979 35982 35985 35988 35991 35994 35997 36000 36003 36006 36009 36012 36015 36018 36021 36024 36027 36030 36033 36036 36039 36042 36045 36048 36051 36054 36057 36060 36063 36066 36069 36072 36075 36078 36081 36084 36087 36090 36093 36096 36099 36102 36105 36108 36111 36114 36117 36120 36123 36126 36129 36132 36135 36138 36141 36144 36147 36150 36153 36156 36159 36162 36165 36168 36171 36174 36177 36180 36183 36186 36189 36192 36195 36198 36201 36204 36207 36210 36213 36216 36219 36222 36225 36228 36231 36234 36237 36240 36243 36246 36249 36252 36255 36258 36261 36264 36267 36270 36273 36276 36279 36282 36285 36288 36291 36294 36297 36300 36303 36306 36309 36312 36315 36318 36321 36324 36327 36330 36333 36336 36339 36342 36345 36348 36351 36354 36357 36360 36363 36366 36369 36372 36375 36378 36381 36384 36387 36390 36393 36396 36399 36402 36405 36408 36411 36414 36417 36420 36423 36426 36429 36432 36435 36438 36441 36444 36447 36450 36453 36456 36459 36462 36465 36468 36471 36474 36477 36480 36483 36486 36489 36492 36495 36498 36501 36504 36507 36510 36513 36516 36519 36522 36525 36528 36531 36534 36537 36540 36543 36546 36549 36552 36555 36558 36561 36564 36567 36570 36573 36576 36579 36582 36585 36588 36591 36594 36597 36600 36603 36606 36609 36612 36615 36618 36621 36624 36627 36630 36633 36636 36639 36642 36645 36648 36651 36654 36657 36660 36663 36666 36669 36672 36675 36678 36681 36684 36687 36690 36693 36696 36699 36702 36705 36708 36711 36714 36717 36720 36723 36726 36729 36732 36735 36738 36741 36744 36747 36750 36753 36756 36759 36762 36765 36768 36771 36774 36777 36780 36783 36786 36789 36792 36795 36798 36801 36804 36807 36810 36813 36816 36819 36822 36825 36828 36831 36834 36837 36840 36843 36846 36849 36852 36855 36858 36861 36864 36867 36870 36873 36876 36879 36882 36885 36888 36891 36894 36897 36900 36903 36906 36909 36912 36915 36918 36921 36924 36927 36930 36933 36936 36939 36942 36945 36948 36951 36954 36957 36960 36963 36966 36969 36972 36975 36978 36981 36984 36987 36990 36993 36996 36999 37002 37005 37008 37011 37014 37017 37020 37023 37026 37029 37032 37035 37038 37041 37044 37047 37050 37053 37056 37059 37062 37065 37068 37071 37074 37077 37080 37083 37086 37089 37092 37095 37098 37101 37104 37107 37110 37113 37116 37119 37122 37125 37128 37131 37134 37137 37140 37143 37146 37149 37152 37155 37158 37161 37164 37167 37170 37173 37176 37179 37182 37185 37188 37191 37194 37197 37200 37203 37206 37209 37212 37215 37218 37221 37224 37227 37230 37233 37236 37239 37242 37245 37248 37251 37254 37257 37260 37263 37266 37269 37272 37275 37278 37281 37284 37287 37290 37293 37296 37299 37302 37305 37308 37311 37314 37317 37320 37323 37326 37329 37332 37335 37338 37341 37344 37347 37350 37353 37356 37359 37362 37365 37368 37371 37374 37377 37380 37383 37386 37389 37392 37395 37398 37401 37404 37407 37410 37413 37416 37419 37422 37425 37428 37431 37434 37437 37440 37443 37446 37449 37452 37455 37458 37461 37464 37467 37470 37473 37476 37479 37482 37485 37488 37491 37494 37497 37500 37503 37506 37509 37512 37515 37518 37521 37524 37527 37530 37533 37536 37539 37542 37545 37548 37551 37554 37557 37560 37563 37566 37569 37572 37575 37578 37581 37584 37587 37590 37593 37596 37599 37602 37605 37608 37611 37614 37617 37620 37623 37626 37629 37632 37635 37638 37641 37644 37647 37650 37653 37656 37659 37662 37665 37668 37671 37674 37677 37680 37683 37686 37689 37692 37695 37698 37701 37704 37707 37710 37713 37716 37719 37722 37725 37728 37731 37734 37737 37740 37743 37746 37749 37752 37755 37758 37761 37764 37767 37770 37773 37776 37779 37782 37785 37788 37791 37794 37797 37800 37803 37806 37809 37812 37815 37818 37821 37824 37827 37830 37833 37836 37839 37842 37845 37848 37851 37854 37857 37860 37863 37866 37869 37872 37875 37878 37881 37884 37887 37890 37893 37896 37899 37902 37905 37908 37911 37914 37917 37920 37923 37926 37929 37932 37935 37938 37941 37944 37947 37950 37953 37956 37959 37962 37965 37968 37971 37974 37977 37980 37983 37986 37989 37992 37995 37998 38001 38004 38007 38010 38013 38016 38019 38022 38025 38028 38031 38034 38037 38040 38043 38046 38049 38052 38055 38058 38061 38064 38067 38070 38073 38076 38079 38082 38085 38088 38091 38094 38097 38100 38103 38106 38109 38112 38115 38118 38121 38124 38127 38130 38133 38136 38139 38142 38145 38148 38151 38154 38157 38160 38163 38166 38169 38172 38175 38178 38181 38184 38187 38190 38193 38196 38199 38202 38205 38208 38211 38214 38217 38220 38223 38226 38229 38232 38235 38238 38241 38244 38247 38250 38253 38256 38259 38262 38265 38268 38271 38274 38277 38280 38283 38286 38289 38292 38295 38298 38301 38304 38307 38310 38313 38316 38319 38322 38325 38328 38331 38334 38337 38340 38343 38346 38349 38352 38355 38358 38361 38364 38367 38370 38373 38376 38379 38382 38385 38388 38391 38394 38397 38400 38403 38406 38409 38412 38415 38418 38421 38424 38427 38430 38433 38436 38439 38442 38445 38448 38451 38454 38457 38460 38463 38466 38469 38472 38475 38478 38481 38484 38487 38490 38493 38496 38499 38502 38505 38508 38511 38514 38517 38520 38523 38526 38529 38532 38535 38538 38541 38544 38547 38550 38553 38556 38559 38562 38565 38568 38571 38574 38577 38580 38583 38586 38589 38592 38595 38598 38601 38604 38607 38610 38613 38616 38619 38622 38625 38628 38631 38634 38637 38640 38643 38646 38649 38652 38655 38658 38661 38664 38667 38670 38673 38676 38679 38682 38685 38688 38691 38694 38697 38700 38703 38706 38709 38712 38715 38718 38721 38724 38727 38730 38733 38736 38739 38742 38745 38748 38751 38754 38757 38760 38763 38766 38769 38772 38775 38778 38781 38784 38787 38790 38793 38796 38799 38802 38805 38808 38811 38814 38817 38820 38823 38826 38829 38832 38835 38838 38841 38844 38847 38850 38853 38856 38859 38862 38865 38868 38871 38874 38877 38880 38883 38886 38889 38892 38895 38898 38901 38904 38907 38910 38913 38916 38919 38922 38925 38928 38931 38934 38937 38940 38943 38946 38949 38952 38955 38958 38961 38964 38967 38970 38973 38976 38979 38982 38985 38988 38991 38994 38997 39000 39003 39006 39009 39012 39015 39018 39021 39024 39027 39030 39033 39036 39039 39042 39045 39048 39051 39054 39057 39060 39063 39066 39069 39072 39075 39078 39081 39084 39087 39090 39093 39096 39099 39102 39105 39108 39111 39114 39117 39120 39123 39126 39129 39132 39135 39138 39141 39144 39147 39150 39153 39156 39159 39162 39165 39168 39171 39174 39177 39180 39183 39186 39189 39192 39195 39198 39201 39204 39207 39210 39213 39216 39219 39222 39225 39228 39231 39234 39237 39240 39243 39246 39249 39252 39255 39258 39261 39264 39267 39270 39273 39276 39279 39282 39285 39288 39291 39294 39297 39300 39303 39306 39309 39312 39315 39318 39321 39324 39327 39330 39333 39336 39339 39342 39345 39348 39351 39354 39357 39360 39363 39366 39369 39372 39375 39378 39381 39384 39387 39390 39393 39396 39399 39402 39405 39408 39411 39414 39417 39420 39423 39426 39429 39432 39435 39438 39441 39444 39447 39450 39453 39456 39459 39462 39465 39468 39471 39474 39477 39480 39483 39486 39489 39492 39495 39498 39501 39504 39507 39510 39513 39516 39519 39522 39525 39528 39531 39534 39537 39540 39543 39546 39549 39552 39555 39558 39561 39564 39567 39570 39573 39576 39579 39582 39585 39588 39591 39594 39597 39600 39603 39606 39609 39612 39615 39618 39621 39624 39627 39630 39633 39636 39639 39642 39645 39648 39651 39654 39657 39660 39663 39666 39669 39672 39675 39678 39681 39684 39687 39690 39693 39696 39699 39702 39705 39708 39711 39714 39717 39720 39723 39726 39729 39732 39735 39738 39741 39744 39747 39750 39753 39756 39759 39762 39765 39768 39771 39774 39777 39780 39783 39786 39789 39792 39795 39798 39801 39804 39807 39810 39813 39816 39819 39822 39825 39828 39831 39834 39837 39840 39843 39846 39849 39852 39855 39858 39861 39864 39867 39870 39873 39876 39879 39882 39885 39888 39891 39894 39897 39900 39903 39906 39909 39912 39915 39918 39921 39924 39927 39930 39933 39936 39939 39942 39945 39948 39951 39954 39957 39960 39963 39966 39969 39972 39975 39978 39981 39984 39987 39990 39993 39996 39999 40002 40005 40008 40011 40014 40017 40020 40023 40026 40029 40032 40035 40038 40041 40044 40047 40050 40053 40056 40059 40062 40065 40068 40071 40074 40077 40080 40083 40086 40089 40092 40095 40098 40101 40104 40107 40110 40113 40116 40119 40122 40125 40128 40131 40134 40137 40140 40143 40146 40149 40152 40155 40158 40161 40164 40167 40170 40173 40176 40179 40182 40185 40188 40191 40194 40197 40200 40203 40206 40209 40212 40215 40218 40221 40224 40227 40230 40233 40236 40239 40242 40245 40248 40251 40254 40257 40260 40263 40266 40269 40272 40275 40278 40281 40284 40287 40290 40293 40296 40299 40302 40305 40308 40311 40314 40317 40320 40323 40326 40329 40332 40335 40338 40341 40344 40347 40350 40353 40356 40359 40362 40365 40368 40371 40374 40377 40380 40383 40386 40389 40392 40395 40398 40401 40404 40407 40410 40413 40416 40419 40422 40425 40428 40431 40434 40437 40440 40443 40446 40449 40452 40455 40458 40461 40464 40467 40470 40473 40476 40479 40482 40485 40488 40491 40494 40497 40500 40503 40506 40509 40512 40515 40518 40521 40524 40527 40530 40533 40536 40539 40542 40545 40548 40551 40554 40557 40560 40563 40566 40569 40572 40575 40578 40581 40584 40587 40590 40593 40596 40599 40602 40605 40608 40611 40614 40617 40620 40623 40626 40629 40632 40635 40638 40641 40644 40647 40650 40653 40656 40659 40662 40665 40668 40671 40674 40677 40680 40683 40686 40689 40692 40695 40698 40701 40704 40707 40710 40713 40716 40719 40722 40725 40728 40731 40734 40737 40740 40743 40746 40749 40752 40755 40758 40761 40764 40767 40770 40773 40776 40779 40782 40785 40788 40791 40794 40797 40800 40803 40806 40809 40812 40815 40818 40821 40824 40827 40830 40833 40836 40839 40842 40845 40848 40851 40854 40857 40860 40863 40866 40869 40872 40875 40878 40881 40884 40887 40890 40893 40896 40899 40902 40905 40908 40911 40914 40917 40920 40923 40926 40929 40932 40935 40938 40941 40944 40947 40950 40953 40956 40959 40962 40965 40968 40971 40974 40977 40980 40983 40986 40989 40992 40995 40998 41001 41004 41007 41010 41013 41016 41019 41022 41025 41028 41031 41034 41037 41040 41043 41046 41049 41052 41055 41058 41061 41064 41067 41070 41073 41076 41079 41082 41085 41088 41091 41094 41097 41100 41103 41106 41109 41112 41115 41118 41121 41124 41127 41130 41133 41136 41139 41142 41145 41148 41151 41154 41157 41160 41163 41166 41169 41172 41175 41178 41181 41184 41187 41190 41193 41196 41199 41202 41205 41208 41211 41214 41217 41220 41223 41226 41229 41232 41235 41238 41241 41244 41247 41250 41253 41256 41259 41262 41265 41268 41271 41274 41277 41280 41283 41286 41289 41292 41295 41298 41301 41304 41307 41310 41313 41316 41319 41322 41325 41328 41331 41334 41337 41340 41343 41346 41349 41352 41355 41358 41361 41364 41367 41370 41373 41376 41379 41382 41385 41388 41391 41394 41397 41400 41403 41406 41409 41412 41415 41418 41421 41424 41427 41430 41433 41436 41439 41442 41445 41448 41451 41454 41457 41460 41463 41466 41469 41472 41475 41478 41481 41484 41487 41490 41493 41496 41499 41502 41505 41508 41511 41514 41517 41520 41523 41526 41529 41532 41535 41538 41541 41544 41547 41550 41553 41556 41559 41562 41565 41568 41571 41574 41577 41580 41583 41586 41589 41592 41595 41598 41601 41604 41607 41610 41613 41616 41619 41622 41625 41628 41631 41634 41637 41640 41643 41646 41649 41652 41655 41658 41661 41664 41667 41670 41673 41676 41679 41682 41685 41688 41691 41694 41697 41700 41703 41706 41709 41712 41715 41718 41721 41724 41727 41730 41733 41736 41739 41742 41745 41748 41751 41754 41757 41760 41763 41766 41769 41772 41775 41778 41781 41784 41787 41790 41793 41796 41799 41802 41805 41808 41811 41814 41817 41820 41823 41826 41829 41832 41835 41838 41841 41844 41847 41850 41853 41856 41859 41862 41865 41868 41871 41874 41877 41880 41883 41886 41889 41892 41895 41898 41901 41904 41907 41910 41913 41916 41919 41922 41925 41928 41931 41934 41937 41940 41943 41946 41949 41952 41955 41958 41961 41964 41967 41970 41973 41976 41979 41982 41985 41988 41991 41994 41997 42000 42003 42006 42009 42012 42015 42018 42021 42024 42027 42030 42033 42036 42039 42042 42045 42048 42051 42054 42057 42060 42063 42066 42069 42072 42075 42078 42081 42084 42087 42090 42093 42096 42099 42102 42105 42108 42111 42114 42117 42120 42123 42126 42129 42132 42135 42138 42141 42144 42147 42150 42153 42156 42159 42162 42165 42168 42171 42174 42177 42180 42183 42186 42189 42192 42195 42198 42201 42204 42207 42210 42213 42216 42219 42222 42225 42228 42231 42234 42237 42240 42243 42246 42249 42252 42255 42258 42261 42264 42267 42270 42273 42276 42279 42282 42285 42288 42291 42294 42297 42300 42303 42306 42309 42312 42315 42318 42321 42324 42327 42330 42333 42336 42339 42342 42345 42348 42351 42354 42357 42360 42363 42366 42369 42372 42375 42378 42381 42384 42387 42390 42393 42396 42399 42402 42405 42408 42411 42414 42417 42420 42423 42426 42429 42432 42435 42438 42441 42444 42447 42450 42453 42456 42459 42462 42465 42468 42471 42474 42477 42480 42483 42486 42489 42492 42495 42498 42501 42504 42507 42510 42513 42516 42519 42522 42525 42528 42531 42534 42537 42540 42543 42546 42549 42552 42555 42558 42561 42564 42567 42570 42573 42576 42579 42582 42585 42588 42591 42594 42597 42600 42603 42606 42609 42612 42615 42618 42621 42624 42627 42630 42633 42636 42639 42642 42645 42648 42651 42654 42657 42660 42663 42666 42669 42672 42675 42678 42681 42684 42687 42690 42693 42696 42699 42702 42705 42708 42711 42714 42717 42720 42723 42726 42729 42732 42735 42738 42741 42744 42747 42750 42753 42756 42759 42762 42765 42768 42771 42774 42777 42780 42783 42786 42789 42792 42795 42798 42801 42804 42807 42810 42813 42816 42819 42822 42825 42828 42831 42834 42837 42840 42843 42846 42849 42852 42855 42858 42861 42864 42867 42870 42873 42876 42879 42882 42885 42888 42891 42894 42897 42900 42903 42906 42909 42912 42915 42918 42921 42924 42927 42930 42933 42936 42939 42942 42945 42948 42951 42954 42957 42960 42963 42966 42969 42972 42975 42978 42981 42984 42987 42990 42993 42996 42999 43002 43005 43008 43011 43014 43017 43020 43023 43026 43029 43032 43035 43038 43041 43044 43047 43050 43053 43056 43059 43062 43065 43068 43071 43074 43077 43080 43083 43086 43089 43092 43095 43098 43101 43104 43107 43110 43113 43116 43119 43122 43125 43128 43131 43134 43137 43140 43143 43146 43149 43152 43155 43158 43161 43164 43167 43170 43173 43176 43179 43182 43185 43188 43191 43194 43197 43200 43203 43206 43209 43212 43215 43218 43221 43224 43227 43230 43233 43236 43239 43242 43245 43248 43251 43254 43257 43260 43263 43266 43269 43272 43275 43278 43281 43284 43287 43290 43293 43296 43299 43302 43305 43308 43311 43314 43317 43320 43323 43326 43329 43332 43335 43338 43341 43344 43347 43350 43353 43356 43359 43362 43365 43368 43371 43374 43377 43380 43383 43386 43389 43392 43395 43398 43401 43404 43407 43410 43413 43416 43419 43422 43425 43428 43431 43434 43437 43440 43443 43446 43449 43452 43455 43458 43461 43464 43467 43470 43473 43476 43479 43482 43485 43488 43491 43494 43497 43500 43503 43506 43509 43512 43515 43518 43521 43524 43527 43530 43533 43536 43539 43542 43545 43548 43551 43554 43557 43560 43563 43566 43569 43572 43575 43578 43581 43584 43587 43590 43593 43596 43599 43602 43605 43608 43611 43614 43617 43620 43623 43626 43629 43632 43635 43638 43641 43644 43647 43650 43653 43656 43659 43662 43665 43668 43671 43674 43677 43680 43683 43686 43689 43692 43695 43698 43701 43704 43707 43710 43713 43716 43719 43722 43725 43728 43731 43734 43737 43740 43743 43746 43749 43752 43755 43758 43761 43764 43767 43770 43773 43776 43779 43782 43785 43788 43791 43794 43797 43800 43803 43806 43809 43812 43815 43818 43821 43824 43827 43830 43833 43836 43839 43842 43845 43848 43851 43854 43857 43860 43863 43866 43869 43872 43875 43878 43881 43884 43887 43890 43893 43896 43899 43902 43905 43908 43911 43914 43917 43920 43923 43926 43929 43932 43935 43938 43941 43944 43947 43950 43953 43956 43959 43962 43965 43968 43971 43974 43977 43980 43983 43986 43989 43992 43995 43998 44001 44004 44007 44010 44013 44016 44019 44022 44025 44028 44031 44034 44037 44040 44043 44046 44049 44052 44055 44058 44061 44064 44067 44070 44073 44076 44079 44082 44085 44088 44091 44094 44097 44100 44103 44106 44109 44112 44115 44118 44121 44124 44127 44130 44133 44136 44139 44142 44145 44148 44151 44154 44157 44160 44163 44166 44169 44172 44175 44178 44181 44184 44187 44190 44193 44196 44199 44202 44205 44208 44211 44214 44217 44220 44223 44226 44229 44232 44235 44238 44241 44244 44247 44250 44253 44256 44259 44262 44265 44268 44271 44274 44277 44280 44283 44286 44289 44292 44295 44298 44301 44304 44307 44310 44313 44316 44319 44322 44325 44328 44331 44334 44337 44340 44343 44346 44349 44352 44355 44358 44361 44364 44367 44370 44373 44376 44379 44382 44385 44388 44391 44394 44397 44400 44403 44406 44409 44412 44415 44418 44421 44424 44427 44430 44433 44436 44439 44442 44445 44448 44451 44454 44457 44460 44463 44466 44469 44472 44475 44478 44481 44484 44487 44490 44493 44496 44499 44502 44505 44508 44511 44514 44517 44520 44523 44526 44529 44532 44535 44538 44541 44544 44547 44550 44553 44556 44559 44562 44565 44568 44571 44574 44577 44580 44583 44586 44589 44592 44595 44598 44601 44604 44607 44610 44613 44616 44619 44622 44625 44628 44631 44634 44637 44640 44643 44646 44649 44652 44655 44658 44661 44664 44667 44670 44673 44676 44679 44682 44685 44688 44691 44694 44697 44700 44703 44706 44709 44712 44715 44718 44721 44724 44727 44730 44733 44736 44739 44742 44745 44748 44751 44754 44757 44760 44763 44766 44769 44772 44775 44778 44781 44784 44787 44790 44793 44796 44799 44802 44805 44808 44811 44814 44817 44820 44823 44826 44829 44832 44835 44838 44841 44844 44847 44850 44853 44856 44859 44862 44865 44868 44871 44874 44877 44880 44883 44886 44889 44892 44895 44898 44901 44904 44907 44910 44913 44916 44919 44922 44925 44928 44931 44934 44937 44940 44943 44946 44949 44952 44955 44958 44961 44964 44967 44970 44973 44976 44979 44982 44985 44988 44991 44994 44997 45000 45003 45006 45009 45012 45015 45018 45021 45024 45027 45030 45033 45036 45039 45042 45045 45048 45051 45054 45057 45060 45063 45066 45069 45072 45075 45078 45081 45084 45087 45090 45093 45096 45099 45102 45105 45108 45111 45114 45117 45120 45123 45126 45129 45132 45135 45138 45141 45144 45147 45150 45153 45156 45159 45162 45165 45168 45171 45174 45177 45180 45183 45186 45189 45192 45195 45198 45201 45204 45207 45210 45213 45216 45219 45222 45225 45228 45231 45234 45237 45240 45243 45246 45249 45252 45255 45258 45261 45264 45267 45270 45273 45276 45279 45282 45285 45288 45291 45294 45297 45300 45303 45306 45309 45312 45315 45318 45321 45324 45327 45330 45333 45336 45339 45342 45345 45348 45351 45354 45357 45360 45363 45366 45369 45372 45375 45378 45381 45384 45387 45390 45393 45396 45399 45402 45405 45408 45411 45414 45417 45420 45423 45426 45429 45432 45435 45438 45441 45444 45447 45450 45453 45456 45459 45462 45465 45468 45471 45474 45477 45480 45483 45486 45489 45492 45495 45498 45501 45504 45507 45510 45513 45516 45519 45522 45525 45528 45531 45534 45537 45540 45543 45546 45549 45552 45555 45558 45561 45564 45567 45570 45573 45576 45579 45582 45585 45588 45591 45594 45597 45600 45603 45606 45609 45612 45615 45618 45621 45624 45627 45630 45633 45636 45639 45642 45645 45648 45651 45654 45657 45660 45663 45666 45669 45672 45675 45678 45681 45684 45687 45690 45693 45696 45699 45702 45705 45708 45711 45714 45717 45720 45723 45726 45729 45732 45735 45738 45741 45744 45747 45750 45753 45756 45759 45762 45765 45768 45771 45774 45777 45780 45783 45786 45789 45792 45795 45798 45801 45804 45807 45810 45813 45816 45819 45822 45825 45828 45831 45834 45837 45840 45843 45846 45849 45852 45855 45858 45861 45864 45867 45870 45873 45876 45879 45882 45885 45888 45891 45894 45897 45900 45903 45906 45909 45912 45915 45918 45921 45924 45927 45930 45933 45936 45939 45942 45945 45948 45951 45954 45957 45960 45963 45966 45969 45972 45975 45978 45981 45984 45987 45990 45993 45996 45999 46002 46005 46008 46011 46014 46017 46020 46023 46026 46029 46032 46035 46038 46041 46044 46047 46050 46053 46056 46059 46062 46065 46068 46071 46074 46077 46080 46083 46086 46089 46092 46095 46098 46101 46104 46107 46110 46113 46116 46119 46122 46125 46128 46131 46134 46137 46140 46143 46146 46149 46152 46155 46158 46161 46164 46167 46170 46173 46176 46179 46182 46185 46188 46191 46194 46197 46200 46203 46206 46209 46212 46215 46218 46221 46224 46227 46230 46233 46236 46239 46242 46245 46248 46251 46254 46257 46260 46263 46266 46269 46272 46275 46278 46281 46284 46287 46290 46293 46296 46299 46302 46305 46308 46311 46314 46317 46320 46323 46326 46329 46332 46335 46338 46341 46344 46347 46350 46353 46356 46359 46362 46365 46368 46371 46374 46377 46380 46383 46386 46389 46392 46395 46398 46401 46404 46407 46410 46413 46416 46419 46422 46425 46428 46431 46434 46437 46440 46443 46446 46449 46452 46455 46458 46461 46464 46467 46470 46473 46476 46479 46482 46485 46488 46491 46494 46497 46500 46503 46506 46509 46512 46515 46518 46521 46524 46527 46530 46533 46536 46539 46542 46545 46548 46551 46554 46557 46560 46563 46566 46569 46572 46575 46578 46581 46584 46587 46590 46593 46596 46599 46602 46605 46608 46611 46614 46617 46620 46623 46626 46629 46632 46635 46638 46641 46644 46647 46650 46653 46656 46659 46662 46665 46668 46671 46674 46677 46680 46683 46686 46689 46692 46695 46698 46701 46704 46707 46710 46713 46716 46719 46722 46725 46728 46731 46734 46737 46740 46743 46746 46749 46752 46755 46758 46761 46764 46767 46770 46773 46776 46779 46782 46785 46788 46791 46794 46797 46800 46803 46806 46809 46812 46815 46818 46821 46824 46827 46830 46833 46836 46839 46842 46845 46848 46851 46854 46857 46860 46863 46866 46869 46872 46875 46878 46881 46884 46887 46890 46893 46896 46899 46902 46905 46908 46911 46914 46917 46920 46923 46926 46929 46932 46935 46938 46941 46944 46947 46950 46953 46956 46959 46962 46965 46968 46971 46974 46977 46980 46983 46986 46989 46992 46995 46998 47001 47004 47007 47010 47013 47016 47019 47022 47025 47028 47031 47034 47037 47040 47043 47046 47049 47052 47055 47058 47061 47064 47067 47070 47073 47076 47079 47082 47085 47088 47091 47094 47097 47100 47103 47106 47109 47112 47115 47118 47121 47124 47127 47130 47133 47136 47139 47142 47145 47148 47151 47154 47157 47160 47163 47166 47169 47172 47175 47178 47181 47184 47187 47190 47193 47196 47199 47202 47205 47208 47211 47214 47217 47220 47223 47226 47229 47232 47235 47238 47241 47244 47247 47250 47253 47256 47259 47262 47265 47268 47271 47274 47277 47280 47283 47286 47289 47292 47295 47298 47301 47304 47307 47310 47313 47316 47319 47322 47325 47328 47331 47334 47337 47340 47343 47346 47349 47352 47355 47358 47361 47364 47367 47370 47373 47376 47379 47382 47385 47388 47391 47394 47397 47400 47403 47406 47409 47412 47415 47418 47421 47424 47427 47430 47433 47436 47439 47442 47445 47448 47451 47454 47457 47460 47463 47466 47469 47472 47475 47478 47481 47484 47487 47490 47493 47496 47499 47502 47505 47508 47511 47514 47517 47520 47523 47526 47529 47532 47535 47538 47541 47544 47547 47550 47553 47556 47559 47562 47565 47568 47571 47574 47577 47580 47583 47586 47589 47592 47595 47598 47601 47604 47607 47610 47613 47616 47619 47622 47625 47628 47631 47634 47637 47640 47643 47646 47649 47652 47655 47658 47661 47664 47667 47670 47673 47676 47679 47682 47685 47688 47691 47694 47697 47700 47703 47706 47709 47712 47715 47718 47721 47724 47727 47730 47733 47736 47739 47742 47745 47748 47751 47754 47757 47760 47763 47766 47769 47772 47775 47778 47781 47784 47787 47790 47793 47796 47799 47802 47805 47808 47811 47814 47817 47820 47823 47826 47829 47832 47835 47838 47841 47844 47847 47850 47853 47856 47859 47862 47865 47868 47871 47874 47877 47880 47883 47886 47889 47892 47895 47898 47901 47904 47907 47910 47913 47916 47919 47922 47925 47928 47931 47934 47937 47940 47943 47946 47949 47952 47955 47958 47961 47964 47967 47970 47973 47976 47979 47982 47985 47988 47991 47994 47997 48000 48003 48006 48009 48012 48015 48018 48021 48024 48027 48030 48033 48036 48039 48042 48045 48048 48051 48054 48057 48060 48063 48066 48069 48072 48075 48078 48081 48084 48087 48090 48093 48096 48099 48102 48105 48108 48111 48114 48117 48120 48123 48126 48129 48132 48135 48138 48141 48144 48147 48150 48153 48156 48159 48162 48165 48168 48171 48174 48177 48180 48183 48186 48189 48192 48195 48198 48201 48204 48207 48210 48213 48216 48219 48222 48225 48228 48231 48234 48237 48240 48243 48246 48249 48252 48255 48258 48261 48264 48267 48270 48273 48276 48279 48282 48285 48288 48291 48294 48297 48300 48303 48306 48309 48312 48315 48318 48321 48324 48327 48330 48333 48336 48339 48342 48345 48348 48351 48354 48357 48360 48363 48366 48369 48372 48375 48378 48381 48384 48387 48390 48393 48396 48399 48402 48405 48408 48411 48414 48417 48420 48423 48426 48429 48432 48435 48438 48441 48444 48447 48450 48453 48456 48459 48462 48465 48468 48471 48474 48477 48480 48483 48486 48489 48492 48495 48498 48501 48504 48507 48510 48513 48516 48519 48522 48525 48528 48531 48534 48537 48540 48543 48546 48549 48552 48555 48558 48561 48564 48567 48570 48573 48576 48579 48582 48585 48588 48591 48594 48597 48600 48603 48606 48609 48612 48615 48618 48621 48624 48627 48630 48633 48636 48639 48642 48645 48648 48651 48654 48657 48660 48663 48666 48669 48672 48675 48678 48681 48684 48687 48690 48693 48696 48699 48702 48705 48708 48711 48714 48717 48720 48723 48726 48729 48732 48735 48738 48741 48744 48747 48750 48753 48756 48759 48762 48765 48768 48771 48774 48777 48780 48783 48786 48789 48792 48795 48798 48801 48804 48807 48810 48813 48816 48819 48822 48825 48828 48831 48834 48837 48840 48843 48846 48849 48852 48855 48858 48861 48864 48867 48870 48873 48876 48879 48882 48885 48888 48891 48894 48897 48900 48903 48906 48909 48912 48915 48918 48921 48924 48927 48930 48933 48936 48939 48942 48945 48948 48951 48954 48957 48960 48963 48966 48969 48972 48975 48978 48981 48984 48987 48990 48993 48996 48999 49002 49005 49008 49011 49014 49017 49020 49023 49026 49029 49032 49035 49038 49041 49044 49047 49050 49053 49056 49059 49062 49065 49068 49071 49074 49077 49080 49083 49086 49089 49092 49095 49098 49101 49104 49107 49110 49113 49116 49119 49122 49125 49128 49131 49134 49137 49140 49143 49146 49149 49152 49155 49158 49161 49164 49167 49170 49173 49176 49179 49182 49185 49188 49191 49194 49197 49200 49203 49206 49209 49212 49215 49218 49221 49224 49227 49230 49233 49236 49239 49242 49245 49248 49251 49254 49257 49260 49263 49266 49269 49272 49275 49278 49281 49284 49287 49290 49293 49296 49299 49302 49305 49308 49311 49314 49317 49320 49323 49326 49329 49332 49335 49338 49341 49344 49347 49350 49353 49356 49359 49362 49365 49368 49371 49374 49377 49380 49383 49386 49389 49392 49395 49398 49401 49404 49407 49410 49413 49416 49419 49422 49425 49428 49431 49434 49437 49440 49443 49446 49449 49452 49455 49458 49461 49464 49467 49470 49473 49476 49479 49482 49485 49488 49491 49494 49497 49500 49503 49506 49509 49512 49515 49518 49521 49524 49527 49530 49533 49536 49539 49542 49545 49548 49551 49554 49557 49560 49563 49566 49569 49572 49575 49578 49581 49584 49587 49590 49593 49596 49599 49602 49605 49608 49611 49614 49617 49620 49623 49626 49629 49632 49635 49638 49641 49644 49647 49650 49653 49656 49659 49662 49665 49668 49671 49674 49677 49680 49683 49686 49689 49692 49695 49698 49701 49704 49707 49710 49713 49716 49719 49722 49725 49728 49731 49734 49737 49740 49743 49746 49749 49752 49755 49758 49761 49764 49767 49770 49773 49776 49779 49782 49785 49788 49791 49794 49797 49800 49803 49806 49809 49812 49815 49818 49821 49824 49827 49830 49833 49836 49839 49842 49845 49848 49851 49854 49857 49860 49863 49866 49869 49872 49875 49878 49881 49884 49887 49890 49893 49896 49899 49902 49905 49908 49911 49914 49917 49920 49923 49926 49929 49932 49935 49938 49941 49944 49947 49950 49953 49956 49959 49962 49965 49968 49971 49974 49977 49980 49983 49986 49989 49992 49995 49998 50001 50004 50007 50010 50013 50016 50019 50022 50025 50028 50031 50034 50037 50040 50043 50046 50049 50052 50055 50058 50061 50064 50067 50070 50073 50076 50079 50082 50085 50088 50091 50094 50097 50100 50103 50106 50109 50112 50115 50118 50121 50124 50127 50130 50133 50136 50139 50142 50145 50148 50151 50154 50157 50160 50163 50166 50169 50172 50175 50178 50181 50184 50187 50190 50193 50196 50199 50202 50205 50208 50211 50214 50217 50220 50223 50226 50229 50232 50235 50238 50241 50244 50247 50250 50253 50256 50259 50262 50265 50268 50271 50274 50277 50280 50283 50286 50289 50292 50295 50298 50301 50304 50307 50310 50313 50316 50319 50322 50325 50328 50331 50334 50337 50340 50343 50346 50349 50352 50355 50358 50361 50364 50367 50370 50373 50376 50379 50382 50385 50388 50391 50394 50397 50400 50403 50406 50409 50412 50415 50418 50421 50424 50427 50430 50433 50436 50439 50442 50445 50448 50451 50454 50457 50460 50463 50466 50469 50472 50475 50478 50481 50484 50487 50490 50493 50496 50499 50502 50505 50508 50511 50514 50517 50520 50523 50526 50529 50532 50535 50538 50541 50544 50547 50550 50553 50556 50559 50562 50565 50568 50571 50574 50577 50580 50583 50586 50589 50592 50595 50598 50601 50604 50607 50610 50613 50616 50619 50622 50625 50628 50631 50634 50637 50640 50643 50646 50649 50652 50655 50658 50661 50664 50667 50670 50673 50676 50679 50682 50685 50688 50691 50694 50697 50700 50703 50706 50709 50712 50715 50718 50721 50724 50727 50730 50733 50736 50739 50742 50745 50748 50751 50754 50757 50760 50763 50766 50769 50772 50775 50778 50781 50784 50787 50790 50793 50796 50799 50802 50805 50808 50811 50814 50817 50820 50823 50826 50829 50832 50835 50838 50841 50844 50847 50850 50853 50856 50859 50862 50865 50868 50871 50874 50877 50880 50883 50886 50889 50892 50895 50898 50901 50904 50907 50910 50913 50916 50919 50922 50925 50928 50931 50934 50937 50940 50943 50946 50949 50952 50955 50958 50961 50964 50967 50970 50973 50976 50979 50982 50985 50988 50991 50994 50997 51000 51003 51006 51009 51012 51015 51018 51021 51024 51027 51030 51033 51036 51039 51042 51045 51048 51051 51054 51057 51060 51063 51066 51069 51072 51075 51078 51081 51084 51087 51090 51093 51096 51099 51102 51105 51108 51111 51114 51117 51120 51123 51126 51129 51132 51135 51138 51141 51144 51147 51150 51153 51156 51159 51162 51165 51168 51171 51174 51177 51180 51183 51186 51189 51192 51195 51198 51201 51204 51207 51210 51213 51216 51219 51222 51225 51228 51231 51234 51237 51240 51243 51246 51249 51252 51255 51258 51261 51264 51267 51270 51273 51276 51279 51282 51285 51288 51291 51294 51297 51300 51303 51306 51309 51312 51315 51318 51321 51324 51327 51330 51333 51336 51339 51342 51345 51348 51351 51354 51357 51360 51363 51366 51369 51372 51375 51378 51381 51384 51387 51390 51393 51396 51399 51402 51405 51408 51411 51414 51417 51420 51423 51426 51429 51432 51435 51438 51441 51444 51447 51450 51453 51456 51459 51462 51465 51468 51471 51474 51477 51480 51483 51486 51489 51492 51495 51498 51501 51504 51507 51510 51513 51516 51519 51522 51525 51528 51531 51534 51537 51540 51543 51546 51549 51552 51555 51558 51561 51564 51567 51570 51573 51576 51579 51582 51585 51588 51591 51594 51597 51600 51603 51606 51609 51612 51615 51618 51621 51624 51627 51630 51633 51636 51639 51642 51645 51648 51651 51654 51657 51660 51663 51666 51669 51672 51675 51678 51681 51684 51687 51690 51693 51696 51699 51702 51705 51708 51711 51714 51717 51720 51723 51726 51729 51732 51735 51738 51741 51744 51747 51750 51753 51756 51759 51762 51765 51768 51771 51774 51777 51780 51783 51786 51789 51792 51795 51798 51801 51804 51807 51810 51813 51816 51819 51822 51825 51828 51831 51834 51837 51840 51843 51846 51849 51852 51855 51858 51861 51864 51867 51870 51873 51876 51879 51882 51885 51888 51891 51894 51897 51900 51903 51906 51909 51912 51915 51918 51921 51924 51927 51930 51933 51936 51939 51942 51945 51948 51951 51954 51957 51960 51963 51966 51969 51972 51975 51978 51981 51984 51987 51990 51993 51996 51999 52002 52005 52008 52011 52014 52017 52020 52023 52026 52029 52032 52035 52038 52041 52044 52047 52050 52053 52056 52059 52062 52065 52068 52071 52074 52077 52080 52083 52086 52089 52092 52095 52098 52101 52104 52107 52110 52113 52116 52119 52122 52125 52128 52131 52134 52137 52140 52143 52146 52149 52152 52155 52158 52161 52164 52167 52170 52173 52176 52179 52182 52185 52188 52191 52194 52197 52200 52203 52206 52209 52212 52215 52218 52221 52224 52227 52230 52233 52236 52239 52242 52245 52248 52251 52254 52257 52260 52263 52266 52269 52272 52275 52278 52281 52284 52287 52290 52293 52296 52299 52302 52305 52308 52311 52314 52317 52320 52323 52326 52329 52332 52335 52338 52341 52344 52347 52350 52353 52356 52359 52362 52365 52368 52371 52374 52377 52380 52383 52386 52389 52392 52395 52398 52401 52404 52407 52410 52413 52416 52419 52422 52425 52428 52431 52434 52437 52440 52443 52446 52449 52452 52455 52458 52461 52464 52467 52470 52473 52476 52479 52482 52485 52488 52491 52494 52497 52500 52503 52506 52509 52512 52515 52518 52521 52524 52527 52530 52533 52536 52539 52542 52545 52548 52551 52554 52557 52560 52563 52566 52569 52572 52575 52578 52581 52584 52587 52590 52593 52596 52599 52602 52605 52608 52611 52614 52617 52620 52623 52626 52629 52632 52635 52638 52641 52644 52647 52650 52653 52656 52659 52662 52665 52668 52671 52674 52677 52680 52683 52686 52689 52692 52695 52698 52701 52704 52707 52710 52713 52716 52719 52722 52725 52728 52731 52734 52737 52740 52743 52746 52749 52752 52755 52758 52761 52764 52767 52770 52773 52776 52779 52782 52785 52788 52791 52794 52797 52800 52803 52806 52809 52812 52815 52818 52821 52824 52827 52830 52833 52836 52839 52842 52845 52848 52851 52854 52857 52860 52863 52866 52869 52872 52875 52878 52881 52884 52887 52890 52893 52896 52899 52902 52905 52908 52911 52914 52917 52920 52923 52926 52929 52932 52935 52938 52941 52944 52947 52950 52953 52956 52959 52962 52965 52968 52971 52974 52977 52980 52983 52986 52989 52992 52995 52998 53001 53004 53007 53010 53013 53016 53019 53022 53025 53028 53031 53034 53037 53040 53043 53046 53049 53052 53055 53058 53061 53064 53067 53070 53073 53076 53079 53082 53085 53088 53091 53094 53097 53100 53103 53106 53109 53112 53115 53118 53121 53124 53127 53130 53133 53136 53139 53142 53145 53148 53151 53154 53157 53160 53163 53166 53169 53172 53175 53178 53181 53184 53187 53190 53193 53196 53199 53202 53205 53208 53211 53214 53217 53220 53223 53226 53229 53232 53235 53238 53241 53244 53247 53250 53253 53256 53259 53262 53265 53268 53271 53274 53277 53280 53283 53286 53289 53292 53295 53298 53301 53304 53307 53310 53313 53316 53319 53322 53325 53328 53331 53334 53337 53340 53343 53346 53349 53352 53355 53358 53361 53364 53367 53370 53373 53376 53379 53382 53385 53388 53391 53394 53397 53400 53403 53406 53409 53412 53415 53418 53421 53424 53427 53430 53433 53436 53439 53442 53445 53448 53451 53454 53457 53460 53463 53466 53469 53472 53475 53478 53481 53484 53487 53490 53493 53496 53499 53502 53505 53508 53511 53514 53517 53520 53523 53526 53529 53532 53535 53538 53541 53544 53547 53550 53553 53556 53559 53562 53565 53568 53571 53574 53577 53580 53583 53586 53589 53592 53595 53598 53601 53604 53607 53610 53613 53616 53619 53622 53625 53628 53631 53634 53637 53640 53643 53646 53649 53652 53655 53658 53661 53664 53667 53670 53673 53676 53679 53682 53685 53688 53691 53694 53697 53700 53703 53706 53709 53712 53715 53718 53721 53724 53727 53730 53733 53736 53739 53742 53745 53748 53751 53754 53757 53760 53763 53766 53769 53772 53775 53778 53781 53784 53787 53790 53793 53796 53799 53802 53805 53808 53811 53814 53817 53820 53823 53826 53829 53832 53835 53838 53841 53844 53847 53850 53853 53856 53859 53862 53865 53868 53871 53874 53877 53880 53883 53886 53889 53892 53895 53898 53901 53904 53907 53910 53913 53916 53919 53922 53925 53928 53931 53934 53937 53940 53943 53946 53949 53952 53955 53958 53961 53964 53967 53970 53973 53976 53979 53982 53985 53988 53991 53994 53997 54000 54003 54006 54009 54012 54015 54018 54021 54024 54027 54030 54033 54036 54039 54042 54045 54048 54051 54054 54057 54060 54063 54066 54069 54072 54075 54078 54081 54084 54087 54090 54093 54096 54099 54102 54105 54108 54111 54114 54117 54120 54123 54126 54129 54132 54135 54138 54141 54144 54147 54150 54153 54156 54159 54162 54165 54168 54171 54174 54177 54180 54183 54186 54189 54192 54195 54198 54201 54204 54207 54210 54213 54216 54219 54222 54225 54228 54231 54234 54237 54240 54243 54246 54249 54252 54255 54258 54261 54264 54267 54270 54273 54276 54279 54282 54285 54288 54291 54294 54297 54300 54303 54306 54309 54312 54315 54318 54321 54324 54327 54330 54333 54336 54339 54342 54345 54348 54351 54354 54357 54360 54363 54366 54369 54372 54375 54378 54381 54384 54387 54390 54393 54396 54399 54402 54405 54408 54411 54414 54417 54420 54423 54426 54429 54432 54435 54438 54441 54444 54447 54450 54453 54456 54459 54462 54465 54468 54471 54474 54477 54480 54483 54486 54489 54492 54495 54498 54501 54504 54507 54510 54513 54516 54519 54522 54525 54528 54531 54534 54537 54540 54543 54546 54549 54552 54555 54558 54561 54564 54567 54570 54573 54576 54579 54582 54585 54588 54591 54594 54597 54600 54603 54606 54609 54612 54615 54618 54621 54624 54627 54630 54633 54636 54639 54642 54645 54648 54651 54654 54657 54660 54663 54666 54669 54672 54675 54678 54681 54684 54687 54690 54693 54696 54699 54702 54705 54708 54711 54714 54717 54720 54723 54726 54729 54732 54735 54738 54741 54744 54747 54750 54753 54756 54759 54762 54765 54768 54771 54774 54777 54780 54783 54786 54789 54792 54795 54798 54801 54804 54807 54810 54813 54816 54819 54822 54825 54828 54831 54834 54837 54840 54843 54846 54849 54852 54855 54858 54861 54864 54867 54870 54873 54876 54879 54882 54885 54888 54891 54894 54897 54900 54903 54906 54909 54912 54915 54918 54921 54924 54927 54930 54933 54936 54939 54942 54945 54948 54951 54954 54957 54960 54963 54966 54969 54972 54975 54978 54981 54984 54987 54990 54993 54996 54999 55002 55005 55008 55011 55014 55017 55020 55023 55026 55029 55032 55035 55038 55041 55044 55047 55050 55053 55056 55059 55062 55065 55068 55071 55074 55077 55080 55083 55086 55089 55092 55095 55098 55101 55104 55107 55110 55113 55116 55119 55122 55125 55128 55131 55134 55137 55140 55143 55146 55149 55152 55155 55158 55161 55164 55167 55170 55173 55176 55179 55182 55185 55188 55191 55194 55197 55200 55203 55206 55209 55212 55215 55218 55221 55224 55227 55230 55233 55236 55239 55242 55245 55248 55251 55254 55257 55260 55263 55266 55269 55272 55275 55278 55281 55284 55287 55290 55293 55296 55299 55302 55305 55308 55311 55314 55317 55320 55323 55326 55329 55332 55335 55338 55341 55344 55347 55350 55353 55356 55359 55362 55365 55368 55371 55374 55377 55380 55383 55386 55389 55392 55395 55398 55401 55404 55407 55410 55413 55416 55419 55422 55425 55428 55431 55434 55437 55440 55443 55446 55449 55452 55455 55458 55461 55464 55467 55470 55473 55476 55479 55482 55485 55488 55491 55494 55497 55500 55503 55506 55509 55512 55515 55518 55521 55524 55527 55530 55533 55536 55539 55542 55545 55548 55551 55554 55557 55560 55563 55566 55569 55572 55575 55578 55581 55584 55587 55590 55593 55596 55599 55602 55605 55608 55611 55614 55617 55620 55623 55626 55629 55632 55635 55638 55641 55644 55647 55650 55653 55656 55659 55662 55665 55668 55671 55674 55677 55680 55683 55686 55689 55692 55695 55698 55701 55704 55707 55710 55713 55716 55719 55722 55725 55728 55731 55734 55737 55740 55743 55746 55749 55752 55755 55758 55761 55764 55767 55770 55773 55776 55779 55782 55785 55788 55791 55794 55797 55800 55803 55806 55809 55812 55815 55818 55821 55824 55827 55830 55833 55836 55839 55842 55845 55848 55851 55854 55857 55860 55863 55866 55869 55872 55875 55878 55881 55884 55887 55890 55893 55896 55899 55902 55905 55908 55911 55914 55917 55920 55923 55926 55929 55932 55935 55938 55941 55944 55947 55950 55953 55956 55959 55962 55965 55968 55971 55974 55977 55980 55983 55986 55989 55992 55995 55998 56001 56004 56007 56010 56013 56016 56019 56022 56025 56028 56031 56034 56037 56040 56043 56046 56049 56052 56055 56058 56061 56064 56067 56070 56073 56076 56079 56082 56085 56088 56091 56094 56097 56100 56103 56106 56109 56112 56115 56118 56121 56124 56127 56130 56133 56136 56139 56142 56145 56148 56151 56154 56157 56160 56163 56166 56169 56172 56175 56178 56181 56184 56187 56190 56193 56196 56199 56202 56205 56208 56211 56214 56217 56220 56223 56226 56229 56232 56235 56238 56241 56244 56247 56250 56253 56256 56259 56262 56265 56268 56271 56274 56277 56280 56283 56286 56289 56292 56295 56298 56301 56304 56307 56310 56313 56316 56319 56322 56325 56328 56331 56334 56337 56340 56343 56346 56349 56352 56355 56358 56361 56364 56367 56370 56373 56376 56379 56382 56385 56388 56391 56394 56397 56400 56403 56406 56409 56412 56415 56418 56421 56424 56427 56430 56433 56436 56439 56442 56445 56448 56451 56454 56457 56460 56463 56466 56469 56472 56475 56478 56481 56484 56487 56490 56493 56496 56499 56502 56505 56508 56511 56514 56517 56520 56523 56526 56529 56532 56535 56538 56541 56544 56547 56550 56553 56556 56559 56562 56565 56568 56571 56574 56577 56580 56583 56586 56589 56592 56595 56598 56601 56604 56607 56610 56613 56616 56619 56622 56625 56628 56631 56634 56637 56640 56643 56646 56649 56652 56655 56658 56661 56664 56667 56670 56673 56676 56679 56682 56685 56688 56691 56694 56697 56700 56703 56706 56709 56712 56715 56718 56721 56724 56727 56730 56733 56736 56739 56742 56745 56748 56751 56754 56757 56760 56763 56766 56769 56772 56775 56778 56781 56784 56787 56790 56793 56796 56799 56802 56805 56808 56811 56814 56817 56820 56823 56826 56829 56832 56835 56838 56841 56844 56847 56850 56853 56856 56859 56862 56865 56868 56871 56874 56877 56880 56883 56886 56889 56892 56895 56898 56901 56904 56907 56910 56913 56916 56919 56922 56925 56928 56931 56934 56937 56940 56943 56946 56949 56952 56955 56958 56961 56964 56967 56970 56973 56976 56979 56982 56985 56988 56991 56994 56997 57000 57003 57006 57009 57012 57015 57018 57021 57024 57027 57030 57033 57036 57039 57042 57045 57048 57051 57054 57057 57060 57063 57066 57069 57072 57075 57078 57081 57084 57087 57090 57093 57096 57099 57102 57105 57108 57111 57114 57117 57120 57123 57126 57129 57132 57135 57138 57141 57144 57147 57150 57153 57156 57159 57162 57165 57168 57171 57174 57177 57180 57183 57186 57189 57192 57195 57198 57201 57204 57207 57210 57213 57216 57219 57222 57225 57228 57231 57234 57237 57240 57243 57246 57249 57252 57255 57258 57261 57264 57267 57270 57273 57276 57279 57282 57285 57288 57291 57294 57297 57300 57303 57306 57309 57312 57315 57318 57321 57324 57327 57330 57333 57336 57339 57342 57345 57348 57351 57354 57357 57360 57363 57366 57369 57372 57375 57378 57381 57384 57387 57390 57393 57396 57399 57402 57405 57408 57411 57414 57417 57420 57423 57426 57429 57432 57435 57438 57441 57444 57447 57450 57453 57456 57459 57462 57465 57468 57471 57474 57477 57480 57483 57486 57489 57492 57495 57498 57501 57504 57507 57510 57513 57516 57519 57522 57525 57528 57531 57534 57537 57540 57543 57546 57549 57552 57555 57558 57561 57564 57567 57570 57573 57576 57579 57582 57585 57588 57591 57594 57597 57600 57603 57606 57609 57612 57615 57618 57621 57624 57627 57630 57633 57636 57639 57642 57645 57648 57651 57654 57657 57660 57663 57666 57669 57672 57675 57678 57681 57684 57687 57690 57693 57696 57699 57702 57705 57708 57711 57714 57717 57720 57723 57726 57729 57732 57735 57738 57741 57744 57747 57750 57753 57756 57759 57762 57765 57768 57771 57774 57777 57780 57783 57786 57789 57792 57795 57798 57801 57804 57807 57810 57813 57816 57819 57822 57825 57828 57831 57834 57837 57840 57843 57846 57849 57852 57855 57858 57861 57864 57867 57870 57873 57876 57879 57882 57885 57888 57891 57894 57897 57900 57903 57906 57909 57912 57915 57918 57921 57924 57927 57930 57933 57936 57939 57942 57945 57948 57951 57954 57957 57960 57963 57966 57969 57972 57975 57978 57981 57984 57987 57990 57993 57996 57999 58002 58005 58008 58011 58014 58017 58020 58023 58026 58029 58032 58035 58038 58041 58044 58047 58050 58053 58056 58059 58062 58065 58068 58071 58074 58077 58080 58083 58086 58089 58092 58095 58098 58101 58104 58107 58110 58113 58116 58119 58122 58125 58128 58131 58134 58137 58140 58143 58146 58149 58152 58155 58158 58161 58164 58167 58170 58173 58176 58179 58182 58185 58188 58191 58194 58197 58200 58203 58206 58209 58212 58215 58218 58221 58224 58227 58230 58233 58236 58239 58242 58245 58248 58251 58254 58257 58260 58263 58266 58269 58272 58275 58278 58281 58284 58287 58290 58293 58296 58299 58302 58305 58308 58311 58314 58317 58320 58323 58326 58329 58332 58335 58338 58341 58344 58347 58350 58353 58356 58359 58362 58365 58368 58371 58374 58377 58380 58383 58386 58389 58392 58395 58398 58401 58404 58407 58410 58413 58416 58419 58422 58425 58428 58431 58434 58437 58440 58443 58446 58449 58452 58455 58458 58461 58464 58467 58470 58473 58476 58479 58482 58485 58488 58491 58494 58497 58500 58503 58506 58509 58512 58515 58518 58521 58524 58527 58530 58533 58536 58539 58542 58545 58548 58551 58554 58557 58560 58563 58566 58569 58572 58575 58578 58581 58584 58587 58590 58593 58596 58599 58602 58605 58608 58611 58614 58617 58620 58623 58626 58629 58632 58635 58638 58641 58644 58647 58650 58653 58656 58659 58662 58665 58668 58671 58674 58677 58680 58683 58686 58689 58692 58695 58698 58701 58704 58707 58710 58713 58716 58719 58722 58725 58728 58731 58734 58737 58740 58743 58746 58749 58752 58755 58758 58761 58764 58767 58770 58773 58776 58779 58782 58785 58788 58791 58794 58797 58800 58803 58806 58809 58812 58815 58818 58821 58824 58827 58830 58833 58836 58839 58842 58845 58848 58851 58854 58857 58860 58863 58866 58869 58872 58875 58878 58881 58884 58887 58890 58893 58896 58899 58902 58905 58908 58911 58914 58917 58920 58923 58926 58929 58932 58935 58938 58941 58944 58947 58950 58953 58956 58959 58962 58965 58968 58971 58974 58977 58980 58983 58986 58989 58992 58995 58998 59001 59004 59007 59010 59013 59016 59019 59022 59025 59028 59031 59034 59037 59040 59043 59046 59049 59052 59055 59058 59061 59064 59067 59070 59073 59076 59079 59082 59085 59088 59091 59094 59097 59100 59103 59106 59109 59112 59115 59118 59121 59124 59127 59130 59133 59136 59139 59142 59145 59148 59151 59154 59157 59160 59163 59166 59169 59172 59175 59178 59181 59184 59187 59190 59193 59196 59199 59202 59205 59208 59211 59214 59217 59220 59223 59226 59229 59232 59235 59238 59241 59244 59247 59250 59253 59256 59259 59262 59265 59268 59271 59274 59277 59280 59283 59286 59289 59292 59295 59298 59301 59304 59307 59310 59313 59316 59319 59322 59325 59328 59331 59334 59337 59340 59343 59346 59349 59352 59355 59358 59361 59364 59367 59370 59373 59376 59379 59382 59385 59388 59391 59394 59397 59400 59403 59406 59409 59412 59415 59418 59421 59424 59427 59430 59433 59436 59439 59442 59445 59448 59451 59454 59457 59460 59463 59466 59469 59472 59475 59478 59481 59484 59487 59490 59493 59496 59499 59502 59505 59508 59511 59514 59517 59520 59523 59526 59529 59532 59535 59538 59541 59544 59547 59550 59553 59556 59559 59562 59565 59568 59571 59574 59577 59580 59583 59586 59589 59592 59595 59598 59601 59604 59607 59610 59613 59616 59619 59622 59625 59628 59631 59634 59637 59640 59643 59646 59649 59652 59655 59658 59661 59664 59667 59670 59673 59676 59679 59682 59685 59688 59691 59694 59697 59700 59703 59706 59709 59712 59715 59718 59721 59724 59727 59730 59733 59736 59739 59742 59745 59748 59751 59754 59757 59760 59763 59766 59769 59772 59775 59778 59781 59784 59787 59790 59793 59796 59799 59802 59805 59808 59811 59814 59817 59820 59823 59826 59829 59832 59835 59838 59841 59844 59847 59850 59853 59856 59859 59862 59865 59868 59871 59874 59877 59880 59883 59886 59889 59892 59895 59898 59901 59904 59907 59910 59913 59916 59919 59922 59925 59928 59931 59934 59937 59940 59943 59946 59949 59952 59955 59958 59961 59964 59967 59970 59973 59976 59979 59982 59985 59988 59991 59994 59997 60000 60003 60006 60009 60012 60015 60018 60021 60024 60027 60030 60033 60036 60039 60042 60045 60048 60051 60054 60057 60060 60063 60066 60069 60072 60075 60078 60081 60084 60087 60090 60093 60096 60099 60102 60105 60108 60111 60114 60117 60120 60123 60126 60129 60132 60135 60138 60141 60144 60147 60150 60153 60156 60159 60162 60165 60168 60171 60174 60177 60180 60183 60186 60189 60192 60195 60198 60201 60204 60207 60210 60213 60216 60219 60222 60225 60228 60231 60234 60237 60240 60243 60246 60249 60252 60255 60258 60261 60264 60267 60270 60273 60276 60279 60282 60285 60288 60291 60294 60297 60300 60303 60306 60309 60312 60315 60318 60321 60324 60327 60330 60333 60336 60339 60342 60345 60348 60351 60354 60357 60360 60363 60366 60369 60372 60375 60378 60381 60384 60387 60390 60393 60396 60399 60402 60405 60408 60411 60414 60417 60420 60423 60426 60429 60432 60435 60438 60441 60444 60447 60450 60453 60456 60459 60462 60465 60468 60471 60474 60477 60480 60483 60486 60489 60492 60495 60498 60501 60504 60507 60510 60513 60516 60519 60522 60525 60528 60531 60534 60537 60540 60543 60546 60549 60552 60555 60558 60561 60564 60567 60570 60573 60576 60579 60582 60585 60588 60591 60594 60597 60600 60603 60606 60609 60612 60615 60618 60621 60624 60627 60630 60633 60636 60639 60642 60645 60648 60651 60654 60657 60660 60663 60666 60669 60672 60675 60678 60681 60684 60687 60690 60693 60696 60699 60702 60705 60708 60711 60714 60717 60720 60723 60726 60729 60732 60735 60738 60741 60744 60747 60750 60753 60756 60759 60762 60765 60768 60771 60774 60777 60780 60783 60786 60789 60792 60795 60798 60801 60804 60807 60810 60813 60816 60819 60822 60825 60828 60831 60834 60837 60840 60843 60846 60849 60852 60855 60858 60861 60864 60867 60870 60873 60876 60879 60882 60885 60888 60891 60894 60897 60900 60903 60906 60909 60912 60915 60918 60921 60924 60927 60930 60933 60936 60939 60942 60945 60948 60951 60954 60957 60960 60963 60966 60969 60972 60975 60978 60981 60984 60987 60990 60993 60996 60999 61002 61005 61008 61011 61014 61017 61020 61023 61026 61029 61032 61035 61038 61041 61044 61047 61050 61053 61056 61059 61062 61065 61068 61071 61074 61077 61080 61083 61086 61089 61092 61095 61098 61101 61104 61107 61110 61113 61116 61119 61122 61125 61128 61131 61134 61137 61140 61143 61146 61149 61152 61155 61158 61161 61164 61167 61170 61173 61176 61179 61182 61185 61188 61191 61194 61197 61200 61203 61206 61209 61212 61215 61218 61221 61224 61227 61230 61233 61236 61239 61242 61245 61248 61251 61254 61257 61260 61263 61266 61269 61272 61275 61278 61281 61284 61287 61290 61293 61296 61299 61302 61305 61308 61311 61314 61317 61320 61323 61326 61329 61332 61335 61338 61341 61344 61347 61350 61353 61356 61359 61362 61365 61368 61371 61374 61377 61380 61383 61386 61389 61392 61395 61398 61401 61404 61407 61410 61413 61416 61419 61422 61425 61428 61431 61434 61437 61440 61443 61446 61449 61452 61455 61458 61461 61464 61467 61470 61473 61476 61479 61482 61485 61488 61491 61494 61497 61500 61503 61506 61509 61512 61515 61518 61521 61524 61527 61530 61533 61536 61539 61542 61545 61548 61551 61554 61557 61560 61563 61566 61569 61572 61575 61578 61581 61584 61587 61590 61593 61596 61599 61602 61605 61608 61611 61614 61617 61620 61623 61626 61629 61632 61635 61638 61641 61644 61647 61650 61653 61656 61659 61662 61665 61668 61671 61674 61677 61680 61683 61686 61689 61692 61695 61698 61701 61704 61707 61710 61713 61716 61719 61722 61725 61728 61731 61734 61737 61740 61743 61746 61749 61752 61755 61758 61761 61764 61767 61770 61773 61776 61779 61782 61785 61788 61791 61794 61797 61800 61803 61806 61809 61812 61815 61818 61821 61824 61827 61830 61833 61836 61839 61842 61845 61848 61851 61854 61857 61860 61863 61866 61869 61872 61875 61878 61881 61884 61887 61890 61893 61896 61899 61902 61905 61908 61911 61914 61917 61920 61923 61926 61929 61932 61935 61938 61941 61944 61947 61950 61953 61956 61959 61962 61965 61968 61971 61974 61977 61980 61983 61986 61989 61992 61995 61998 62001 62004 62007 62010 62013 62016 62019 62022 62025 62028 62031 62034 62037 62040 62043 62046 62049 62052 62055 62058 62061 62064 62067 62070 62073 62076 62079 62082 62085 62088 62091 62094 62097 62100 62103 62106 62109 62112 62115 62118 62121 62124 62127 62130 62133 62136 62139 62142 62145 62148 62151 62154 62157 62160 62163 62166 62169 62172 62175 62178 62181 62184 62187 62190 62193 62196 62199 62202 62205 62208 62211 62214 62217 62220 62223 62226 62229 62232 62235 62238 62241 62244 62247 62250 62253 62256 62259 62262 62265 62268 62271 62274 62277 62280 62283 62286 62289 62292 62295 62298 62301 62304 62307 62310 62313 62316 62319 62322 62325 62328 62331 62334 62337 62340 62343 62346 62349 62352 62355 62358 62361 62364 62367 62370 62373 62376 62379 62382 62385 62388 62391 62394 62397 62400 62403 62406 62409 62412 62415 62418 62421 62424 62427 62430 62433 62436 62439 62442 62445 62448 62451 62454 62457 62460 62463 62466 62469 62472 62475 62478 62481 62484 62487 62490 62493 62496 62499 62502 62505 62508 62511 62514 62517 62520 62523 62526 62529 62532 62535 62538 62541 62544 62547 62550 62553 62556 62559 62562 62565 62568 62571 62574 62577 62580 62583 62586 62589 62592 62595 62598 62601 62604 62607 62610 62613 62616 62619 62622 62625 62628 62631 62634 62637 62640 62643 62646 62649 62652 62655 62658 62661 62664 62667 62670 62673 62676 62679 62682 62685 62688 62691 62694 62697 62700 62703 62706 62709 62712 62715 62718 62721 62724 62727 62730 62733 62736 62739 62742 62745 62748 62751 62754 62757 62760 62763 62766 62769 62772 62775 62778 62781 62784 62787 62790 62793 62796 62799 62802 62805 62808 62811 62814 62817 62820 62823 62826 62829 62832 62835 62838 62841 62844 62847 62850 62853 62856 62859 62862 62865 62868 62871 62874 62877 62880 62883 62886 62889 62892 62895 62898 62901 62904 62907 62910 62913 62916 62919 62922 62925 62928 62931 62934 62937 62940 62943 62946 62949 62952 62955 62958 62961 62964 62967 62970 62973 62976 62979 62982 62985 62988 62991 62994 62997 63000 63003 63006 63009 63012 63015 63018 63021 63024 63027 63030 63033 63036 63039 63042 63045 63048 63051 63054 63057 63060 63063 63066 63069 63072 63075 63078 63081 63084 63087 63090 63093 63096 63099 63102 63105 63108 63111 63114 63117 63120 63123 63126 63129 63132 63135 63138 63141 63144 63147 63150 63153 63156 63159 63162 63165 63168 63171 63174 63177 63180 63183 63186 63189 63192 63195 63198 63201 63204 63207 63210 63213 63216 63219 63222 63225 63228 63231 63234 63237 63240 63243 63246 63249 63252 63255 63258 63261 63264 63267 63270 63273 63276 63279 63282 63285 63288 63291 63294 63297 63300 63303 63306 63309 63312 63315 63318 63321 63324 63327 63330 63333 63336 63339 63342 63345 63348 63351 63354 63357 63360 63363 63366 63369 63372 63375 63378 63381 63384 63387 63390 63393 63396 63399 63402 63405 63408 63411 63414 63417 63420 63423 63426 63429 63432 63435 63438 63441 63444 63447 63450 63453 63456 63459 63462 63465 63468 63471 63474 63477 63480 63483 63486 63489 63492 63495 63498 63501 63504 63507 63510 63513 63516 63519 63522 63525 63528 63531 63534 63537 63540 63543 63546 63549 63552 63555 63558 63561 63564 63567 63570 63573 63576 63579 63582 63585 63588 63591 63594 63597 63600 63603 63606 63609 63612 63615 63618 63621 63624 63627 63630 63633 63636 63639 63642 63645 63648 63651 63654 63657 63660 63663 63666 63669 63672 63675 63678 63681 63684 63687 63690 63693 63696 63699 63702 63705 63708 63711 63714 63717 63720 63723 63726 63729 63732 63735 63738 63741 63744 63747 63750 63753 63756 63759 63762 63765 63768 63771 63774 63777 63780 63783 63786 63789 63792 63795 63798 63801 63804 63807 63810 63813 63816 63819 63822 63825 63828 63831 63834 63837 63840 63843 63846 63849 63852 63855 63858 63861 63864 63867 63870 63873 63876 63879 63882 63885 63888 63891 63894 63897 63900 63903 63906 63909 63912 63915 63918 63921 63924 63927 63930 63933 63936 63939 63942 63945 63948 63951 63954 63957 63960 63963 63966 63969 63972 63975 63978 63981 63984 63987 63990 63993 63996 63999 64002 64005 64008 64011 64014 64017 64020 64023 64026 64029 64032 64035 64038 64041 64044 64047 64050 64053 64056 64059 64062 64065 64068 64071 64074 64077 64080 64083 64086 64089 64092 64095 64098 64101 64104 64107 64110 64113 64116 64119 64122 64125 64128 64131 64134 64137 64140 64143 64146 64149 64152 64155 64158 64161 64164 64167 64170 64173 64176 64179 64182 64185 64188 64191 64194 64197 64200 64203 64206 64209 64212 64215 64218 64221 64224 64227 64230 64233 64236 64239 64242 64245 64248 64251 64254 64257 64260 64263 64266 64269 64272 64275 64278 64281 64284 64287 64290 64293 64296 64299 64302 64305 64308 64311 64314 64317 64320 64323 64326 64329 64332 64335 64338 64341 64344 64347 64350 64353 64356 64359 64362 64365 64368 64371 64374 64377 64380 64383 64386 64389 64392 64395 64398 64401 64404 64407 64410 64413 64416 64419 64422 64425 64428 64431 64434 64437 64440 64443 64446 64449 64452 64455 64458 64461 64464 64467 64470 64473 64476 64479 64482 64485 64488 64491 64494 64497 64500 64503 64506 64509 64512 64515 64518 64521 64524 64527 64530 64533 64536 64539 64542 64545 64548 64551 64554 64557 64560 64563 64566 64569 64572 64575 64578 64581 64584 64587 64590 64593 64596 64599 64602 64605 64608 64611 64614 64617 64620 64623 64626 64629 64632 64635 64638 64641 64644 64647 64650 64653 64656 64659 64662 64665 64668 64671 64674 64677 64680 64683 64686 64689 64692 64695 64698 64701 64704 64707 64710 64713 64716 64719 64722 64725 64728 64731 64734 64737 64740 64743 64746 64749 64752 64755 64758 64761 64764 64767 64770 64773 64776 64779 64782 64785 64788 64791 64794 64797 64800 64803 64806 64809 64812 64815 64818 64821 64824 64827 64830 64833 64836 64839 64842 64845 64848 64851 64854 64857 64860 64863 64866 64869 64872 64875 64878 64881 64884 64887 64890 64893 64896 64899 64902 64905 64908 64911 64914 64917 64920 64923 64926 64929 64932 64935 64938 64941 64944 64947 64950 64953 64956 64959 64962 64965 64968 64971 64974 64977 64980 64983 64986 64989 64992 64995 64998 65001 65004 65007 65010 65013 65016 65019 65022 65025 65028 65031 65034 65037 65040 65043 65046 65049 65052 65055 65058 65061 65064 65067 65070 65073 65076 65079 65082 65085 65088 65091 65094 65097 65100 65103 65106 65109 65112 65115 65118 65121 65124 65127 65130 65133 65136 65139 65142 65145 65148 65151 65154 65157 65160 65163 65166 65169 65172 65175 65178 65181 65184 65187 65190 65193 65196 65199 65202 65205 65208 65211 65214 65217 65220 65223 65226 65229 65232 65235 65238 65241 65244 65247 65250 65253 65256 65259 65262 65265 65268 65271 65274 65277 65280 65283 65286 65289 65292 65295 65298 65301 65304 65307 65310 65313 65316 65319 65322 65325 65328 65331 65334 65337 65340 65343 65346 65349 65352 65355 65358 65361 65364 65367 65370 65373 65376 65379 65382 65385 65388 65391 65394 65397 65400 65403 65406 65409 65412 65415 65418 65421 65424 65427 65430 65433 65436 65439 65442 65445 65448 65451 65454 65457 65460 65463 65466 65469 65472 65475 65478 65481 65484 65487 65490 65493 65496 65499 65502 65505 65508 65511 65514 65517 65520 65523 65526 65529 65532 65535 65538 65541 65544 65547 65550 65553 65556 65559 65562 65565 65568 65571 65574 65577 65580 65583 65586 65589 65592 65595 65598 65601 65604 65607 65610 65613 65616 65619 65622 65625 65628 65631 65634 65637 65640 65643 65646 65649 65652 65655 65658 65661 65664 65667 65670 65673 65676 65679 65682 65685 65688 65691 65694 65697 65700 65703 65706 65709 65712 65715 65718 65721 65724 65727 65730 65733 65736 65739 65742 65745 65748 65751 65754 65757 65760 65763 65766 65769 65772 65775 65778 65781 65784 65787 65790 65793 65796 65799 65802 65805 65808 65811 65814 65817 65820 65823 65826 65829 65832 65835 65838 65841 65844 65847 65850 65853 65856 65859 65862 65865 65868 65871 65874 65877 65880 65883 65886 65889 65892 65895 65898 65901 65904 65907 65910 65913 65916 65919 65922 65925 65928 65931 65934 65937 65940 65943 65946 65949 65952 65955 65958 65961 65964 65967 65970 65973 65976 65979 65982 65985 65988 65991 65994 65997 66000 66003 66006 66009 66012 66015 66018 66021 66024 66027 66030 66033 66036 66039 66042 66045 66048 66051 66054 66057 66060 66063 66066 66069 66072 66075 66078 66081 66084 66087 66090 66093 66096 66099 66102 66105 66108 66111 66114 66117 66120 66123 66126 66129 66132 66135 66138 66141 66144 66147 66150 66153 66156 66159 66162 66165 66168 66171 66174 66177 66180 66183 66186 66189 66192 66195 66198 66201 66204 66207 66210 66213 66216 66219 66222 66225 66228 66231 66234 66237 66240 66243 66246 66249 66252 66255 66258 66261 66264 66267 66270 66273 66276 66279 66282 66285 66288 66291 66294 66297 66300 66303 66306 66309 66312 66315 66318 66321 66324 66327 66330 66333 66336 66339 66342 66345 66348 66351 66354 66357 66360 66363 66366 66369 66372 66375 66378 66381 66384 66387 66390 66393 66396 66399 66402 66405 66408 66411 66414 66417 66420 66423 66426 66429 66432 66435 66438 66441 66444 66447 66450 66453 66456 66459 66462 66465 66468 66471 66474 66477 66480 66483 66486 66489 66492 66495 66498 66501 66504 66507 66510 66513 66516 66519 66522 66525 66528 66531 66534 66537 66540 66543 66546 66549 66552 66555 66558 66561 66564 66567 66570 66573 66576 66579 66582 66585 66588 66591 66594 66597 66600 66603 66606 66609 66612 66615 66618 66621 66624 66627 66630 66633 66636 66639 66642 66645 66648 66651 66654 66657 66660 66663 66666 66669 66672 66675 66678 66681 66684 66687 66690 66693 66696 66699 66702 66705 66708 66711 66714 66717 66720 66723 66726 66729 66732 66735 66738 66741 66744 66747 66750 66753 66756 66759 66762 66765 66768 66771 66774 66777 66780 66783 66786 66789 66792 66795 66798 66801 66804 66807 66810 66813 66816 66819 66822 66825 66828 66831 66834 66837 66840 66843 66846 66849 66852 66855 66858 66861 66864 66867 66870 66873 66876 66879 66882 66885 66888 66891 66894 66897 66900 66903 66906 66909 66912 66915 66918 66921 66924 66927 66930 66933 66936 66939 66942 66945 66948 66951 66954 66957 66960 66963 66966 66969 66972 66975 66978 66981 66984 66987 66990 66993 66996 66999 67002 67005 67008 67011 67014 67017 67020 67023 67026 67029 67032 67035 67038 67041 67044 67047 67050 67053 67056 67059 67062 67065 67068 67071 67074 67077 67080 67083 67086 67089 67092 67095 67098 67101 67104 67107 67110 67113 67116 67119 67122 67125 67128 67131 67134 67137 67140 67143 67146 67149 67152 67155 67158 67161 67164 67167 67170 67173 67176 67179 67182 67185 67188 67191 67194 67197 67200 67203 67206 67209 67212 67215 67218 67221 67224 67227 67230 67233 67236 67239 67242 67245 67248 67251 67254 67257 67260 67263 67266 67269 67272 67275 67278 67281 67284 67287 67290 67293 67296 67299 67302 67305 67308 67311 67314 67317 67320 67323 67326 67329 67332 67335 67338 67341 67344 67347 67350 67353 67356 67359 67362 67365 67368 67371 67374 67377 67380 67383 67386 67389 67392 67395 67398 67401 67404 67407 67410 67413 67416 67419 67422 67425 67428 67431 67434 67437 67440 67443 67446 67449 67452 67455 67458 67461 67464 67467 67470 67473 67476 67479 67482 67485 67488 67491 67494 67497 67500 67503 67506 67509 67512 67515 67518 67521 67524 67527 67530 67533 67536 67539 67542 67545 67548 67551 67554 67557 67560 67563 67566 67569 67572 67575 67578 67581 67584 67587 67590 67593 67596 67599 67602 67605 67608 67611 67614 67617 67620 67623 67626 67629 67632 67635 67638 67641 67644 67647 67650 67653 67656 67659 67662 67665 67668 67671 67674 67677 67680 67683 67686 67689 67692 67695 67698 67701 67704 67707 67710 67713 67716 67719 67722 67725 67728 67731 67734 67737 67740 67743 67746 67749 67752 67755 67758 67761 67764 67767 67770 67773 67776 67779 67782 67785 67788 67791 67794 67797 67800 67803 67806 67809 67812 67815 67818 67821 67824 67827 67830 67833 67836 67839 67842 67845 67848 67851 67854 67857 67860 67863 67866 67869 67872 67875 67878 67881 67884 67887 67890 67893 67896 67899 67902 67905 67908 67911 67914 67917 67920 67923 67926 67929 67932 67935 67938 67941 67944 67947 67950 67953 67956 67959 67962 67965 67968 67971 67974 67977 67980 67983 67986 67989 67992 67995 67998 68001 68004 68007 68010 68013 68016 68019 68022 68025 68028 68031 68034 68037 68040 68043 68046 68049 68052 68055 68058 68061 68064 68067 68070 68073 68076 68079 68082 68085 68088 68091 68094 68097 68100 68103 68106 68109 68112 68115 68118 68121 68124 68127 68130 68133 68136 68139 68142 68145 68148 68151 68154 68157 68160 68163 68166 68169 68172 68175 68178 68181 68184 68187 68190 68193 68196 68199 68202 68205 68208 68211 68214 68217 68220 68223 68226 68229 68232 68235 68238 68241 68244 68247 68250 68253 68256 68259 68262 68265 68268 68271 68274 68277 68280 68283 68286 68289 68292 68295 68298 68301 68304 68307 68310 68313 68316 68319 68322 68325 68328 68331 68334 68337 68340 68343 68346 68349 68352 68355 68358 68361 68364 68367 68370 68373 68376 68379 68382 68385 68388 68391 68394 68397 68400 68403 68406 68409 68412 68415 68418 68421 68424 68427 68430 68433 68436 68439 68442 68445 68448 68451 68454 68457 68460 68463 68466 68469 68472 68475 68478 68481 68484 68487 68490 68493 68496 68499 68502 68505 68508 68511 68514 68517 68520 68523 68526 68529 68532 68535 68538 68541 68544 68547 68550 68553 68556 68559 68562 68565 68568 68571 68574 68577 68580 68583 68586 68589 68592 68595 68598 68601 68604 68607 68610 68613 68616 68619 68622 68625 68628 68631 68634 68637 68640 68643 68646 68649 68652 68655 68658 68661 68664 68667 68670 68673 68676 68679 68682 68685 68688 68691 68694 68697 68700 68703 68706 68709 68712 68715 68718 68721 68724 68727 68730 68733 68736 68739 68742 68745 68748 68751 68754 68757 68760 68763 68766 68769 68772 68775 68778 68781 68784 68787 68790 68793 68796 68799 68802 68805 68808 68811 68814 68817 68820 68823 68826 68829 68832 68835 68838 68841 68844 68847 68850 68853 68856 68859 68862 68865 68868 68871 68874 68877 68880 68883 68886 68889 68892 68895 68898 68901 68904 68907 68910 68913 68916 68919 68922 68925 68928 68931 68934 68937 68940 68943 68946 68949 68952 68955 68958 68961 68964 68967 68970 68973 68976 68979 68982 68985 68988 68991 68994 68997 69000 69003 69006 69009 69012 69015 69018 69021 69024 69027 69030 69033 69036 69039 69042 69045 69048 69051 69054 69057 69060 69063 69066 69069 69072 69075 69078 69081 69084 69087 69090 69093 69096 69099 69102 69105 69108 69111 69114 69117 69120 69123 69126 69129 69132 69135 69138 69141 69144 69147 69150 69153 69156 69159 69162 69165 69168 69171 69174 69177 69180 69183 69186 69189 69192 69195 69198 69201 69204 69207 69210 69213 69216 69219 69222 69225 69228 69231 69234 69237 69240 69243 69246 69249 69252 69255 69258 69261 69264 69267 69270 69273 69276 69279 69282 69285 69288 69291 69294 69297 69300 69303 69306 69309 69312 69315 69318 69321 69324 69327 69330 69333 69336 69339 69342 69345 69348 69351 69354 69357 69360 69363 69366 69369 69372 69375 69378 69381 69384 69387 69390 69393 69396 69399 69402 69405 69408 69411 69414 69417 69420 69423 69426 69429 69432 69435 69438 69441 69444 69447 69450 69453 69456 69459 69462 69465 69468 69471 69474 69477 69480 69483 69486 69489 69492 69495 69498 69501 69504 69507 69510 69513 69516 69519 69522 69525 69528 69531 69534 69537 69540 69543 69546 69549 69552 69555 69558 69561 69564 69567 69570 69573 69576 69579 69582 69585 69588 69591 69594 69597 69600 69603 69606 69609 69612 69615 69618 69621 69624 69627 69630 69633 69636 69639 69642 69645 69648 69651 69654 69657 69660 69663 69666 69669 69672 69675 69678 69681 69684 69687 69690 69693 69696 69699 69702 69705 69708 69711 69714 69717 69720 69723 69726 69729 69732 69735 69738 69741 69744 69747 69750 69753 69756 69759 69762 69765 69768 69771 69774 69777 69780 69783 69786 69789 69792 69795 69798 69801 69804 69807 69810 69813 69816 69819 69822 69825 69828 69831 69834 69837 69840 69843 69846 69849 69852 69855 69858 69861 69864 69867 69870 69873 69876 69879 69882 69885 69888 69891 69894 69897 69900 69903 69906 69909 69912 69915 69918 69921 69924 69927 69930 69933 69936 69939 69942 69945 69948 69951 69954 69957 69960 69963 69966 69969 69972 69975 69978 69981 69984 69987 69990 69993 69996 69999 70002 70005 70008 70011 70014 70017 70020 70023 70026 70029 70032 70035 70038 70041 70044 70047 70050 70053 70056 70059 70062 70065 70068 70071 70074 70077 70080 70083 70086 70089 70092 70095 70098 70101 70104 70107 70110 70113 70116 70119 70122 70125 70128 70131 70134 70137 70140 70143 70146 70149 70152 70155 70158 70161 70164 70167 70170 70173 70176 70179 70182 70185 70188 70191 70194 70197 70200 70203 70206 70209 70212 70215 70218 70221 70224 70227 70230 70233 70236 70239 70242 70245 70248 70251 70254 70257 70260 70263 70266 70269 70272 70275 70278 70281 70284 70287 70290 70293 70296 70299 70302 70305 70308 70311 70314 70317 70320 70323 70326 70329 70332 70335 70338 70341 70344 70347 70350 70353 70356 70359 70362 70365 70368 70371 70374 70377 70380 70383 70386 70389 70392 70395 70398 70401 70404 70407 70410 70413 70416 70419 70422 70425 70428 70431 70434 70437 70440 70443 70446 70449 70452 70455 70458 70461 70464 70467 70470 70473 70476 70479 70482 70485 70488 70491 70494 70497 70500 70503 70506 70509 70512 70515 70518 70521 70524 70527 70530 70533 70536 70539 70542 70545 70548 70551 70554 70557 70560 70563 70566 70569 70572 70575 70578 70581 70584 70587 70590 70593 70596 70599 70602 70605 70608 70611 70614 70617 70620 70623 70626 70629 70632 70635 70638 70641 70644 70647 70650 70653 70656 70659 70662 70665 70668 70671 70674 70677 70680 70683 70686 70689 70692 70695 70698 70701 70704 70707 70710 70713 70716 70719 70722 70725 70728 70731 70734 70737 70740 70743 70746 70749 70752 70755 70758 70761 70764 70767 70770 70773 70776 70779 70782 70785 70788 70791 70794 70797 70800 70803 70806 70809 70812 70815 70818 70821 70824 70827 70830 70833 70836 70839 70842 70845 70848 70851 70854 70857 70860 70863 70866 70869 70872 70875 70878 70881 70884 70887 70890 70893 70896 70899 70902 70905 70908 70911 70914 70917 70920 70923 70926 70929 70932 70935 70938 70941 70944 70947 70950 70953 70956 70959 70962 70965 70968 70971 70974 70977 70980 70983 70986 70989 70992 70995 70998 71001 71004 71007 71010 71013 71016 71019 71022 71025 71028 71031 71034 71037 71040 71043 71046 71049 71052 71055 71058 71061 71064 71067 71070 71073 71076 71079 71082 71085 71088 71091 71094 71097 71100 71103 71106 71109 71112 71115 71118 71121 71124 71127 71130 71133 71136 71139 71142 71145 71148 71151 71154 71157 71160 71163 71166 71169 71172 71175 71178 71181 71184 71187 71190 71193 71196 71199 71202 71205 71208 71211 71214 71217 71220 71223 71226 71229 71232 71235 71238 71241 71244 71247 71250 71253 71256 71259 71262 71265 71268 71271 71274 71277 71280 71283 71286 71289 71292 71295 71298 71301 71304 71307 71310 71313 71316 71319 71322 71325 71328 71331 71334 71337 71340 71343 71346 71349 71352 71355 71358 71361 71364 71367 71370 71373 71376 71379 71382 71385 71388 71391 71394 71397 71400 71403 71406 71409 71412 71415 71418 71421 71424 71427 71430 71433 71436 71439 71442 71445 71448 71451 71454 71457 71460 71463 71466 71469 71472 71475 71478 71481 71484 71487 71490 71493 71496 71499 71502 71505 71508 71511 71514 71517 71520 71523 71526 71529 71532 71535 71538 71541 71544 71547 71550 71553 71556 71559 71562 71565 71568 71571 71574 71577 71580 71583 71586 71589 71592 71595 71598 71601 71604 71607 71610 71613 71616 71619 71622 71625 71628 71631 71634 71637 71640 71643 71646 71649 71652 71655 71658 71661 71664 71667 71670 71673 71676 71679 71682 71685 71688 71691 71694 71697 71700 71703 71706 71709 71712 71715 71718 71721 71724 71727 71730 71733 71736 71739 71742 71745 71748 71751 71754 71757 71760 71763 71766 71769 71772 71775 71778 71781 71784 71787 71790 71793 71796 71799 71802 71805 71808 71811 71814 71817 71820 71823 71826 71829 71832 71835 71838 71841 71844 71847 71850 71853 71856 71859 71862 71865 71868 71871 71874 71877 71880 71883 71886 71889 71892 71895 71898 71901 71904 71907 71910 71913 71916 71919 71922 71925 71928 71931 71934 71937 71940 71943 71946 71949 71952 71955 71958 71961 71964 71967 71970 71973 71976 71979 71982 71985 71988 71991 71994 71997 72000 72003 72006 72009 72012 72015 72018 72021 72024 72027 72030 72033 72036 72039 72042 72045 72048 72051 72054 72057 72060 72063 72066 72069 72072 72075 72078 72081 72084 72087 72090 72093 72096 72099 72102 72105 72108 72111 72114 72117 72120 72123 72126 72129 72132 72135 72138 72141 72144 72147 72150 72153 72156 72159 72162 72165 72168 72171 72174 72177 72180 72183 72186 72189 72192 72195 72198 72201 72204 72207 72210 72213 72216 72219 72222 72225 72228 72231 72234 72237 72240 72243 72246 72249 72252 72255 72258 72261 72264 72267 72270 72273 72276 72279 72282 72285 72288 72291 72294 72297 72300 72303 72306 72309 72312 72315 72318 72321 72324 72327 72330 72333 72336 72339 72342 72345 72348 72351 72354 72357 72360 72363 72366 72369 72372 72375 72378 72381 72384 72387 72390 72393 72396 72399 72402 72405 72408 72411 72414 72417 72420 72423 72426 72429 72432 72435 72438 72441 72444 72447 72450 72453 72456 72459 72462 72465 72468 72471 72474 72477 72480 72483 72486 72489 72492 72495 72498 72501 72504 72507 72510 72513 72516 72519 72522 72525 72528 72531 72534 72537 72540 72543 72546 72549 72552 72555 72558 72561 72564 72567 72570 72573 72576 72579 72582 72585 72588 72591 72594 72597 72600 72603 72606 72609 72612 72615 72618 72621 72624 72627 72630 72633 72636 72639 72642 72645 72648 72651 72654 72657 72660 72663 72666 72669 72672 72675 72678 72681 72684 72687 72690 72693 72696 72699 72702 72705 72708 72711 72714 72717 72720 72723 72726 72729 72732 72735 72738 72741 72744 72747 72750 72753 72756 72759 72762 72765 72768 72771 72774 72777 72780 72783 72786 72789 72792 72795 72798 72801 72804 72807 72810 72813 72816 72819 72822 72825 72828 72831 72834 72837 72840 72843 72846 72849 72852 72855 72858 72861 72864 72867 72870 72873 72876 72879 72882 72885 72888 72891 72894 72897 72900 72903 72906 72909 72912 72915 72918 72921 72924 72927 72930 72933 72936 72939 72942 72945 72948 72951 72954 72957 72960 72963 72966 72969 72972 72975 72978 72981 72984 72987 72990 72993 72996 72999 73002 73005 73008 73011 73014 73017 73020 73023 73026 73029 73032 73035 73038 73041 73044 73047 73050 73053 73056 73059 73062 73065 73068 73071 73074 73077 73080 73083 73086 73089 73092 73095 73098 73101 73104 73107 73110 73113 73116 73119 73122 73125 73128 73131 73134 73137 73140 73143 73146 73149 73152 73155 73158 73161 73164 73167 73170 73173 73176 73179 73182 73185 73188 73191 73194 73197 73200 73203 73206 73209 73212 73215 73218 73221 73224 73227 73230 73233 73236 73239 73242 73245 73248 73251 73254 73257 73260 73263 73266 73269 73272 73275 73278 73281 73284 73287 73290 73293 73296 73299 73302 73305 73308 73311 73314 73317 73320 73323 73326 73329 73332 73335 73338 73341 73344 73347 73350 73353 73356 73359 73362 73365 73368 73371 73374 73377 73380 73383 73386 73389 73392 73395 73398 73401 73404 73407 73410 73413 73416 73419 73422 73425 73428 73431 73434 73437 73440 73443 73446 73449 73452 73455 73458 73461 73464 73467 73470 73473 73476 73479 73482 73485 73488 73491 73494 73497 73500 73503 73506 73509 73512 73515 73518 73521 73524 73527 73530 73533 73536 73539 73542 73545 73548 73551 73554 73557 73560 73563 73566 73569 73572 73575 73578 73581 73584 73587 73590 73593 73596 73599 73602 73605 73608 73611 73614 73617 73620 73623 73626 73629 73632 73635 73638 73641 73644 73647 73650 73653 73656 73659 73662 73665 73668 73671 73674 73677 73680 73683 73686 73689 73692 73695 73698 73701 73704 73707 73710 73713 73716 73719 73722 73725 73728 73731 73734 73737 73740 73743 73746 73749 73752 73755 73758 73761 73764 73767 73770 73773 73776 73779 73782 73785 73788 73791 73794 73797 73800 73803 73806 73809 73812 73815 73818 73821 73824 73827 73830 73833 73836 73839 73842 73845 73848 73851 73854 73857 73860 73863 73866 73869 73872 73875 73878 73881 73884 73887 73890 73893 73896 73899 73902 73905 73908 73911 73914 73917 73920 73923 73926 73929 73932 73935 73938 73941 73944 73947 73950 73953 73956 73959 73962 73965 73968 73971 73974 73977 73980 73983 73986 73989 73992 73995 73998 74001 74004 74007 74010 74013 74016 74019 74022 74025 74028 74031 74034 74037 74040 74043 74046 74049 74052 74055 74058 74061 74064 74067 74070 74073 74076 74079 74082 74085 74088 74091 74094 74097 74100 74103 74106 74109 74112 74115 74118 74121 74124 74127 74130 74133 74136 74139 74142 74145 74148 74151 74154 74157 74160 74163 74166 74169 74172 74175 74178 74181 74184 74187 74190 74193 74196 74199 74202 74205 74208 74211 74214 74217 74220 74223 74226 74229 74232 74235 74238 74241 74244 74247 74250 74253 74256 74259 74262 74265 74268 74271 74274 74277 74280 74283 74286 74289 74292 74295 74298 74301 74304 74307 74310 74313 74316 74319 74322 74325 74328 74331 74334 74337 74340 74343 74346 74349 74352 74355 74358 74361 74364 74367 74370 74373 74376 74379 74382 74385 74388 74391 74394 74397 74400 74403 74406 74409 74412 74415 74418 74421 74424 74427 74430 74433 74436 74439 74442 74445 74448 74451 74454 74457 74460 74463 74466 74469 74472 74475 74478 74481 74484 74487 74490 74493 74496 74499 74502 74505 74508 74511 74514 74517 74520 74523 74526 74529 74532 74535 74538 74541 74544 74547 74550 74553 74556 74559 74562 74565 74568 74571 74574 74577 74580 74583 74586 74589 74592 74595 74598 74601 74604 74607 74610 74613 74616 74619 74622 74625 74628 74631 74634 74637 74640 74643 74646 74649 74652 74655 74658 74661 74664 74667 74670 74673 74676 74679 74682 74685 74688 74691 74694 74697 74700 74703 74706 74709 74712 74715 74718 74721 74724 74727 74730 74733 74736 74739 74742 74745 74748 74751 74754 74757 74760 74763 74766 74769 74772 74775 74778 74781 74784 74787 74790 74793 74796 74799 74802 74805 74808 74811 74814 74817 74820 74823 74826 74829 74832 74835 74838 74841 74844 74847 74850 74853 74856 74859 74862 74865 74868 74871 74874 74877 74880 74883 74886 74889 74892 74895 74898 74901 74904 74907 74910 74913 74916 74919 74922 74925 74928 74931 74934 74937 74940 74943 74946 74949 74952 74955 74958 74961 74964 74967 74970 74973 74976 74979 74982 74985 74988 74991 74994 74997 75000 75003 75006 75009 75012 75015 75018 75021 75024 75027 75030 75033 75036 75039 75042 75045 75048 75051 75054 75057 75060 75063 75066 75069 75072 75075 75078 75081 75084 75087 75090 75093 75096 75099 75102 75105 75108 75111 75114 75117 75120 75123 75126 75129 75132 75135 75138 75141 75144 75147 75150 75153 75156 75159 75162 75165 75168 75171 75174 75177 75180 75183 75186 75189 75192 75195 75198 75201 75204 75207 75210 75213 75216 75219 75222 75225 75228 75231 75234 75237 75240 75243 75246 75249 75252 75255 75258 75261 75264 75267 75270 75273 75276 75279 75282 75285 75288 75291 75294 75297 75300 75303 75306 75309 75312 75315 75318 75321 75324 75327 75330 75333 75336 75339 75342 75345 75348 75351 75354 75357 75360 75363 75366 75369 75372 75375 75378 75381 75384 75387 75390 75393 75396 75399 75402 75405 75408 75411 75414 75417 75420 75423 75426 75429 75432 75435 75438 75441 75444 75447 75450 75453 75456 75459 75462 75465 75468 75471 75474 75477 75480 75483 75486 75489 75492 75495 75498 75501 75504 75507 75510 75513 75516 75519 75522 75525 75528 75531 75534 75537 75540 75543 75546 75549 75552 75555 75558 75561 75564 75567 75570 75573 75576 75579 75582 75585 75588 75591 75594 75597 75600 75603 75606 75609 75612 75615 75618 75621 75624 75627 75630 75633 75636 75639 75642 75645 75648 75651 75654 75657 75660 75663 75666 75669 75672 75675 75678 75681 75684 75687 75690 75693 75696 75699 75702 75705 75708 75711 75714 75717 75720 75723 75726 75729 75732 75735 75738 75741 75744 75747 75750 75753 75756 75759 75762 75765 75768 75771 75774 75777 75780 75783 75786 75789 75792 75795 75798 75801 75804 75807 75810 75813 75816 75819 75822 75825 75828 75831 75834 75837 75840 75843 75846 75849 75852 75855 75858 75861 75864 75867 75870 75873 75876 75879 75882 75885 75888 75891 75894 75897 75900 75903 75906 75909 75912 75915 75918 75921 75924 75927 75930 75933 75936 75939 75942 75945 75948 75951 75954 75957 75960 75963 75966 75969 75972 75975 75978 75981 75984 75987 75990 75993 75996 75999 76002 76005 76008 76011 76014 76017 76020 76023 76026 76029 76032 76035 76038 76041 76044 76047 76050 76053 76056 76059 76062 76065 76068 76071 76074 76077 76080 76083 76086 76089 76092 76095 76098 76101 76104 76107 76110 76113 76116 76119 76122 76125 76128 76131 76134 76137 76140 76143 76146 76149 76152 76155 76158 76161 76164 76167 76170 76173 76176 76179 76182 76185 76188 76191 76194 76197 76200 76203 76206 76209 76212 76215 76218 76221 76224 76227 76230 76233 76236 76239 76242 76245 76248 76251 76254 76257 76260 76263 76266 76269 76272 76275 76278 76281 76284 76287 76290 76293 76296 76299 76302 76305 76308 76311 76314 76317 76320 76323 76326 76329 76332 76335 76338 76341 76344 76347 76350 76353 76356 76359 76362 76365 76368 76371 76374 76377 76380 76383 76386 76389 76392 76395 76398 76401 76404 76407 76410 76413 76416 76419 76422 76425 76428 76431 76434 76437 76440 76443 76446 76449 76452 76455 76458 76461 76464 76467 76470 76473 76476 76479 76482 76485 76488 76491 76494 76497 76500 76503 76506 76509 76512 76515 76518 76521 76524 76527 76530 76533 76536 76539 76542 76545 76548 76551 76554 76557 76560 76563 76566 76569 76572 76575 76578 76581 76584 76587 76590 76593 76596 76599 76602 76605 76608 76611 76614 76617 76620 76623 76626 76629 76632 76635 76638 76641 76644 76647 76650 76653 76656 76659 76662 76665 76668 76671 76674 76677 76680 76683 76686 76689 76692 76695 76698 76701 76704 76707 76710 76713 76716 76719 76722 76725 76728 76731 76734 76737 76740 76743 76746 76749 76752 76755 76758 76761 76764 76767 76770 76773 76776 76779 76782 76785 76788 76791 76794 76797 76800 76803 76806 76809 76812 76815 76818 76821 76824 76827 76830 76833 76836 76839 76842 76845 76848 76851 76854 76857 76860 76863 76866 76869 76872 76875 76878 76881 76884 76887 76890 76893 76896 76899 76902 76905 76908 76911 76914 76917 76920 76923 76926 76929 76932 76935 76938 76941 76944 76947 76950 76953 76956 76959 76962 76965 76968 76971 76974 76977 76980 76983 76986 76989 76992 76995 76998 77001 77004 77007 77010 77013 77016 77019 77022 77025 77028 77031 77034 77037 77040 77043 77046 77049 77052 77055 77058 77061 77064 77067 77070 77073 77076 77079 77082 77085 77088 77091 77094 77097 77100 77103 77106 77109 77112 77115 77118 77121 77124 77127 77130 77133 77136 77139 77142 77145 77148 77151 77154 77157 77160 77163 77166 77169 77172 77175 77178 77181 77184 77187 77190 77193 77196 77199 77202 77205 77208 77211 77214 77217 77220 77223 77226 77229 77232 77235 77238 77241 77244 77247 77250 77253 77256 77259 77262 77265 77268 77271 77274 77277 77280 77283 77286 77289 77292 77295 77298 77301 77304 77307 77310 77313 77316 77319 77322 77325 77328 77331 77334 77337 77340 77343 77346 77349 77352 77355 77358 77361 77364 77367 77370 77373 77376 77379 77382 77385 77388 77391 77394 77397 77400 77403 77406 77409 77412 77415 77418 77421 77424 77427 77430 77433 77436 77439 77442 77445 77448 77451 77454 77457 77460 77463 77466 77469 77472 77475 77478 77481 77484 77487 77490 77493 77496 77499 77502 77505 77508 77511 77514 77517 77520 77523 77526 77529 77532 77535 77538 77541 77544 77547 77550 77553 77556 77559 77562 77565 77568 77571 77574 77577 77580 77583 77586 77589 77592 77595 77598 77601 77604 77607 77610 77613 77616 77619 77622 77625 77628 77631 77634 77637 77640 77643 77646 77649 77652 77655 77658 77661 77664 77667 77670 77673 77676 77679 77682 77685 77688 77691 77694 77697 77700 77703 77706 77709 77712 77715 77718 77721 77724 77727 77730 77733 77736 77739 77742 77745 77748 77751 77754 77757 77760 77763 77766 77769 77772 77775 77778 77781 77784 77787 77790 77793 77796 77799 77802 77805 77808 77811 77814 77817 77820 77823 77826 77829 77832 77835 77838 77841 77844 77847 77850 77853 77856 77859 77862 77865 77868 77871 77874 77877 77880 77883 77886 77889 77892 77895 77898 77901 77904 77907 77910 77913 77916 77919 77922 77925 77928 77931 77934 77937 77940 77943 77946 77949 77952 77955 77958 77961 77964 77967 77970 77973 77976 77979 77982 77985 77988 77991 77994 77997 78000 78003 78006 78009 78012 78015 78018 78021 78024 78027 78030 78033 78036 78039 78042 78045 78048 78051 78054 78057 78060 78063 78066 78069 78072 78075 78078 78081 78084 78087 78090 78093 78096 78099 78102 78105 78108 78111 78114 78117 78120 78123 78126 78129 78132 78135 78138 78141 78144 78147 78150 78153 78156 78159 78162 78165 78168 78171 78174 78177 78180 78183 78186 78189 78192 78195 78198 78201 78204 78207 78210 78213 78216 78219 78222 78225 78228 78231 78234 78237 78240 78243 78246 78249 78252 78255 78258 78261 78264 78267 78270 78273 78276 78279 78282 78285 78288 78291 78294 78297 78300 78303 78306 78309 78312 78315 78318 78321 78324 78327 78330 78333 78336 78339 78342 78345 78348 78351 78354 78357 78360 78363 78366 78369 78372 78375 78378 78381 78384 78387 78390 78393 78396 78399 78402 78405 78408 78411 78414 78417 78420 78423 78426 78429 78432 78435 78438 78441 78444 78447 78450 78453 78456 78459 78462 78465 78468 78471 78474 78477 78480 78483 78486 78489 78492 78495 78498 78501 78504 78507 78510 78513 78516 78519 78522 78525 78528 78531 78534 78537 78540 78543 78546 78549 78552 78555 78558 78561 78564 78567 78570 78573 78576 78579 78582 78585 78588 78591 78594 78597 78600 78603 78606 78609 78612 78615 78618 78621 78624 78627 78630 78633 78636 78639 78642 78645 78648 78651 78654 78657 78660 78663 78666 78669 78672 78675 78678 78681 78684 78687 78690 78693 78696 78699 78702 78705 78708 78711 78714 78717 78720 78723 78726 78729 78732 78735 78738 78741 78744 78747 78750 78753 78756 78759 78762 78765 78768 78771 78774 78777 78780 78783 78786 78789 78792 78795 78798 78801 78804 78807 78810 78813 78816 78819 78822 78825 78828 78831 78834 78837 78840 78843 78846 78849 78852 78855 78858 78861 78864 78867 78870 78873 78876 78879 78882 78885 78888 78891 78894 78897 78900 78903 78906 78909 78912 78915 78918 78921 78924 78927 78930 78933 78936 78939 78942 78945 78948 78951 78954 78957 78960 78963 78966 78969 78972 78975 78978 78981 78984 78987 78990 78993 78996 78999 79002 79005 79008 79011 79014 79017 79020 79023 79026 79029 79032 79035 79038 79041 79044 79047 79050 79053 79056 79059 79062 79065 79068 79071 79074 79077 79080 79083 79086 79089 79092 79095 79098 79101 79104 79107 79110 79113 79116 79119 79122 79125 79128 79131 79134 79137 79140 79143 79146 79149 79152 79155 79158 79161 79164 79167 79170 79173 79176 79179 79182 79185 79188 79191 79194 79197 79200 79203 79206 79209 79212 79215 79218 79221 79224 79227 79230 79233 79236 79239 79242 79245 79248 79251 79254 79257 79260 79263 79266 79269 79272 79275 79278 79281 79284 79287 79290 79293 79296 79299 79302 79305 79308 79311 79314 79317 79320 79323 79326 79329 79332 79335 79338 79341 79344 79347 79350 79353 79356 79359 79362 79365 79368 79371 79374 79377 79380 79383 79386 79389 79392 79395 79398 79401 79404 79407 79410 79413 79416 79419 79422 79425 79428 79431 79434 79437 79440 79443 79446 79449 79452 79455 79458 79461 79464 79467 79470 79473 79476 79479 79482 79485 79488 79491 79494 79497 79500 79503 79506 79509 79512 79515 79518 79521 79524 79527 79530 79533 79536 79539 79542 79545 79548 79551 79554 79557 79560 79563 79566 79569 79572 79575 79578 79581 79584 79587 79590 79593 79596 79599 79602 79605 79608 79611 79614 79617 79620 79623 79626 79629 79632 79635 79638 79641 79644 79647 79650 79653 79656 79659 79662 79665 79668 79671 79674 79677 79680 79683 79686 79689 79692 79695 79698 79701 79704 79707 79710 79713 79716 79719 79722 79725 79728 79731 79734 79737 79740 79743 79746 79749 79752 79755 79758 79761 79764 79767 79770 79773 79776 79779 79782 79785 79788 79791 79794 79797 79800 79803 79806 79809 79812 79815 79818 79821 79824 79827 79830 79833 79836 79839 79842 79845 79848 79851 79854 79857 79860 79863 79866 79869 79872 79875 79878 79881 79884 79887 79890 79893 79896 79899 79902 79905 79908 79911 79914 79917 79920 79923 79926 79929 79932 79935 79938 79941 79944 79947 79950 79953 79956 79959 79962 79965 79968 79971 79974 79977 79980 79983 79986 79989 79992 79995 79998 80001 80004 80007 80010 80013 80016 80019 80022 80025 80028 80031 80034 80037 80040 80043 80046 80049 80052 80055 80058 80061 80064 80067 80070 80073 80076 80079 80082 80085 80088 80091 80094 80097 80100 80103 80106 80109 80112 80115 80118 80121 80124 80127 80130 80133 80136 80139 80142 80145 80148 80151 80154 80157 80160 80163 80166 80169 80172 80175 80178 80181 80184 80187 80190 80193 80196 80199 80202 80205 80208 80211 80214 80217 80220 80223 80226 80229 80232 80235 80238 80241 80244 80247 80250 80253 80256 80259 80262 80265 80268 80271 80274 80277 80280 80283 80286 80289 80292 80295 80298 80301 80304 80307 80310 80313 80316 80319 80322 80325 80328 80331 80334 80337 80340 80343 80346 80349 80352 80355 80358 80361 80364 80367 80370 80373 80376 80379 80382 80385 80388 80391 80394 80397 80400 80403 80406 80409 80412 80415 80418 80421 80424 80427 80430 80433 80436 80439 80442 80445 80448 80451 80454 80457 80460 80463 80466 80469 80472 80475 80478 80481 80484 80487 80490 80493 80496 80499 80502 80505 80508 80511 80514 80517 80520 80523 80526 80529 80532 80535 80538 80541 80544 80547 80550 80553 80556 80559 80562 80565 80568 80571 80574 80577 80580 80583 80586 80589 80592 80595 80598 80601 80604 80607 80610 80613 80616 80619 80622 80625 80628 80631 80634 80637 80640 80643 80646 80649 80652 80655 80658 80661 80664 80667 80670 80673 80676 80679 80682 80685 80688 80691 80694 80697 80700 80703 80706 80709 80712 80715 80718 80721 80724 80727 80730 80733 80736 80739 80742 80745 80748 80751 80754 80757 80760 80763 80766 80769 80772 80775 80778 80781 80784 80787 80790 80793 80796 80799 80802 80805 80808 80811 80814 80817 80820 80823 80826 80829 80832 80835 80838 80841 80844 80847 80850 80853 80856 80859 80862 80865 80868 80871 80874 80877 80880 80883 80886 80889 80892 80895 80898 80901 80904 80907 80910 80913 80916 80919 80922 80925 80928 80931 80934 80937 80940 80943 80946 80949 80952 80955 80958 80961 80964 80967 80970 80973 80976 80979 80982 80985 80988 80991 80994 80997 81000 81003 81006 81009 81012 81015 81018 81021 81024 81027 81030 81033 81036 81039 81042 81045 81048 81051 81054 81057 81060 81063 81066 81069 81072 81075 81078 81081 81084 81087 81090 81093 81096 81099 81102 81105 81108 81111 81114 81117 81120 81123 81126 81129 81132 81135 81138 81141 81144 81147 81150 81153 81156 81159 81162 81165 81168 81171 81174 81177 81180 81183 81186 81189 81192 81195 81198 81201 81204 81207 81210 81213 81216 81219 81222 81225 81228 81231 81234 81237 81240 81243 81246 81249 81252 81255 81258 81261 81264 81267 81270 81273 81276 81279 81282 81285 81288 81291 81294 81297 81300 81303 81306 81309 81312 81315 81318 81321 81324 81327 81330 81333 81336 81339 81342 81345 81348 81351 81354 81357 81360 81363 81366 81369 81372 81375 81378 81381 81384 81387 81390 81393 81396 81399 81402 81405 81408 81411 81414 81417 81420 81423 81426 81429 81432 81435 81438 81441 81444 81447 81450 81453 81456 81459 81462 81465 81468 81471 81474 81477 81480 81483 81486 81489 81492 81495 81498 81501 81504 81507 81510 81513 81516 81519 81522 81525 81528 81531 81534 81537 81540 81543 81546 81549 81552 81555 81558 81561 81564 81567 81570 81573 81576 81579 81582 81585 81588 81591 81594 81597 81600 81603 81606 81609 81612 81615 81618 81621 81624 81627 81630 81633 81636 81639 81642 81645 81648 81651 81654 81657 81660 81663 81666 81669 81672 81675 81678 81681 81684 81687 81690 81693 81696 81699 81702 81705 81708 81711 81714 81717 81720 81723 81726 81729 81732 81735 81738 81741 81744 81747 81750 81753 81756 81759 81762 81765 81768 81771 81774 81777 81780 81783 81786 81789 81792 81795 81798 81801 81804 81807 81810 81813 81816 81819 81822 81825 81828 81831 81834 81837 81840 81843 81846 81849 81852 81855 81858 81861 81864 81867 81870 81873 81876 81879 81882 81885 81888 81891 81894 81897 81900 81903 81906 81909 81912 81915 81918 81921 81924 81927 81930 81933 81936 81939 81942 81945 81948 81951 81954 81957 81960 81963 81966 81969 81972 81975 81978 81981 81984 81987 81990 81993 81996 81999 82002 82005 82008 82011 82014 82017 82020 82023 82026 82029 82032 82035 82038 82041 82044 82047 82050 82053 82056 82059 82062 82065 82068 82071 82074 82077 82080 82083 82086 82089 82092 82095 82098 82101 82104 82107 82110 82113 82116 82119 82122 82125 82128 82131 82134 82137 82140 82143 82146 82149 82152 82155 82158 82161 82164 82167 82170 82173 82176 82179 82182 82185 82188 82191 82194 82197 82200 82203 82206 82209 82212 82215 82218 82221 82224 82227 82230 82233 82236 82239 82242 82245 82248 82251 82254 82257 82260 82263 82266 82269 82272 82275 82278 82281 82284 82287 82290 82293 82296 82299 82302 82305 82308 82311 82314 82317 82320 82323 82326 82329 82332 82335 82338 82341 82344 82347 82350 82353 82356 82359 82362 82365 82368 82371 82374 82377 82380 82383 82386 82389 82392 82395 82398 82401 82404 82407 82410 82413 82416 82419 82422 82425 82428 82431 82434 82437 82440 82443 82446 82449 82452 82455 82458 82461 82464 82467 82470 82473 82476 82479 82482 82485 82488 82491 82494 82497 82500 82503 82506 82509 82512 82515 82518 82521 82524 82527 82530 82533 82536 82539 82542 82545 82548 82551 82554 82557 82560 82563 82566 82569 82572 82575 82578 82581 82584 82587 82590 82593 82596 82599 82602 82605 82608 82611 82614 82617 82620 82623 82626 82629 82632 82635 82638 82641 82644 82647 82650 82653 82656 82659 82662 82665 82668 82671 82674 82677 82680 82683 82686 82689 82692 82695 82698 82701 82704 82707 82710 82713 82716 82719 82722 82725 82728 82731 82734 82737 82740 82743 82746 82749 82752 82755 82758 82761 82764 82767 82770 82773 82776 82779 82782 82785 82788 82791 82794 82797 82800 82803 82806 82809 82812 82815 82818 82821 82824 82827 82830 82833 82836 82839 82842 82845 82848 82851 82854 82857 82860 82863 82866 82869 82872 82875 82878 82881 82884 82887 82890 82893 82896 82899 82902 82905 82908 82911 82914 82917 82920 82923 82926 82929 82932 82935 82938 82941 82944 82947 82950 82953 82956 82959 82962 82965 82968 82971 82974 82977 82980 82983 82986 82989 82992 82995 82998 83001 83004 83007 83010 83013 83016 83019 83022 83025 83028 83031 83034 83037 83040 83043 83046 83049 83052 83055 83058 83061 83064 83067 83070 83073 83076 83079 83082 83085 83088 83091 83094 83097 83100 83103 83106 83109 83112 83115 83118 83121 83124 83127 83130 83133 83136 83139 83142 83145 83148 83151 83154 83157 83160 83163 83166 83169 83172 83175 83178 83181 83184 83187 83190 83193 83196 83199 83202 83205 83208 83211 83214 83217 83220 83223 83226 83229 83232 83235 83238 83241 83244 83247 83250 83253 83256 83259 83262 83265 83268 83271 83274 83277 83280 83283 83286 83289 83292 83295 83298 83301 83304 83307 83310 83313 83316 83319 83322 83325 83328 83331 83334 83337 83340 83343 83346 83349 83352 83355 83358 83361 83364 83367 83370 83373 83376 83379 83382 83385 83388 83391 83394 83397 83400 83403 83406 83409 83412 83415 83418 83421 83424 83427 83430 83433 83436 83439 83442 83445 83448 83451 83454 83457 83460 83463 83466 83469 83472 83475 83478 83481 83484 83487 83490 83493 83496 83499 83502 83505 83508 83511 83514 83517 83520 83523 83526 83529 83532 83535 83538 83541 83544 83547 83550 83553 83556 83559 83562 83565 83568 83571 83574 83577 83580 83583 83586 83589 83592 83595 83598 83601 83604 83607 83610 83613 83616 83619 83622 83625 83628 83631 83634 83637 83640 83643 83646 83649 83652 83655 83658 83661 83664 83667 83670 83673 83676 83679 83682 83685 83688 83691 83694 83697 83700 83703 83706 83709 83712 83715 83718 83721 83724 83727 83730 83733 83736 83739 83742 83745 83748 83751 83754 83757 83760 83763 83766 83769 83772 83775 83778 83781 83784 83787 83790 83793 83796 83799 83802 83805 83808 83811 83814 83817 83820 83823 83826 83829 83832 83835 83838 83841 83844 83847 83850 83853 83856 83859 83862 83865 83868 83871 83874 83877 83880 83883 83886 83889 83892 83895 83898 83901 83904 83907 83910 83913 83916 83919 83922 83925 83928 83931 83934 83937 83940 83943 83946 83949 83952 83955 83958 83961 83964 83967 83970 83973 83976 83979 83982 83985 83988 83991 83994 83997 84000 84003 84006 84009 84012 84015 84018 84021 84024 84027 84030 84033 84036 84039 84042 84045 84048 84051 84054 84057 84060 84063 84066 84069 84072 84075 84078 84081 84084 84087 84090 84093 84096 84099 84102 84105 84108 84111 84114 84117 84120 84123 84126 84129 84132 84135 84138 84141 84144 84147 84150 84153 84156 84159 84162 84165 84168 84171 84174 84177 84180 84183 84186 84189 84192 84195 84198 84201 84204 84207 84210 84213 84216 84219 84222 84225 84228 84231 84234 84237 84240 84243 84246 84249 84252 84255 84258 84261 84264 84267 84270 84273 84276 84279 84282 84285 84288 84291 84294 84297 84300 84303 84306 84309 84312 84315 84318 84321 84324 84327 84330 84333 84336 84339 84342 84345 84348 84351 84354 84357 84360 84363 84366 84369 84372 84375 84378 84381 84384 84387 84390 84393 84396 84399 84402 84405 84408 84411 84414 84417 84420 84423 84426 84429 84432 84435 84438 84441 84444 84447 84450 84453 84456 84459 84462 84465 84468 84471 84474 84477 84480 84483 84486 84489 84492 84495 84498 84501 84504 84507 84510 84513 84516 84519 84522 84525 84528 84531 84534 84537 84540 84543 84546 84549 84552 84555 84558 84561 84564 84567 84570 84573 84576 84579 84582 84585 84588 84591 84594 84597 84600 84603 84606 84609 84612 84615 84618 84621 84624 84627 84630 84633 84636 84639 84642 84645 84648 84651 84654 84657 84660 84663 84666 84669 84672 84675 84678 84681 84684 84687 84690 84693 84696 84699 84702 84705 84708 84711 84714 84717 84720 84723 84726 84729 84732 84735 84738 84741 84744 84747 84750 84753 84756 84759 84762 84765 84768 84771 84774 84777 84780 84783 84786 84789 84792 84795 84798 84801 84804 84807 84810 84813 84816 84819 84822 84825 84828 84831 84834 84837 84840 84843 84846 84849 84852 84855 84858 84861 84864 84867 84870 84873 84876 84879 84882 84885 84888 84891 84894 84897 84900 84903 84906 84909 84912 84915 84918 84921 84924 84927 84930 84933 84936 84939 84942 84945 84948 84951 84954 84957 84960 84963 84966 84969 84972 84975 84978 84981 84984 84987 84990 84993 84996 84999 85002 85005 85008 85011 85014 85017 85020 85023 85026 85029 85032 85035 85038 85041 85044 85047 85050 85053 85056 85059 85062 85065 85068 85071 85074 85077 85080 85083 85086 85089 85092 85095 85098 85101 85104 85107 85110 85113 85116 85119 85122 85125 85128 85131 85134 85137 85140 85143 85146 85149 85152 85155 85158 85161 85164 85167 85170 85173 85176 85179 85182 85185 85188 85191 85194 85197 85200 85203 85206 85209 85212 85215 85218 85221 85224 85227 85230 85233 85236 85239 85242 85245 85248 85251 85254 85257 85260 85263 85266 85269 85272 85275 85278 85281 85284 85287 85290 85293 85296 85299 85302 85305 85308 85311 85314 85317 85320 85323 85326 85329 85332 85335 85338 85341 85344 85347 85350 85353 85356 85359 85362 85365 85368 85371 85374 85377 85380 85383 85386 85389 85392 85395 85398 85401 85404 85407 85410 85413 85416 85419 85422 85425 85428 85431 85434 85437 85440 85443 85446 85449 85452 85455 85458 85461 85464 85467 85470 85473 85476 85479 85482 85485 85488 85491 85494 85497 85500 85503 85506 85509 85512 85515 85518 85521 85524 85527 85530 85533 85536 85539 85542 85545 85548 85551 85554 85557 85560 85563 85566 85569 85572 85575 85578 85581 85584 85587 85590 85593 85596 85599 85602 85605 85608 85611 85614 85617 85620 85623 85626 85629 85632 85635 85638 85641 85644 85647 85650 85653 85656 85659 85662 85665 85668 85671 85674 85677 85680 85683 85686 85689 85692 85695 85698 85701 85704 85707 85710 85713 85716 85719 85722 85725 85728 85731 85734 85737 85740 85743 85746 85749 85752 85755 85758 85761 85764 85767 85770 85773 85776 85779 85782 85785 85788 85791 85794 85797 85800 85803 85806 85809 85812 85815 85818 85821 85824 85827 85830 85833 85836 85839 85842 85845 85848 85851 85854 85857 85860 85863 85866 85869 85872 85875 85878 85881 85884 85887 85890 85893 85896 85899 85902 85905 85908 85911 85914 85917 85920 85923 85926 85929 85932 85935 85938 85941 85944 85947 85950 85953 85956 85959 85962 85965 85968 85971 85974 85977 85980 85983 85986 85989 85992 85995 85998 86001 86004 86007 86010 86013 86016 86019 86022 86025 86028 86031 86034 86037 86040 86043 86046 86049 86052 86055 86058 86061 86064 86067 86070 86073 86076 86079 86082 86085 86088 86091 86094 86097 86100 86103 86106 86109 86112 86115 86118 86121 86124 86127 86130 86133 86136 86139 86142 86145 86148 86151 86154 86157 86160 86163 86166 86169 86172 86175 86178 86181 86184 86187 86190 86193 86196 86199 86202 86205 86208 86211 86214 86217 86220 86223 86226 86229 86232 86235 86238 86241 86244 86247 86250 86253 86256 86259 86262 86265 86268 86271 86274 86277 86280 86283 86286 86289 86292 86295 86298 86301 86304 86307 86310 86313 86316 86319 86322 86325 86328 86331 86334 86337 86340 86343 86346 86349 86352 86355 86358 86361 86364 86367 86370 86373 86376 86379 86382 86385 86388 86391 86394 86397 86400 86403 86406 86409 86412 86415 86418 86421 86424 86427 86430 86433 86436 86439 86442 86445 86448 86451 86454 86457 86460 86463 86466 86469 86472 86475 86478 86481 86484 86487 86490 86493 86496 86499 86502 86505 86508 86511 86514 86517 86520 86523 86526 86529 86532 86535 86538 86541 86544 86547 86550 86553 86556 86559 86562 86565 86568 86571 86574 86577 86580 86583 86586 86589 86592 86595 86598 86601 86604 86607 86610 86613 86616 86619 86622 86625 86628 86631 86634 86637 86640 86643 86646 86649 86652 86655 86658 86661 86664 86667 86670 86673 86676 86679 86682 86685 86688 86691 86694 86697 86700 86703 86706 86709 86712 86715 86718 86721 86724 86727 86730 86733 86736 86739 86742 86745 86748 86751 86754 86757 86760 86763 86766 86769 86772 86775 86778 86781 86784 86787 86790 86793 86796 86799 86802 86805 86808 86811 86814 86817 86820 86823 86826 86829 86832 86835 86838 86841 86844 86847 86850 86853 86856 86859 86862 86865 86868 86871 86874 86877 86880 86883 86886 86889 86892 86895 86898 86901 86904 86907 86910 86913 86916 86919 86922 86925 86928 86931 86934 86937 86940 86943 86946 86949 86952 86955 86958 86961 86964 86967 86970 86973 86976 86979 86982 86985 86988 86991 86994 86997 87000 87003 87006 87009 87012 87015 87018 87021 87024 87027 87030 87033 87036 87039 87042 87045 87048 87051 87054 87057 87060 87063 87066 87069 87072 87075 87078 87081 87084 87087 87090 87093 87096 87099 87102 87105 87108 87111 87114 87117 87120 87123 87126 87129 87132 87135 87138 87141 87144 87147 87150 87153 87156 87159 87162 87165 87168 87171 87174 87177 87180 87183 87186 87189 87192 87195 87198 87201 87204 87207 87210 87213 87216 87219 87222 87225 87228 87231 87234 87237 87240 87243 87246 87249 87252 87255 87258 87261 87264 87267 87270 87273 87276 87279 87282 87285 87288 87291 87294 87297 87300 87303 87306 87309 87312 87315 87318 87321 87324 87327 87330 87333 87336 87339 87342 87345 87348 87351 87354 87357 87360 87363 87366 87369 87372 87375 87378 87381 87384 87387 87390 87393 87396 87399 87402 87405 87408 87411 87414 87417 87420 87423 87426 87429 87432 87435 87438 87441 87444 87447 87450 87453 87456 87459 87462 87465 87468 87471 87474 87477 87480 87483 87486 87489 87492 87495 87498 87501 87504 87507 87510 87513 87516 87519 87522 87525 87528 87531 87534 87537 87540 87543 87546 87549 87552 87555 87558 87561 87564 87567 87570 87573 87576 87579 87582 87585 87588 87591 87594 87597 87600 87603 87606 87609 87612 87615 87618 87621 87624 87627 87630 87633 87636 87639 87642 87645 87648 87651 87654 87657 87660 87663 87666 87669 87672 87675 87678 87681 87684 87687 87690 87693 87696 87699 87702 87705 87708 87711 87714 87717 87720 87723 87726 87729 87732 87735 87738 87741 87744 87747 87750 87753 87756 87759 87762 87765 87768 87771 87774 87777 87780 87783 87786 87789 87792 87795 87798 87801 87804 87807 87810 87813 87816 87819 87822 87825 87828 87831 87834 87837 87840 87843 87846 87849 87852 87855 87858 87861 87864 87867 87870 87873 87876 87879 87882 87885 87888 87891 87894 87897 87900 87903 87906 87909 87912 87915 87918 87921 87924 87927 87930 87933 87936 87939 87942 87945 87948 87951 87954 87957 87960 87963 87966 87969 87972 87975 87978 87981 87984 87987 87990 87993 87996 87999 88002 88005 88008 88011 88014 88017 88020 88023 88026 88029 88032 88035 88038 88041 88044 88047 88050 88053 88056 88059 88062 88065 88068 88071 88074 88077 88080 88083 88086 88089 88092 88095 88098 88101 88104 88107 88110 88113 88116 88119 88122 88125 88128 88131 88134 88137 88140 88143 88146 88149 88152 88155 88158 88161 88164 88167 88170 88173 88176 88179 88182 88185 88188 88191 88194 88197 88200 88203 88206 88209 88212 88215 88218 88221 88224 88227 88230 88233 88236 88239 88242 88245 88248 88251 88254 88257 88260 88263 88266 88269 88272 88275 88278 88281 88284 88287 88290 88293 88296 88299 88302 88305 88308 88311 88314 88317 88320 88323 88326 88329 88332 88335 88338 88341 88344 88347 88350 88353 88356 88359 88362 88365 88368 88371 88374 88377 88380 88383 88386 88389 88392 88395 88398 88401 88404 88407 88410 88413 88416 88419 88422 88425 88428 88431 88434 88437 88440 88443 88446 88449 88452 88455 88458 88461 88464 88467 88470 88473 88476 88479 88482 88485 88488 88491 88494 88497 88500 88503 88506 88509 88512 88515 88518 88521 88524 88527 88530 88533 88536 88539 88542 88545 88548 88551 88554 88557 88560 88563 88566 88569 88572 88575 88578 88581 88584 88587 88590 88593 88596 88599 88602 88605 88608 88611 88614 88617 88620 88623 88626 88629 88632 88635 88638 88641 88644 88647 88650 88653 88656 88659 88662 88665 88668 88671 88674 88677 88680 88683 88686 88689 88692 88695 88698 88701 88704 88707 88710 88713 88716 88719 88722 88725 88728 88731 88734 88737 88740 88743 88746 88749 88752 88755 88758 88761 88764 88767 88770 88773 88776 88779 88782 88785 88788 88791 88794 88797 88800 88803 88806 88809 88812 88815 88818 88821 88824 88827 88830 88833 88836 88839 88842 88845 88848 88851 88854 88857 88860 88863 88866 88869 88872 88875 88878 88881 88884 88887 88890 88893 88896 88899 88902 88905 88908 88911 88914 88917 88920 88923 88926 88929 88932 88935 88938 88941 88944 88947 88950 88953 88956 88959 88962 88965 88968 88971 88974 88977 88980 88983 88986 88989 88992 88995 88998 89001 89004 89007 89010 89013 89016 89019 89022 89025 89028 89031 89034 89037 89040 89043 89046 89049 89052 89055 89058 89061 89064 89067 89070 89073 89076 89079 89082 89085 89088 89091 89094 89097 89100 89103 89106 89109 89112 89115 89118 89121 89124 89127 89130 89133 89136 89139 89142 89145 89148 89151 89154 89157 89160 89163 89166 89169 89172 89175 89178 89181 89184 89187 89190 89193 89196 89199 89202 89205 89208 89211 89214 89217 89220 89223 89226 89229 89232 89235 89238 89241 89244 89247 89250 89253 89256 89259 89262 89265 89268 89271 89274 89277 89280 89283 89286 89289 89292 89295 89298 89301 89304 89307 89310 89313 89316 89319 89322 89325 89328 89331 89334 89337 89340 89343 89346 89349 89352 89355 89358 89361 89364 89367 89370 89373 89376 89379 89382 89385 89388 89391 89394 89397 89400 89403 89406 89409 89412 89415 89418 89421 89424 89427 89430 89433 89436 89439 89442 89445 89448 89451 89454 89457 89460 89463 89466 89469 89472 89475 89478 89481 89484 89487 89490 89493 89496 89499 89502 89505 89508 89511 89514 89517 89520 89523 89526 89529 89532 89535 89538 89541 89544 89547 89550 89553 89556 89559 89562 89565 89568 89571 89574 89577 89580 89583 89586 89589 89592 89595 89598 89601 89604 89607 89610 89613 89616 89619 89622 89625 89628 89631 89634 89637 89640 89643 89646 89649 89652 89655 89658 89661 89664 89667 89670 89673 89676 89679 89682 89685 89688 89691 89694 89697 89700 89703 89706 89709 89712 89715 89718 89721 89724 89727 89730 89733 89736 89739 89742 89745 89748 89751 89754 89757 89760 89763 89766 89769 89772 89775 89778 89781 89784 89787 89790 89793 89796 89799 89802 89805 89808 89811 89814 89817 89820 89823 89826 89829 89832 89835 89838 89841 89844 89847 89850 89853 89856 89859 89862 89865 89868 89871 89874 89877 89880 89883 89886 89889 89892 89895 89898 89901 89904 89907 89910 89913 89916 89919 89922 89925 89928 89931 89934 89937 89940 89943 89946 89949 89952 89955 89958 89961 89964 89967 89970 89973 89976 89979 89982 89985 89988 89991 89994 89997 90000 90003 90006 90009 90012 90015 90018 90021 90024 90027 90030 90033 90036 90039 90042 90045 90048 90051 90054 90057 90060 90063 90066 90069 90072 90075 90078 90081 90084 90087 90090 90093 90096 90099 90102 90105 90108 90111 90114 90117 90120 90123 90126 90129 90132 90135 90138 90141 90144 90147 90150 90153 90156 90159 90162 90165 90168 90171 90174 90177 90180 90183 90186 90189 90192 90195 90198 90201 90204 90207 90210 90213 90216 90219 90222 90225 90228 90231 90234 90237 90240 90243 90246 90249 90252 90255 90258 90261 90264 90267 90270 90273 90276 90279 90282 90285 90288 90291 90294 90297 90300 90303 90306 90309 90312 90315 90318 90321 90324 90327 90330 90333 90336 90339 90342 90345 90348 90351 90354 90357 90360 90363 90366 90369 90372 90375 90378 90381 90384 90387 90390 90393 90396 90399 90402 90405 90408 90411 90414 90417 90420 90423 90426 90429 90432 90435 90438 90441 90444 90447 90450 90453 90456 90459 90462 90465 90468 90471 90474 90477 90480 90483 90486 90489 90492 90495 90498 90501 90504 90507 90510 90513 90516 90519 90522 90525 90528 90531 90534 90537 90540 90543 90546 90549 90552 90555 90558 90561 90564 90567 90570 90573 90576 90579 90582 90585 90588 90591 90594 90597 90600 90603 90606 90609 90612 90615 90618 90621 90624 90627 90630 90633 90636 90639 90642 90645 90648 90651 90654 90657 90660 90663 90666 90669 90672 90675 90678 90681 90684 90687 90690 90693 90696 90699 90702 90705 90708 90711 90714 90717 90720 90723 90726 90729 90732 90735 90738 90741 90744 90747 90750 90753 90756 90759 90762 90765 90768 90771 90774 90777 90780 90783 90786 90789 90792 90795 90798 90801 90804 90807 90810 90813 90816 90819 90822 90825 90828 90831 90834 90837 90840 90843 90846 90849 90852 90855 90858 90861 90864 90867 90870 90873 90876 90879 90882 90885 90888 90891 90894 90897 90900 90903 90906 90909 90912 90915 90918 90921 90924 90927 90930 90933 90936 90939 90942 90945 90948 90951 90954 90957 90960 90963 90966 90969 90972 90975 90978 90981 90984 90987 90990 90993 90996 90999 91002 91005 91008 91011 91014 91017 91020 91023 91026 91029 91032 91035 91038 91041 91044 91047 91050 91053 91056 91059 91062 91065 91068 91071 91074 91077 91080 91083 91086 91089 91092 91095 91098 91101 91104 91107 91110 91113 91116 91119 91122 91125 91128 91131 91134 91137 91140 91143 91146 91149 91152 91155 91158 91161 91164 91167 91170 91173 91176 91179 91182 91185 91188 91191 91194 91197 91200 91203 91206 91209 91212 91215 91218 91221 91224 91227 91230 91233 91236 91239 91242 91245 91248 91251 91254 91257 91260 91263 91266 91269 91272 91275 91278 91281 91284 91287 91290 91293 91296 91299 91302 91305 91308 91311 91314 91317 91320 91323 91326 91329 91332 91335 91338 91341 91344 91347 91350 91353 91356 91359 91362 91365 91368 91371 91374 91377 91380 91383 91386 91389 91392 91395 91398 91401 91404 91407 91410 91413 91416 91419 91422 91425 91428 91431 91434 91437 91440 91443 91446 91449 91452 91455 91458 91461 91464 91467 91470 91473 91476 91479 91482 91485 91488 91491 91494 91497 91500 91503 91506 91509 91512 91515 91518 91521 91524 91527 91530 91533 91536 91539 91542 91545 91548 91551 91554 91557 91560 91563 91566 91569 91572 91575 91578 91581 91584 91587 91590 91593 91596 91599 91602 91605 91608 91611 91614 91617 91620 91623 91626 91629 91632 91635 91638 91641 91644 91647 91650 91653 91656 91659 91662 91665 91668 91671 91674 91677 91680 91683 91686 91689 91692 91695 91698 91701 91704 91707 91710 91713 91716 91719 91722 91725 91728 91731 91734 91737 91740 91743 91746 91749 91752 91755 91758 91761 91764 91767 91770 91773 91776 91779 91782 91785 91788 91791 91794 91797 91800 91803 91806 91809 91812 91815 91818 91821 91824 91827 91830 91833 91836 91839 91842 91845 91848 91851 91854 91857 91860 91863 91866 91869 91872 91875 91878 91881 91884 91887 91890 91893 91896 91899 91902 91905 91908 91911 91914 91917 91920 91923 91926 91929 91932 91935 91938 91941 91944 91947 91950 91953 91956 91959 91962 91965 91968 91971 91974 91977 91980 91983 91986 91989 91992 91995 91998 92001 92004 92007 92010 92013 92016 92019 92022 92025 92028 92031 92034 92037 92040 92043 92046 92049 92052 92055 92058 92061 92064 92067 92070 92073 92076 92079 92082 92085 92088 92091 92094 92097 92100 92103 92106 92109 92112 92115 92118 92121 92124 92127 92130 92133 92136 92139 92142 92145 92148 92151 92154 92157 92160 92163 92166 92169 92172 92175 92178 92181 92184 92187 92190 92193 92196 92199 92202 92205 92208 92211 92214 92217 92220 92223 92226 92229 92232 92235 92238 92241 92244 92247 92250 92253 92256 92259 92262 92265 92268 92271 92274 92277 92280 92283 92286 92289 92292 92295 92298 92301 92304 92307 92310 92313 92316 92319 92322 92325 92328 92331 92334 92337 92340 92343 92346 92349 92352 92355 92358 92361 92364 92367 92370 92373 92376 92379 92382 92385 92388 92391 92394 92397 92400 92403 92406 92409 92412 92415 92418 92421 92424 92427 92430 92433 92436 92439 92442 92445 92448 92451 92454 92457 92460 92463 92466 92469 92472 92475 92478 92481 92484 92487 92490 92493 92496 92499 92502 92505 92508 92511 92514 92517 92520 92523 92526 92529 92532 92535 92538 92541 92544 92547 92550 92553 92556 92559 92562 92565 92568 92571 92574 92577 92580 92583 92586 92589 92592 92595 92598 92601 92604 92607 92610 92613 92616 92619 92622 92625 92628 92631 92634 92637 92640 92643 92646 92649 92652 92655 92658 92661 92664 92667 92670 92673 92676 92679 92682 92685 92688 92691 92694 92697 92700 92703 92706 92709 92712 92715 92718 92721 92724 92727 92730 92733 92736 92739 92742 92745 92748 92751 92754 92757 92760 92763 92766 92769 92772 92775 92778 92781 92784 92787 92790 92793 92796 92799 92802 92805 92808 92811 92814 92817 92820 92823 92826 92829 92832 92835 92838 92841 92844 92847 92850 92853 92856 92859 92862 92865 92868 92871 92874 92877 92880 92883 92886 92889 92892 92895 92898 92901 92904 92907 92910 92913 92916 92919 92922 92925 92928 92931 92934 92937 92940 92943 92946 92949 92952 92955 92958 92961 92964 92967 92970 92973 92976 92979 92982 92985 92988 92991 92994 92997 93000 93003 93006 93009 93012 93015 93018 93021 93024 93027 93030 93033 93036 93039 93042 93045 93048 93051 93054 93057 93060 93063 93066 93069 93072 93075 93078 93081 93084 93087 93090 93093 93096 93099 93102 93105 93108 93111 93114 93117 93120 93123 93126 93129 93132 93135 93138 93141 93144 93147 93150 93153 93156 93159 93162 93165 93168 93171 93174 93177 93180 93183 93186 93189 93192 93195 93198 93201 93204 93207 93210 93213 93216 93219 93222 93225 93228 93231 93234 93237 93240 93243 93246 93249 93252 93255 93258 93261 93264 93267 93270 93273 93276 93279 93282 93285 93288 93291 93294 93297 93300 93303 93306 93309 93312 93315 93318 93321 93324 93327 93330 93333 93336 93339 93342 93345 93348 93351 93354 93357 93360 93363 93366 93369 93372 93375 93378 93381 93384 93387 93390 93393 93396 93399 93402 93405 93408 93411 93414 93417 93420 93423 93426 93429 93432 93435 93438 93441 93444 93447 93450 93453 93456 93459 93462 93465 93468 93471 93474 93477 93480 93483 93486 93489 93492 93495 93498 93501 93504 93507 93510 93513 93516 93519 93522 93525 93528 93531 93534 93537 93540 93543 93546 93549 93552 93555 93558 93561 93564 93567 93570 93573 93576 93579 93582 93585 93588 93591 93594 93597 93600 93603 93606 93609 93612 93615 93618 93621 93624 93627 93630 93633 93636 93639 93642 93645 93648 93651 93654 93657 93660 93663 93666 93669 93672 93675 93678 93681 93684 93687 93690 93693 93696 93699 93702 93705 93708 93711 93714 93717 93720 93723 93726 93729 93732 93735 93738 93741 93744 93747 93750 93753 93756 93759 93762 93765 93768 93771 93774 93777 93780 93783 93786 93789 93792 93795 93798 93801 93804 93807 93810 93813 93816 93819 93822 93825 93828 93831 93834 93837 93840 93843 93846 93849 93852 93855 93858 93861 93864 93867 93870 93873 93876 93879 93882 93885 93888 93891 93894 93897 93900 93903 93906 93909 93912 93915 93918 93921 93924 93927 93930 93933 93936 93939 93942 93945 93948 93951 93954 93957 93960 93963 93966 93969 93972 93975 93978 93981 93984 93987 93990 93993 93996 93999 94002 94005 94008 94011 94014 94017 94020 94023 94026 94029 94032 94035 94038 94041 94044 94047 94050 94053 94056 94059 94062 94065 94068 94071 94074 94077 94080 94083 94086 94089 94092 94095 94098 94101 94104 94107 94110 94113 94116 94119 94122 94125 94128 94131 94134 94137 94140 94143 94146 94149 94152 94155 94158 94161 94164 94167 94170 94173 94176 94179 94182 94185 94188 94191 94194 94197 94200 94203 94206 94209 94212 94215 94218 94221 94224 94227 94230 94233 94236 94239 94242 94245 94248 94251 94254 94257 94260 94263 94266 94269 94272 94275 94278 94281 94284 94287 94290 94293 94296 94299 94302 94305 94308 94311 94314 94317 94320 94323 94326 94329 94332 94335 94338 94341 94344 94347 94350 94353 94356 94359 94362 94365 94368 94371 94374 94377 94380 94383 94386 94389 94392 94395 94398 94401 94404 94407 94410 94413 94416 94419 94422 94425 94428 94431 94434 94437 94440 94443 94446 94449 94452 94455 94458 94461 94464 94467 94470 94473 94476 94479 94482 94485 94488 94491 94494 94497 94500 94503 94506 94509 94512 94515 94518 94521 94524 94527 94530 94533 94536 94539 94542 94545 94548 94551 94554 94557 94560 94563 94566 94569 94572 94575 94578 94581 94584 94587 94590 94593 94596 94599 94602 94605 94608 94611 94614 94617 94620 94623 94626 94629 94632 94635 94638 94641 94644 94647 94650 94653 94656 94659 94662 94665 94668 94671 94674 94677 94680 94683 94686 94689 94692 94695 94698 94701 94704 94707 94710 94713 94716 94719 94722 94725 94728 94731 94734 94737 94740 94743 94746 94749 94752 94755 94758 94761 94764 94767 94770 94773 94776 94779 94782 94785 94788 94791 94794 94797 94800 94803 94806 94809 94812 94815 94818 94821 94824 94827 94830 94833 94836 94839 94842 94845 94848 94851 94854 94857 94860 94863 94866 94869 94872 94875 94878 94881 94884 94887 94890 94893 94896 94899 94902 94905 94908 94911 94914 94917 94920 94923 94926 94929 94932 94935 94938 94941 94944 94947 94950 94953 94956 94959 94962 94965 94968 94971 94974 94977 94980 94983 94986 94989 94992 94995 94998 95001 95004 95007 95010 95013 95016 95019 95022 95025 95028 95031 95034 95037 95040 95043 95046 95049 95052 95055 95058 95061 95064 95067 95070 95073 95076 95079 95082 95085 95088 95091 95094 95097 95100 95103 95106 95109 95112 95115 95118 95121 95124 95127 95130 95133 95136 95139 95142 95145 95148 95151 95154 95157 95160 95163 95166 95169 95172 95175 95178 95181 95184 95187 95190 95193 95196 95199 95202 95205 95208 95211 95214 95217 95220 95223 95226 95229 95232 95235 95238 95241 95244 95247 95250 95253 95256 95259 95262 95265 95268 95271 95274 95277 95280 95283 95286 95289 95292 95295 95298 95301 95304 95307 95310 95313 95316 95319 95322 95325 95328 95331 95334 95337 95340 95343 95346 95349 95352 95355 95358 95361 95364 95367 95370 95373 95376 95379 95382 95385 95388 95391 95394 95397 95400 95403 95406 95409 95412 95415 95418 95421 95424 95427 95430 95433 95436 95439 95442 95445 95448 95451 95454 95457 95460 95463 95466 95469 95472 95475 95478 95481 95484 95487 95490 95493 95496 95499 95502 95505 95508 95511 95514 95517 95520 95523 95526 95529 95532 95535 95538 95541 95544 95547 95550 95553 95556 95559 95562 95565 95568 95571 95574 95577 95580 95583 95586 95589 95592 95595 95598 95601 95604 95607 95610 95613 95616 95619 95622 95625 95628 95631 95634 95637 95640 95643 95646 95649 95652 95655 95658 95661 95664 95667 95670 95673 95676 95679 95682 95685 95688 95691 95694 95697 95700 95703 95706 95709 95712 95715 95718 95721 95724 95727 95730 95733 95736 95739 95742 95745 95748 95751 95754 95757 95760 95763 95766 95769 95772 95775 95778 95781 95784 95787 95790 95793 95796 95799 95802 95805 95808 95811 95814 95817 95820 95823 95826 95829 95832 95835 95838 95841 95844 95847 95850 95853 95856 95859 95862 95865 95868 95871 95874 95877 95880 95883 95886 95889 95892 95895 95898 95901 95904 95907 95910 95913 95916 95919 95922 95925 95928 95931 95934 95937 95940 95943 95946 95949 95952 95955 95958 95961 95964 95967 95970 95973 95976 95979 95982 95985 95988 95991 95994 95997 96000 96003 96006 96009 96012 96015 96018 96021 96024 96027 96030 96033 96036 96039 96042 96045 96048 96051 96054 96057 96060 96063 96066 96069 96072 96075 96078 96081 96084 96087 96090 96093 96096 96099 96102 96105 96108 96111 96114 96117 96120 96123 96126 96129 96132 96135 96138 96141 96144 96147 96150 96153 96156 96159 96162 96165 96168 96171 96174 96177 96180 96183 96186 96189 96192 96195 96198 96201 96204 96207 96210 96213 96216 96219 96222 96225 96228 96231 96234 96237 96240 96243 96246 96249 96252 96255 96258 96261 96264 96267 96270 96273 96276 96279 96282 96285 96288 96291 96294 96297 96300 96303 96306 96309 96312 96315 96318 96321 96324 96327 96330 96333 96336 96339 96342 96345 96348 96351 96354 96357 96360 96363 96366 96369 96372 96375 96378 96381 96384 96387 96390 96393 96396 96399 96402 96405 96408 96411 96414 96417 96420 96423 96426 96429 96432 96435 96438 96441 96444 96447 96450 96453 96456 96459 96462 96465 96468 96471 96474 96477 96480 96483 96486 96489 96492 96495 96498 96501 96504 96507 96510 96513 96516 96519 96522 96525 96528 96531 96534 96537 96540 96543 96546 96549 96552 96555 96558 96561 96564 96567 96570 96573 96576 96579 96582 96585 96588 96591 96594 96597 96600 96603 96606 96609 96612 96615 96618 96621 96624 96627 96630 96633 96636 96639 96642 96645 96648 96651 96654 96657 96660 96663 96666 96669 96672 96675 96678 96681 96684 96687 96690 96693 96696 96699 96702 96705 96708 96711 96714 96717 96720 96723 96726 96729 96732 96735 96738 96741 96744 96747 96750 96753 96756 96759 96762 96765 96768 96771 96774 96777 96780 96783 96786 96789 96792 96795 96798 96801 96804 96807 96810 96813 96816 96819 96822 96825 96828 96831 96834 96837 96840 96843 96846 96849 96852 96855 96858 96861 96864 96867 96870 96873 96876 96879 96882 96885 96888 96891 96894 96897 96900 96903 96906 96909 96912 96915 96918 96921 96924 96927 96930 96933 96936 96939 96942 96945 96948 96951 96954 96957 96960 96963 96966 96969 96972 96975 96978 96981 96984 96987 96990 96993 96996 96999 97002 97005 97008 97011 97014 97017 97020 97023 97026 97029 97032 97035 97038 97041 97044 97047 97050 97053 97056 97059 97062 97065 97068 97071 97074 97077 97080 97083 97086 97089 97092 97095 97098 97101 97104 97107 97110 97113 97116 97119 97122 97125 97128 97131 97134 97137 97140 97143 97146 97149 97152 97155 97158 97161 97164 97167 97170 97173 97176 97179 97182 97185 97188 97191 97194 97197 97200 97203 97206 97209 97212 97215 97218 97221 97224 97227 97230 97233 97236 97239 97242 97245 97248 97251 97254 97257 97260 97263 97266 97269 97272 97275 97278 97281 97284 97287 97290 97293 97296 97299 97302 97305 97308 97311 97314 97317 97320 97323 97326 97329 97332 97335 97338 97341 97344 97347 97350 97353 97356 97359 97362 97365 97368 97371 97374 97377 97380 97383 97386 97389 97392 97395 97398 97401 97404 97407 97410 97413 97416 97419 97422 97425 97428 97431 97434 97437 97440 97443 97446 97449 97452 97455 97458 97461 97464 97467 97470 97473 97476 97479 97482 97485 97488 97491 97494 97497 97500 97503 97506 97509 97512 97515 97518 97521 97524 97527 97530 97533 97536 97539 97542 97545 97548 97551 97554 97557 97560 97563 97566 97569 97572 97575 97578 97581 97584 97587 97590 97593 97596 97599 97602 97605 97608 97611 97614 97617 97620 97623 97626 97629 97632 97635 97638 97641 97644 97647 97650 97653 97656 97659 97662 97665 97668 97671 97674 97677 97680 97683 97686 97689 97692 97695 97698 97701 97704 97707 97710 97713 97716 97719 97722 97725 97728 97731 97734 97737 97740 97743 97746 97749 97752 97755 97758 97761 97764 97767 97770 97773 97776 97779 97782 97785 97788 97791 97794 97797 97800 97803 97806 97809 97812 97815 97818 97821 97824 97827 97830 97833 97836 97839 97842 97845 97848 97851 97854 97857 97860 97863 97866 97869 97872 97875 97878 97881 97884 97887 97890 97893 97896 97899 97902 97905 97908 97911 97914 97917 97920 97923 97926 97929 97932 97935 97938 97941 97944 97947 97950 97953 97956 97959 97962 97965 97968 97971 97974 97977 97980 97983 97986 97989 97992 97995 97998 98001 98004 98007 98010 98013 98016 98019 98022 98025 98028 98031 98034 98037 98040 98043 98046 98049 98052 98055 98058 98061 98064 98067 98070 98073 98076 98079 98082 98085 98088 98091 98094 98097 98100 98103 98106 98109 98112 98115 98118 98121 98124 98127 98130 98133 98136 98139 98142 98145 98148 98151 98154 98157 98160 98163 98166 98169 98172 98175 98178 98181 98184 98187 98190 98193 98196 98199 98202 98205 98208 98211 98214 98217 98220 98223 98226 98229 98232 98235 98238 98241 98244 98247 98250 98253 98256 98259 98262 98265 98268 98271 98274 98277 98280 98283 98286 98289 98292 98295 98298 98301 98304 98307 98310 98313 98316 98319 98322 98325 98328 98331 98334 98337 98340 98343 98346 98349 98352 98355 98358 98361 98364 98367 98370 98373 98376 98379 98382 98385 98388 98391 98394 98397 98400 98403 98406 98409 98412 98415 98418 98421 98424 98427 98430 98433 98436 98439 98442 98445 98448 98451 98454 98457 98460 98463 98466 98469 98472 98475 98478 98481 98484 98487 98490 98493 98496 98499 98502 98505 98508 98511 98514 98517 98520 98523 98526 98529 98532 98535 98538 98541 98544 98547 98550 98553 98556 98559 98562 98565 98568 98571 98574 98577 98580 98583 98586 98589 98592 98595 98598 98601 98604 98607 98610 98613 98616 98619 98622 98625 98628 98631 98634 98637 98640 98643 98646 98649 98652 98655 98658 98661 98664 98667 98670 98673 98676 98679 98682 98685 98688 98691 98694 98697 98700 98703 98706 98709 98712 98715 98718 98721 98724 98727 98730 98733 98736 98739 98742 98745 98748 98751 98754 98757 98760 98763 98766 98769 98772 98775 98778 98781 98784 98787 98790 98793 98796 98799 98802 98805 98808 98811 98814 98817 98820 98823 98826 98829 98832 98835 98838 98841 98844 98847 98850 98853 98856 98859 98862 98865 98868 98871 98874 98877 98880 98883 98886 98889 98892 98895 98898 98901 98904 98907 98910 98913 98916 98919 98922 98925 98928 98931 98934 98937 98940 98943 98946 98949 98952 98955 98958 98961 98964 98967 98970 98973 98976 98979 98982 98985 98988 98991 98994 98997 99000 99003 99006 99009 99012 99015 99018 99021 99024 99027 99030 99033 99036 99039 99042 99045 99048 99051 99054 99057 99060 99063 99066 99069 99072 99075 99078 99081 99084 99087 99090 99093 99096 99099 99102 99105 99108 99111 99114 99117 99120 99123 99126 99129 99132 99135 99138 99141 99144 99147 99150 99153 99156 99159 99162 99165 99168 99171 99174 99177 99180 99183 99186 99189 99192 99195 99198 99201 99204 99207 99210 99213 99216 99219 99222 99225 99228 99231 99234 99237 99240 99243 99246 99249 99252 99255 99258 99261 99264 99267 99270 99273 99276 99279 99282 99285 99288 99291 99294 99297 99300 99303 99306 99309 99312 99315 99318 99321 99324 99327 99330 99333 99336 99339 99342 99345 99348 99351 99354 99357 99360 99363 99366 99369 99372 99375 99378 99381 99384 99387 99390 99393 99396 99399 99402 99405 99408 99411 99414 99417 99420 99423 99426 99429 99432 99435 99438 99441 99444 99447 99450 99453 99456 99459 99462 99465 99468 99471 99474 99477 99480 99483 99486 99489 99492 99495 99498 99501 99504 99507 99510 99513 99516 99519 99522 99525 99528 99531 99534 99537 99540 99543 99546 99549 99552 99555 99558 99561 99564 99567 99570 99573 99576 99579 99582 99585 99588 99591 99594 99597 99600 99603 99606 99609 99612 99615 99618 99621 99624 99627 99630 99633 99636 99639 99642 99645 99648 99651 99654 99657 99660 99663 99666 99669 99672 99675 99678 99681 99684 99687 99690 99693 99696 99699 99702 99705 99708 99711 99714 99717 99720 99723 99726 99729 99732 99735 99738 99741 99744 99747 99750 99753 99756 99759 99762 99765 99768 99771 99774 99777 99780 99783 99786 99789 99792 99795 99798 99801 99804 99807 99810 99813 99816 99819 99822 99825 99828 99831 99834 99837 99840 99843 99846 99849 99852 99855 99858 99861 99864 99867 99870 99873 99876 99879 99882 99885 99888 99891 99894 99897 99900 99903 99906 99909 99912 99915 99918 99921 99924 99927 99930 99933 99936 99939 99942 99945 99948 99951 99954 99957 99960 99963 99966 99969 99972 99975 99978 99981 99984 99987 99990 99993 99996 99999 100002 100005 100008 100011 100014 100017 100020 100023 100026 100029 100032 100035 100038 100041 100044 100047 100050 100053 100056 100059 100062 100065 100068 100071 100074 100077 100080 100083 100086 100089 100092 100095 100098 100101 100104 100107 100110 100113 100116 100119 100122 100125 100128 100131 100134 100137 100140 100143 100146 100149 100152 100155 100158 100161 100164 100167 100170 100173 100176 100179 100182 100185 100188 100191 100194 100197 100200 100203 100206 100209 100212 100215 100218 100221 100224 100227 100230 100233 100236 100239 100242 100245 100248 100251 100254 100257 100260 100263 100266 100269 100272 100275 100278 100281 100284 100287 100290 100293 100296 100299 100302 100305 100308 100311 100314 100317 100320 100323 100326 100329 100332 100335 100338 100341 100344 100347 100350 100353 100356 100359 100362 100365 100368 100371 100374 100377 100380 100383 100386 100389 100392 100395 100398 100401 100404 100407 100410 100413 100416 100419 100422 100425 100428 100431 100434 100437 100440 100443 100446 100449 100452 100455 100458 100461 100464 100467 100470 100473 100476 100479 100482 100485 100488 100491 100494 100497 100500 100503 100506 100509 100512 100515 100518 100521 100524 100527 100530 100533 100536 100539 100542 100545 100548 100551 100554 100557 100560 100563 100566 100569 100572 100575 100578 100581 100584 100587 100590 100593 100596 100599 100602 100605 100608 100611 100614 100617 100620 100623 100626 100629 100632 100635 100638 100641 100644 100647 100650 100653 100656 100659 100662 100665 100668 100671 100674 100677 100680 100683 100686 100689 100692 100695 100698 100701 100704 100707 100710 100713 100716 100719 100722 100725 100728 100731 100734 100737 100740 100743 100746 100749 100752 100755 100758 100761 100764 100767 100770 100773 100776 100779 100782 100785 100788 100791 100794 100797 100800 100803 100806 100809 100812 100815 100818 100821 100824 100827 100830 100833 100836 100839 100842 100845 100848 100851 100854 100857 100860 100863 100866 100869 100872 100875 100878 100881 100884 100887 100890 100893 100896 100899 100902 100905 100908 100911 100914 100917 100920 100923 100926 100929 100932 100935 100938 100941 100944 100947 100950 100953 100956 100959 100962 100965 100968 100971 100974 100977 100980 100983 100986 100989 100992 100995 100998 101001 101004 101007 101010 101013 101016 101019 101022 101025 101028 101031 101034 101037 101040 101043 101046 101049 101052 101055 101058 101061 101064 101067 101070 101073 101076 101079 101082 101085 101088 101091 101094 101097 101100 101103 101106 101109 101112 101115 101118 101121 101124 101127 101130 101133 101136 101139 101142 101145 101148 101151 101154 101157 101160 101163 101166 101169 101172 101175 101178 101181 101184 101187 101190 101193 101196 101199 101202 101205 101208 101211 101214 101217 101220 101223 101226 101229 101232 101235 101238 101241 101244 101247 101250 101253 101256 101259 101262 101265 101268 101271 101274 101277 101280 101283 101286 101289 101292 101295 101298 101301 101304 101307 101310 101313 101316 101319 101322 101325 101328 101331 101334 101337 101340 101343 101346 101349 101352 101355 101358 101361 101364 101367 101370 101373 101376 101379 101382 101385 101388 101391 101394 101397 101400 101403 101406 101409 101412 101415 101418 101421 101424 101427 101430 101433 101436 101439 101442 101445 101448 101451 101454 101457 101460 101463 101466 101469 101472 101475 101478 101481 101484 101487 101490 101493 101496 101499 101502 101505 101508 101511 101514 101517 101520 101523 101526 101529 101532 101535 101538 101541 101544 101547 101550 101553 101556 101559 101562 101565 101568 101571 101574 101577 101580 101583 101586 101589 101592 101595 101598 101601 101604 101607 101610 101613 101616 101619 101622 101625 101628 101631 101634 101637 101640 101643 101646 101649 101652 101655 101658 101661 101664 101667 101670 101673 101676 101679 101682 101685 101688 101691 101694 101697 101700 101703 101706 101709 101712 101715 101718 101721 101724 101727 101730 101733 101736 101739 101742 101745 101748 101751 101754 101757 101760 101763 101766 101769 101772 101775 101778 101781 101784 101787 101790 101793 101796 101799 101802 101805 101808 101811 101814 101817 101820 101823 101826 101829 101832 101835 101838 101841 101844 101847 101850 101853 101856 101859 101862 101865 101868 101871 101874 101877 101880 101883 101886 101889 101892 101895 101898 101901 101904 101907 101910 101913 101916 101919 101922 101925 101928 101931 101934 101937 101940 101943 101946 101949 101952 101955 101958 101961 101964 101967 101970 101973 101976 101979 101982 101985 101988 101991 101994 101997 102000 102003 102006 102009 102012 102015 102018 102021 102024 102027 102030 102033 102036 102039 102042 102045 102048 102051 102054 102057 102060 102063 102066 102069 102072 102075 102078 102081 102084 102087 102090 102093 102096 102099 102102 102105 102108 102111 102114 102117 102120 102123 102126 102129 102132 102135 102138 102141 102144 102147 102150 102153 102156 102159 102162 102165 102168 102171 102174 102177 102180 102183 102186 102189 102192 102195 102198 102201 102204 102207 102210 102213 102216 102219 102222 102225 102228 102231 102234 102237 102240 102243 102246 102249 102252 102255 102258 102261 102264 102267 102270 102273 102276 102279 102282 102285 102288 102291 102294 102297 102300 102303 102306 102309 102312 102315 102318 102321 102324 102327 102330 102333 102336 102339 102342 102345 102348 102351 102354 102357 102360 102363 102366 102369 102372 102375 102378 102381 102384 102387 102390 102393 102396 102399 102402 102405 102408 102411 102414 102417 102420 102423 102426 102429 102432 102435 102438 102441 102444 102447 102450 102453 102456 102459 102462 102465 102468 102471 102474 102477 102480 102483 102486 102489 102492 102495 102498 102501 102504 102507 102510 102513 102516 102519 102522 102525 102528 102531 102534 102537 102540 102543 102546 102549 102552 102555 102558 102561 102564 102567 102570 102573 102576 102579 102582 102585 102588 102591 102594 102597 102600 102603 102606 102609 102612 102615 102618 102621 102624 102627 102630 102633 102636 102639 102642 102645 102648 102651 102654 102657 102660 102663 102666 102669 102672 102675 102678 102681 102684 102687 102690 102693 102696 102699 102702 102705 102708 102711 102714 102717 102720 102723 102726 102729 102732 102735 102738 102741 102744 102747 102750 102753 102756 102759 102762 102765 102768 102771 102774 102777 102780 102783 102786 102789 102792 102795 102798 102801 102804 102807 102810 102813 102816 102819 102822 102825 102828 102831 102834 102837 102840 102843 102846 102849 102852 102855 102858 102861 102864 102867 102870 102873 102876 102879 102882 102885 102888 102891 102894 102897 102900 102903 102906 102909 102912 102915 102918 102921 102924 102927 102930 102933 102936 102939 102942 102945 102948 102951 102954 102957 102960 102963 102966 102969 102972 102975 102978 102981 102984 102987 102990 102993 102996 102999 103002 103005 103008 103011 103014 103017 103020 103023 103026 103029 103032 103035 103038 103041 103044 103047 103050 103053 103056 103059 103062 103065 103068 103071 103074 103077 103080 103083 103086 103089 103092 103095 103098 103101 103104 103107 103110 103113 103116 103119 103122 103125 103128 103131 103134 103137 103140 103143 103146 103149 103152 103155 103158 103161 103164 103167 103170 103173 103176 103179 103182 103185 103188 103191 103194 103197 103200 103203 103206 103209 103212 103215 103218 103221 103224 103227 103230 103233 103236 103239 103242 103245 103248 103251 103254 103257 103260 103263 103266 103269 103272 103275 103278 103281 103284 103287 103290 103293 103296 103299 103302 103305 103308 103311 103314 103317 103320 103323 103326 103329 103332 103335 103338 103341 103344 103347 103350 103353 103356 103359 103362 103365 103368 103371 103374 103377 103380 103383 103386 103389 103392 103395 103398 103401 103404 103407 103410 103413 103416 103419 103422 103425 103428 103431 103434 103437 103440 103443 103446 103449 103452 103455 103458 103461 103464 103467 103470 103473 103476 103479 103482 103485 103488 103491 103494 103497 103500 103503 103506 103509 103512 103515 103518 103521 103524 103527 103530 103533 103536 103539 103542 103545 103548 103551 103554 103557 103560 103563 103566 103569 103572 103575 103578 103581 103584 103587 103590 103593 103596 103599 103602 103605 103608 103611 103614 103617 103620 103623 103626 103629 103632 103635 103638 103641 103644 103647 103650 103653 103656 103659 103662 103665 103668 103671 103674 103677 103680 103683 103686 103689 103692 103695 103698 103701 103704 103707 103710 103713 103716 103719 103722 103725 103728 103731 103734 103737 103740 103743 103746 103749 103752 103755 103758 103761 103764 103767 103770 103773 103776 103779 103782 103785 103788 103791 103794 103797 103800 103803 103806 103809 103812 103815 103818 103821 103824 103827 103830 103833 103836 103839 103842 103845 103848 103851 103854 103857 103860 103863 103866 103869 103872 103875 103878 103881 103884 103887 103890 103893 103896 103899 103902 103905 103908 103911 103914 103917 103920 103923 103926 103929 103932 103935 103938 103941 103944 103947 103950 103953 103956 103959 103962 103965 103968 103971 103974 103977 103980 103983 103986 103989 103992 103995 103998 104001 104004 104007 104010 104013 104016 104019 104022 104025 104028 104031 104034 104037 104040 104043 104046 104049 104052 104055 104058 104061 104064 104067 104070 104073 104076 104079 104082 104085 104088 104091 104094 104097 104100 104103 104106 104109 104112 104115 104118 104121 104124 104127 104130 104133 104136 104139 104142 104145 104148 104151 104154 104157 104160 104163 104166 104169 104172 104175 104178 104181 104184 104187 104190 104193 104196 104199 104202 104205 104208 104211 104214 104217 104220 104223 104226 104229 104232 104235 104238 104241 104244 104247 104250 104253 104256 104259 104262 104265 104268 104271 104274 104277 104280 104283 104286 104289 104292 104295 104298 104301 104304 104307 104310 104313 104316 104319 104322 104325 104328 104331 104334 104337 104340 104343 104346 104349 104352 104355 104358 104361 104364 104367 104370 104373 104376 104379 104382 104385 104388 104391 104394 104397 104400 104403 104406 104409 104412 104415 104418 104421 104424 104427 104430 104433 104436 104439 104442 104445 104448 104451 104454 104457 104460 104463 104466 104469 104472 104475 104478 104481 104484 104487 104490 104493 104496 104499 104502 104505 104508 104511 104514 104517 104520 104523 104526 104529 104532 104535 104538 104541 104544 104547 104550 104553 104556 104559 104562 104565 104568 104571 104574 104577 104580 104583 104586 104589 104592 104595 104598 104601 104604 104607 104610 104613 104616 104619 104622 104625 104628 104631 104634 104637 104640 104643 104646 104649 104652 104655 104658 104661 104664 104667 104670 104673 104676 104679 104682 104685 104688 104691 104694 104697 104700 104703 104706 104709 104712 104715 104718 104721 104724 104727 104730 104733 104736 104739 104742 104745 104748 104751 104754 104757 104760 104763 104766 104769 104772 104775 104778 104781 104784 104787 104790 104793 104796 104799 104802 104805 104808 104811 104814 104817 104820 104823 104826 104829 104832 104835 104838 104841 104844 104847 104850 104853 104856 104859 104862 104865 104868 104871 104874 104877 104880 104883 104886 104889 104892 104895 104898 104901 104904 104907 104910 104913 104916 104919 104922 104925 104928 104931 104934 104937 104940 104943 104946 104949 104952 104955 104958 104961 104964 104967 104970 104973 104976 104979 104982 104985 104988 104991 104994 104997 105000 105003 105006 105009 105012 105015 105018 105021 105024 105027 105030 105033 105036 105039 105042 105045 105048 105051 105054 105057 105060 105063 105066 105069 105072 105075 105078 105081 105084 105087 105090 105093 105096 105099 105102 105105 105108 105111 105114 105117 105120 105123 105126 105129 105132 105135 105138 105141 105144 105147 105150 105153 105156 105159 105162 105165 105168 105171 105174 105177 105180 105183 105186 105189 105192 105195 105198 105201 105204 105207 105210 105213 105216 105219 105222 105225 105228 105231 105234 105237 105240 105243 105246 105249 105252 105255 105258 105261 105264 105267 105270 105273 105276 105279 105282 105285 105288 105291 105294 105297 105300 105303 105306 105309 105312 105315 105318 105321 105324 105327 105330 105333 105336 105339 105342 105345 105348 105351 105354 105357 105360 105363 105366 105369 105372 105375 105378 105381 105384 105387 105390 105393 105396 105399 105402 105405 105408 105411 105414 105417 105420 105423 105426 105429 105432 105435 105438 105441 105444 105447 105450 105453 105456 105459 105462 105465 105468 105471 105474 105477 105480 105483 105486 105489 105492 105495 105498 105501 105504 105507 105510 105513 105516 105519 105522 105525 105528 105531 105534 105537 105540 105543 105546 105549 105552 105555 105558 105561 105564 105567 105570 105573 105576 105579 105582 105585 105588 105591 105594 105597 105600 105603 105606 105609 105612 105615 105618 105621 105624 105627 105630 105633 105636 105639 105642 105645 105648 105651 105654 105657 105660 105663 105666 105669 105672 105675 105678 105681 105684 105687 105690 105693 105696 105699 105702 105705 105708 105711 105714 105717 105720 105723 105726 105729 105732 105735 105738 105741 105744 105747 105750 105753 105756 105759 105762 105765 105768 105771 105774 105777 105780 105783 105786 105789 105792 105795 105798 105801 105804 105807 105810 105813 105816 105819 105822 105825 105828 105831 105834 105837 105840 105843 105846 105849 105852 105855 105858 105861 105864 105867 105870 105873 105876 105879 105882 105885 105888 105891 105894 105897 105900 105903 105906 105909 105912 105915 105918 105921 105924 105927 105930 105933 105936 105939 105942 105945 105948 105951 105954 105957 105960 105963 105966 105969 105972 105975 105978 105981 105984 105987 105990 105993 105996 105999 106002 106005 106008 106011 106014 106017 106020 106023 106026 106029 106032 106035 106038 106041 106044 106047 106050 106053 106056 106059 106062 106065 106068 106071 106074 106077 106080 106083 106086 106089 106092 106095 106098 106101 106104 106107 106110 106113 106116 106119 106122 106125 106128 106131 106134 106137 106140 106143 106146 106149 106152 106155 106158 106161 106164 106167 106170 106173 106176 106179 106182 106185 106188 106191 106194 106197 106200 106203 106206 106209 106212 106215 106218 106221 106224 106227 106230 106233 106236 106239 106242 106245 106248 106251 106254 106257 106260 106263 106266 106269 106272 106275 106278 106281 106284 106287 106290 106293 106296 106299 106302 106305 106308 106311 106314 106317 106320 106323 106326 106329 106332 106335 106338 106341 106344 106347 106350 106353 106356 106359 106362 106365 106368 106371 106374 106377 106380 106383 106386 106389 106392 106395 106398 106401 106404 106407 106410 106413 106416 106419 106422 106425 106428 106431 106434 106437 106440 106443 106446 106449 106452 106455 106458 106461 106464 106467 106470 106473 106476 106479 106482 106485 106488 106491 106494 106497 106500 </DataArray>
<DataArray  type="UInt8"  Name="types"  format="ascii">5 5 5 5 5 5 5 5 5 5 5 5 5 5 5 5 5 5 5 5 5 5 5 5 5 5 5 5 5 5 5 5 5 5 5 5 5 5 5 5 5 5 5 5 5 5 5 5 5 5 5 5 5 5 5 5 5 5 5 5 5 5 5 5 5 5 5 5 5 5 5 5 5 5 5 5 5 5 5 5 5 5 5 5 5 5 5 5 5 5 5 5 5 5 5 5 5 5 5 5 5 5 5 5 5 5 5 5 5 5 5 5 5 5 5 5 5 5 5 5 5 5 5 5 5 5 5 5 5 5 5 5 5 5 5 5 5 5 5 5 5 5 5 5 5 5 5 5 5 5 5 5 5 5 5 5 5 5 5 5 5 5 5 5 5 5 5 5 5 5 5 5 5 5 5 5 5 5 5 5 5 5 5 5 5 5 5 5 5 5 5 5 5 5 5 5 5 5 5 5 5 5 5 5 5 5 5 5 5 5 5 5 5 5 5 5 5 5 5 5 5 5 5 5 5 5 5 5 5 5 5 5 5 5 5 5 5 5 5 5 5 5 5 5 5 5 5 5 5 5 5 5 5 5 5 5 5 5 5 5 5 5 5 5 5 5 5 5 5 5 5 5 5 5 5 5 5 5 5 5 5 5 5 5 5 5 5 5 5 5 5 5 5 5 5 5 5 5 5 5 5 5 5 5 5 5 5 5 5 5 5 5 5 5 5 5 5 5 5 5 5 5 5 5 5 5 5 5 5 5 5 5 5 5 5 5 5 5 5 5 5 5 5 5 5 5 5 5 5 5 5 5 5 5 5 5 5 5 5 5 5 5 5 5 5 5 5 5 5 5 5 5 5 5 5 5 5 5 5 5 5 5 5 5 5 5 5 5 5 5 5 5 5 5 5 5 5 5 5 5 5 5 5 5 5 5 5 5 5 5 5 5 5 5 5 5 5 5 5 5 5 5 5 5 5 5 5 5 5 5 5 5 5 5 5 5 5 5 5 5 5 5 5 5 5 5 5 5 5 5 5 5 5 5 5 5 5 5 5 5 5 5 5 5 5 5 5 5 5 5 5 5 5 5 5 5 5 5 5 5 5 5 5 5 5 5 5 5 5 5 5 5 5 5 5 5 5 5 5 5 5 5 5 5 5 5 5 5 5 5 5 5 5 5 5 5 5 5 5 5 5 5 5 5 5 5 5 5 5 5 5 5 5 5 5 5 5 5 5 5 5 5 5 5 5 5 5 5 5 5 5 5 5 5 5 5 5 5 5 5 5 5 5 5 5 5 5 5 5 5 5 5 5 5 5 5 5 5 5 5 5 5 5 5 5 5 5 5 5 5 5 5 5 5 5 5 5 5 5 5 5 5 5 5 5 5 5 5 5 5 5 5 5 5 5 5 5 5 5 5 5 5 5 5 5 5 5 5 5 5 5 5 5 5 5 5 5 5 5 5 5 5 5 5 5 5 5 5 5 5 5 5 5 5 5 5 5 5 5 5 5 5 5 5 5 5 5 5 5 5 5 5 5 5 5 5 5 5 5 5 5 5 5 5 5 5 5 5 5 5 5 5 5 5 5 5 5 5 5 5 5 5 5 5 5 5 5 5 5 5 5 5 5 5 5 5 5 5 5 5 5 5 5 5 5 5 5 5 5 5 5 5 5 5 5 5 5 5 5 5 5 5 5 5 5 5 5 5 5 5 5 5 5 5 5 5 5 5 5 5 5 5 5 5 5 5 5 5 5 5 5 5 5 5 5 5 5 5 5 5 5 5 5 5 5 5 5 5 5 5 5 5 5 5 5 5 5 5 5 5 5 5 5 5 5 5 5 5 5 5 5 5 5 5 5 5 5 5 5 5 5 5 5 5 5 5 5 5 5 5 5 5 5 5 5 5 5 5 5 5 5 5 5 5 5 5 5 5 5 5 5 5 5 5 5 5 5 5 5 5 5 5 5 5 5 5 5 5 5 5 5 5 5 5 5 5 5 5 5 5 5 5 5 5 5 5 5 5 5 5 5 5 5 5 5 5 5 5 5 5 5 5 5 5 5 5 5 5 5 5 5 5 5 5 5 5 5 5 5 5 5 5 5 5 5 5 5 5 5 5 5 5 5 5 5 5 5 5 5 5 5 5 5 5 5 5 5 5 5 5 5 5 5 5 5 5 5 5 5 5 5 5 5 5 5 5 5 5 5 5 5 5 5 5 5 5 5 5 5 5 5 5 5 5 5 5 5 5 5 5 5 5 5 5 5 5 5 5 5 5 5 5 5 5 5 5 5 5 5 5 5 5 5 5 5 5 5 5 5 5 5 5 5 5 5 5 5 5 5 5 5 5 5 5 5 5 5 5 5 5 5 5 5 5 5 5 5 5 5 5 5 5 5 5 5 5 5 5 5 5 5 5 5 5 5 5 5 5 5 5 5 5 5 5 5 5 5 5 5 5 5 5 5 5 5 5 5 5 5 5 5 5 5 5 5 5 5 5 5 5 5 5 5 5 5 5 5 5 5 5 5 5 5 5 5 5 5 5 5 5 5 5 5 5 5 5 5 5 5 5 5 5 5 5 5 5 5 5 5 5 5 5 5 5 5 5 5 5 5 5 5 5 5 5 5 5 5 5 5 5 5 5 5 5 5 5 5 5 5 5 5 5 5 5 5 5 5 5 5 5 5 5 5 5 5 5 5 5 5 5 5 5 5 5 5 5 5 5 5 5 5 5 5 5 5 5 5 5 5 5 5 5 5 5 5 5 5 5 5 5 5 5 5 5 5 5 5 5 5 5 5 5 5 5 5 5 5 5 5 5 5 5 5 5 5 5 5 5 5 5 5 5 5 5 5 5 5 5 5 5 5 5 5 5 5 5 5 5 5 5 5 5 5 5 5 5 5 5 5 5 5 5 5 5 5 5 5 5 5 5 5 5 5 5 5 5 5 5 5 5 5 5 5 5 5 5 5 5 5 5 5 5 5 5 5 5 5 5 5 5 5 5 5 5 5 5 5 5 5 5 5 5 5 5 5 5 5 5 5 5 5 5 5 5 5 5 5 5 5 5 5 5 5 5 5 5 5 5 5 5 5 5 5 5 5 5 5 5 5 5 5 5 5 5 5 5 5 5 5 5 5 5 5 5 5 5 5 5 5 5 5 5 5 5 5 5 5 5 5 5 5 5 5 5 5 5 5 5 5 5 5 5 5 5 5 5 5 5 5 5 5 5 5 5 5 5 5 5 5 5 5 5 5 5 5 5 5 5 5 5 5 5 5 5 5 5 5 5 5 5 5 5 5 5 5 5 5 5 5 5 5 5 5 5 5 5 5 5 5 5 5 5 5 5 5 5 5 5 5 5 5 5 5 5 5 5 5 5 5 5 5 5 5 5 5 5 5 5 5 5 5 5 5 5 5 5 5 5 5 5 5 5 5 5 5 5 5 5 5 5 5 5 5 5 5 5 5 5 5 5 5 5 5 5 5 5 5 5 5 5 5 5 5 5 5 5 5 5 5 5 5 5 5 5 5 5 5 5 5 5 5 5 5 5 5 5 5 5 5 5 5 5 5 5 5 5 5 5 5 5 5 5 5 5 5 5 5 5 5 5 5 5 5 5 5 5 5 5 5 5 5 5 5 5 5 5 5 5 5 5 5 5 5 5 5 5 5 5 5 5 5 5 5 5 5 5 5 5 5 5 5 5 5 5 5 5 5 5 5 5 5 5 5 5 5 5 5 5 5 5 5 5 5 5 5 5 5 5 5 5 5 5 5 5 5 5 5 5 5 5 5 5 5 5 5 5 5 5 5 5 5 5 5 5 5 5 5 5 5 5 5 5 5 5 5 5 5 5 5 5 5 5 5 5 5 5 5 5 5 5 5 5 5 5 5 5 5 5 5 5 5 5 5 5 5 5 5 5 5 5 5 5 5 5 5 5 5 5 5 5 5 5 5 5 5 5 5 5 5 5 5 5 5 5 5 5 5 5 5 5 5 5 5 5 5 5 5 5 5 5 5 5 5 5 5 5 5 5 5 5 5 5 5 5 5 5 5 5 5 5 5 5 5 5 5 5 5 5 5 5 5 5 5 5 5 5 5 5 5 5 5 5 5 5 5 5 5 5 5 5 5 5 5 5 5 5 5 5 5 5 5 5 5 5 5 5 5 5 5 5 5 5 5 5 5 5 5 5 5 5 5 5 5 5 5 5 5 5 5 5 5 5 5 5 5 5 5 5 5 5 5 5 5 5 5 5 5 5 5 5 5 5 5 5 5 5 5 5 5 5 5 5 5 5 5 5 5 5 5 5 5 5 5 5 5 5 5 5 5 5 5 5 5 5 5 5 5 5 5 5 5 5 5 5 5 5 5 5 5 5 5 5 5 5 5 5 5 5 5 5 5 5 5 5 5 5 5 5 5 5 5 5 5 5 5 5 5 5 5 5 5 5 5 5 5 5 5 5 5 5 5 5 5 5 5 5 5 5 5 5 5 5 5 5 5 5 5 5 5 5 5 5 5 5 5 5 5 5 5 5 5 5 5 5 5 5 5 5 5 5 5 5 5 5 5 5 5 5 5 5 5 5 5 5 5 5 5 5 5 5 5 5 5 5 5 5 5 5 5 5 5 5 5 5 5 5 5 5 5 5 5 5 5 5 5 5 5 5 5 5 5 5 5 5 5 5 5 5 5 5 5 5 5 5 5 5 5 5 5 5 5 5 5 5 5 5 5 5 5 5 5 5 5 5 5 5 5 5 5 5 5 5 5 5 5 5 5 5 5 5 5 5 5 5 5 5 5 5 5 5 5 5 5 5 5 5 5 5 5 5 5 5 5 5 5 5 5 5 5 5 5 5 5 5 5 5 5 5 5 5 5 5 5 5 5 5 5 5 5 5 5 5 5 5 5 5 5 5 5 5 5 5 5 5 5 5 5 5 5 5 5 5 5 5 5 5 5 5 5 5 5 5 5 5 5 5 5 5 5 5 5 5 5 5 5 5 5 5 5 5 5 5 5 5 5 5 5 5 5 5 5 5 5 5 5 5 5 5 5 5 5 5 5 5 5 5 5 5 5 5 5 5 5 5 5 5 5 5 5 5 5 5 5 5 5 5 5 5 5 5 5 5 5 5 5 5 5 5 5 5 5 5 5 5 5 5 5 5 5 5 5 5 5 5 5 5 5 5 5 5 5 5 5 5 5 5 5 5 5 5 5 5 5 5 5 5 5 5 5 5 5 5 5 5 5 5 5 5 5 5 5 5 5 5 5 5 5 5 5 5 5 5 5 5 5 5 5 5 5 5 5 5 5 5 5 5 5 5 5 5 5 5 5 5 5 5 5 5 5 5 5 5 5 5 5 5 5 5 5 5 5 5 5 5 5 5 5 5 5 5 5 5 5 5 5 5 5 5 5 5 5 5 5 5 5 5 5 5 5 5 5 5 5 5 5 5 5 5 5 5 5 5 5 5 5 5 5 5 5 5 5 5 5 5 5 5 5 5 5 5 5 5 5 5 5 5 5 5 5 5 5 5 5 5 5 5 5 5 5 5 5 5 5 5 5 5 5 5 5 5 5 5 5 5 5 5 5 5 5 5 5 5 5 5 5 5 5 5 5 5 5 5 5 5 5 5 5 5 5 5 5 5 5 5 5 5 5 5 5 5 5 5 5 5 5 5 5 5 5 5 5 5 5 5 5 5 5 5 5 5 5 5 5 5 5 5 5 5 5 5 5 5 5 5 5 5 5 5 5 5 5 5 5 5 5 5 5 5 5 5 5 5 5 5 5 5 5 5 5 5 5 5 5 5 5 5 5 5 5 5 5 5 5 5 5 5 5 5 5 5 5 5 5 5 5 5 5 5 5 5 5 5 5 5 5 5 5 5 5 5 5 5 5 5 5 5 5 5 5 5 5 5 5 5 5 5 5 5 5 5 5 5 5 5 5 5 5 5 5 5 5 5 5 5 5 5 5 5 5 5 5 5 5 5 5 5 5 5 5 5 5 5 5 5 5 5 5 5 5 5 5 5 5 5 5 5 5 5 5 5 5 5 5 5 5 5 5 5 5 5 5 5 5 5 5 5 5 5 5 5 5 5 5 5 5 5 5 5 5 5 5 5 5 5 5 5 5 5 5 5 5 5 5 5 5 5 5 5 5 5 5 5 5 5 5 5 5 5 5 5 5 5 5 5 5 5 5 5 5 5 5 5 5 5 5 5 5 5 5 5 5 5 5 5 5 5 5 5 5 5 5 5 5 5 5 5 5 5 5 5 5 5 5 5 5 5 5 5 5 5 5 5 5 5 5 5 5 5 5 5 5 5 5 5 5 5 5 5 5 5 5 5 5 5 5 5 5 5 5 5 5 5 5 5 5 5 5 5 5 5 5 5 5 5 5 5 5 5 5 5 5 5 5 5 5 5 5 5 5 5 5 5 5 5 5 5 5 5 5 5 5 5 5 5 5 5 5 5 5 5 5 5 5 5 5 5 5 5 5 5 5 5 5 5 5 5 5 5 5 5 5 5 5 5 5 5 5 5 5 5 5 5 5 5 5 5 5 5 5 5 5 5 5 5 5 5 5 5 5 5 5 5 5 5 5 5 5 5 5 5 5 5 5 5 5 5 5 5 5 5 5 5 5 5 5 5 5 5 5 5 5 5 5 5 5 5 5 5 5 5 5 5 5 5 5 5 5 5 5 5 5 5 5 5 5 5 5 5 5 5 5 5 5 5 5 5 5 5 5 5 5 5 5 5 5 5 5 5 5 5 5 5 5 5 5 5 5 5 5 5 5 5 5 5 5 5 5 5 5 5 5 5 5 5 5 5 5 5 5 5 5 5 5 5 5 5 5 5 5 5 5 5 5 5 5 5 5 5 5 5 5 5 5 5 5 5 5 5 5 5 5 5 5 5 5 5 5 5 5 5 5 5 5 5 5 5 5 5 5 5 5 5 5 5 5 5 5 5 5 5 5 5 5 5 5 5 5 5 5 5 5 5 5 5 5 5 5 5 5 5 5 5 5 5 5 5 5 5 5 5 5 5 5 5 5 5 5 5 5 5 5 5 5 5 5 5 5 5 5 5 5 5 5 5 5 5 5 5 5 5 5 5 5 5 5 5 5 5 5 5 5 5 5 5 5 5 5 5 5 5 5 5 5 5 5 5 5 5 5 5 5 5 5 5 5 5 5 5 5 5 5 5 5 5 5 5 5 5 5 5 5 5 5 5 5 5 5 5 5 5 5 5 5 5 5 5 5 5 5 5 5 5 5 5 5 5 5 5 5 5 5 5 5 5 5 5 5 5 5 5 5 5 5 5 5 5 5 5 5 5 5 5 5 5 5 5 5 5 5 5 5 5 5 5 5 5 5 5 5 5 5 5 5 5 5 5 5 5 5 5 5 5 5 5 5 5 5 5 5 5 5 5 5 5 5 5 5 5 5 5 5 5 5 5 5 5 5 5 5 5 5 5 5 5 5 5 5 5 5 5 5 5 5 5 5 5 5 5 5 5 5 5 5 5 5 5 5 5 5 5 5 5 5 5 5 5 5 5 5 5 5 5 5 5 5 5 5 5 5 5 5 5 5 5 5 5 5 5 5 5 5 5 5 5 5 5 5 5 5 5 5 5 5 5 5 5 5 5 5 5 5 5 5 5 5 5 5 5 5 5 5 5 5 5 5 5 5 5 5 5 5 5 5 5 5 5 5 5 5 5 5 5 5 5 5 5 5 5 5 5 5 5 5 5 5 5 5 5 5 5 5 5 5 5 5 5 5 5 5 5 5 5 5 5 5 5 5 5 5 5 5 5 5 5 5 5 5 5 5 5 5 5 5 5 5 5 5 5 5 5 5 5 5 5 5 5 5 5 5 5 5 5 5 5 5 5 5 5 5 5 5 5 5 5 5 5 5 5 5 5 5 5 5 5 5 5 5 5 5 5 5 5 5 5 5 5 5 5 5 5 5 5 5 5 5 5 5 5 5 5 5 5 5 5 5 5 5 5 5 5 5 5 5 5 5 5 5 5 5 5 5 5 5 5 5 5 5 5 5 5 5 5 5 5 5 5 5 5 5 5 5 5 5 5 5 5 5 5 5 5 5 5 5 5 5 5 5 5 5 5 5 5 5 5 5 5 5 5 5 5 5 5 5 5 5 5 5 5 5 5 5 5 5 5 5 5 5 5 5 5 5 5 5 5 5 5 5 5 5 5 5 5 5 5 5 5 5 5 5 5 5 5 5 5 5 5 5 5 5 5 5 5 5 5 5 5 5 5 5 5 5 5 5 5 5 5 5 5 5 5 5 5 5 5 5 5 5 5 5 5 5 5 5 5 5 5 5 5 5 5 5 5 5 5 5 5 5 5 5 5 5 5 5 5 5 5 5 5 5 5 5 5 5 5 5 5 5 5 5 5 5 5 5 5 5 5 5 5 5 5 5 5 5 5 5 5 5 5 5 5 5 5 5 5 5 5 5 5 5 5 5 5 5 5 5 5 5 5 5 5 5 5 5 5 5 5 5 5 5 5 5 5 5 5 5 5 5 5 5 5 5 5 5 5 5 5 5 5 5 5 5 5 5 5 5 5 5 5 5 5 5 5 5 5 5 5 5 5 5 5 5 5 5 5 5 5 5 5 5 5 5 5 5 5 5 5 5 5 5 5 5 5 5 5 5 5 5 5 5 5 5 5 5 5 5 5 5 5 5 5 5 5 5 5 5 5 5 5 5 5 5 5 5 5 5 5 5 5 5 5 5 5 5 5 5 5 5 5 5 5 5 5 5 5 5 5 5 5 5 5 5 5 5 5 5 5 5 5 5 5 5 5 5 5 5 5 5 5 5 5 5 5 5 5 5 5 5 5 5 5 5 5 5 5 5 5 5 5 5 5 5 5 5 5 5 5 5 5 5 5 5 5 5 5 5 5 5 5 5 5 5 5 5 5 5 5 5 5 5 5 5 5 5 5 5 5 5 5 5 5 5 5 5 5 5 5 5 5 5 5 5 5 5 5 5 5 5 5 5 5 5 5 5 5 5 5 5 5 5 5 5 5 5 5 5 5 5 5 5 5 5 5 5 5 5 5 5 5 5 5 5 5 5 5 5 5 5 5 5 5 5 5 5 5 5 5 5 5 5 5 5 5 5 5 5 5 5 5 5 5 5 5 5 5 5 5 5 5 5 5 5 5 5 5 5 5 5 5 5 5 5 5 5 5 5 5 5 5 5 5 5 5 5 5 5 5 5 5 5 5 5 5 5 5 5 5 5 5 5 5 5 5 5 5 5 5 5 5 5 5 5 5 5 5 5 5 5 5 5 5 5 5 5 5 5 5 5 5 5 5 5 5 5 5 5 5 5 5 5 5 5 5 5 5 5 5 5 5 5 5 5 5 5 5 5 5 5 5 5 5 5 5 5 5 5 5 5 5 5 5 5 5 5 5 5 5 5 5 5 5 5 5 5 5 5 5 5 5 5 5 5 5 5 5 5 5 5 5 5 5 5 5 5 5 5 5 5 5 5 5 5 5 5 5 5 5 5 5 5 5 5 5 5 5 5 5 5 5 5 5 5 5 5 5 5 5 5 5 5 5 5 5 5 5 5 5 5 5 5 5 5 5 5 5 5 5 5 5 5 5 5 5 5 5 5 5 5 5 5 5 5 5 5 5 5 5 5 5 5 5 5 5 5 5 5 5 5 5 5 5 5 5 5 5 5 5 5 5 5 5 5 5 5 5 5 5 5 5 5 5 5 5 5 5 5 5 5 5 5 5 5 5 5 5 5 5 5 5 5 5 5 5 5 5 5 5 5 5 5 5 5 5 5 5 5 5 5 5 5 5 5 5 5 5 5 5 5 5 5 5 5 5 5 5 5 5 5 5 5 5 5 5 5 5 5 5 5 5 5 5 5 5 5 5 5 5 5 5 5 5 5 5 5 5 5 5 5 5 5 5 5 5 5 5 5 5 5 5 5 5 5 5 5 5 5 5 5 5 5 5 5 5 5 5 5 5 5 5 5 5 5 5 5 5 5 5 5 5 5 5 5 5 5 5 5 5 5 5 5 5 5 5 5 5 5 5 5 5 5 5 5 5 5 5 5 5 5 5 5 5 5 5 5 5 5 5 5 5 5 5 5 5 5 5 5 5 5 5 5 5 5 5 5 5 5 5 5 5 5 5 5 5 5 5 5 5 5 5 5 5 5 5 5 5 5 5 5 5 5 5 5 5 5 5 5 5 5 5 5 5 5 5 5 5 5 5 5 5 5 5 5 5 5 5 5 5 5 5 5 5 5 5 5 5 5 5 5 5 5 5 5 5 5 5 5 5 5 5 5 5 5 5 5 5 5 5 5 5 5 5 5 5 5 5 5 5 5 5 5 5 5 5 5 5 5 5 5 5 5 5 5 5 5 5 5 5 5 5 5 5 5 5 5 5 5 5 5 5 5 5 5 5 5 5 5 5 5 5 5 5 5 5 5 5 5 5 5 5 5 5 5 5 5 5 5 5 5 5 5 5 5 5 5 5 5 5 5 5 5 5 5 5 5 5 5 5 5 5 5 5 5 5 5 5 5 5 5 5 5 5 5 5 5 5 5 5 5 5 5 5 5 5 5 5 5 5 5 5 5 5 5 5 5 5 5 5 5 5 5 5 5 5 5 5 5 5 5 5 5 5 5 5 5 5 5 5 5 5 5 5 5 5 5 5 5 5 5 5 5 5 5 5 5 5 5 5 5 5 5 5 5 5 5 5 5 5 5 5 5 5 5 5 5 5 5 5 5 5 5 5 5 5 5 5 5 5 5 5 5 5 5 5 5 5 5 5 5 5 5 5 5 5 5 5 5 5 5 5 5 5 5 5 5 5 5 5 5 5 5 5 5 5 5 5 5 5 5 5 5 5 5 5 5 5 5 5 5 5 5 5 5 5 5 5 5 5 5 5 5 5 5 5 5 5 5 5 5 5 5 5 5 5 5 5 5 5 5 5 5 5 5 5 5 5 5 5 5 5 5 5 5 5 5 5 5 5 5 5 5 5 5 5 5 5 5 5 5 5 5 5 5 5 5 5 5 5 5 5 5 5 5 5 5 5 5 5 5 5 5 5 5 5 5 5 5 5 5 5 5 5 5 5 5 5 5 5 5 5 5 5 5 5 5 5 5 5 5 5 5 5 5 5 5 5 5 5 5 5 5 5 5 5 5 5 5 5 5 5 5 5 5 5 5 5 5 5 5 5 5 5 5 5 5 5 5 5 5 5 5 5 5 5 5 5 5 5 5 5 5 5 5 5 5 5 5 5 5 5 5 5 5 5 5 5 5 5 5 5 5 5 5 5 5 5 5 5 5 5 5 5 5 5 5 5 5 5 5 5 5 5 5 5 5 5 5 5 5 5 5 5 5 5 5 5 5 5 5 5 5 5 5 5 5 5 5 5 5 5 5 5 5 5 5 5 5 5 5 5 5 5 5 5 5 5 5 5 5 5 5 5 5 5 5 5 5 5 5 5 5 5 5 5 5 5 5 5 5 5 5 5 5 5 5 5 5 5 5 5 5 5 5 5 5 5 5 5 5 5 5 5 5 5 5 5 5 5 5 5 5 5 5 5 5 5 5 5 5 5 5 5 5 5 5 5 5 5 5 5 5 5 5 5 5 5 5 5 5 5 5 5 5 5 5 5 5 5 5 5 5 5 5 5 5 5 5 5 5 5 5 5 5 5 5 5 5 5 5 5 5 5 5 5 5 5 5 5 5 5 5 5 5 5 5 5 5 5 5 5 5 5 5 5 5 5 5 5 5 5 5 5 5 5 5 5 5 5 5 5 5 5 5 5 5 5 5 5 5 5 5 5 5 5 5 5 5 5 5 5 5 5 5 5 5 5 5 5 5 5 5 5 5 5 5 5 5 5 5 5 5 5 5 5 5 5 5 5 5 5 5 5 5 5 5 5 5 5 5 5 5 5 5 5 5 5 5 5 5 5 5 5 5 5 5 5 5 5 5 5 5 5 5 5 5 5 5 5 5 5 5 5 5 5 5 5 5 5 5 5 5 5 5 5 5 5 5 5 5 5 5 5 5 5 5 5 5 5 5 5 5 5 5 5 5 5 5 5 5 5 5 5 5 5 5 5 5 5 5 5 5 5 5 5 5 5 5 5 5 5 5 5 5 5 5 5 5 5 5 5 5 5 5 5 5 5 5 5 5 5 5 5 5 5 5 5 5 5 5 5 5 5 5 5 5 5 5 5 5 5 5 5 5 5 5 5 5 5 5 5 5 5 5 5 5 5 5 5 5 5 5 5 5 5 5 5 5 5 5 5 5 5 5 5 5 5 5 5 5 5 5 5 5 5 5 5 5 5 5 5 5 5 5 5 5 5 5 5 5 5 5 5 5 5 5 5 5 5 5 5 5 5 5 5 5 5 5 5 5 5 5 5 5 5 5 5 5 5 5 5 5 5 5 5 5 5 5 5 5 5 5 5 5 5 5 5 5 5 5 5 5 5 5 5 5 5 5 5 5 5 5 5 5 5 5 5 5 5 5 5 5 5 5 5 5 5 5 5 5 5 5 5 5 5 5 5 5 5 5 5 5 5 5 5 5 5 5 5 5 5 5 5 5 5 5 5 5 5 5 5 5 5 5 5 5 5 5 5 5 5 5 5 5 5 5 5 5 5 5 5 5 5 5 5 5 5 5 5 5 5 5 5 5 5 5 5 5 5 5 5 5 5 5 5 5 5 5 5 5 5 5 5 5 5 5 5 5 5 5 5 5 5 5 5 5 5 5 5 5 5 5 5 5 5 5 5 5 5 5 5 5 5 5 5 5 5 5 5 5 5 5 5 5 5 5 5 5 5 5 5 5 5 5 5 5 5 5 5 5 5 5 5 5 5 5 5 5 5 5 5 5 5 5 5 5 5 5 5 5 5 5 5 5 5 5 5 5 5 5 5 5 5 5 5 5 5 5 5 5 5 5 5 5 5 5 5 5 5 5 5 5 5 5 5 5 5 5 5 5 5 5 5 5 5 5 5 5 5 5 5 5 5 5 5 5 5 5 5 5 5 5 5 5 5 5 5 5 5 5 5 5 5 5 5 5 5 5 5 5 5 5 5 5 5 5 5 5 5 5 5 5 5 5 5 5 5 5 5 5 5 5 5 5 5 5 5 5 5 5 5 5 5 5 5 5 5 5 5 5 5 5 5 5 5 5 5 5 5 5 5 5 5 5 5 5 5 5 5 5 5 5 5 5 5 5 5 5 5 5 5 5 5 5 5 5 5 5 5 5 5 5 5 5 5 5 5 5 5 5 5 5 5 5 5 5 5 5 5 5 5 5 5 5 5 5 5 5 5 5 5 5 5 5 5 5 5 5 5 5 5 5 5 5 5 5 5 5 5 5 5 5 5 5 5 5 5 5 5 5 5 5 5 5 5 5 5 5 5 5 5 5 5 5 5 5 5 5 5 5 5 5 5 5 5 5 5 5 5 5 5 5 5 5 5 5 5 5 5 5 5 5 5 5 5 5 5 5 5 5 5 5 5 5 5 5 5 5 5 5 5 5 5 5 5 5 5 5 5 5 5 5 5 5 5 5 5 5 5 5 5 5 5 5 5 5 5 5 5 5 5 5 5 5 5 5 5 5 5 5 5 5 5 5 5 5 5 5 5 5 5 5 5 5 5 5 5 5 5 5 5 5 5 5 5 5 5 5 5 5 5 5 5 5 5 5 5 5 5 5 5 5 5 5 5 5 5 5 5 5 5 5 5 5 5 5 5 5 5 5 5 5 5 5 5 5 5 5 5 5 5 5 5 5 5 5 5 5 5 5 5 5 5 5 5 5 5 5 5 5 5 5 5 5 5 5 5 5 5 5 5 5 5 5 5 5 5 5 5 5 5 5 5 5 5 5 5 5 5 5 5 5 5 5 5 5 5 5 5 5 5 5 5 5 5 5 5 5 5 5 5 5 5 5 5 5 5 5 5 5 5 5 5 5 5 5 5 5 5 5 5 5 5 5 5 5 5 5 5 5 5 5 5 5 5 5 5 5 5 5 5 5 5 5 5 5 5 5 5 5 5 5 5 5 5 5 5 5 5 5 5 5 5 5 5 5 5 5 5 5 5 5 5 5 5 5 5 5 5 5 5 5 5 5 5 5 5 5 5 5 5 5 5 5 5 5 5 5 5 5 5 5 5 5 5 5 5 5 5 5 5 5 5 5 5 5 5 5 5 5 5 5 5 5 5 5 5 5 5 5 5 5 5 5 5 5 5 5 5 5 5 5 5 5 5 5 5 5 5 5 5 5 5 5 5 5 5 5 5 5 5 5 5 5 5 5 5 5 5 5 5 5 5 5 5 5 5 5 5 5 5 5 5 5 5 5 5 5 5 5 5 5 5 5 5 5 5 5 5 5 5 5 5 5 5 5 5 5 5 5 5 5 5 5 5 5 5 5 5 5 5 5 5 5 5 5 5 5 5 5 5 5 5 5 5 5 5 5 5 5 5 5 5 5 5 5 5 5 5 5 5 5 5 5 5 5 5 5 5 5 5 5 5 5 5 5 5 5 5 5 5 5 5 5 5 5 5 5 5 5 5 5 5 5 5 5 5 5 5 5 5 5 5 5 5 5 5 5 5 5 5 5 5 5 5 5 5 5 5 5 5 5 5 5 5 5 5 5 5 5 5 5 5 5 5 5 5 5 5 5 5 5 5 5 5 5 5 5 5 5 5 5 5 5 5 5 5 5 5 5 5 5 5 5 5 5 5 5 5 5 5 5 5 5 5 5 5 5 5 5 5 5 5 5 5 5 5 5 5 5 5 5 5 5 5 5 5 5 5 5 5 5 5 5 5 5 5 5 5 5 5 5 5 5 5 5 5 5 5 5 5 5 5 5 5 5 5 5 5 5 5 5 5 5 5 5 5 5 5 5 5 5 5 5 5 5 5 5 5 5 5 5 5 5 5 5 5 5 5 5 5 5 5 5 5 5 5 5 5 5 5 5 5 5 5 5 5 5 5 5 5 5 5 5 5 5 5 5 5 5 5 5 5 5 5 5 5 5 5 5 5 5 5 5 5 5 5 5 5 5 5 5 5 5 5 5 5 5 5 5 5 5 5 5 5 5 5 5 5 5 5 5 5 5 5 5 5 5 5 5 5 5 5 5 5 5 5 5 5 5 5 5 5 5 5 5 5 5 5 5 5 5 5 5 5 5 5 5 5 5 5 5 5 5 5 5 5 5 5 5 5 5 5 5 5 5 5 5 5 5 5 5 5 5 5 5 5 5 5 5 5 5 5 5 5 5 5 5 5 5 5 5 5 5 5 5 5 5 5 5 5 5 5 5 5 5 5 5 5 5 5 5 5 5 5 5 5 5 5 5 5 5 5 5 5 5 5 5 5 5 5 5 5 5 5 5 5 5 5 5 5 5 5 5 5 5 5 5 5 5 5 5 5 5 5 5 5 5 5 5 5 5 5 5 5 5 5 5 5 5 5 5 5 5 5 5 5 5 5 5 5 5 5 5 5 5 5 5 5 5 5 5 5 5 5 5 5 5 5 5 5 5 5 5 5 5 5 5 5 5 5 5 5 5 5 5 5 5 5 5 5 5 5 5 5 5 5 5 5 5 5 5 5 5 5 5 5 5 5 5 5 5 5 5 5 5 5 5 5 5 5 5 5 5 5 5 5 5 5 5 5 5 5 5 5 5 5 5 5 5 5 5 5 5 5 5 5 5 5 5 5 5 5 5 5 5 5 5 5 5 5 5 5 5 5 5 5 5 5 5 5 5 5 5 5 5 5 5 5 5 5 5 5 5 5 5 5 5 5 5 5 5 5 5 5 5 5 5 5 5 5 5 5 5 5 5 5 5 5 5 5 5 5 5 5 5 5 5 5 5 5 5 5 5 5 5 5 5 5 5 5 5 5 5 5 5 5 5 5 5 5 5 5 5 5 5 5 5 5 5 5 5 5 5 5 5 5 5 5 5 5 5 5 5 5 5 5 5 5 5 5 5 5 5 5 5 5 5 5 5 5 5 5 5 5 5 5 5 5 5 5 5 5 5 5 5 5 5 5 5 5 5 5 5 5 5 5 5 5 5 5 5 5 5 5 5 5 5 5 5 5 5 5 5 5 5 5 5 5 5 5 5 5 5 5 5 5 5 5 5 5 5 5 5 5 5 5 5 5 5 5 5 5 5 5 5 5 5 5 5 5 5 5 5 5 5 5 5 5 5 5 5 5 5 5 5 5 5 5 5 5 5 5 5 5 5 5 5 5 5 5 5 5 5 5 5 5 5 5 5 5 5 5 5 5 5 5 5 5 5 5 5 5 5 5 5 5 5 5 5 5 5 5 5 5 5 5 5 5 5 5 5 5 5 5 5 5 5 5 5 5 5 5 5 5 5 5 5 5 5 5 5 5 5 5 5 5 5 5 5 5 5 5 5 5 5 5 5 5 5 5 5 5 5 5 5 5 5 5 5 5 5 5 5 5 5 5 5 5 5 5 5 5 5 5 5 5 5 5 5 5 5 5 5 5 5 5 5 5 5 5 5 5 5 5 5 5 5 5 5 5 5 5 5 5 5 5 5 5 5 5 5 5 5 5 5 5 5 5 5 5 5 5 5 5 5 5 5 5 5 5 5 5 5 5 5 5 5 5 5 5 5 5 5 5 5 5 5 5 5 5 5 5 5 5 5 5 5 5 5 5 5 5 5 5 5 5 5 5 5 5 5 5 5 5 5 5 5 5 5 5 5 5 5 5 5 5 5 5 5 5 5 5 5 5 5 5 5 5 5 5 5 5 5 5 5 5 5 5 5 5 5 5 5 5 5 5 5 5 5 5 5 5 5 5 5 5 5 5 5 5 5 5 5 5 5 5 5 5 5 5 5 5 5 5 5 5 5 5 5 5 5 5 5 5 5 5 5 5 5 5 5 5 5 5 5 5 5 5 5 5 5 5 5 5 5 5 5 5 5 5 5 5 5 5 5 5 5 5 5 5 5 5 5 5 5 5 5 5 5 5 5 5 5 5 5 5 5 5 5 5 5 5 5 5 5 5 5 5 5 5 5 5 5 5 5 5 5 5 5 5 5 5 5 5 5 5 5 5 5 5 5 5 5 5 5 5 5 5 5 5 5 5 5 5 5 5 5 5 5 5 5 5 5 5 5 5 5 5 5 5 5 5 5 5 5 5 5 5 5 5 5 5 5 5 5 5 5 5 5 5 5 5 5 5 5 5 5 5 5 5 5 5 5 5 5 5 5 5 5 5 5 5 5 5 5 5 5 5 5 5 5 5 5 5 5 5 5 5 5 5 5 5 5 5 5 5 5 5 5 5 5 5 5 5 5 5 5 5 5 5 5 5 5 5 5 5 5 5 5 5 5 5 5 5 5 5 5 5 5 5 5 5 5 5 5 5 5 5 5 5 5 5 5 5 5 5 5 5 5 5 5 5 5 5 5 5 5 5 5 5 5 5 5 5 5 5 5 5 5 5 5 5 5 5 5 5 5 5 5 5 5 5 5 5 5 5 5 5 5 5 5 5 5 5 5 5 5 5 5 5 5 5 5 5 5 5 5 5 5 5 5 5 5 5 5 5 5 5 5 5 5 5 5 5 5 5 5 5 5 5 5 5 5 5 5 5 5 5 5 5 5 5 5 5 5 5 5 5 5 5 5 5 5 5 5 5 5 5 5 5 5 5 5 5 5 5 5 5 5 5 5 5 5 5 5 5 5 5 5 5 5 5 5 5 5 5 5 5 5 5 5 5 5 5 5 5 5 5 5 5 5 5 5 5 5 5 5 5 5 5 5 5 5 5 5 5 5 5 5 5 5 5 5 5 5 5 5 5 5 5 5 5 5 5 5 5 5 5 5 5 5 5 5 5 5 5 5 5 5 5 5 5 5 5 5 5 5 5 5 5 5 5 5 5 5 5 5 5 5 5 5 5 5 5 5 5 5 5 5 5 5 5 5 5 5 5 5 5 5 5 5 5 5 5 5 5 5 5 5 5 5 5 5 5 5 5 5 5 5 5 5 5 5 5 5 5 5 5 5 5 5 5 5 5 5 5 5 5 5 5 5 5 5 5 5 5 5 5 5 5 5 5 5 5 5 5 5 5 5 5 5 5 5 5 5 5 5 5 5 5 5 5 5 5 5 5 5 5 5 5 5 5 5 5 5 5 5 5 5 5 5 5 5 5 5 5 5 5 5 5 5 5 5 5 5 5 5 5 5 5 5 5 5 5 5 5 5 5 5 5 5 5 5 5 5 5 5 5 5 5 5 5 5 5 5 5 5 5 5 5 5 5 5 5 5 5 5 5 5 5 5 5 5 5 5 5 5 5 5 5 5 5 5 5 5 5 5 5 5 5 5 5 5 5 5 5 5 5 5 5 5 5 5 5 5 5 5 5 5 5 5 5 5 5 5 5 5 5 5 5 5 5 5 5 5 5 5 5 5 5 5 5 5 5 5 5 5 5 5 5 5 5 5 5 5 5 5 5 5 5 5 5 5 5 5 5 5 5 5 5 5 5 5 5 5 5 5 5 5 5 5 5 5 5 5 5 5 5 5 5 5 5 5 5 5 5 5 5 5 5 5 5 5 5 5 5 5 5 5 5 5 5 5 5 5 5 5 5 5 5 5 5 5 5 5 5 5 5 5 5 5 5 5 5 5 5 5 5 5 5 5 5 5 5 5 5 5 5 5 5 5 5 5 5 5 5 5 5 5 5 5 5 5 5 5 5 5 5 5 5 5 5 5 5 5 5 5 5 5 5 5 5 5 5 5 5 5 5 5 5 5 5 5 5 5 5 5 5 5 5 5 5 5 5 5 5 5 5 5 5 5 5 5 5 5 5 5 5 5 5 5 5 5 5 5 5 5 5 5 5 5 5 5 5 5 5 5 5 5 5 5 5 5 5 5 5 5 5 5 5 5 5 5 5 5 5 5 5 5 5 5 5 5 5 5 5 5 5 5 5 5 5 5 5 5 5 5 5 5 5 5 5 5 5 5 5 5 5 5 5 5 5 5 5 5 5 5 5 5 5 5 5 5 5 5 5 5 5 5 5 5 5 5 5 5 5 5 5 5 5 5 5 5 5 5 5 5 5 5 5 5 5 5 5 5 5 5 5 5 5 5 5 5 5 5 5 5 5 5 5 5 5 5 5 5 5 5 5 5 5 5 5 5 5 5 5 5 5 5 5 5 5 5 5 5 5 5 5 5 5 5 5 5 5 5 5 5 5 5 5 5 5 5 5 5 5 5 5 5 5 5 5 5 5 5 5 5 5 5 5 5 5 5 5 5 5 5 5 5 5 5 5 5 5 5 5 5 5 5 5 5 5 5 5 5 5 5 5 5 5 5 5 5 5 5 5 5 5 5 5 5 5 5 5 5 5 5 5 5 5 5 5 5 5 5 5 5 5 5 5 5 5 5 5 5 5 5 5 5 5 5 5 5 5 5 5 5 5 5 5 5 5 5 5 5 5 5 5 5 5 5 5 5 5 5 5 5 5 5 5 5 5 5 5 5 5 5 5 5 5 5 5 5 5 5 5 5 5 5 5 5 5 5 5 5 5 5 5 5 5 5 5 5 5 5 5 5 5 5 5 5 5 5 5 5 5 5 5 5 5 5 5 5 5 5 5 5 5 5 5 5 5 5 5 5 5 5 5 5 5 5 5 5 5 5 5 5 5 5 5 5 5 5 5 5 5 5 5 5 5 5 5 5 5 5 5 5 5 5 5 5 5 5 5 5 5 5 5 5 5 5 5 5 5 5 5 5 5 5 5 5 5 5 5 5 5 5 5 5 5 5 5 5 5 5 5 5 5 5 5 5 5 5 5 5 5 5 5 5 5 5 5 5 5 5 5 5 5 5 5 5 5 5 5 5 5 5 5 5 5 5 5 5 5 5 5 5 5 5 5 5 5 5 5 5 5 5 5 5 5 5 5 5 5 5 5 5 5 5 5 5 5 5 5 5 5 5 5 5 5 5 5 5 5 5 5 5 5 5 5 5 5 5 5 5 5 5 5 5 5 5 5 5 5 5 5 5 5 5 5 5 5 5 5 5 5 5 5 5 5 5 5 5 5 5 5 5 5 5 5 5 5 5 5 5 5 5 5 5 5 5 5 5 5 5 5 5 5 5 5 5 5 5 5 5 5 5 5 5 5 5 5 5 5 5 5 5 5 5 5 5 5 5 5 5 5 5 5 5 5 5 5 5 5 5 5 5 5 5 5 5 5 5 5 5 5 5 5 5 5 5 5 5 5 5 5 5 5 5 5 5 5 5 5 5 5 5 5 5 5 5 5 5 5 5 5 5 5 5 5 5 5 5 5 5 5 5 5 5 5 5 5 5 5 5 5 5 5 5 5 5 5 5 5 5 5 5 5 5 5 5 5 5 5 5 5 5 5 5 5 5 5 5 5 5 5 5 5 5 5 5 5 5 5 5 5 5 5 5 5 5 5 5 5 5 5 5 5 5 5 5 5 5 5 5 5 5 5 5 5 5 5 5 5 5 5 5 5 5 5 5 5 5 5 5 5 5 5 5 5 5 5 5 5 5 5 5 5 5 5 5 5 5 5 5 5 5 5 5 5 5 5 5 5 5 5 5 5 5 5 5 5 5 5 5 5 5 5 5 5 5 5 5 5 5 5 5 5 5 5 5 5 5 5 5 5 5 5 5 5 5 5 5 5 5 5 5 5 5 5 5 5 5 5 5 5 5 5 5 5 5 5 5 5 5 5 5 5 5 5 5 5 5 5 5 5 5 5 5 5 5 5 5 5 5 5 5 5 5 5 5 5 5 5 5 5 5 5 5 5 5 5 5 5 5 5 5 5 5 5 5 5 5 5 5 5 5 5 5 5 5 5 5 5 5 5 5 5 5 5 5 5 5 5 5 5 5 5 5 5 5 5 5 5 5 5 5 5 5 5 5 5 5 5 5 5 5 5 5 5 5 5 5 5 5 5 5 5 5 5 5 5 5 5 5 5 5 5 5 5 5 5 5 5 5 5 5 5 5 5 5 5 5 5 5 5 5 5 5 5 5 5 5 5 5 5 5 5 5 5 5 5 5 5 5 5 5 5 5 5 5 5 5 5 5 5 5 5 5 5 5 5 5 5 5 5 5 5 5 5 5 5 5 5 5 5 5 5 5 5 5 5 5 5 5 5 5 5 5 5 5 5 5 5 5 5 5 5 5 5 5 5 5 5 5 5 5 5 5 5 5 5 5 5 5 5 5 5 5 5 5 5 5 5 5 5 5 5 5 5 5 5 5 5 5 5 5 5 5 5 5 5 5 5 5 5 5 5 5 5 5 5 5 5 5 5 5 5 5 5 5 5 5 5 5 5 5 5 5 5 5 5 5 5 5 5 5 5 5 5 5 5 5 5 5 5 5 5 5 5 5 5 5 5 5 5 5 5 5 5 5 5 5 5 5 5 5 5 5 5 5 5 5 5 5 5 5 5 5 5 5 5 5 5 5 5 5 5 5 5 5 5 5 5 5 5 5 5 5 5 5 5 5 5 5 5 5 5 5 5 5 5 5 5 5 5 5 5 5 5 5 5 5 5 5 5 5 5 5 5 5 5 5 5 5 5 5 5 5 5 5 5 5 5 5 5 5 5 5 5 5 5 5 5 5 5 5 5 5 5 5 5 5 5 5 5 5 5 5 5 5 5 5 5 5 5 5 5 5 5 5 5 5 5 5 5 5 5 5 5 5 5 5 5 5 5 5 5 5 5 5 5 5 5 5 5 5 5 5 5 5 5 5 5 5 5 5 5 5 5 5 5 5 5 5 5 5 5 5 5 5 5 5 5 5 5 5 5 5 5 5 5 5 5 5 5 5 5 5 5 5 5 5 5 5 5 5 5 5 5 5 5 5 5 5 5 5 5 5 5 5 5 5 5 5 5 5 5 5 5 5 5 5 5 5 5 5 5 5 5 5 5 5 5 5 5 5 5 5 5 5 5 5 5 5 5 5 5 5 5 5 5 5 5 5 5 5 5 5 5 5 5 5 5 5 5 5 5 5 5 5 5 5 5 5 5 5 5 5 5 5 5 5 5 5 5 5 5 5 5 5 5 5 5 5 5 5 5 5 5 5 5 5 5 5 5 5 5 5 5 5 5 5 5 5 5 5 5 5 5 5 5 5 5 5 5 5 5 5 5 5 5 5 5 5 5 5 5 5 5 5 5 5 5 5 5 5 5 5 5 5 5 5 5 5 5 5 5 5 5 5 5 5 5 5 5 5 5 5 5 5 5 5 5 5 5 5 5 5 5 5 5 5 5 5 5 5 5 5 5 5 5 5 5 5 5 5 5 5 5 5 5 5 5 5 5 5 5 5 5 5 5 5 5 5 5 5 5 5 5 5 5 5 5 5 5 5 5 5 5 5 5 5 5 5 5 5 5 5 5 5 5 5 5 5 5 5 5 5 5 5 5 5 5 5 5 5 5 5 5 5 5 5 5 5 5 5 5 5 5 5 5 5 5 5 5 5 5 5 5 5 5 5 5 5 5 5 5 5 5 5 5 5 5 5 5 5 5 5 5 5 5 5 5 5 5 5 5 5 5 5 5 5 5 5 5 5 5 5 5 5 5 5 5 5 5 5 5 5 5 5 5 5 5 5 5 5 5 5 5 5 5 5 5 5 5 5 5 5 5 5 5 5 5 5 5 5 5 5 5 5 5 5 5 5 5 5 5 5 5 5 5 5 5 5 5 5 5 5 5 5 5 5 5 5 5 5 5 5 5 5 5 5 5 5 5 5 5 5 5 5 5 5 5 5 5 5 5 5 5 5 5 5 5 5 5 5 5 5 5 5 5 5 5 5 5 5 5 5 5 5 5 5 5 5 5 5 5 5 5 5 5 5 5 5 5 5 5 5 5 5 5 5 5 5 5 5 5 5 5 5 5 5 5 5 5 5 5 5 5 5 5 5 5 5 5 5 5 5 5 5 5 5 5 5 5 5 5 5 5 5 5 5 5 5 5 5 5 5 5 5 5 5 5 5 5 5 5 5 5 5 5 5 5 5 5 5 5 5 5 5 5 5 5 5 5 5 5 5 5 5 5 5 5 5 5 5 5 5 5 5 5 5 5 5 5 5 5 5 5 5 5 5 5 5 5 5 5 5 5 5 5 5 5 5 5 5 5 5 5 5 5 5 5 5 5 5 5 5 5 5 5 5 5 5 5 5 5 5 5 5 5 5 5 5 5 5 5 5 5 5 5 5 5 5 5 5 5 5 5 5 5 5 5 5 5 5 5 5 5 5 5 5 5 5 5 5 5 5 5 5 5 5 5 5 5 5 5 5 5 5 5 5 5 5 5 5 5 5 5 5 5 5 5 5 5 5 5 5 5 5 5 5 5 5 5 5 5 5 5 5 5 5 5 5 5 5 5 5 5 5 5 5 5 5 5 5 5 5 5 5 5 5 5 5 5 5 5 5 5 5 5 5 5 5 5 5 5 5 5 5 5 5 5 5 5 5 5 5 5 5 5 5 5 5 5 5 5 5 5 5 5 5 5 5 5 5 5 5 5 5 5 5 5 5 5 5 5 5 5 5 5 5 5 5 5 5 5 5 5 5 5 5 5 5 5 5 5 5 5 5 5 5 5 5 5 5 5 5 5 5 5 5 5 5 5 5 5 5 5 5 5 5 5 5 5 5 5 5 5 5 5 5 5 5 5 5 5 5 5 5 5 5 5 5 5 5 5 5 5 5 5 5 5 5 5 5 5 5 5 5 5 5 5 5 5 5 5 5 5 5 5 5 5 5 5 5 5 5 5 5 5 5 5 5 5 5 5 5 5 5 5 5 5 5 5 5 5 5 5 5 5 5 5 5 5 5 5 5 5 5 5 5 5 5 5 5 5 5 5 5 5 5 5 5 5 5 5 5 5 5 5 5 5 5 5 5 5 5 5 5 5 5 5 5 5 5 5 5 5 5 5 5 5 5 5 5 5 5 5 5 5 5 5 5 5 5 5 5 5 5 5 5 5 5 5 5 5 5 5 5 5 5 5 5 5 5 5 5 5 5 5 5 5 5 5 5 5 5 5 5 5 5 5 5 5 5 5 5 5 5 5 5 5 5 5 5 5 5 5 5 5 5 5 5 5 5 5 5 5 5 5 5 5 5 5 5 5 5 5 5 5 5 5 5 5 5 5 5 5 5 5 5 5 5 5 5 5 5 5 5 5 5 5 5 5 5 5 5 5 5 5 5 5 5 5 5 5 5 5 5 5 5 5 5 5 5 5 5 5 5 5 5 5 5 5 5 5 5 5 5 5 5 5 5 5 5 5 5 5 5 5 5 5 5 5 5 5 5 5 5 5 5 5 5 5 5 5 5 5 5 5 5 5 5 5 5 5 5 5 5 5 5 5 5 5 5 5 5 5 5 5 5 5 5 5 5 5 5 5 5 5 5 5 5 5 5 5 5 5 5 5 5 5 5 5 5 5 5 5 5 5 5 5 5 5 5 5 5 5 5 5 5 5 5 5 5 5 5 5 5 5 5 5 5 5 5 5 5 5 5 5 5 5 5 5 5 5 5 5 5 5 5 5 5 5 5 5 5 5 5 5 5 5 5 5 5 5 5 5 5 5 5 5 5 5 5 5 5 5 5 5 5 5 5 5 5 5 5 5 5 5 5 5 5 5 5 5 5 5 5 5 5 5 5 5 5 5 5 5 5 5 5 5 5 5 5 5 5 5 5 5 5 5 5 5 5 5 5 5 5 5 5 5 5 5 5 5 5 5 5 5 5 5 5 5 5 5 5 5 5 5 5 5 5 5 5 5 5 5 5 5 5 5 5 5 5 5 5 5 5 5 5 5 5 5 5 5 5 5 5 5 5 5 5 5 5 5 5 5 5 5 5 5 5 5 5 5 5 5 5 5 5 5 5 5 5 5 5 5 5 5 5 5 5 5 5 5 5 5 5 5 5 5 5 5 5 5 5 5 5 5 5 5 5 5 5 5 5 5 5 5 5 5 5 5 5 5 5 5 5 5 5 5 5 5 5 5 5 5 5 5 5 5 5 5 5 5 5 5 5 5 5 5 5 5 5 5 5 5 5 5 5 5 5 5 5 5 5 5 5 5 5 5 5 5 5 5 5 5 5 5 5 5 5 5 5 5 5 5 5 5 5 5 5 5 5 5 5 5 5 5 5 5 5 5 5 5 5 5 5 5 5 5 5 5 5 5 5 5 5 5 5 5 5 5 5 5 5 5 5 5 5 5 5 5 5 5 5 5 5 5 5 5 5 5 5 5 5 5 5 5 5 5 5 5 5 5 5 5 5 5 5 5 5 5 5 5 5 5 5 5 5 5 5 5 5 5 5 5 5 5 5 5 5 5 5 5 5 5 5 5 5 5 5 5 5 5 5 5 5 5 5 5 5 5 5 5 5 5 5 5 5 5 5 5 5 5 5 5 5 5 5 5 5 5 5 5 5 5 5 5 5 5 5 5 5 5 5 5 5 5 5 5 5 5 5 5 5 5 5 5 5 5 5 5 5 5 5 5 5 5 5 5 5 5 5 5 5 5 5 5 5 5 5 5 5 5 5 5 5 5 5 5 5 5 5 5 5 5 5 5 5 5 5 5 5 5 5 5 5 5 5 5 5 5 5 5 5 5 5 5 5 5 5 5 5 5 5 5 5 5 5 5 5 5 5 5 5 5 5 5 5 5 5 5 5 5 5 5 5 5 5 5 5 5 5 5 5 5 5 5 5 5 5 5 5 5 5 5 5 5 5 5 5 5 5 5 5 5 5 5 5 5 5 5 5 5 5 5 5 5 5 5 5 5 5 5 5 5 5 5 5 5 5 5 5 5 5 5 5 5 5 5 5 5 5 5 5 5 5 5 5 5 5 5 5 5 5 5 5 5 5 5 5 5 5 5 5 5 5 5 5 5 5 5 5 5 5 5 5 5 5 5 5 5 5 5 5 5 5 5 5 5 5 5 5 5 5 5 5 5 5 5 5 5 5 5 5 5 5 5 5 5 5 5 5 5 5 5 5 5 5 5 5 5 5 5 5 5 5 5 5 5 5 5 5 5 5 5 5 5 5 5 5 5 5 5 5 5 5 5 5 5 5 5 5 5 5 5 5 5 5 5 5 5 5 5 5 5 5 5 5 5 5 5 5 5 5 5 5 5 5 5 5 5 5 5 5 5 5 5 5 5 5 5 5 5 5 5 5 5 5 5 5 5 5 5 5 5 5 5 5 5 5 5 5 5 5 5 5 5 5 5 5 5 5 5 5 5 5 5 5 5 5 5 5 5 5 5 5 5 5 5 5 5 5 5 5 5 5 5 5 5 5 5 5 5 5 5 5 5 5 5 5 5 5 5 5 5 5 5 5 5 5 5 5 5 5 5 5 5 5 5 5 5 5 5 5 5 5 5 5 5 5 5 5 5 5 5 5 5 5 5 5 5 5 5 5 5 5 5 5 5 5 5 5 5 5 5 5 5 5 5 5 5 5 5 5 5 5 5 5 5 5 5 5 5 5 5 5 5 5 5 5 5 5 5 5 5 5 5 5 5 5 5 5 5 5 5 5 5 5 5 5 5 5 5 5 5 5 5 5 5 5 5 5 5 5 5 5 5 5 5 5 5 5 5 5 5 5 5 5 5 5 5 5 5 5 5 5 5 5 5 5 5 5 5 5 5 5 5 5 5 5 5 5 5 5 5 5 5 5 5 5 5 5 5 5 5 5 5 5 5 5 5 5 5 5 5 5 5 5 5 5 5 5 5 5 5 5 5 5 5 5 5 5 5 5 5 5 5 5 5 5 5 5 5 5 5 5 5 5 5 5 5 5 5 5 5 5 5 5 5 5 5 5 5 5 5 5 5 5 5 5 5 5 5 5 5 5 5 5 5 5 5 5 5 5 5 5 5 5 5 5 5 5 5 5 5 5 5 5 5 5 5 5 5 5 5 5 5 5 5 5 5 5 5 5 5 5 5 5 5 5 5 5 5 5 5 5 5 5 5 5 5 5 5 5 5 5 5 5 5 5 5 5 5 5 5 5 5 5 5 5 5 5 5 5 5 5 5 5 5 5 5 5 5 5 5 5 5 5 5 5 5 5 5 5 5 5 5 5 5 5 5 5 5 5 5 5 5 5 5 5 5 5 5 5 5 5 5 5 5 5 5 5 5 5 5 5 5 5 5 5 5 5 5 5 5 5 5 5 5 5 5 5 5 5 5 5 5 5 5 5 5 5 5 5 5 5 5 5 5 5 5 5 5 5 5 5 5 5 5 5 5 5 5 5 5 5 5 5 5 5 5 5 5 5 5 5 5 5 5 5 5 5 5 5 5 5 5 5 5 5 5 5 5 5 5 5 5 5 5 5 5 5 5 5 5 5 5 5 5 5 5 5 5 5 5 5 5 5 5 5 5 5 5 5 5 5 5 5 5 5 5 5 5 5 5 5 5 5 5 5 5 5 5 5 5 5 5 5 5 5 5 5 5 5 5 5 5 5 5 5 5 5 5 5 5 5 5 5 5 5 5 5 5 5 5 5 5 5 5 5 5 5 5 5 5 5 5 5 5 5 5 5 5 5 5 5 5 5 5 5 5 5 5 5 5 5 5 5 5 5 5 5 5 5 5 5 5 5 5 5 5 5 5 5 5 5 5 5 5 5 5 5 5 5 5 5 5 5 5 5 5 5 5 5 5 5 5 5 5 5 5 5 5 5 5 5 5 5 5 5 5 5 5 5 5 5 5 5 5 5 5 5 5 5 5 5 5 5 5 5 5 5 5 5 5 5 5 5 5 5 5 5 5 5 5 5 5 5 5 5 5 5 5 5 5 5 5 5 5 5 5 5 5 5 5 5 5 5 5 5 5 5 5 5 5 5 5 5 5 5 5 5 5 5 5 5 5 5 5 5 5 5 5 5 5 5 5 5 5 5 5 5 5 5 5 5 5 5 5 5 5 5 5 5 5 5 5 5 5 5 5 5 5 5 5 5 5 5 5 5 5 5 5 5 5 5 5 5 5 5 5 5 5 5 5 5 5 5 5 5 5 5 5 5 5 5 5 5 5 5 5 5 5 5 5 5 5 5 5 5 5 5 5 5 5 5 5 5 5 5 5 5 5 5 5 5 5 5 5 5 5 5 5 5 5 5 5 5 5 5 5 5 5 5 5 5 5 5 5 5 5 5 5 5 5 5 5 5 5 5 5 5 5 5 5 5 5 5 5 5 5 5 5 5 5 5 5 5 5 5 5 5 5 5 5 5 5 5 5 5 5 5 5 5 5 5 5 5 5 5 5 5 5 5 5 5 5 5 5 5 5 5 5 5 5 5 5 5 5 5 5 5 5 5 5 5 5 5 5 5 5 5 5 5 5 5 5 5 5 5 5 5 5 5 5 5 5 5 5 5 5 5 5 5 5 5 5 5 5 5 5 5 5 5 5 5 5 5 5 5 5 5 5 5 5 5 5 5 5 5 5 5 5 5 5 5 5 5 5 5 5 5 5 5 5 5 5 5 5 5 5 5 5 5 5 5 5 5 5 5 5 5 5 5 5 5 5 5 5 5 5 5 5 5 5 5 5 5 5 5 5 5 5 5 5 5 5 5 5 5 5 5 5 5 5 5 5 5 5 5 5 5 5 5 5 5 5 5 5 5 5 5 5 5 5 5 5 5 5 5 5 5 5 5 5 5 5 5 5 5 5 5 5 5 5 5 5 5 5 5 5 5 5 5 5 5 5 5 5 5 5 5 5 5 5 5 5 5 5 5 5 5 5 5 5 5 5 5 5 5 5 5 5 5 5 5 5 5 5 5 5 5 5 5 5 5 5 5 5 5 5 5 5 5 5 5 5 5 5 5 5 5 5 5 5 5 5 5 5 5 5 5 5 5 5 5 5 5 5 5 5 5 5 5 5 5 5 5 5 5 5 5 5 5 5 5 5 5 5 5 5 5 5 5 5 5 5 5 5 5 5 5 5 5 5 5 5 5 5 5 5 5 5 5 5 5 5 5 5 5 5 5 5 5 5 5 5 5 5 5 5 5 5 5 5 5 5 5 5 5 5 5 5 5 5 5 5 5 5 5 5 5 5 5 5 5 5 5 5 5 5 5 5 5 5 5 5 5 5 5 5 5 5 5 5 5 5 5 5 5 5 5 5 5 5 5 5 5 5 5 5 5 5 5 5 5 5 5 5 5 5 5 5 5 5 5 5 5 5 5 5 5 5 5 5 5 5 5 5 5 5 5 5 5 5 5 5 5 5 5 5 5 5 5 5 5 5 5 5 5 5 5 5 5 5 5 5 5 5 5 5 5 5 5 5 5 5 5 5 5 5 5 5 5 5 5 5 5 5 5 5 5 5 5 5 5 5 5 5 5 5 5 5 5 5 5 5 5 5 5 5 5 5 5 5 5 5 5 5 5 5 5 5 5 5 5 5 5 5 5 5 5 5 5 5 5 5 5 5 5 5 5 5 5 5 5 5 5 5 5 5 5 5 5 5 5 5 5 5 5 5 5 5 5 5 5 5 5 5 5 5 5 5 5 5 5 5 5 5 5 5 5 5 5 5 5 5 5 5 5 5 5 5 5 5 5 5 5 5 5 5 5 5 5 5 5 5 5 5 5 5 5 5 5 5 5 5 5 5 5 5 5 5 5 5 5 5 5 5 5 5 5 5 5 5 5 5 5 5 5 5 5 5 5 5 5 5 5 5 5 5 5 5 5 5 5 5 5 5 5 5 5 5 5 5 5 5 5 5 5 5 5 5 5 5 5 5 5 5 5 5 5 5 5 5 5 5 5 5 5 5 5 5 5 5 5 5 5 5 5 5 5 5 5 5 5 5 5 5 5 5 5 5 5 5 5 5 5 5 5 5 5 5 5 5 5 5 5 5 5 5 5 5 5 5 5 5 5 5 5 5 5 5 5 5 5 5 5 5 5 5 5 5 5 5 5 5 5 5 5 5 5 5 5 5 5 5 5 5 5 5 5 5 5 5 5 5 5 5 5 5 5 5 5 5 5 5 5 5 5 5 5 5 5 5 5 5 5 5 5 5 5 5 5 5 5 5 5 5 5 5 5 5 5 5 5 5 5 5 5 5 5 5 5 5 5 5 5 5 5 5 5 5 5 5 5 5 5 5 5 5 5 5 5 5 5 5 5 5 5 5 5 5 5 5 5 5 5 5 5 5 5 5 5 5 5 5 5 5 5 5 5 5 5 5 5 5 5 5 5 5 5 5 5 5 5 5 5 5 5 5 5 5 5 5 5 5 5 5 5 5 5 5 5 5 5 5 5 5 5 5 5 5 5 5 5 5 5 5 5 5 5 5 5 5 5 5 5 5 5 5 5 5 5 5 5 5 5 5 5 5 5 5 5 5 5 5 5 5 5 5 5 5 5 5 5 5 5 5 5 5 5 5 5 5 5 5 5 5 5 5 5 5 5 5 5 5 5 5 5 5 5 5 5 5 5 5 5 5 5 5 5 5 5 5 5 5 5 5 5 5 5 5 5 5 5 5 5 5 5 5 5 5 5 5 5 5 5 5 5 5 5 5 5 5 5 5 5 5 5 5 5 5 5 5 5 5 5 5 5 5 5 5 5 5 5 5 5 5 5 5 5 5 5 5 5 5 5 5 5 5 5 5 5 5 5 5 5 5 5 5 5 5 5 5 5 5 5 5 5 5 5 5 5 5 5 5 5 5 5 5 5 5 5 5 5 5 5 5 5 5 5 5 5 5 5 5 5 5 5 5 5 5 5 5 5 5 5 5 5 5 5 5 5 5 5 5 5 5 5 5 5 5 5 5 5 5 5 5 5 5 5 5 5 5 5 5 5 5 5 5 5 5 5 5 5 5 5 5 5 5 5 5 5 5 5 5 5 5 5 5 5 5 5 5 5 5 5 5 5 5 5 5 5 5 5 5 5 5 5 5 5 5 5 5 5 5 5 5 5 5 5 5 5 5 5 5 5 5 5 5 5 5 5 5 5 5 5 5 5 5 5 5 5 5 5 5 5 5 5 5 5 5 5 5 5 5 5 5 5 5 5 5 5 5 5 5 5 5 5 5 5 5 5 5 5 5 5 5 5 5 5 5 5 5 5 5 5 5 5 5 5 5 5 5 5 5 5 5 5 5 5 5 5 5 5 5 5 5 5 5 5 5 5 5 5 5 5 5 5 5 5 5 5 5 5 5 5 5 5 5 5 5 5 5 5 5 5 5 5 5 5 5 5 5 5 5 5 5 5 5 5 5 5 5 5 5 5 5 5 5 5 5 5 5 5 5 5 5 5 5 5 5 5 5 5 5 5 5 5 5 5 5 5 5 5 5 5 5 5 5 5 5 5 5 5 5 5 5 5 5 5 5 5 5 5 5 5 5 5 5 5 5 5 5 5 5 5 5 5 5 5 5 5 5 5 5 5 5 5 5 5 5 5 5 5 5 5 5 5 5 5 5 5 5 5 5 5 5 5 5 5 5 5 5 5 5 5 5 5 5 5 5 5 5 5 5 5 5 5 5 5 5 5 5 5 5 5 5 5 5 5 5 5 5 5 5 5 5 5 5 5 5 5 5 5 5 5 5 5 5 5 5 5 5 5 5 5 5 5 5 5 5 5 5 5 5 5 5 5 5 5 5 5 5 5 5 5 5 5 5 5 5 5 5 5 5 5 5 5 5 5 5 5 5 5 5 5 5 5 5 5 5 5 5 5 5 5 5 5 5 5 5 5 5 5 5 5 5 5 5 5 5 5 5 5 5 5 5 5 5 5 5 5 5 5 5 5 5 5 5 5 5 5 5 5 5 5 5 5 5 5 5 5 5 5 5 5 5 5 5 5 5 5 5 5 5 5 5 5 5 5 5 5 5 5 5 5 5 5 5 5 5 5 5 5 5 5 5 5 5 5 5 5 5 5 5 5 5 5 5 5 5 5 5 5 5 5 5 5 5 5 5 5 5 5 5 5 5 5 5 5 5 5 5 5 5 5 5 5 5 5 5 5 5 5 5 5 5 5 5 5 5 5 5 5 5 5 5 5 5 5 5 5 5 5 5 5 5 5 5 5 5 5 5 5 5 5 5 5 5 5 5 5 5 5 5 5 5 5 5 5 5 5 5 5 5 5 5 5 5 5 5 5 5 5 5 5 5 5 5 5 5 5 5 5 5 5 5 5 5 5 5 5 5 5 5 5 5 5 5 5 5 5 5 5 5 5 5 5 5 5 5 5 5 5 5 5 5 5 5 5 5 5 5 5 5 5 5 5 5 5 5 5 5 5 5 5 5 5 5 5 5 5 5 5 5 5 5 5 5 5 5 5 5 5 5 5 5 5 5 5 5 5 5 5 5 5 5 5 5 5 5 5 5 5 5 5 5 5 5 5 5 5 5 5 5 5 5 5 5 5 5 5 5 5 5 5 5 5 5 5 5 5 5 5 5 5 5 5 5 5 5 5 5 5 5 5 5 5 5 5 5 5 5 5 5 5 5 5 5 5 5 5 5 5 5 5 5 5 5 5 5 5 5 5 5 5 5 5 5 5 5 5 5 5 5 5 5 5 5 5 5 5 5 5 5 5 5 5 5 5 5 5 5 5 5 5 5 5 5 5 5 5 5 5 5 5 5 5 5 5 5 5 5 5 5 5 5 5 5 5 5 5 5 5 5 5 5 5 5 5 5 5 5 5 5 5 5 5 5 5 5 5 5 5 5 5 5 5 5 5 5 5 5 5 5 5 5 5 5 5 5 5 5 5 5 5 5 5 5 5 5 5 5 5 5 5 5 5 5 5 5 5 5 5 5 5 5 5 5 5 5 5 5 5 5 5 5 5 5 5 5 5 5 5 5 5 5 5 5 5 5 5 5 5 5 5 5 5 5 5 5 5 5 5 5 5 5 5 5 5 5 5 5 5 5 5 5 5 5 5 5 5 5 5 5 5 5 5 5 5 5 5 5 5 5 5 5 5 5 5 5 5 5 5 5 5 5 5 5 5 5 5 5 5 5 5 5 5 5 5 5 5 5 5 5 5 5 5 5 5 5 5 5 5 5 5 5 5 5 5 5 5 5 5 5 5 5 5 5 5 5 5 5 5 5 5 5 5 5 5 5 5 5 5 5 5 5 5 5 5 5 5 5 5 5 5 5 5 5 5 5 5 5 5 5 5 5 5 5 5 5 5 5 5 5 5 5 5 5 5 5 5 5 5 5 5 5 5 5 5 5 5 5 5 5 5 5 5 5 5 5 5 5 5 5 5 5 5 5 5 5 5 5 5 5 5 5 5 5 5 5 5 5 5 5 5 5 5 5 5 5 5 5 5 5 5 5 5 5 5 5 5 5 5 5 5 5 5 5 5 5 5 5 5 5 5 5 5 5 5 5 5 5 5 5 5 5 5 5 5 5 5 5 5 5 5 5 5 5 5 5 5 5 5 5 5 5 5 5 5 5 5 5 5 5 5 5 5 5 5 5 5 5 5 5 5 5 5 5 5 5 5 5 5 5 5 5 5 5 5 5 5 5 5 5 5 5 5 5 5 5 5 5 5 5 5 5 5 5 5 5 5 5 5 5 5 5 5 5 5 5 5 5 5 5 5 5 5 5 5 5 5 5 5 5 5 5 5 5 5 5 5 5 5 5 5 5 5 5 5 5 5 5 5 5 5 5 5 5 5 5 5 5 5 5 5 5 5 5 5 5 5 5 5 5 5 5 5 5 5 5 5 5 5 5 5 5 5 5 5 5 5 5 5 5 5 5 5 5 5 5 5 5 5 5 5 5 5 5 5 5 5 5 5 5 5 5 5 5 5 5 5 5 5 5 5 5 5 5 5 5 5 5 5 5 5 5 5 5 5 5 5 5 5 5 5 5 5 5 5 5 5 5 5 5 5 5 5 5 5 5 5 5 5 5 5 5 5 5 5 5 5 5 5 5 5 5 5 5 5 5 5 5 5 5 5 5 5 5 5 5 5 5 5 5 5 5 5 5 5 5 5 5 5 5 5 5 5 5 5 5 5 5 5 5 5 5 5 5 5 5 5 5 5 5 5 5 5 5 5 5 5 5 5 5 5 5 5 5 5 5 5 5 5 5 5 5 5 5 5 5 5 5 5 5 5 5 5 5 5 5 5 5 5 5 5 5 5 5 5 5 5 5 5 5 5 5 5 5 5 5 5 5 5 5 5 5 5 5 5 5 5 5 5 5 5 5 5 5 5 5 5 5 5 5 5 5 5 5 5 5 5 5 5 5 5 5 5 5 5 5 5 5 5 5 5 5 5 5 5 5 5 5 5 5 5 5 5 5 5 5 5 5 5 5 5 5 5 5 5 5 5 5 5 5 5 5 5 5 5 5 5 5 5 5 5 5 5 5 5 5 5 5 5 5 5 5 5 5 5 5 5 5 5 5 5 5 5 5 5 5 5 5 5 5 5 5 5 5 5 5 5 5 5 5 5 5 5 5 5 5 5 5 5 5 5 5 5 5 5 5 5 5 5 5 5 5 5 5 5 5 5 5 5 5 5 5 5 5 5 5 5 5 5 5 5 5 5 5 5 5 5 5 5 5 5 5 5 5 5 5 5 5 5 5 5 5 5 5 5 5 5 5 5 5 5 5 5 5 5 5 5 5 5 5 5 5 5 5 5 5 5 5 5 5 5 5 5 5 5 5 5 5 5 5 5 5 5 5 5 5 5 5 5 5 5 5 5 5 5 5 5 5 5 5 5 5 5 5 5 5 5 5 5 5 5 5 5 5 5 5 5 5 5 5 5 5 5 5 5 5 5 5 5 5 5 5 5 5 5 5 5 5 5 5 5 5 5 5 5 5 5 5 5 5 5 5 5 5 5 5 5 5 5 5 5 5 5 5 5 5 5 5 5 5 5 5 5 5 5 5 5 5 5 5 5 5 5 5 5 5 5 5 5 5 5 5 5 5 5 5 5 5 5 5 5 5 5 5 5 5 5 5 5 5 5 5 5 5 5 5 5 5 5 5 5 5 5 5 5 5 5 5 5 5 5 5 5 5 5 5 5 5 5 5 5 5 5 5 5 5 5 5 5 5 5 5 5 5 5 5 5 5 5 5 5 5 5 5 5 5 5 5 5 5 5 5 5 5 5 5 5 5 5 5 5 5 5 5 5 5 5 5 5 5 5 5 5 5 5 5 5 5 5 5 5 5 5 5 5 5 5 5 5 5 5 5 5 5 5 5 5 5 5 5 5 5 5 5 5 5 5 5 5 5 5 5 5 5 5 5 5 5 5 5 5 5 5 5 5 5 5 5 5 5 5 5 5 5 5 5 5 5 5 5 5 5 5 5 5 5 5 5 5 5 5 5 5 5 5 5 5 5 5 5 5 5 5 5 5 5 5 5 5 5 5 5 5 5 5 5 5 5 5 5 5 5 5 5 5 5 5 5 5 5 5 5 5 5 5 5 5 5 5 5 5 5 5 5 5 5 5 5 5 5 5 5 5 5 5 5 5 5 5 5 5 5 5 5 5 5 5 5 5 5 5 5 5 5 5 5 5 5 5 5 5 5 5 5 5 5 5 5 5 5 5 5 5 5 5 5 5 5 5 5 5 5 5 5 5 5 5 5 5 5 5 5 5 5 5 5 5 5 5 5 5 5 5 5 5 5 5 5 5 5 5 5 5 5 5 5 5 5 5 5 5 5 5 5 5 5 5 5 5 5 5 5 5 5 5 5 5 5 5 5 5 5 5 5 5 5 5 5 5 5 5 5 5 5 5 5 5 5 5 5 5 5 5 5 5 5 5 5 5 5 5 5 5 5 5 5 5 5 5 5 5 5 5 5 5 5 5 5 5 5 5 5 5 5 5 5 5 5 5 5 5 5 5 5 5 5 5 5 5 5 5 5 5 5 5 5 5 5 5 5 5 5 5 5 5 5 5 5 5 5 5 5 5 5 5 5 5 5 5 5 5 5 5 5 5 5 5 5 5 5 5 5 5 5 5 5 5 5 5 5 5 5 5 5 5 5 5 5 5 5 5 5 5 5 5 5 5 5 5 5 5 5 5 5 5 5 5 5 5 5 5 5 5 5 5 5 5 5 5 5 5 5 5 5 5 5 5 5 5 5 5 5 5 5 5 5 5 5 5 5 5 5 5 5 5 5 5 5 5 5 5 5 5 5 5 5 5 5 5 5 5 5 5 5 5 5 5 5 5 5 5 5 5 5 5 5 5 5 5 5 5 5 5 5 5 5 5 5 5 5 5 5 5 5 5 5 5 5 5 5 5 5 5 5 5 5 5 5 5 5 5 5 5 5 5 5 5 5 5 5 5 5 5 5 5 5 5 5 5 5 5 5 5 5 5 5 5 5 5 5 5 5 5 5 5 5 5 5 5 5 5 5 5 5 5 5 5 5 5 5 5 5 5 5 5 5 5 5 5 5 5 5 5 5 5 5 5 5 5 5 5 5 5 5 5 5 5 5 5 5 5 5 5 5 5 5 5 5 5 5 5 5 5 5 5 5 5 5 5 5 5 5 5 5 5 5 5 5 5 5 5 5 5 5 5 5 5 5 5 5 5 5 5 5 5 5 5 5 5 5 5 5 5 5 5 5 5 5 5 5 5 5 5 5 5 5 5 5 5 5 5 5 5 5 5 5 5 5 5 5 5 5 5 5 5 5 5 5 5 5 5 5 5 5 5 5 5 5 5 5 5 5 5 5 5 5 5 5 5 5 5 5 5 5 5 5 5 5 5 5 5 5 5 5 5 5 5 5 5 5 5 5 5 5 5 5 5 5 5 5 5 5 5 5 5 5 5 5 5 5 5 5 5 5 5 5 5 5 5 5 5 5 5 5 5 5 5 5 5 5 5 5 5 5 5 5 5 5 5 5 5 5 5 5 5 5 5 5 5 5 5 5 5 5 5 5 5 5 5 5 5 5 5 5 5 5 5 5 5 5 5 5 5 5 5 5 5 5 5 5 5 5 5 5 5 5 5 5 5 5 5 5 5 5 5 5 5 5 5 5 5 5 5 5 5 5 5 5 5 5 5 5 5 5 5 5 5 5 5 5 5 5 5 5 5 5 5 5 5 5 5 5 5 5 5 5 5 5 5 5 5 5 5 5 5 5 5 5 5 5 5 5 5 5 5 5 5 5 5 5 5 5 5 5 5 5 5 5 5 5 5 5 5 5 5 5 5 5 5 5 5 5 5 5 5 5 5 5 5 5 5 5 5 5 5 5 5 5 5 5 5 5 5 5 5 5 5 5 5 5 5 5 5 5 5 5 5 5 5 5 5 5 5 5 5 5 5 5 5 5 5 5 5 5 5 5 5 5 5 5 5 5 5 5 5 5 5 5 5 5 5 5 5 5 5 5 5 5 5 5 5 5 5 5 5 5 5 5 5 5 5 5 5 5 5 5 5 5 5 5 5 5 5 5 5 5 5 5 5 5 5 5 5 5 5 5 5 5 5 5 5 5 5 5 5 5 5 5 5 5 5 5 5 5 5 5 5 5 5 5 5 5 5 5 5 5 5 5 5 5 5 5 5 5 5 5 5 5 5 5 5 5 5 5 5 5 5 5 5 5 5 5 5 5 5 5 5 5 5 5 5 5 5 5 5 5 5 5 5 5 5 5 5 5 5 5 5 5 5 5 5 5 5 5 5 5 5 5 5 5 5 5 5 5 5 5 5 5 5 5 5 5 5 5 5 5 5 5 5 5 5 5 5 5 5 5 5 5 5 5 5 5 5 5 5 5 5 5 5 5 5 5 5 5 5 5 5 5 5 5 5 5 5 5 5 5 5 5 5 5 5 5 5 5 5 5 5 5 5 5 5 5 5 5 5 5 5 5 5 5 5 5 5 5 5 5 5 5 5 5 5 5 5 5 5 5 5 5 5 5 5 5 5 5 5 5 5 5 5 5 5 5 5 5 5 5 5 5 5 5 5 5 5 5 5 5 5 5 5 5 5 5 5 5 5 5 5 5 5 5 5 5 5 5 5 5 5 5 5 5 5 5 5 5 5 5 5 5 5 5 5 5 5 5 5 5 5 5 5 5 5 5 5 5 5 5 5 5 5 5 5 5 5 5 5 5 5 5 5 5 5 5 5 5 5 5 5 5 5 5 5 5 5 5 5 5 5 5 5 5 5 5 5 5 5 5 5 5 5 5 5 5 5 5 5 5 5 5 5 5 5 5 5 5 5 5 5 5 5 5 5 5 5 5 5 5 5 5 5 5 5 5 5 5 5 5 5 5 5 5 5 5 5 5 5 5 5 5 5 5 5 5 5 5 5 5 5 5 5 5 5 5 5 5 5 5 5 5 5 5 5 5 5 5 5 5 5 5 5 5 5 5 5 5 5 5 5 5 5 5 5 5 5 5 5 5 5 5 5 5 5 5 5 5 5 5 5 5 5 5 5 5 5 5 5 5 5 5 5 5 5 5 5 5 5 5 5 5 5 5 5 5 5 5 5 5 5 5 5 5 5 5 5 5 5 5 5 5 5 5 5 5 5 5 5 5 5 5 5 5 5 5 5 5 5 5 5 5 5 5 5 5 5 5 5 5 5 5 5 5 5 5 5 5 5 5 5 5 5 5 5 5 5 5 5 5 5 5 5 5 5 5 5 5 5 5 5 5 5 5 5 5 5 5 5 5 5 5 5 5 5 5 5 5 5 5 5 5 5 5 5 5 5 5 5 5 5 5 5 5 5 5 5 5 5 5 5 5 5 5 5 5 5 5 5 5 5 5 5 5 5 5 5 5 5 5 5 5 5 5 5 5 5 5 5 5 5 5 5 5 5 5 5 5 5 5 5 5 5 5 5 5 5 5 5 5 5 5 5 5 5 5 5 5 5 5 5 5 5 5 5 5 5 5 5 5 5 5 5 5 5 5 5 5 5 5 5 5 5 5 5 5 5 5 5 5 5 5 5 5 5 5 5 5 5 5 5 5 5 5 5 5 5 5 5 5 5 5 5 5 5 5 5 5 5 5 5 5 5 5 5 5 5 5 5 5 5 5 5 5 5 5 5 5 5 5 5 5 5 5 5 5 5 5 5 5 5 5 5 5 5 5 5 5 5 5 5 5 5 5 5 5 5 5 5 5 5 5 5 5 5 5 5 5 5 5 5 5 5 5 5 5 5 5 5 5 5 5 5 5 5 5 5 5 5 5 5 5 5 5 5 5 5 5 5 5 5 5 5 5 5 5 5 5 5 5 5 5 5 5 5 5 5 5 5 5 5 5 5 5 5 5 5 5 5 5 5 5 5 5 5 5 5 5 5 5 5 5 5 5 5 5 5 5 5 5 5 5 5 5 5 5 5 5 5 5 5 5 5 5 5 5 5 5 5 5 5 5 5 5 5 5 5 5 5 5 5 5 5 5 5 5 5 5 5 5 5 5 5 5 5 5 5 5 5 5 5 5 5 5 5 5 5 5 5 5 5 5 5 5 5 5 5 5 5 5 5 5 5 5 5 5 5 5 5 5 5 5 5 5 5 5 5 5 5 5 5 5 5 5 5 5 5 5 5 5 5 5 5 5 5 5 5 5 5 5 5 5 5 5 5 5 5 5 5 5 5 5 5 5 5 5 5 5 5 5 5 5 5 5 5 5 5 5 5 5 5 5 5 5 5 5 5 5 5 5 5 5 5 5 5 5 5 5 5 5 5 5 5 5 5 5 5 5 5 5 5 5 5 5 5 5 5 5 5 5 5 5 5 5 5 5 5 5 5 5 5 5 5 5 5 5 5 5 5 5 5 5 5 5 5 5 5 5 5 5 5 5 5 5 5 5 5 5 5 5 5 5 5 5 5 5 5 5 5 5 5 5 5 5 5 5 5 5 5 5 5 5 5 5 5 5 5 5 5 5 5 5 5 5 5 5 5 5 5 5 5 5 5 5 5 5 5 5 5 5 5 5 5 5 5 5 5 5 5 5 5 5 5 5 5 5 5 5 5 5 5 5 5 5 5 5 5 5 5 5 5 5 5 5 5 5 5 5 5 5 5 5 5 5 5 5 5 5 5 5 5 5 5 5 5 5 5 5 5 5 5 5 5 5 5 5 5 5 5 5 5 5 5 5 5 5 5 5 5 5 5 5 5 5 5 5 5 5 5 5 5 5 5 5 5 5 5 5 5 5 5 5 5 5 5 5 5 5 5 5 5 5 5 5 5 5 5 5 5 5 5 5 5 5 5 5 5 5 5 5 5 5 5 5 5 5 5 5 5 5 5 5 5 5 5 5 5 5 5 5 5 5 5 5 5 5 5 5 5 5 5 5 5 5 5 5 5 5 5 5 5 5 5 5 5 5 5 5 5 5 5 5 5 5 5 5 5 5 5 5 5 5 5 5 5 5 5 5 5 5 5 5 5 5 5 5 5 5 5 5 5 5 5 5 5 5 5 5 5 5 5 5 5 5 5 5 5 5 5 5 5 5 5 5 5 5 5 5 5 5 5 5 5 5 5 5 5 5 5 5 5 5 5 5 5 5 5 5 5 5 5 5 5 5 5 5 5 5 5 5 5 5 5 5 5 5 5 5 5 5 5 5 5 5 5 5 5 5 5 5 5 5 5 5 5 5 5 5 5 5 5 5 5 5 5 5 5 5 5 5 5 5 5 5 5 5 5 5 5 5 5 5 5 5 5 5 5 5 5 5 5 5 5 5 5 5 5 5 5 5 5 5 5 5 5 5 5 5 5 5 5 5 5 5 5 5 5 5 5 5 5 5 5 5 5 5 5 5 5 5 5 5 5 5 5 5 5 5 5 5 5 5 5 5 5 5 5 5 5 5 5 5 5 5 5 5 5 5 5 5 5 5 5 5 5 5 5 5 5 5 5 5 5 5 5 5 5 5 5 5 5 5 5 5 5 5 5 5 5 5 5 5 5 5 5 5 5 5 5 5 5 5 5 5 5 5 5 5 5 5 5 5 5 5 5 5 5 5 5 5 5 5 5 5 5 5 5 5 5 5 5 5 5 5 5 5 5 5 5 5 5 5 5 5 5 5 5 5 5 5 5 5 5 5 5 5 5 5 5 5 5 5 5 5 5 5 5 5 5 5 5 5 5 5 5 5 5 5 5 5 5 5 5 5 5 5 5 5 5 5 5 5 5 5 5 5 5 5 5 5 5 5 5 5 5 5 5 5 5 5 5 5 5 5 5 5 5 5 5 5 5 5 5 5 5 5 5 5 5 5 5 5 5 5 5 5 5 5 5 5 5 5 5 5 5 5 5 5 5 5 5 5 5 5 5 5 5 5 5 5 5 5 5 5 5 5 5 5 5 5 5 5 5 5 5 5 5 5 5 5 5 5 5 5 5 5 5 5 5 5 5 5 5 5 5 5 5 5 5 5 5 5 5 5 5 5 5 5 5 5 5 5 5 5 5 5 5 5 5 5 5 5 5 5 5 5 5 5 5 5 5 5 5 5 5 5 5 5 5 5 5 5 5 5 5 5 5 5 5 5 5 5 5 5 5 5 5 5 5 5 5 5 5 5 5 5 5 5 5 5 5 5 5 5 5 5 5 5 5 5 5 5 5 5 5 5 5 5 5 5 5 5 5 5 5 5 5 5 5 5 5 5 5 5 5 5 5 5 5 5 5 5 5 5 5 5 5 5 5 5 5 5 5 5 5 5 5 5 5 5 5 5 5 5 5 5 5 5 5 5 5 5 5 5 5 5 5 5 5 5 5 5 5 5 5 5 5 5 5 5 5 5 5 5 5 5 5 5 5 5 5 5 5 5 5 5 5 5 5 5 5 5 5 5 5 5 5 5 5 5 5 5 5 5 5 5 5 5 5 5 5 5 5 5 5 5 5 5 5 5 5 5 5 5 5 5 5 5 5 5 5 5 5 5 5 5 5 5 5 5 5 5 5 5 5 5 5 5 5 5 5 5 5 5 5 5 5 5 5 5 5 5 5 5 5 5 5 5 5 5 5 5 5 5 5 5 5 5 5 5 5 5 5 5 5 5 5 5 5 5 5 5 5 5 5 5 5 5 5 5 5 5 5 5 5 5 5 5 5 5 5 5 5 5 5 5 5 5 5 5 5 5 5 5 5 5 5 5 5 5 5 5 5 5 5 5 5 5 5 5 5 5 5 5 5 5 5 5 5 5 5 5 5 5 5 5 5 5 5 5 5 5 5 5 5 5 5 5 5 5 5 5 5 5 5 5 5 5 5 5 5 5 5 5 5 5 5 5 5 5 5 5 5 5 5 5 5 5 5 5 5 5 5 5 5 5 5 5 5 5 5 5 5 5 5 5 5 5 5 5 5 5 5 5 5 5 5 5 5 5 5 5 5 5 5 5 5 5 5 5 5 5 5 5 5 5 5 5 5 5 5 5 5 5 5 5 5 5 5 5 5 5 5 5 5 5 5 5 5 5 5 5 5 5 5 5 5 5 5 5 5 5 5 5 5 5 5 5 5 5 5 5 5 5 5 5 5 5 5 5 5 5 5 5 5 5 5 5 5 5 5 5 5 5 5 5 5 5 5 5 5 5 5 5 5 5 5 5 5 5 5 5 5 5 5 5 5 5 5 5 5 5 5 5 5 5 5 5 5 5 5 5 5 5 5 5 5 5 5 5 5 5 5 5 5 5 5 5 5 5 5 5 5 5 5 5 5 5 5 5 5 5 5 5 5 5 5 5 5 5 5 5 5 5 5 5 5 5 5 5 5 5 5 5 5 5 5 5 5 5 5 5 5 5 5 5 5 5 5 5 5 5 5 5 5 5 5 5 5 5 5 5 5 5 5 5 5 5 5 5 5 5 5 5 5 5 5 5 5 5 5 5 5 5 5 5 5 5 5 5 5 5 5 5 5 5 5 5 5 5 5 5 5 5 5 5 5 5 5 5 5 5 5 5 5 5 5 5 5 5 5 5 5 5 5 5 5 5 5 5 5 5 5 5 5 5 5 5 5 5 5 5 5 5 5 5 5 5 5 5 5 5 5 5 5 5 5 5 5 5 5 5 5 5 5 5 5 5 5 5 5 5 5 5 5 5 5 5 5 5 5 5 5 5 5 5 5 5 5 5 5 5 5 5 5 5 5 5 5 5 5 5 5 5 5 5 5 5 5 5 5 5 5 5 5 5 5 5 5 5 5 5 5 5 5 5 5 5 5 5 5 5 5 5 5 5 5 5 5 5 5 5 5 5 5 5 5 5 5 5 5 5 5 5 5 5 5 5 5 5 5 5 5 5 5 5 5 5 5 5 5 5 5 5 5 5 5 5 5 5 5 5 5 5 5 5 5 5 5 5 5 5 5 5 5 5 5 5 5 5 5 5 5 5 5 5 5 5 5 5 5 5 5 5 5 5 5 5 5 5 5 5 5 5 5 5 5 5 5 5 5 5 5 5 5 5 5 5 5 5 5 5 5 5 5 5 5 5 5 5 5 5 5 5 5 5 5 5 5 5 5 5 5 5 5 5 5 5 5 5 5 5 5 5 5 5 5 5 5 5 5 5 5 5 5 5 5 5 5 5 5 5 5 5 5 5 5 5 5 5 5 5 5 5 5 5 5 5 5 5 5 5 5 5 5 5 5 5 5 5 5 5 5 5 5 5 5 5 5 5 5 5 5 5 5 5 5 5 5 5 5 5 5 5 5 5 5 5 5 5 5 5 5 5 5 5 5 5 5 5 5 5 5 5 5 5 5 5 5 5 5 5 5 5 5 5 5 5 5 5 5 5 5 5 5 5 5 5 5 5 5 5 5 5 5 5 5 5 5 5 5 5 5 5 5 5 5 5 5 5 5 5 5 5 5 5 5 5 5 5 5 5 5 5 5 5 5 5 5 5 5 5 5 5 5 5 5 5 5 5 5 5 5 5 5 5 5 5 5 5 5 5 5 5 5 5 5 5 5 5 5 5 5 5 5 5 5 5 5 5 5 5 5 5 5 5 5 5 5 5 5 5 5 5 5 5 5 5 5 5 5 5 5 5 5 5 5 5 5 5 5 5 5 5 5 5 5 5 5 5 5 5 5 5 5 5 5 5 5 5 5 5 5 5 5 5 5 5 5 5 5 5 5 5 5 5 5 5 5 5 5 5 5 5 5 5 5 5 5 5 5 5 5 5 5 5 5 5 5 5 5 5 5 5 5 5 5 5 5 5 5 5 5 5 5 5 5 5 5 5 5 5 5 5 5 5 5 5 5 5 5 5 5 5 5 5 5 5 5 5 5 5 5 5 5 5 5 5 5 5 5 5 5 5 5 5 5 5 5 5 5 5 5 5 5 5 5 5 5 5 5 5 5 5 5 5 5 5 5 5 5 5 5 5 5 5 5 5 5 5 5 5 5 5 5 5 5 5 5 5 5 5 5 5 5 5 5 5 5 5 5 5 5 5 5 5 5 5 5 5 5 5 5 5 5 5 5 5 5 5 5 5 5 5 5 5 5 5 5 5 5 5 5 5 5 5 5 5 5 5 5 5 5 5 5 5 5 5 5 5 5 5 5 5 5 5 5 5 5 5 5 5 5 5 5 5 5 5 5 5 5 5 5 5 5 5 5 5 5 5 5 5 5 5 5 5 5 5 5 5 5 5 5 5 5 5 5 5 5 5 5 5 5 5 5 5 5 5 5 5 5 5 5 5 5 5 5 5 5 5 5 5 5 5 5 5 5 5 5 5 5 5 5 5 5 5 5 5 5 5 5 5 5 5 5 5 5 5 5 5 5 5 5 5 5 5 5 5 5 5 5 5 5 5 5 5 5 5 5 5 5 5 5 5 5 5 5 5 5 5 5 5 5 5 5 5 5 5 5 5 5 5 5 5 5 5 5 5 5 5 5 5 5 5 5 5 5 5 5 5 5 5 5 5 5 5 5 5 5 5 5 5 5 5 5 5 5 5 5 5 5 5 5 5 5 5 5 5 5 5 5 5 5 5 5 5 5 5 5 5 5 5 5 5 5 5 5 5 5 5 5 5 5 5 5 5 5 5 5 5 5 5 5 5 5 5 5 5 5 5 5 5 5 5 5 5 5 5 5 5 5 5 5 5 5 5 5 5 5 5 5 5 5 5 5 5 5 5 5 5 5 5 5 5 5 5 5 5 5 5 5 5 5 5 5 5 5 5 5 5 5 5 5 5 5 5 5 5 5 5 5 5 5 5 5 5 5 5 5 5 5 5 5 5 5 5 5 5 5 5 5 5 5 5 5 5 5 5 5 5 5 5 5 5 5 5 5 5 5 5 5 5 5 5 5 5 5 5 5 5 5 5 5 5 5 5 5 5 5 5 5 5 5 5 5 5 5 5 5 5 5 5 5 5 5 5 5 5 5 5 5 5 5 5 5 5 5 5 5 5 5 5 5 5 5 5 5 5 5 5 5 5 5 5 5 5 5 5 5 5 5 5 5 5 5 5 5 5 5 5 5 5 5 5 5 5 5 5 5 5 5 5 5 5 5 5 5 5 5 5 5 5 5 5 5 5 5 5 5 5 5 5 5 5 5 5 5 5 5 5 5 5 5 5 5 5 5 5 5 5 5 5 5 5 5 5 5 5 5 5 5 5 5 5 5 5 5 5 5 5 5 5 5 5 5 5 5 5 5 5 5 5 5 5 5 5 5 5 5 5 5 5 5 5 5 5 5 5 5 5 5 5 5 5 5 5 5 5 5 5 5 5 5 5 5 5 5 5 5 5 5 5 5 5 5 5 5 5 5 5 5 5 5 5 5 5 5 5 5 5 5 5 5 5 5 5 5 5 5 5 5 5 5 5 5 5 5 5 5 5 5 5 5 5 5 5 5 5 5 5 5 5 5 5 5 5 5 5 5 5 5 5 5 5 5 5 5 5 5 5 5 5 5 5 5 5 5 5 5 5 5 5 5 5 5 5 5 5 5 5 5 5 5 5 5 5 5 5 5 5 5 5 5 5 5 5 5 5 5 5 5 5 5 5 5 5 5 5 5 5 5 5 5 5 5 5 5 5 5 5 5 5 5 5 5 5 5 5 5 5 5 5 5 5 5 5 5 5 5 5 5 5 5 5 5 5 5 5 5 5 5 5 5 5 5 5 5 5 5 5 5 5 5 5 5 5 5 5 5 5 5 5 5 5 5 5 5 5 5 5 5 5 5 5 5 5 5 5 5 5 5 5 5 5 5 5 5 5 5 5 5 5 5 5 5 5 5 5 5 5 5 5 5 5 5 5 5 5 5 5 5 5 5 5 5 5 5 5 5 5 5 5 5 5 5 5 5 5 5 5 5 5 5 5 5 5 5 5 5 5 5 5 5 5 5 5 5 5 5 5 5 5 5 5 5 5 5 5 5 5 5 5 5 5 5 5 5 5 5 5 5 5 5 5 5 5 5 5 5 5 5 5 5 5 5 5 5 5 5 5 5 5 5 5 5 5 5 5 5 5 5 5 5 5 5 5 5 5 5 5 5 5 5 5 5 5 5 5 5 5 5 5 5 5 5 5 5 5 5 5 5 5 5 5 5 5 5 5 5 5 5 5 5 5 5 5 5 5 5 5 5 5 5 5 5 5 5 5 5 5 5 5 5 5 5 5 5 5 5 5 5 5 5 5 5 5 5 5 5 5 5 5 5 5 5 5 5 5 5 5 5 5 5 5 5 5 5 5 5 5 5 5 5 5 5 5 5 5 5 5 5 5 5 5 5 5 5 5 5 5 5 5 5 5 5 5 5 5 5 5 5 5 5 5 5 5 5 5 5 5 5 5 5 5 5 5 5 5 5 5 5 5 5 5 5 5 5 5 5 5 5 5 5 5 5 5 5 5 5 5 5 5 5 5 5 5 5 5 5 5 5 5 5 5 5 5 5 5 5 5 5 5 5 5 5 5 5 5 5 5 5 5 5 5 5 5 5 5 5 5 5 5 5 5 5 5 5 5 5 5 5 5 5 5 5 5 5 5 5 5 5 5 5 5 5 5 5 5 5 5 5 5 5 5 5 5 5 5 5 5 5 5 5 5 5 5 5 5 5 5 5 5 5 5 5 5 5 5 5 5 5 5 5 5 5 5 5 5 5 5 5 5 5 5 5 5 5 5 5 5 5 5 5 5 5 5 5 5 5 5 5 5 5 5 5 5 5 5 5 5 5 5 5 5 5 5 5 5 5 5 5 5 5 5 5 5 5 5 5 5 5 5 5 5 5 5 5 5 5 5 5 5 5 5 5 5 5 5 5 5 5 5 5 5 5 5 5 5 5 5 5 5 5 5 5 5 5 5 5 5 5 5 5 5 5 5 5 5 5 5 5 5 5 5 5 5 5 5 5 5 5 5 5 5 5 5 5 5 5 5 5 5 5 5 5 5 5 5 5 5 5 5 5 5 5 5 5 5 5 5 5 5 5 5 5 5 5 5 5 5 5 5 5 5 5 5 5 5 5 5 5 5 5 5 5 5 5 5 5 5 5 5 5 5 5 5 5 5 5 5 5 5 5 5 5 5 5 5 5 5 5 5 5 5 5 5 5 5 5 5 5 5 5 5 5 5 5 5 5 5 5 5 5 5 5 5 5 5 5 5 5 5 5 5 5 5 5 5 5 5 5 5 5 5 5 5 5 5 5 5 5 5 5 5 5 5 5 5 5 5 5 5 5 5 5 5 5 5 5 5 5 5 5 5 5 5 5 5 5 5 5 5 5 5 5 5 5 5 5 5 5 5 5 5 5 5 5 5 5 5 5 5 5 5 5 5 5 5 5 5 5 5 5 5 5 5 5 5 5 5 5 5 5 5 5 5 5 5 5 5 5 5 5 5 5 5 5 5 5 5 5 5 5 5 5 5 5 5 5 5 5 5 5 5 5 5 5 5 5 5 5 5 5 5 5 5 5 5 5 5 5 5 5 5 5 5 5 5 5 5 5 5 5 5 5 5 5 5 5 5 5 5 5 5 5 5 5 5 5 5 5 5 5 5 5 5 5 5 5 5 5 5 5 5 5 5 5 5 5 5 5 5 5 5 5 5 5 5 5 5 5 5 5 5 5 5 5 5 5 5 5 5 5 5 5 5 5 5 5 5 5 5 5 5 5 5 5 5 5 5 5 5 5 5 5 5 5 5 5 5 5 5 5 5 5 5 5 5 5 5 5 5 5 5 5 5 5 5 5 5 5 5 5 5 5 5 5 5 5 5 5 5 5 5 5 5 5 5 5 5 5 5 5 5 5 5 5 5 5 5 5 5 5 5 5 5 5 5 5 5 5 5 5 5 5 5 5 5 5 5 5 5 5 5 5 5 5 5 5 5 5 5 5 5 5 5 5 5 5 5 5 5 5 5 5 5 5 5 5 5 5 5 5 5 5 5 5 5 5 5 5 5 5 5 5 5 5 5 5 5 5 5 5 5 5 5 5 5 5 5 5 5 5 5 5 5 5 5 5 5 5 5 5 5 5 5 5 5 5 5 5 5 5 5 5 5 5 5 5 5 5 5 5 5 5 5 5 5 5 5 5 5 5 5 5 5 5 5 5 5 5 5 5 5 5 5 5 5 5 5 5 5 5 5 5 5 5 5 5 5 5 5 5 5 5 5 5 5 5 5 5 5 5 5 5 5 5 5 5 5 5 5 5 5 5 5 5 5 5 5 5 5 5 5 5 5 5 5 5 5 5 5 5 5 5 5 5 5 5 5 5 5 5 5 5 5 5 5 5 5 5 5 5 5 5 5 5 5 5 5 5 5 5 5 5 5 5 5 5 5 5 5 5 5 5 5 5 5 5 5 5 5 5 5 5 5 5 5 5 5 5 5 5 5 5 5 5 5 5 5 5 5 5 5 5 5 5 5 5 5 5 5 5 5 5 5 5 5 5 5 5 5 5 5 5 5 5 5 5 5 5 5 5 5 5 5 5 5 5 5 5 5 5 5 5 5 5 5 5 5 5 5 5 5 5 5 5 5 5 5 5 5 5 5 5 5 5 5 5 5 5 5 5 5 5 5 5 5 5 5 5 5 5 5 5 5 5 5 5 5 5 5 5 5 5 5 5 5 5 5 5 5 5 5 5 5 5 5 5 5 5 5 5 5 5 5 5 5 5 5 5 5 5 5 5 5 5 5 5 5 5 5 5 5 5 5 5 5 5 5 5 5 5 5 5 5 5 5 5 5 5 5 5 5 5 5 5 5 5 5 5 5 5 5 5 5 5 5 5 5 5 5 5 5 5 5 5 5 5 5 5 5 5 5 5 5 5 5 5 5 5 5 5 5 5 5 5 5 5 5 5 5 5 5 5 5 5 5 5 5 5 5 5 5 5 5 5 5 5 5 5 5 5 5 5 5 5 5 5 5 5 5 5 5 5 5 5 5 5 5 5 5 5 5 5 5 5 5 5 5 5 5 5 5 5 5 5 5 5 5 5 5 5 5 5 5 5 5 5 5 5 5 5 5 5 5 5 5 5 5 5 5 5 5 5 5 5 5 5 5 5 5 5 5 5 5 5 5 5 5 5 5 5 5 5 5 5 5 5 5 5 5 5 5 5 5 5 5 5 5 5 5 5 5 5 5 5 5 5 5 5 5 5 5 5 5 5 5 5 5 5 5 5 5 5 5 5 5 5 5 5 5 5 5 5 5 5 5 5 5 5 5 5 5 5 5 5 5 5 5 5 5 5 5 5 5 5 5 5 5 5 5 5 5 5 5 5 5 5 5 5 5 5 5 5 5 5 5 5 5 5 5 5 5 5 5 5 5 5 5 5 5 5 5 5 5 5 5 5 5 5 5 5 5 5 5 5 5 5 5 5 5 5 5 5 5 5 5 5 5 5 5 5 5 5 5 5 5 5 5 5 5 5 5 5 5 5 5 5 5 5 5 5 5 5 5 5 5 5 5 5 5 5 5 5 5 5 5 5 5 5 5 5 5 5 5 5 5 5 5 5 5 5 5 5 5 5 5 5 5 5 5 5 5 5 5 5 5 5 5 5 5 5 5 5 5 5 5 5 5 5 5 5 5 5 5 5 5 5 5 5 5 5 5 5 5 5 5 5 5 5 5 5 5 5 5 5 5 5 5 5 5 5 5 5 5 5 5 5 5 5 5 5 5 5 5 5 5 5 5 5 5 5 5 5 5 5 5 5 5 5 5 5 5 5 5 5 5 5 5 5 5 5 5 5 5 5 5 5 5 5 5 5 5 5 5 5 5 5 5 5 5 5 5 5 5 5 5 5 5 5 5 5 5 5 5 5 5 5 5 5 5 5 5 5 5 5 5 5 5 5 5 5 5 5 5 5 5 5 5 5 5 5 5 5 5 5 5 5 5 5 5 5 5 5 5 5 5 5 5 5 5 5 5 5 5 5 5 5 5 5 5 5 5 5 5 5 5 5 5 5 5 5 5 5 5 5 5 5 5 5 5 5 5 5 5 5 5 5 5 5 5 5 5 5 5 5 5 5 5 5 5 5 5 5 5 5 5 5 5 5 5 5 5 5 5 5 5 5 5 5 5 5 5 5 5 5 5 5 5 5 5 5 5 5 5 5 5 5 5 5 5 5 5 5 5 5 5 5 5 5 5 5 5 5 5 5 5 5 5 5 5 5 5 5 5 5 5 5 5 5 5 5 5 5 5 5 5 5 5 5 5 5 5 5 5 5 5 5 5 5 5 5 5 5 5 5 5 5 5 5 5 5 5 5 5 5 5 5 5 5 5 5 5 5 5 5 5 5 5 5 5 5 5 5 5 5 5 5 5 5 5 5 5 5 5 5 5 5 5 5 5 5 5 5 5 5 5 5 5 5 5 5 5 5 5 5 5 5 5 5 5 5 5 5 5 5 5 5 5 5 5 5 5 5 5 5 5 5 5 5 5 5 5 5 5 5 5 5 5 5 5 5 5 5 5 5 5 5 5 5 5 5 5 5 5 5 5 5 5 5 5 5 5 5 5 5 5 5 5 5 5 5 5 5 5 5 5 5 5 5 5 5 5 5 5 5 5 5 5 5 5 5 5 5 5 5 5 5 5 5 5 5 5 5 5 5 5 5 5 5 5 5 5 5 5 5 5 5 5 5 5 5 5 5 5 5 5 5 5 5 5 5 5 5 5 5 5 5 5 5 5 5 5 5 5 5 5 5 5 5 5 5 5 5 5 5 5 5 5 5 5 5 5 5 5 5 5 5 5 5 5 5 5 5 5 5 5 5 5 5 5 5 5 5 5 5 5 5 5 5 5 5 5 5 5 5 5 5 5 5 5 5 5 5 5 5 5 5 5 5 5 5 5 5 5 5 5 5 5 5 5 5 5 5 5 5 5 5 5 5 5 5 5 5 5 5 5 5 5 5 5 5 5 5 5 5 5 5 5 5 5 5 5 5 5 5 5 5 5 5 5 5 5 5 5 5 5 5 5 5 5 5 5 5 5 5 5 5 5 5 5 5 5 5 5 5 5 5 5 5 5 5 5 5 5 5 5 5 5 5 5 5 5 5 5 5 5 5 5 5 5 5 5 5 5 5 5 5 5 5 5 5 5 5 5 5 5 5 5 5 5 5 5 5 5 5 5 5 5 5 5 5 5 5 5 5 5 5 5 5 5 5 5 5 5 5 5 5 5 5 5 5 5 5 5 5 5 5 5 5 5 5 5 5 5 5 5 5 5 5 5 5 5 5 5 5 5 5 5 5 5 5 5 5 5 5 5 5 5 5 5 5 5 5 5 5 5 5 5 5 5 5 5 5 5 5 5 5 5 5 5 5 5 5 5 5 5 5 5 5 5 5 5 5 5 5 5 5 5 5 5 5 5 5 5 5 5 5 5 5 5 5 5 5 5 5 5 5 5 5 5 5 5 5 5 5 5 5 5 5 5 5 5 5 5 5 5 5 5 5 5 5 5 5 5 5 5 5 5 5 5 5 5 5 5 5 5 5 5 5 5 5 5 5 5 5 5 5 5 5 5 5 5 5 5 5 5 5 5 5 5 5 5 5 5 5 5 5 5 5 5 5 5 5 5 5 5 5 5 5 5 5 5 5 5 5 5 5 5 5 5 5 5 5 5 5 5 5 5 5 5 5 5 5 5 5 5 5 5 5 5 5 5 5 5 5 5 5 5 5 5 5 5 5 5 5 5 5 5 5 5 5 5 5 5 5 5 5 5 5 5 5 5 5 5 5 5 5 5 5 5 5 5 5 5 5 5 5 5 5 5 5 5 5 5 5 5 5 5 5 5 5 5 5 5 5 5 5 5 5 5 5 5 5 5 5 5 5 5 5 5 5 5 5 5 5 5 5 5 5 5 5 5 5 5 5 5 5 5 5 5 5 5 5 5 5 5 5 5 5 5 5 5 5 5 5 5 5 5 5 5 5 5 5 5 5 5 5 5 5 5 5 5 5 5 5 5 5 5 5 5 5 5 5 5 5 5 5 5 5 5 5 5 5 5 5 5 5 5 5 5 5 5 5 5 5 5 5 5 5 5 5 5 5 5 5 5 5 5 5 5 5 5 5 5 5 5 5 5 5 5 5 5 5 5 5 5 5 5 5 5 5 5 5 5 5 5 5 5 5 5 5 5 5 5 5 5 5 5 5 5 5 5 5 5 5 5 5 5 5 5 5 5 5 5 5 5 5 5 5 5 5 5 5 5 5 5 5 5 5 5 5 5 5 5 5 5 5 5 5 5 5 5 5 5 5 5 5 5 5 5 5 5 5 5 5 5 5 5 5 5 5 5 5 5 5 5 5 5 5 5 5 5 5 5 5 5 5 5 5 5 5 5 5 5 5 5 5 5 5 5 5 5 5 5 5 5 5 5 5 5 5 5 5 5 5 5 5 5 5 5 5 5 5 5 5 5 5 5 5 5 5 5 5 5 5 5 5 5 5 5 5 5 5 5 5 5 5 5 5 5 5 5 5 5 5 5 5 5 5 5 5 5 5 5 5 5 5 5 5 5 5 5 5 5 5 5 5 5 5 5 5 5 5 5 5 5 5 5 5 5 5 5 5 5 5 5 5 5 5 5 5 5 5 5 5 5 5 5 5 5 5 5 5 5 5 5 5 5 5 5 5 5 5 5 5 5 5 5 5 5 5 5 5 5 5 5 5 5 5 5 5 5 5 5 5 5 5 5 5 5 5 5 5 5 5 5 5 5 5 5 5 5 5 5 5 5 5 5 5 5 5 5 5 5 5 5 5 5 5 5 5 5 5 5 5 5 5 5 5 5 5 5 5 5 5 5 5 5 5 5 5 5 5 5 5 5 5 5 5 5 5 5 5 5 5 5 5 5 5 5 5 5 5 5 5 5 5 5 5 5 5 5 5 5 5 5 5 5 5 5 5 5 5 5 5 5 5 5 5 5 5 5 5 5 5 5 5 5 5 5 5 5 5 5 5 5 5 5 5 5 5 5 5 5 5 5 5 5 5 5 5 5 5 5 5 5 5 5 5 5 5 5 5 5 5 5 5 5 5 5 5 5 5 5 5 5 5 5 5 5 5 5 5 5 5 5 5 5 5 5 5 5 5 5 5 5 5 5 5 5 5 5 5 5 5 5 5 5 5 5 5 5 5 5 5 5 5 5 5 5 5 5 5 5 5 5 5 5 5 5 5 5 5 5 5 5 5 5 5 5 5 5 5 5 5 5 5 5 5 5 5 5 5 5 5 5 5 5 5 5 5 5 5 5 5 5 5 5 5 5 5 5 5 5 5 5 5 5 5 5 5 5 5 5 5 5 5 5 5 5 5 5 5 5 5 5 5 5 5 5 5 5 5 5 5 5 5 5 5 5 5 5 5 5 5 5 5 5 5 5 5 5 5 5 5 5 5 5 5 5 5 5 5 5 5 5 5 5 5 5 5 5 5 5 5 5 5 5 5 5 5 5 5 5 5 5 5 5 5 5 5 5 5 5 5 5 5 5 5 5 5 5 5 5 5 5 5 5 5 5 5 5 5 5 5 5 5 5 5 5 5 5 5 5 5 5 5 5 5 5 5 5 5 5 5 5 5 5 5 5 5 5 5 5 5 5 5 5 5 5 5 5 5 5 5 5 5 5 5 5 5 5 5 5 5 5 5 5 5 5 5 5 5 5 5 5 5 5 5 5 5 5 5 5 5 5 5 5 5 5 5 5 5 5 5 5 5 5 5 5 5 5 5 5 5 5 5 5 5 5 5 5 5 5 5 5 5 5 5 5 5 5 5 5 5 5 5 5 5 5 5 5 5 5 5 5 5 5 5 5 5 5 5 5 5 5 5 5 5 5 5 5 5 5 5 5 5 5 5 5 5 5 5 5 5 5 5 5 5 5 5 5 5 5 5 5 5 5 5 5 5 5 5 5 5 5 5 5 5 5 5 5 5 5 5 5 5 5 5 5 5 5 5 5 5 5 5 5 5 5 5 5 5 5 5 5 5 5 5 5 5 5 5 5 5 5 5 5 5 5 5 5 5 5 5 5 5 5 5 5 5 5 5 5 5 5 5 5 5 5 5 5 5 5 5 5 5 5 5 5 5 5 5 5 5 5 5 5 5 5 5 5 5 5 5 5 5 5 5 5 5 5 5 5 5 5 5 5 5 5 5 5 5 5 5 5 5 5 5 5 5 5 5 5 5 5 5 5 5 5 5 5 5 5 5 5 5 5 5 5 5 5 5 5 5 5 5 5 5 5 5 5 5 5 5 5 5 5 5 5 5 5 5 5 5 5 5 5 5 5 5 5 5 5 5 5 5 5 5 5 5 5 5 5 5 5 5 5 5 5 5 5 5 5 5 5 5 5 5 5 5 5 5 5 5 5 5 5 5 5 5 5 5 5 5 5 5 5 5 5 5 5 5 5 5 5 5 5 5 5 5 5 5 5 5 5 5 5 5 5 5 5 5 5 5 5 5 5 5 5 5 5 5 5 5 5 5 5 5 5 5 5 5 5 5 5 5 5 5 5 5 5 5 5 5 5 5 5 5 5 5 5 5 5 5 5 5 5 5 5 5 5 5 5 5 5 5 5 5 5 5 5 5 5 5 5 5 5 5 5 5 5 5 5 5 5 5 5 5 5 5 5 5 5 5 5 5 5 5 5 5 5 5 5 5 5 5 5 5 5 5 5 5 5 5 5 5 5 5 5 5 5 5 5 5 5 5 5 5 5 5 5 5 5 5 5 5 5 5 5 5 5 5 5 5 5 5 5 5 5 5 5 5 5 5 5 5 5 5 5 5 5 5 5 5 5 5 5 5 5 5 5 5 5 5 5 5 5 5 5 5 5 5 5 5 5 5 5 5 5 5 5 5 5 5 5 5 5 5 5 5 5 5 5 5 5 5 5 5 5 5 5 5 5 5 5 5 5 5 5 5 5 5 5 5 5 5 5 5 5 5 5 5 5 5 5 5 5 5 5 5 5 5 5 5 5 5 5 5 5 5 5 5 5 5 5 5 5 5 5 5 5 5 5 5 5 5 5 5 5 5 5 5 5 5 5 5 5 5 5 5 5 5 5 5 5 5 5 5 5 5 5 5 5 5 5 5 5 5 5 5 5 5 5 5 5 5 5 5 5 5 5 5 5 5 5 5 5 5 5 5 5 5 5 5 5 5 5 5 5 5 5 5 5 5 5 5 5 5 5 5 5 5 5 5 5 5 5 5 5 5 5 5 5 5 5 5 5 5 5 5 5 5 5 5 5 5 5 5 5 5 5 5 5 5 5 5 5 5 5 5 5 5 5 5 5 5 5 5 5 5 5 5 5 5 5 5 5 5 5 5 5 5 5 5 5 5 5 5 5 5 5 5 5 5 5 5 5 5 5 5 5 5 5 5 5 5 5 5 5 5 5 5 5 5 5 5 5 5 5 5 5 5 5 5 5 5 5 5 5 5 5 5 5 5 5 5 5 5 5 5 5 5 5 5 5 5 5 5 5 5 5 5 5 5 5 5 5 5 5 5 5 5 5 5 5 5 5 5 5 5 5 5 5 5 5 5 5 5 5 5 5 5 5 5 5 5 5 5 5 5 5 5 5 5 5 5 5 5 5 5 5 5 5 5 5 5 5 5 5 5 5 5 5 5 5 5 5 5 5 5 5 5 5 5 5 5 5 5 5 5 5 5 5 5 5 5 5 5 5 5 5 5 5 5 5 5 5 5 5 5 5 5 5 5 5 5 5 5 5 5 5 5 5 5 5 5 5 5 5 5 5 5 5 5 5 5 5 5 5 5 5 5 5 5 5 5 5 5 5 5 5 5 5 5 5 5 5 5 5 5 5 5 5 5 5 5 5 5 5 5 5 5 5 5 5 5 5 5 5 5 5 5 5 5 5 5 5 5 5 5 5 5 5 5 5 5 5 5 5 5 5 5 5 5 5 5 5 5 5 5 5 5 5 5 5 5 5 5 5 5 5 5 5 5 5 5 5 5 5 5 5 5 5 5 5 5 5 5 5 5 5 5 5 5 5 5 5 5 5 5 5 5 5 5 5 5 5 5 5 5 5 5 5 5 5 5 5 5 5 5 5 5 5 5 5 5 5 5 5 5 5 5 5 5 5 5 5 5 5 5 5 5 5 5 5 5 5 5 5 5 5 5 5 5 5 5 5 5 5 5 5 5 5 5 5 5 5 5 5 5 5 5 5 5 5 5 5 5 5 5 5 5 5 5 5 5 5 5 5 5 5 5 5 5 5 5 5 5 5 5 5 5 5 5 5 5 5 5 5 5 5 5 5 5 5 5 5 5 5 5 5 5 5 5 5 5 5 5 5 5 5 5 5 5 5 5 5 5 5 5 5 5 5 5 5 5 5 5 5 5 5 5 5 5 5 5 5 5 5 5 5 5 5 5 5 5 5 5 5 5 5 5 5 5 5 5 5 5 5 5 5 5 5 5 5 5 5 5 5 5 5 5 5 5 5 5 5 5 5 5 5 5 5 5 5 5 5 5 5 5 5 5 5 5 5 5 5 5 5 5 5 5 5 5 5 5 5 5 5 5 5 5 5 5 5 5 5 5 5 5 5 5 5 5 5 5 5 5 5 5 5 5 5 5 5 5 5 5 5 5 5 5 5 5 5 5 5 5 5 5 5 5 5 5 5 5 5 5 5 5 5 5 5 5 5 5 5 5 5 5 5 5 5 5 5 5 5 5 5 5 5 5 5 5 5 5 5 5 5 5 5 5 5 5 5 5 5 5 5 5 5 5 5 5 5 5 5 5 5 5 5 5 5 5 5 5 5 5 5 5 5 5 5 5 5 5 5 5 5 5 5 5 5 5 5 5 5 5 5 5 5 5 5 5 5 5 5 5 5 5 5 5 5 5 5 5 5 5 5 5 5 5 5 5 5 5 5 5 5 5 5 5 5 5 5 5 5 5 5 5 5 5 5 5 5 5 5 5 5 5 5 5 5 5 5 5 5 5 5 5 5 5 5 5 5 5 5 5 5 5 5 5 5 5 5 5 5 5 5 5 5 5 5 5 5 5 5 5 5 5 5 5 5 5 5 5 5 5 5 5 5 5 5 5 5 5 5 5 5 5 5 5 5 5 5 5 5 5 5 5 5 5 5 5 5 5 5 5 5 5 5 5 5 5 5 5 5 5 5 5 5 5 5 5 5 5 5 5 5 5 5 5 5 5 5 5 5 5 5 5 5 5 5 5 5 5 5 5 5 5 5 5 5 5 5 5 5 5 5 5 5 5 5 5 5 5 5 5 5 5 5 5 5 5 5 5 5 5 5 5 5 5 5 5 5 5 5 5 5 5 5 5 5 5 5 5 5 5 5 5 5 5 5 5 5 5 5 5 5 5 5 5 5 5 5 5 5 5 5 5 5 5 5 5 5 5 5 5 5 5 5 5 5 5 5 5 5 5 5 5 5 5 5 5 5 5 5 5 5 5 5 5 5 5 5 5 5 5 5 5 5 5 5 5 5 5 5 5 5 5 5 5 5 5 5 5 5 5 5 5 5 5 5 5 5 5 5 5 5 5 5 5 5 5 5 5 5 5 5 5 5 5 5 5 5 5 5 5 5 5 5 5 5 5 5 5 5 5 5 5 5 5 5 5 5 5 5 5 5 5 5 5 5 5 5 5 5 5 5 5 5 5 5 5 5 5 5 5 5 5 5 5 5 5 5 5 5 5 5 5 5 5 5 5 5 5 5 5 5 5 5 5 5 5 5 5 5 5 5 5 5 5 5 5 5 5 5 5 5 5 5 5 5 5 5 5 5 5 5 5 5 5 5 5 5 5 5 5 5 5 5 5 5 5 5 5 5 5 5 5 5 5 5 5 5 5 5 5 5 5 5 5 5 5 5 5 5 5 5 5 5 5 5 5 5 5 5 5 5 5 5 5 5 5 5 5 5 5 5 5 5 5 5 5 5 5 5 5 5 5 5 5 5 5 5 5 5 5 5 5 5 5 5 5 5 5 5 5 5 5 5 5 5 5 5 5 5 5 5 5 5 5 5 5 5 5 5 5 5 5 5 5 5 5 5 5 5 5 5 5 5 5 5 5 5 5 5 5 5 5 5 5 5 5 5 5 5 5 5 5 5 5 5 5 5 5 5 5 5 5 5 5 5 5 5 5 5 5 5 5 5 5 5 5 5 5 5 5 5 5 5 5 5 5 5 5 5 5 5 5 5 5 5 5 5 5 5 5 5 5 5 5 5 5 5 5 5 5 5 5 5 5 5 5 5 5 5 5 5 5 5 5 5 5 5 5 5 5 5 5 5 5 5 5 5 5 5 5 5 5 5 5 5 5 5 5 5 5 5 5 5 5 5 5 5 5 5 5 5 5 5 5 5 5 5 5 5 5 5 5 5 5 5 5 5 5 5 5 5 5 5 5 5 5 5 5 5 5 5 5 5 5 5 5 5 5 5 5 5 5 5 5 5 5 5 5 5 5 5 5 5 5 5 5 5 5 5 5 5 5 5 5 5 5 5 5 5 5 5 5 5 5 5 5 5 5 5 5 5 5 5 5 5 5 5 5 5 5 5 5 5 5 5 5 5 5 5 5 5 5 5 5 5 5 5 5 5 5 5 5 5 5 5 5 5 5 5 5 5 5 5 5 5 5 5 5 5 5 5 5 5 5 5 5 5 5 5 5 5 5 5 5 5 5 5 5 5 5 5 5 5 5 5 5 5 5 5 5 5 5 5 5 5 5 5 5 5 5 5 5 5 5 5 5 5 5 5 5 5 5 5 5 5 5 5 5 5 5 5 5 5 5 5 5 5 5 5 5 5 5 5 5 5 5 5 5 5 5 5 5 5 5 5 5 5 5 5 5 5 5 5 5 5 5 5 5 5 5 5 5 5 5 5 5 5 5 5 5 5 5 5 5 5 5 5 5 5 5 5 5 5 5 5 5 5 5 5 5 5 5 5 5 5 5 5 5 5 5 5 5 5 5 5 5 5 5 5 5 5 5 5 5 5 5 5 5 5 5 5 5 5 5 5 5 5 5 5 5 5 5 5 5 5 5 5 5 5 5 5 5 5 5 5 5 5 5 5 5 5 5 5 5 5 5 5 5 5 5 5 5 5 5 5 5 5 5 5 5 5 5 5 5 5 5 5 5 5 5 5 5 5 5 5 5 5 5 5 5 5 5 5 5 5 5 5 5 5 5 5 5 5 5 5 5 5 5 5 5 5 5 5 5 5 5 5 5 5 5 5 5 5 5 5 5 5 5 5 5 5 5 5 5 5 5 5 5 5 5 5 5 5 5 5 5 5 5 5 5 5 5 5 5 5 5 5 5 5 5 5 5 5 5 5 5 5 5 5 5 5 5 5 5 5 5 5 5 5 5 5 5 5 5 5 5 5 5 5 5 5 5 5 5 5 5 5 5 5 5 5 5 5 5 5 5 5 5 5 5 5 5 5 5 5 5 5 5 5 5 5 5 5 5 5 5 5 5 5 5 5 5 5 5 5 5 5 5 5 5 5 5 5 5 5 5 5 5 5 5 5 5 5 5 5 5 5 5 5 5 5 5 5 5 5 5 5 5 5 5 5 5 5 5 5 5 5 5 5 5 5 5 5 5 5 5 5 5 5 5 5 5 5 5 5 5 5 5 5 5 5 5 5 5 5 5 5 5 5 5 5 5 5 5 5 5 5 5 5 5 5 5 5 5 5 5 5 5 5 5 5 5 5 5 5 5 5 5 5 5 5 5 5 5 5 5 5 5 5 5 5 5 5 5 5 5 5 5 5 5 5 5 5 5 5 5 5 5 5 5 5 5 5 5 5 5 5 5 5 5 5 5 5 5 5 5 5 5 5 5 5 5 5 5 5 5 5 5 5 5 5 5 5 5 5 5 5 5 5 5 5 5 5 5 5 5 5 5 5 5 5 5 5 5 5 5 5 5 5 5 5 5 5 5 5 5 5 5 5 5 5 5 5 5 5 5 5 5 5 5 5 5 5 5 5 5 5 5 5 5 5 5 5 5 5 5 5 5 5 5 5 5 5 5 5 5 5 5 5 5 5 5 5 5 5 5 5 5 5 5 5 5 5 5 5 5 5 5 5 5 5 5 5 5 5 5 5 5 5 5 5 5 5 5 5 5 5 5 5 5 5 5 5 5 5 5 5 5 5 5 5 5 5 5 5 5 5 5 5 5 5 5 5 5 5 5 5 5 5 5 5 5 5 5 5 5 5 5 5 5 5 5 5 5 5 5 5 5 5 5 5 5 5 5 5 5 5 5 5 5 5 5 5 5 5 5 5 5 5 5 5 5 5 5 5 5 5 5 5 5 5 5 5 5 5 5 5 5 5 5 5 5 5 5 5 5 5 5 5 5 5 5 5 5 5 5 5 5 5 5 5 5 5 5 5 5 5 5 5 5 5 5 5 5 5 5 5 5 5 5 5 5 5 5 5 5 5 5 5 5 5 5 5 5 5 5 5 5 5 5 5 5 5 5 5 5 5 5 5 5 5 5 5 5 5 5 5 5 5 5 5 5 5 5 5 5 5 5 5 5 5 5 5 5 5 5 5 5 5 5 5 5 5 5 5 5 5 5 5 5 5 5 5 5 5 5 5 5 5 5 5 5 5 5 5 5 5 5 5 5 5 5 5 5 5 5 5 5 5 5 5 5 5 5 5 5 5 5 5 5 5 5 5 5 5 5 5 5 5 5 5 5 5 5 5 5 5 5 5 5 5 5 5 5 5 5 5 5 5 5 5 5 5 5 5 5 5 5 5 5 5 5 5 5 5 5 5 5 5 5 5 5 5 5 5 5 5 5 5 5 5 5 5 5 5 5 5 5 5 5 5 5 5 5 5 5 5 5 5 5 5 5 5 5 5 5 5 5 5 5 5 5 5 5 5 5 5 5 5 5 5 5 5 5 5 5 5 5 5 5 5 5 5 5 5 5 5 5 5 5 5 5 5 5 5 5 5 5 5 5 5 5 5 5 5 5 5 5 5 5 5 5 5 5 5 5 5 5 5 5 5 5 5 5 5 5 5 5 5 5 5 5 5 5 5 5 5 5 5 5 5 5 5 5 5 5 5 5 5 5 5 5 5 5 5 5 5 5 5 5 5 5 5 5 5 5 5 5 5 5 5 5 5 5 5 5 5 5 5 5 5 5 5 5 5 5 5 5 5 5 5 5 5 5 5 5 5 5 5 5 5 5 5 5 5 5 5 5 5 5 5 5 5 5 5 5 5 5 5 5 5 5 5 5 5 5 5 5 5 5 5 5 5 5 5 5 5 5 5 5 5 5 5 5 5 5 5 5 5 5 5 5 5 5 5 5 5 5 5 5 5 5 5 5 5 5 5 5 5 5 5 5 5 5 5 5 5 5 5 5 5 5 5 5 5 5 5 5 5 5 5 5 5 5 5 5 5 5 5 5 5 5 5 5 5 5 5 5 5 5 5 5 5 5 5 5 5 5 5 5 5 5 5 5 5 5 5 5 5 5 5 5 5 5 5 5 5 5 5 5 5 5 5 5 5 5 5 5 5 5 5 5 5 5 5 5 5 5 5 5 5 5 5 5 5 5 5 5 5 5 5 5 5 5 5 5 5 5 5 5 5 5 5 5 5 5 5 5 5 5 5 5 5 5 5 5 5 5 5 5 5 5 5 5 5 5 5 5 5 5 5 5 5 5 5 5 5 5 5 5 5 5 5 5 5 5 5 5 5 5 5 5 5 5 5 5 5 5 5 5 5 5 5 5 5 5 5 5 5 5 5 5 5 5 5 5 5 5 5 5 5 5 5 5 5 5 5 5 5 5 5 5 5 5 5 5 5 5 5 5 5 5 5 5 5 5 5 5 5 5 5 5 5 5 5 5 5 5 5 5 5 5 5 5 5 5 5 5 5 5 5 5 5 5 5 5 5 5 5 5 5 5 5 5 5 5 5 5 5 5 5 5 5 5 5 5 5 5 5 5 5 5 5 5 5 5 5 5 5 5 5 5 5 5 5 5 5 5 5 5 5 5 5 5 5 5 5 5 5 5 5 5 5 5 5 5 5 5 5 5 5 5 5 5 5 5 5 5 5 5 5 5 5 5 5 5 5 5 5 5 5 5 5 5 5 5 5 5 5 5 5 5 5 5 5 5 5 5 5 5 5 5 5 5 5 5 5 5 5 5 5 5 5 5 5 5 5 5 5 5 5 5 5 5 5 5 5 5 5 5 5 5 5 5 5 5 5 5 5 5 5 5 5 5 5 5 5 5 5 5 5 5 5 5 5 5 5 5 5 5 5 5 5 5 5 5 5 5 5 5 5 5 5 5 5 5 5 5 5 5 5 5 5 5 5 5 5 5 5 5 5 5 5 5 5 5 5 5 5 5 5 5 5 5 5 5 5 5 5 5 5 5 5 5 5 5 5 5 5 5 5 5 5 5 5 5 5 5 5 5 5 5 5 5 5 5 5 5 5 5 5 5 5 5 5 5 5 5 5 5 5 5 5 5 5 5 5 5 5 5 5 5 5 5 5 5 5 5 5 5 5 5 5 5 5 5 5 5 5 5 5 5 5 5 5 5 5 5 5 5 5 5 5 5 5 5 5 5 5 5 5 5 5 5 5 5 5 5 5 5 5 5 5 5 5 5 5 5 5 5 5 5 5 5 5 5 5 5 5 5 5 5 5 5 5 5 5 5 5 5 5 5 5 5 5 5 5 5 5 5 5 5 5 5 5 5 5 5 5 5 5 5 5 5 5 5 5 5 5 5 5 5 5 5 5 5 5 5 5 5 5 5 5 5 5 5 5 5 5 5 5 5 5 5 5 5 5 5 5 5 5 5 5 5 5 5 5 5 5 5 5 5 5 5 5 5 5 5 5 5 5 5 5 5 5 5 5 5 5 5 5 5 5 5 5 5 5 5 5 5 5 5 5 5 5 5 5 5 5 5 5 5 5 5 5 5 5 5 5 5 5 5 5 5 5 5 5 5 5 5 5 5 5 5 5 5 5 5 5 5 5 5 5 5 5 5 5 5 5 5 5 5 5 5 5 5 5 5 5 5 5 5 5 5 5 5 5 5 5 5 5 5 5 5 5 5 5 5 5 5 5 5 5 5 5 5 5 5 5 5 5 5 5 5 5 5 5 5 5 5 5 5 5 5 5 5 5 5 5 5 5 5 5 5 5 5 5 5 5 5 5 5 5 5 5 5 5 5 5 5 5 5 5 5 5 5 5 5 5 5 5 5 5 5 5 5 5 5 5 5 5 5 5 5 5 5 5 5 5 5 5 5 5 5 5 5 5 5 5 5 5 5 5 5 5 5 5 5 5 5 5 5 5 5 5 5 5 5 5 5 5 5 5 5 5 5 5 5 5 5 5 5 5 5 5 5 5 5 5 5 5 5 5 5 5 5 5 5 5 5 5 5 5 5 5 5 5 5 5 5 5 5 5 5 5 5 5 5 5 5 5 5 5 5 5 5 5 5 5 5 5 5 5 5 5 5 5 5 5 5 5 5 5 5 5 5 5 5 5 5 5 5 5 5 5 5 5 5 5 5 5 5 5 5 5 5 5 5 5 5 5 5 5 5 5 5 5 5 5 5 5 5 5 5 5 5 5 5 5 5 5 5 5 5 5 5 5 5 5 5 5 5 5 5 5 5 5 5 5 5 5 5 5 5 5 5 5 5 5 5 5 5 5 5 5 5 5 5 5 5 5 5 5 5 5 5 5 5 5 5 5 5 5 5 5 5 5 5 5 5 5 5 5 5 5 5 5 5 5 5 5 5 5 5 5 5 5 5 5 5 5 5 5 5 5 5 5 5 5 5 5 5 5 5 5 5 5 5 5 5 5 5 5 5 5 5 5 5 5 5 5 5 5 5 5 5 5 5 5 5 5 5 5 5 5 5 5 5 5 5 5 5 5 5 5 5 5 5 5 5 5 5 5 5 5 5 5 5 5 5 5 5 5 5 5 5 5 5 5 5 5 5 5 5 5 5 5 5 5 5 5 5 5 5 5 5 5 5 5 5 5 5 5 5 5 5 5 5 5 5 5 5 5 5 5 5 5 5 5 5 5 5 5 5 5 5 5 5 5 5 5 5 5 5 5 5 5 5 5 5 5 5 5 5 5 5 5 5 5 5 5 5 5 5 5 5 5 5 5 5 5 5 5 5 5 5 5 5 5 5 5 5 5 5 5 5 5 5 5 5 5 5 5 5 5 5 5 5 5 5 5 5 5 5 5 5 5 5 5 5 5 5 5 5 5 5 5 5 5 5 5 5 5 5 5 5 5 5 5 5 5 5 5 5 5 5 5 5 5 5 5 5 5 5 5 5 5 5 5 5 5 5 5 5 5 5 5 5 5 5 5 5 5 5 5 5 5 5 5 5 5 5 5 5 5 5 5 5 5 5 5 5 5 5 5 5 5 5 5 5 5 5 5 5 5 5 5 5 5 5 5 5 5 5 5 5 5 5 5 5 5 5 5 5 5 5 5 5 5 5 5 5 5 5 5 5 5 5 5 5 5 5 5 5 5 5 5 5 5 5 5 5 5 5 5 5 5 5 5 5 5 5 5 5 5 5 5 5 5 5 5 5 5 5 5 5 5 5 5 5 5 5 5 5 5 5 5 5 5 5 5 5 5 5 5 5 5 5 5 5 5 5 5 5 5 5 5 5 5 5 5 5 5 5 5 5 5 5 5 5 5 5 5 5 5 5 5 5 5 5 5 5 5 5 5 5 5 5 5 5 5 5 5 5 5 5 5 5 5 5 5 5 5 5 5 5 5 5 5 5 5 5 5 5 5 5 5 5 5 5 5 5 5 5 5 5 5 5 5 5 5 5 5 5 5 5 5 5 5 5 5 5 5 5 5 5 5 5 5 5 5 5 5 5 5 5 5 5 5 5 5 5 5 5 5 5 5 5 5 5 5 5 5 5 5 5 5 5 5 5 5 5 5 5 5 5 5 5 5 5 5 5 5 5 5 5 5 5 5 5 5 5 5 5 5 5 5 5 5 5 5 5 5 5 5 5 5 5 5 5 5 5 5 5 5 5 5 5 5 5 5 5 5 5 5 5 5 5 5 5 5 5 5 5 5 5 5 5 5 5 5 5 5 5 5 5 5 5 5 5 5 5 5 5 5 5 5 5 5 5 5 5 5 5 5 5 5 5 5 5 5 5 5 5 5 5 5 5 5 5 5 5 5 5 5 5 5 5 5 5 5 5 5 5 5 5 5 5 5 5 5 5 5 5 5 5 5 5 5 5 5 5 5 5 5 5 5 5 5 5 5 5 5 5 5 5 5 5 5 5 5 5 5 5 5 5 5 5 5 5 5 5 5 5 5 5 5 5 5 5 5 5 5 5 5 5 5 5 5 5 5 5 5 5 5 5 5 5 5 5 5 5 5 5 5 5 5 5 5 5 5 5 5 5 5 5 5 5 5 5 5 5 5 5 5 5 5 5 5 5 5 5 5 5 5 5 5 5 5 5 5 5 5 5 5 5 5 5 5 5 5 5 5 5 5 5 5 5 5 5 5 5 5 5 5 5 5 5 5 5 5 5 5 5 5 5 5 5 5 5 5 5 5 5 5 5 5 5 5 5 5 5 5 5 5 5 5 5 5 5 5 5 5 5 5 5 5 5 5 5 5 5 5 5 5 5 5 5 5 5 5 5 5 5 5 5 5 5 5 5 5 5 5 5 5 5 5 5 5 5 5 5 5 5 5 5 5 5 5 5 5 5 5 5 5 5 5 5 5 5 5 5 5 5 5 5 5 5 5 5 5 5 5 5 5 5 5 5 5 5 5 5 5 5 5 5 5 5 5 5 5 5 5 5 5 5 5 5 5 5 5 5 5 5 5 5 5 5 5 5 5 5 5 5 5 5 5 5 5 5 5 5 5 5 5 5 5 5 5 5 5 5 5 5 5 5 5 5 5 5 5 5 5 5 5 5 5 5 5 5 5 5 5 5 5 5 5 5 5 5 5 5 5 5 5 5 5 5 5 5 5 5 5 5 5 5 5 5 5 5 5 5 5 5 5 5 5 5 5 5 5 5 5 5 5 5 5 5 5 5 5 5 5 5 5 5 5 5 5 5 5 5 5 5 5 5 5 5 5 5 5 5 5 5 5 5 5 5 5 5 5 5 5 5 5 5 5 5 5 5 5 5 5 5 5 5 5 5 5 5 5 5 5 5 5 5 5 5 5 5 5 5 5 5 5 5 5 5 5 5 5 5 5 5 5 5 5 5 5 5 5 5 5 5 5 5 5 5 5 5 5 5 5 5 5 5 5 5 5 5 5 5 5 5 5 5 5 5 5 5 5 5 5 5 5 5 5 5 5 5 5 5 5 5 5 5 5 5 5 5 5 5 5 5 5 5 5 5 5 5 5 5 5 5 5 5 5 5 5 5 5 5 5 5 5 5 5 5 5 5 5 5 5 5 5 5 5 5 5 5 5 5 5 5 5 5 5 5 5 5 5 5 5 5 5 5 5 5 5 5 5 5 5 5 5 5 5 5 5 5 5 5 5 5 5 5 5 5 5 5 5 5 5 5 5 5 5 5 5 5 5 5 5 5 5 5 5 5 5 5 5 5 5 5 5 5 5 5 5 5 5 5 5 5 5 5 5 5 5 5 5 5 5 5 5 5 5 5 5 5 5 5 5 5 5 5 5 5 5 5 5 5 5 5 5 5 5 5 5 5 5 5 5 5 5 5 5 5 5 5 5 5 5 5 5 5 5 5 5 5 5 5 5 5 5 5 5 5 5 5 5 5 5 5 5 5 5 5 5 5 5 5 5 5 5 5 5 5 5 5 5 5 5 5 5 5 5 5 5 5 5 5 5 5 5 5 5 5 5 5 5 5 5 5 5 5 5 5 5 5 5 5 5 5 5 5 5 5 5 5 5 5 5 5 5 5 5 5 5 5 5 5 5 5 5 5 5 5 5 5 5 5 5 5 5 5 5 5 5 5 5 5 5 5 5 5 5 5 5 5 5 5 5 5 5 5 5 5 5 5 5 5 5 5 5 5 5 5 5 5 5 5 5 5 5 5 5 5 5 5 5 5 5 5 5 5 5 5 5 5 5 5 5 5 5 5 5 5 5 5 5 5 5 5 5 5 5 5 5 5 5 5 5 5 5 5 5 5 5 5 5 5 5 5 5 5 5 5 5 5 5 5 5 5 5 5 5 5 5 5 5 5 5 5 5 5 5 5 5 5 5 5 5 5 5 5 5 5 5 5 5 5 5 5 5 5 5 5 5 5 5 5 5 5 5 5 5 5 5 5 5 5 5 5 5 5 5 5 5 5 5 5 5 5 5 5 5 5 5 5 5 5 5 5 5 5 5 5 5 5 5 5 5 5 5 5 5 5 5 5 5 5 5 5 5 5 5 5 5 5 5 5 5 5 5 5 5 5 5 5 5 5 5 5 5 5 5 5 5 5 5 5 5 5 5 5 5 5 5 5 5 5 5 5 5 5 5 5 5 5 5 5 5 5 5 5 5 5 5 5 5 5 5 5 5 5 5 5 5 5 5 5 5 5 5 5 5 5 5 5 5 5 5 5 5 5 5 5 5 5 5 5 5 5 5 5 5 5 5 5 5 5 5 5 5 5 5 5 5 5 5 5 5 5 5 5 5 5 5 5 5 5 5 5 5 5 5 5 5 5 5 5 5 5 5 5 5 5 5 5 5 5 5 5 5 5 5 5 5 5 5 5 5 5 5 5 5 5 5 5 5 5 5 5 5 5 5 5 5 5 5 5 5 5 5 5 5 5 5 5 5 5 5 5 5 5 5 5 5 5 5 5 5 5 5 5 5 5 5 5 5 5 5 5 5 5 5 5 5 5 5 5 5 5 5 5 5 5 5 5 5 5 5 5 5 5 5 5 5 5 5 5 5 5 5 5 5 5 5 5 5 5 5 5 5 5 5 5 5 5 5 5 5 5 5 5 5 5 5 5 5 5 5 5 5 5 5 5 5 5 5 5 5 5 5 5 5 5 5 5 5 5 5 5 5 5 5 5 5 5 5 5 5 5 5 5 5 5 5 5 5 5 5 5 5 5 5 5 5 5 5 5 5 5 5 5 5 5 5 5 5 5 5 5 5 5 5 5 5 5 5 5 5 5 5 5 5 5 5 5 5 5 5 5 5 5 5 5 5 5 5 5 5 5 5 5 5 5 5 5 5 5 5 5 5 5 5 5 5 5 5 5 5 5 5 5 5 5 5 5 5 5 5 5 5 5 5 5 5 5 5 5 5 5 5 5 5 5 5 5 5 5 5 5 5 5 5 5 5 5 5 5 5 5 5 5 5 5 5 5 5 5 5 5 5 5 5 5 5 5 5 5 5 5 5 5 5 5 5 5 5 5 5 5 5 5 5 5 5 5 5 5 5 5 5 5 5 5 5 5 5 5 5 5 5 5 5 5 5 5 5 5 5 5 5 5 5 5 5 5 5 5 5 5 5 5 5 5 5 5 5 5 5 5 5 5 5 5 5 5 5 5 5 5 5 5 5 5 5 5 5 5 5 5 5 5 5 5 5 5 5 5 5 5 5 5 5 5 5 5 5 5 5 5 5 5 5 5 5 5 5 5 5 5 5 5 5 5 5 5 5 5 5 5 5 5 5 5 5 5 5 5 5 5 5 5 5 5 5 5 5 5 5 5 5 5 5 5 5 5 5 5 5 5 5 5 5 5 5 5 5 5 5 5 5 5 5 5 5 5 5 5 5 5 5 5 5 5 5 5 5 5 5 5 5 5 5 5 5 5 5 5 5 5 5 5 5 5 5 5 5 5 5 5 5 5 5 5 5 5 5 5 5 5 5 5 5 5 5 5 5 5 5 5 5 5 5 5 5 5 5 5 5 5 5 5 5 5 5 5 5 5 5 5 5 5 5 5 5 5 5 5 5 5 5 5 5 5 5 5 5 5 5 5 5 5 5 5 5 5 5 5 5 5 5 5 5 5 5 5 5 5 5 5 5 5 5 5 5 5 5 5 5 5 5 5 5 5 5 5 5 5 5 5 5 5 5 5 5 5 5 5 5 5 5 5 5 5 5 5 5 5 5 5 5 5 5 5 5 5 5 5 5 5 5 5 5 5 5 5 5 5 5 5 5 5 5 5 5 5 5 5 5 5 5 5 5 5 5 5 5 5 5 5 5 5 5 5 5 5 5 5 5 5 5 5 5 5 5 5 5 5 5 5 5 5 5 5 5 5 5 5 5 5 5 5 5 5 5 5 5 5 5 5 5 5 5 5 5 5 5 5 5 5 5 5 5 5 5 5 5 5 5 5 5 5 5 5 5 5 5 5 5 5 5 5 5 5 5 5 5 5 5 5 5 5 5 5 5 5 5 5 5 5 5 5 5 5 5 5 5 5 5 5 5 5 5 5 5 5 5 5 5 5 5 5 5 5 5 5 5 5 5 5 5 5 5 5 5 5 5 5 5 5 5 5 5 5 5 5 5 5 5 5 5 5 5 5 5 5 5 5 5 5 5 5 5 5 5 5 5 5 5 5 5 5 5 5 5 5 5 5 5 5 5 5 5 5 5 5 5 5 5 5 5 5 5 5 5 5 5 5 5 5 5 5 5 5 5 5 5 5 5 5 5 5 5 5 5 5 5 5 5 5 5 5 5 5 5 5 5 5 5 5 5 5 5 5 5 5 5 5 5 5 5 5 5 5 5 5 5 5 5 5 5 5 5 5 5 5 5 5 5 5 5 5 5 5 5 5 5 5 5 5 5 5 5 5 5 5 5 5 5 5 5 5 5 5 5 5 5 5 5 5 5 5 5 5 5 5 5 5 5 5 5 5 5 5 5 5 5 5 5 5 5 5 5 5 5 5 5 5 5 5 5 5 5 5 5 5 5 5 5 5 5 5 5 5 5 5 5 5 5 5 5 5 5 5 5 5 5 5 5 5 5 5 5 5 5 5 5 5 5 5 5 5 5 5 5 5 5 5 5 5 5 5 5 5 5 5 5 5 5 5 5 5 5 5 5 5 5 5 5 5 5 5 5 5 5 5 5 5 5 5 5 5 5 5 5 5 5 5 5 5 5 5 5 5 5 5 5 5 5 5 5 5 5 5 5 5 5 5 5 5 5 5 5 5 5 5 5 5 5 5 5 5 5 5 5 5 5 5 5 5 5 5 5 5 5 5 5 5 5 5 5 5 5 5 5 5 5 5 5 5 5 5 5 5 5 5 5 5 5 5 5 5 5 5 5 5 5 5 5 5 5 5 5 5 5 5 5 5 5 5 5 5 5 5 5 5 5 5 5 5 5 5 5 5 5 5 5 5 5 5 5 5 5 5 5 5 5 5 5 5 5 5 5 5 5 5 5 5 5 5 5 5 5 5 5 5 5 5 5 5 5 5 5 5 5 5 5 5 5 5 5 5 5 5 5 5 5 5 5 5 5 5 5 5 5 5 5 5 5 5 5 5 5 5 5 5 5 5 5 5 5 5 5 5 5 5 5 5 5 5 5 5 5 5 5 5 5 5 5 5 5 5 5 5 5 5 5 5 5 5 5 5 5 5 5 5 5 5 5 5 5 5 5 5 5 5 5 5 5 5 5 5 5 5 5 5 5 5 5 5 5 5 5 5 5 5 5 5 5 5 5 5 5 5 5 5 5 5 5 5 5 5 5 5 5 5 5 5 5 5 5 5 5 5 5 5 5 5 5 5 5 5 5 5 5 5 5 5 5 5 5 5 5 5 5 5 5 5 5 5 5 5 5 5 5 5 5 5 5 5 5 5 5 5 5 5 5 5 5 5 5 5 5 5 5 5 5 5 5 5 5 5 5 5 5 5 5 5 5 5 5 5 5 5 5 5 5 5 5 5 5 5 5 5 5 5 5 5 5 5 5 5 5 5 5 5 5 5 5 5 5 5 5 5 5 5 5 5 5 5 5 5 5 5 5 5 5 5 5 5 5 5 5 5 5 5 5 5 5 5 5 5 5 5 5 5 5 5 5 5 5 5 5 5 5 5 5 5 5 5 5 5 5 5 5 5 5 5 5 5 5 5 5 5 5 5 5 5 5 5 5 5 5 5 5 5 5 5 5 5 5 5 5 5 5 5 5 5 5 5 5 5 5 5 5 5 5 5 5 5 5 5 5 5 5 5 5 5 5 5 5 5 5 5 5 5 5 5 5 5 5 5 5 5 5 5 5 5 5 5 5 5 5 5 5 5 5 5 5 5 5 5 5 5 5 5 5 5 5 5 5 5 5 5 5 5 5 5 5 5 5 5 5 5 5 5 5 5 5 5 5 5 5 5 5 5 5 5 5 5 5 5 5 5 5 5 5 5 5 5 5 5 5 5 5 5 5 5 5 5 5 5 5 5 5 5 5 5 5 5 5 5 5 5 5 5 5 5 5 5 5 5 5 5 5 5 5 5 5 5 5 5 5 5 5 5 5 5 5 5 5 5 5 5 5 5 5 5 5 5 5 5 5 5 5 5 5 5 5 5 5 5 5 5 5 5 5 5 5 5 5 5 5 5 5 5 5 5 5 5 5 5 5 5 5 5 5 5 5 5 5 5 5 5 5 5 5 5 5 5 5 5 5 5 5 5 5 5 5 5 5 5 5 5 5 5 5 5 5 5 5 5 5 5 5 5 5 5 5 5 5 5 5 5 5 5 5 5 5 5 5 5 5 5 5 5 5 5 5 5 5 5 5 5 5 5 5 5 5 5 5 5 5 5 5 5 5 5 5 5 5 5 5 5 5 5 5 5 5 5 5 5 5 5 5 5 5 5 5 5 5 5 5 5 5 5 5 5 5 5 5 5 5 5 5 5 5 5 5 5 5 5 5 5 5 5 5 5 5 5 5 5 5 5 5 5 5 5 5 5 5 5 5 5 5 5 5 5 5 5 5 5 5 5 5 5 5 5 5 5 5 5 5 5 5 5 5 5 5 5 5 5 5 5 5 5 5 5 5 5 5 5 5 5 5 5 5 5 5 5 5 5 5 5 5 5 5 5 5 5 5 5 5 5 5 5 5 5 5 5 5 5 5 5 5 5 5 5 5 5 5 5 5 5 5 5 5 5 5 5 5 5 5 5 5 5 5 5 5 5 5 5 5 5 5 5 5 5 5 5 5 5 5 5 5 5 5 5 5 5 5 5 5 5 5 5 5 5 5 5 5 5 5 5 5 5 5 5 5 5 5 5 5 5 5 5 5 5 5 5 5 5 5 5 5 5 5 5 5 5 5 5 5 5 5 5 5 5 5 5 5 5 5 5 5 5 5 5 5 5 5 5 5 5 5 5 5 5 5 5 5 5 5 5 5 5 5 5 5 5 5 5 5 5 5 5 5 5 5 5 5 5 5 5 5 5 5 5 5 5 5 5 5 5 5 5 5 5 5 5 5 5 5 5 5 5 5 5 5 5 5 5 5 5 5 5 5 5 5 5 5 5 5 5 5 5 5 5 5 5 5 5 5 5 5 5 5 5 5 5 5 5 5 5 5 5 5 5 5 5 5 5 5 5 5 5 5 5 5 5 5 5 5 5 5 5 5 5 5 5 5 5 5 5 5 5 5 5 5 5 5 5 5 5 5 5 5 5 5 5 5 5 5 5 5 5 5 5 5 5 5 5 5 5 5 5 5 5 5 5 5 5 5 5 5 5 5 5 5 5 5 5 5 5 5 5 5 5 5 5 5 5 5 5 5 5 5 5 5 5 5 5 5 5 5 5 5 5 5 5 5 5 5 5 5 5 5 5 5 5 5 5 5 5 5 5 5 5 5 5 5 5 5 5 5 5 5 5 5 5 5 5 5 5 5 5 5 5 5 5 5 5 5 5 5 5 5 5 5 5 5 5 5 5 5 5 5 5 5 5 5 5 5 5 5 5 5 5 5 5 5 5 5 5 5 5 5 5 5 5 5 5 5 5 5 5 5 5 5 5 5 5 5 5 5 5 5 5 5 5 5 5 5 5 5 5 5 5 5 5 5 5 5 5 5 5 5 5 5 5 5 5 5 5 5 5 5 5 5 5 5 5 5 5 5 5 5 5 5 5 5 5 5 5 5 5 5 5 5 5 5 5 5 5 5 5 5 5 5 5 5 5 5 5 5 5 5 5 5 5 5 5 5 5 5 5 5 5 5 5 5 5 5 5 5 5 5 5 5 5 5 5 5 5 5 5 5 5 5 5 5 5 5 5 5 5 5 5 5 5 5 5 5 5 5 5 5 5 5 5 5 5 5 5 5 5 5 5 5 5 5 5 5 5 5 5 5 5 5 5 5 5 5 5 5 5 5 5 5 5 5 5 5 5 5 5 5 5 5 5 5 5 5 5 5 5 5 5 5 5 5 5 5 5 5 5 5 5 5 5 5 5 5 5 5 5 5 5 5 5 5 5 5 5 5 5 5 5 5 5 5 5 5 5 5 5 5 5 5 5 5 5 5 5 5 5 5 5 5 5 5 5 5 5 5 5 5 5 5 5 5 5 5 5 5 5 5 5 5 5 5 5 5 5 5 5 5 5 5 5 5 5 5 5 5 5 5 5 5 5 5 5 5 5 5 5 5 5 5 5 5 5 5 5 5 5 5 5 5 5 5 5 5 5 5 5 5 5 5 5 5 5 5 5 5 5 5 5 5 5 5 5 5 5 5 5 5 5 5 5 5 5 5 5 5 5 5 5 5 5 5 5 5 5 5 5 5 5 5 5 5 5 5 5 5 5 5 5 5 5 5 5 5 5 5 5 5 5 5 5 5 5 5 5 5 5 5 5 5 5 5 5 5 5 5 5 5 5 5 5 5 5 5 5 5 5 5 5 5 5 5 5 5 5 5 5 5 5 5 5 5 5 5 5 5 5 5 5 5 5 5 5 5 5 5 5 5 5 5 5 5 5 5 5 5 5 5 5 5 5 5 5 5 5 5 5 5 5 5 5 5 5 5 5 5 5 5 5 5 5 5 5 5 5 5 5 5 5 5 5 5 5 5 5 5 5 5 5 5 5 5 5 5 5 5 5 5 5 5 5 5 5 5 5 5 5 5 5 5 5 5 5 5 5 5 5 5 5 5 5 5 5 5 5 5 5 5 5 5 5 5 5 5 5 5 5 5 5 5 5 5 5 5 5 5 5 5 5 5 5 5 5 5 5 5 5 5 5 5 5 5 5 5 5 5 5 5 5 5 5 5 5 5 5 5 5 5 5 5 5 5 5 5 5 5 5 5 5 5 5 5 5 5 5 5 5 5 5 5 5 5 5 5 5 5 5 5 5 5 5 5 5 5 5 5 5 5 5 5 5 5 5 5 5 5 5 5 5 5 5 5 5 5 5 5 5 5 5 5 5 5 5 5 5 5 5 5 5 5 5 5 5 5 5 5 5 5 5 5 5 5 5 5 5 5 5 5 5 5 5 5 5 5 5 5 5 5 5 5 5 5 5 5 5 5 5 5 5 5 5 5 5 5 5 5 5 5 5 5 5 5 5 5 5 5 5 5 5 5 5 5 5 5 5 5 5 5 5 5 5 5 5 5 5 5 5 5 5 5 5 5 5 5 5 5 5 5 5 5 5 5 5 5 5 5 5 5 5 5 5 5 5 5 5 5 5 5 5 5 5 5 5 5 5 5 5 5 5 5 5 5 5 5 5 5 5 5 5 5 5 5 5 5 5 5 5 5 5 5 5 5 5 5 5 5 5 5 5 5 5 5 5 5 5 5 5 5 5 5 5 5 5 5 5 5 5 5 5 5 5 5 5 5 5 5 5 5 5 5 5 5 5 5 5 5 5 5 5 5 5 5 5 5 5 5 5 5 5 5 5 5 5 5 5 5 5 5 5 5 5 5 5 5 5 5 5 5 5 5 5 5 5 5 5 5 5 5 5 5 5 5 5 5 5 5 5 5 5 5 5 5 5 5 5 5 5 5 5 5 5 5 5 5 5 5 5 5 5 5 5 5 5 5 5 5 5 5 5 5 5 5 5 5 5 5 5 5 5 5 5 5 5 5 5 5 5 5 5 5 5 5 5 5 5 5 5 5 5 5 5 5 5 5 5 5 5 5 5 5 5 5 5 5 5 5 5 5 5 5 5 5 5 5 5 5 5 5 5 5 5 5 5 5 5 5 5 5 5 5 5 5 5 5 5 5 5 5 5 5 5 5 5 5 5 5 5 5 5 5 5 5 5 5 5 5 5 5 5 5 5 5 5 5 5 5 5 5 5 5 5 5 5 5 5 5 5 5 5 5 5 5 5 5 5 5 5 5 5 5 5 5 5 5 5 5 5 5 5 5 5 5 5 5 5 5 5 5 5 5 5 5 5 5 5 5 5 5 5 5 5 5 5 5 5 5 5 5 5 5 5 5 5 5 5 5 5 5 5 5 5 5 5 5 5 5 5 5 5 5 5 5 5 5 5 5 5 5 5 5 5 5 5 5 5 5 5 5 5 5 5 5 5 5 5 5 5 5 5 5 5 5 5 5 5 5 5 5 5 5 5 5 5 5 5 5 5 5 5 5 5 5 5 5 5 5 5 5 5 5 5 5 5 5 5 5 5 5 5 5 5 5 5 5 5 5 5 5 5 5 5 5 5 5 5 5 5 5 5 5 5 5 5 5 5 5 5 5 5 5 5 5 5 5 5 5 5 5 5 5 5 5 5 5 5 5 5 5 5 5 5 5 5 5 5 5 5 5 5 5 5 5 5 5 5 5 5 5 5 5 5 5 5 5 5 5 5 5 5 5 5 5 5 5 5 5 5 5 5 5 5 5 5 5 5 5 5 5 5 5 5 5 5 5 5 5 5 5 5 5 5 5 5 5 5 5 5 5 5 5 5 5 5 5 5 5 5 5 5 5 5 5 5 5 5 5 5 5 5 5 5 5 5 5 5 5 5 5 5 5 5 5 5 5 5 5 5 5 5 5 5 5 5 5 5 5 5 5 5 5 5 5 5 5 5 5 5 5 5 5 5 5 5 5 5 5 5 5 5 5 5 5 5 5 5 5 5 5 5 5 5 5 5 5 5 5 5 5 5 5 5 5 5 5 5 5 5 5 5 5 5 5 5 5 5 5 5 5 5 5 5 5 5 5 5 5 5 5 5 5 5 5 5 5 5 5 5 5 5 5 5 5 5 5 5 5 5 5 5 5 5 5 5 5 5 5 5 5 5 5 5 5 5 5 5 5 5 5 5 5 5 5 5 5 5 5 5 5 5 5 5 5 5 5 5 5 5 5 5 5 5 5 5 5 5 5 5 5 5 5 5 5 5 5 5 5 5 5 5 5 5 5 5 5 5 5 5 5 5 5 5 5 5 5 5 5 5 5 5 5 5 5 5 5 5 5 5 5 5 5 5 5 5 5 5 5 5 5 5 5 5 5 5 5 5 5 5 5 5 5 5 5 5 5 5 5 5 5 5 5 5 5 5 5 5 5 5 5 5 5 5 5 5 5 5 5 5 5 5 5 5 5 5 5 5 5 5 5 5 5 5 5 5 5 5 5 5 5 5 5 5 5 5 5 5 5 5 5 5 5 5 5 5 5 5 5 5 5 5 5 5 5 5 5 5 5 5 5 5 5 5 5 5 5 5 5 5 5 5 5 5 5 5 5 5 5 5 5 5 5 5 5 5 5 5 5 5 5 5 5 5 5 5 5 5 5 5 5 5 5 5 5 5 5 5 5 5 5 5 5 5 5 5 5 5 5 5 5 5 5 5 5 5 5 5 5 5 5 5 5 5 5 5 5 5 5 5 5 5 5 5 5 5 5 5 5 5 5 5 5 5 5 5 5 5 5 5 5 5 5 5 5 5 5 5 5 5 5 5 5 5 5 5 5 5 5 5 5 5 5 5 5 5 5 5 5 5 5 5 5 5 5 5 5 5 5 5 5 5 5 5 5 5 5 5 5 5 5 5 5 5 5 5 5 5 5 5 5 5 5 5 5 5 5 5 5 5 5 5 5 5 5 5 5 5 5 5 5 5 5 5 5 5 5 5 5 5 5 5 5 5 5 5 5 5 5 5 5 5 5 5 5 5 5 5 5 5 5 5 5 5 5 5 5 5 5 5 5 5 5 5 5 5 5 5 5 5 5 5 5 5 5 5 5 5 5 5 5 5 5 5 5 5 5 5 5 5 5 5 5 5 5 5 5 5 5 5 5 5 5 5 5 5 5 5 5 5 5 5 5 5 5 5 5 5 5 5 5 5 5 5 5 5 5 5 5 5 5 5 5 5 5 5 5 5 5 5 5 5 5 5 5 5 5 5 5 5 5 5 5 5 5 5 5 5 5 5 5 5 5 5 5 5 5 5 5 5 5 5 5 5 5 5 5 5 5 5 5 5 5 5 5 5 5 5 5 5 5 5 5 5 5 5 5 5 5 5 5 5 5 5 5 5 5 5 5 5 5 5 5 5 5 5 5 5 5 5 5 5 5 5 5 5 5 5 5 5 5 5 5 5 5 5 5 5 5 5 5 5 5 5 5 5 5 5 5 5 5 5 5 5 5 5 5 5 5 5 5 5 5 5 5 5 5 5 5 5 5 5 5 5 5 5 5 5 5 5 5 5 5 5 5 5 5 5 5 5 5 5 5 5 5 5 5 5 5 5 5 5 5 5 5 5 5 5 5 5 5 5 5 5 5 5 5 5 5 5 5 5 5 5 5 5 5 5 5 5 5 5 5 5 5 5 5 5 5 5 5 5 5 5 5 5 5 5 5 5 5 5 5 5 5 5 5 5 5 5 5 5 5 5 5 5 5 5 5 5 5 5 5 5 5 5 5 5 5 5 5 5 5 5 5 5 5 5 5 5 5 5 5 5 5 5 5 5 5 5 5 5 5 5 5 5 5 5 5 5 5 5 5 5 5 5 5 5 5 5 5 5 5 5 5 5 5 5 5 5 5 5 5 5 5 5 5 5 5 5 5 5 5 5 5 5 5 5 5 5 5 5 5 5 5 5 5 5 5 5 5 5 5 5 5 5 5 5 5 5 5 5 5 5 5 5 5 5 5 5 5 5 5 5 5 5 5 5 5 5 5 5 5 5 5 5 5 5 5 5 5 5 5 5 5 5 5 5 5 5 5 5 5 5 5 5 5 5 5 5 5 5 5 5 5 5 5 5 5 5 5 5 5 5 5 5 5 5 5 5 5 5 5 5 5 5 5 5 5 5 5 5 5 5 5 5 5 5 5 5 5 5 5 5 5 5 5 5 5 5 5 5 5 5 5 5 5 5 5 5 5 5 5 5 5 5 5 5 5 5 5 5 5 5 5 5 5 5 5 5 5 5 5 5 5 5 5 5 5 5 5 5 5 5 5 5 5 5 5 5 5 5 5 5 5 5 5 5 5 5 5 5 5 5 5 5 5 5 5 5 5 5 5 5 5 5 5 5 5 5 5 5 5 5 5 5 5 5 5 5 5 5 5 5 5 5 5 5 5 5 5 5 5 5 5 5 5 5 5 5 5 5 5 5 5 5 5 5 5 5 5 5 5 5 5 5 5 5 5 5 5 5 5 5 5 5 5 5 5 5 5 5 5 5 5 5 5 5 5 5 5 5 5 5 5 5 5 5 5 5 5 5 5 5 5 5 5 5 5 5 5 5 5 5 5 5 5 5 5 5 5 5 5 5 5 5 5 5 5 5 5 5 5 5 5 5 5 5 5 5 5 5 5 5 5 5 5 5 5 5 5 5 5 5 5 5 5 5 5 5 5 5 5 5 5 5 5 5 5 5 5 5 5 5 5 5 5 5 5 5 5 5 5 5 5 5 5 5 5 5 5 5 5 5 5 5 5 5 5 5 5 5 5 5 5 5 5 5 5 5 5 5 5 5 5 5 5 5 5 5 5 5 5 5 5 5 5 5 5 5 5 5 5 5 5 5 5 5 5 5 5 5 5 5 5 5 5 5 5 5 5 5 5 5 5 5 5 5 5 5 5 5 5 5 5 5 5 5 5 5 5 5 5 5 5 5 5 5 5 5 5 5 5 5 5 5 5 5 5 5 5 5 5 5 5 5 5 5 5 5 5 5 5 5 5 5 5 5 5 5 5 5 5 5 5 5 5 5 5 5 5 5 5 5 5 5 5 5 5 5 5 5 5 5 5 5 5 5 5 5 5 5 5 5 5 5 5 5 5 5 5 5 5 5 5 5 5 5 5 5 5 5 5 5 5 5 5 5 5 5 5 5 5 5 5 5 5 5 5 5 5 5 5 5 5 5 5 5 5 5 5 5 5 5 5 5 5 5 5 5 5 5 5 5 5 5 5 5 5 5 5 5 5 5 5 5 5 5 5 5 5 5 5 5 5 5 5 5 5 5 5 5 5 5 5 5 5 5 5 5 5 5 5 5 5 5 5 5 5 5 5 5 5 5 5 5 5 5 5 5 5 5 5 5 5 5 5 5 5 5 5 5 5 5 5 5 5 5 5 5 5 5 5 5 5 5 5 5 5 5 5 5 5 5 5 5 5 5 5 5 5 5 5 5 5 5 5 5 5 5 5 5 5 5 5 5 5 5 5 5 5 5 5 5 5 5 5 5 5 5 5 5 5 5 5 5 5 5 5 5 5 5 5 5 5 5 5 5 5 5 5 5 5 5 5 5 5 5 5 5 5 5 5 5 5 5 5 5 5 5 5 5 5 5 5 5 5 5 5 5 5 5 5 5 5 5 5 5 5 5 5 5 5 5 5 5 5 5 5 5 5 5 5 5 5 5 5 5 5 5 5 5 5 5 5 5 5 5 5 5 5 5 5 5 5 5 5 5 5 5 5 5 5 </DataArray>
</Cells>
<PointData  Scalars=" mean stress"> 
<DataArray  type="Float64"  Name=" mean stress"  format="ascii">6.0127514742890353e+00  4.7800138944498499e+01  2.7406064237950918e+03  7.6365801648749482e+01  9.2610981280446598e+00  6.1487739150819936e+00  2.9175197091009863e+00  2.0905570047888458e+00  1.4082153586571875e+00  1.0975348348772467e+00  8.7356534022646071e-01  7.1818806506449495e-01  6.0839440062416184e-01  5.2255173385691966e-01  4.6392140576078961e-01  4.1649242043697721e-01  3.8076996282741532e-01  3.5545968432609248e-01  3.3323144181988440e-01  3.1822753414734828e-01  3.0524903316062341e-01  2.9734618203990970e-01  2.9157094324225158e-01  2.8779485167730212e-01  2.8515114171138722e-01  2.8624584168778999e-01  2.8833966373515363e-01  2.8972703559214674e-01  2.9318620288523561e-01  2.9872633809222870e-01  3.0766851345615581e-01  3.1376540696721489e-01  3.2566087303705571e-01  3.3678456868832823e-01  3.4654034428760944e-01  3.6027839340570839e-01  3.7444984116106839e-01  3.8942300718848721e-01  4.0806426573159787e-01  4.2437391867197322e-01  4.4474666740217861e-01  4.6489216151441037e-01  4.8875320853634491e-01  5.0869511918991561e-01  5.3711747249024389e-01  5.6678279744089999e-01  5.9477885534346953e-01  6.2615324503119452e-01  6.5893351584726645e-01  6.9375894115679060e-01  7.3129467145389437e-01  7.7179041711898011e-01  8.1525659101400172e-01  8.5493552698130104e-01  9.0575932365249667e-01  9.5219876039790141e-01  1.0071551712867142e+00  1.0617792719901404e+00  1.1230729724974693e+00  1.1781016578444532e+00  1.2499624352399135e+00  1.3150897796903744e+00  1.3883544698291663e+00  1.4682719398242954e+00  1.5557084298196826e+00  1.6368487716831011e+00  1.7382458059113710e+00  1.7988791124506351e+00  1.9015815828018443e+00  2.0255823432865929e+00  2.1465799129134648e+00  2.2606826530471316e+00  2.3910176850012625e+00  2.5295202962184109e+00  2.6760443817585777e+00  2.8294248492563447e+00  2.9924391227649614e+00  3.1650230850660681e+00  3.3492041041173293e+00  3.5449258465865117e+00  3.7711850977549468e+00  3.9288610647468301e+00  4.1549038491469297e+00  4.4240399101709444e+00  4.7122205009128990e+00  5.0192799843218197e+00  5.3385537497614317e+00  5.6629782680085698e+00  6.0407104536738201e+00  6.3782029866625161e+00  6.8018435873947229e+00  7.1241754991792954e+00  7.5824280722621173e+00  8.1519385898702481e+00  8.6789355152484120e+00  9.6294057899383976e+00  1.0688301895435689e+01  1.0819863566978785e+01  1.1363115477378763e+01  1.2381878287680836e+01  1.3506383250822980e+01  1.4352804764104524e+01  1.5534932204352083e+01  1.6484167496368922e+01  1.7697105980002867e+01  1.8992081982294756e+01  2.0441024634884617e+01  2.1922649050500670e+01  2.3658583059176294e+01  2.5103357908609638e+01  2.7094138701044116e+01  2.7880897229572899e+01  2.9190146605854764e+01  3.1615187091199768e+01  3.3632742968621372e+01  3.5309816623510066e+01  3.6889793412659472e+01  3.8671616391085138e+01  4.0192022525729108e+01  4.0879054014439689e+01  4.1916183981059213e+01  4.1984548314108153e+01  4.1971877130555619e+01  4.4385371366655868e+01  4.6910734130698664e+01  4.3044400011656144e+01  4.4236600443214542e+01  4.5181198871483026e+01  4.5240205467419742e+01  4.6812589579537097e+01  4.7308354299196061e+01  4.3637012758631208e+01  4.4715017091812356e+01  4.5513315854044869e+01  4.5726248538833161e+01  4.5948825041800411e+01  4.6317518513691908e+01  4.6196221316713292e+01  4.6200852933640739e+01  4.6948697394165698e+01  4.8418803118141440e+01  4.2732795084998649e+01  4.2529256715649886e+01  4.1632732384061221e+01  4.2617402187908780e+01  4.3538753672508086e+01  4.4355725615424980e+01  4.5483110613047280e+01  4.6827583232124226e+01  4.8229705722924102e+01  4.9680250692883298e+01  5.1655397109854498e+01  5.3698108045890791e+01  5.5779331053485571e+01  5.8866062543634968e+01  6.2035612692754455e+01  6.6087543055892141e+01  7.1582884914882683e+01  7.7336060722918418e+01  8.4926869525695423e+01  9.2919085870444363e+01  1.0375663383798103e+02  1.2274526603656267e+02  1.4410986866718252e+02  1.9048013982123859e+02  2.5403215619574826e+02  3.7658850251767348e+02  3.2994339362517104e+02  5.0407326829645638e+02  2.9981832673236170e+02  1.9911465730700044e+02  1.5281544100673955e+02  1.2236925517310277e+02  1.0208729746570172e+02  8.7500672357303031e+01  7.6171678369429685e+01  6.7392428894127107e+01  5.9829492986485512e+01  5.4016328007619258e+01  4.8926561113454525e+01  4.4547118265998819e+01  4.1209832059857831e+01  3.8211877722998544e+01  3.5598372412344290e+01  3.3351444765450481e+01  3.1442564905942330e+01  2.9746835414595736e+01  2.8224407180065658e+01  2.6912775210438411e+01  2.5895238418234484e+01  2.5017004984531766e+01  2.4279264458289258e+01  2.3750612305775668e+01  2.3192897427626153e+01  2.2788026955756891e+01  2.2641957444653293e+01  2.2638241657679345e+01  2.2702431895338329e+01  2.2940494905567704e+01  2.3430983918912101e+01  2.4106741141246015e+01  2.5061951144699965e+01  2.6340568395085107e+01  2.8030004477173946e+01  3.0197380408100852e+01  3.3326118008222728e+01  3.7529183020577399e+01  4.3560695098844469e+01  5.2756724953716713e+01  6.7256235096425954e+01  9.4540033694970518e+01  1.5210344708016143e+02  1.9252919856872870e+02  1.2497967551315227e+02  7.6227766507704345e+01  5.3997172656273236e+01  4.1313098794950321e+01  3.3131099279720416e+01  2.7785406892124282e+01  2.3662977988905276e+01  2.0569053353769121e+01  1.8355905678987821e+01  1.6666976197668696e+01  1.5145673260749696e+01  1.3873540064757783e+01  1.2953477961619656e+01  1.2136782987190800e+01  1.1435155538613337e+01  1.0843957720544491e+01  1.0340054632001534e+01  9.9112827680240798e+00  9.5367516428153731e+00  9.2198489200369842e+00  8.9477545229929429e+00  8.7127553233194028e+00  8.5217980985175998e+00  8.3595217264131545e+00  8.2255831110882767e+00  8.1112957992661023e+00  8.0182882335381400e+00  7.9481219009260666e+00  7.8979343633274279e+00  7.8664287063675085e+00  7.8560430738768927e+00  7.8603192341553720e+00  7.8793236135464184e+00  7.9365968882951234e+00  7.9748974517725033e+00  7.9691870872544852e+00  8.0873001755341054e+00  8.1852616112410068e+00  8.2719028236250658e+00  8.3695177912162873e+00  8.5379894065354058e+00  8.6915695333839533e+00  8.8366734176875479e+00  9.0138343228984912e+00  9.1962711054379511e+00  9.3844153416521507e+00  9.6125899062648426e+00  9.8518278679733626e+00  1.0103412011505462e+01  1.0373988341987630e+01  1.0669294040788939e+01  1.0978447619558965e+01  1.1318777274368045e+01  1.1668861696304429e+01  1.2071292987771715e+01  1.2510111497517512e+01  1.2926128184993647e+01  1.3344935727236223e+01  1.3815054773048333e+01  1.4299135154029720e+01  1.4905536529327025e+01  1.5467630997157823e+01  1.6114723600957181e+01  1.6836740410882616e+01  1.7577659839946708e+01  1.8373039497343814e+01  1.9221294267143943e+01  2.0151596538764288e+01  2.1140735803624796e+01  2.2200140999250262e+01  2.3384471526234798e+01  2.4639598629728464e+01  2.6002536628167839e+01  2.7469933334025672e+01  2.9088664425327117e+01  3.0847294140549838e+01  3.2754139232543714e+01  3.4814184799931880e+01  3.7100743128139435e+01  3.9548013382406474e+01  4.2419990267811286e+01  4.5481181039143266e+01  4.8772238570429089e+01  5.2068873459424879e+01  5.5650986656387353e+01  5.9167314421447529e+01  6.3153337729268117e+01  6.6855434548772251e+01  7.0461328584543580e+01  7.3203632515833718e+01  7.5612266120862941e+01  7.7205526970798388e+01  6.3299561903446744e+01  5.3524547996556919e+01  4.6775930906650785e+01  4.1085828019246748e+01  3.7102843301667711e+01  3.3189845794245983e+01  3.0307026559105193e+01  2.7969858292297417e+01  2.5794402814647306e+01  2.4134052497353188e+01  2.2651319872107997e+01  2.1362222547980430e+01  2.0205006838906101e+01  1.9199449488937933e+01  1.8294798804050160e+01  1.7479449110234537e+01  1.6754296055842865e+01  1.6085958050897172e+01  1.5484362672041534e+01  1.4902858381907643e+01  1.4373856408868672e+01  1.3906222243721851e+01  1.3484020612126661e+01  1.3071046738962432e+01  1.2696438397429539e+01  1.2340104177060571e+01  1.2013002814419186e+01  1.1696383825304066e+01  1.1407588493323940e+01  1.1159749749303986e+01  1.0902674357691749e+01  1.0667446365177581e+01  1.0446162972316252e+01  1.0237161330618550e+01  1.0038533334555561e+01  9.8397295124693827e+00  9.6614020094514164e+00  9.4852802543855130e+00  9.3174479001984984e+00  9.1634132398189099e+00  9.0107323897929756e+00  8.8670787635566359e+00  8.7226298838763743e+00  8.5984435626740723e+00  8.4770616307993851e+00  8.3498605188427284e+00  8.2264699870272562e+00  8.1235908174563978e+00  8.0227535991900663e+00  7.9109416118457681e+00  7.8104999570415483e+00  7.7135294322904233e+00  7.6194925453848370e+00  7.5289121478702103e+00  7.4403390547870947e+00  7.3567598535979357e+00  7.2748573755477661e+00  7.1958076108609630e+00  7.1201502356749504e+00  7.0455022578809361e+00  6.9717456008008938e+00  6.9003019670546024e+00  6.8336631384621898e+00  6.7654208108373721e+00  6.6992810380493726e+00  6.6363049708363882e+00  6.5746320156142284e+00  6.5148545937187237e+00  6.4561733261237171e+00  6.3985795191185959e+00  6.3415351521545942e+00  6.2874296396829257e+00  6.2353395848443149e+00  6.1828213289308946e+00  6.1307281089847860e+00  6.0808917432932494e+00  6.0330120111986032e+00  5.9847820909600955e+00  5.9375117922240195e+00  5.8901834603804275e+00  5.8447699039455996e+00  5.8022677141968888e+00  5.7581076762717167e+00  5.7127068264907876e+00  5.6707577394525375e+00  5.6286274431919274e+00  5.5875378752135534e+00  5.5474325345789994e+00  5.5086742592459776e+00  5.4702144881408508e+00  5.4329870508659486e+00  5.3952332896444668e+00  5.3568050288103581e+00  5.3195541344079373e+00  5.2838083948889452e+00  5.2482527296347659e+00  5.2134882296802134e+00  5.1783865092590950e+00  5.1425401638248216e+00  5.1084321715710086e+00  5.0749939378214322e+00  5.0412241559267521e+00  5.0083827224853312e+00  4.9761327904760799e+00  4.9444549965867211e+00  4.9126515833757258e+00  4.8816733343080978e+00  4.8501020379367477e+00  4.8173500597106145e+00  4.7867420267970662e+00  4.7573409396244513e+00  4.7264425571630726e+00  4.6973272593356379e+00  4.6682713948434822e+00  4.6378431092512686e+00  4.6085957538969184e+00  4.5802585396284980e+00  4.5509310084730883e+00  4.5226121132434729e+00  4.4934984979129862e+00  4.4647113698546725e+00  4.4363209882327643e+00  4.4082231550556985e+00  4.3808360701701776e+00  4.3540106562024681e+00  4.3271167249558404e+00  4.2984541194749033e+00  4.2715788112400155e+00  4.2453800793727092e+00  4.2177886323552434e+00  4.1914982150351827e+00  4.1650028221464774e+00  4.1394133882545177e+00  4.1130992447230650e+00  4.0857579809293485e+00  4.0597055954740311e+00  4.0340126848960445e+00  4.0066087806412281e+00  3.9804579346739941e+00  3.9548427830934521e+00  3.9305646391794049e+00  3.9085119236942498e+00  3.8824945940436262e+00  3.8551347070073203e+00  3.8300062764003382e+00  3.8053126363958825e+00  3.7794155981819340e+00  3.7550347646213127e+00  3.7304853034988956e+00  3.7050035124184761e+00  3.6804579577217802e+00  3.6556222128727107e+00  3.6282689921640330e+00  3.6015858487093242e+00  3.5817656826625237e+00  3.5618883149874487e+00  3.5361018188409927e+00  3.5086454736099721e+00  3.4841577801194608e+00  3.4598230119407596e+00  3.4377757019072916e+00  3.4130608564714633e+00  3.3875815284182962e+00  3.3635655844863108e+00  3.3399518290777697e+00  3.3154345216062677e+00  3.2927351213284561e+00  3.2712582998587916e+00  3.2460004535744682e+00  3.2207461508565109e+00  3.1983373248155917e+00  3.1793865567512882e+00  3.1532311218556996e+00  3.1268410006598417e+00  3.1041591519817571e+00  3.0805358073894200e+00  3.0581466841079776e+00  3.0335003252652633e+00  3.0120433482639326e+00  2.9913985735345401e+00  2.9661029942875294e+00  2.9399472076374336e+00  2.9177470710482822e+00  2.8944389866725486e+00  2.8742246539633727e+00  2.8541579973679578e+00  2.8296475322488499e+00  2.8057089164375975e+00  2.7821653327242468e+00  2.7603114943801104e+00  2.7386825031187088e+00  2.7152500439348706e+00  2.6937941461270452e+00  2.6708938129327646e+00  2.6479361374547237e+00  2.6266235912015055e+00  2.6050977513833455e+00  2.5821741432109988e+00  2.5588568022313374e+00  2.5376504615272308e+00  2.5163464564617111e+00  2.4939685594747498e+00  2.4707544846987619e+00  2.4496866511112261e+00  2.4286384728692476e+00  2.4060360729353669e+00  2.3837217973235321e+00  2.3621176689347614e+00  2.3403869364060288e+00  2.3197538033423468e+00  2.2995893766006614e+00  2.2787896854514909e+00  2.2551622109151435e+00  2.2313640386123343e+00  2.2140289045858244e+00  2.1948789349327056e+00  2.1715398729359210e+00  2.1486299259811008e+00  2.1304423832683543e+00  2.1120157049303967e+00  2.0897099323401309e+00  2.0703040376557351e+00  2.0496435098774533e+00  2.0283617562958476e+00  2.0065806833450144e+00  1.9867416613346269e+00  1.9672373675029236e+00  1.9461011350011788e+00  1.9255152707705394e+00  1.9060434949663052e+00  1.8873365154659354e+00  1.8664640286365703e+00  1.8462996234074451e+00  1.8270593208646020e+00  1.8085623690873460e+00  1.7874740151515822e+00  1.7667686163027112e+00  1.7477889486636342e+00  1.7271655739355205e+00  1.7109015750923748e+00  1.6945653862142702e+00  1.6742399115774906e+00  1.6558715641376773e+00  1.6358959690302073e+00  1.6158698164032548e+00  1.5981705006990379e+00  1.5806505736173542e+00  1.5615563637007390e+00  1.5424184953038245e+00  1.5253366377449198e+00  1.5084010230323643e+00  1.4896610900331659e+00  1.4704435814748724e+00  1.4535317469563365e+00  1.4365262512934691e+00  1.4177381902167028e+00  1.4005876982550192e+00  1.3845031860815031e+00  1.3671878491600531e+00  1.3506548954945201e+00  1.3344438552282816e+00  1.3165233686132101e+00  1.2987014817254459e+00  1.2825931241554540e+00  1.2672833893398989e+00  1.2503384800430279e+00  1.2331626693155515e+00  1.2175419836900248e+00  1.2029351111592455e+00  1.1864717900951072e+00  1.1700482289200587e+00  1.1549614520969775e+00  1.1393076464866716e+00  1.1241702261801947e+00  1.1093625029484009e+00  1.0968534790958913e+00  1.0789137076173283e+00  1.0603707155015991e+00  1.0510350296633586e+00  1.0393804674736744e+00  1.0215585475949476e+00  1.0032221999223321e+00  9.9498504631005269e-01  9.8290471243419864e-01  9.6655826826566926e-01  9.4950522528473424e-01  9.3956284007007440e-01  9.3106230271929502e-01  9.1562495441592406e-01  9.0355693967954276e-01  8.9054707969719993e-01  8.7937072570921759e-01  8.6510011477467086e-01  8.4684748623267458e-01  8.4208637347793969e-01  8.3858324551306374e-01  8.2149465573152725e-01  8.1088439585198879e-01  8.0057172944510246e-01  7.8422770008196818e-01  7.8179765028524628e-01  7.7467579513563700e-01  7.6322375117744967e-01  7.5600118125298532e-01  7.4984654578810361e-01  7.4068531725208731e-01  7.3435948514126037e-01  7.3191308386717358e-01  7.2334153695305858e-01  7.2235034933584263e-01  7.1798417236093826e-01  7.2323210636606172e-01  7.2014655236431979e-01  7.0763202350606857e-01  7.2710046199786327e-01  7.5122323725262907e-01  7.4612670548731341e-01  7.4862754461975800e-01  7.7970038437050970e-01  7.9569430521190820e-01  8.2251931536705336e-01  8.9684193246465049e-01  9.0411626181028493e-01  1.0662079402291353e+00  1.0099128668496162e+00  8.7081714455008996e-01  9.0880364118868961e-01  7.0117022318792710e-01  4.6594644228493554e-01  3.2401486176920397e-01  1.6157865462037801e-01  2.0886921051165525e-01  1.4696190945605322e-01  1.4278178643418724e-01  1.4136126661098236e-01  1.4992223925838177e-01  1.6271783776545792e-01  2.3988484168463800e-01  3.0486691647034309e-01  3.2964766698035786e-01  3.5293023212803537e-01  3.5817695963626206e-01  3.6013441675589591e-01  3.6881882855396420e-01  3.7518275757534447e-01  3.8447322734158734e-01  3.9455899643382175e-01  4.1253509180797626e-01  4.1978533704058180e-01  4.3151721785302422e-01  4.6188415239397657e-01  4.8557269676616693e-01  5.2780477382617808e-01  5.8245836661443307e-01  6.9415820994816513e-01  8.4180062901129726e-01  1.0522933506783390e+00  3.1049945173071607e+00  3.6253143404953385e+00  2.6036783679593878e+00  4.1390173037708182e+00  2.1683168767236367e+00  1.7730826512229023e+00  1.4330809541760912e+00  4.6425564760587612e+00  5.2132946114803227e+00  5.8468550177332288e+00  1.1732957359182914e+00  6.5749588905521312e+00  9.6640602885951654e-01  7.9540048269843278e-01  2.5787405398183210e+00  9.6196950032588049e+00  7.1516167686452825e-01  7.4455668833773716e+00  8.7400111944292078e+00  8.5336318635357529e+00  1.3855124253453146e+00  9.2333978318403940e+00  8.4336132167015032e-01  1.1397398656960458e+01  5.2072823393040057e-01  1.5182168657026560e+01  1.0445456019461419e+01  7.2619808039726841e-01  1.9671313511944934e+00  3.8895389068837334e+00  2.3851969118606782e+00  3.3886526778131310e+00  2.8327029831037183e+00  4.4947993139211517e+00  1.5566615650714155e+01  3.5672099112147093e-01  4.5090829839084044e+01  1.2443229791071007e-01  7.0677373909351964e+00  1.3501697736580642e+01  5.5075720490454492e+00  1.3015079127696341e+00  4.9459117846822682e+00  1.5787480869178967e+00  4.4079645740272149e+00  2.1799482349436243e+01  3.0410122378240345e-01  3.2886132062902817e+01  1.1990541676966664e+01  2.3236165598655295e-01  2.4600528273982036e+01  1.8248172554437094e+01  2.0053530189843453e+01  3.2967748068116559e-01  2.6209218410091722e+01  2.7746945985522547e+01  1.8745372135390603e+00  3.2251163147119875e+01  3.5426511691914991e-01  8.0189736872051274e+00  7.4475355613875394e-01  6.9746269273324950e+00  8.6315331534199868e-01  6.2353878884137499e+00  1.0512653516998118e+00  3.2508658804986883e+00  2.9679184523719839e+00  3.2204373348004239e+01  5.5269766056354122e+01  3.3245418400682873e+01  3.4915030035663197e-01  4.6481329352840312e+01  2.5612898845039904e+01  3.6518582582184294e+01  8.5940937634680978e+01  3.9060566486602490e+01  4.5620056980169904e-01  4.6045483506309978e+01  8.4971214832440964e+01  2.7215462559707220e+01  1.5574035119363998e+01  4.7654562995743589e+01  9.0469713516859489e+00  5.5840945697538986e+00  2.1633763879524317e+01  3.2036688939834299e+00  1.1009117616907062e+01  8.6762894116368425e+00  1.0320369836404595e+00  8.6935241950344686e+00  6.2946770575781430e-01  1.0296978941251224e+01  1.3708212252174803e+01  4.0808213102898161e-01  3.2010088850530438e-01  1.8351549276757659e+01  3.0337765323333060e-01  2.6409598875869719e+01  4.5500781623961217e+01  1.5490256254702990e+01  4.2821746257317950e-01  1.1987356947136920e+01  1.3202722683187246e-01  9.6759883942701936e+00  7.1463118100674683e-01  9.1807158827950208e-01  6.0348279446432675e+00  1.1102956130514565e+00  5.6675115555066773e+00  5.3591908903352952e+00  1.3701186691132687e+00  1.2358477136194828e+00  5.0768870380557125e+00  4.8212948797503161e+00  1.6524861099016193e+00  1.5061975626412727e+00  1.8498023263989303e+00  4.5254949542526264e+00  4.3014966769566350e+00  2.0500194568720378e+00  4.0340226020340797e+00  3.7826279648476504e+00  2.2519159941849156e+00  2.4718139563003421e+00  3.5388983381010832e+00  2.6925938242233975e+00  3.7313638348029215e+01  6.4712284030576195e-01  1.3875204349935328e+02  5.2698984259921190e+01  4.0231307914164205e+01  1.4976740179953669e+02  6.5457382065291003e-01  3.9607513962187937e+01  1.1099948885069631e+02  8.1431038754097372e+01  6.9539574358924114e+01  6.5004458957177860e+01  5.8080095614077138e+01  5.4807458888933901e+01  5.0484126411013207e+01  5.9237523522679275e+01  5.1276044652251571e+01  5.4070952145887382e+01  6.2963297396944171e+01  4.8209518407807330e+01  4.6224662496507086e+01  4.9994188803331483e+01  5.2162348946300355e+01  4.6538281622578346e+01  4.6996608086128830e+01  4.2944930939298054e+01  4.2801591568181820e+01  3.9933395211886648e+01  3.9781124220094945e+01  3.7456524143137422e+01  3.7309732938455269e+01  3.5215568470812350e+01  3.4970061132722961e+01  3.3037553642675064e+01  3.2730368006423646e+01  3.0947465877130451e+01  3.0415041041243210e+01  2.8642757603918856e+01  2.8198856761700455e+01  2.6220011842903055e+01  2.5647383716475645e+01  2.3600695713406008e+01  2.3003157145871519e+01  2.0920261384715634e+01  2.0341074502470644e+01  1.8385732903001319e+01  1.7773466350733962e+01  1.6041044140897569e+01  1.5538699300443730e+01  1.4084461470597740e+01  1.3603255203950301e+01  1.2369012091858057e+01  1.1976326701285670e+01  1.0920483833071465e+01  1.0627605907346103e+01  9.7335401099094288e+00  9.5413098744548268e+00  8.7619597520625412e+00  8.6475748900091567e+00  7.9577142857973628e+00  7.9139607767250428e+00  7.3057328233551031e+00  7.3160203511381194e+00  6.7717348190962454e+00  6.8170541140693883e+00  6.3319821607382556e+00  6.4222699079369026e+00  5.9747257337143651e+00  6.1267549443592859e+00  5.6929037866527032e+00  5.8774645747996734e+00  5.4485397180111494e+00  5.6765689293818324e+00  5.2556005258414702e+00  5.5378597736483357e+00  5.1394359162615588e+00  5.4319701683845238e+00  5.0317006287530024e+00  5.3624543954416586e+00  4.9601666673377753e+00  5.2991058755096212e+00  4.8937781346601712e+00  5.2613809375918832e+00  4.8448270805077884e+00  5.2005369198125022e+00  4.8065222534694669e+00  5.1561986075531401e+00  4.7545702252907018e+00  5.0955234473899091e+00  4.6794520139845490e+00  5.5418066291513419e+00  5.4676691804357249e+00  5.9310810407415362e+00  5.8430998337763578e+00  6.3370705073342650e+00  6.2033823007990216e+00  6.7273683750184068e+00  6.5315382295486790e+00  6.0103639931795572e+00  7.0885574809037921e+00  6.8348681324172142e+00  7.3959015011579199e+00  7.0613226206832831e+00  7.6265977678275814e+00  7.9890235404623438e+00  7.2222709798805527e+00  7.7744828047008818e+00  7.3293848769388052e+00  6.7606032795013586e+00  7.8828707644679739e+00  7.4032384201913706e+00  7.9383622986377356e+00  7.4347158721257713e+00  7.9506178981480602e+00  7.4166650392203062e+00  7.8879577643430867e+00  8.4546560947956486e+00  7.3575847191039943e+00  6.8890320596718322e+00  7.8298385846928245e+00  7.3199231312983839e+00  7.7697269835476259e+00  7.2778183375444554e+00  7.6998490768619279e+00  7.2468625936774194e+00  7.6471030960848507e+00  8.1408412343809573e+00  7.2239749357633567e+00  7.6077555362202576e+00  6.8186775491358755e+00  4.3857991470399007e+00  4.3044868509676961e+00  4.0458132372443147e+00  3.9595925362102653e+00  7.2123959327677909e+00  7.5809109203407044e+00  3.7268701767763810e+00  3.6386963270685797e+00  7.2134517764384540e+00  7.5659084695798171e+00  5.8492793544972539e+00  7.2246301995376010e+00  7.5666083215792304e+00  7.9062096605137908e+00  3.4342010481751837e+00  3.3436092133157653e+00  7.2533650421308034e+00  7.5905314328073716e+00  6.9309450891622166e+00  7.3000153638848131e+00  7.6320314258322846e+00  3.1608082345537309e+00  3.0709607545155473e+00  3.2340930158332721e+00  2.9846808537451928e+00  3.1331932440284356e+00  2.8899572039145442e+00  3.0189059793305710e+00  2.7929024322125202e+00  2.9087459633731436e+00  2.6937182467700929e+00  2.5875024055813487e+00  2.4955367250676654e+00  2.3962524120985007e+00  2.8057000850178984e+00  2.3109898520469137e+00  2.2315388713282891e+00  2.1450667846250098e+00  2.0609956590901897e+00  1.9865624767878414e+00  1.9051944559203184e+00  1.8451541805503981e+00  2.0681253796210926e+00  1.7712171966290269e+00  1.8330585424364192e+00  1.7103770460870260e+00  1.6417124204153104e+00  1.5860936097383527e+00  1.5228468421155081e+00  1.4729366243053630e+00  1.5296265919163763e+00  1.4225727675362216e+00  1.3686542415015137e+00  1.3243498865343066e+00  1.2697131803432826e+00  7.3707429448128750e+00  7.6940991694337209e+00  1.4785792237496245e+00  1.2292427950753388e+00  1.1772249206009466e+00  7.4521027427353248e+00  7.7735733657398072e+00  8.0194090239601525e+00  1.1439802807012625e+00  1.0983031894151052e+00  1.1176029874315960e+00  7.5514669119683537e+00  7.8746840962841818e+00  7.2197696781999978e+00  3.2507440748213368e+00  1.0641699852473330e+00  1.0192989314791112e+00  7.6727514640417063e+00  7.9960124188979416e+00  9.8805560725761488e-01  9.4429986520092679e-01  1.1133496029397774e+00  7.8065158685730713e+00  8.1488796692049998e+00  9.1578695200336790e-01  8.7292072644464802e-01  7.9693731439145203e+00  8.3129950540068389e+00  8.5388215164160215e+00  7.6652006583808827e+00  8.4665069238829782e-01  2.9902260991346648e+00  3.0871274424610307e+00  2.8374311731240640e+00  2.9393651106762375e+00  8.1484306683563759e+00  8.5101586281829196e+00  8.0499763820131831e-01  8.2949626527108022e-01  7.8080560091428086e-01  8.8799839953447823e-01  7.4115407518788678e-01  8.3577578781262094e+00  8.7240471790575782e+00  7.1777263492573307e-01  2.7019006327768085e+00  2.8218640518706195e+00  4.9051867410809304e+00  6.6031806084012086e+00  8.6111317953982081e+00  8.9906977641555503e+00  8.2235271453998298e+00  6.8025909792773021e-01  6.5472991518807233e-01  8.8966262370005822e+00  9.2967708605346822e+00  9.3659358344421264e+00  6.9223560381572902e-01  6.2100484109089260e-01  5.9425885262856637e-01  3.0093781169369653e+00  2.8968174691728499e+00  3.1086628455800134e+00  2.9948332634952881e+00  3.1910467605509818e+00  3.0670578130317931e+00  3.2720897834543510e+00  3.1353709284041589e+00  2.9422978527985806e+00  3.0038061900993620e+00  2.8310129064732981e+00  2.8868232001801748e+00  3.0534395448445655e+00  2.7288959667550832e+00  2.9417219333332691e+00  3.0999300599563755e+00  2.9933439627130558e+00  3.1447822837624742e+00  3.0415699400671774e+00  3.1769127486404747e+00  3.0779944662230285e+00  3.2140157437981762e+00  2.9360484681636727e+00  3.1187264693594106e+00  3.2557772271822754e+00  3.1611915126574104e+00  3.2960955696347032e+00  3.3353877784921355e+00  3.2039116083917674e+00  3.3335018754447159e+00  3.0745815155886924e+00  3.2487587910933078e+00  3.3693832862586683e+00  3.2852004668914812e+00  3.4048737890404221e+00  3.4955281182317068e+00  3.5317669103776073e+00  3.6285186164484675e+00  3.6617620805895941e+00  3.5756350359544462e+00  3.6984744212164831e+00  3.7949679489233183e+00  3.8272444697011538e+00  3.9341337901098017e+00  3.9616229783189221e+00  3.8590637962271943e+00  3.9898080630927395e+00  3.8922691373098104e+00  4.0188506502954322e+00  9.2020332379023788e+00  9.6410669902002279e+00  4.1253596220526942e+00  4.1485674670224704e+00  4.0493553206357067e+00  4.1748571852096736e+00  4.0814407289193388e+00  4.2028446319349060e+00  4.3026636503435221e+00  4.3277318289412978e+00  4.4355825964946725e+00  4.4573765588027570e+00  4.3567758641565950e+00  4.4817374303065058e+00  2.5828871323809732e+00  2.7142593881905261e+00  9.5702853042556644e+00  6.8370095107806135e+00  5.6403367535326188e-01  5.8920117288513441e-01  5.3679430134279726e-01  9.1717940271380591e+00  1.0040877509219040e+01  4.3867276830405633e+00  4.5073070766138219e+00  5.5658530748722033e+00  4.6085272225565097e+00  4.6317764737856164e+00  9.9784396877575450e+00  5.1187422587490228e-01  4.8202408249138423e-01  5.0880392601399616e-01  4.5325879184887121e+00  4.6587330989280158e+00  7.9575545507222305e+00  1.0467307893771919e+01  1.0651217146343187e+01  4.7571622844931873e+00  4.7826229633934974e+00  4.6902406854288978e+00  4.8110801332348005e+00  4.9102729974315054e+00  4.9354384129695852e+00  4.5280650441054510e-01  4.3050555862690393e-01  1.0420782212147431e+01  2.4806896239414873e+00  2.6130373121132044e+00  4.8410222251855348e+00  4.9618989909281810e+00  1.0947120046139105e+01  5.0432000834306683e+00  3.9663174544996582e-01  3.7892773233131810e-01  4.8275895912884637e-01  1.0927750209237134e+01  1.0364435946430710e+01  4.8773135660520905e+00  4.9909759875885849e+00  3.4679807273834523e-01  1.1551818354818003e+01  1.1515472542030198e+01  3.3401510659429851e-01  3.6513198838481858e-01  2.3621161714902854e+00  2.2683348603874229e+00  2.1589849238593559e+00  2.0896373597789131e+00  1.9710360121510830e+00  6.7777184015747274e+00  3.0381255410623936e-01  4.9134215272835249e+00  5.0248678204134380e+00  5.1087464842057804e+00  5.1448616197586752e+00  5.2321215959153111e+00  5.2669027661286885e+00  4.8113815195799789e+00  5.3613691636909051e+00  5.3941969422213871e+00  5.3076604392642910e+00  5.4337200833516679e+00  5.5275422387762863e+00  5.5593700127022121e+00  1.0454781657712806e+01  3.4155043620206547e+00  3.4913830288682370e+00  5.4760384402745315e+00  5.6072718979365010e+00  5.6988396826050147e+00  5.7419711485750708e+00  1.2226646329680536e+01  1.2225490847678332e+01  1.2219836971276345e+01  2.8525095739876400e+00  2.7603094574024225e+00  2.9710705492164685e-01  3.2244115947666091e-01  2.6902586741981271e-01  5.6576635831853066e+00  5.7913468895579232e+00  5.8797611187030538e+00  5.9300456160494877e+00  4.9503721172978477e+00  1.3015069076062652e+01  1.9088700692256062e+00  1.7971172592421261e+00  2.0332968600228618e+00  1.3036520869427967e+01  3.6461396326406597e+00  3.7344150682139157e+00  1.2264918276911695e+01  2.6844653455570427e-01  2.4155389188999188e-01  5.8447650385001166e+00  5.9847275736015773e+00  6.0766140946632996e+00  6.1330567321279830e+00  2.9979801557288450e+00  2.9203466304730044e+00  2.6743763244016514e+00  2.5825661977302907e+00  8.9796983450855912e+00  6.2314104399982115e+00  6.2902339020656983e+00  6.1949258473881912e+00  6.3544663532711496e+00  2.2853336507381634e+00  2.5276688704636996e+00  2.4438435796816096e+00  2.4972618264926179e+00  2.3674845198503647e+00  2.4176291425696932e+00  2.3024696870084744e+00  2.3493020965420102e+00  2.2472086313593147e+00  2.1949750347004353e+00  2.1427227452024500e+00  2.2956133283742792e+00  2.0943070350026431e+00  2.0507461716371544e+00  2.0077464647655971e+00  1.9676909380151368e+00  1.9216013544016652e+00  1.8808857113065165e+00  1.8416648108946625e+00  2.0082730598264988e+00  1.8040941908116155e+00  1.7656743792909988e+00  1.7332163565554493e+00  1.6916971350385792e+00  1.8174259394695642e+00  1.6599518895820513e+00  1.6223502728492523e+00  1.7729643604717114e+00  1.5957743572895504e+00  1.5566024444140727e+00  1.5839681839740509e+00  1.5176556432158026e+00  1.4936716565870418e+00  1.4553294350759882e+00  1.4338556403402827e+00  1.3960350907903512e+00  1.4182924873930813e+00  1.3591855544920846e+00  1.3398684986020781e+00  1.3015603735003598e+00  1.3223492045988223e+00  1.2653236866536275e+00  1.2476817040456611e+00  1.2119133593763753e+00  2.0529303664564500e+00  1.1968399133488543e+00  1.1618043273138119e+00  1.2850404496222065e+00  1.1491716811169070e+00  1.1149785493306381e+00  1.1259192405154379e+00  1.0804712132545358e+00  1.7416798061294476e+00  1.6389278889516783e+00  1.0711658606772194e+00  1.0375241556687647e+00  1.0464595030651740e+00  1.0031152602856250e+00  1.3927971752804543e+01  1.3973310384255063e+01  1.1842089426978859e+00  9.9604182613504200e-01  9.6063864393037657e-01  6.4648017404229661e+00  6.5229874018313589e+00  2.4750181412138295e-01  2.7165561136105865e-01  2.2383708657092652e-01  6.4208954242909888e+00  6.5985485686037153e+00  6.7202878932968275e+00  6.7802765889086576e+00  3.1583724688922072e+00  3.1003099592540164e+00  2.8675211648439110e+00  3.0671752512523116e+00  3.3043849331354247e+00  3.2889588828535570e+00  3.5356181759431125e+00  3.5371985452961878e+00  1.5100011165876815e+01  1.6952933666934060e+00  1.5420155761902583e+00  1.4929903834724361e+00  1.3981285055086310e+00  1.4515636758024630e+00  1.3166552943024028e+00  3.8924732776456992e+00  3.9897368137317484e+00  2.1414669589108909e-01  1.2709942586485827e+00  1.1915859780625464e+00  1.2465423778825941e+00  1.1191668524188461e+00  5.7103258785869953e+00  3.7931856637536918e+00  3.8065298403558461e+00  9.6844950435516219e-01  9.2756080593034262e-01  9.2180677150187895e-01  8.9086462733301786e-01  3.1917361185989432e+00  8.8636158425470613e-01  8.5149016827305313e-01  8.5001178194109583e-01  8.1890972839667286e-01  1.4992211189916990e+01  1.4932944712587993e+01  1.5105192469140922e+01  1.0824644167893085e+00  1.0157414194075656e+00  4.0822148171639183e+00  4.1394127729167005e+00  4.4029532432575120e+00  4.4838881570747517e+00  6.6772830800903931e+00  6.8644777910664185e+00  6.9684764532564936e+00  7.0613999765612352e+00  2.3412147948758660e-01  2.1384577219365353e-01  2.8400531657913457e+00  1.2870411347171641e+01  1.0524761499416706e+00  9.5396917136470250e-01  9.2242462513019974e-01  8.6435519137660277e-01  8.1967887727078148e-01  7.8369788636271853e-01  7.1715548108221725e+00  7.2706535876217053e+00  7.1637571123322887e+00  7.3800023904597865e+00  7.4959310320039769e+00  7.6153548933016806e+00  7.8235833035228253e-01  7.4748211118851227e-01  7.5061873058594919e-01  7.1341606278555492e-01  7.0738169865838274e-01  6.7123947861023792e-01  2.3911334972734046e+00  1.6302293044725115e+01  1.6412681073456476e+01  1.5195932249631340e+01  8.3823592451866358e-01  7.8623026586158518e-01  8.1332957182078447e-01  7.3886922308781833e-01  4.5861976464177587e+00  4.7697267706858684e+00  4.8942974441918192e+00  4.1634047751437251e+00  4.2711106031792108e+00  6.8214997837198998e-01  6.3626248862230728e-01  2.3930735624348327e+00  2.3386952767323121e+00  2.5386606716007538e+01  2.4334895989005023e+00  2.3785353012697374e+00  2.2889340510229292e+00  2.3306212237814088e+00  2.2491598010059373e+00  2.2877598617317103e+00  2.3709384593251701e+00  2.2110606072924486e+00  2.3270895878772517e+00  2.4057381684887305e+00  2.3778307878594838e+00  2.4459200605806113e+00  2.4185112793686105e+00  2.4867457110102111e+00  2.3482441041658935e+00  2.4613306714626777e+00  2.5282762871338194e+00  2.5193693624430114e+00  2.5035887090695046e+00  2.5688583136284078e+00  2.5445149836323822e+00  2.6091424785591353e+00  2.6365954983102333e+00  2.6769012687911609e+00  2.7066987091857833e+00  2.7456380900976547e+00  2.7168042213946739e+00  2.7853689390878684e+00  2.8165813856752253e+00  2.8548357263003998e+00  2.8243150092473241e+00  2.8903097725196218e+00  2.9233656665448104e+00  2.9633340497525906e+00  2.9295539138090438e+00  3.0044830790410395e+00  3.0356206314514860e+00  3.0731128629761941e+00  3.1083323779140253e+00  3.1439851624949835e+00  3.1116913508096338e+00  3.1809166859469631e+00  3.2171783460001917e+00  3.2530360531770266e+00  3.2931088030451452e+00  3.3303751928467813e+00  3.3714247927296861e+00  3.4060143096362956e+00  3.3679448663880702e+00  3.4406421302996408e+00  3.4057868185546467e+00  3.4769738932425924e+00  3.5152389989826318e+00  3.5503846130858880e+00  3.5925986476022147e+00  3.6262011061170125e+00  3.5874668904894653e+00  3.6609478867097707e+00  2.4825614640759337e+00  4.0726006666135435e+00  4.3484764809492571e+00  2.2775847131019650e-01  2.1113836177374087e-01  3.7022554770842251e+00  3.7349482355956618e+00  3.6970836255503499e+00  3.7687756466814282e+00  3.8099016946531301e+00  3.8426840729211889e+00  3.8874954474643983e+00  3.9195641153340701e+00  4.0523296136284914e+00  3.8748321512738468e+00  3.9534043907160821e+00  3.9969851994957315e+00  4.0280341928344843e+00  3.1497971721032769e+00  7.7407304509109558e+00  7.8701967476229902e+00  7.7440500143325446e+00  8.0118087834626479e+00  1.6503710378226927e+01  1.7962225545822267e+01  4.1292378289126939e+00  4.4053132309718839e+00  4.1878815838610608e+00  4.4548676882184219e+00  4.6858440650741615e+00  4.7290824956491839e+00  4.4958199071338090e+00  4.7565673624468960e+00  2.1613058789129976e+01  3.2507063385048816e+00  3.0846277982453651e+00  4.9879188603931075e+00  3.5520798447899442e+00  8.1469062956602833e+00  8.2968538788154937e+00  5.1980522105117339e+00  5.3546637754589526e+00  3.9913968529324606e+00  4.0628080849162158e+00  4.1042272473541885e+00  4.1380140944346984e+00  4.1817862504104406e+00  4.2148373149734537e+00  4.5263960943361461e+00  4.7754225980786025e+00  2.5238262835872356e+00  2.0450247250431750e+00  6.9316389162538465e+00  6.8734085422835065e+00  6.8856851771199628e+00  5.6932045259060668e+00  5.8997693241493163e+00  7.0434442753053066e+00  1.2719668301626075e+00  5.3315840066040829e+00  7.6561166355791865e-01  6.9592811138439026e-01  6.7164001128827389e-01  6.3184070536851888e-01  1.5242450995497196e+01  2.4041823734262313e+00  1.7753378269495699e+00  1.6350081713196363e+00  1.9789496489492816e+01  6.1199934846489530e+00  1.6710221642792337e+01  6.2461410825621737e+00  1.9673180600681156e-01  1.9835816469613568e-01  2.1436478795024352e-01  9.8731531001507522e-01  3.7334105117012899e+00  6.5338356324391391e+00  1.8081427117883340e+01  4.2602906874620503e+00  4.2923773722074285e+00  4.2494364772402946e+00  4.3267199662188780e+00  4.3718563143610103e+00  4.4036613375499813e+00  1.4716584683391429e+00  4.5740990536463366e+00  4.5590981056622564e+00  4.7096591993089767e+00  4.6972568625453723e+00  4.8694854805799279e+00  4.8675068556181076e+00  5.0516485388514445e+00  5.0582245900483152e+00  5.0517336674238384e+00  4.8610080340606618e+00  5.0628108806367322e+00  5.2459794589536877e+00  5.2530115581801411e+00  4.8439655739655123e+00  5.0614969216965946e+00  3.1652355021488821e+00  9.3355992182921421e-01  8.1643577817233375e+00  8.4639934141025286e+00  8.6101570387564461e+00  8.7955623709510995e+00  9.1622826697828219e-01  8.8247740731473201e-01  9.1133241690278755e-01  6.6395440603161937e-01  6.5340525117079129e-01  6.0262340021843164e-01  3.6656857178599522e+00  5.3886965810333711e+00  1.5450755991593015e+00  1.1386377712604607e+00  1.1719759913058607e+00  1.1296935657094236e+00  1.1608444269854210e+00  1.2039962372030355e+00  1.9840064121303239e+01  6.9574347267314196e-01  1.4153886573424377e+00  1.4532337795154600e+00  1.4012927256980880e+00  1.4362638246213042e+00  1.3896862265324115e+00  1.4238809651228734e+00  1.4722396242925042e+00  4.3094217395511230e+00  2.8500299988583251e+00  1.0912071557293259e+00  7.6400910149721535e-01  8.1746212306647825e-01  7.2707312038920202e+00  7.0661796652247650e+00  5.9027216351164791e+00  5.7711039398391470e+00  5.8286781574383841e+00  5.7066519346506643e+00  5.7656730065882815e+00  5.6516334699182300e+00  5.8843239895791797e+00  5.5937442533724653e+00  5.5435799494473823e+00  5.4881341827186505e+00  5.4419225677086427e+00  5.3887989388548059e+00  5.3034047576838086e+00  5.3113070768763944e+00  3.4542679415021418e+00  1.9616354733076353e+01  5.0310828997842352e+00  4.3625805802955249e+00  4.4374761209470783e+00  6.1179001131636257e-01  5.7477501123944696e-01  1.8179206430713396e-01  5.4700286299198719e+00  5.4409947488653687e+00  5.5974394144779485e+00  5.5718031838288065e+00  5.7420150730201414e+00  5.7283995932329521e+00  8.8908047685991569e+00  3.4423558873664031e+00  3.3768519781658073e+00  3.3386779516271008e+00  4.1032214210010345e+00  8.2311702374456708e+00  7.9477355930620748e+00  2.4681339956998345e+00  8.0321908162385647e+00  8.4037377906275967e+00  7.0027044358212864e-01  8.4741244452475115e+00  9.8864052954123838e-01  3.2831536135157835e+00  2.0677064402135389e-01  1.3087945423650140e+00  3.7846609690690807e+00  2.4731030259030426e-01  4.3745039360497184e+00  5.4542736198786441e+00  5.4646960033561713e+00  4.4426916643226058e+00  4.1990302311931007e+00  7.6236030502580379e+00  4.5172201774807661e+00  7.0900271513012267e+00  6.1790893464541705e+00  6.3458238238622418e+00  6.2942009310568059e+00  6.4772660388086472e+00  6.4288100486479660e+00  4.5640660369468193e+00  7.0409376875500862e-01  3.9101848584315841e+00  9.7894679750058755e-01  9.4290366925927183e-01  9.9280057868119864e-01  4.1450583925510331e+00  5.0227259919969818e+00  3.8567097322660566e+00  3.9401286467205265e+00  1.3465735652590476e+00  1.3064415601670802e+00  1.3733965598818358e+00  1.3315279592942921e+00  1.4020051601578409e+00  1.2647190922712650e+00  3.0734156693621797e+00  2.4725793441171620e+00  2.3339338930604612e+00  1.5726258137784290e+00  6.6216896432194439e+00  6.6747020049885464e+00  1.4589725527614672e+00  1.5040652888665478e+00  3.4316374447773361e+00  5.7622744078938934e+00  5.9176011657436405e+00  5.9423351694359186e+00  5.9647355231971244e-01  5.4102653862281425e-01  5.2486403708021445e-01  4.9429787025233041e-01  5.0893099643088213e-01  4.6500443615414777e-01  3.4019560674037632e+00  1.3797265459418895e+00  7.1727302259675518e+00  6.9855912278084054e+00  1.0222790766031027e+00  1.1328322893175027e+00  3.1772014786725070e+01  2.4661730539221312e+00  1.1955785619494210e+00  8.9564281136762141e+00  9.1582377938269008e+00  8.9945817633151783e+00  9.3745559043474262e+00  9.5623466887790229e+00  9.8040037420989492e+00  5.8371613647266463e-01  5.4391678114397490e-01  5.6530023813037678e-01  5.0100956149909959e-01  2.2493748042695799e-01  2.3272116707311327e-01  2.8861455942542072e+01  3.9606344421055812e+00  8.3310492738406694e+00  8.0473841830143513e+00  2.4982464594535201e+00  5.3444607167689258e+00  5.2929273515717403e+00  4.0927434464002639e+00  2.0031797588265288e+01  2.2181758131426655e+01  6.8995251703201976e+00  7.2588006552029851e+00  3.1232379746016985e+00  7.8850416964462369e+00  1.1233039160291449e+00  1.0918692999949917e+00  1.0013583884371299e+01  1.0288130575422116e+01  4.8389702940486390e-01  4.3525868707905868e-01  4.5792135183187760e-01  3.8617135768837579e-01  5.8274172788700191e+00  5.9448174660029505e+00  8.8157160439093962e-01  6.6045026407524166e-01  7.2437676470832701e-01  5.2515871132483039e+00  5.2016009958480183e+00  4.1956385941025136e+00  4.4533045823110786e+00  2.2288702206778385e-01  5.2501127211817229e+00  5.1579260279858259e+00  5.1123246208954951e+00  5.0656310535436466e+00  5.0246615201326970e+00  4.9791305716096694e+00  3.0623308334284682e+00  8.7676798224370067e+00  3.4143274613693411e+00  4.7694196775682840e-01  4.3516221517688686e-01  4.2702141620426920e-01  4.0035159271153564e-01  3.7022462816740114e+00  6.1047404130041301e+00  6.0951523970945729e+00  5.1686084831102486e+00  2.1721294730145191e+00  2.1408073698198238e+00  3.3540918119728516e+00  7.6377465701047180e+00  8.0989390671973975e+00  8.5393880297655027e+00  9.0944469100658747e+00  6.2459118663032829e+00  6.3879401446525641e+00  3.7701767975379923e+00  2.1000912635034994e+00  2.0739474969342790e+00  2.1139542927351713e+00  2.0509417590560961e+00  2.0925703303749246e+00  2.0103418719907462e+00  1.9916037912871603e+00  1.9503345755276149e+00  1.9311460616836709e+00  1.8925392900351787e+00  1.8770534418367280e+00  1.8393396613858624e+00  1.9693186339217656e+00  1.8259336737504079e+00  1.7886417950857185e+00  1.7778024691888719e+00  1.7396936186944565e+00  1.9080794580830507e+00  1.8621719455593717e+00  1.7511606061942930e+00  1.7030309489187874e+00  1.6939148525325585e+00  2.5075979914518531e+00  6.5455244904560930e+00  4.2536916072656739e-01  4.4019353105967456e+00  4.4730272094575003e+00  4.3266002013952889e+00  4.5131213494391433e+00  4.5479708282859770e+00  9.0883608425065265e-01  9.3918872775480544e-01  7.4598242172746188e-01  2.4323136715467614e-01  8.0339335854045546e-01  5.1186432786881237e+00  6.7427397670708966e-01  5.6056959175869014e+00  5.6807069654745703e+00  5.6798381183268836e+00  5.7060313612231370e+00  4.9418845042781614e+00  4.8968183276776944e+00  4.4237754014035326e+00  1.3456971666076039e+00  1.8203338216731783e+01  3.3197070716847015e+00  4.8189501006005930e-01  7.0307761142976855e-01  5.1290470447604675e-01  1.0064305199831747e+01  1.0594097553438099e+01  1.4935281613413975e+00  4.9615571197471553e+00  5.5788389116243975e+00  5.5965598636441722e+00  4.5902877327016807e+00  4.6244755300745961e+00  2.5777372754014523e+00  2.0450948691332541e-01  7.7633957994733587e+00  2.4247074580705510e+00  2.4116040491926762e+00  2.3706970773345541e+00  3.6405176762285563e+00  1.3376256927235666e+00  7.9584429504716792e-01  9.2035563285321942e+00  3.5790366013107038e+00  1.2905845049176956e+00  1.2246343350975566e+00  2.6420138586874726e+00  2.6244481148113326e+00  4.5845433042492632e+00  9.6069411744222979e+00  1.0227881937418834e+01  1.4156870165246332e+01  1.4172804641066685e+01  1.3278468165968015e+01  1.3346701381278388e+01  2.5634895447476542e+00  2.3537116340924467e+00  2.3163851659062473e+00  7.1024360665066844e-01  5.5432155316094303e+00  3.5264162510126312e+01  2.4835511714935207e-01  4.2710003906931657e+00  9.5284716750317999e-01  9.0413435765906158e-01  1.0059219335153575e+00  2.2484552291377014e+01  1.0876284739792459e+00  1.0577410688378948e+00  4.6696288114243982e+00  5.1521863812390638e+00  5.3102504326530848e+00  5.1887006472130726e-01  3.9657225993370937e-01  3.7257761875188122e-01  3.7320718976392164e-01  3.4788063696403326e-01  4.8520960461910771e+00  1.0830095041136202e+01  2.4314648451232541e+00  2.4237898254239312e+00  2.6317100395204935e+00  2.2361520152559460e+00  2.2353058421019396e+00  2.0499679164464064e+00  4.1498863635770505e-01  3.3834753049048161e-01  3.2566953142959720e-01  2.8066919242233118e-01  5.8925784090763633e+00  6.0096707185704998e+00  1.5368898346895854e+00  1.5472505783007298e+00  4.5108616276454576e+00  5.9837016250537420e+00  9.3651286890344754e-01  2.4150500565714266e+00  2.2746114711988041e+00  2.2000921458577953e+00  2.1442135906946835e+00  2.0741819139805346e+00  2.0227459466250512e+00  1.9603674720247921e+00  1.9075306168562118e+00  1.8518432085034857e+00  1.8002566870056749e+00  1.7506303703137021e+00  1.6995309673794243e+00  3.2261957161744119e+00  5.0034970088545472e-01  1.7144299455753713e+00  1.6584759344421698e+00  5.0569035766344230e+00  4.4568362779403953e-01  7.5643310444799217e-01  8.3020484119943727e-01  1.5283918348368164e+00  1.0812140892042639e+00  1.1828741669250469e+00  1.2384560547256338e+00  2.5484478144275964e+00  2.6017542210229276e+00  8.0447710796891894e+00  6.8292173495468562e+00  6.8871946360858258e+00  3.1877620852193949e+00  3.1627457432290043e+00  4.9350796215780814e+00  2.9243511765614860e-01  2.3857722263049330e-01  2.4218668194164311e-01  2.0701509516888106e-01  2.5202254269918896e+01  2.4671993460776260e+01  2.1533016846733632e+00  2.1325723088402451e+00  7.0890250027107831e+00  7.2766118270434266e+00  6.9148641251962975e+00  6.8138879306594253e+00  9.1343613300584519e+00  1.4508620904706293e+00  1.4166281253308050e+01  7.3728080654906181e-01  6.8233208497508990e-01  3.4115836821943808e+00  3.5211210675140197e+00  3.6830941819335790e+00  6.0651139074072900e+00  6.1268273151294643e+00  6.1820165717305757e+00  1.7495847882166558e+00  2.0557453615981784e+00  1.8805966101022074e+00  2.2528338778791679e+00  3.8786976588026083e+00  7.2614579196055082e+00  1.2895176493419747e+00  1.3504388085793475e+00  5.3944850838777969e-01  3.5090659105974803e-01  3.2945640015108807e-01  4.9336295092897666e+00  1.6488311584758788e+00  8.2024794677624175e+00  7.9447167472249758e+00  3.1508990381240207e+00  5.9109606003394584e+00  5.9007648157632735e+00  4.8368059238750805e+00  8.7963278054103811e-01  8.6833238539081370e-01  9.4965998605153767e-01  6.7516581204410953e+00  6.6632451999648001e+00  1.0462595818124725e+00  1.0634755241195357e+00  1.0207387310274920e+00  5.4009977761152141e+00  3.6705936723802694e+01  1.1165461747965872e+00  2.6672108889830053e+00  2.7423847601542688e+00  2.7017402967170043e+00  2.7852991393826270e+00  2.7449087901711127e+00  1.0781566425263300e+01  1.1593856625134217e+01  1.2202926706332013e+01  1.3147549537209253e+01  4.2647869629720043e+00  1.6163613590455841e+00  1.7668179272021327e+00  1.8764322983058481e+00  1.7198501139961329e+00  9.4155869870030406e-01  1.0306480856441540e+00  1.0254628402955088e+00  1.1194687085222372e+00  4.7506857560006482e-01  3.8158696651151813e+00  3.1152244205382642e+00  4.4470194179533769e+00  5.2683039278675610e+00  5.1963179814764517e+00  4.6603458865368248e+00  1.1129131280613551e+00  1.2111074753292490e+00  4.7485772376283553e-01  2.2254624433520984e+00  2.8439938104262601e+00  1.9730267400028982e+00  6.6014277619028858e+00  6.5182067573445925e+00  8.8169443021602834e-01  8.5452721962311462e-01  2.5505187591225109e+01  2.2705888285161024e+01  2.1783825394682002e-01  1.8920067831859069e-01  1.7736421537898323e-01  1.6637855201173127e-01  5.4343274428770476e+00  1.0543748967840261e+00  2.1304432611035500e+00  1.4427427022713002e+00  5.0718466391050958e+00  6.4613853618236776e+00  3.3922505139112382e+00  3.4508810693125587e+00  4.3038790235360924e+00  8.9391440514632894e+00  6.0783031125781681e+00  1.2493477808494322e+00  1.3192458285092095e+00  1.1169331280722901e+01  1.0920786461542537e+01  4.6332421035236004e+00  3.3338611527876689e+00  6.9549389170384490e-01  6.2881640491412645e+00  6.3063876955164551e+00  6.2987487123576509e+00  7.1970058183278001e+00  4.1990221379144508e+00  3.6782363077053923e+00  3.7376361500643585e+00  5.3185854217329513e+00  5.6145044313163019e+00  2.3017653161385758e+00  2.2653378161888926e+00  2.2794682616893449e+00  2.2290396012326155e+00  2.2166719807104740e+00  2.1793317129352583e+00  1.3042434961184639e+00  1.3118437036701558e+00  1.2986535537497359e+00  4.8533135563775334e+00  7.3782141975623636e+00  6.6120524077911447e-01  1.3362768896956293e+01  4.6237191384747724e+00  2.8347222640064427e+00  2.7960067276898437e+00  2.8727828606894974e+00  2.7019402781672155e+00  2.7564803494417154e+00  1.3308812423818106e+00  6.2064050602677492e+00  1.0253438234247534e+00  1.0266986837482606e+00  1.0218641102113100e+00  3.4528037544839446e-01  7.6710182420977748e+00  4.4807468773628099e+00  3.8119142480502122e+00  3.6637514928076844e+00  3.9698161969708390e+00  2.4052431086622112e+00  2.7130133671972151e-01  2.8534414830129323e-01  2.6641390701202339e-01  6.7827315328189197e+00  1.3881598951375311e+01  1.4972715429616356e+01  4.2544333747618096e-01  5.8940968398309650e+00  5.8661561029581311e+00  1.9022883077328625e+00  4.6399248113443976e+00  2.1916378050893521e+00  3.9130979711589822e+00  3.6240863520926738e+00  2.5588514797211910e+00  1.1423948814361895e+01  1.1085384224168934e+01  2.6596918327567463e+00  2.7168107254752369e+00  2.5146795344149719e-01  7.0056679522205458e+00  1.5714875531392389e+00  1.2187941956534134e+00  1.3240335345499894e+00  1.3168657288138730e+00  1.2009182848234936e+00  1.5632829443614045e+00  2.0571912551459728e+00  9.1146744878603325e-01  8.6208219310848810e-01  8.5669304477771202e-01  8.2994144884153098e-01  3.1977078717733662e+00  1.7232366448287484e+00  1.0141155662701260e+01  5.3035838151407493e+00  5.4781876144150745e+00  2.4963270622474840e+00  2.8381678641876640e+01  1.5788474720086803e+01  1.6997524626002960e+01  4.6242486373288632e+00  2.0803368403618783e+00  1.4762418678905123e+00  1.7167518861884712e+00  7.9169032362312244e+00  7.6503242482268590e+00  8.2180373654190610e+00  3.4310145475191898e+00  2.5891671850659894e+00  2.6409569303902360e+00  5.0702902434619268e-01  1.4163455427593734e+00  1.4758640091082365e+00  1.4109890335075117e+00  1.5379587569376594e+00  1.6079019458257586e+00  1.6776357355787852e+00  1.7510146469325374e+00  1.8255555819785649e+00  1.9073193150865164e+00  1.9753412788384070e+00  2.0741263947432023e+00  2.1477248355449476e+00  2.2549801028764151e+00  1.7500068381373406e+00  1.6943863616866777e+00  2.6476196292582133e-01  4.9085165580348633e+00  3.2958853281234353e+00  4.7188927859463164e-01  7.0514385958671577e-01  2.3405376047314426e+00  2.2321767146515659e+00  7.2323552048383033e-01  7.3916627406900115e-01  8.3548356552826082e+00  3.4859298120413351e+00  6.1931426297572783e+00  1.7937321560607000e+01  1.9365889687079132e+01  5.2986458092466187e+00  2.1702648060348961e+00  2.1313867212584734e+00  6.8633127494255497e-01  5.7809537120019812e+00  2.0748030481654762e+00  2.4970465626860769e+00  8.8444338782475853e+00  9.0638418807041266e+00  8.7139589688089298e+00  9.6835643810475993e+00  5.8467281038682293e+00  3.7160030995629660e+00  3.7763011233080839e+00  4.5533012538088053e+00  4.6968471842446160e+00  4.5613573357556298e+01  1.1527041678728544e+01  1.1268279951110616e+01  3.8059639781934811e+00  3.6937242194458784e+00  3.7352505910613951e+00  1.5722522345308905e+00  1.6090069856183524e+00  1.6598756681082061e+00  2.5082477276152632e-01  3.3254061104787819e-01  3.6558080993410234e+00  4.8919949226849226e+00  3.0227938370197975e+00  3.0044133347013773e+00  3.0432752462734594e+00  2.9888554864609720e+00  2.9493982455786272e+00  2.9359159091839095e+00  2.8963866281186310e+00  3.0279769664684202e+00  1.1330312653737469e+00  1.0484533833790632e+00  4.1615657540850188e+00  1.8091746727645697e-01  1.6486380277884938e-01  1.4992934714005052e-01  1.5481180806095332e-01  7.4703686084588385e+00  2.1262675718190209e+00  2.0863724073751246e+00  3.0815571591992792e+00  5.7408925794054726e+00  2.4641019478991311e+00  6.6237358525514789e-01  2.3257505927244701e-01  9.4205676298808427e+00  3.7488786029604726e-01  9.3329906339162712e+00  7.1935743430601118e-01  6.5370944860972324e-01  1.6656630605435836e+00  4.8047221118400021e+00  3.6016887462865848e+00  3.7993814355014943e+00  3.8350355893691899e+00  8.2994507699487186e-01  8.0608685894405818e-01  4.6903612508238950e+01  1.4134194135294459e+01  1.5133258032761642e+01  6.2001642955795067e+00  6.1434220144885847e+00  1.5767600892241149e+00  1.6547155048212669e+00  2.8559785435471157e+00  4.5657373136004740e+00  2.9096851725695783e+00  2.8583994548258547e+00  4.8339973975431541e+00  2.6585238762915719e+00  2.6940258454782069e+00  2.6806677875944342e+00  2.7299981788051264e+00  2.7420012600455621e+00  3.2779009778933772e+00  3.5641008569206072e+00  8.8129806818601308e-01  4.4568456026680747e-01  1.0775217677631783e+00  3.3485961011094861e-01  3.1743789677639594e-01  3.0720234019868503e-01  2.9913444179381804e-01  3.5334721940448244e-01  8.3132295731465555e-01  6.7403935753894615e+00  6.9571278179125615e+00  7.1126370820971765e+00  7.1892267560996475e+00  2.5397186349774126e+00  4.5241427196308479e+01  3.3176552226637694e+00  4.7186922322815894e+00  1.0661930479496634e+01  7.4806710634029749e-01  1.3642008665400718e+00  2.4401011054211144e-01  5.6420923047603677e-01  5.8025831998331254e+00  6.8472527710308109e+00  8.5285939213104178e-01  7.3631310741583649e+00  1.3287342154851731e+00  2.4604331016332597e+00  2.1292083699581763e+00  5.5629366612550601e+00  5.5989026489063578e+00  5.4533318824056600e+00  6.1207072841731724e-01  2.9960961655200397e-01  1.2944548972336882e+00  1.2631793024221041e+00  5.7656920715003379e-01  6.3255902123490193e-01  6.0314445499768281e+00  7.1358945840419075e-01  3.1652824119175031e+00  3.0712029097932301e+00  3.5879851592168350e+00  3.5475954403521754e+00  3.7343002813272569e-01  3.4689795739917715e+00  6.5809798793181438e+00  6.4389539003804597e+00  4.7233429425990323e+00  2.8473279623003429e+00  7.4527944954390812e-01  7.6089389695777587e-01  3.8193160680588284e-01  1.2588955495890687e+01  7.8034443148763613e+00  6.5246327704987230e+00  6.5220324467915161e+00  5.1387264186352626e+00  8.7247135035730505e-01  2.2902082307782230e+00  1.6052821473477867e+00  1.5992528478140833e+00  1.6409381363003943e+00  2.7445033846021889e+01  2.9297452185347810e+00  2.9644641981662638e+00  2.9041937146510217e+00  6.1671793752373976e+00  6.1417993189066236e+00  5.5317485704625016e+00  5.7191181194973240e+00  2.3837127842175025e+00  2.0289162702360393e+01  2.1708618745836482e+01  2.2672174439235668e+01  2.0132096533509385e+00  1.5233276365196053e+00  8.0878955240864272e+00  7.8574217590102657e+00  2.2157887399768588e+00  6.1712356933197920e+00  2.4012390188957657e+01  2.5129270338830207e+01  2.6399310206426549e+01  9.2858812146619840e+00  9.6612285174340577e+00  4.7570125016328951e-01  6.8300938198782724e-01  6.2507203296766756e-01  9.7592298991003013e+00  1.0236412146632196e+01  2.2099446387565571e+00  3.8658829780670034e+00  3.8961667142140395e+00  4.6635513177580696e+00  5.8925773759554909e+00  6.1263288120173955e+00  8.0495898152933842e-01  6.5192917686723151e-01  5.9668099019019361e-01  3.4467058858107047e-01  1.8018169146815358e-01  2.4025131297696095e+01  1.6821261592252958e+00  3.5587493224267335e+00  3.6384674114203670e+00  4.2513693474185068e+00  4.4048494889856631e+00  6.0696689370600501e+00  9.9293816011681968e-01  1.3193504325736706e+01  3.8329998165764390e+00  2.6283030357267581e+01  2.3195983510654223e+01  4.3951658249412224e+00  5.2127913885590027e-01  8.5984574576171440e+00  3.2381982451034914e+00  5.9084826242839519e+00  4.5998172208485899e+00  4.1133256110680714e+00  4.2684778962322465e+00  4.1415267107126130e+00  1.4341397291846321e+00  3.5964718626971548e+00  3.7397643227359225e+00  3.7097202373763327e+00  3.8693833695353388e+00  3.8384835452855177e+00  4.0161969585261952e+00  4.0326840787239737e+00  8.6820159951721110e-01  4.4356093695408996e+00  4.4216358994507532e+00  1.7967132166280975e+00  1.4360317431535441e+00  1.4479770784610970e+00  1.4379630035538322e+00  2.4688680080235019e+00  2.5205189747348227e+00  2.7112940804576362e+00  4.9794272772700516e+00  3.2084943700873794e+01  1.5896788604296559e+00  1.2721931731257039e+00  1.2811945903562625e+00  6.0308362731474094e+00  9.0774894155736483e+00  1.1909474749520722e+01  3.6775960999257227e+00  3.8101523883068986e+00  8.6887422383956814e-01  9.1951722789348111e-01  1.6357993290741224e+00  1.1000305200102527e+00  1.0752115675822158e+00  5.1928662319869929e+01  9.9784080257671945e+00  1.0495982362513358e+01  2.8735946428388486e+00  1.6332962817277966e+01  2.1432378873092461e+00  6.3795393426787754e+00  1.0325651703121337e+00  3.8720238747522564e+00  3.9321123960607456e+00  3.9553558909778257e+00  3.9919339809721390e+00  3.9677331493256687e+00  4.0267031719180357e+00  4.0518794305639796e+00  4.0889011577177836e+00  4.1139064051579783e+00  4.1496829429585436e+00  4.1771093488729001e+00  4.2123400926445251e+00  4.4606072775325334e+00  4.3664959890208097e+00  2.0942502631588820e+00  2.0472059023227809e+00  1.8648942656560656e+00  6.1322541949121412e+00  2.0404548604753558e+00  2.0023565703642738e+00  2.0088068461615025e+00  1.9636876030633541e+00  3.1082691543180407e-01  2.9812478804740278e-01  6.2099158273006934e+00  6.1592025900267080e+00  2.5786299489016727e+01  2.9458614528530727e+01  2.3031148537327159e+01  2.0634323798048726e+01  9.9329626809947213e-01  3.1338732238589873e-01  3.4028513304456837e-01  1.0508409715318057e+00  2.6324952839716170e-01  2.6456219126277225e-01  2.6925361321140795e-01  2.7196405490812690e+00  1.4104504980150931e-01  1.5385077841425687e-01  4.8083636229450128e+00  1.9571794383677155e+00  1.9212774571264932e+00  1.9132409047714005e+00  1.8785201062885817e+00  5.0891285786884239e+00  5.3057216318902958e+00  4.9345534963442237e+00  5.1172938239728838e+00  4.7456288720333095e+00  4.9001406332679869e+00  4.5475964278776262e+00  1.2751696217500974e+00  1.3456224089804414e+00  3.9968660546401309e+00  4.2353357691987785e+00  4.1272865264654257e+00  1.3240661322215161e+00  1.3627684829791682e+00  3.8764829483031460e+00  1.2041367834127643e+00  2.7820636145669129e+00  2.9836810114293950e+00  2.9125543712839139e+00  3.1955792806999894e+00  3.2837739002583550e+00  3.5202354465595036e+00  3.6261600989462832e+00  3.8638004314963426e+00  4.0048849603117702e+00  4.2675958625045798e+00  4.4414317658227027e+00  3.3416675163088500e-01  1.1033929179989215e+01  2.6275582576959766e+00  2.5851429433063866e+00  6.3682772437153217e+00  7.6390397501951957e-01  7.7040833851496660e-01  7.5806596624661149e-01  4.6890730142961878e+00  4.1875332340795408e+00  4.2484375997312558e+00  1.0411804036201153e+00  5.3188834362172619e+00  5.6217574466292293e+00  5.9553605184797425e+00  5.9626027414119287e+00  5.6267172051283847e+00  1.5081139079244721e+00  3.4839660717333127e+00  3.4488001747313612e+00  7.4783869793029933e-01  7.2977226580101835e+00  2.3410369925194022e+01  2.4490595539482478e+00  2.5415938828119051e+00  1.1766644486861544e+01  1.5496331250990534e+00  7.4631480871156022e+00  2.0905278047412086e+00  2.1665375390167161e+00  2.1999959559704485e+00  7.5386999992132209e+00  7.6992608044793256e+00  4.8793093531268239e+00  4.9497677114443297e+00  3.5201500959997958e+00  3.1731970187714542e-01  1.9270900061855085e+00  7.0508430401723707e+00  1.5123348069763369e+00  4.8447722138659852e+00  4.0009154488753698e+00  4.4360762857935576e+00  2.6127263420034605e+00  2.6748052778118514e+00  9.5555454930703316e+00  4.6620259423481851e+00  1.6143014128470163e+00  7.1195339403588980e+00  6.5048948872951113e+00  3.2389323429759265e+00  3.2239675422393783e+00  3.2610567716614596e+00  6.7829036738324158e+00  1.4616115986970992e+00  2.4216300726117161e+00  1.1398872373903771e+01  1.3293785833583547e+00  1.4596232036080803e+00  3.7893863284089496e-01  3.1279293434109419e+00  3.5907292656201522e+00  4.2203420100638240e+00  3.6445470962956157e+00  3.7910861197033152e+00  3.6014566501380809e+00  3.7445322318636709e+00  1.3637556438159304e-01  3.0308413521550808e+00  6.1698466927388029e+00  5.1715224227118881e+01  5.6248125735401955e-01  5.8414886539779332e+00  6.1306045453693967e+00  1.5073536608874807e+00  1.4657566293496394e+00  3.5998312123260932e+00  1.2545019727151647e+01  3.3929085522662565e+00  1.3225211592207717e+01  2.9299413260782270e-01  2.6771977006950226e-01  2.4977269755369729e+01  2.2248289995849447e+01  2.0644717945316252e+01  2.0010935323215197e+01  2.1528343019822884e+01  1.9231372369014810e+01  1.8186390858431750e+01  1.7517612386341280e+01  1.8551659068066474e+01  1.7047217856389040e+01  1.6023420869084031e+01  1.5624641715701525e+01  1.6534511436821891e+01  1.5229825167255038e+01  1.4421901518316812e+01  1.4167906471442473e+01  1.4775665060905638e+01  1.3833549585507063e+01  1.3236485107066816e+01  1.3044764523699550e+01  1.3537991519430555e+01  1.2812164496363053e+01  1.2326450623426165e+01  1.2182489963965223e+01  1.2580407987135754e+01  1.2020852242909365e+01  1.1619345323389968e+01  1.1544147425112893e+01  1.1862543770846200e+01  1.1460060672920571e+01  1.1054736492855497e+01  1.1087674335034189e+01  1.1457016909999734e+01  1.1097716539528925e+01  1.0749443459156023e+01  1.0816094120092957e+01  1.1073091026059473e+01  1.0891691938133649e+01  1.0584811192175259e+01  1.0744737351669730e+01  1.0962957790693439e+01  1.0906578597211844e+01  1.0632492642501154e+01  1.0884547377992472e+01  1.1076444896435955e+01  1.1119457649236001e+01  1.0847916336806511e+01  1.1203409670551112e+01  1.1374713149836600e+01  1.1548765925752001e+01  1.1252008675596906e+01  1.1727758673037663e+01  1.1892330112291141e+01  1.2210661569168872e+01  1.1983225835650575e+01  1.2511018539580594e+01  1.2630308152781861e+01  1.3023708381305871e+01  1.2703039066138667e+01  1.3301852592858760e+01  1.3503915228298686e+01  1.3780833453802796e+01  1.3534570826445915e+01  1.3882792201380864e+01  1.4058050213128162e+01  1.4026532417188477e+01  1.3748375800233605e+01  1.3718742451528366e+01  1.3932933919961117e+01  1.3433515306316821e+01  1.3666638026781634e+01  1.3002251621933210e+01  1.2643698265193059e+01  1.2127673338348336e+01  1.2512590882778291e+01  1.1575865529372731e+01  1.1717762702383745e+01  1.2043110907066374e+01  1.1080251664406683e+01  1.1611112958440209e+01  1.0680769547473831e+01  1.1287835486644262e+01  1.0371980361171882e+01  1.1098192278335544e+01  1.0171034418477399e+01  1.1000102446729576e+01  1.0136830649167099e+01  1.0027357797142118e+01  1.1003832823746286e+01  1.0084862069828867e+01  1.1124990129224022e+01  1.2180151210310445e+01  1.0324087007872608e+01  1.1503287413235245e+01  1.0660395019925154e+01  1.2030671598515083e+01  9.2873885432666992e+00  1.1105171802510496e+01  1.2654142357445327e+01  1.2124160865249328e+01  1.2218576263906177e+01  1.1267834738149883e+01  1.1722346448240861e+01  1.0787063832292693e+01  1.1133649731296185e+01  1.0254097032152833e+01  9.8824651686539902e+00  9.3799373450062156e+00  9.0224063765337696e+00  8.5514699848141920e+00  8.2199088793992914e+00  1.2906639855596962e+01  1.3999731226180547e+01  9.3170052309811098e+00  1.2408624174645349e+01  1.1763691547139834e+01  1.3511707950198868e+01  1.0501837674789176e+01  1.1280947051027210e+01  1.2588846362885576e+01  1.4558104456140493e+01  1.3558541896845741e+01  1.5688770857933466e+01  8.6768483758981247e+00  7.9365904684504001e+00  8.8382068163819376e+00  8.0569221017733632e+00  1.0515015887624653e+01  1.1182400564688102e+01  1.3974706877289810e+01  8.3652078245750605e+00  7.6816057589176818e+00  8.1100720131911395e+00  7.4648678632525884e+00  9.9587500258121153e+00  7.4828818010953331e+00  7.9336172529886566e+00  1.7249365121384582e+01  1.8545481134061909e+01  1.7060966820134446e+01  1.1911716467877481e+01  1.1587708142841720e+01  1.9956173996406978e+01  1.8633999022387378e+01  2.1440471209846091e+01  1.0849825413460598e+01  1.1039469218763720e+01  1.1813159351801319e+01  1.1168923450282483e+01  2.0364373264971928e+01  7.3638555629777196e+00  1.1905377798611836e+01  1.1198484890685972e+01  1.1127270586765283e+01  1.0754220937222028e+01  2.2932345266067870e+01  2.2150878845513930e+01  1.1907130825860991e+01  1.1159366291383435e+01  1.0452871291304600e+01  1.0408651085888801e+01  1.1065969838436175e+01  1.0342219899632546e+01  2.4383339172975230e+01  7.8224546239829156e+00  7.3481847166561751e+00  7.7722552486888983e+00  9.7226144264970440e+00  9.6847685678804165e+00  1.0257615654809264e+01  9.6502885283679234e+00  1.0192993364671578e+01  9.6456637362373332e+00  8.2602496223646007e+00  7.5502893358278849e+00  1.0391255362849282e+01  1.0162719539047199e+01  9.6640451586335274e+00  9.1647194037089399e+00  9.2252006751861817e+00  9.7002737789307893e+00  9.3113165663161865e+00  2.3976022890652857e+01  2.5743963395786498e+01  1.6157050233700406e+01  8.4716088305708919e+00  9.7698376006900176e+00  9.4241188895929007e+00  1.2481242181753951e+01  7.0911920402432225e+00  7.3466259223001309e+00  7.8775760177884324e+00  9.1090122707623369e+00  9.0329201512345136e+00  1.2654124010387710e+01  8.3835135762954085e+00  9.0756723993443273e+00  8.9751844712562843e+00  9.1214426369834651e+00  9.5626359823683220e+00  9.2979740040011514e+00  9.7413384878743141e+00  9.5125177809141199e+00  7.4513837037721089e+00  8.0248079901731266e+00  7.6531218320450449e+00  1.0805338712986956e+01  8.2671420436041778e+00  2.5784894069380897e+01  2.7098388027364567e+01  2.7548270693830567e+01  2.8363668455941454e+01  2.1015412661113228e+01  1.9848020329501853e+01  7.3426821883214028e+00  6.9149356471867591e+00  6.6780756739852682e+00  8.8128143589020400e+00  2.9234781207860152e+01  2.9796312786386785e+01  1.9643464476804358e+01  1.3793373270354300e+01  1.3925413968268526e+01  1.3820282370809103e+01  1.3726484838232302e+01  1.3771589965647324e+01  1.3659737399022072e+01  1.3188481769099567e+01  1.2948275388223099e+01  1.2285963119633657e+01  1.2048929405229941e+01  1.2657278480848031e+01  1.2710972047230293e+01  1.1865310004791402e+01  1.2510212397083208e+01  1.1689898414216016e+01  1.1207528666537097e+01  1.0955621266217657e+01  1.0850407665732224e+01  1.1529500004170597e+01  1.0808594030020707e+01  1.1385215028269734e+01  1.0797985352829386e+01  1.1288161427466042e+01  1.0811561178905929e+01  1.0224971333847837e+01  1.0334903342967696e+01  1.0838125414601873e+01  1.0476298570203335e+01  1.0892325933877952e+01  1.0646214088773245e+01  1.3221770170455686e+01  1.1998456562397928e+01  9.0749309388404846e+00  9.3233230716011111e+00  9.7726143191372188e+00  9.5923902824032776e+00  1.0069258655141537e+01  9.9223174072692082e+00  2.6013802261851016e+01  2.3180666967766921e+01  9.9934964873371843e+00  1.0107526869144253e+01  1.0394806060441123e+01  1.0832324554304071e+01  1.0677147234992789e+01  1.1032574315714861e+01  1.1004593029336531e+01  1.1264347421715360e+01  1.1351950023907369e+01  8.7570495041713379e+00  8.6907856927431553e+00  1.0563005044451208e+01  8.7001873444001063e+00  1.1122205636362898e+01  1.0077512359152051e+01  1.3677131939208282e+01  1.3849802824248082e+01  1.3565229098747785e+01  1.3966097974756527e+01  1.3941993817870435e+01  1.4419159858314357e+01  1.4038999595607619e+01  1.4925342039752472e+01  1.3936000787692214e+01  1.4249924858730347e+01  1.5547927080272782e+01  1.4564182752652325e+01  1.6369970652227401e+01  1.4894529406061411e+01  1.7638345176054361e+01  1.7320162731839673e+01  6.9260012729465421e+00  2.5371172845272326e+01  1.2951830173483252e+01  1.0145560373359363e+01  2.4884983385537446e+01  1.0265963173011899e+01  6.2701998589640127e+00  1.0386558875292963e+01  1.0300379175798588e+01  9.8193785376624447e+00  1.0246676505397827e+01  1.0735949633572194e+01  1.0699698541955886e+01  1.0189862689118611e+01  1.1222047791471603e+01  1.1226957844254413e+01  2.3693989862945728e+01  9.6392458182926344e-01  6.5511774197171659e+00  6.4126241030806126e+00  2.9729407632524357e+01  3.4801941641220743e+01  3.4022238910206404e+01  3.5091322654693493e+00  5.2984064410661098e+00  9.0542430040992539e-01  8.6130988626137361e-01  1.6364785694410173e+00  1.6801760739247193e+00  6.3276605287405836e+00  6.9624936382158564e+00  6.7479815988297709e+00  7.2002705750063321e+00  4.7401814969544693e+00  6.5799153514802511e-01  7.2786584116696371e+00  7.2964247249854921e+00  1.2574173767482530e+00  1.2279990623956738e+00  1.2330235358498336e+00  1.1990120035442979e+00  9.6804519170894499e-01  9.6493077429029928e-01  7.8053891630670602e+00  1.3062027868755738e+01  5.9536545036412498e+00  6.2467713181515592e+00  1.5569096115407818e+01  1.8501600852242849e+01  1.5857547315157415e+01  1.9523728493804072e+01  2.4104106709626773e+01  3.7892578781227704e-01  5.8665490232926505e+00  2.6644413663287259e-01  1.7304133003279005e+00  1.7876651381169038e+00  1.0903334616140092e+00  1.1832468045812625e+00  1.0093453082588970e+00  7.8722149248289348e+00  8.5850200354277639e+00  2.7494536914405320e+01  2.8702401536929731e+01  2.9747270485192367e+01  3.0783261600890306e+01  3.1657401279603437e+01  4.4515362102880598e+00  4.3362814125183178e+00  4.6489258470389441e+00  4.5673303894167185e+00  4.8993644468505613e+00  4.8315151906516327e+00  4.2696876010103608e+00  4.7204816278641086e+00  4.9345927895143777e+00  5.2255769144117110e+00  5.4774388184787028e+00  3.0353001257302853e-01  2.4837137795246755e-01  4.4071360638449848e+00  9.2921465372533888e+01  9.9791868891479965e+01  2.7802359309334004e+00  2.7382178157378299e+00  1.1043942634248673e+01  9.1523696244763020e+00  9.7011405014221488e+00  9.5063666881100826e+00  1.1917211428511492e+00  1.1658008803292039e+00  3.2298056369694454e+00  3.2689539074865777e+00  2.6243457873020346e+00  2.7070122752551833e+00  2.2521907526137293e+00  1.6940623744401893e+00  1.7452598302503413e+00  1.8223048121808758e+00  1.8473707476368111e+00  6.3917613426910318e+00  4.7335613465105943e+00  4.7000615061344924e+00  3.0074556812527825e-01  2.1296877829330330e-01  4.1720332453028880e-01  5.8071476008214091e+00  1.4679653572760261e+01  7.1160352461878007e-01  4.5306220189759925e+00  3.9756561517234741e+00  2.6742589266890380e+00  2.6285921348882200e+00  2.6863811776419579e+00  8.5529898584092550e+00  8.3992672159786501e+00  4.7855597509304140e+01  2.4492572946963570e-01  2.7682391211879103e+00  2.7606460739664307e+00  1.0215445626402895e+00  1.1242383988189728e+00  2.4059788367246831e+01  5.3329131652930561e+00  3.3374081319821614e-01  6.8609006427124009e-01  7.5226857931316438e-01  6.2672333201186436e-01  5.9476602506189469e-01  5.7851296271319441e-01  1.5060565605310446e+01  1.6220729453738997e+01  7.2122037530684899e+00  3.0245772909647687e+01  4.6897339630247821e+00  2.6088520296560436e+00  4.2007745878984144e+00  2.9069250808571429e-01  2.7416076318990590e-01  7.1330618070448084e+00  8.5721539317563131e+00  3.2767918700173226e+01  1.4659210878287252e+00  5.8970071434439202e+00  5.9129554028771452e+00  6.1204360530030550e+00  4.3546883428698866e+00  4.2208351304125395e+00  1.0316834683836449e+01  1.5033725020407074e+00  1.0180426568611066e+01  2.0809186260442463e+01  1.8778853764251433e+01  2.3598979293895130e+00  2.5659961491007008e+00  2.4460920135710392e+01  1.8585938050432283e+01  2.2779144064046982e+01  7.3605377957589520e+00  6.4815392338116400e+00  3.5646772485953244e+00  1.7796282956747540e+00  3.3882816729808540e-01  2.0178344852814099e+00  1.9890200344284688e+00  1.9519877186887431e+00  8.4221102097861440e+00  3.1852599894908989e-01  4.8278821143465303e+00  1.6425842226043166e+01  1.1737913218702958e+00  6.3652734795438559e-01  6.7783697026422085e-01  3.7596181033075999e+00  3.7000035199073329e+00  6.2879649453970217e+00  3.7751866659459039e+00  4.2438265022059802e+00  8.7094715453583138e+00  8.3510441858215625e+00  8.2345316462993665e+00  8.5058837153060054e+00  8.7348156939346087e+00  3.0743959227401487e+00  3.1175596416667144e+00  1.9341688600541420e+00  1.3422460498580415e+00  1.6570234899936984e-01  1.7036589187060258e-01  1.6648644921523406e-01  1.8982669462632232e-01  6.5979922536917091e+00  1.1512437844585634e+01  1.1716843151540523e+01  1.1421519902306784e+01  1.1904293749658615e+01  1.2110859266110618e+01  1.2427510447112970e+01  1.2501514932044836e+01  1.2943570355580796e+01  1.2694078779981691e+01  1.3380913106337509e+01  1.3515446390729958e+01  1.4116507619557241e+01  6.1016718588996381e+00  2.8198688535627046e+00  3.1932239713933468e+00  3.6825113773732761e+00  3.5155540728371775e+00  2.9699156129354054e-01  2.8192101385047424e-01  3.4171189076986748e+00  3.4543875728972719e+00  5.0006187309108530e+00  4.2995408591906076e-01  3.9733075951425995e+01  9.0563873050134536e+00  1.9175474423717368e+01  6.8789935330297965e+01  3.1099393752976024e+01  3.1437839458734455e+01  2.9129668437355559e+01  2.9694157859971078e+01  3.0881885718213844e+01  3.3494087292063853e+01  1.7341192120035135e+01  6.8044438288884324e-01  7.8739018918064174e-01  6.3388490917921017e+00  2.8229524476917636e+00  2.8375007340014737e+00  8.3733124416936313e+00  5.6863407512818682e+00  4.2491188138220783e+00  4.2160776428745192e+00  4.0282608612242061e+00  1.9668058654880621e-01  5.1223076254319400e-01  5.4542434980773880e-01  5.5134310185631841e-01  1.5947621287888585e+00  1.5109412223154461e+00  6.2129523429649209e+00  5.8277498794387279e+00  6.1690538972762656e+00  6.5288662037346636e+00  1.2316267561550702e+00  8.3659092619090405e+00  8.9661921962550100e+00  7.8239037140676091e+00  9.6418023823366301e+00  9.3863244416896698e+00  8.7418520199026073e+00  3.8436923455542527e+00  3.7794176561605450e+00  6.4863706834733303e+00  2.9240287881932434e+00  7.2041208578596478e+00  6.4838433453940656e+00  5.9172079407266986e+00  2.2350051775836621e+00  2.2925810120370027e+00  3.8354125388008993e+00  7.9019620885639708e-01  7.7401779453465280e-01  2.1241115583484418e+00  8.2236800462744519e-01  8.5122905493303538e+00  3.3727824862734387e+01  3.4444712317753037e+01  3.2922857172920587e+01  5.6717422570698721e+00  5.6427948894709257e+00  3.1288130619503800e+00  1.1612094551591352e+00  5.6439361058709594e+01  6.5770321752009977e+01  5.9387211113380623e+01  6.8087930222063250e+01  4.5813746696625507e-01  5.5264965257809408e+01  3.0173639101792622e+00  4.1344710898508005e+01  8.1594808589519185e-01  2.5869406428069595e+01  3.5514418098853824e+01  3.5957451891535456e+01  3.7502125029333925e+01  1.7516499267878611e+00  3.9061702668090801e+00  4.3140218081649001e-01  1.0021793121642554e+01  9.7437911305099174e+00  9.4675287909714845e-01  9.1758334820988852e-01  2.2785632169061207e+00  4.5568022356424978e+00  4.9913576919936409e+00  6.3692685606034405e-01  2.1109997229147335e+00  2.5276048930973891e+00  3.2640136572013048e+00  3.3034486487731685e+00  3.3648188943084700e+00  4.4429810329976318e+00  6.2518039855837957e+00  5.9609866102002318e+00  1.3332644891048400e+01  1.3337942702668593e+01  1.0480165636037069e+00  4.2367875268816185e+01  4.1446965246318499e+01  3.8421289426846968e+01  4.0403649109684274e+01  3.8915093902868385e+01  3.9096253209297039e+01  4.1324492945597356e+01  3.9753324817330736e+01  1.0323520044882177e+00  9.3273890336632448e+00  2.4592468880866929e+00  2.1837974012801800e+00  2.0380505935286006e+00  8.0591878117310656e-01  7.8784489249141998e-01  8.3188932331792831e-01  3.8102813918800815e+00  3.6234459408878039e+00  1.7984279908379619e+00  1.8433393280312211e+00  1.9514363937641637e+00  1.8897057818254983e+00  6.8920263973084728e+00  7.0069534945003262e+00  7.7799761527619138e+00  8.3819169380306864e+00  9.5917234625413812e+00  1.2180053291022260e+01  6.9090826779638022e+00  9.8504874426706959e+00  1.0131926339976276e+01  3.9343179872145445e-01  3.3184056297006840e+01  4.4453614238381782e+01  6.9502933527771864e+00  6.7177997323172010e+00  6.9309084140442678e+00  9.8090077357214085e+00  4.5382303623746481e+00  1.0454514772987507e+01  9.7516071155081772e+00  9.7155550495256264e+00  9.6482284459598002e+00  8.9656188162014381e+00  1.0282297698194377e+01  9.4686664840205079e+00  9.1080959760926596e+00  9.1375887595105247e+00  1.8626712926255686e+00  1.9369650185079879e+00  2.1296730704073412e+00  1.7637058886998698e+00  1.6022299240995892e+00  2.0142938473846810e+00  2.3427793384359421e+00  5.4993799025016221e+00  5.4565887685747692e+00  5.3664683061623979e+00  5.4209911064264906e+00  5.5042504468668492e+00  5.3086663499677416e+00  5.2214785606808380e+00  5.2788329036818817e+00  5.1975912641764523e+00  5.1394756834093265e+00  5.1213146924384274e+00  5.0757058702942164e+00  5.1619525623008125e+00  3.5034325572661129e+00  3.5554924158011496e+00  1.9114000375589855e+00  2.2285755478554754e+00  2.1365506217385475e+00  1.9945706430231376e+00  2.0520119977499589e+00  5.7164052810547945e+00  1.4867241065548407e+00  1.4460222780588754e+00  1.4039525406366713e+00  1.4118797972430435e+00  1.4847197015161453e+00  2.2560916132467814e+00  2.1767372260077535e+00  2.0635426849981386e+00  2.3105517811968670e+00  8.9160276723573695e+00  8.6473310723762751e+00  8.8691515039850550e+00  6.6761499217220290e+00  6.2586016336301622e+00  6.6926825611826315e+00  6.7728265105639931e+00  6.9387096689918062e+00  1.6407093547494314e+00  9.4712639209482958e+00  9.3479972627328412e+00  3.7481193181421785e-01  3.5102124672335577e+00  3.4024312664007157e+00  2.3993142277301107e+00  1.3287134544789931e+01  6.8813383910348804e+00  6.8985161078365351e+00  6.5927965176664349e+00  6.6885344335281056e+00  9.5585666464858332e-01  1.1093192239679185e+01  1.0826435147658466e+00  1.1124291750766102e+00  1.0819422214657717e+00  1.6150819270914236e+00  2.2519631458415432e+00  2.2859022009674601e+00  1.2981071592647590e+01  1.2078258639771372e+01  1.4056137539036889e+01  1.4859088160009284e+01  1.4650411551727601e+01  6.4336173207166238e+00  4.2849563853475248e+00  4.3103016837203620e+00  4.3462011899668038e+00  4.3692278982508652e+00  4.4055240389933967e+00  4.2021035793396866e-01  3.9183469101336804e-01  8.6472336494276583e+00  1.4887360931566518e+00  2.9928956737820056e+00  3.0355182730605046e+00  5.3351954962592005e+00  6.7444891748568230e+00  4.8512173082067651e+00  3.8664716047481846e+00  4.1077133007430477e+00  3.7206343467709733e+00  2.1674623617788957e+00  2.1267517360152079e+00  2.0784310727784683e+00  4.5929210728808334e+00  4.5266280839427093e+00  4.4882969032547786e+00  4.5137986795772340e+00  2.6015109824357148e+00  2.5390193080043626e+00  2.4907893724952652e+00  2.5367652232509839e+00  2.4488146713206804e+00  2.4468230749005340e+00  2.4054019851845294e+00  2.3635091561078383e+00  2.4554753567995040e+00  1.9279091053523862e+00  1.8477480944247835e+00  1.0667840255088453e+01  1.1232319600519455e+01  1.1845234630950038e+01  1.1930243799550642e+01  1.1385007573586968e+01  1.0132056262602019e+01  2.7839104143444127e+00  2.6928311662881619e+00  1.8148551744387937e+00  1.7698031403878740e+00  1.8054616356964825e+00  1.7632948447348948e+00  1.7975023440573192e+00  1.7257957729452515e+00  1.7201753545545595e+00  1.6750137078485050e+00  1.7145552077909025e+00  1.5602494319117735e+00  4.3628945570842381e+00  1.3704736476221497e+00  1.4381229920067919e+00  2.0858928078536918e+00  1.7429671530271704e+00  1.6596581107380104e+00  1.1158450814331692e+01  1.7816047044761515e-01  1.0227030738965281e+00  9.9375659890579693e-01  9.6607424792061924e-01  9.3944315132682388e-01  9.4011291131018904e-01  7.8203816257146324e+00  8.0035755031840576e+00  8.2111674598172735e-01  7.5862427438163094e-01  8.0191399232198823e-01  8.5303043697698611e-01  1.9185876009135221e+00  1.8317931160615517e+00  3.6618254283519214e+00  1.8490236618271048e+00  6.2912993648700699e-01  5.9815938015700985e+00  4.2153142138111965e+00  7.4770774826891753e+00  2.6323453706090563e+00  2.5838476774569772e+00  1.6031721984663019e+01  3.5394521410821606e-01  9.5179316373311962e-01  1.0835246484540759e+01  1.1535050947129388e+01  2.2546131176827351e+00  2.2866734445994372e+00  2.2484451750639862e+00  3.3756709887124812e+00  3.1200954656575171e+00  1.0173510590504439e+01  7.2142012368843800e-01  3.0062705432975902e+00  2.9959818911022089e+00  2.2443653799064349e+00  1.1048330727650915e+00  1.0638644646203457e+00  1.0293232123304503e+00  9.8552559643951587e-01  1.0274324898240277e+00  3.3846535832840714e+00  3.3354850341671862e+00  4.1204816073914117e+00  4.1748343736893663e+00  6.5739931306595665e+00  2.9766853782654925e+00  2.9257315782376185e+00  2.0241585928055569e-01  5.5632714544967570e+00  3.5301556461790526e+00  3.5681147012313406e+00  3.2857847454448708e+00  3.4355425429257296e+00  3.7235254952111418e+00  1.0081611890249786e+01  4.6361899498685872e+00  3.5278397660202372e+00  1.1713717500939730e+01  1.2434825453748150e+01  1.1375530603868839e+01  9.0814360999985988e-01  9.0756667337463848e-01  6.9806437746287644e+00  3.9260540647006317e+00  4.0679352553443158e+00  4.1282754632957674e+00  7.6842145562295656e+01  5.7130123959202903e+00  5.5857181798908817e+00  5.5278745708467003e+00  5.4037987110539145e+00  5.3543210831270631e+00  5.2359412145679425e+00  5.2860692686233319e+00  5.3409651239722571e+00  5.1750355273084656e+00  5.1286657167325895e+00  5.1889809771446771e+00  5.0647304363659087e+00  4.9724573253940774e+00  2.0318035385458750e+00  2.0165880460268988e+00  4.2359453484928116e+00  2.8863641419426824e+00  6.5721800676866782e-01  6.2079433232101955e-01  4.9907345812500878e+00  3.3417087878457021e+00  3.2921568534668966e+00  7.4957076646018992e+00  7.6238826623268583e+00  1.2325005869954619e+00  1.2820930723446333e+00  1.3195809045401825e+00  1.2658240336094770e+00  1.6862120127861182e+00  2.0127230914431649e+00  6.9622754831238742e+00  1.6549133871780089e+01  1.7627527110684280e+01  6.1664462346734670e+00  3.9352718564719268e+01  2.4837163514494282e+01  4.0551344278210578e+01  4.4161707425601627e+01  3.9475285029551927e+01  3.9989070226582002e+00  1.3423517501957029e+01  1.5124793127184239e+01  3.2267370922081684e-01  2.9458152672374127e-01  6.0445469722608260e+00  9.2232880950990292e+00  1.0434050803763860e+01  1.0941232528857345e+01  5.1918823889549177e+00  5.1434523010363247e+00  4.7647282335247700e+00  5.1157390300036978e+00  5.4930911837931662e+00  2.8786427010615356e+00  1.4014664801906635e+01  1.2433820415447752e+00  9.5490821187054422e+00  7.5296767260317765e-01  7.3097013065857830e-01  7.2774604331833104e-01  7.1263697231460954e-01  6.9219125073741272e-01  4.7823810259851357e-01  3.9972539986049651e+00  9.4578071943476640e+00  1.0427099363699478e+01  1.1528622022172542e+01  9.4961887485385876e+00  1.1573905973577023e+01  1.2804821597378835e+01  1.2863946986634623e+01  5.9591276132688806e+00  7.9848953267573402e+00  7.7421134415004804e+00  5.7233815995527300e+00  5.7978708213384396e+00  6.2258201400956477e+00  6.2393744458286298e+00  6.2751080410754145e+00  6.6845542578410821e+00  6.7790277859779859e+00  6.1819292555875807e+00  5.7512826961236749e+00  4.8071409554482614e+00  4.1166715121061470e-01  4.1733818317700172e-01  1.5348745554631157e-01  1.3983891213227750e-01  1.6946074574190662e-01  1.7154720006913743e-01  3.8160608019101421e+00  7.0143805959860153e+00  3.5479203909983681e+01  2.4557122222964606e-01  1.0365058336962239e+01  1.0379479412797195e+01  9.9403789363168880e+00  1.1813933849157873e+01  9.1044533159038874e+00  9.1266922196229903e+00  8.4969805871439572e+00  8.6436459094651159e+00  9.7578884424834005e+00  9.1367264862167605e+00  1.1905224007219493e+00  6.5343033253349097e+00  6.2565830579515869e-01  2.2481720677604535e+00  1.1758671978285813e+01  1.1540562491326320e+01  1.2250246623314906e+01  1.2597418271466598e+01  8.8400988744441256e-01  8.3789567776506324e-01  5.7025944117760403e+00  5.6195070626615262e+00  1.6476488704665253e+00  7.1618351339262091e+01  1.8303976342695238e+00  8.0911485542582984e+00  8.3047369436468763e+00  7.5142121577271119e+00  9.3150657945436279e+00  8.5489971727488996e+00  6.3013471638059064e+00  6.3130305918926464e+00  6.8531969324928941e+00  6.4123771536817760e+00  5.6764110874910116e+00  1.1324376960733517e+01  1.1974327045886941e+01  4.3306833676083869e+01  3.5125398134013639e+00  3.5523544313787108e+00  2.8116601300915561e-01  2.6468171526647808e+01  8.6146335445391227e+00  8.6102120370082034e+00  9.3646299669539363e+00  4.2574368071200350e+00  1.3466654790123890e+01  1.3700038170252514e+01  1.3091475606421104e+01  5.6250684700416800e+00  2.0417345894002801e+00  2.1085929018194767e+00  3.7854647362369964e+00  1.5329432978957613e+00  3.2398527998302445e-01  3.1455997155122412e-01  2.0197430924805337e-01  3.3747730171710479e+00  3.5298163280907051e+00  3.8303235230530586e+00  3.7126527682160613e+00  3.2268597563573769e+00  4.0112243438348800e+00  4.2041972771268998e+00  3.9078459975891038e+00  3.6102660089399277e+00  3.1058592083628014e+00  2.6488770297819402e+00  2.6833776153899485e+00  2.7582948049268441e+00  7.7538066847631120e+00  2.7562031076112197e+00  1.3940930334167716e+01  1.5257555920288419e+00  1.9173724225514728e+00  3.0995983015858148e+00  1.2176484980604614e+00  2.5838268969829419e+00  4.9368083850788014e-01  4.5397689354472703e-01  4.5769807034018700e-01  5.0256570521309885e-01  4.1565540102265830e-01  1.6088621515698819e+01  3.2175423881169518e+00  4.7719824706998244e+00  2.4609787937670222e+00  3.4445107629834584e+00  2.6351468972006291e+00  2.5987853084063248e+00  5.5587011409348186e+00  5.5554606936918987e+00  1.7014749299165026e+00  3.5249689827488351e+00  1.0760807872875040e+01  1.5974278140771432e+00  1.4559822937121869e+00  1.8895349892775246e+00  9.8456417654402473e-01  1.1536000416508796e+00  1.2303656166432180e+00  9.6674214197654127e+00  3.1328234549759165e-01  1.3586719662326869e+00  1.3177084528724305e+00  8.9838689824861162e-01  5.6797939808567410e-01  6.0612689628310124e-01  4.5587561777273224e+00  3.5874683331600887e+00  1.0972699620817259e+00  1.4141388248330851e+00  4.4432148256977549e-01  4.1293834608893576e-01  3.8695043872590634e-01  6.8983440325550962e+00  1.1831122346769977e+01  1.1662555753980147e+01  1.2537757371370256e+01  1.2405594387386385e+01  7.5437715638363489e-01  7.8455889316890959e-01  8.8550286762452526e+00  8.3774257087454558e+00  2.9195309457180323e+00  3.5815432356931943e+01  3.5579338068861198e+01  3.8237657161303936e+01  1.1276243387255729e+00  2.0325513925350176e+00  1.2570258550300434e+01  1.2730602685225548e+01  1.3419118322227581e+01  1.3641336327444725e+01  1.4710887517334216e+01  1.3831468490142210e+01  1.4926083986336442e+01  9.9043715130986598e+00  9.4260223440391222e+00  1.1944262651928016e+01  1.2580587731024719e+01  1.2325734829726804e+00  1.2691146816561574e+00  1.3766533618857668e+00  1.3708405514553308e+00  2.8210181803446956e+00  6.5114159353797687e+00  1.2444695306147076e+00  1.1898785594143302e+00  5.9519580282368756e-01  2.4677724490989853e+01  4.3886096909763972e-01  2.5532741277975017e+01  1.7792997244836272e+01  2.9599062999126492e+01  1.3631580545633760e+01  1.1933872395629058e+01  4.0243911570192978e+01  5.1591288708896585e+01  1.8137020018581335e+01  1.1292275536623357e+01  1.2265950270385423e+01  5.7550068061427695e-01  3.7358610836982713e+00  1.2028157510890415e+01  1.2642190573402340e+01  1.1745787012025588e+01  1.3111361150071852e+01  1.3761827584109774e+01  1.0979426941146752e+01  1.2037718178257364e+01  6.8280019768478830e+00  6.8910463804282127e+00  6.6152257159020476e+00  2.8684021003510001e+00  2.2286715684599120e+01  1.9883498547359036e+01  2.6733355628611875e+01  2.1210794212426823e+01  3.5518057163359607e+01  8.9091381981635180e+00  1.7297695800366899e+01  1.6990363046653599e+01  1.4602490925785004e+01  3.0464689475456836e+00  2.2722549976383775e+01  1.1193507127619348e+01  8.5466958944619247e+00  1.0081093553115789e+01  9.2823102731112150e-01  9.4365380933871845e-01  3.2611196669238313e-01  6.3466568668728698e+00  6.5843628790383368e+00  4.0365372276168232e+00  5.8627688612071376e+00  3.7328942177264778e+01  9.8083786214448345e+00  3.9098594553592947e+00  3.9463071961060310e+00  3.5797458260119868e+00  1.0209756648243097e+01  1.0975589795456544e+01  3.9156607320835457e+00  1.0800995463589164e+01  5.2205811519010981e+00  7.8868175853273514e-01  8.2217488231140556e-01  8.9305250441394157e-01  3.4285807482137443e+01  1.0209911353811350e+00  5.6164119714838407e+01  4.2070192059737508e+01  2.7860430795606831e+01  3.8035616816194523e-01  3.3575288343384091e-01  1.0046657888668372e+01  7.3770573958602288e+00  3.9496455485448791e+01  3.6264638165484024e+00  2.5579678259413092e+00  4.5587263383460197e+00  1.6934581822954460e+01  1.7379019954662258e+01  1.8594900561347028e+01  8.7236655477613088e+00  1.3556170735707829e+01  1.1536688494249516e+00  1.4425552475227685e-01  3.2430791533937970e+00  2.4392584728720239e+00  2.3926895783833508e+00  1.9940910480759186e+01  1.9987249951229654e+01  2.1858875946626110e+01  5.5974150039077242e-01  4.7269647711971103e+00  6.3875847644872232e+00  7.7392967238782893e+00  4.2170135106794540e+01  4.4585764489726945e+00  3.0017049203868740e-01  2.9881150702924375e-01  5.8985746143077469e+00  4.5139429398448989e+00  1.4678500125925908e+01  3.0635611607943760e+00  2.3942650926838208e+01  3.4093527741427230e+00  3.1189540074144484e-01  3.0992433122984686e+01  2.9262732610654911e+01  1.0262513483015061e+00  1.7103935302519560e-01  5.1549981033210891e+01  4.8238091613899186e+01  8.9747646543803619e+00  2.7087579988001298e+01  1.9940918566579637e+00  3.8526187339362914e+00  1.2166393033466999e+01  4.6314193653465026e+00  5.7143978830893021e+00  5.0605671744578276e+00  1.1395901679723901e+00  1.1008049849046211e+00  6.3946135927258552e-01  2.3832484517949108e+01  3.3077903448963212e+01  5.7600440570204832e+00  1.8948676829106542e+01  2.8055946478877321e+01  5.0438140329391234e-01  8.1929520733514882e-01  4.4446679648388692e+00  3.1677518278247931e+00  3.2102577490603657e+00  3.1579338835014741e+00  7.8938684858223445e+00  3.8396737776433193e-01  1.9117066380793210e-01  2.1629496025194245e-01  2.3286797394564970e-01  5.1276931912599819e+00  4.9792663321451034e+00  5.0035523563421735e+00  2.5874628239008572e+01  5.3279578415349516e-01  2.9016429633119966e+01  5.6656354345389861e+00  8.1656489046215288e+00  2.0578150086515681e+00  1.3541292144456580e+00  1.2465859626394172e+01  4.5554327735098017e+00  5.6495301119431938e+00  2.9591967219456690e+00  6.8835691050767185e+00  4.0712519784612731e+00  6.1266534115608788e+00  1.2858014617025171e+01  5.9725726023560938e+01  1.5240619165483738e+00  1.5972892257556899e+00  2.0436489990288088e+01  2.2890411111180214e-01  2.3134407346662416e+00  7.2854318198015831e+00  3.2482884049724592e-01  1.4493846926167171e+00  5.4783390416524478e+00  1.1422215470606025e+00  4.5354973538823220e+00  1.5982827319689936e+00  3.5324313280787386e+01  8.7858054801355241e+00  3.5263671056770400e+00  6.8573636787117964e+00  4.7719993595629644e+00  1.2873114319778562e+00  5.5244185017018417e+00  1.5509501157805798e+00  3.0080676517956409e+01  4.4148315092337809e+00  4.7342705813573431e+00  9.5998440905254014e+00  7.1091847916632966e+00  9.0047598900206136e+00  3.7441426472365474e-01  6.1406111083737192e-01  5.5825451757720546e-01  3.4207496758010971e+00  1.8136786792436674e+00  2.8859277620133486e+00  1.6174496657258597e+01  1.7602575782185376e+01  5.7040090482175232e-01  2.8408977296742615e+00  1.7786530685659365e+01  7.3735292450925591e+00  2.2456090923365842e+01  2.2726433535666890e-01  1.9697425961973805e+00  3.1370151338875113e-01  8.6279578538639772e+00  2.5117642430867150e+01  3.5271363756437241e-01  5.2951030660790170e+00  7.8601768072009833e+01  1.4377233294431399e+01  6.3066074514392056e+00  3.0206048189672563e-01  9.5281403065900694e+00  8.7558841035129884e+00  9.1513521667836635e+00  1.0611216954325197e+01  9.7241895827725191e+00  9.2075312413964063e+00  1.0049858708994876e+01  2.3711593115093352e+00  1.2690177636177832e+01  1.2280204683055094e+00  2.2088077119234280e+00  1.3337269000732075e+01  6.6049776401612164e+00  1.1985162874318742e-01  1.7377555721437715e-01  3.7202246723379484e-01  4.8349138608178926e+01  4.8755763893098427e+00  4.8657138630209493e+00  8.0078666025210996e+00  3.2875030026407681e+00  6.4777675174342098e-01  9.3225115415088169e+00  5.0426200984670029e+00  2.3129735762735082e-01  4.2645183944165127e-01  7.3705352121602996e-01  1.5020449796092225e-01  5.3619160543827404e-01  7.0918591491186533e-01  9.0165550799052863e+00  4.0510258776470840e+00  7.6251243177401458e+00  1.5185855457882175e+01  1.8755650825634083e+00  2.8413794471210374e-01  6.8391036797530100e+00  6.4563944874092494e+00  6.7015800459513457e+00  1.0555475042136521e+01  6.1339726543512034e+00  5.9386401668808464e+00  6.3439584482686424e+00  4.7183380519602283e+00  1.1404631817859288e+00  1.1287424218980331e+00  1.0794590092271197e+00  1.4097805263282208e+00  1.2657703079681177e+00  1.2017996956096157e+00  5.4326516987841273e+00  5.2846126764838335e+00  1.2039877125420801e+01  1.4012695012715977e+00  1.3327159511586706e+00  5.0097533175084124e+00  5.1456542348974388e+00  5.5945579238815024e-01  4.3063388756509706e+00  4.8827258026783946e+00  4.7615281470709627e+00  1.4722761801561917e+00  1.5448923367656215e+00  1.6181983717046333e+00  4.4656578987281081e+00  4.7001557653706323e+00  1.7189409515639849e+01  1.6441390566867373e+01  1.8866692184881066e+00  1.8079694789899849e+00  4.3537576764805026e+00  2.0110984580381395e+00  2.0955505338898992e+00  4.0887799214696336e+00  1.9297451084720660e+00  2.2977883532786043e+00  3.7286116813006722e+00  2.4256357927191350e+00  2.3440310933212731e+00  3.6770555743032696e+00  2.5611420151633162e+00  2.7366987328074286e+00  2.6504360363669979e+00  2.7843152104033821e+00  3.0527380899946128e+00  9.1228806257562365e+00  4.4823235993490691e+00  4.2790957238878748e+00  3.7443889604953134e-01  2.6758699785657203e-01  6.3562531950840899e+00  8.3184010086662621e+00  1.8480423929315410e+00  3.4767821507179266e+00  6.2296901868846011e-01  9.9690389884025805e+00  1.0434356805059119e+01  1.7011920825997362e+00  1.4136085156083222e+00  6.6116857460678091e-01  1.0688801806303594e+01  1.0740824483983554e+01  1.1242230155985254e+01  6.3985725015998867e+00  1.6247042310637194e+00  3.9782465398288474e+00  4.5429783295605314e-01  1.2666155856829158e+00  1.2344408637364455e+00  9.8141894503165403e+00  9.8550391970978986e+00  1.1515357638665089e+01  1.0170416281311294e+01  5.0802093377089124e+00  7.2669558228960929e-01  1.1841072934394854e+00  1.0932617386704216e+01  4.5917157900847263e+00  5.4653431262454824e+00  7.1571424049100485e-01  1.0570760208974086e+01  8.9373910430369485e-01  3.9801262340758821e+00  4.5889919593547042e+00  5.0781921076629510e+00  1.2511900048804835e+01  1.2109462403788106e+01  8.6838989568607676e+00  4.2822801785938367e+00  2.1788955291410979e+00  2.3218143974745256e+00  5.5895509239910774e+00  5.4968057626828344e+00  2.5274569399270317e+00  2.4149082876855568e+00  2.5093791021942979e+00  2.5221032712100082e+00  5.5040578112847802e+00  5.3995377877723048e+00  3.1873333799838073e+00  8.1140038854763148e+00  5.9495266539246359e+00  5.0137781319984640e+00  1.0398083025447880e+01  1.6380528713851074e+01  7.9821377715395236e+00  2.4583804131531366e+00  3.1305735878501468e+00  7.9237830850782220e+00  1.3445324670794731e+01  1.3553930967858003e+00  7.6193531542671444e-01  7.9614518116514263e+00  8.5610554075849166e+00  4.6520854920523522e+00  7.8064317134652157e+00  6.0856414351396921e+00  3.9680653725541633e+00  6.1369851500947155e+00  1.0143129431935000e+01  8.1421368723718484e+00  9.0625544767596389e-01  8.6503987024752291e+00  5.1728821903477318e+00  1.1753357010137635e+00  1.1172872652122269e+01  7.6704568447326897e+00  7.2672230264433635e+00  6.4123495250123987e+00  1.2074350798142108e+00  1.6487141796307587e+00  1.4803262182483470e+00  3.2969469853055324e+00  2.4413493917182434e+00  3.3881292425402671e+00  6.4282654895163693e+00  1.0346691787360150e+01  3.6711757570273589e+00  2.8338932830819972e+00  6.4382700208667369e+00  2.6884961476023879e+00  1.4072859976696543e+01  1.4061709710105111e+01  6.8358872819512397e+00  1.5802269003539458e+00  1.3443804506326344e+01  5.2904010961898384e+00  1.8030047109333145e+00  1.9683725641271865e+00  8.5055436442841104e-01  4.1313097402108143e+00  9.4480996068137546e-01  4.7204257608724354e-01  2.6169093459119463e+00  3.1826913005396298e+00  1.2562419048300294e+01  9.6032043149407098e+00  1.0295586654600390e+01  2.1712439265989904e+01  2.3294822723523394e+00  1.3091947606532329e+01  1.3850212463444258e+01  1.1014539260051015e+01  1.0262209620666560e+01  1.7815511100468090e+01  1.1935552599358328e+00  1.0516411568910033e+01  5.2850697140016418e+00  7.2993800940832565e-01  4.0538938019847004e-01  5.3104868375065206e-01  4.3373835930169804e+00  2.2084540563172097e+00  3.3193673477643157e+00  8.2486995430935461e-01  8.0056535519387484e-01  4.4639902084823548e+00  1.6829349176489355e+01  1.2295168167381048e+01  6.0351759424770135e+00  3.8012186786305580e+00  9.3363732368575665e+00  1.4423884068481390e+01  4.0595685518656337e+00  4.5949267503822782e+00  5.0577186268973096e+00  2.6616618460030823e+00  2.7787761649212168e+00  2.0380010088612374e-01  8.9229588159279649e-01  4.6192299904859979e+00  7.1528999483201844e+01  6.1618268657679778e+01  3.0794515386120289e+00  1.3500656022206499e+01  8.3944386609840460e-01  8.4412374838350495e+00  6.8806012335307747e+00  1.2218775789582392e+00  1.1178043075916435e+01  7.3894368843913245e+00  1.9167219504151589e+00  2.9660110076086581e+00  5.5148154752494101e+00  1.1216047831091725e+01  4.1915560582030551e+00  3.2245379347714893e+00  3.3041460805298084e+00  4.5058561259145895e+00  3.0521444473962793e+00  5.9087720359142359e+00  1.3229886722433466e+01  1.4860440247809128e+01  7.0508709993269685e+00  5.0250558016376532e+00  1.1996599485537125e+01  1.2493476324440076e+01  2.3507336190750476e+00  5.3416401490360279e+00  5.5394804542687357e+00  2.5597896581525049e+01  1.3359532069275510e+01  2.7576792851465609e-01  1.4980213555838954e+01  8.5590287888259393e+00  5.8615505348612587e+00  7.2826054889723011e+00  7.4389408650387334e-01  4.3409524974204787e+00  1.0125087516168667e+00  6.6348626506248545e+00  1.1648424441648784e+00  4.0728131481152445e+00  9.6462599245272196e-01  1.3819985134988746e+00  3.7788302388731325e+00  2.2067440176581954e+01  3.4082942402419816e+00  2.9959832393561614e+00  9.4966069405655293e+00  1.2901616376776281e-01  6.4746290655042338e-01  1.6295246794784330e+01  2.1824443646481903e+01  1.3610424316325747e+00  2.8921798142860147e+00  5.0642481357504687e+00  1.0246044113202446e+01  3.7670070570943630e+00  4.0952174873773526e+00  1.1448631453197075e+01  1.8412870458759765e+00  1.7558022045563066e+00  1.2122997253304879e+00  2.4520338353778029e-01  3.0153366144994127e+01  2.3691960824619427e+00  1.6092719968813554e+01  1.5424005456011556e+00  3.3379460564013375e+00  1.3898541607104383e+01  8.5633993685539989e-01  1.4301475045365949e+01  5.7437774219317825e+00  2.5644837312568264e-01  2.9554018710996597e+00  1.5970403621668092e+00  3.9832806370603056e+00  1.3295562793336561e+01  5.7046937051406630e+00  2.5832156015983674e+01  6.0234442309759482e+00  8.5385903927384355e-01  1.5585345376695605e+00  1.5665873400339292e+00  5.9147256096592526e+00  6.0051463322098302e+00  6.2638454648065167e+00  2.5136557228701588e+00  8.0836198289877892e+00  6.3482522119885623e+00  4.0035797356493648e+00  1.6539743439903500e+00  1.2990180135873477e+01  6.5790837232679173e+00  4.8866230648720173e+00  3.4822711713908676e+00  4.1086966365300759e+00  1.8566740618413613e+00  2.5960244913836652e+00  3.4631597490582102e+00  3.7668460334100651e+00  3.3152483784999238e+00  1.6969985252030630e+00  4.6317760985757950e+00  4.2232117591712663e+00  8.9739455999120488e-01  4.2879374735746056e+00  2.4380159536411217e+00  7.4527402698078573e+00  1.1683267974083897e+01  1.1788875455881341e+01  2.7182733613795666e+01  3.4249485952237508e+00  3.3919974321476856e+00  1.6748300585772345e+01  9.9506370971371383e-01  3.8303663310749161e+00  8.0992318505107619e-01  7.8194615837896846e+00  1.1110919255618143e+01  4.5616830055978435e+00  2.8156810862359043e+00  1.2536953368150556e+00  5.2004506056682702e+00  8.8032797602438551e-01  3.8553733244044071e+00  5.2492910564337611e+00  1.5961069674165167e+00  3.7465762097849620e+00  1.7318111083958736e+00  4.7206957890951653e+00  4.4195512700408690e+00  1.3191874869222886e+01  1.9585329045199367e+00  9.0096862678633585e+00  3.7466493723374626e+01  3.6189819915948735e+00  4.1878305304694265e+01  9.8879590280671223e+00  7.1754548188948553e+00  1.1793320604695145e+01  3.4813788647200428e-01  9.4901164445215578e+00  1.8338323343942438e+00  4.2830148922159538e+01  1.2956837498980445e+00  5.8391669188587891e-01  7.5295266112349832e+00  7.6735669789368099e+00  2.2498867378087897e+00  7.2453184152050722e+00  2.2111131201760656e-01  1.1582824715434516e+01  2.6223876321828818e+00  2.6778285420762855e+00  1.1610306929214713e+00  8.3647827066832594e+00  6.9666674661513250e-01  5.2890634551891491e-01  1.5331936768927052e+00  3.7111045471523024e-01  8.3266143892141304e+00  8.9116313243750833e-01  2.8179378255523185e-01  8.0965085588958647e+00  1.0593989411091045e+00  7.1226444411708467e+00  9.7427579702800973e+00  5.5841594776239365e+00  4.2354426330884520e-01  1.0569016190303339e+01  5.3173278739014034e+00  6.4934870331008741e+00  2.2479774934194028e+00  4.9797321778495229e+00  5.0452509989862753e+00  3.8098466526997385e+00  3.7220154834360826e+00  1.3205642409699014e+00  6.1078005974438385e+00  1.0764173350789175e+01  4.0474103097750778e+00  1.2381677423744748e+00  3.5337540947837788e+01  6.3284746004046610e+00  5.8235055193898928e+00  4.6743355734931875e+01  4.9655137515495357e-01  2.4015934753482118e-01  1.0889918988031935e+01  3.1321070152409263e+00  4.7693072149819242e+00  2.6283792052217985e+00  9.5338196972883242e+00  8.3020836536585190e+00  1.7260639826799726e+00  8.7561922450334979e+00  5.2895333073556978e+00  3.9954670297027256e-01  9.7285968085621199e+00  3.3370363141020309e+00  3.2610360920727639e+00  1.0690748874098777e+01  3.8846764144302650e+00  7.9829596987847768e+00  2.7416913092749027e+01  4.0558155213978280e+00  4.2912369330327046e+01  4.2751966314645387e+00  2.9217769236873417e+00  4.2464155925943396e+00  1.1538243367530258e+01  1.9392555807271144e+01  9.8364779613459898e+00  7.5490928091419036e+00  7.5157260626958982e+00  2.5724942313225302e+01  1.6555073978485315e+00  3.8895370802345073e+00  8.5038892569780540e+00  1.3181381949853717e+01  5.4820204171438192e-01  3.8881997468002218e+00  9.3438378600520480e+00  8.6919381592467715e-01  2.8353695868619389e-01  5.8927511014393854e+00  1.0046155077804418e+01  1.1197919669518190e+00  7.2479611074937522e-01  6.2499876063904596e+00  9.6684277442581873e+01  2.9848096335932608e+00  2.0089927456433770e+01  2.1465553783613012e+00  8.2965066420300335e+00  7.0083812646148482e+00  9.7759877335069967e-01  2.1040010487201766e+00  2.6169672906475313e+01  1.3077801422553588e+00  1.2244115332087638e+01  4.3086907237917922e+00  2.1325279070056414e+01  1.5916958202618454e+00  2.5297261732744164e-01  2.6257392859688915e+00  3.6082250018215669e+00  4.2088045416462752e+00  4.7003791760410234e+00  1.5904548931566728e+01  2.1416541932386455e+01  2.8900166237478784e+00  6.2768824273763713e+00  1.4441412283897339e+00  2.8049407606559300e+00  3.4831035948902263e+00  2.9132278454194309e+00  3.5445200715462075e+00  3.6314546064631528e+00  5.7219328487976684e-01  5.3137998079933766e+00  8.2693971314105461e+00  1.3514829261260736e+01  4.6395462281917715e-01  5.9868491688975967e+00  1.7326736680789698e+00  1.8573563398005242e+00  2.2063579916045564e+00  1.0645234933301690e+01  7.6764188157919200e-01  2.5575872845716079e+00  2.7776406919061740e+00  1.3918063735729242e+00  5.4789408409985203e+00  6.5434356564557898e+00  4.5837916080451535e+00  1.2623360888307289e+01  6.1050583548906996e+00  4.9224909356028881e+01  7.2958912980512336e+00  4.4275881455293863e+01  3.5646367317385468e+00  3.9719052261170744e+00  1.1718031672626083e+01  1.1032032522890944e+01  2.9329355641053965e+01  4.1417393439201620e+00  2.6593433543736502e+00  4.3353158858002068e+01  1.8577328623462791e-01  9.6451773008333586e-01  4.1601179516043754e+00  3.9217233894514130e+00  7.8211412230918975e-01  2.3236884754422462e+00  1.0348972059320454e+02  2.7691861616845412e+00  4.7543403588969939e+00  6.3000258879818913e+00  6.4709441152676925e+00  4.7220544320386288e+00  3.7489842795460948e+00  6.9421953994474705e-01  4.1577138108076896e+00  4.6705811318285324e+00  2.8528268716081393e+00  2.4324405676470775e+02  1.1047956293091032e+01  9.0658362933609062e+00  1.3015132508249421e+01  1.5895509439301707e+01  9.8054664866548951e+00  1.4669887557419532e+01  8.4948912099557550e+00  4.8611969610511689e+00  7.1431269092790268e+00  7.4324206621056210e-01  2.5667992410606963e+00  5.4667407855923216e+00  1.0929595568967450e+01  7.6598965412231568e-01  5.4761058433687575e+00  2.7821323260020976e+00  1.9679427211230241e+01  1.5806089806647947e+00  3.5809734250425967e-01  9.2954480777406321e+00  1.5912678340628620e+01  8.6625194994244072e+00  6.6125076022313873e+00  2.7088972074029081e+00  1.1512694556833400e+00  9.1594857484520134e+00  3.5259085342755112e+00  1.0530830280541830e+00  4.0779649571699661e+00  2.0331669836880399e+00  7.3877640481594797e+00  1.6211924829200965e+00  5.9682254225426581e+00  6.8758959408826676e+00  2.1034444865454248e+01  1.8692381969087013e+00  6.7236999725459405e+00  5.6789658112684567e+00  1.7862225207659712e+00  4.8626464392240445e+00  4.0134204531386732e+00  2.8165368540623280e+01  2.3406075942545561e+00  5.2723642374345419e+00  2.3288254857618243e-01  2.7114005440254592e+00  4.7658601970356340e+00  1.8163666465550147e+01  2.7181518652105394e+00  2.1379535705936910e+00  1.7598448117636807e+00  5.0214507739687146e+00  1.1370090759924842e+01  1.3821971323974340e+00  7.4105793289808126e+00  2.9998747768853380e+00  2.1889906802944514e+00  9.8997201932190606e+00  1.4594036318796444e+02  2.8122341455052977e+00  6.9031213513980783e+00  3.6838271303072401e+00  2.6216697618553464e+01  2.7623284695266881e-01  2.1695127586672580e+00  1.2905007491663262e+01  3.7896592768965949e+00  9.1248605477223368e+00  5.9498030592061890e-01  1.5180409000654524e+00  1.9515466447483865e+00  2.0049068126222561e-01  6.0139116713623118e+00  1.1199069140983713e+01  3.9788046187284656e+00  1.3741767191966234e+00  5.8884238545094076e+00  4.8204606092180526e+00  1.3126392856863298e+01  8.1950592192973222e+00  3.2001716436358114e+00  5.1962038247440345e-01  1.5343155745065304e+00  4.1824469122416241e+00  1.0550992135225352e+01  3.0125022998952119e+01  1.3099033118049205e+01  5.2739877349400617e+00  5.1790176978406066e+00  2.0267595517711811e+01  2.8752923715501031e+00  1.8715604352395452e+00  1.8108522842513718e+01  6.5163055115960375e+00  3.3935379619585344e+00  7.4222308524990916e+00  1.6445178790317946e+01  3.3099597300214985e+00  5.1557391557289215e+01  1.0266218690868531e+01  2.8826275171852749e+00  4.5505887745137628e+00  7.0155711217708272e-01  4.0502596014548171e+00  1.8844661122030149e+00  1.5464037651339695e+00  1.3061988543927365e+01  1.3563358528226702e+01  2.1963022092331541e+00  9.3021481559948405e-01  3.0758294419034760e-01  9.5718773395992762e-01  3.5313856621069979e+00  1.4321583117990311e+01  2.8617329533058906e+00  2.9175721708968050e-01  4.3788393771501921e+00  7.6450974935008942e+00  1.0920561994904427e+00  4.7445020759760634e+00  2.4468471231852085e+01  2.2134733196424028e+00  9.2223704302182408e-01  1.9248628818156345e+01  3.7135485287126679e-01  4.6179795162981225e+00  4.1135370583712394e+00  1.1361736062051927e+01  1.5125479656843317e+00  4.4084872121083460e+00  2.1301974034553104e+00  5.5853673525882086e-01  5.1267227330482230e+00  9.6380034900413758e-01  6.6200574600390114e+00  4.6165297877745694e+01  2.4123815867956829e+01  2.7582035610756855e-01  6.5030812908506004e+00  3.0340625485031900e+00  1.0527220222349611e+00  1.3195868983280766e+01  1.3875617726427372e+00  1.1379084144978706e+00  3.4368243662765972e+00  1.9069319776836295e+00  2.5026426795064944e+00  7.8079256584014678e-01  1.1418084302234301e+00  4.9173339845551514e+00  3.8940131304256265e+00  2.6391536381738220e+01  7.7298644027674179e-01  3.4280387717780258e+01  1.2882167209197362e+01  1.1065802228474377e+01  5.5530522929888193e-01  1.0586906754236904e+00  1.6193390424016756e+00  7.2138055808197199e-01  9.3327480555037523e-01  2.7766158241697232e+00  5.8952263999398999e+00  8.3437421239729463e+00  8.5411042956148631e+00  1.4513499873420010e+01  1.3502329170702987e+00  7.7312471340615092e+00  2.2826807846896879e+00  7.3716060815318425e+00  1.0208868021145753e+01  8.4760069547128030e+00  2.6454692168018141e+00  8.7976231273441883e+00  1.3028756782044377e+01  7.3076981805143841e+00  1.9144571928933982e-01  9.3622444687070967e+00  6.7142312355803631e+00  9.9561438367652255e-01  6.2815689188114012e+00  5.4403661735481048e+00  9.3941360468654995e+00  4.1630177582964336e+00  4.3465965222222209e+00  1.2091892023153095e+00  1.2450117700729022e+00  5.0292447407687497e+00  1.2323379825293246e+01  3.0169997590295896e+01  3.2098441115287355e+00  3.0573843989820242e+00  1.6711251832363785e+00  2.7634766833454161e+00  5.6177521095409686e+00  6.6333053358568828e+00  2.7850402639107219e+01  1.1329581907399526e+00  3.5709307311163268e+00  7.3717474606844935e-01  3.6563967888918425e+00  1.0533883512695617e+00  7.0601426983588524e+00  8.5848820611618581e+00  3.4274744586494094e+01  1.4746621844047552e+00  1.7558599138985073e+01  6.1204872209341490e+00  7.0563001694492709e+00  1.9540714503808410e+00  6.5863833571990940e+00  4.7036722966226030e+00  3.4362842824015543e+00  1.2656909051830034e-01  3.1912712311343554e+01  2.9127327617936518e+00  6.4391819826003804e-01  5.5420289335724870e+00  5.8529279671018299e+00  1.4907690116398318e+00  3.8080954245679877e+00  2.5860486942854308e+00  3.0122546014771530e+00  2.2492240456036905e+00  3.2613968861273754e+01  3.5982043926194757e-01  3.1806677981610811e+01  9.9301321883532878e-01  3.3566564592521937e+00  4.5783095804936211e+00  4.5361678758130464e-01  7.9278175843009846e+00  1.6831572499739209e+00  2.0029064649487300e+00  1.8928068577938080e+00  1.5431637394697637e+00  1.3181174962144944e+00  8.1691931538307347e+00  4.7595402647086544e+00  4.8014862697831591e+00  9.0432421106851351e+00  4.2195594944419845e+00  1.1621560432776946e+01  1.1934278453375050e+01  3.9508573502121585e+01  1.0120038028296516e+01  1.1436184706331765e+00  4.4948101596813403e+00  1.5630670656867269e+00  1.5572934110910193e+01  2.1537675938135109e+01  4.8503292635136974e+00  2.7217178218947473e+00  2.9288600179732081e+00  1.2851227526472353e+01  7.1394491475849371e+00  3.5099601740214714e-01  1.2066781134335058e+01  1.3054450494123923e+01  3.0585084105779732e+00  4.3343576062175533e+00  3.5991942782203445e-01  1.8697338531373007e+00  2.1597699455408268e+00  1.0248428643150492e+01  2.9414131750143313e-01  1.0949936017967481e+01  7.2793776410527498e+00  7.7972278094467107e-01  1.1154208329764360e+01  2.5559271988062225e+01  1.4156581313015104e+00  2.9521909683669179e-01  4.7913654428186403e+00  1.6361066726663729e+00  9.3370914638864300e-01  6.2075587588757253e-01  4.4241422340396369e+01  7.5499796422391459e+00  1.2086340676361678e+01  4.7877124881123816e+00  3.5372238063485111e+00  5.9047888153394679e+00  3.1886581998754423e+01  6.4686713357954009e+00  3.4876162245956470e+00  3.3754102094062697e+00  9.0600825807135230e+00  3.1916202152114906e+01  1.1898621841847003e+01  6.2350191434433944e+00  4.9041984223531955e+01  5.1830466992164617e+00  1.2496209689370277e+00  2.0551016102030335e+00  6.1029682644773411e+00  5.0147040686834607e+00  3.8792170173945700e-01  4.5366250197621568e+01  7.1989743126328798e-01  2.6373692029306822e-01  1.2516846376402220e+00  9.6166734172820352e+00  5.0441639721786977e+00  5.8991154665259433e+00  9.6215913985319290e-01  2.4061226504180127e+00  3.0658177695927508e-01  1.9884233439109278e+00  5.3253229563913740e-01  1.3821635920413584e+01  1.4902409111380258e+01  2.8323521860723404e+00  4.3415677406566883e-01  6.5511874273798343e+00  2.6669134938893080e+01  1.2371541183345509e+00  4.8890248670056051e+00  1.9418133641175511e-01  4.6199556697227369e+00  8.0508949313371456e+00  9.7582886003694336e-01  2.8150396022461642e+01  7.8051782810658865e-01  8.6116059877698206e+00  1.1997196209091548e+01  2.9545193131914611e+00  3.5953266204340821e+01  1.3589982077224585e+01  1.1006707610999407e+00  5.5742060182344728e+00  2.2872398506459626e+00  1.8874589064521530e+01  8.2019755412996957e+00  2.6141364650268425e+01  8.6281166203815862e-01  4.7338990683203370e+00  1.0446046568243098e+01  1.8288651138618564e+00  6.1129061665352558e-01  4.4273680672826998e+00  1.0793250936960984e+01  1.6866805911905098e+00  1.1877654938281454e+01  3.9168952838948051e+01  5.1449246810484475e+00  1.6944333679885206e+00  6.0878872108233573e-01  3.9444203969812514e-01  1.5442996961576245e+01  4.3192344605663369e+00  2.8034314908466453e+00  7.8848317606185370e-01  3.1796193051983662e-01  3.9724582927026644e+00  4.8578012538666995e+00  2.5867501400732356e+00  2.9305027489575903e+00  1.0897643914422523e+00  2.4920665956380494e+00  1.7415717758742908e+00  1.7902543018591679e+00  4.1130485648787722e+00  1.5868262349157958e+00  6.3119828970302629e+00  3.2155274580251767e+00  1.0492479778394017e+01  7.6350745097129380e+00  5.4611422049877034e-01  3.0803364729880656e-01  1.7178863761874151e+01  9.9127553871333740e-01  2.8582078220810745e+00  9.2009329399129633e+00  1.1894722939510640e+00  6.6970464766438309e-01  3.1231439991706931e+00  1.2906993032902736e+01  6.1950311708599282e+00  5.4816104095889404e+00  1.3817327340204759e+01  6.7685828235785763e+00  6.6182133094231572e+00  1.8837757088095490e+00  9.5711094490962960e+00  1.5729992100184609e+00  8.1170710098969634e-01  8.2443841444383210e+00  1.4162177646706446e+00  1.0411893125770213e+00  3.0038677754813303e-01  1.5039822762607118e+00  1.9320234503955422e+00  4.9457678049050124e-01  1.8170161582291616e+01  1.0682854768999723e+01  4.6775258852383601e+00  3.2639957678684339e-01  9.3166312850105886e+00  5.3996586480100675e+00  2.5465694941878898e+01  8.0609285851875505e+00  9.4670059308547145e+00  9.0183674888938654e+00  2.7898878649348906e+00  3.2937529960737186e+00  4.2306190221921398e+01  5.8004788103210747e-01  9.0202871173136512e-01  9.0604882799192143e+00  6.4005896205647081e+00  5.9430208978412891e+00  3.9325409784137833e+00  2.5835915276703108e+00  4.4358483362053613e+00  8.2397403604039461e+00  5.6281600838354686e+00  4.0235489622961333e+00  2.8036647480037806e+00  7.6515535142557756e+00  4.7036964864930511e+00  4.3014245960827884e+00  3.2071716874442999e+00  2.2991360764469984e+00  4.3841296706534525e+00  2.0746192516550437e+00  1.2752024929983783e+01  1.1544180637967468e+01  5.5597872910597246e+01  1.5929371534093496e+01  8.5274064560080483e+00  8.2430201080863608e+00  2.6209560823699931e+01  1.3928953440670321e+01  8.6557683038080526e+00  4.5348072311591139e+00  7.4281268087962173e+00  6.2299105648899014e+00  2.9544924740355605e-01  1.1403737143864967e+00  1.7477279419648939e-01  9.4040322828559320e-01  8.1387402166011764e+00  3.4849222050080954e+01  1.3704278022584340e+00  1.7318824974019478e+01  1.7042514382390777e+00  3.7898053415849446e+00  1.8401383765754186e+01  3.2864942876066157e+00  3.7209237192300564e+00  6.6809114491319066e-01  4.2137214176282733e-01  2.1377960997957265e-01  8.5336067258668635e-01  2.8986962565555540e+01  6.8438407968131676e+00  1.0494100553315020e+01  6.0223060252192894e+01  8.8714906713281927e+00  3.5574253561551381e+00  1.0768426916932645e+01  1.9018500649783839e+01  8.4527531066007846e+00  1.0038065059710330e+01  1.3004784782841897e+01  4.3320369802394989e+00  2.9722710849628491e+01  2.1356990142410275e+01  7.7775658513088842e+01  1.2161156301042695e+01  2.8227913902128010e-01  1.3719727652157931e+00  1.4924637756541250e+00  1.0144071582575132e+00  3.3678296636866660e+00  3.0966309051157310e+00  1.6989371403386071e+00  1.5594304350013635e+00  1.1176303852667051e+00  5.8228761156445410e+00  6.5150436741086004e+00  8.9731547777636660e+00  6.5001625008656994e-01  4.9808192639744666e+00  6.5294335154358834e+00  1.4197160787291248e+00  1.3823058605306568e+00  3.0489027489009654e+01  4.7239658156495745e-01  2.7332095129685863e+00  1.2345010779155748e+01  4.7798312317071172e+00  4.2197626809431377e+01  1.1716086095564700e+01  4.1231505997888842e+00  5.2766754406419443e+00  2.3064519722779395e+00  1.4178239460540615e+01  4.1809433937469187e+00  3.6093135320742444e+00  4.8631399959253879e-01  2.1435685051082687e+00  2.3733646979932807e+01  8.3584613587096768e-01  1.2891082161866185e+00  1.1728285549860784e+01  1.2651166665491449e+01  1.2813162216850639e+01  4.9854979234126198e+00  9.9390172172980353e+00  5.1105268100903078e-01  8.8474061871892360e+00  6.1587835397423740e+00  7.8981936159439954e+00  1.5381918464611022e+01  1.0477834241614751e+01  3.2946596171831364e+00  3.6917514324831096e+01  6.9099070506485321e+00  1.2198379438565491e+01  2.1904618959915041e+02  3.8389536719041018e+01  1.4000651801694403e+01  1.9324135136435137e+00  8.4379942789108886e-01  2.8744388337286142e+00  2.3228715409322764e+00  2.4677741395303583e+00  5.6650381736319861e+00  7.3957753265865778e-01  7.0372942033491954e+00  8.2133730314928388e-01  1.1046035250900642e+01  4.9138387602027747e+00  3.4132340196085500e+00  8.8290045716791798e+00  3.0965486142496362e-01  4.4449055512248892e+00  2.5969158148640354e+00  2.1706783037550079e+00  3.2275852452398226e+00  3.5824937112958399e+00  3.3070610210212688e+00  3.2247820932561089e+00  1.1686489947318259e+01  2.5558325242681792e+00  8.0927994940581338e-01  7.0283946200260872e-01  2.0925934411717408e+00  3.2317789692329213e+00  2.1269389287013343e+01  4.1157416895297638e+00  8.0431064416906906e-01  7.0079509382757994e+00  6.3679228676293165e-01  3.0825290414514434e+01  1.9098735215917870e+01  1.0765390080522010e+01  8.3964610753419855e+00  1.0946151631298527e+01  2.3708497246590049e+01  6.7442548167023224e+00  5.7892900812899741e+00  1.0234164055805426e+01  4.5083993499127653e+00  3.4166151062033552e+00  1.2312553666934338e+00  9.0610806600453948e+00  2.3240988347426534e+00  3.8057708439372718e+01  6.6200850809205285e+00  6.2884683588782764e+00  8.5247702659602087e+00  2.6719625489309156e+00  2.3097084287194929e+00  4.2796213838841419e+00  1.2854932191171423e+01  1.2452893191166716e+01  9.5523240213408354e+00  9.6010974050070796e+00  1.0019108177642913e+01  3.7560483548378563e+00  3.7418613168442594e+00  3.7701398018987633e+00  9.2707504957296951e+00  9.4620421837340754e+00  9.6366438535912717e+00  3.1422742992461314e+00  3.1657952122585873e+00  5.4502915847867381e+00  5.3684157744306544e+00  5.4259459616677468e+00  6.4164385368205572e+00  6.3644489384418614e+00  6.3506308224386085e+00  1.3829500956256868e+00  1.3311788429756735e+00  1.3824062096014404e+00  5.1366078032201070e+00  5.2326497060362485e+00  5.3445968205863981e+00  3.9702052793015408e-01  4.2267805223883415e-01  4.0516259555216483e-01  5.7361465509480762e+00  5.7793839521213082e+00  3.8872077124329629e-01  3.7210671222472153e-01  5.1056041585227705e+00  5.0440883614807328e+00  5.0855599246029008e+00  5.0065266325879234e+00  4.9859276899038960e+00  3.4377997099488297e+01  3.5725716747118973e+01  3.4604219647085159e+01  4.5802203937037644e+00  4.4742440387215625e+00  4.4646225071245693e+00  1.5548591589042879e+01  1.6200618628813718e+01  1.5502629792870247e+01  7.8646769730270760e-01  7.8473098247470685e-01  7.9560379719644958e-01  6.8521139936377362e-01  7.6709073514784909e-01  3.4734590332342226e+00  3.6195318586269440e+00  3.5746719150102302e+00  3.5396335275506394e+00  3.4634438814331721e+00  3.5084052219127604e+00  7.9357406525880336e-01  7.8250342472666756e-01  3.3310504001742776e+00  3.3117641489664469e+00  3.2895607101365489e+00  5.4145410022085017e+00  5.5156620811041552e+00  3.2393040178575365e+00  3.3168007715403407e+00  3.1730825508965887e+00  1.7231120130225193e+00  1.6998238759992801e+00  1.7030437278062636e+00  4.3134309780283848e+00  4.1883311691918399e+00  4.1851723940533470e+00  2.9355368362792972e-01  2.8484073982274744e-01  2.7515216850478935e-01  2.4344074779206942e+01  2.4711687286513811e+01  2.3337739830481311e+01  2.1480342255550995e+00  2.1474780118181496e+00  2.1670165331022626e+00  2.0026578742007191e+00  1.9894307766659078e+00  1.9786722137793020e+00  6.8672484858776945e+00  6.6537965651952486e+00  6.5818012120229463e+00  3.8740206895136189e+00  3.8866170508477458e+00  3.8516875147066982e+00  4.9709114425983598e+00  5.0694900314665317e+00  2.4485386313055395e+00  2.5259260692799859e+00  2.4896010216180033e+00  1.8127546429034824e+00  1.7993542061698011e+00  1.7305828725013006e+00  6.0816354754111444e+01  6.4642873798538318e+01  6.3429492765953775e+01  4.1964267011187175e+01  3.8154724102883279e+01  3.8043747440552671e+01  1.0379888085220685e+00  1.0366483479536353e+00  1.0236513785975851e+00  4.0463696906625790e+00  4.1669773200596936e+00  9.4158612764559102e-01  9.7267070247346754e-01  9.8045500232428351e-01  4.5950339043845680e+00  4.6426145507079495e+00  4.6131119207356726e+00  1.1074267336778094e+01  1.1041792823643217e+01  1.1045182591246647e+01  4.5427259834163998e+00  4.3603755386430167e+00  4.3972977764337751e+00  3.0420936766830198e+00  3.0672112316742082e+00  3.0889052461044595e+00  3.8614161832081608e+00  3.8769552956111561e+00  3.7792135826622810e+00  4.6717504819206281e+00  4.6941138349713656e+00  2.0195841502423995e+01  1.9354198738977107e+01  1.9204903953162294e+01  7.9947909322075550e-01  8.1082617730438500e-01  8.0345199765869979e-01  6.3105332890179051e+00  6.2645478874167173e+00  6.2353795890625321e+00  1.0597999640368949e+00  1.0437863059885391e+00  1.0440500477244397e+00  4.2751580467925461e+00  4.3680016984430301e+00  4.2931564029076146e+00  8.5505071409360234e-01  8.4569100258160357e-01  8.6297432374659166e-01  4.6958332093779571e+00  4.6843412941968552e+00  6.6151773740313802e+00  6.5588479176629413e+00  6.3503846791484735e+00  5.6103256886199908e+00  5.5921714628743873e+00  5.7035291825085794e+00  1.4214540079226406e-01  1.3352416755892269e-01  1.2965313118959207e-01  9.9718797719874654e+00  9.8378387981507718e+00  2.0133142459999007e+00  2.0916508579077591e+00  2.0528436186231493e+00  2.0887803645894012e+00  2.0729301842141394e+00  2.0621814633444409e+00  1.1617218763517231e+01  1.1637730448903451e+01  1.1483749782318004e+01  2.6209789920249538e+01  2.8825065812892824e+01  2.8643241400726787e+01  6.5702846968299800e-01  6.3164102733541805e-01  6.5247509353309729e-01  7.8290432752014671e-01  7.7586789429570502e-01  7.6124710542983254e-01  2.8327805176150367e+01  3.1124413094464511e+01  8.4600126399176701e-01  8.1406041302310672e-01  8.4176869453761682e-01  1.7323309735749419e+01  1.7575878623375832e+01  1.6841686620268067e+01  3.4335819628563891e+00  3.4820759956629681e+00  3.4549670562359585e+00  3.9271740722221233e+00  3.9163847029090948e+00  3.8996409690042610e+00  1.0696320480513593e+01  1.0585300805220911e+01  1.0511861314501425e+01  2.1496397196539734e+00  2.1315697544044765e+00  9.5228599457634089e-01  1.0025749238372128e+00  3.8937980263758973e+00  3.8545274787271548e+00  2.6543790132397046e+01  2.6807225495507300e+01  2.7211381756493278e+01  3.0594419739600487e+00  3.0353488283369847e+00  3.0993483971996980e+00  4.3175334004582830e+01  3.9304349151774858e+01  4.2674776604592999e+01  6.1315517889277138e-01  6.0339616677360408e-01  1.0245654510943501e+01  1.0512330791781283e+01  1.0385598648171085e+01  6.9109762344165642e+00  6.8842150588541795e+00  6.9490652545073743e+00  5.3830265490016060e+00  5.3439584105704441e+00  5.3926812635361649e+00  6.1665483788361435e+00  6.5866008032899801e+00  6.5679025763639194e+00  1.8594433015680114e+00  1.8999403259090131e+00  1.8849851284000998e+00  1.4466999948925263e+01  1.6036517815452910e+01  1.5437717230024562e+01  5.2364814305767347e+00  5.2762186090390211e+00  5.2895104079744097e+00  6.5130548359649181e+00  6.3955480246767440e+00  6.4311164579665014e+00  4.0199973439705881e+00  3.9144073826190136e+00  3.9988239422401874e+00  1.0515909731630638e+01  1.0259928257600036e+01  1.3663613329822584e+00  1.3871786877577859e+00  1.3825174069941437e+00  1.1719606497205115e+01  1.1790833424281981e+01  1.1465749695619920e+01  3.3799252462474465e+00  3.3531989173756527e+00  3.0087291193683263e-01  2.9642590478866698e-01  3.0275752736685319e-01  2.1317985693440296e+00  2.1875310789043083e+00  1.1303171642520965e+01  1.1889992569418078e+01  1.1651356410784077e+01  9.7503313611891613e+01  1.1639217100569735e+02  1.1305000338044822e+02  5.4938153255024758e-01  6.3607481461449988e-01  7.3265521522402643e-01  1.0502433892454917e+00  1.0354242952553172e+00  1.3092570265570002e+01  1.2883980071499865e+01  1.2842240387243926e+01  3.0415126943379169e+00  3.0976301331878955e+00  3.0203928410157488e+00  3.0706258175937524e+00  5.5589764659202157e+00  5.5034187255233942e+00  5.5251687505344051e+00  1.8362556839334949e+00  1.7858859050467204e+00  1.8899698682271588e+00  1.5568254305934763e+00  1.6404939739817643e+00  1.6233305801043967e+00  3.5105184481357004e+00  3.5391832043772000e+00  1.0435953673530447e+00  1.0271101332571599e+00  5.1060962295309889e+00  5.0753560212740911e+00  5.1076683464275439e+00  6.3877238483606487e+00  2.5556166708345277e+01  2.4099549328789248e+01  5.7289697409202156e-01  5.6655374167292349e-01  5.9297973656160385e-01  1.3745395986122178e+01  1.3410554389972836e+01  1.3837377448281210e+01  8.5972614217212318e+00  8.4351643258940872e+00  8.5211295570103047e+00  5.7309281809964567e+01  5.8323433163613551e+01  6.9470864030167370e+00  7.0628808953788109e+00  7.0745125466136782e+00  1.1691673637882033e+01  1.1528283920503707e+01  1.1841435683117496e+01  1.1015564488568085e+01  1.0900797113519978e+01  1.1012307918011436e+01  3.1332359318391934e+00  3.1159210951116916e+00  1.9133996140072274e+00  1.8980057212082466e+00  1.9279136546698048e+00  8.6757608191973878e-01  8.7436757082745609e-01  1.8392699079903899e+01  1.9024448148339928e+01  3.6002837026663727e+01  3.5787532488010228e+01  1.6581696684804943e+01  1.7959836697507733e+01  7.9757477537050236e-01  8.0362735226584991e-01  1.0634611644985439e+01  1.0505597589317917e+01  1.0696467222294565e+01  6.0102149666577125e+00  6.0397276347121087e+00  6.0650903802036531e+00  8.2013612213474829e+00  8.0029608897995352e+00  8.2471516649718577e+00  1.1254867664286472e+00  1.1118806049603969e+00  1.0939181989004456e+00  1.6968018637227138e+00  1.6787681971773354e+00  5.4042642941292929e+00  5.4440596185530827e+00  6.3510802166581675e+00  6.3107310899635101e+00  6.3682560405571715e+00  8.3588808389613445e-01  8.6898419929451143e-01  5.6238261623927386e+00  2.0405296601520595e+00  2.0551487399440194e+00  2.7343468407814889e+01  2.8698552281540710e+01  2.7856638303595656e+01  6.4237523915862855e+00  6.4948353916847656e+00  6.7066255408386173e+00  7.9270306055933304e+00  7.8967732035643099e+00  7.9906477087144383e+00  2.7517946231625987e+00  2.8497160150550545e+00  2.8062328619128780e+00  2.4014192126776264e+00  2.5153768134025882e+00  2.4619936847480832e+00  1.1179132911017444e+00  1.1836899306141182e+00  1.1793977780533420e+00  2.7775728634339735e+01  2.7736600815430130e+01  8.1277782410418826e+00  8.3406265323998703e+00  8.1461790099365921e+00  1.4717430617541916e+00  1.4624306834440983e+00  1.4436468922572643e+00  2.5318909557132807e+00  2.4927367143891850e+00  2.5059457497538831e+00  1.9217035910838309e+00  1.9085298189175415e+00  1.8981022039769917e+00  6.9905027205569414e+00  6.5945031422042550e+00  4.4211281529398669e+01  4.1481129157963927e+01  6.3205365611692832e+00  6.5169033381508132e+00  4.7915755974687553e+00  4.7566077447958319e+00  4.7635012448977871e+00  6.2597271614241254e+00  6.2728872442920647e+00  7.0018011164450322e-01  6.9464293782882203e-01  6.8645124177156591e-01  2.6455391066832384e-01  2.7255352809809974e-01  2.7304167968439563e-01  5.6066855264541546e+00  5.6169569630289278e+00  5.6520021321822513e+00  3.4471722509565952e+00  3.3908711448913955e+00  8.7964199777334660e+00  9.1866204232050954e+00  8.8682882332156332e+00  1.0097989516327052e+01  9.9903203441346822e+00  2.6805689401573090e+00  2.7046212087148769e+00  2.6093676054119634e+00  5.9655512893709535e+00  5.8824869086995655e+00  6.1490472281054229e+00  9.6398330783813702e+00  1.1004769431095166e+01  1.1032392318760342e+01  4.4497987013500975e+00  4.2573528997763983e+00  4.4354095419173802e+00  4.7166641621474461e+01  4.6337644959376064e+01  4.4987223243569820e+00  4.5031171969087875e+00  4.4547350394456231e+00  2.0734928592164352e+00  2.1810058121595257e+00  1.2002912437501765e+01  1.1626155109850361e+01  1.9043092388642815e+00  1.7368918952848986e+01  1.6877941345311609e+01  1.7995535102522400e+01  3.6492521295545419e+00  3.4876326429153202e+00  3.5572498550390477e+00  5.3007034064484406e+00  2.3718204356198318e+00  2.3710445474614912e+00  9.0034363488254208e+00  8.6498139611307145e+00  1.8249213917529367e+01  2.0146624224458549e+01  1.7657312736759017e+01  3.8340548930809327e+01  3.8700454095156744e+01  4.0218163514487969e+01  9.2484451011269133e+00  9.6583069363156309e+00  9.7880869558011625e+00  8.1730970422690614e+00  8.1390472672112733e+00  1.0933815901940656e+01  1.0929517125827795e+01  1.0655440369484651e+01  6.1883767455541197e+00  6.2701038381004608e+00  6.2059117760348563e+00  2.3473340051864451e+00  2.3212840526577661e+00  2.3230625108295904e+00  1.3862356467736110e+00  1.4534524884133635e+00  6.1752568380249677e+00  6.1204235293613420e+00  6.6151273715720817e+00  6.4732985614305782e+00  6.6433764165637648e+00  4.0448959789204988e+00  3.9930756118342741e+00  4.1473639688050481e+00  7.0326242752400949e+00  7.3656828376007439e+00  7.1330469298229451e+00  3.6820125505759961e+01  3.7239294024755068e+01  5.4855690094212575e+00  3.0981191232027001e+00  3.1171178208273513e+00  3.0905893675034743e+00  3.8270906338670123e+00  3.8084195297670176e+00  3.8613663109454546e+00  4.0502355089806263e+00  4.1552994071472122e+00  8.5964255506874085e+00  8.7729462916062317e+00  8.7102516864024970e+00  9.0591706017336193e+00  8.7431462215838529e+00  8.6913735380968777e+00  1.9582890802380122e+00  1.9725976353603107e+00  1.1004960357135346e+01  1.1158819290505134e+01  1.5592414322682503e+01  1.4948752330020888e+01  1.4581424929144542e+00  1.4309971317664236e+00  1.4641698624001485e+00  1.0211313413819687e+01  9.9550367934838082e+00  8.3678519833772533e+00  8.6264706802537638e+00  8.3366885625440741e+00  1.0376089358418040e+01  1.0580389930830938e+01  7.0984377632448741e+00  7.1103065533943335e+00  6.8625681240628831e+00  1.2059188988339185e+01  1.2161751420309923e+01  2.9217851636133158e+01  2.8370573610026764e+01  2.9963700815750013e+01  1.9770711746670231e+00  1.9939428254097511e+00  1.9445819408112386e+00  1.9796768779578471e+00  2.0103317727760390e+00  2.9721122518472005e+00  2.9962746580296504e+00  2.9913307319141662e+00  1.6990770859416148e+01  1.7849753834857989e+01  1.7809482691705313e+01  3.4529252849683472e+00  3.5039658652979617e+00  3.5653952607822630e+00  9.7920603696218045e+00  9.6576072497179233e+00  9.3791703286645607e+00  5.7985016696105776e+00  6.0384560738832187e+00  2.2310121650224022e+00  2.2305985729148805e+00  2.2470029212245217e+00  2.4951873106739959e+00  2.3982360007512638e+00  6.3324977716844941e+00  6.4600854603900224e+00  7.7131997375229033e-01  7.4576370468336239e-01  7.3550120636519134e-01  8.4137483743927550e+00  8.6831745310077029e+00  8.4090848715120803e+00  2.6741066860853518e+01  1.7064107385117639e+00  1.7562788873530089e+00  1.7771190770864971e+00  1.9360070361504660e+00  1.3893945576298736e+00  1.3727449547618318e+00  3.8034717094324826e+00  3.9509738782210642e+00  3.8616351642366027e+00  1.1271788243239211e+01  1.1538841728058737e+01  6.8082930141438558e+00  6.8521588316675075e+00  3.1233821993515893e+00  3.1513811527555315e+00  3.1452360538174444e+00  4.6150293512087313e+00  4.6049095549622638e+00  4.6341318111479257e+00  1.6451204924444034e+00  1.7243673785891975e+00  8.5256174851921031e+01  9.4436225719270709e+01  9.7081246156118894e+01  5.3557140421540728e-01  5.2983659060678356e-01  5.1898599765138897e-01  1.8244157501528870e+00  1.7950237323256952e+00  1.7719176152790181e+00  7.7839578488876304e+00  7.8566516758271989e+00  1.2456846729043347e+01  1.2126305489389191e+01  1.2304131114853735e+01  9.9633564254341933e-01  9.8463402946400935e-01  9.7610554462999410e-01  2.9470491629727880e+00  2.9523613166356224e+00  5.9509074217094939e+00  5.7294421243745868e+00  5.8027130804018707e+00  7.4108304448464981e+00  7.1439163678565221e+00  1.8065117495748659e+00  1.8336181445617925e+00  1.8489236586858617e+00  1.6516053907907075e+01  1.7322373197067154e+01  1.7205607757767897e+01  3.7837500850810022e+00  3.7963105983061718e+00  1.4865290562206861e+00  1.5229724386627910e+00  1.3392171845670351e+01  1.3607914558846218e+01  1.3712185039445659e+01  2.6791444681983858e+01  2.6860546140986127e+01  7.0296159551813400e+00  6.9470931818513453e+00  8.5698999291700917e-01  8.9493737560387643e-01  9.0050050961240125e-01  9.1914478665792370e+00  8.8805576779651414e+00  9.0671565512777939e+00  1.3301466583848978e+01  1.3223878771917391e+01  4.7361394288952381e+00  4.7783929026858631e+00  4.7350921096376544e+00  4.9187250758600785e+00  4.9336746253300312e+00  5.1162788146455611e+00  5.1453909462802789e+00  4.1217662918565612e+00  3.5301804997592052e+00  3.5443350255050703e+00  3.5206268335342963e+00  2.1410664815642576e+01  2.2664051290917566e+01  2.2873419658521058e+01  8.3899589238027055e+00  8.1388272680135643e+00  7.0340297442047444e+00  7.1801231502453735e+00  5.5842212283821580e+00  5.6374112431503445e+00  1.3510212106569092e+01  1.3987889343515725e+01  1.4775973512394961e+01  1.3758297156410348e+01  1.4645218461518219e+01  1.0417341348375668e+02  1.2873222203052450e+02  1.0667868640619512e+01  1.0404657284203639e+01  9.5894143668183194e+00  9.7063246527075737e+00  9.4441010680606752e+00  5.4886788334464462e+00  5.5799054573669844e+00  2.1402028129194717e+00  2.1560144025397436e+00  2.1290551787439638e+00  3.6239901163095243e+00  3.5541722134961806e+00  3.4647611701022676e+00  1.0341813277798288e+01  9.9336149759567967e+00  5.4548883736305565e-01  5.6412378306418076e-01  2.2764400379480292e+00  2.3063412218095674e+00  2.3330429753394855e+00  2.8107993542547643e-01  2.7541251046743392e-01  2.4842247754006848e+00  2.5326963721002005e+00  2.8881376728064434e-01  2.9555051462616827e-01  3.0147401884825648e-01  2.5882174424707456e+00  2.6621687326503070e+00  2.6140688138298755e+00  6.5053095553032412e+00  6.2735949445749473e+00  6.3607502174151964e+00  8.4329284472914257e+00  8.6094026007661313e+00  5.1262733267257667e+00  5.1652766757346269e+00  1.1334692774235133e+00  1.1498826325918974e+00  5.1691686681559661e+00  5.1861753319482382e+00  5.1379479323988928e+00  3.7127000922622391e+00  3.7629573705788086e+00  3.8622485115382279e+00  2.6657021587823770e+00  2.7641378906772376e+00  3.9341164336939478e+00  3.9107501220376597e+00  8.8942841490245605e+00  8.7461115545804997e+00  8.8922976492064407e+00  5.5579928260594457e+01  5.7770048796776052e+01  5.4022143239068512e+01  3.0605893240801088e+01  3.0724713158466312e+01  3.1582763518898663e+01  3.3062115787326995e+01  3.4094319420313234e+01  3.4131538452018681e+01  1.0328249645560225e+01  9.8702499209460264e+00  1.0049726064091328e+01  4.7333540260285494e+00  4.7224094799640142e+00  4.6951553904430865e+00  1.2725161056441574e+00  1.2792330825143503e+00  2.9591886949953201e+00  2.9532179677492465e+00  2.9324407564190249e+00  2.1855679668575281e+00  2.1718549872369990e+00  1.6489788024685781e+00  1.6659294313305402e+00  6.3330640119304498e+00  1.7388672113581198e+00  1.7572082743412212e+00  1.7129032235145767e+00  3.0789060444625131e+00  3.0620327272676611e+00  3.6928077622714230e+00  3.8052600702908874e+00  3.7913366137437281e+00  3.1627903415221459e+00  3.1783321071483259e+00  3.6422985032197197e+01  3.7003545602464456e+01  3.6746490320770448e+01  6.1161527941559646e+00  6.0867305634133766e+00  1.9506714183219480e+00  1.9675961306420691e+00  1.1061519043115906e+02  9.4761560231752270e+01  4.1524091833796533e+01  3.9454142597130819e+01  4.1144742499712784e+01  2.2334647569873889e+00  2.2111147849815924e+00  3.3775735564728898e-01  3.2667007034724943e-01  2.3429970456985984e+01  2.2805242282133104e+01  2.6419484312871155e+01  4.8476299783975456e+00  4.6733507250316872e+00  4.7574668554350428e+00  3.5922817062807404e+00  3.6175564183968296e+00  3.6055177677888217e+00  2.6983290297776819e-01  2.5779046660939980e-01  2.5502147655677054e-01  1.8751996841086072e-01  1.6914416465864754e-01  1.8647508305901900e-01  1.9143734805851884e+00  1.8881612858967030e+00  1.0123598957878921e+00  1.0077144170877925e+00  6.9074266932728234e-01  7.0301875478715581e-01  3.0522243451671777e-01  3.0693178063520199e-01  1.7868747493481653e+01  1.7026338326265083e+01  1.2893389027649784e+00  1.2555128771605508e+00  1.3009977548350216e+00  1.7257653558946560e+00  1.7063063902326878e+00  1.7274514657089770e+00  3.0135303177357962e+01  2.8304199292190784e+01  1.7383897457579194e+00  1.8114631678927824e+00  3.8108858789428979e+00  1.7340280959100993e+00  1.7554817933947504e+00  5.7097478607976959e-01  5.5567564738440289e-01  5.8075144333110784e-01  8.1327389105687118e+00  8.4525211468028587e+00  1.8271572607193850e+01  1.9396994079455169e+01  2.3267622180723384e+00  2.3462939215902630e+00  2.3427003471669701e+00  8.4280066647077483e+00  8.4793618817612515e+00  3.3905348482733952e+00  3.4016732244585932e+00  3.3771344126417993e+00  5.4226560390594152e+00  5.4812115455243982e+00  5.5015327761383208e+00  9.4512851378236249e+00  9.7127791342162322e+00  7.4277019999931071e-01  7.6357784752303692e-01  7.8016439558658734e-01  2.4067857613949952e+00  2.3727220364130970e+00  2.4879427996667878e+00  1.2453342720233813e+01  1.2088822226320211e+01  1.2607515764497581e+01  1.0109083002347609e+02  1.1535911318982575e+02  1.1471511197919044e+02  2.9910948613331292e+00  2.9674599173276848e+00  9.8071051610009512e+00  1.0205688404697414e+01  4.7077983689097058e+00  4.8151327854460524e+00  3.5681833070625482e+00  3.5577517908467171e+00  3.9886957320101956e+01  4.1905111604076168e+01  4.2775422108437255e+01  1.2646258640929069e+01  1.2599828440613212e+01  1.2071049110910888e+01  6.6765358525838945e+00  6.8835481193727226e+00  6.6827049722396259e+00  1.8782848438043642e+00  1.8921718620010377e+00  2.6528040061934965e+00  2.6340320827446173e+00  2.6668712018967384e+00  1.2503616852169058e+01  1.2028270603958466e+01  4.0265864705907441e+00  3.8524387275556653e+00  3.9799983394966549e+00  1.6280329645335970e-01  1.6720228007167845e-01  1.5938231519000193e-01  6.2931078146822079e+00  6.3117565532277604e+00  6.1418659067553829e+00  2.1236696563147888e+00  2.1467852228899815e+00  2.0782171417087154e+00  4.5727281043306380e+00  4.5945573212854507e+00  1.3535191186133548e+00  1.4163362189187583e+00  1.4024399276667947e+00  9.6674181372053936e-01  9.4648153511398381e-01  9.6929298539158237e-01  2.6461085731741227e+00  2.5691928212019808e+00  4.6549856972135650e+00  4.6116910530993378e+00  4.6480968299100267e+00  1.0352736289849984e+01  1.0478172977673061e+01  1.0651157546338181e+01  6.1517756762705300e+00  5.8847714236736568e+00  5.9307639740130806e+00  2.4327034853517810e+00  2.5050428697416760e+00  2.5470518526854091e+00  3.7153254592726088e+00  3.7302219696430083e+00  2.5870354391169836e-01  2.4649751463934153e-01  2.7655707842618715e-01  2.8209676485759588e-01  8.3645490695729787e+00  8.5651181929020144e+00  8.4284156206558567e+00  1.8511261863845219e+00  1.7454187740521705e+00  6.4117610345292742e-01  6.5999584467379924e-01  6.3394957715042954e-01  1.0667362515189021e+00  1.0709225347816986e+00  1.0795123176031924e+00  5.7635917263095514e+01  6.1511820881148616e+01  6.4352395796257738e+01  1.1138086042175699e+01  1.1164319692235360e+01  1.1081561550500371e+01  2.2024697407896920e+00  2.1646825955977986e+00  2.9167385638916449e-01  2.8841296552561363e-01  1.1265200934538090e+01  1.1026890580705331e+01  2.2387307577583369e+00  2.2877849461994062e+00  9.7798173704411262e-01  9.7903773620157275e-01  9.9399211926035236e-01  8.3280006838778107e+00  8.1253250543102808e+00  3.4114874454130470e+00  3.3900721689160358e+00  3.9010816074493451e+00  3.9175235132967341e+00  4.7928296856133619e+00  4.7820554513922238e+00  4.8118320982016707e+00  9.9502542080264167e+00  9.5500342460553984e+00  4.9181426009016667e+00  5.1167216916419695e+00  4.2034159143532527e+01  4.1646153498357251e+01  4.5921320202830849e+00  4.5179221795416664e+00  5.1986826863977109e+00  5.1472745011928467e+00  2.8753399339593109e+01  3.0587243324751775e+01  9.3674066294698495e+00  8.9772145700335990e+00  9.0158713375728219e+00  8.8828653823744226e+00  9.0345290344974476e+00  2.2650274267755122e+00  2.2865701995705354e+00  2.2970478063567592e+00  3.6318003932947227e+00  3.6422618204166115e+00  4.5442296253547720e+00  4.4850098182156062e+00  1.5289293899142711e+00  1.5423645184778469e+00  1.5605222924698072e+00  6.6674940952160000e+00  6.5576093060044753e+00  6.7468555463660440e+00  2.1849782575421912e+00  2.2309070873199044e+00  2.2070705565733633e+00  1.8137955262890306e+00  1.7676381904027565e+00  8.7954402139270016e+00  8.8846820162778748e+00  9.2191425284343484e+00  2.6407699807460085e+00  2.6680977856328476e+00  2.4285696602722822e+01  2.3119552971243625e+01  1.1842108338067526e+01  1.6103170003275460e-01  1.5104269850367158e-01  9.8866049585217546e+00  9.5588030371954105e+00  9.2705229639432272e+00  3.3411595447587530e+00  2.7850925864054506e+01  2.6696666297763858e+01  1.1132517688810182e+00  1.1433458367455835e+00  2.5531575833900139e-01  1.5782113841279628e+00  1.5949072789804977e+00  1.6198300565357457e+00  2.0767175934187083e+00  2.0846296913448490e+00  2.1022366911827870e+00  9.9626908088723027e+00  9.3316473794461210e+00  2.2665181157605399e+00  2.3066033051521968e+00  2.2364360580866258e+01  2.1820619348048538e+01  2.3097779646785636e+01  6.6600333743592968e+00  6.8394186536261987e+00  1.4782919781190433e+00  1.4544600431598829e+00  1.2147513976597923e+01  1.2398903423560196e+01  2.9041932091848368e+00  2.8368817002522149e+00  2.7856494483329213e+00  2.6686881921105767e+00  7.8648118429162945e+00  8.0021580003341004e+00  8.1658896535467029e+00  8.6420245404077569e+00  8.4178747843951616e+00  8.6962290000923570e+00  3.8348819379757826e+00  3.7609436468149653e+00  5.9088404875467448e-01  6.0774401667221345e-01  1.3409177845193838e+01  1.3783704479044188e+01  9.5100497886487101e-01  9.1331292969690703e-01  1.7251071472625193e-01  1.7988733171505897e-01  1.7301673348083915e-01  2.3839872470425640e+00  2.3625476757773312e+00  2.3788701788086697e+00  2.4538550576073224e+00  2.4091570438050285e+00  2.3586966486600871e+00  1.2864558570857284e+01  1.2623443411553861e+01  3.9898649949071601e+00  3.8811496674828181e+00  6.4725042609681627e-01  6.1597456958847485e-01  4.7776364968184488e+00  4.6856607008135631e+00  4.7543485363776483e+00  1.3163425379010338e+00  3.6556490822369296e+00  3.5978059341593305e+00  3.6348011804922162e+00  6.8485925435768391e-01  6.7103212645775445e-01  6.9417057459323850e-01  8.9050850645676825e+00  1.5725213341246709e+00  1.5252961191192693e+00  1.4963810137313307e+00  4.0145173101864146e-01  4.1738349131327634e-01  4.0710974251285137e-01  4.7773516809062047e+00  4.7548341128473917e+00  5.7899368390294157e+00  5.7093899225330027e+00  5.7624744195512196e+00  8.6018316034508775e+00  8.9999126209448121e+00  9.5026450652916434e+00  9.1620795989411796e+00  9.0456412382914255e+00  1.1274899818230171e+00  1.0860333156533499e+00  1.0780905332390409e+00  7.2580871272927396e+01  1.7688237365516095e+01  1.6918146323562702e+01  1.1483382336821257e+00  1.1753775503595305e+00  5.7359770176928508e+00  5.8312431747258779e+00  2.3073275898697032e+00  2.3062520789741678e+00  1.4611904880378944e+01  1.5890027872735775e+01  3.4699172826445084e+00  3.6294577812691151e+00  9.5290600462006225e-01  9.9166218666561246e-01  9.6977827049426502e-01  6.9647955025046198e+00  6.7119312132618525e+00  1.6561470767619790e+00  1.6603157141745954e+00  4.3449249347650820e+00  4.3354011513005197e+00  4.2541548665413647e+00  5.2616532941234269e+00  5.1642198007426430e+00  5.1533268985128693e+00  1.4441056553860419e+00  1.4873358711053495e+00  8.1594004452198003e+00  7.9681779675080904e+00  7.5081997082509195e+00  7.5538641155415691e+00  7.4094255342567639e+00  1.1373230196334317e+01  1.1402735232644412e+01  1.1773207646177902e+01  1.1989555044827933e+01  1.1584137505527947e+01  1.1516772149076484e+00  1.1759180609261930e+00  1.1386345199430503e+00  5.7989312067526830e+00  5.8219183569822759e+00  5.7133882074023905e+00  5.6909412083161612e+00  7.5900940037060582e-01  7.2751996014324471e-01  5.4420082358421542e+00  5.6990169353849947e+00  5.6220356625374448e+00  4.1761015565483977e+00  4.1025728201877847e+00  4.1760991184505860e+00  5.4874525892059367e-01  8.5045950556106553e-01  4.6577304899911871e+00  9.6816863845456247e+00  1.7576388191478609e-01  1.6809308504232140e-01  1.2770482651630573e+00  1.2885991945919786e+00  1.3297020659319263e+00  1.2964652726459409e+01  1.3275068916879981e+01  1.7969471236285461e+01  1.6994898729450021e+01  1.6825720194505550e+01  3.1879156927724845e+00  3.2786195340267383e+00  3.3228548600790746e+00  9.2850604267915771e-01  9.3701460254481272e-01  9.0006421090529531e-01  1.6950810998598143e+00  1.6581196061715959e+00  1.7494575078647543e+00  4.2819959272899927e-01  4.3162065119028170e-01  1.8014793127823406e+01  1.9077429684626306e+01  1.2381390379220807e+01  1.2716099098788055e+01  1.2813975485398915e+01  4.2572740296492215e+00  4.1678711604320426e+00  3.5630167326868611e+00  2.1887529132117032e+00  2.0765126143146797e+00  4.6155241068459913e+00  4.5971323733360032e+00  4.6258214406925324e-01  5.0953356636653768e-01  9.7579751026227302e-01  9.4670835085040128e-01  2.6655610152304452e+00  2.7099813153158570e+00  2.6451617694324967e+00  5.0150756036405539e+00  4.9685339335491880e+00  3.2828614091089339e+00  3.2760574961072937e+00  3.2572560657170722e+00  6.3815603991528635e-01  6.5314452949769508e-01  6.6993800361895051e-01  9.7022823250521455e+00  9.5792784481823325e+00  9.8051189370349352e+00  1.3096938775972404e+01  1.5206754151828465e+01  1.5734871258366098e+01  1.5283212446499080e+01  1.5355154078800783e+00  1.5533400808740003e+00  7.9897545017662686e-01  7.8941858708590318e-01  3.9198865124085153e-01  4.3676221421749789e-01  3.7009302837616470e-01  2.4633315187873954e+00  2.3829643984750422e+00  3.9745892877876549e-01  6.5851779009788636e-01  4.0818819793719161e+00  4.0402193496530758e+00  4.0754627002090329e+00  3.1464806983515046e+00  3.1758542732592852e+00  8.1278415886457598e+00  4.8941418373435113e+01  4.7516184118798449e+01  1.0101927364456987e+01  1.0395946387230682e+01  3.9487998854609367e+00  4.1241696579549991e+00  6.4349624382822581e+00  6.2002483070370022e+00  6.2448720710845622e+00  1.3464568442427525e+00  1.3664620840335699e+00  1.3433970045906414e+00  6.8271662334813543e+00  6.9739105863338411e+00  4.7032681101062160e+01  3.4349193643018827e+00  3.3790028058123407e+00  3.2918097307464635e+00  2.4273433354036764e+00  2.4049017183052737e+00  2.4270611035824836e+00  4.3314051899793016e-01  4.3453322244389053e-01  4.1551757493565250e-01  3.7071119664757077e+00  3.6592402333865262e+00  3.6833235057585423e+00  6.4841053290721060e+00  6.2917269388968329e+00  4.0843514033544267e+01  4.5162413478013685e-01  4.2908777572853524e-01  3.8707455246433682e+00  3.8822776380809443e+00  5.2261261266479684e+00  5.2047384454641588e+00  1.0300169952578264e+01  1.0386014184421372e+01  1.5658505233354816e+00  6.8628468668846443e+00  6.6725489196216996e+00  1.8646790101174857e-01  1.9389901761659659e-01  1.9042568905522855e-01  5.4800514591007543e-01  5.5837839310065940e-01  4.9284701796527264e+00  4.9388851314779334e+00  5.7284183706648157e+00  5.9694224451151960e+00  1.2152437796390414e+00  1.2336566862265634e+00  1.2148451755167062e+00  5.5529920958453705e+00  5.4916834460859212e+00  5.6271303739046159e+00  4.8196790136414052e+00  4.7857373243432999e+00  4.8113954306182487e+00  3.4854890034143677e+00  3.5954506822011809e+00  3.6600703598783486e+00  6.8803366535452648e-01  6.6438796017294788e-01  3.5795322265115832e+00  3.6084593115331414e+00  3.5678513620792005e+00  9.6013417185541183e-01  4.6329421657273526e+00  4.4628038982042852e+00  4.5836570593061294e+00  2.3334200564869012e+00  1.1201869561072707e+01  1.1108195569377122e+01  1.1444136734967776e+00  1.1285821088968391e+00  1.1333619380681592e+00  4.0925351726076524e+00  4.0835846314756967e+00  4.4036903448136160e+00  4.3333405550528834e+00  2.1729569293447076e-01  2.0882233236896983e-01  2.0527928696827857e-01  1.6829097919355340e+00  1.7064034594795663e+00  8.1913326143682241e-01  8.2296364598690896e-01  3.6405106748227007e+00  1.7206479683229169e+01  1.6106205119809598e+01  2.4290524681039134e+00  2.4506361369202194e+00  1.7734248021509644e+00  5.5793769573165982e+01  5.8814262876924779e+01  5.3956897507749588e+01  1.4704806904469396e+00  1.4821789562264636e+00  1.4628316369135921e+00  1.5930559757115261e+00  1.6339430406387327e+00  1.5557310138201279e+00  5.3807615164798307e+01  6.6165652459332875e+00  6.4702509122855929e+00  6.7289583413622909e+00  1.9894081583878147e+00  1.8980659460348654e+00  1.9518874772880370e+00  2.7981867599272665e+01  2.7926644165834247e+01  2.9870876358881272e+01  2.7724775431849404e+00  2.7607990395060367e+00  2.7469364110708177e+00  1.6553103623797734e+00  1.6344318034881122e+00  8.5411152911562436e+00  8.5725253124484873e+00  3.7221117554199303e+01  3.4688618612797775e+01  1.6824773834107150e+00  1.6792299439005716e+00  2.3876458202887668e-01  2.5534011359901398e-01  2.3252067274641169e-01  2.3647044506655448e+01  2.4211294611696040e+01  2.4609340821078400e+00  2.3541966565028090e+00  4.2652556310863101e+00  4.3054876655678855e+00  4.2844124261014054e+00  5.5503397588891268e+00  5.5188834761659367e+00  5.3298487479564347e+00  4.2992185384582635e+00  4.2628623401932577e+00  1.0788802090677631e+01  4.2786726478488553e+01  4.3617866821138797e+01  4.2184001585700130e+01  3.6658033869503202e+00  3.7701776364095405e+00  7.4267179223862199e+00  7.4897582337264881e+00  7.5373118680223312e+00  9.6424046497843392e+00  9.3121514841190987e+00  6.6860786556530325e+00  6.6237472557831412e+00  9.7859688021356490e+00  9.7319511608461937e+00  4.9957908661105899e+00  5.0296428153327764e+00  5.0124609282193138e+00  3.5610381964758164e+00  3.5305996771769466e+00  7.6622966036086497e+00  7.5744349542257892e+00  9.4313291670969459e+00  9.4243155110526438e+00  9.0718842356622744e+00  1.0241229012441353e+01  1.0655827474324543e+01  1.0807668658541758e+01  4.0167404056239917e+00  3.9719726811986003e+00  1.6450216232489350e+00  1.6671058143588349e+00  1.6636689716977118e+00  3.2212000804583933e+00  3.3699948001102471e+00  1.2116579630180682e+00  1.2318985210946432e+00  1.2499258864686464e+00  6.0324944876468782e+00  6.0531187114601481e+00  5.9824675214374645e+00  5.1312193810910536e+00  5.1120254329504924e+00  5.0975643061331839e+00  2.2166483387553977e+00  2.2484157082961147e+00  2.0249784378309545e+01  2.0282593249808215e+01  2.6211458164020573e+00  2.6004202559123057e+00  2.6527832435540151e+00  8.7461218895473731e+00  9.0212419064422562e+00  8.2824498401795612e+00  9.5750585414384783e+00  9.5707515325142634e+00  9.3736004525735463e+00  4.2976541569371932e+01  4.2472722806038938e+01  4.0137461039281682e+01  7.2005744081335521e-01  7.1349981331799373e-01  5.2022986389518708e+00  9.7946533989093911e+00  9.5810085460201844e+00  9.5947027968617853e+00  9.8030841239935089e+00  4.2750302670217879e+00  4.2631122667938364e+00  4.2911013519187247e+00  2.3149913658921224e+00  5.7109364377906351e+00  5.7924706471654392e+00  1.0305480112549915e+01  1.0593041050299739e+01  4.7488270367629761e+00  4.7702698362269933e+00  6.7442215377324892e+00  1.2538225789522908e-01  1.3260334950480607e-01  3.8968912994187221e-01  4.0273997016756657e-01  4.0153499322553621e-01  1.0110888891230505e+00  1.0315981254144799e+00  5.6590856608678575e+00  5.6927132469838266e+00  1.3429335757132794e+00  1.3260725432487439e+00  8.8380923364079322e+00  8.5406416433252872e+00  8.8409765133654226e+00  1.2391621958669216e+01  1.2125985584251959e+01  5.2901233532845787e+01  5.0960049859714083e+01  9.9475193252505925e+00  9.8290483741386883e+00  1.2530994585801187e+00  1.3129846126263138e+00  3.9550796884175474e+00  3.8215958716656711e+00  4.1786284673370089e+00  1.1551040107982283e+01  1.1925249862293740e+01  5.0641185763488288e+01  5.2674748750845282e+01  4.8119357918598205e+01  3.4131225901613838e+01  3.5158386772115861e+01  3.3772190730310079e+01  3.3220168724594373e+01  8.7007179956056753e+00  8.8730001403984886e+00  3.1155476726794018e+00  3.1453562361818403e+00  1.9934825430473202e+00  1.9756957926239971e+00  1.9933893814205272e+00  3.6198742800420364e-01  3.3237235960171135e-01  3.3508561954570848e-01  5.9638873491269040e+00  5.8952377370570064e+00  5.8688190893924626e+00  6.9344340249724210e+00  6.9720411630986820e+00  7.0242006170836744e+00  6.7136364322096318e+00  6.4799857341249130e+00  6.5017443874776175e+00  6.4651142440404277e+00  6.5715881684434496e+00  1.0458723147764589e+01  1.0416293095264212e+01  1.0592665552840453e+01  3.5894375638919525e+00  3.6098980615349583e+00  3.5793582024902841e+00  5.6605935796450435e+00  5.5418155555044839e+00  4.7964272969056267e+00  4.8348404710885573e+00  2.0206735845378692e+00  2.0838271444799479e+00  2.7234808486040505e+00  4.1434641277523196e+00  4.0574182314667846e+00  3.6898912140065594e+00  3.6008820940275585e+00  2.2765396369082436e+00  2.3398752377027008e+00  9.7457949548783827e+00  9.3861052670814811e+00  9.7878210343366678e+00  5.1467461269832002e+00  5.3605783271596286e+00  6.9077577250304802e+00  6.6915119454075613e+00  6.6760415282251744e+00  5.1860262571135332e+00  5.0999918305822591e+00  2.3693277632393550e+00  2.3750592840327212e+00  8.7298688518920446e+00  8.6404408719669608e+00  1.3383945386649387e+02  1.6939055231553212e+02  7.1218232926212481e+00  6.6722955003476487e+00  8.8731090833686075e+00  8.8907624575079076e+00  8.6670303686023473e+00  2.0063926695744541e+00  1.9932231662121080e+00  2.0556114677183475e+00  6.4312475284438960e+01  6.4340036217528072e+00  6.5336623174849651e+00  4.1873848104573717e+01  4.2059055847857969e+01  1.2403739055307641e+00  1.1891942227038659e+00  6.2291190325592920e+00  5.5032406815185564e-01  5.6356055310724840e-01  5.4231489156146651e-01  1.2878373623503801e+01  1.3327661929760277e+01  1.2628169511613349e+01  1.2773453812530922e+01  1.9838966999536849e+00  2.0420277030522067e+00  2.0079141011462363e+00  1.8354132704042587e+00  1.8613254323568726e+00  4.0612514401037139e+00  4.1104215925628509e+00  1.0088101837321778e+01  9.7532180427205706e+00  1.0093152935416986e+01  1.5185622207040059e+00  1.4997224541276346e+00  2.3255460556018894e+00  2.3733962927273118e+00  5.2129752311795974e+00  5.2374002758940934e+00  5.4233376427815383e+00  1.9767607642878586e+00  1.9429773470265466e+00  1.9496535758651190e+00  1.2007104757610221e+00  1.1942895901316815e+00  1.1783447330850485e+00  9.4263778115833503e+00  9.4232394792514356e+00  9.1340595497179766e+00  1.0371870074194016e+01  1.0402833539867908e+01  1.8432757629503363e-01  4.4804339176435439e+00  4.5009593461563737e+00  4.4682455791488920e+00  2.1866245024494551e+00  2.1874103870618735e+00  6.7010072298129542e+00  6.4543906990828006e+00  5.6233254955098799e-01  7.0795305149401999e-01  2.1290677786817714e+01  2.3607515817270571e+01  5.6436736470771383e+00  5.6600200687490352e+00  5.6878377348274354e+00  1.2201723051188786e+00  1.1988234099530668e+00  5.2244199685117625e+00  5.0814975962978286e+00  5.0442463799245782e+00  5.3500213335640083e+00  5.3652730429303439e+00  1.5177306108232174e+00  1.5217070769860550e+00  1.3545877658304279e+01  1.4319128543240176e+01  1.3575453631800219e+01  6.5103796753776200e+00  6.4944620399345574e+00  6.7364728073077904e+00  5.3232284173192266e+00  5.3075366747072437e+00  5.3447316316242768e+00  8.0632460949836571e-01  3.2552698125178079e+00  3.2349216260721483e+00  3.2721396629087103e+00  5.2686112476402895e+00  5.2905324678463064e+00  2.3725369685260915e+02  2.2976276425442401e+02  4.3923844022579021e+02  1.5205956305568083e-01  1.5422229989942932e-01  1.3820078885268797e-01  3.8388927627334275e+00  3.7954932815663600e+00  2.4982279630006188e-01  2.2293579361778218e-01  1.0695916779308126e+01  1.0551120392950471e+01  1.0941007228203857e+01  1.0778629769134399e+01  5.0479995308527572e+00  5.0400281582003572e+00  1.7370030928359331e+01  1.1175053963222601e+00  1.1118726686352038e+00  1.0877674084699238e+00  3.6479562893130080e+01  3.7530532246097906e+01  1.9365553236860278e+00  1.9143310956560853e+00  9.0842373850149745e+00  8.9834013426415815e+00  5.6052296450660402e+00  5.5711057327244893e+00  1.0839540939989366e+01  1.0850511115071752e+01  6.0063803972028325e+00  5.9506461099191617e+00  5.9721903627787967e+00  1.8978960008318303e+01  1.6704394267366492e+01  3.4405977717960421e+00  3.4742055869271322e+00  3.4853304039336748e+00  6.2589692557982390e-01  1.0902223554384929e+00  1.0906644265809109e+00  8.4791482757931878e+00  8.4518175146955041e+00  1.5618627794057645e+00  1.6389138445255218e+00  2.9652100290014611e+00  2.9602116223742461e+00  3.0010337738000441e+00  3.2522487223721029e+01  3.2062341655673258e+01  7.7579839158396782e+00  7.8376393938175077e+00  7.7218612935281969e+00  7.5869174083157338e+00  7.6428394901980337e+00  7.6811119002337076e+00  1.0662847657925616e+01  1.0573586677840751e+01  1.0975675127986726e+01  9.0323735776583458e-01  9.3829176381852786e-01  1.0260478239002371e+01  9.8952833636978550e+00  2.4205241787836012e+00  2.4123328124528949e+00  2.3906312950629007e+00  1.3328647997616989e+00  1.2869456899559111e+00  1.3196008349108688e+00  6.0986444417509622e-01  5.8016530248103482e-01  5.9884978057951455e-01  1.1301504363106959e+01  1.1220534014556220e+01  1.1216569881680680e+01  5.9426061754086277e+00  6.1814116641215016e+00  6.0042937039517055e+00  3.4548677755862478e+00  3.5035058881752033e+00  1.4823066816233930e+00  3.3686881186137705e+00  3.3953519005453110e+00  6.9782668925469347e+00  7.0655733988454417e+00  7.0252431871520757e+00  3.7140885850467238e+00  4.7978560868466191e+00  4.8261457303764317e+00  5.2047654673874411e-01  5.3963594736522913e-01  5.0995158110664451e-01  3.2309670204608851e+00  3.2387580461768994e+00  1.1580061336571670e+00  1.1624205976674600e+00  1.5864066668311079e+00  1.5266931266601169e+00  4.3855116742263718e+01  4.3275947183167126e+01  2.4501473509085212e+00  2.4291784872030329e+00  3.5637940498725328e+01  3.9739309518200123e+01  8.3490503986306290e+00  8.9808606008517078e+00  8.7786717828039382e+00  8.9001727804550352e+00  1.4528572474217112e+00  1.4405630135417455e+00  2.5602808555763503e+00  2.5849671294594470e+00  5.9392934127152532e+00  5.9962194601462659e+00  5.8845277857642597e-01  4.7232710141791312e-01  6.4951616857646526e+00  1.0937475011390990e+01  1.0663373746295305e+01  1.0788780298907794e+01  8.2755248996413986e+00  8.5182626147682257e+00  6.1664122049669565e+00  6.3499586442258140e+00  6.0051972120253510e+00  1.6537099851443022e+00  1.7246489496282671e+00  1.8830261340789991e+00  1.8456498080847616e+00  1.8123025541366475e+00  2.4329209061625519e+00  2.4038695934693188e+00  1.0869927451086097e+00  1.0407322467953564e+00  7.8034996192866686e+00  8.1235685947702496e+00  1.8665301088299999e+00  8.4190476293707961e-01  8.3940844997404163e-01  8.2863065463790608e-01  5.2039475015995551e+00  5.1939838194063590e+00  1.3278167429278744e+01  1.3466672130052999e+01  1.3743655807243952e+01  9.6603727669815154e-01  9.8159045270596068e-01  2.2363389676500834e+01  2.3059658438421142e+01  2.1625501976591682e+01  2.1091751694973415e+00  2.1154505838541038e+00  9.4282915246530994e+00  1.6007491935638374e-01  1.1767660757980940e+01  1.1539570849082729e+01  2.0513909633651930e+00  2.0699034008303920e+00  1.6016176011112548e+00  1.6733193192570208e+00  1.9561989330955374e+00  1.9479897801274544e+00  1.6600386667199123e+00  2.4827936233103030e+00  2.5227184184584783e+00  2.5411930692334495e+00  2.6053852839683685e+01  2.6397550735918191e+01  4.0821580840686513e+00  4.0301568025429440e+00  4.0593052059804364e+00  4.5481573318148332e+00  3.8182287675092614e+00  3.8372934011997391e+00  1.0281143155010573e+01  1.0486473677111450e+01  3.2890307060315715e-01  3.1832632296380969e-01  3.9464829608539405e+00  3.9450130795790805e+00  3.9207287120734891e+00  2.0476251489379362e+00  1.9617906489433745e+00  1.9699593132217113e+00  9.1461027293221733e+00  9.3852359173452378e+00  9.3933867356210250e+00  3.4586113576090527e-01  3.4840937413677664e-01  3.2100465276222629e+01  3.2106154570328734e+01  3.4944450393998023e+00  3.5128350516346072e+00  3.5261696724778639e+00  1.0131393132491608e+00  1.0298031275497013e+00  6.0690406211480568e+00  1.3776264093838511e+01  1.3646440001448674e+01  1.3801407810407612e+01  9.6696149094507799e-01  9.7872397044971116e-01  9.7950108337346520e-01  1.9874327936026079e+00  1.9566551744863370e+00  1.9320593397694605e+00  4.6543184723925172e+01  4.6123356349761124e+01  5.3016151301806691e-01  5.2073970386020096e-01  3.1374053448425210e-01  3.0083219113434073e-01  2.1626158294144483e+02  1.8116439638648369e+00  1.7276456106553115e+00  1.7784774036190272e+00  4.0823809508731728e+00  4.1600931745348761e+00  7.7764529294381148e+00  7.9577846300391171e+00  3.2125759821003275e+00  3.2835074990301938e+00  3.3044855903873334e+00  1.6830973293302853e+00  1.6491364544745106e+00  3.9771671366535517e+00  3.9538687228403804e+00  4.2354308967950523e+01  4.0890497337530801e-01  4.1890619441829685e-01  5.9253224401389231e+00  3.0307608823777730e+00  2.9787447149803472e+00  9.4021666856570150e+00  2.5372331935406245e+00  2.5897443477305551e+00  2.5601939784401888e+00  2.5592420444733608e+00  2.5372724181245707e+00  1.1720478378110482e+00  1.1804716855695609e+00  1.6189571814638613e+00  2.0441122277813002e+00  2.0203524547828793e+00  2.0537013679264047e+00  1.7988975385111512e+00  1.8304669257885553e+00  1.8168181212224437e+00  1.3427029042934373e+00  1.2963629042556875e+00  6.2780047561958199e+00  6.2185741456123518e+00  2.5722308780705698e+00  2.6254499253719574e+00  7.6733728610214529e+00  7.5825795005162089e+00  3.3380122868376425e+01  3.4422869762870960e+01  1.4872916877904299e+01  3.3198841265428793e+00  3.8138863204429083e+00  3.9026682507152084e+00  1.1753705577265816e+00  1.1650925734389865e+00  1.1782447280098036e+00  4.5438417648226617e+00  4.4831429262306211e+00  4.3650932033324459e+00  1.9146764483505287e+00  1.8784027722665813e+00  1.9562803192961393e+00  6.3835037117758797e-01  6.7117598226803210e-01  1.2363172955475154e+01  1.2065902496590917e+01  1.2442825587426272e+01  4.2038851817808727e+00  4.2279467600338938e+00  4.2469891571700007e+00  6.6749949789768204e+00  6.6767838155659458e+00  6.8691282885381337e+00  1.1948307415090242e+00  7.4335064802150495e+00  7.5570835382872410e+00  8.9314761388363595e-01  8.9306906292225841e-01  8.6147456434723555e+00  8.2523436527498912e+00  8.2660555749279290e+00  1.4176264840237766e+02  1.1423906629885018e+02  3.1040031465836898e-01  3.1390385489481987e-01  3.1829499286865531e-01  3.7488244344026626e+01  3.8945335050951094e+01  9.3578617800031694e+00  9.7605426466491743e+00  2.1645119526807242e+00  2.1451633662728984e+00  1.0820441362122180e+00  1.0672976139172830e+00  1.0672647773366721e+00  9.9335574057872988e-01  9.7528021556907896e-01  3.7441386173593841e+01  3.9819041085500942e+01  4.7807162215014785e+00  4.7551113766013389e+00  1.7356529348479768e+00  1.7126192462112741e+00  1.7161541200708801e+00  7.9469385176750662e-01  7.9431934409977112e-01  8.0314885644572842e-01  3.8833313370963598e+00  3.9438973795878551e+00  5.0608935689219212e+00  5.0822739139786810e+00  2.4965148818581473e+00  9.1501911758633891e-01  9.5016666496307345e-01  4.1784488876584973e+00  4.1968554356791001e+00  4.1418357478837393e+00  4.9557035713833147e-01  4.7976135975582118e-01  4.7428015681232460e-01  6.9647024598477865e+00  6.9304517612798495e+00  6.8814316562820981e+00  2.9777848188132011e-01  2.9038339220742954e-01  4.4932834426637962e+00  4.4587628137257624e+00  5.5038809511042066e+00  2.4597361427647422e+00  2.4390720091305838e+00  6.3212169383463550e+00  1.4401111406300018e+01  1.4383258310389596e+01  5.2973933193059306e+00  5.1731445305372104e+00  5.1785169623982306e+00  2.0322230634758114e+00  1.9776978030744354e+00  4.2938403185641619e+01  8.9953579328681332e-01  9.2051354742387170e-01  8.8180730123300677e+00  8.8560324981702063e+00  9.1064288057655602e+00  3.9384608828965080e+00  3.8883237351517925e+00  3.9340118576016812e+00  1.7654938266343045e+00  1.9649894791283999e+00  1.0218849060995760e+01  1.0385819356370597e+01  6.3421378619893820e-01  6.2812944801448822e-01  4.4505297752101065e+01  4.1724239482568137e+01  6.7626368231197143e+00  6.8916990820015993e+00  6.8818185806651186e+00  4.2344458409994399e+00  4.2524321246839767e+00  5.9010033675324989e+00  6.3266508931017533e+00  3.5363636306273349e-01  4.1002658335961861e-01  1.0035856328097537e+01  9.8936422109322812e+00  4.5448957330027708e+00  4.5030362163382183e+00  3.9105357663025155e+00  3.7933729455403622e+00  5.5133161650653573e-01  5.3743719118009570e-01  5.2322521408582123e-01  8.8316581155479241e+00  9.1109616166463354e+00  7.2900000626160688e-01  7.1937837083487821e-01  7.2304221895222343e-01  2.5613227863250287e+00  2.5733550063428772e+00  2.5498823092364087e+00  1.2664733426584057e+01  1.3112800760954038e+01  2.1787165862933882e+00  2.1410031911598204e+00  3.2117675157087548e+00  3.1473337624448581e+00  3.0840919220648906e+00  2.3456395178537499e+00  2.3623417150533914e+00  1.3667603748524770e+00  1.3397845275740907e+00  9.2126333193235765e-01  9.7169384207381082e-01  3.2333231571956119e+01  3.2927291075393235e+01  3.3237304187061127e+01  1.1383848421341135e+01  1.1030321503637524e+01  1.3940780501344203e+00  1.4101185530631881e+00  1.8682142509368771e+00  1.8900814264797621e+00  3.1724084374953701e+01  3.1257031701978857e+01  1.8252850172536226e+00  1.8105322817652827e+00  1.7883236313441369e+00  3.0933756643320015e-01  3.1412613596479511e-01  7.9198292630086131e-01  7.7657636262426144e-01  7.8981819137340492e-01  3.9383882980753202e+00  3.9833123536397257e+00  2.6775221132162432e+01  2.5561584605230887e+01  2.6430687375767494e+01  2.1067894568863581e+00  2.0362554639979704e+00  2.0979219490320347e+00  5.3088866796640355e-01  5.0786150057353885e-01  4.6238734444042100e+00  5.0476032764890864e+00  5.2705451417594675e+00  1.0669200003993195e+01  8.4201430619071029e+00  8.3474077680261356e+00  8.2665926496160687e+00  1.5233445773007783e+00  1.5521950042401682e+00  1.2095047518822044e+00  1.1868886250794002e+00  2.8873797377971560e+00  2.7669906774009849e+00  6.0661351118513132e+00  9.2485861459851666e+00  8.9501922625797885e+00  8.5847436223811542e+00  8.4176205977830900e+00  8.5242512497073530e+00  6.1360635497920519e+00  6.2045554122109206e+00  8.6533885426209167e+00  9.0477163222720645e+00  5.1865209646426109e+00  5.0623308187876290e+00  5.1838920260376016e+00  8.0959050307309965e-01  7.9784803747086708e-01  6.4953580990694917e+00  6.6064864178985383e+00  6.4789436577271209e+00  4.0090386790182206e+00  4.5219753872306228e+01  4.4438208000018051e+01  1.7246011293046890e+00  1.7495402247001499e+00  1.7745088287720591e+01  8.2713311440033692e+00  8.2827216957066767e+00  8.3610801113554700e+00  4.8013513985502394e+00  4.7475257428877624e+00  4.7831223133151211e+00  1.1181736612118392e+01  1.1142278823556275e+01  7.3027025044567784e-01  7.1961375383470705e-01  4.4291197814355208e+00  4.4732568892060947e+00  8.6633189785104801e+00  8.1333658163436322e+00  8.3751279898303537e+00  7.0149673447277994e-01  7.1251380851315227e-01  8.9335842465494384e+00  8.6007631647857110e+00  5.4651364620653204e+00  5.4373744941626896e+00  5.5012170926400925e+00  2.6244896480305915e+00  2.5172071375672287e+00  3.3116743050051292e+00  3.2930667950623587e+00  3.3996390596717263e+00  3.4964851806033161e+00  2.3514816681711497e+00  2.2923953248472801e+00  3.4693921874240239e+01  3.5405790630576647e+01  3.1327742766468880e+01  3.0996382988385530e+01  3.3494723925457549e+01  2.4551213589298829e+01  1.8564776177610706e-01  2.0270901414922879e-01  7.3645868678378557e-01  7.2273211961559414e-01  7.0561294276303321e-01  1.3202718024737990e+01  1.3304141450274139e+01  1.2847063165304267e+01  5.2944443525701290e+00  5.2696249201965770e+00  5.3304734079637894e+00  4.5295557058114992e+00  4.5103365371632114e+00  5.7778985190153627e+00  5.5764120481937605e+00  3.2620137240048930e+00  3.3640489056234490e+00  5.2284467121091609e+00  5.2035415069018445e+00  5.2609569663979405e+00  1.5572502705094953e+00  1.5391751548855903e+00  1.5298102628403958e+00  3.4936548726502945e+00  3.5311263387954561e+00  5.8306389591668202e+00  5.6850518890222892e+00  6.9121962784689117e+00  6.8699577904659863e+00  6.8180629558574886e+00  1.0889644360946026e+01  2.0367423235374669e+00  2.0316582387208650e+00  2.0126818793992678e+00  9.7209719109835078e+00  9.8229415369400446e+00  1.3134190346597789e+01  1.2743135093159841e+01  1.2812086996862400e+01  5.9265439168988934e+00  5.9033805545009557e+00  5.8687352841922689e+00  1.8657487882575232e+01  1.7442802370660878e+01  1.8333951554482020e+01  4.4577453439312373e+00  4.4367637959713511e+00  3.2714525357145462e+01  3.0605097788240922e+01  3.1909934546279892e+01  3.2257013265968396e+01  4.7778267225716409e+00  4.8222721206073036e+00  4.0201937081365262e+00  4.0355326822215645e+00  4.0486454610199978e+00  7.9762210546724399e-01  7.6830491256621936e-01  1.8807151633339039e+00  5.2472272156533197e+00  5.2861158293189572e+00  1.5123578743578303e+01  1.5297713732356334e+01  5.2646504269072674e+00  5.2351347055099549e+00  5.2795732631615415e+00  4.0155268680538629e+00  4.0468453928636290e+00  5.5664183932025786e+00  5.5403036559736973e+00  1.3586496203126853e+01  1.3808309651067704e+01  8.4493172788799509e+00  8.4377052376609196e+00  1.5047215296193306e+00  6.7453489595981893e+00  6.7402021687685920e+00  2.6027494769432584e+00  2.5594515641536635e+00  2.6614541002603831e+00  5.3726204500312358e-01  6.8480568683953118e+00  6.8974911576228903e+00  4.4474091753610971e+01  4.3898190139948859e+01  3.7771049747512300e+00  3.6882608886352055e+00  3.6518007174383174e+00  1.3883393172892278e+01  1.4347786876067914e+01  3.0194933447852318e-01  3.3411398924101227e-01  1.8814877084043347e+00  1.8189121673947024e+00  3.5905804724184747e+00  3.4880673277947265e+00  1.4017454404026015e+01  1.3520088321899982e+01  1.3901261418684273e+01  3.4002443748098266e+01  3.3593034047482810e+01  5.3923643146814868e+00  5.3701310698490881e+00  3.7525338536734973e+00  3.7173144293882658e+00  3.8437541700607043e+00  2.5752201955759517e+00  1.0840570700715548e+00  1.0766533823438742e+00  6.8466882698901543e+01  7.6455335449104936e+01  7.2075951471111111e+01  2.5745143569956279e+00  2.6056377489049010e+00  3.4492367189870081e+00  3.3609362127022169e+00  3.4017502125951626e+00  1.0199117508843059e+01  1.0076526177629393e+01  3.3544830560979855e+00  3.3475884433194003e+00  3.3256300763461515e+00  1.4090751173737669e+01  1.4631631655072255e+01  1.4170040029424449e+01  1.3986311094613231e+00  1.4119401803952085e+00  1.4564616904252818e+01  1.4149747609626576e+01  8.2653556737158596e+00  7.9111823486663111e+00  1.2144938732144510e+01  6.8943920619805645e+00  4.7160187745046080e+00  1.0725738917687423e+01  1.0981428091786073e+01  8.5673399599940865e+00  8.1076043900483956e+00  4.4975821002123073e-01  4.3597225920840943e-01  4.4277697270960220e-01  4.0626963276637779e-01  7.9973825768015305e-01  7.8503061883039837e-01  8.0281954466445804e-01  8.8841073624011937e+00  1.2463949618182713e+01  1.2884539706619410e+01  1.3278278199522489e+01  1.3084592235937544e+01  8.9316653571150564e+00  9.0701417699157538e+00  9.0069221087028453e+00  4.5463577902553524e+01  4.4231339746313964e+01  4.4526098911416149e+01  8.3845931572653054e+00  8.2210656343052086e+00  1.3830993158814398e+00  1.3726535479514308e+00  2.2671543037731406e-01  2.0151215680918516e-01  5.8692801763530122e-01  5.9963294020714764e-01  1.6925225579439065e+00  6.2284770800853950e+00  6.1133056966250408e+00  6.2374555841534685e+00  1.1644585007452308e+01  1.1245847222826365e+01  6.5661177983760020e+00  6.6470920592254403e+00  1.5789378818374527e+01  1.5815792127076769e+01  2.2011266938545697e+00  2.1438453180978496e+00  2.1030017136234194e+00  2.9191438062288082e+00  2.9518141603226518e+00  5.5070736736089536e+00  5.5293243560325989e+00  5.4824393311102639e+00  1.5111248842057783e+01  1.4731646342466259e+01  1.5865274699182179e+00  1.5640728041148009e+00  2.5531944732356631e+00  3.0517758525428875e+00  2.9234030513502662e+00  3.5990701835827772e+00  8.9595919152779704e+00  8.6081197041011865e+00  4.7658139775863946e+00  4.8040983950244351e+00  5.8821004256033653e+00  2.5823396729805266e+00  3.1774367119319793e+00  3.1897028561156033e+00  4.2396357251109884e-01  3.9456088437610021e-01  4.3929751317695676e-01  1.4848037456071557e+00  1.4647990354133704e+00  1.4654506121170672e+00  6.8551815919534071e+00  7.0171341184650657e+00  8.7220854383298743e+01  8.9184409490333287e+00  6.6995857746644312e+00  6.5233873381334178e+00  2.6173195337685762e+01  2.7489335574646006e+01  1.7446033315680837e-01  1.7240023307085353e-01  5.5522295666282089e+00  2.0642877018954913e+00  2.0928492885517760e+00  1.0326510179804695e+00  1.0135786685444403e+00  1.0159677407774605e+00  1.6160843791039521e+00  1.5889592508972292e+00  1.6367572194471673e+00  8.4984516411376898e+00  1.9258366661399058e+00  5.0981047209910111e+00  5.1257844302033915e+00  2.7293182600338284e+00  2.6977372815249043e+00  2.7197598228646309e+00  1.1582942487413565e+01  1.1605788892758374e+01  1.1242025699821141e+01  8.2762438904367670e+00  1.3855453941788913e+00  5.5547713714227787e-01  5.2438685926564277e-01  3.1219707549256013e+00  3.0964333135325637e+00  2.8706718535802445e+01  3.0639344060797292e+01  1.6853731193179424e+01  1.6783131018231938e+01  2.8879371992928351e+00  2.9398659988723583e+00  5.7322134725449176e+00  4.9439700930840589e+00  1.7943555179073849e+00  1.7813914640094157e+00  1.9510691556400290e+00  2.0235532361226385e+00  5.3193544616694970e+00  4.2463171126166277e-01  4.2056427265233903e-01  4.4022469260777924e-01  5.5064164338259569e-01  5.3633563828208153e-01  5.2673078415823182e-01  8.5538226810673237e+00  8.4861601073039559e+00  8.3960312738940743e+00  4.0908172111094371e-01  8.3057738211503676e+00  8.3206629561916277e+00  7.8516352165420455e-01  2.3752312105446434e+00  2.4043551290894980e+00  5.8780739040385288e-01  5.8631663456694783e-01  6.8582096059958153e-01  6.7982029628596241e-01  6.9670509201450137e-01  7.0454465130844426e+01  6.9077081681120362e+01  6.4508273509351469e+01  4.9459949592087398e+00  4.2533922290596333e+00  4.2956721550340866e+00  4.3118175864561330e+00  1.5511352673338370e+00  1.5735000428155683e+00  7.4743966461580835e-01  7.8188165376576946e-01  1.6194814976258549e+01  1.6537477259261301e+01  2.0276449964347787e+00  1.0451823283461172e+00  9.1952333090799954e-01  9.3604487639108735e-01  9.2374889152040740e-01  1.6813949153905123e+00  1.6698762063754642e+00  1.6451464107185916e+00  4.3785813636783466e-01  4.4702051755212246e-01  8.5608749893412006e-01  8.3417040407635767e-01  5.4777752905756634e+00  5.4295189595339766e+00  5.4486007799326917e+00  1.0091895186529054e+01  1.0459609527102645e+01  2.6443747750405738e+01  2.7750670699109822e+01  2.7628109330896283e+01  1.3008605820829196e+01  1.3877508721133493e+01  1.3662724302236837e+01  1.2532823029256161e+01  1.2902559354475677e+01  1.0179819279423427e+01  2.4449797728516125e+00  2.2007886227371944e+00  5.3252660887211656e+00  5.2970634956013845e+00  3.4231247781222920e+00  3.3431978123581447e+00  7.0659409805772375e+00  7.0757319704951378e+00  4.4510028546497606e+00  4.4650395769899598e+00  4.4797905785463072e+00  5.5300663535937673e+00  1.2238696044601685e+00  1.2077528250553593e+00  6.1459516529559979e+00  5.8903873453844637e+00  2.1888598310100362e+00  2.1075003495549565e+00  2.1453962378487543e+00  1.8554819798819528e+00  1.8384714465422998e+00  1.8588313747057443e+00  3.3091941965480909e+00  3.2340438944384240e+00  3.2056224701916496e+00  5.5149723100027845e+00  5.5762401170552209e+00  5.5876065679778932e+00  2.0836116875652211e+00  2.0594069091980405e+00  2.0665793155755234e+00  1.7715086772157462e+00  1.6468207165012938e+00  1.6270570751778504e+00  1.6558224099800123e+00  1.2650646029462996e+01  1.2320373265564475e+01  1.2293727142695460e+01  2.2100970410003543e-01  2.1943741379178947e-01  2.4121333289477490e-01  5.6827054082805217e+00  5.6272320561647273e+00  1.5054418033130113e+00  1.5048132000199774e+00  1.5133110855488572e+00  1.5027602616479934e+00  1.4828830974378300e+00  3.2552474634864192e-01  3.2018661708277757e-01  2.3031675033444872e+00  2.2589832829414864e+00  3.0698582527884855e-01  3.1004264088817124e-01  7.0577945045506985e-01  7.0416584179796093e-01  2.8961531364785986e+00  2.8744077348481651e+00  2.8359126247741444e+00  4.6646171935949772e+00  4.6473336848976921e+00  4.6813051791554336e+00  1.0055459631992540e+00  9.4119384584400390e+00  9.6358619624698676e+00  3.9091503578432691e+00  3.8656245946421053e+00  3.8478042180334469e+00  3.4285768773202207e+01  3.5712505093333384e+01  3.3982738817438637e+01  4.1500155869087356e+00  4.2379341322712305e+00  8.8063984581992418e+00  8.5792443405713819e+00  1.8308369018967425e+00  1.7466164609912920e+00  2.7647122437054041e+00  2.7365985777620736e+00  1.2057478132901616e+00  1.1893859931250219e+00  3.8996623234468980e-01  2.0344888212331433e+01  1.5363114170225207e+00  1.5257699857953446e+00  1.5146823951339836e+00  1.8229743411435713e+01  1.9449328526883036e+01  8.9158494418158885e+00  9.0789350569921723e+00  9.1325431281923048e+00  1.0823577571412335e+01  1.0819892598893214e+01  1.7966818889156473e+00  1.7208259395641226e+00  1.7579490276207679e+00  2.0135364987869830e+00  2.0238557726373445e+00  8.3313829734659421e+01  8.6890148544669003e+01  1.5623656323988735e+00  1.5842196110724016e+00  1.6102894604869991e+00  5.8786520585368809e+00  5.9565888546719838e+00  6.1160769986615025e+00  3.2653220277406114e+00  3.2348092326498783e+00  2.6670767363845882e+00  2.7272659384710565e+00  1.3851671102619944e+01  1.3171731547602008e+01  7.0121513897687233e+00  6.7713145366251171e+00  5.2378763075282491e+00  5.2087985501471241e+00  5.2501219700056518e+00  2.1905399511200785e+00  2.1096819076980791e+00  6.9371257684385297e+00  6.9942883797825957e+00  2.3490716835939143e+00  2.2829882704326181e+00  2.3238814313158729e+00  4.3007915015207565e-01  4.1421737937096575e-01  4.2382053518810475e-01  1.8947543963724207e+00  1.8863695186208067e+00  1.8687496650701481e+00  1.0901469450344656e+01  1.0816732667936886e+01  1.0735749269353310e+01  3.0562377353400714e+00  3.0977038358996278e+00  3.1185468614802119e+00  3.8093338206250600e+01  3.9034946250356988e+01  3.7499676581088437e+01  6.7553382297954077e+00  6.7413315626280799e+00  6.9075849015917790e+00  5.6782266227502660e+00  5.6173409002973846e+00  5.6476399454365733e+00  1.1902604970146694e+01  1.1993445587457044e+01  1.1604322005195705e+01  1.1023617908753451e+01  1.1030495658875624e+01  1.0819102363838317e+01  2.2625396106103950e+00  2.2669640362662493e+00  2.2451014901798954e+00  9.6875773335390267e+00  9.8722178299648338e+00  2.9416592379732878e+00  2.9222649415197033e+00  5.2148621031692572e+00  5.0531052389099571e+00  1.9505402043320654e+00  1.9130318905709454e+00  1.5077856291424041e+00  1.5249983821609412e+00  3.6337562741882962e+01  3.6279797747075349e+01  1.1779345263496530e+00  1.1653519638341847e+00  1.6170257111482997e+00  1.5853586696834767e+00  1.5598496996669469e+00  4.2474775437014545e+00  4.2286854865517602e+00  4.2690575081557718e+00  9.8760524127695533e+00  1.0090847287516443e+01  9.8345574798951443e+00  2.1096969965668322e+00  2.1020636756707138e+00  4.6756458177066518e-01  4.6367257863401112e-01  6.0111797775797600e+00  8.8873103490228686e+00  2.0651334457100120e+01  2.1192021423435367e+01  5.3426340728896406e+01  5.1665828711413702e+01  1.3520377708191238e+00  1.3427759310053591e+00  1.3633059567337813e+00  6.8827636178388349e+00  7.0366236436457870e+00  7.0356291680273397e+00  9.1334681049120174e+00  9.4500715358319347e+00  1.3543748201502575e+00  1.3505436599484815e+00  1.3339889538027849e+00  7.1702590842546901e+00  7.2359031065737476e+00  7.1352498099311923e+00  6.2016824988612056e+00  3.2150147377316043e+00  3.2430564333199872e+00  4.9671238680912939e+00  4.9509205184305589e+00  4.9238303952232876e+00  5.1787781806904831e-01  5.4240386777915506e-01  5.2841058203928482e-01  7.0578884998002787e+00  7.0728880553113518e+00  5.5286023016865101e+01  5.1878800592203817e+01  2.6112347464327508e+00  2.5651748351702737e+00  2.5394533339800471e+00  7.6488354791639082e+01  8.2261222171943061e+01  6.0129752904466862e+00  5.9346676732912496e+00  5.9823977439240927e+00  4.9690843335014767e+00  4.9303704069314778e+00  1.1135890920012117e+00  1.1176827909933937e+00  1.1335230575613071e+00  2.7109688088747905e+00  2.7389573634813709e+00  1.4317378640100191e+00  1.4355617867476616e+00  1.4543003061172062e+00  6.4919928117281414e+00  1.1984103540329905e+01  1.1627564337271259e+01  7.1423023983670095e+00  7.1760614017762094e+00  1.8793188565557803e+00  1.8525091290788782e+00  8.8347198446677933e+00  8.7971981936462491e+00  2.4487617169803415e+00  2.4356199469200561e+00  2.4605251701566351e+00  2.2006017328995160e+00  2.2129401627582905e+00  1.7095872674094388e+00  1.6904580906940183e+00  9.4004983478290893e-01  9.2374614966391722e-01  9.0412385369983372e-01  3.2934736154896238e+00  3.2726110931805614e+00  4.6098955182747220e-01  1.6819291246415212e+01  1.6308326575027657e+01  1.0673805225377870e+00  3.0813093063127535e+00  3.0710754272510385e+00  3.0520251041879627e+00  1.0684480829818812e+00  1.0529126007293894e+00  4.2746594694913975e+00  4.2157690480071324e+00  3.1014951624779308e-01  3.0993205301877680e-01  5.4206011871500674e+00  5.3762251292367269e+00  2.7723612605410901e+00  2.8146408169805621e+00  5.1918709573316786e+00  5.2068717278065542e+00  6.9491765070727840e-01  6.8002538176092953e-01  6.8006587333920676e-01  2.6300589206012877e+00  2.6068935988810193e+00  2.6097036506213174e+00  4.2263532663369361e+00  5.4702020309851092e+00  5.4206141935557630e+00  1.6531525807494960e+00  1.4086885729919576e+01  1.4937617156828273e+01  3.4745675780412237e+00  3.3294461272814413e+00  3.3902770835403762e+00  4.0598503230249126e+00  4.1369402512794222e+00  3.0567849441226058e-01  3.1922451003322311e-01  5.1783617956859098e+00  1.8739002990711671e+00  1.8532356904395826e+00  1.0311147934267316e+01  3.8852657208702574e+01  4.1108689929770449e+01  6.4011745382557645e+00  6.2642336375599106e+00  1.9885734840150791e+00  5.0618369370656513e+00  2.2855772171372553e+01  2.2823471126573587e+01  2.1812429057918827e+01  2.5445118239774427e+00  2.5786485101845353e+00  8.1118555433480584e+00  8.1808123797798675e+00  8.2904023715996029e+00  1.5223509320273200e+01  1.5857078064037482e+01  3.1655837394217321e+00  3.1403268650093299e+00  1.5485386288052494e+01  1.7151080162026890e+01  5.7599278936776521e+00  5.6448241210896324e+00  1.4174606008053040e+01  1.3945145946148310e+01  2.9009401410417313e-01  7.8620624302724329e-01  7.1145241647840063e+00  7.0495074434774327e+00  1.3427443134634661e+01  1.2633250236712954e+01  1.2359685415159575e+01  1.2061594351182382e+01  2.5611156707342253e+01  3.1353418061015198e+01  6.3795645475330309e-01  6.6714533192374181e-01  8.6114042300400921e+00  8.7965964535792391e+00  2.3819939698407744e+00  4.2156779142392278e+00  1.3564041935570694e+01  1.3615307360857834e+01  7.1215200227799995e+00  7.1240498099652969e+00  1.2112241661868970e+00  1.2561460351519598e+00  1.6361864017856484e+00  1.5551546282640745e+00  1.5441488402195633e+00  1.5549009305757631e+00  1.0686040761894695e+00  1.0669771403807935e+00  1.0370381664871771e+00  3.5721805251895864e+00  1.4022347349475568e+01  1.3517298731973030e+01  1.4478575944111403e+00  1.4300841309645236e+00  1.4292168894161283e+00  7.7172599028391291e+00  7.4435881292462103e+00  7.8025585821899224e+00  1.0241815972735082e+00  1.0469952111390193e+00  1.9832123947572249e+00  2.0016670735032878e+00  6.6470072269716907e+00  6.6210854997990651e+00  6.5760910016908589e+00  2.3317975355872022e+01  2.1830675730804241e+01  1.9122188029641396e+01  1.9336794845930331e+01  1.8581266000758649e+01  1.2813311920577025e+01  1.2747186915236297e+01  1.2492743845038220e+01  2.8615099787474869e+00  2.8885689196203952e+00  8.6817696195674561e+00  8.7586462520513138e+00  5.2935946371549907e+00  5.1910977409570991e-01  2.5856279560173139e+00  2.5636630406352956e+00  4.4593201771709623e+00  4.5206818258597030e+00  1.7647869159476492e+00  1.5202409925938227e+01  1.4653951194178251e+01  1.4016552375987843e+01  2.9819137455584293e+01  3.0814406993252550e+01  9.0127257846662783e+00  9.0385519197805966e+00  2.5459547874793764e+00  2.5030485363447701e+00  2.4516693597057437e+00  3.6823348472825761e+00  3.6897413318135963e+00  3.7092623885173497e+00  1.3074249206349746e+00  1.3133845979102134e+00  6.9047482955061212e-01  7.0518523432776714e-01  5.9448056240080254e+00  5.8840400695148745e+00  1.1893025433095814e+00  1.1743499353251980e+00  2.5210473778214113e+00  4.8538924218971342e+00  4.7235402302153471e+00  4.8931497365975032e+00  1.3526343441633299e+00  1.3048775867587821e+00  8.0164703668666206e+01  1.1385704954186291e+01  1.4976203177849442e+01  1.5042277150446289e+01  3.8967662507288852e+00  7.8160735336491296e+00  7.6846307578532986e+00  3.5274051173086547e+00  3.5536440623253065e+00  3.5461113159355646e+00  3.1839666757302791e+00  3.2028081460326150e+00  1.4187646113912249e+01  1.3770561405561443e+01  1.9290012043613260e+00  1.8829352362838807e+00  1.9739189112512139e+00  1.0588810099366098e+01  1.0965426177865574e+01  1.1354674238416669e+01  3.1805430399905221e+00  3.1246170868641467e+00  1.6683354521825682e+00  1.6846115691453183e+00  1.0073637982252858e+01  1.0433932430033490e+01  4.0833223451109468e+00  1.4271505409084428e+00  9.0743960244040291e+00  9.2051180565193018e+00  3.3296379511983093e-01  3.3159481560169135e-01  1.7388392443319010e+00  1.7323531085866397e+00  1.7155321266542223e+00  3.0325046608319730e+00  1.3471794181248209e+00  9.4978183750986278e-01  9.5058968642509944e-01  4.0295259023383929e+00  4.0777317273241822e+00  4.0470908465685964e+00  1.1783203355920435e+01  1.1479775794037363e+00  1.1258771841767286e+00  9.3815204582967766e+00  9.6438611818179947e+00  1.6539790487613277e+00  1.6169939059632528e+00  8.7195815699939452e+00  8.6255211450201852e+00  3.0884334663654256e+00  3.0628623067894605e+00  2.0430199944406020e+00  2.0173168732089417e+00  8.2873293384282487e+00  8.4898909698881351e+00  3.3406496241834107e+00  9.6775922924006235e+00  1.0029813981986921e+01  1.0054702509549507e+01  2.6103388194624100e+00  1.2840149319835403e+00  1.2745662937141529e+00  1.2944359012103765e+00  3.2660671885488681e+00  1.1157379105684702e+01  1.1013972771207861e+01  1.0936499929480419e+00  1.1101228828893783e+00  2.0630575059932452e+00  2.0838104831680329e+00  1.0990375148746310e+01  1.0959936755224406e+01  2.5642231529259556e+00  2.5536400734514362e+00  2.5331702176671729e+00  2.2912987884411584e+00  2.2701289192639718e+00  2.2792780766933745e+00  1.1899311176057594e+01  1.1845958067918403e+01  1.2208919575542767e+01  1.2902158075747723e+01  1.3153734082839206e+01  1.2302777697370399e+01  1.6282409150793875e+01  1.6760844009340477e+01  5.5571296809370034e+00  5.6434087219551516e+00  1.3312199555148125e+00  1.3013298010349308e+00  1.3119022731765193e+00  2.0346226563598067e+00  5.1673197428560229e+00  5.0605648361869573e+00  2.5816650532792504e+00  7.4434134458240353e-01  7.4168917019303360e-01  7.5579181390265526e-01  2.3628975025288199e-01  2.2919912283139471e-01  2.3876331694283009e-01  3.8209610250720005e+00  3.8587438430343957e+00  9.5376268921114988e+00  9.1138557540314054e+00  2.9573705111513364e+00  2.8466464449837972e+00  2.8741290651863571e+00  8.1937602599929305e-01  8.1977562451856811e-01  2.7814654080405874e+00  2.7958157719824457e+00  3.7904618903175811e+00  3.7784523589693491e+00  3.8223411232747675e+00  1.0841809245472349e+00  1.0669812576577138e+00  1.0877267050655779e+00  8.6792697650734318e+00  8.7805835443643208e+00  2.5730173071848350e+00  2.5437158594939322e+00  2.8943288643951433e+01  2.9941492382714159e+01  2.9976438265050472e+01  1.3588602605145186e+00  7.7219283268226846e+01  7.5017113527941589e+01  5.6197599162273786e+00  5.6845730887502244e+00  9.4854023925590192e-01  9.6339062655675867e-01  1.6582459260818998e+00  1.6770500315884960e+00  1.6370861653610818e+00  5.4675854337122087e-01  5.2033963069675437e-01  1.6093397587345275e+00  1.5986822677118611e+00  1.5875468461770368e+00  2.9284010444141853e+00  2.8784987149231900e+00  1.3241514364201368e+00  1.3374281957488359e+00  3.0018500997945026e+00  3.0242114277925629e+00  2.4700211120681099e+00  2.4827737571611221e+00  7.6142977652118349e+00  2.0443635013846673e+00  2.0102704427535381e+00  2.0228193295604773e+00  1.8628049350655869e+00  1.8426669476938244e+00  3.6062937201795973e+00  3.5698908589010152e+00  6.4678018597473070e+01  6.2042962321802541e+01  4.1653478901965144e+00  4.1835304175863675e+00  2.2414818240527006e+00  2.2160402721878203e+00  1.3603332697616926e+01  1.4413923421707715e+01  1.4363239197604541e+01  1.7415647869064887e+00  1.7252472295276062e+00  3.1157680122877849e+01  3.2674308772823530e+01  3.4123687329680919e+01  7.0789611322897334e+00  6.9989655213851618e+00  5.4885382560760954e-01  5.1453033353047228e-01  5.3560516284922388e-01  1.5548743227195612e+00  1.6067717167608655e+00  9.7971603357599912e-01  9.9454975386832656e-01  7.4690550645318492e+00  7.3547963245204206e+00  7.4161825438951867e+00  4.9170627234027066e+01  4.8375855433281444e+01  1.4092155297030203e+01  1.4053221490907603e+01  1.4040763576009157e+01  1.2860022529817435e+01  1.3108660253552245e+01  5.4949319137092960e+00  5.5557971363268859e+00  2.0850654404697411e-01  1.9901380108420358e-01  2.0494188933081089e-01  2.2891048789864517e+00  2.2631090216156116e+00  4.7500959685517302e+01  4.9525142919842700e+01  3.3919708437172510e+01  3.9764547383465590e+01  6.1691446973517150e-01  9.0524118673918397e-01  8.9257302873087896e-01  8.9602349832489414e-01  1.7266742636367181e+00  1.7762255823579753e+00  1.1026135579199828e+01  7.2577336161508021e-01  7.3863599854962103e-01  7.6885105101879969e-01  7.4951930769314778e-01  5.8502649815371166e+00  5.8206588121113043e+00  5.8526658154995035e+00  1.5225584917563211e+00  1.5046194622162437e+00  4.6423099802771715e+00  4.5497442953332730e+00  4.5372078169522307e+00  1.0345256423876492e+01  1.0089374598083685e+01  8.9799207434833033e+00  9.1899432711199616e+00  9.0931329658898434e+00  2.1920340609268187e+00  2.1602136764732207e+00  2.2193510793908353e+00  5.2540300240580038e+00  5.3113411218548947e+00  3.3512889100399241e+00  9.7000613850322281e+00  9.9304620920532596e+00  2.2497603619264694e+00  2.2715513694201346e+00  6.7112623213268989e+01  6.2038105662896420e+01  8.2390921778917239e+00  8.4185646485825352e+00  8.3057276748629363e+00  3.3831224905402690e+00  3.3630318935314909e+00  2.7892175879512826e+00  2.7697191187041215e+00  2.8043113101129467e+00  8.9449769731926432e-01  8.8284667105760328e-01  1.4662854022270662e+00  1.0536148031948307e+00  1.0360614479379078e+00  1.3472152587477956e+01  1.2835035136811864e+01  5.8927920234198696e+00  5.9179086218092403e+00  5.8564416358672320e+00  1.2930785366846552e+01  1.2573334612726585e+01  3.7355608792614214e+00  3.7657994015027336e+00  6.6704172478447799e-01  1.3305917769452689e+01  1.3288757810476893e+01  6.0830489635714152e+01  5.9376618524264217e+01  1.6629175809360213e+01  1.5770483537920974e+01  4.1075593849165246e+00  4.0967493300528615e+00  4.0780642240947795e+00  7.0512699712758131e+00  6.9996625947714941e+00  1.1263909596045403e+01  1.1188371277982585e+01  1.5343968787368309e+01  1.5167359577379226e+01  1.5829399668454966e+01  2.4118863107906043e+00  4.1563305977939082e+00  4.1383680639326341e+00  4.1189427951514554e+00  1.3780279377066163e+01  1.4280446022852601e+01  7.4157908027811748e-01  7.5196016237344254e-01  7.4863615778381021e-01  2.1382351499696890e+00  2.1392079530523467e+00  2.4818434899281931e+00  2.4866569064492925e+00  6.7675017677427025e+00  6.7358504596280167e+00  3.7317541398956361e-01  3.4882867019794989e-01  3.4906330611086250e-01  2.2547824046803153e-01  2.2977170977530476e-01  1.5314319230889464e+00  2.0058442657933284e+01  1.9274913481057290e+01  8.5342679856324721e-01  8.4665846625296359e-01  8.4292712192629748e-01  5.1805403845879772e+00  5.1356914275690260e+00  5.1562959378655773e+00  9.5333908002209522e-01  9.5507360147106524e-01  1.2360354988616702e+00  1.2089414445040425e+00  1.2155869344394834e+00  7.5976090025740817e+00  7.4510521506330791e+00  1.0075273997911101e+01  1.0432084070747068e+01  1.9451436676487502e-01  2.0312243805021138e-01  6.9198695598608229e+00  7.0136883322667565e+00  1.4921485361466267e+00  3.0799517938095322e+00  7.8135292826757166e+00  8.0830532000150761e+00  8.1030958106252342e+00  1.5463705406226033e+01  1.5055402836931844e+01  2.2117694779783150e+00  2.1725157153766030e+00  2.2259721674157134e+00  3.9017162084944617e+00  3.8627870524253995e+00  1.0621682342997861e+01  1.1289880919356287e+01  1.0892025684879115e+01  3.4991560941534139e-01  3.2461036829140760e-01  2.8385566517810830e+00  2.8587027790782158e+00  2.8543199218310193e+00  8.6304301276554334e+00  1.3611482867631622e+01  3.6238253433831900e+01  2.1045116711068417e+00  2.1112804495801316e+00  1.1101957110398653e+01  1.0976612397573769e+01  1.1204900683982812e+01  3.8247229184218048e+00  5.7715441151826519e-01  5.3480795450194385e-01  5.2249622644892613e-01  2.2945923394181671e+00  2.3636743516322505e+00  9.4007817290153657e+00  9.3427203458941204e+00  8.4827656235930462e+00  8.6566161206605639e+00  8.5710286756756222e+00  1.6804728401454763e+00  1.6336551097838745e+00  1.7317857076687449e+01  1.8150115688590049e+01  6.7298628190262750e+00  6.8887810638397973e+00  6.6694584945908391e+00  6.7021343673705740e+00  1.9990363868583712e+00  5.5746537113345500e+00  5.6801081928792705e+00  5.4190049068316481e+00  5.4294861391687164e+00  1.9049104638001113e+00  2.1232671957364331e+00  2.1468713427921196e+00  1.8294482686617677e+00  1.1020943753496960e+01  1.0099713186625128e+00  1.0075781675468487e+00  1.7924422039919841e+00  1.7736908483126230e+00  1.7964117353040467e+00  5.6554828508090504e-01  1.5942711344812226e+00  1.4522474460279216e+00  1.5227988604176605e+00  5.3322809216355447e+00  5.3111643115260794e+00  7.9148021017177994e-01  8.0215243555732252e-01  7.4370432924978491e+00  7.3776129082276833e+00  7.3243221441321067e+00  9.0172166041167223e+00  9.1817084286005404e+00  8.8696371195358328e+00  7.1154862619770851e+00  7.1717508231813856e+00  5.8023137234008736e+01  6.8884176582900540e+00  6.8169973655099092e+00  6.8087245984675793e+00  2.5163754438443866e+00  2.4931016377898194e+00  2.5176358011495639e+00  6.4733781625987608e-01  6.5517629953726453e-01  6.6733916493106116e-01  7.2953642099355722e+00  7.4307246162669038e+00  7.3298191178351155e+00  4.1088384449262412e+00  1.1092022920645057e+00  1.0922340043870102e+00  5.0917250848982869e+00  3.7364676260818470e+01  3.6523710023848054e+01  2.9017257691003912e-01  2.9039525436410968e-01  2.9776982216354969e-01  1.4835961903307322e+01  1.4267125830397813e+01  2.2753195176190868e+00  2.3147634910707753e+00  1.2577301139650767e+00  1.2699581671100677e+00  1.3963994741405503e+00  1.3887140719368820e+00  2.7914256912579958e+01  1.3320970394632441e+01  1.3674981051123419e+01  1.1737819025912154e+01  1.1724081729530244e+01  6.0141007997727600e+00  5.9724216313100724e+00  5.9429804828300563e+00  2.4170382409475706e+00  8.8935751347700407e+00  8.9097795377785598e+00  1.1342538619782502e+01  3.7423071216912329e+00  3.3736214903975039e+00  3.5737150714375150e+00  8.0007715953441583e+00  8.3621835917243050e+00  1.3451119037106592e+01  1.3257955555881583e+01  1.3617419054941012e+01  4.3382784987593306e+00  4.2095687692518675e+00  4.3146378033967414e+00  6.1127648164935529e+01  5.6495982207509186e+01  5.0057815532538514e+00  5.0292050955368603e+00  2.6352355619179102e+00  2.6148604969721374e+00  4.5488186459315854e+00  4.5661036562256321e+00  4.8029574141060651e+00  4.8323794166675622e+00  4.4310618776962336e+00  4.3377038963786623e+00  4.4201269976461246e+00  1.6951549057843975e+00  1.7018882839155471e+00  1.7129402871973314e+00  7.0098180298357224e+00  6.9602459467372508e+00  1.1947772321496364e+00  1.2064976512441958e+00  1.2106733288500344e+00  1.6969492285652530e+00  2.2982478156984087e+00  2.3243460734811530e+00  2.2601896806895998e+00  2.2847390979232207e+00  5.8147196690741976e-01  5.6503079933193834e-01  1.5831231774055492e+00  2.0366117854467614e-01  2.2066243081336454e-01  1.2936192497665575e+00  1.3194514519573022e+00  6.8333335552588723e+00  5.2235943438517536e+00  5.0872904221321864e+00  5.3617702736583457e+00  5.7757854536189921e+00  5.7514112575374963e+00  5.7504351802456570e+00  5.7234131399036565e+00  1.2292939144217445e+00  1.2192519858766464e+00  2.2066325309097583e+00  2.1762439640313942e+00  2.2744918838531345e+00  4.8724493418333958e+00  4.7919490304786718e+00  4.7855345057722261e+00  6.8439130173219249e+00  6.9922306807963404e+00  3.0362317052108700e+00  3.0465787995183984e+00  3.7947665370887251e+00  3.7858521426031966e+00  3.7668096366816144e+00  1.8312110352238240e+00  1.8268225567408949e+00  1.8090144761857403e+00  3.9711655170903484e+00  3.9555390132408483e+00  5.8888505583882433e-01  5.0862818488269101e-01  1.4050951168222319e+00  1.4240374066949903e+00  9.5856665697679699e-01  9.7655158476515780e-01  5.9850056375171743e+00  5.9506418386950521e+00  2.0003218937736977e+00  2.5792411828550348e+00  2.6380149502844530e+00  2.1157037928331341e+01  2.0490574664351090e+01  1.5442871654099068e+00  1.5252385596733355e+00  2.3188064725997215e-01  2.7245609032837841e+00  2.8054766735135033e+00  2.8392845370620363e+00  7.5972313133789973e+00  7.6941825785805618e+00  2.5630194532660693e+00  2.5846290285831754e+00  3.3365994205625356e+01  3.1459198230951479e+01  9.4463303530026566e-01  9.5263473868687187e-01  1.0200238230502718e+01  9.9916077933376322e+00  1.0297044568049067e+01  1.1696906333173167e+00  1.0854140515117847e+00  1.1100942462959649e+00  3.4517007333594019e-01  3.5416438075680778e-01  4.0766957788438907e+00  4.0621688597163912e+00  1.8525684278627670e+00  1.8986365841422217e+00  1.8105389785898511e+00  5.9313526933965406e+00  5.8640544232139469e+00  6.9565049386900260e+00  6.8200528504834814e+00  6.7822741521035805e+00  1.2022150801058815e+00  1.1804026526522859e+00  7.3642672059768366e-01  7.1758045129969206e-01  7.3393906999620950e-01  4.9472681706295019e+00  4.9393697438168491e+00  4.9768107461882805e+00  1.8721619886232170e+00  1.9360895854893958e+00  1.0580711229986454e+01  1.1291988158055776e+01  1.7276279275803397e+00  1.4870909984020790e+00  1.2473903604806967e+01  1.2266668423274357e+01  8.0238757057600907e+00  8.7205720055290694e+00  1.9369151481731997e+00  3.4950264045761417e+00  3.4766218964665252e+00  3.4588443330165330e+00  1.2069278041789183e+01  1.2589721955329013e+01  1.2535644611762487e+01  6.0823958801663469e-01  6.2644299719638707e-01  6.3785218964521806e-01  6.6213936942325713e-01  2.6816723381093031e+00  2.7024302038357830e+00  2.7220577115583566e+00  8.6847514974810203e+00  8.7687324543899337e+00  1.5404025626834827e-01  1.6982548383062412e+00  1.4992119467196179e+01  8.2137966449701736e+00  1.5511758092242809e+01  4.4498881401321384e+00  4.4802334044245686e+00  3.0166243998406492e+00  2.9953701530823733e+00  4.5595086630948112e+00  4.5407435957990803e+00  4.5732768889392910e+00  2.2698856327577506e+01  2.2712508997512000e+01  2.1808525494479010e+01  1.6723024621651557e+00  1.1387348385156442e+00  1.1136604561653931e+00  1.1300792121819181e+00  7.7063634877008775e+00  7.6287089666242798e+00  1.6177116622658472e+00  1.6284814669681484e+00  5.8970910069568223e+00  5.8618778284946140e+00  7.6762545917223912e-01  7.7070992769496183e-01  4.1001520319986433e+00  4.0396270132957932e+00  3.3003634970794207e+00  3.1497088428933449e+00  1.7910520288927956e+00  1.7170052863048908e+00  2.8911456931660231e+00  2.8669718356394158e+00  2.8716278836172124e+00  5.2255399655396957e+00  8.0741894552574434e-01  8.0490718278244444e-01  6.0030563518766806e+00  4.4999617623662784e+00  4.2271511080318112e+00  3.4162432101400384e+00  3.3821456022693299e+00  5.0107403120275915e+00  5.0162915637032386e+00  6.4875155039761392e+00  6.5996655137620639e+00  4.0153563701931008e+00  3.5258762182544989e-01  3.7532066853305007e-01  2.3385865689301726e+00  2.2367300659417380e+00  2.3329477110095103e+00  1.0453798565977110e+01  1.0452358602510021e+01  1.0825036576121940e+01  2.3525205072928121e-01  2.4413928159204709e-01  5.7899459300044915e+00  6.0261666688908502e+00  6.8732436457804171e+00  7.1431738130109350e+00  1.3648546776478743e+00  1.2938435723848396e+00  3.6701754874954702e+00  3.6965016723812778e+00  2.4472954230115370e+01  2.3435542987539993e+01  2.3515425674577546e+01  3.5014420070016827e+00  1.9554768066429375e+01  1.6674934270458014e+01  1.8283580854512138e+01  2.6270568211141008e+01  2.5135824231968495e+01  2.6179066747922874e+01  1.4879685856351115e+01  1.2751271359620672e+01  1.4052609714289675e+01  3.1612503614113493e+01  3.4597737219506513e+01  4.3741483612110940e+01  5.1379115935821048e+01  6.1870029146182020e+01  4.9132137911578070e+01  8.0570747071005542e+01  6.9588397559410836e+01  1.6471157976418905e+01  1.6555844558015025e+01  1.5168504511758412e+01  1.1964329414930425e+01  1.2429792707471448e+01  6.6771472422727678e+00  6.6378821318842194e+00  3.0756610000195082e+00  3.1395845088788312e+00  1.1172054958548111e+01  1.1194429382157290e+01  1.1382016510856335e+01  3.5470694801722935e+01  3.9711549055757795e+00  1.9171536082886900e+00  1.8848603177206944e+00  9.5126240455760716e+00  9.7514286778387369e+00  4.3547732752137486e-01  4.1922868234836508e-01  2.4052466977113460e+00  2.4390655647695905e+00  7.0304746060062060e+00  7.2170557502699895e+00  7.3217931685848789e+00  3.8627718409752791e+00  3.8909373010731994e+00  4.9670399203093663e-01  4.7461369568869066e-01  7.0483720590153336e+00  7.2174623762871315e+00  1.1483624332888672e+01  1.1005602006275430e+01  1.0512330487717691e+01  2.0108879658232994e+00  1.9822514098125688e+00  3.6943565006662942e+00  3.7530962466211255e+00  3.7129144458727392e+00  7.1163997010678344e+00  7.2728781589717197e+00  4.5701569515514633e+00  4.4750022875862001e+00  5.0225825926492773e-01  4.9882821827523061e-01  2.0646604515669149e+00  2.0339788371210910e+00  7.5652171829216863e+00  3.0370813466604880e+00  2.7203235282262619e+00  2.8772085813607333e+00  1.5610737572440028e+00  1.5406547867805651e+00  1.5427942948009696e+00  3.7714518732475277e-01  4.0127242790296136e-01  1.4787055061005221e+00  3.0323945353825139e+00  2.9703876652546639e+00  3.0065826787357128e+00  1.6391005483491949e+01  1.6175289737060762e+01  1.5298784618139949e+01  6.4466639048324803e-01  6.1371856534517566e-01  1.8260874812147865e+00  1.8008662094780998e+00  2.5429263108464455e+00  2.5228598690748187e+00  2.2703391550618988e+00  2.2295790272663387e+00  9.4965286224503203e+00  9.0690322478306058e+00  8.5790274330894856e-01  8.4326707362533515e-01  8.4705385042176828e-01  1.9707628082473014e-01  1.9041560244939978e-01  1.9733543470869416e-01  2.1452449560766969e+01  2.1157505319515540e+01  2.0152918970244759e+01  8.7748757486716702e+00  8.3390866330159970e+00  8.2418549301830293e+00  3.9135176087241081e+00  3.7509421821680973e+00  3.7969591270755019e+00  3.4774317626093474e+00  8.0781416787019467e+00  8.2488053060303681e+00  1.2703508548111273e+00  8.8052988227475415e-01  8.6328636308387074e-01  8.4132174868908294e-01  1.0810195368815830e+01  1.1192881351226214e+01  1.0863711574276560e+00  1.0715161051930722e+00  4.5293604815239426e+01  5.1287460716841821e+01  1.6807415510291854e+00  1.6459791258400860e+00  1.9487029154754061e+00  1.9252525693374478e+00  2.1680900631000677e+00  2.1485970264966476e+00  1.0208221092632266e+00  1.0074962409701307e+00  1.0159809122027122e+01  1.0417771503141896e+01  3.0337891130814651e+00  3.0658230090930232e+00  3.0530674440504657e+00  1.9208301154109870e+00  1.9038237920436398e+00  1.8198037689843847e+00  1.8015415046907972e+00  1.2346500443705291e+00  1.4901830341580282e+00  1.5106349389856844e+00  2.0907176664453267e+01  2.0860762778304728e+01  1.0685259874896387e+01  1.0440843390405952e+01  1.0745258684416881e+00  1.0468469648402761e+00  1.0852500389395761e+00  3.4238247308248315e+00  3.3819660048856464e+00  3.3626867034507382e+00  9.7593164361463902e-01  9.4979204441136278e-01  8.5299861467222957e+00  8.0999147829594680e+00  8.0953185322133638e+00  1.0479827117991407e+01  1.0323364460786152e+01  2.3844375821923940e+01  1.2149778303206120e+00  1.1900098944646773e+00  1.0355901041987499e+01  1.0718525051867513e+01  6.1144477731391911e+00  5.9965101783454058e+00  1.3256770688207798e+01  1.2840141476289459e+01  1.0028229164720663e+00  1.0136077505794925e+00  6.7165076092004474e+00  6.6458102077769867e+00  8.3543180331628586e-01  8.1319322641602088e-01  2.6079118052494854e+00  2.5346949138585737e+00  6.2294548628938289e+00  6.2747692287326409e+00  2.9819795313864508e+00  3.0083080508757041e+00  1.1483511748133060e+01  1.1137066119365862e+01  6.4192363020308985e-01  6.1135004133787330e-01  6.2406991652169075e-01  5.4788745689289327e+00  5.4518288679417912e+00  5.2498026907106956e+00  9.3665420277304801e+00  9.0380550459936426e+00  5.6058306539924052e+00  5.3947236958959142e+00  2.0411784158746564e+00  2.0713389097160086e+00  3.6766609461671917e+00  3.7169046101772234e+00  1.0328661880986385e+01  9.9703879251843865e+00  4.7773658213086883e+00  4.5970889876441969e+00  4.7486508618745189e+00  3.5116109930334094e+00  3.4950879352330979e+00  1.6739025834482328e+00  1.6888015776944714e+00  7.5492340056321561e-01  7.7055423986078841e-01  7.3607776812626702e-01  1.4398601185123640e+01  1.4995530912348292e+01  2.8843126606295511e+00  2.8391104737123132e+00  8.7401660563610992e+00  6.6633557282552385e+00  6.5948738778997722e+00  2.8351718348580017e+00  2.9125544709263815e+00  4.7953057133577000e+00  4.7171569971624061e+00  3.0095980330462200e+00  2.9897848397034048e+00  3.5303193407696440e+01  3.1175032162398946e+00  3.1319010907008384e+00  2.2084547030648642e+00  2.1888148719440688e+00  4.6073372571979796e+00  6.7637356608946331e-01  7.1024503935671335e-01  3.0035668909847342e+01  3.1148437274167588e+01  7.8897970569251124e+00  7.7416820709399756e+00  7.8078926260436043e+00  7.1213066788906954e-01  4.5509547073829620e-01  1.1486944201105031e+01  1.1858292245152384e+01  4.8806695581926274e+00  4.8319174417678008e+00  4.8623485965985118e+00  7.5184152962527684e-01  1.0222918049658656e+01  9.8561604155580209e+00  5.3502437086437267e+00  5.5330992066805287e+00  1.6305500791845400e+00  1.6215879910636048e+00  1.5976175347811197e+00  1.3954963051703868e+00  1.3737421604983857e+00  5.9551702755820575e+00  5.8243198741680580e+00  1.2943832365873977e+00  1.2728506653998550e+00  2.1477932327950850e+00  4.8421188908692896e+00  4.8903701936507682e+00  3.3553195354337092e+01  3.3010474737810121e+01  3.2458655986820837e+01  1.5936460111284015e-01  1.4718089929868855e-01  4.6018605084893294e-01  4.4012807471806548e-01  2.6441062555940444e+00  2.5920032730444080e+00  3.2629623979636863e-01  3.1847034340052649e-01  9.0676094320335265e-01  8.9444278213923767e-01  5.4109891676486734e+00  5.3823304205447133e+00  2.2665466796103733e+00  2.2493538418692118e+00  5.5930981733790119e+00  3.6466936510000307e+00  3.6327478248862697e+00  2.2293407368531386e+00  2.2315095357053423e+00  1.0093767479151476e+01  1.0404136405293690e+01  6.4752108200084217e+00  7.4366611882556521e-01  7.3504798935947280e-01  5.5442119225417033e+00  8.3245244337997004e+00  9.7232322771496253e+00  1.0099169203854336e+01  1.8370096845821562e+00  1.8667419241878660e+00  1.7967560789106738e+00  9.2989968859987060e-01  9.1764626516387238e-01  1.3543388976561845e+01  3.6943945709210371e+00  4.6454431098511977e+00  4.7089506797423404e+00  3.2705857478659248e+00  3.2516799221377308e+00  3.3290435809036270e+00  3.3484640201709093e+00  1.3660476672165206e-01  1.4359195675598219e-01  2.8944443598353926e+00  2.8730302300925241e+00  2.9098693298569032e+00  8.0521570336979520e-01  8.2573903006271510e-01  1.4119331381768205e+01  1.4038111943731289e+01  1.1055819504344619e+00  1.1213088531756834e+00  1.0712237877809045e+00  5.4145917140084263e+00  5.4544124882636860e+00  8.7834187443448641e-01  8.6592672779777391e-01  1.1922175191766700e+01  1.1435111526687443e+01  9.2986213196054752e+00  3.7835365519862387e+00  3.7502406763152387e+00  3.7669319973553792e+00  5.7263061967986877e+00  5.9301620251421623e+00  5.7684226917435080e+00  4.6080083111146077e+00  4.5878827441448609e+00  2.3399662919998317e+01  1.3750518283137916e+00  1.3158417774880353e+00  2.0890368592586327e+01  2.4364238003154700e+01  1.5993549112458014e+01  2.9302585658131726e+01  4.3676817404406485e+01  2.1312770291753838e-01  2.1784534772343020e-01  8.2121756395047214e+01  1.8118481525207695e+01  3.3542266107056018e-01  3.4666015924867311e-01  6.7013522924764919e+00  6.6564045003559427e+00  6.7313448618436009e+00  1.3483278183711486e-01  1.2771823059435020e-01  1.3754146919173811e+01  1.4389154188220175e+01  1.3485086749185676e+01  2.1131443650188952e+00  2.1418478818329900e+00  1.1567947593432226e+01  3.9188094306918502e+00  1.1645694862621262e+01  3.2120153222831558e+00  7.8018172224146847e+00  7.9231041470691590e+00  4.0902126424643042e+00  4.0578925108303645e+00  4.0699302816060916e+00  1.1620300532253602e+00  1.1683517111969393e+00  5.5922564519467439e+00  5.6321427512005133e+00  8.4412886427816414e+00  1.7186608493604378e+00  1.6974905071970730e+00  1.2796195798150187e+01  1.2794856198543267e+01  4.4222147547052000e+00  4.5981033216545573e+00  4.5710176618306466e+00  1.2493747878303114e+00  1.2580658681563794e+00  4.5525775576257734e+00  4.6835663184890741e+00  4.6673180245431256e+00  2.5140449596664491e+00  1.1246197103955678e+01  1.1309768695827501e+01  5.7855703831625949e-01  5.6713202000901619e-01  2.6461892392570641e+00  1.0889776662239697e+01  1.0646776524979073e+01  8.1243667632074015e+00  4.1549230867432263e-01  4.1238981818204884e-01  3.9893568439584842e-01  8.8170386849716387e+00  8.8934310892429416e+00  1.2840671168168273e+01  1.3134698636774671e+01  1.2871867584523214e+01  8.5268672761488311e+00  1.7875971039425815e+00  1.1938651255473873e+00  1.2045736924998600e+00  2.1878421970996875e+00  2.0841787262038620e+00  3.7964191395596472e+00  3.8127937468301893e+00  1.1155783754752973e+00  1.1019456991544117e+00  1.1216450739189041e+00  5.5389568441178145e+00  1.6536397733099832e+01  1.7258406815259718e+01  7.1966965877343314e-01  7.1869788585739680e-01  7.1357162633212645e-01  1.1294689537489544e+01  2.6984588789129681e+01  2.6725909308836421e+01  6.5070987301977756e-01  1.7190851617524370e+00  1.9324009946173593e+00  1.9423747978795913e+00  3.1123417657142149e+00  3.0925741651078051e+00  2.5374307376053635e+00  2.5242624079473370e+00  4.4117017278544459e+01  4.3020231426414064e+01  1.0159675585042319e+01  3.0148601328414073e+00  3.0249514921949814e+00  1.5125740458959420e+00  1.4457754997422430e+00  1.0971848366326284e+01  1.1170828380042000e+01  3.0789552052362334e+00  3.0977173453371258e+00  2.2240952356857036e+00  2.2752208617630892e-01  2.1364837159824754e-01  7.0129651427770874e+00  6.5050291691440325e+00  6.4361346007214930e+00  6.4093585923949750e+00  9.3786330831789257e+00  9.2499183610026812e+00  1.8310959366517646e-01  4.6996655583574659e-01  4.2855088630917653e+00  4.0532223771469464e+00  4.2346592567903683e+00  5.0070073952939209e+00  4.9829512214307714e+00  8.0389969504409287e-01  2.3869645137377296e+00  2.4932210880800123e+00  2.4411669012341091e+00  4.8259742869715311e-01  4.6203096495611279e-01  1.2386155946166296e+01  1.2107236637022776e+01  1.2408008117748233e+00  3.9497716063904420e+01  3.8418673375107559e+01  3.8608612072303671e+01  1.7546743668243117e+01  1.6607320016661777e+01  4.2798280992380366e+00  4.3417872630407128e+00  5.6351015520031380e+00  5.6739626663675917e+00  8.0299093804461279e+00  7.9324785190718048e+00  5.3273338753827524e+00  1.1232354486994000e+01  1.1053830112233916e+01  5.4374534141727091e+00  5.3930980940117879e+00  2.7781088746124993e+00  2.7973135038055306e+00  2.2857639476595544e+01  2.1690073577734399e+01  2.0957401697826010e+00  2.3363414733165788e+00  2.2850788144283949e+00  1.0922396518724710e+01  1.0758684713188639e+01  2.9327873540620759e+00  2.9051478818574363e+00  1.2067202037424334e+01  1.1751489434091052e+01  1.2529747350284005e+01  9.0341484485052348e+00  9.2610487156769103e+00  6.9930202006336541e+00  6.8397563562956103e+00  7.7167468340500598e+00  3.2304613481128058e-01  3.4269432026669960e-01  3.1657336913014872e-01  2.4508416364465571e+01  2.3437498837248263e+01  2.4007475933537240e+01  7.7336725305305343e-01  7.3800948739933858e-01  6.2288771922710975e+00  5.9982095045343691e+00  3.5787053525350019e+00  3.5574111906156283e+00  5.5219555304925478e+00  5.4922418191981226e+00  3.1919091113721483e+00  3.1777595684604010e+00  2.6817534065005386e+00  2.6554077676919894e+00  2.6406143277677878e+00  2.6618873856252416e+00  1.3065174986297130e+01  1.2656476501233147e+01  1.2624024052207041e+01  8.7442029203528300e+00  7.7036380791298675e-01  7.6933566299788747e-01  2.2298781868740365e+00  2.2492669651771036e+00  3.6621432995730290e+00  3.6805846182004585e+00  7.3027595209548135e+00  1.8240579311886960e+00  5.6820351291715543e+00  1.4176649634829785e+00  1.4414706714480756e+00  1.3767877573042502e+00  1.3592947904043451e+00  9.6785455660530122e+00  9.7645116266500107e+00  1.8658701403051057e+00  1.8627125939189817e+00  1.8440702992750635e+00  3.1637921432355616e+00  5.6109231864813323e+00  5.5447763882251131e+00  5.5305467351231776e+00  8.6561561065744215e+00  8.4787391456517351e+00  1.6269695680226133e+00  7.9285273901665914e+00  8.2937854919139085e+00  8.6930103100667733e+00  9.1383397425199906e+00  7.6064754908072461e+00  7.3123798669682145e+00  7.6032200083442945e+00  7.0549495054577118e+00  6.7850632241906688e+00  7.0367782524720761e+00  6.6061738110438597e+00  6.3716597230769603e+00  6.5757884371007016e+00  1.0060178991525660e+01  9.6301650500776432e+00  1.0165116496533766e+01  1.4471190054439246e+01  1.4460145359826106e+01  1.4151721002991462e+01  6.2666306663958187e+00  6.0432374826881867e+00  6.1936337928701315e+00  1.1265888131565857e+01  1.0768294620751146e+01  1.1431385682955955e+01  1.2751259706188161e+01  1.2163287920889353e+01  1.2954785945143145e+01  1.7336715786673917e-01  1.5756606868348810e-01  1.4543883997793044e+01  1.3830345117065978e+01  1.4769611994192189e+01  1.0493820849023441e+00  1.0539530667751091e+00  1.2679171043358098e+01  1.2727348182827889e+01  1.2498115467616897e+01  1.0161816766609402e+01  1.0539673464061574e+01  1.4088626507533565e+01  1.3680091476491132e+01  1.5775705209689244e+01  1.6869488871545268e+01  1.1295642998735953e+01  1.1153474882371846e+01  1.8044032905965426e+02  7.3505359605405385e-01  7.4163293006252939e-01  1.0838338393103259e+01  1.1019286031199043e+01  1.0876961829367580e+01  1.9669577881294867e+01  2.0401361090423524e+01  1.1527400369569294e+01  1.1604477410669080e+01  1.1444794939203954e+01  1.9018120006210854e+01  1.8056412126508860e+01  1.9315478127816270e+01  8.4885616154811743e+00  4.9330159110015687e-01  4.1655461250593762e-01  8.9383194562057233e-01  8.0249547709254077e-01  7.8675905742704288e-01  8.0160878047532669e-01  8.0412145283213317e+00  7.9704570629118487e+00  1.6094390373888015e+00  1.5537922444704542e+00  2.0620534038889065e+01  2.1945587600589036e+01  1.0551089830578812e+01  1.0699908504271546e+01  1.2243082418043862e+01  1.7843608431307674e+00  1.7657696030754064e+00  3.4720695919983555e+01  3.3865696508472261e+01  1.0796271159563357e+01  1.1090853379705798e+01  1.1111442601896098e+01  5.7767181148138995e+00  5.9047913462720460e+00  1.0797959783890539e+01  1.1063134972832886e+01  1.2160807850962350e+01  1.2276079788753762e+01  1.2029528802794804e+01  1.3746159312806029e+01  1.3825011741242012e+01  1.3506766250634492e+01  2.4323122758066877e+01  2.3288216163106433e+01  2.4676647891597113e+01  7.6174437209628421e+00  8.3386684856323345e+00  7.3100515883114758e-01  7.1707749891729056e-01  7.5309472399368327e-01  7.0238302213632178e+00  6.5468355670164726e+00  9.2320200598722746e+00  6.1435311705102285e+00  1.0290439668282147e+01  5.8287750158008969e+00  1.0633474498429948e+01  1.1300358675964027e+01  1.1074201261487140e+01  1.1613740717496562e+01  1.1770743618027895e+01  1.2200054611190716e+01  5.7254359171473634e-01  1.0523548850475727e+01  1.0762493392641950e+01  1.0634318391439578e+01  8.7263641294089922e+00  8.4023433521162367e+00  8.7286457528638781e+00  1.3192359269559812e+01  3.6419759541324463e+00  3.6501956680767433e+00  3.6891463027675115e+00  3.6595030350384730e+00  3.6704692184014793e+00  1.5015466479231623e+01  2.6929573297289576e+01  2.5917404064466727e+01  2.7217363299296611e+01  1.2611231293939612e+01  1.2295551568649859e+01  3.4029027312121505e+00  3.3726850849104522e+00  3.3840926372435840e+00  1.1327647113400481e+01  5.8993987007338902e+00  5.7082705030034724e+00  5.6829179195460755e+00  1.7180138891666239e+01  6.8694970548262801e-01  7.0360840067224151e-01  5.7727306981482789e+00  5.5572222990210145e+00  5.6613122485370218e+00  1.1450191744011050e+01  1.1163689638884774e+01  1.0651175049015736e+01  1.0602022811672962e+01  1.8508748546791087e+00  1.9028739084552289e+00  5.6053931839558819e+00  5.3964580229586101e+00  5.4780515678191852e+00  1.5038320231490326e-01  1.4283931049751752e-01  5.4833730558794089e+00  5.2793726371409475e+00  5.3355555700213344e+00  6.0984602834447221e+00  6.0895653253370394e+00  5.1908095910453458e+00  5.2301602123384088e+00  6.5752308629602330e-01  6.4084215480533391e-01  6.6965674230965577e-01  1.9646858806158317e+01  1.7921569493758835e+00  1.7982295397596051e+00  1.8828403824705218e+00  4.2685485737311843e+00  4.2161716967857297e+00  4.2509190041140084e+00  3.0203908917332184e-01  3.0828382570364532e-01  3.1267831915642569e-01  1.7935396945008810e+00  7.7623185447401666e-01  7.6240215229396124e-01  7.9988079837496318e-01  1.3745365758709850e+01  5.1324614779243865e+00  4.9219563575047847e+00  4.9514322564810662e+00  5.1833560178120806e+00  4.9747848885193902e+00  5.0028522937203439e+00  5.0252775578483142e+00  5.0470009114500609e+00  1.0103737686437878e+01  1.0474351314312205e+01  2.9281718045445757e+01  2.8428546090634370e+01  2.9573235152202791e+01  3.7684447547498938e+00  3.7136208102060744e+00  3.7496461987639811e+00  3.3118831617778266e+00  3.2900109665133299e+00  1.1200426599955149e+01  5.2814848091938247e+00  5.0664975911658701e+00  5.0987233274166099e+00  4.1311953731861415e+00  3.9824348091922213e+00  4.0339870602842138e+00  3.0351416498965977e+00  3.0162089722594061e+00  5.1215374618165352e+00  5.1560740390082547e+00  2.3554948704902356e+00  2.2211359825368564e+01  1.0860858855738112e+01  2.9027081800428262e-01  3.0528241027414543e-01  2.8468008519493176e-01  1.0493605794273835e+00  1.0675355768925339e+00  2.7579673884998601e+00  2.8071242064146782e+00  3.7171458860549236e+00  3.6842267146018082e+00  3.6995035340401787e+00  4.3784413858651894e-01  4.2044247106144428e-01  7.3018132278211023e-01  7.3913886936568518e-01  7.7804502207025950e-01  4.8579059177909983e-01  4.8018873612615470e-01  5.0200612795135924e-01  2.3642208652508049e+01  2.1167502389636617e+01  5.5665578991919054e+00  4.8932684926756389e+00  4.8551688601388783e+00  4.8689538614751200e+00  4.9156454888910019e+01  5.0879193628177497e+01  2.5147267934185860e+00  2.4946984417380955e+00  3.5633192223402443e+00  3.5800082166491087e+00  1.0586834328959291e+00  1.0241671183577465e+00  2.7856433190968493e+00  2.6721240336452072e+00  2.7129426611092895e+00  3.8077042491247406e+00  1.1965866223234899e+01  1.2390066544904656e+01  7.6588127720859074e+00  8.0171264403881786e+00  1.1147418327465680e+01  2.9430467227494495e+00  2.8605437132587199e+00  2.9159374047442683e+00  5.5732634243581070e-01  5.8421262109077954e-01  3.4269105361561594e+00  3.3953579326804926e+00  3.4088336078120087e+00  2.8569124170075106e+00  2.7481483911715054e+00  2.7996249794711576e+00  5.0796306278177106e+00  1.0919730578450933e+01  1.8016815032134192e+00  1.7782131550362665e+00  8.7143457152154493e+00  8.6529812515770441e+00  3.4618506458109364e+00  3.4370849793262872e+00  3.4442028071870996e+00  2.9636422736940689e+00  2.8507282698829370e+00  2.9049668227501733e+00  1.0467588543254090e+01  1.0662347473836459e+01  1.1115645564118255e+01  1.1454581601633120e+00  1.0851159459768267e+00  5.1976713688587379e+00  2.9563163081788622e+00  3.0081259374308913e+00  2.3107370475869073e+00  2.2695050081744084e+00  2.2897943707951818e+00  2.4452440502275641e+00  2.3211351262677442e+00  2.2720941206036898e+00  2.2971869357453065e+00  5.5626762060476267e+00  5.6090398613467691e+00  1.9932653265248335e+00  1.9545422933946797e+00  1.0031067755574727e+00  9.8468918385469428e-01  1.0342760851706576e+00  2.3808904300970113e+00  2.3267209764448440e+00  2.3583404549622258e+00  3.1366223848388306e+00  3.1039677855061494e+00  3.1175330176642873e+00  2.4965310748236220e+01  1.0899549235415954e+01  1.0892921678729119e+01  1.1829909744697693e+00  1.1560815412283614e+00  1.2151444038074084e+00  5.7952902440121319e+00  5.7359776480046794e+00  5.7666156714845664e+00  1.5903631927541479e+00  1.6664974150544916e+00  2.7011236353012773e+00  6.6360376518773352e+00  6.7932868390178118e+00  4.5627927089633430e-01  4.4987677369221030e-01  4.7165769372810712e-01  4.3430519007604715e+00  4.2875466346677991e+00  4.3279303442063544e+00  3.5971449906259206e-01  3.6036855866604417e-01  3.7297813431616750e-01  8.9863313105652054e+00  8.9458069474089630e+00  9.1923440176114948e+00  4.9976315029520135e+00  6.1133405135878363e+00  1.3842412602158751e+00  1.3553815230305060e+00  1.4250675405796807e+00  5.8258546146457908e+00  5.7724544391769523e+00  5.7933739292072337e+00  2.4561767934575416e+00  2.3939977666068204e+00  2.4305339414139184e+00  5.7016407347692422e+00  5.5523257586768624e+00  5.6965337852337852e+00  3.9776620275862924e+00  4.0219308201778174e+00  3.1863449601158589e+00  3.0585678408483008e+00  3.1060832668852076e+00  2.0073766511974900e+00  3.9564752057247401e+00  3.9378348051255547e+00  3.5512778095419018e+00  2.1023598767945582e+00  2.0823312810584027e+00  5.5533156202311824e+00  3.7878430094893711e+00  3.8305951079495708e+00  2.7464113596767810e+01  4.9328785917811055e+00  1.5351129198465019e+01  5.7471470103440874e+00  5.7263442680138441e+00  4.8687459754777285e+00  9.3024215529639864e+00  9.3569413944944966e+00  4.8347282617077987e+00  8.8263266578941870e+00  9.0426016892153882e+00  4.7834030067457656e+00  4.7222121060064151e+00  3.3062937959620000e+00  3.4500816813436144e+00  2.8413980472099740e+00  1.2307710345840125e+01  2.7440096325162111e+00  5.7999406387300789e+00  5.8354667193520173e+00  3.0686844502267392e+00  2.9763637373893497e+00  3.0376104730389342e+00  2.9419867631405325e+00  9.2634514303169819e+00  9.1937016317350579e+00  1.1274973813733959e+01  1.0906077009134664e+01  1.4570871708942110e+00  1.4117180165794441e+00  1.4249093314315593e+00  3.1737065989401948e+01  3.0842680620640742e+01  3.1834754417059518e+01  3.0148382155351614e+00  3.0545880289612204e+00  1.4466024958693755e+00  1.8541139483081239e+00  1.8383261013407586e+00  2.2741154105120369e+00  9.4028778478467920e+00  9.1921613564452702e+00  9.2849770953296531e+00  1.5729021415631219e+00  1.5777732836462737e+00  5.8135827975734014e+00  5.8358929177138954e+00  2.3834239545054521e+00  2.5031010193975494e+00  2.5131249338524291e+00  2.7794594306353373e+00  1.0670968831348409e+00  1.0256726308057036e+00  6.8635612918037490e+00  7.0218902767895992e+00  1.8739266602649287e+00  1.8506803747399836e+00  1.0201292798545798e+00  9.0597828235216582e+00  8.7181217492516563e+00  1.0263807604192127e+01  1.0026966402887346e+01  1.0054357260573571e+01  2.3528561762071298e+00  2.3097891422404402e+00  2.3331046928368462e+00  3.5968476516692665e+00  3.5197747513616511e+00  9.4306570518185584e+00  9.4089248572840400e+00  2.2293627907011788e+00  1.7110240578408511e+01  1.5985500660999312e+01  2.1218586497212191e+00  2.1036018877761400e+00  1.0002485653051144e+01  9.7042627339405900e+00  1.0026623026216152e+01  1.1234859392972597e+01  1.0945128248907336e+01  2.8849426174694535e+00  7.0436862684848913e+00  1.5907511649356747e+00  2.6031657261722896e+00  2.6158551066635423e+00  1.4126902423598457e+00  1.3949006104921273e+00  1.4189989759495709e+00  6.1964966778101027e-01  5.9931381334110623e-01  5.9376181420666396e-01  2.3596808607138060e+00  6.4667852415400171e+00  6.4128737780670617e+00  7.1824454694921647e-01  7.1272518557393116e-01  1.6221061882468870e+00  1.6032045575614056e+00  1.4267997022940904e+00  1.4072053969627967e+00  1.4346586498613687e+00  2.7022442847418464e+00  2.6831800415348410e+00  1.4014433889663658e+00  1.3844252391022960e+00  1.4065852049214502e+00  6.1226841776669767e+00  6.0889551135176614e+00  1.0778708497619553e+01  4.0882890776771870e+00  7.4476376465462923e-01  2.2678319610600477e+00  7.0237928027135654e-01  7.0922406063274446e+00  7.8907240092604025e-01  1.0772206833653300e+01  1.0799905225825498e+01  1.1406991661472019e+00  1.1248726314989845e+00  1.1457307057378368e+00  2.9850749980945537e+01  1.0967690555633034e+00  1.0984970559822980e+00  1.1506896387552201e+00  1.1554263295429406e+00  1.1328482667837484e+01  1.1232378352279630e+01  1.4296499721111227e+00  6.7215434782671473e+00  6.6753930972989597e+00  2.4738870232414234e+00  9.7655824364193418e+00  9.9541299371695597e+00  1.4456221199288057e+00  1.4691420491321532e+00  2.6511367280271156e+01  2.6002081520204868e+01  1.8788666899179352e+00  1.5012726269351719e+00  1.4759058783496299e+00  1.2808728231906265e+01  1.1982752162860651e+01  4.6292935124790064e+00  4.7066084305210936e+00  8.8103905854819786e-01  8.9516143083575306e-01  9.2063873167971693e+00  8.8968725697702631e+00  9.0699368176261626e+00  8.9661152096085150e-01  8.8165678507032941e-01  8.9735921711424116e-01  1.7037554193470390e+00  1.7454707077048173e+00  1.5685825911683690e+01  3.0296019375653729e+00  3.1514382020871659e+00  1.9611714823390434e+00  1.9876740545259239e+00  7.1289978189040459e+00  7.0368970668108650e+00  7.0762584255865670e+00  1.4619633990195833e+00  1.4432847981662045e+00  1.5983256233235366e+00  1.5796472483897446e+00  1.5812515817496835e+00  2.4713293616459766e+00  2.9096837697050169e+01  3.0681467528609957e+01  1.1109379948996581e+00  1.0879785514724858e+00  1.9414461383085522e+00  1.9509313762386800e+00  4.0067603585577515e+01  3.2938544757640770e+01  3.4022479006392913e+01  1.3281682552492329e+00  1.3085932041764794e+00  1.3125195427196463e+00  2.1904101259641937e+00  1.8443109229756545e+00  5.2752431681659225e+01  5.4827235680893097e+01  2.0618545697584545e+00  2.0941140251542008e+00  1.5832036638991518e+00  1.6153322860712129e+00  1.8225688593583942e+00  7.2161746116685133e-01  6.8103254240935298e+00  6.7340443106064534e+00  6.7667268560888774e+00  1.1007530324105330e+00  1.1020430924763465e+00  9.9228309665844072e-01  1.0134148017225777e+00  1.1614572228640001e+00  1.1437080237051187e+00  1.1665965691818279e+00  1.2964789074706438e+00  1.3148742256556369e+00  7.2192560212377384e+00  7.1193949727443382e+00  7.1666607379692326e+00  1.4728638184001821e+00  1.4530630443532697e+00  1.4488556580791443e+00  1.5029208435903121e+00  8.9941633079185468e-01  8.8430168231394779e-01  9.0154906107996702e-01  5.5720110482435530e+00  5.4359130728000533e+00  1.0769913324469627e+01  1.0913771109082454e+01  1.0705822020066091e+01  6.9658375481378929e+00  6.8727770577162142e+00  6.9308115778460619e+00  7.9039205947444033e+00  7.9787270070010425e+00  3.7303224433394835e+00  1.0363668038361498e+00  1.1832614844996190e+01  1.2339015197218963e+01  8.6930459852990616e-01  3.2073351965127408e+01  8.5500587112285154e-01  8.6922757585522792e-01  1.1668182792730839e+00  1.9222280238697206e+01  2.1844680491129932e+01  5.0723770262745873e+00  5.0509353455144721e+00  7.0543950193882554e-01  7.1153081071949997e-01  4.5790520956266995e-01  1.8459861167128131e+00  7.0361882765207617e-01  6.8324639727775449e-01  6.9421979172315618e-01  7.2547669489387294e+00  7.1694952143277861e+00  7.2095577758605298e+00  3.9486713431865907e+00  5.8928366041888331e+00  5.8667257830730017e+00  3.0727539346091923e+00  1.1136445241577364e+00  2.3672804485346415e+01  2.5007362849736054e+01  2.4789838047319545e+01  1.1267465934452677e+01  8.1418125692301135e+00  8.0164386303022255e+00  8.0685466688257677e+00  4.9171062958663658e-01  5.7206384270394679e+00  5.6889389966472663e+00  4.1940997184732218e+00  4.2690146430286893e+00  1.2833210765033618e+01  1.2523792771112893e+01  1.4260839736866122e+00  1.4076334244338140e+00  1.4756698800758850e+00  1.1006246407547227e+00  1.1220435615166344e+00  6.6016719851768335e-01  6.7336977311277102e-01  4.1811290032658430e+00  4.1636589961123320e+00  3.3430718055692488e+00  5.3710714340491217e+00  5.3452971851823410e+00  2.5414657862466616e+01  2.5307649903195738e+01  7.6189474626335025e+00  1.9456998663245354e+01  1.9520628448192095e+01  1.0569493396804939e+01  1.0779109734797534e+00  1.0803937414204996e+00  9.1395593337170737e+00  9.4174656747766576e+00  1.9634907301266222e+00  8.1246555058355607e+00  8.1839758042177184e+00  4.2326525291569546e+00  3.3653908579457692e+00  1.0507371527092063e+01  6.8482552360721027e-01  6.7598598326272608e-01  7.4013319291403501e-01  8.8639078113181391e+00  9.1968675843480252e+00  2.9313410884515538e+00  2.9562072030672395e+00  1.1045659406179318e+01  1.1423751027967519e+01  1.1124762438051761e+01  2.9962499763136545e+00  3.0239637320835437e+00  1.7165127001018388e+00  1.0052163283810778e+01  1.0376016597959696e+01  1.1898623246386453e+01  1.1810723065141627e+01  5.6593264339314009e-01  5.1443053888674917e-01  5.2207412540932296e-01  2.5514053098611682e+00  2.5355632799080743e+00  9.3766736085931122e+00  9.3884691420112976e+00  9.6611074118168450e+00  1.3723348403586995e+01  8.8291125579392080e+00  8.5847697680750059e+00  8.7927036441506257e+00  1.1184519838134902e+01  1.4689547485430776e+00  1.0681603085385649e+00  1.1092266339139369e+00  2.0366761829115529e+00  7.4640112593842503e+00  7.3650264116308470e+00  7.1242349341199063e+00  3.0333565818197363e+00  3.5134238861036316e+01  2.9623814077619994e+00  2.0639533800495378e+00  3.2972464490995543e+00  3.3055475952947582e+00  3.6321951385800242e+00  9.1651478342271286e-01  9.1998544378851999e-01  9.3845308674619765e-01  4.2646967872416646e+00  4.1273900172220026e+00  1.2809658182724313e+00  1.2507021088798791e+00  9.6523838317950332e+00  1.2450314329711006e+01  1.2240750858032557e+01  1.1979472607795245e+01  9.3635757621860449e+00  1.0664576135114148e+00  3.6514199396005851e+00  3.5903160664639606e+00  3.5978826397902712e+00  3.6169360304549913e+00  2.8037044991229934e+00  2.7812177661092243e+00  2.7621337128083212e+00  3.6609033501960306e+00  3.8116398596480141e+00  1.0832942580274290e+01  3.2383116655867688e+00  3.3084652071220710e+00  2.0202790742988870e+00  9.1311797240463211e+00  8.9512233286500109e+00  9.0218660329578899e+00  3.6121732945567700e+01  3.6264485371149206e+01  2.5125398863464010e+00  6.2404764271372839e+00  6.4928472364608263e+00  3.5562672262532957e+00  3.5366846839543205e+00  4.8538772425925486e-01  4.5807454942183862e-01  2.1215024395668096e+00  2.1000394902778083e+00  2.1561912475899354e+00  2.3823473475160131e+00  8.3863427613378383e-01  8.2416485863222777e-01  9.1034075091329458e-01  6.6358927958870484e-01  3.2055434816846096e+00  3.5947857372852471e-01  8.8068541038930306e+00  8.5609786299960078e+00  2.7168483293828802e+00  2.6934607602890672e+00  2.6979007025791586e+00  2.1266356723342876e+00  2.1072169301591810e+00  1.3216353156808239e+01  1.3188159872259114e+01  2.4024331139316395e+00  3.0073320206891063e+00  3.1032582013937842e+00  2.1124397162558122e+00  5.6508538729518420e+00  9.1784321338334944e+00  9.3985642192714689e+00  4.8116467153314080e-01  4.6792149340891270e-01  4.9448161061460888e-01  1.9632912414471591e+00  9.2248247599847488e+00  9.4546067412610082e+00  9.1322915894147483e-01  2.2123337226396327e+00  2.1930771383016814e+00  1.9054985072101431e+00  2.3129544066740815e+00  2.3589928108918898e+00  2.0271394920802939e+00  2.0063552288096620e+00  8.5515078813236816e+00  7.0651245977535080e+00  6.8916842172475814e+00  1.8513713808411427e+00  2.1645662867574487e+00  2.1034157479661646e+00  2.1362102524152311e+00  2.5019193356426541e+00  2.5276932731215251e+00  6.0236968155727000e-01  1.8981325132099343e+00  1.8766401050835047e+00  2.9123884275385326e+00  2.9692142436796058e+00  5.1730575934652778e-01  1.1163630512255303e+01  6.6976285596365237e+00  6.9650814454561294e+00  1.7540695925029151e+00  1.7674650586048597e+00  3.1568183111322534e-01  2.7121328504628273e-01  2.8928381978837059e-01  6.3730424907959540e+00  2.0265408245041172e+00  2.0646372457492728e+00  2.3698882613616892e+00  2.3997052285419462e+00  2.4923180339471949e+00  2.5241313781928416e+00  2.9893547561015255e+00  3.0567371214110155e+00  3.0992407206126655e+00  5.3768328119863131e+00  5.3505033428179294e+00  3.9727771992080312e+00  4.1068734952455799e+00  3.1817210616780631e+00  3.2226324922580294e+00  3.2057502769939727e+00  3.2685516527586134e+00  1.0078212887331985e+00  2.5687412833152568e+00  1.6285787248736376e+00  1.5808076550226648e+00  4.9651625659025966e-01  4.6656366395625948e-01  7.2674224238719596e+00  1.2685447193124100e+01  1.0967258224456216e+00  1.1285344718363095e+00  1.0863447384704523e+00  1.0100255338311344e+01  1.5460183178753077e+00  4.2996864001900956e+00  4.3892694038575186e+00  4.5315949108518314e+00  1.2654877225063255e+00  1.2743346461750304e+00  1.2953159319512617e+00  1.4760196355388580e+00  3.3039020547884390e-01  3.4505424135040219e-01  4.8820951238785515e+00  4.8975418756238032e+00  7.1715253453504078e+00  7.1546321826498245e+00  7.4199546238397369e+00  4.3906293800010605e+00  4.5159484596292421e+00  5.7388317796364889e+00  5.7077650646209674e+00  1.7775066112872249e+00  6.3748780569761685e+00  2.1023908586516882e+00  2.1050150290880012e+00  1.0224402415844336e+01  1.0465750316466879e+01  2.6770250643143316e+00  2.6999213945816258e+00  7.1503325999426588e+00  7.3738126785900668e+00  5.0478527985555202e+00  5.0690188788120718e+00  1.5291693867651970e+00  1.3939504847568269e+01  1.3826073376785237e+01  3.9982787192573340e+01  4.1690769357123848e+01  4.2500856920328609e+01  5.5739197549543347e+00  5.5968836933555126e+00  3.0501894064944510e+00  1.3179455810190546e+00  6.0464019539230429e-01  5.7625922579477484e-01  5.6346693394854084e+00  1.1278511066908379e+01  2.5518051579767366e+01  2.5487920669744572e+01  1.4636663823112643e+00  3.3095860368807734e-01  3.1791572984176109e-01  1.0954082173644936e+01  7.0912875353041676e+00  7.2984937258123148e+00  1.2749052717019940e+00  3.8752780080965725e+00  5.3724072241742258e+00  5.3929277148606625e+00  1.3572575390465753e+01  1.3725438651846870e+01  1.3725434225771654e+01  7.0352366739164038e+00  7.2303483177029255e+00  5.3075766840408347e+00  5.3233274892724847e+00  4.0052570594755501e+00  4.0645976180281229e+00  9.2045524559190139e-01  9.2197622859150474e-01  3.1308116553332281e+00  1.8830656899379290e+00  3.8688427176680101e-01  3.8562906238205341e-01  7.2112383221243208e+00  3.3900241679896719e+00  3.4242334960306442e+00  1.1201069551227076e+00  1.1056829689533709e+00  1.2514975801740229e+00  1.2838429597286882e+00  1.1576283370904372e+01  3.4235604797041770e+00  3.4497504679820845e+00  7.2361224626160086e+00  1.1730634804757012e+00  1.1262857526184911e+00  1.1047904844777390e+00  1.0264789872274818e+00  4.3717692897000253e+00  1.9183514761204945e+00  1.8727902807015575e+00  1.9596688988635940e+00  7.2357644529527914e+00  7.1433077617149161e+00  7.1818713724037675e+00  4.9649109074260039e+01  1.3050658925522691e+00  1.2917936394426737e+00  8.4242097026472678e+00  1.2397672887710138e+00  1.2223143574782893e+00  3.4471913164449139e+00  3.5886513006364398e+00  3.0328290382589385e-01  3.0588360207808085e-01  9.7385742465096250e+00  4.6786874950304753e+00  4.6436882520749672e+00  4.6599174028285457e+00  7.2082580745486480e+00  7.3311638963581771e+00  5.7704230197915161e+00  5.8032253186666667e+00  8.2885165725781462e+00  8.1589172329772186e+00  8.2151663202909688e+00  1.0387195665716047e+00  4.7169551837109474e+00  4.6979525460715967e+00  7.1735402308852603e-01  5.8547932952200794e+00  5.7960217740681905e+00  5.8241416353350486e+00  8.8111944564468359e-01  1.4885365788139862e-01  1.5555114437605097e-01  1.5753126278458401e-01  3.7378075076451589e+00  9.3486466719341248e+00  9.1770996029911949e+00  9.2364681686053007e+00  3.7153996663256637e+00  7.3375103908519312e+00  7.2485795201025462e+00  7.2876668355722956e+00  7.3860079015588687e+00  7.3373195462960012e+00  7.4974152907435174e+00  7.9715755820255465e+00  7.9202131049614701e+00  3.1815319413854573e+00  3.1661159262419116e+00  3.1880270036626936e+00  1.0943674532347965e+01  4.6410067178716892e+00  4.6037894713648688e+00  4.6211889044307801e+00  1.1956350158612468e+00  1.2238648355686470e+00  4.4252380010931889e+00  4.4381734720725721e+00  4.6822657526917403e+01  4.8469642512579121e+00  7.0272232844917204e-01  5.6779195747204696e+00  4.8433015056469166e+00  4.8947246631058192e+00  4.9009616405890020e+00  4.9326868957164001e+00  7.2168384675284925e+00  7.2692927960657387e+00  6.7699454636612213e+00  8.2461841580855317e+00  8.3101728554348302e+00  2.0803843689474164e-01  2.1941072776008191e-01  3.3777356874786163e-01  6.7993408903281694e+00  6.8311632552509582e+00  1.5852214505867789e+01  5.7374315893309173e+00  1.2606837221641694e+00  1.3183638334785164e+00  6.5050303210145186e+00  6.5305804720790972e+00  7.8830929025285168e-01  1.2975297440770561e+01  1.2899258854109293e+01  2.6635635422709472e+00  2.6969000779557173e+00  8.6943939749031485e-01  3.6303281061175312e+01  3.7421390446552451e+01  5.9173268576344498e+00  5.8595574438151194e+00  5.8855135826620009e+00  7.7177956455976915e+00  7.8884976888715928e+00  3.2274934711282532e-01  5.7598783550493957e+00  4.4189090390943706e+00  4.3819087443060747e+00  4.4001524182806699e+00  2.5960101035582710e+00  2.6291877393518863e+00  9.2870539186005878e+00  9.0979694214504967e+00  9.1796512024755863e+00  7.7155346456347851e-01  7.8018220497634849e-01  8.4334409969067430e+00  8.3108929776395932e+00  8.3623905359641153e+00  9.1839268940157937e-01  9.0370172607721455e-01  8.0548869722466829e+00  6.1670925746543164e+00  6.1115468796436989e+00  6.1383002111827318e+00  3.9880220541909308e+00  4.0336739677905049e+00  4.5352928995188924e+00  6.8594440911604937e-01  5.8734041073075707e+00  5.9137362691960860e+00  4.2351740761804741e+00  4.2048502843601741e+00  4.2176220887780174e+00  4.5772932288241943e+00  4.5429549287792721e+00  3.2883584703302648e-01  3.3111309145446127e-01  3.3752481261690298e-01  5.7114996447941326e+00  5.7200763999295052e+00  1.1397419347962540e+01  1.1085378915029063e+01  1.1221304102892697e+01  8.4155468571228145e+00  8.4785649308288669e+00  1.8711827325680299e+00  3.7269537404781139e+00  3.7078196746031447e+00  5.8475506428403321e+00  1.1813415845266773e+01  1.1593537302010962e+01  6.5584342126142392e-01  4.3645820232993033e+00  4.3442727871700928e+00  1.9992526017559742e+00  1.9764548529771842e+00  1.9819226670278742e+00  1.4163437809441906e+01  1.3725471833481043e+01  1.3736960393249852e+01  5.0880714092451307e-01  5.6425528659891846e+00  5.3925927957393567e+00  5.6942886644905482e+00  5.6788408134750599e+00  1.6466421730303750e+01  1.5823806560336044e+01  1.5784644956132336e+01  3.5321671508042956e+00  3.5683595043303251e+00  3.2588651925263884e-01  3.3267508519597760e-01  4.6286547096754163e+00  9.2667792829565645e+00  5.3064126910462850e-01  1.1020810189148489e+00  3.7472889564766096e+00  3.8588431576717497e+01  3.8670765240899300e+01  4.5679473213239952e+00  5.7825412517502022e+00  5.7845151910733996e+00  5.8960141031504900e+00  4.6241241831983579e+00  4.6086933116545437e+00  4.6733435443654932e+00  4.1386039341871053e+00  4.1186730083185399e+00  1.4104828724654695e+01  1.3983353530251266e+01  4.1938980028509425e+00  4.1761954994264920e+00  8.2545523698710010e-01  8.2802304913195257e-01  8.4089040030540174e-01  9.4513931927073358e+00  9.6449172854684058e+00  9.2932697849732797e+00  9.2989668112342567e+00  6.7204701040046766e+00  6.7821183723418548e+00  1.9804896559935074e+01  1.8040679386306898e+01  3.3849821692234676e+00  3.4009098977783436e-01  3.4965358149038428e-01  5.8060902407113835e+00  3.8247408454818519e+00  3.8045430970528304e+00  1.6587390067295262e+00  5.6776383306024076e+00  5.7887138152476600e+00  4.9492495189224037e+00  4.9329086149773911e+00  3.5136959782708490e+00  4.9684738341561321e+00  9.3506359221202633e+00  9.1664615756519652e+00  9.3788566807688447e+00  3.4884443697433207e+00  3.5529833245872138e+00  6.6034455912979242e+00  6.5740986908044849e+00  3.4032060426991135e+00  3.4116460431186022e+00  3.5701072510001869e-01  3.4404375355944112e+00  3.4219251423379582e+00  3.8448704078619946e+00  3.8530941245736612e+00  4.8241761250922714e+01  5.2070325109138622e+01  3.9334698399103023e+00  3.9715390988875789e+00  9.8747948531324714e-01  1.3028952340636758e+01  1.2848024898769076e+01  3.7500750258724156e+00  3.7329637430253442e+00  7.8816198357378360e+00  8.2982420423206822e+00  8.1097903933260920e+00  3.9194539502754013e+00  3.9502491819476822e+00  1.8252862678722253e+00  6.7552047723379545e+01  5.2646620392104202e+00  2.5766330458924038e+00  9.0199423541741863e-01  9.2458306361646891e-01  4.9168733341535313e+00  4.8590285384324750e+00  4.9008933994912818e+00  6.8891748305687350e-01  6.6768093337408330e-01  2.6432014360343432e+00  3.8470845411934029e-01  3.9863766489063368e-01  1.3897939641641239e+01  1.4117794210516825e+01  4.0474850314643760e+00  4.0827773756567396e+00  5.0908315403665283e-01  5.3283649409706568e-01  4.1708380062524636e-01  4.1398879996343163e-01  4.3123873840921256e-01  6.0543217387965376e+00  4.4171922228290441e+00  4.4467700608566592e+00  4.4346208356444174e+00  3.1717670327359944e+00  3.1426207376165833e+00  3.1561574329801045e+00  3.4770976880387070e+00  3.4591805791696633e+00  4.8418596562037965e+00  4.8209829255648549e+00  4.6879604227620604e+00  4.7048235766694493e+00  4.7166790842104493e+00  4.2114915828476729e+00  4.2319049571320075e+00  8.7965008042790660e-01  8.7676034902012800e-01  4.2807016794191854e-01  4.4310842601442280e-01  4.1585182065525004e+00  4.1682996916889294e+00  5.1250844674838958e-01  6.9489645272743186e+00  1.9644910916955996e-01  2.0441413192330077e-01  2.0385180490576973e-01  1.3293579396923917e+01  4.0013034648727865e+00  4.0133894327466884e+00  1.3169021290534619e+01  6.0869110749662969e+00  6.0574312074429173e+00  3.3311763348953216e-01  3.1232163581698719e-01  3.2521237162298805e-01  3.4410317904708556e+00  8.0260175843779837e+00  8.1042814991892484e+00  6.5152049675511692e-01  6.8368063638128274e-01  3.0744299414973715e+00  3.0559967170760265e+00  4.9723319241714901e+00  5.7134099522216522e+00  5.7801350516842103e+00  4.0178603883089681e-01  3.7927132835741523e-01  3.5808812238076670e-01  3.4684952086403049e+00  1.0384408074182705e+01  1.0667717123933219e+01  4.3443853899458880e+00  4.3403866403238451e+00  1.0387330842435480e+01  1.0537235324161690e+01  1.0134546118644472e+01  1.1653887345393736e+01  1.1588186019604937e+01  5.9315504734600566e-01  6.2134457217430117e-01  3.4219406040554712e+00  3.3871173167832200e+00  3.4042240314918608e+00  6.5397548678575690e-01  6.7901586850161766e-01  6.4807421672635899e+00  6.4360348801220182e+00  1.1206668838066665e+01  4.7669657137703181e-01  4.3643386775244664e-01  1.2196062133691878e+01  3.7581287981474971e+00  3.7888244959338579e+00  2.5249647352246960e+00  2.4719973754657136e+00  1.0119868991234335e+00  1.0015971145526108e+00  9.8650138682799626e-01  2.8454194666183499e+00  2.8285332161817571e+00  1.3386644537442375e+01  1.3739729457586430e+01  9.9396106799541837e+00  9.9817988977945316e+00  4.4323011319494148e+00  4.4185896937827280e+00  2.6387773482997394e+00  1.2243901943998585e+01  1.2283074510661660e+01  6.0311671009341505e-01  5.8598716384003380e-01  6.1199006526491428e-01  3.1638778515264967e+00  3.1458786813150330e+00  3.0727775496535409e-01  2.7106456870767437e-01  1.0262155430787622e+01  1.0388809786264060e+01  4.1602464433827731e+00  4.1421865488241147e+00  9.0829317607110849e-01  8.9278372103158443e-01  9.3810944756951797e-01  8.1182410842776465e-01  8.5005316239186279e-01  7.5555582987661216e+00  7.4950125939744696e+00  2.6626265950897623e+00  7.1129161181613894e+00  1.5227576166840837e+01  7.3520722285530802e+00  7.2285997396687280e+00  1.1868585167675935e+01  1.1535383389726936e+01  1.8889831697071627e-01  3.5861406699067480e+01  3.0194930736405851e+01  4.1299663380429209e+01  4.1408571021398949e+01  4.2987940828896640e+01  1.4167958569843135e+01  1.3721559986896994e+01  7.1595112799437253e+00  3.4597858712451632e+00  4.1948994477272343e+01  4.1277841999319250e+01  5.3543783752196594e+00  1.2620445127205953e+01  6.1188850062733326e+00  6.1638330326914961e+00  7.9028941212926096e+00  1.0495033457933021e+00  1.0989450494539301e+00  1.3171262505879891e+01  1.3060279817449343e+01  4.1256879987206005e+00  4.1115247987898620e+00  7.9923349833499966e+00  3.1944002093794137e+00  3.7431201934178105e+01  3.7689693249747656e+01  3.9570049048589279e-01  3.6736007058674713e-01  5.8205337906599688e+00  5.6475790990789667e+00  9.9486408067379610e+00  9.4563080098274810e+00  9.9025781241346795e+00  5.5078987567273039e+00  5.3148734126008952e+00  5.5011890230485552e+00  1.2535541982105185e+00  1.2858420529323491e+00  1.0274179071410272e+01  1.0528870144217494e+01  4.6635548203334407e+00  4.5414621193651010e+00  4.6459535988203511e+00  1.0716817175498353e+01  1.0486949664271732e+01  6.4464214970831557e-01  6.6086918062436173e-01  4.9513540905975271e+00  4.8747723798504499e+00  4.9594699088487673e+00  1.9933180586926931e+00  8.5524649261072150e-01  8.6842884691703137e-01  1.2631927793304262e+01  1.2316213736641558e+01  1.2238064243733199e+01  2.8625445222051944e+00  2.8889887318360037e+00  5.7029457672884005e+00  2.5544783331104086e+00  2.5350763905099165e+00  1.2307411947790194e+00  1.2882488064881452e+00  6.7052970235954463e+00  3.9811520199636746e-01  4.2181681622879974e-01  4.7809754529618367e+00  5.8151848126034524e+00  5.8794455517943085e+00  3.2806403827914586e+01  3.0122829571165486e+01  3.9015350234337243e+00  4.0140273416350567e+00  4.0271049841230067e+00  3.9397853585089257e+00  3.9242397396329136e+00  9.6667250938047040e+00  9.5368101607186038e+00  3.9151481646869279e+00  1.1226504698924362e+01  1.0959519468570416e+01  3.7719521120706783e+00  3.6200831434929683e+00  3.6836899932490055e+00  2.9945545050860973e+00  2.9683615287506200e+00  2.7638092904069755e+00  2.7404389997700314e+00  2.7456742123769056e+00  4.6360882533352203e+00  4.6193034753752160e+00  6.4633320401708438e+00  1.5565776027150893e+01  1.5836476294868966e+01  1.5933140456594211e+01  1.1046468742619439e+01  1.0756131064867189e+01  1.0875684529821887e+01  6.2322512408420581e+00  6.0097701732082065e+00  6.0199099507457774e+00  1.4454765911992888e+00  1.5156629858975190e+00  2.3481935910278366e+00  2.3306020125708971e+00  3.5378842263380226e+00  3.5116245197298275e+00  2.6201277437779985e-01  5.8875678256073929e+00  5.7006105510075153e+00  1.8028478325369321e+01  1.7205630847105493e+01  7.4329356910233635e+00  7.3367512461752682e+00  1.7276286445238259e-01  1.6481325195314095e-01  4.6252886129835701e+01  4.7634185562888483e+01  7.6697802668282620e+00  7.4474023619115783e+00  7.6587576399276607e+00  7.5480807493983830e+00  7.5002025308612739e+00  2.2776477153023436e-01  2.3122368999309756e-01  7.6118243388415685e+00  7.6497875003938463e+00  7.6412513025073325e+00  7.3704850847803050e+00  7.5943968315529080e+00  6.2773322904844582e+00  6.0876845512050597e+00  7.6613292173722023e+00  7.6135564272501419e+00  6.6424371718795401e+00  6.4599130423789051e+00  8.1634800533663867e+00  8.4397826164913052e+00  7.6818629191012340e+00  7.6697272352183328e+00  7.8887759106064363e+00  8.2051044363659269e+00  7.4317461532596285e+00  7.4509054494786957e+00  2.8585716639296845e+00  2.8338439535444202e+00  2.9162324592381084e+00  9.4233398169759983e+00  9.3385572059481969e+00  7.4043132046393971e+00  7.3952527609932277e+00  6.9615577080047526e+00  6.6732188553729213e+00  6.8061518122289382e+00  8.8671057359816430e-01  9.0567327429680566e-01  7.5626685252688128e+00  7.3400882462975119e+00  7.5952677520195140e+00  7.4022414366113987e+00  7.4114807882454521e+00  7.2340689446054149e+00  7.1045766054538415e+00  4.2964323891625558e+00  4.2682054464855197e+00  4.5957691411673975e+00  8.2286224818599187e+00  8.0859451445162325e+00  8.1512096611582674e+00  8.1047240370676370e+00  6.8913265741910497e+00  6.9999080600551711e+00  1.0895028741858660e+01  1.1327229473998210e+01  7.5115246086387222e+00  7.5281196521519504e+00  7.7641293314885127e+00  7.6128361906363455e+00  7.7082777277186052e+00  7.3891284101303620e+00  7.3916331307697840e+00  2.7250766694893351e+00  2.7056719989013525e+00  7.4380215745757452e+00  7.4186866543399574e+00  7.3900987923154382e+00  7.3872107688289370e+00  8.3269002799033776e-01  8.4247526445411569e-01  1.4502737228345676e+01  1.4566509638325035e+01  7.1159639918598998e+00  7.0701949193737690e+00  7.4668350787674553e+00  7.2605028426628628e+00  7.4928030299973294e+00  7.4959475108372944e+00  7.4623947505238322e+00  7.9015289657436405e+00  7.7334420817797138e+00  7.8294965431938639e+00  1.0343144270286752e+01  1.0146580999108236e+01  5.0017379455136064e+00  5.0286341592836994e+00  1.2762708447673454e+01  1.3087728093479639e+01  1.2890593303223035e+01  2.9514703752158589e+00  2.8542852423803406e+00  2.9046095668720802e+00  9.9856168768388596e+00  9.8140642941708496e+00  1.0410675710532944e+01  1.0701086466942984e+01  2.3643712999140107e+00  2.3173731450516550e+00  2.3428687212568087e+00  1.2660103598404064e+01  7.5697128922698269e+00  7.4104510158788113e+00  7.5311429645131920e+00  1.0977353273557853e+01  1.1250499640670823e+01  6.7251544024873144e+00  6.6407281266991092e+00  6.6882569353464305e+00  2.4675040890121025e+00  2.4472422702136805e+00  2.4685857930209667e+00  2.6525009061781069e-01  2.7686164586744572e-01  2.5920442396696797e-01  2.5945556761125848e+00  2.5750888563223735e+00  2.5171294966770727e+01  2.6021438102499722e+01  9.0747906611624902e+00  8.9729119998731974e+00  8.4289135005236826e+00  8.3266390107541088e+00  8.0486630611367538e+00  7.9719681948096603e+00  2.1416234576295623e+00  2.1224062108089154e+00  1.0902882783389851e+00  1.1074196318483363e+00  8.6741259264331152e+00  8.5399650618652867e+00  9.2499290341312808e+00  9.0413952253561103e+00  9.0928593356526690e+00  1.9638806915758626e+00  2.0500922269152033e+00  8.2293376624635393e+00  8.1365032417833465e+00  8.8897983637506499e+00  3.9584533909804476e+00  3.8674017094540769e+00  7.2159565092518259e+00  7.1115705206585309e+00  7.1639565258468823e+00  4.2405959882941708e+00  4.2082627452873824e+00  3.1246975094609533e+00  3.1097563403226345e+00  3.1652290145240527e+00  3.1457812638955907e+00  3.0886588297500963e+00  3.0211164706837539e+00  3.0620712656303080e+00  3.0445409683948856e+00  3.0208241174302866e+00  9.4959501764417809e+00  9.4558997807552618e+00  8.6798547865614251e-01  8.5172535643713609e-01  8.6901558242312882e-01  3.2085103047718033e+00  3.1863229855887591e+00  7.8055583788897493e+00  7.6780286343350976e+00  7.7400491794997182e+00  3.2480156817292243e+00  3.2287375197205965e+00  3.2878567326130836e+00  3.2255192622678415e+00  3.2677000897399302e+00  3.3279818216567647e+00  3.3087163566409963e+00  3.3058387869406207e+00  3.3470963409085082e+00  2.3454856427668244e-01  2.4480416988309522e-01  2.3275389310630659e-01  2.1383750146296281e+00  2.2327521540134398e+00  9.5964824231113628e+00  9.4145979103716559e+00  6.1442831173036938e-01  5.8482811318068817e-01  8.9379833383608922e+00  8.7554340097695427e+00  8.7990034135495616e+00  2.3852003157147861e+00  2.3533999059039741e+00  2.3647455721163020e+00  6.4709498989082403e+00  6.3888835891503408e+00  6.4403175041726941e+00  2.5563157901400091e+00  2.5362028075356777e+00  2.5151544058274227e+00  2.4825730379045394e+00  2.4949949808461396e+00  2.4735215593660649e+00  2.4519895850375892e+00  2.4299332474970550e+00  2.4089357532659128e+00  1.1491976775954139e+01  1.1745096628788930e+01  5.0130561523040447e+00  5.0761510552603637e+00  5.0844210034371606e+00  6.8473667159336022e+00  9.9860571751672982e+00  9.7780066436960169e+00  9.7953504028455605e+00  1.0943543299812335e+01  1.0683188293352622e+01  1.0175702429639703e+01  1.0038847981883267e+01  1.4091327961319089e-01  1.4678064752674438e-01  9.6229900129271631e+00  9.5167632518579683e+00  6.1040182937162930e+00  6.0437832093942738e+00  6.0675724121181682e+00  1.0072571486427712e+01  1.0457979440433471e+01  4.6024368365171684e+00  4.5856228210040104e+00  3.1656848085500631e+00  1.3017973264087249e+01  1.2606505879885722e+01  6.8108132781463979e+00  6.7791513784077946e+00  2.3287405877822360e+00  2.4269475437781116e+00  3.7771669669672342e+01  3.8715797712950604e+01  4.1075641521455516e+01  4.2671853316348184e+01  4.1270580587408965e+01  1.6900090513851085e+00  1.7703442365018753e+00  1.4492420914712922e-01  1.4804759884710397e-01  1.5178453071569747e-01  3.0511149271958207e+00  2.9395108429154075e+00  3.0004867933646926e+00  1.2316858804446607e+00  3.1273872575583357e+00  3.0341021317164283e+00  3.0917801864104328e+00  1.1443629070704157e+01  1.1637754383190821e+01  1.1530302311967617e+01  1.3941810803365634e+01  1.3482799297432416e+01  1.3461440737011864e+01  4.3816273247564732e+00  4.3440030587328593e+00  4.3649206209132503e+00  2.4047185834346183e+00  2.3853713838569557e+00  1.5153129518206786e+01  1.5734292873080399e+01  9.9417011497202310e+00  9.9698750967261311e+00  1.3475363995826382e+00  1.3976266677842359e+00  1.1544781736608666e+01  1.1237734597490407e+01  9.1006366123977287e+00  1.0453483411531598e+01  1.0189064261531593e+01  1.0207313097074206e+01  1.4411928189929091e+00  1.7980737669719573e+00  1.1233168620217389e+01  1.1268289410740945e+01  2.5364360388024739e+01  2.3908083157000824e+01  2.3773444799507224e+01  2.0306529414247740e+00  1.2781445710583832e+00  1.2617352809222611e+00  1.2783254512955262e+00  1.6346413238654369e+00  9.5907235397812656e+00  9.5384010641208636e+00  1.0567712906637512e+00  1.0727217623447898e+00  1.1295997804362276e+01  4.0588918410402375e+00  3.2140700282201289e+00  3.1987179302131690e+00  6.2416143315789760e+00  6.2104493539387038e+00  2.5454402807875049e+00  2.6445623505123717e+00  1.2224951858809524e+01  1.1869439401647687e+01  1.3417227341124760e+00  1.3627090542385896e+00  3.9901234844362241e+00  3.9220228095628840e+00  1.8528127504428364e+00  1.9424428784029242e+00  5.8861543324611407e+00  5.8174376618916401e+00  5.8599062592071256e+00  8.9169613603751152e+00  2.0290337191893992e+00  2.1184969854548474e+00  1.7428762199529573e+00  1.7444670981505741e+00  2.5262117058072415e+00  2.6314853365618789e+00  1.9222409957674311e+00  1.8947434039850426e+00  1.0236283779496769e+00  1.0398280361332015e+00  4.0999881128268507e+00  2.1176415464903448e-01  1.0691034531191896e+01  1.0732144870471314e+01  1.1557641936467826e+00  1.1798016656197252e+00  4.2684176599232010e-01  4.1296713132548957e-01  4.4089860769633132e-01  9.9370852796934039e-01  1.0076710765575025e+00  2.2332139868487673e+01  2.1212497266396333e+01  2.1072999830700720e+01  9.6591609852748661e-01  9.7914873653846823e-01  1.2153096928565979e+01  1.2624604101352814e+01  4.2753414531873446e+00  4.2933805144801012e+00  5.6978264654695447e+00  5.6753652194587465e+00  1.5042385958508575e+01  1.4516423473138259e+01  1.4462706309000476e+01  1.9926405100651024e+01  2.1265463293793768e+01  4.1995102573514398e+00  4.1810448576311554e+00  1.1008203482431814e+01  1.1014331443835337e+01  1.2045341504111757e+00  1.2302825339823078e+00  2.1903786026987335e+00  2.1918989406655149e+00  2.1707039049745327e+00  2.2245306046838222e+00  3.9798250941021593e+00  3.9623174645712238e+00  2.0792392438957545e+01  1.4250946902521628e+00  1.0802260936598231e+00  1.1209611665452153e+00  9.9058558170195248e+00  9.9179746752643076e+00  1.0012186183632166e+00  1.0414782377356173e+00  6.0135896397445077e-01  6.0142728856557259e-01  9.8951019616299973e+00  9.9018927875773208e+00  4.2703116279564401e+00  4.2536611685642844e+00  2.2164152209899011e+00  2.3159848323177799e+00  1.2526497464233284e+00  1.2983075663628889e+00  1.1503971175325367e+01  1.1440938154644682e+01  4.4836692517854582e+00  4.3461474379270575e+00  4.5274785889798954e+00  4.0083172998663281e+00  3.9904973929509211e+00  1.1860418716260352e+00  1.1633090502268177e+00  1.2061674341602242e+00  1.6355803432539776e+01  1.5674209383979347e+01  9.2880757225765553e-01  9.6496795349088982e-01  1.4651835476976791e+00  1.4479814553380823e+00  5.5147795837733149e+00  5.4962719144814152e+00  1.9996692231096125e+00  2.0311222403722771e+00  3.4491739338926236e-01  3.2506063623113757e-01  2.0150923865035891e-01  2.0969439676087179e-01  2.0630287050449778e-01  1.6463835487751165e+01  1.6217686466022631e+01  1.5806923843074840e+01  7.3068067034513562e-01  7.6172674336248036e-01  4.4735071880656669e+01  4.4878006501789962e+01  2.3485903369135968e+00  2.4443816458522720e+00  1.8790455382892071e+00  1.9558830831736322e+00  8.6053089161145346e-01  8.9359365301642679e-01  1.8792407133614621e+00  1.9339608839868221e+00  1.7748634676578183e+00  1.8273697801693491e+00  2.1614760404576586e-01  2.2465229414549409e-01  2.1320886586979754e-01  1.3680140134467104e+01  1.3854253841651461e+01  1.9898869807804536e+00  2.0476461402657682e+00  1.7423657577504981e+00  1.8102106119928711e+00  1.7026769914822812e+00  1.6797221106972717e+00  1.7267966529775547e+00  2.1783101631727213e+00  2.2614411474942884e+00  1.3012152503467553e+00  1.3208137095613797e+00  6.6822886962630779e-01  6.9927299820463173e-01  1.3075100040337283e+01  1.3341267113597539e+01  1.3425663693412726e+01  2.6274629753146259e+00  2.7027021965334272e+00  3.7419520277494045e-01  3.6348802499578003e-01  3.8773292105105805e-01  2.0265546442032023e+00  2.0992013338625797e+00  1.6166576147168625e+00  1.6779282994741673e+00  2.9079869234698688e+00  2.9042352451865754e+00  6.0819532333389814e-01  6.3737310388341395e-01  1.1779651130230153e+01  1.1539029672014800e+01  4.9738588298529152e-01  5.2354364420294430e-01  1.9343220278474000e+00  1.9185709508508344e+00  1.9378148016735439e+00  2.1062120495326275e+00  2.1766712017409606e+00  7.9372815964025800e-01  8.2626214403911391e-01  1.5009099332076585e+00  1.5571237086510639e+00  2.1758379717026699e+00  2.1559868534378119e+00  2.1921261573448967e+00  6.2314839726340265e+00  6.2467557423598725e+00  6.1524757166727726e+00  1.7744103340850458e+01  1.8381888183973363e+01  2.8850786562033565e-01  2.9798693722387143e-01  2.7429457160396487e-01  3.5627910251907648e+00  3.5818780432226318e+00  5.8506836321641895e+00  1.3806664861525672e-01  1.9455221680905557e+00  2.5459949182107811e-01  2.5498868923621315e-01  2.6853690222164139e-01  2.1388982036951848e-01  2.2338529229103432e-01  2.1561738404483063e-01  4.0451021031836039e+00  4.0245520209178700e+00  3.4885154393721024e+01  3.4107629170773208e+01  3.3573135382376769e+01  1.6390391742793704e+00  1.6168762666252916e+00  1.6195251500922749e+00  2.0981268665074850e+00  2.0716617927094005e+00  2.1192254552824989e+00  3.8820394080099274e+00  3.8650117772620365e+00  4.4161729004829006e+01  4.4677601648197566e+01  5.5048108143907704e-01  5.7846849767465758e-01  2.1083318508175917e+00  2.1705953785087742e+00  2.2364281400770938e-01  2.2848434665480355e-01  2.3522061964968990e-01  2.4383355769362491e-01  3.1900912665786391e-01  3.3909582409691197e-01  4.0039575423105251e+00  4.1706518827966637e+00  1.6013276395808413e+00  1.5840757853513898e+00  1.5411238475045497e+00  1.9852663164053592e+00  2.0300645726661060e+00  1.9958272417817660e+01  1.8986584359292507e+01  1.8924096297665336e+01  1.4977395538552942e+00  1.4811069389837175e+00  7.9407959331314641e+00  8.0902089213327617e+00  2.5001366913905812e+01  2.2408615384463314e+01  1.5667124654987521e+00  1.5495748940148517e+00  1.0577310008059051e+00  1.0366958805351250e+00  3.6810367521718059e+00  3.8410598081329832e+00  5.0096089211776396e-01  5.1929600458269531e-01  1.9049621994572759e+00  1.9431198427607157e+00  1.1561007363983041e+01  1.1540148948904882e+01  1.1533933173317386e+01  1.1552957163941125e+01  3.3898871118948177e+00  3.5309899877802922e+00  1.6778595818494642e+00  1.7107311459761163e+00  1.5321345841448837e+00  1.5150352012476642e+00  1.4443649429283836e+00  1.4744294809817065e+00  1.6082231795887520e+00  1.6431029269303103e+00  2.0161149869159329e+00  2.0204812599191588e+00  3.1228650724504750e+00  3.2518272350880491e+00  1.8210588083264136e+00  1.8607361343519091e+00  2.4282409881950877e+00  2.4665458558357884e+00  1.9431635333646626e+00  1.9704691558629559e+00  3.8976187461874563e+00  3.8810890181190234e+00  2.8371622115377559e-01  2.8265459384062303e-01  2.9906451978951976e-01  1.7456690252869591e+00  1.7842159927678525e+00  2.4177802412216747e+00  2.4449913748355714e+00  4.3900126022745880e+00  4.3743202595849073e+00  1.8848452923381231e+00  1.9125973016494819e+00  5.3485555793299042e+00  5.3291868545014225e+00  8.8961591570020744e+00  8.5741506374136272e+00  1.8323892159544408e+00  1.8580851672059668e+00  2.5638345194579660e+01  2.4130800126609881e+01  2.3992678711882544e+01  1.7828078412320045e+00  1.8073016193912859e+00  7.9485047736280878e-01  4.8866851608774855e+00  4.8254856491225349e+00  4.8725877835359572e+00  3.7153011337875261e+00  3.6785394046565312e+00  3.6980090451629599e+00  3.8008180230298070e+00  2.4852235404471412e+00  2.5559169501989190e+00  2.0511351625528967e-01  2.1281871629112814e+00  2.1499118924086735e+00  6.7464179643832942e+00  6.8039378067563270e+00  2.0863518621179047e+00  2.1206317628153992e+00  9.5321479733347392e+00  9.2926115417271546e+00  6.3026086978284879e-01  1.5100336317214390e+01  1.4608319505423985e+01  1.1987929832796578e+01  1.2136915323955790e+01  1.2341737623959737e+01  5.2122548021635486e+00  5.3781921529493726e+00  2.1731670823333626e+00  2.1979983977574085e+00  4.7357117610481554e+00  4.7206382690377797e+00  7.7610018507522904e-01  7.5985554326007521e-01  2.1908777989459902e-01  2.2067340215275158e-01  2.0507069804938730e+01  1.9704664865378785e+01  1.1066322645787809e+00  1.0569870443532783e+00  1.0833195688283934e+00  1.0789610787987293e+01  1.1762875594819637e+00  1.1834816801727666e+00  2.3643648740650014e+00  2.3904805279931347e+00  1.1590916921848675e+00  1.1360524207520073e+00  2.3278440452539337e+00  2.3086817937888364e+00  2.3359827723311053e+00  1.0990331841772456e+00  4.6064062097651776e-01  4.7785676153633000e-01  7.5361914842201705e-01  7.6168971206051272e-01  7.5971487415400230e-01  3.6052497210628052e+00  3.5880328339581098e+00  3.0760173281724432e+00  3.0581230252009250e+00  3.0951030520587293e+00  3.4874194841749229e+00  3.4951437851637288e+00  1.5979570397703755e-01  1.5742976050184715e-01  5.1569059617899713e+00  5.1330530342451128e+00  5.1677023620483080e+00  6.5576867766299998e+00  6.7357665337340533e+00  4.5834389934291622e+00  4.5698339923269735e+00  9.5635303116157129e+00  9.7177157193866268e+00  2.2357893525393573e+00  2.2410465592816453e+00  7.6725094832226350e+00  7.4531891188388171e+00  7.3391470953997935e+00  6.0127377677437597e+00  6.0198517111359546e+00  5.3141629409315261e-01  5.0132593279293880e-01  5.1487198277952018e-01  1.3965108938669308e+00  3.9777326636688798e+01  3.9114417974728788e+01  3.9816034508554687e+01  3.9510334055675678e-01  4.0855305166004580e-01  4.3039095447664240e+00  1.9086743353848792e+01  5.1525571302885913e+00  5.1799032208452243e+00  5.9893640210358505e+00  6.0171466209505846e+00  9.6534840433152063e+00  1.0155701293196779e+01  3.3858906615162674e+00  3.3668663564714190e+00  5.0523637897661180e+00  5.1489672214767781e+00  4.7973300045722600e-01  4.4533926173375804e-01  4.6889820606124955e-01  3.6402885100803406e+00  3.6189772699565168e+00  3.6750730677333858e+00  1.8769449258885929e-01  1.9162925015957469e-01  2.2280960263049288e+00  2.2662928107312097e+00  6.0775688001760519e+00  1.7042967446174054e-01  4.6376506384042457e+00  4.4447812873739343e+00  5.5379467156944706e-01  5.7322982991452309e-01  7.0857268254863182e-01  7.4023146804891338e-01  7.9035623374203281e+00  2.9029242043571450e+00  2.8830224936958535e+00  2.9056809455047747e+00  1.5728438711307954e-01  1.6460463529306846e-01  4.4052053051714513e+00  4.3920915523362307e+00  2.0152629492302644e+01  1.9349113018719759e+01  8.5979350464043733e+00  3.1266993781774444e+00  3.0921857820490004e+00  3.1082389534436068e+00  9.6383694214800428e+00  9.4338035470037962e+00  9.5475233202149354e+00  3.7791075350072023e+00  3.7616294238443473e+00  3.1885402585627602e+01  3.1831765702658426e+01  2.9631481733764335e+01  3.1349956381574700e+01  3.3800021921972821e+01  4.0970778250065560e+00  4.0832351702331469e+00  3.1499427369347094e-01  2.8387957368065997e-01  3.0707867189136029e-01  1.8294857664510497e-01  1.9668653948523052e-01  7.4987768652167863e-01  7.6689057819993212e-01  3.1832493851591082e+00  3.1689811856413193e+00  2.7692941901900991e+01  2.7481014188563584e+01  3.0578576030743925e+00  3.0381875215169996e+00  6.5867823148327815e+00  2.9210114311878244e-01  6.9782473053384642e-01  6.7655844329279868e-01  6.9341418195196680e-01  2.9423922611825897e+00  2.9689575574741531e+00  4.7734405104657549e+00  6.1528462507217361e+00  6.2085684817951012e+00  6.2339349054175406e+00  2.5425603957447829e-01  2.5387064274993471e-01  2.9478882681475183e+00  2.9282756787303650e+00  3.5170734876847947e+00  3.5671463588036350e+00  4.9781051273578475e-01  2.9925765718031250e-01  2.7767875891599558e-01  1.9566502944300552e+01  1.8734651844966262e+01  1.6770996311976807e-01  1.6201310794365287e-01  7.0315159976591204e+00  7.2233471451693569e+00  8.6073791293683299e-01  8.8184048038284080e-01  8.1658460913143061e-01  8.3220144757065950e-01  3.0136026484137628e+00  3.0424748354302320e+00  1.6138430158537005e+01  1.5578933643843570e+01  1.5647102092191734e+01  9.3093969021077836e+00  4.5080200058112574e+00  4.4676099318693350e+00  4.4941643653497190e+00  4.6059715623841253e+00  4.4738959397658027e+00  4.5925073420156366e+00  2.8380863749771530e+00  2.8192394358613870e+00  4.6127448363855290e+00  7.5260496118376734e+00  7.5771869727764996e+00  1.1710862200247348e+01  3.9091010720119299e+00  3.8432019596219389e+00  3.8936191144443910e+00  3.9404410159624250e+00  4.0329905664391186e+00  9.4186810243197994e-01  9.2538064061558067e-01  9.4469686348455217e-01  4.2695211580588186e+01  4.3480362417401317e+01  9.3876980209830374e-01  9.2467687392817022e-01  1.2333568521874461e+00  1.2250938406201097e+00  2.6863808483674596e+00  2.6609790417244348e+00  2.6675253277822319e+00  1.2156014739548343e+01  2.4465629217465792e-01  2.3606785311582662e-01  2.5633128470078570e-01  1.1347252621022891e+01  9.1254224380688100e+00  2.7361603447892513e+00  2.7512841884022814e+00  2.7349253272594972e+01  1.3505372380169705e+01  1.3594810556674075e+01  2.0646619847216993e+01  2.1512481983218862e+01  2.1591039679516378e+01  7.2246326880108436e+00  3.2848808367819267e+00  3.3142589470652726e+00  1.7754374440414544e+00  1.7590054440148608e+00  5.7595062687717535e-01  5.4742646233963843e-01  1.1917600323129900e+00  1.2235497716690973e+00  1.1750201971882686e+00  2.0724229535000629e+00  9.3959953231049642e+00  9.3929597919587149e+00  9.5375784296729158e+00  9.4604490453851700e+00  5.9889469646705296e+00  9.9807228280545479e-01  1.0211658962555072e+00  8.7039882801338972e+00  8.9564308436824209e+00  2.9340116225770547e+00  2.9177872633988238e+00  4.3290298465903652e+00  4.4303275799262618e+00  2.8169579647805754e+00  2.7577511430763408e+00  1.2247657510695362e+01  1.1894955231887103e+01  8.0922053467475097e-01  8.4731258265018361e-01  8.2606876382683190e+00  8.1752064843423131e+00  6.3710108626026924e+00  2.6561033029696883e+00  4.3565560366593328e+00  2.0364989447534620e+00  2.1047027392260182e+00  3.1853437708152570e+00  3.6166351022352350e+00  3.5970471780010453e+00  2.5593580298736607e-01  1.0752829127208032e+00  1.0973222331516619e+00  1.1752648845163469e+01  1.1452177330540373e+01  4.1718301886063403e+00  4.1266834023149173e+00  2.7309007131054099e+00  2.7112609105944396e+00  2.8627875213275580e+00  2.8434837647781559e+00  1.0389369036773581e+00  1.0200278688745148e+00  2.0770448950024401e-01  2.0269856877532680e-01  2.2432290005925566e+00  2.2112468057028289e+00  2.2237888210380876e+00  3.5319933987205832e+00  3.6080639195928339e+00  4.5337675647194322e+00  4.5269709324855079e+00  4.6282896813237926e+00  5.1828141210818899e+00  5.3193471118294120e+00  1.2667721120259110e+00  1.2748853988057673e+00  6.5445400347036964e+00  1.1662887743490444e+00  3.5996515350949082e-01  3.5915452073570647e-01  5.4885776188981490e+00  5.7008957415501328e+01  5.9289042500529689e+01  1.2448380863646063e+01  1.1991617084451310e+01  1.2200457619304032e+01  2.8883988803232592e+00  2.9411999255371333e+00  2.9070485452899923e+00  1.2117181803165611e+00  1.2442846121037179e+00  1.2564402614248213e+00  1.2840014110016043e+00  7.3288492205168616e+00  7.1326780300539125e+00  3.2342814134177988e+00  3.2572037993251017e+00  1.0437311446513529e+01  4.4549153657495100e-01  4.3790325085762494e-01  3.8016425702199662e+01  4.5140408426818560e+01  4.3364596064800153e+01  7.3288129257868411e+00  1.6439789289363964e+00  1.6621114148555429e+00  4.7650079284883553e+00  2.6288146008396884e+00  2.5869269321795909e+00  7.1040485209723672e+00  7.0281941050655572e-01  7.4216532010735037e+00  7.3795265268411221e+00  9.2648288804263750e+00  9.1131659551423212e+00  8.9831970176965701e+00  6.1731905665648261e+00  6.1549198609899234e+00  2.3603327155408227e+01  1.2111801996330498e+00  1.1957706821726199e+00  1.2134638956846655e+00  5.4616619803047408e+00  8.9950636795585321e+00  8.9369447938339714e+00  3.7364959683826591e+00  3.6651885923291125e+00  8.7147089157127180e+00  8.8429847044015339e+00  1.3365602907549318e+01  1.3614162137833219e+01  1.3672009394845459e+00  1.3481293933368845e+00  1.3781291469363088e+00  7.8101554622581261e+01  8.7444098212324789e+01  1.1747151792815568e+01  2.7539067461583331e+00  2.7394774272742857e+00  2.8511916249064360e+00  2.8103545952160852e-01  3.0656467679015370e-01  1.9617042881983682e+00  1.9822723835613543e+00  4.6998537414370404e+01  4.0442890224277384e+01  3.9667455490674008e+01  4.0176028619673865e+01  8.3783090313154815e+00  1.0809106734553218e+00  1.0666745100097734e+00  7.3817561973568804e+00  7.3303336293907195e+00  1.0531921930812334e+01  1.0745511408096785e+01  1.0513282015287023e+01  2.4215751533503327e+00  2.5330168227764345e+00  2.7667086426458010e+00  1.3860584797158795e+00  1.4146991161327038e+00  1.5055732548595557e+00  1.5376843560977504e+00  7.9397631003756484e+00  7.8768192596004223e+00  3.1056061395511064e-01  3.5700250524686536e+00  3.8062007362352714e+00  2.9119196460265933e+00  4.4421597461617903e+00  8.9944108623928587e-01  1.6962380093411535e+00  1.7207207032427789e+00  1.9752047046383501e+00  1.9279456408669615e+00  2.0456557347564819e+00  2.0661146746685728e+00  5.9841763133568397e+00  5.9593868691650869e+00  7.4323208020536269e-01  7.3159488356921898e-01  4.3794482697399930e+00  4.4073566631833634e+00  4.3980535590359127e+00  1.3679174409459844e+01  1.3846629312947551e+01  9.3902719527924094e-01  3.6428253976274720e+00  3.6236082947600017e+00  2.2367303930613711e+00  2.3069355087783512e+00  8.8543655138589905e+00  9.2929640852100288e+00  7.5458745526341300e+00  7.2658385883529171e+00  5.3378139661747284e+00  2.0336803896343052e+00  1.9950260326510849e+00  2.5482757092124164e-01  7.2950214990742224e-01  7.5442516030755036e-01  3.3636006290967275e+00  3.3488621323620062e+00  6.0402974907652529e-01  7.3242011065906212e+00  4.7152345165105380e+00  2.4079573811706902e+00  2.3112694656830324e+00  2.3561637719720343e+00  1.6440610600415633e+00  1.6786260495105918e+00  3.1358654610629433e-01  2.3705064456865355e+01  2.2591481227902815e+01  3.8559695476645523e+01  3.9895230091386630e+01  4.6787643927205504e+00  1.9702579162297387e+00  2.0662422021823179e+00  2.0043555526667545e+00  2.0373860539944006e+00  2.3309514735200171e-01  7.4200288648862127e+01  6.6915189695421645e+01  4.9146768001969727e+00  2.0444780803978549e+01  1.9000693157309652e+01  7.6375036564577128e+00  3.3721716813118947e+00  3.3490129892528837e+00  2.2212747797274583e+00  2.2475154864888198e+00  6.8197320121516851e+00  7.7860650037792722e-01  7.6688606980260510e-01  7.5492709322886431e-01  2.4323580112428186e+01  2.2879777856262312e+01  1.3542699532955793e+00  5.9138476114159717e+00  4.7662119737532169e+00  4.7504344296348266e+00  3.3412573360691553e+01  1.5973077789719699e+01  1.6354543871237677e+01  1.2094912036689431e+01  1.2056791601378418e+01  1.1740508330299786e+01  6.3994839805966741e-01  6.1739553617897702e-01  6.9209164049544434e+00  5.9767244459644964e+00  1.1267248550503739e+00  1.1321137516302187e+00  8.8369189080435984e-01  8.6964709605333745e-01  4.4545689313085122e+00  1.5640205487636756e+00  1.5761744430215023e+00  1.9654687394215533e+00  2.2614015789308564e+01  6.5598792596871123e+00  6.5055865125189571e+00  1.2563642308062310e+01  1.2397761398521691e+01  1.1821464827405851e+01  1.1351784001437798e+01  1.1442196413468880e+01  8.8203929333031550e-01  2.0939001781624320e+01  4.2667675868027954e+00  2.3805737761107584e-01  1.1615692313623673e+00  1.7432165237403645e+01  1.6700225678563164e+01  3.7197981842703669e+00  5.0664166546930565e+00  5.1450022597677600e+00  6.1618226863954693e+00  1.8188459705792939e+00  1.8420981153809319e+00  1.8293647568732820e+00  9.3933279236359493e+00  9.5063302104655101e+00  6.0420504540813513e-01  5.7079576274850452e-01  1.5199512977708161e+00  1.5420454705508861e+00  1.5651513006724380e+00  2.6543790743554312e+00  2.6325866768228869e+00  2.6818869729076451e+00  6.3224699656994234e+00  6.2714034112227308e+00  4.6427731541244910e+00  2.2585893357374012e+00  2.2569779008072381e+00  1.3285661384032847e+01  1.3715980400648297e+01  4.5522884681427653e+00  4.4438999652308047e+00  4.6200886542654738e+00  3.5621806871378876e+00  3.6224939763257953e+00  1.3778245847376096e+00  1.1373293396561401e+01  3.0142633632582720e+00  2.9838568854109502e+00  1.0497456122505655e+00  1.0653669012072924e+00  3.4465240534355122e+00  2.1347595514665880e+01  1.4675523255793298e+01  1.4174491480869598e+01  1.4682539598505985e+01  9.6239604855886132e+00  7.0326250710047511e-01  3.6386095585052782e+00  3.5792667445365534e+00  5.9567272540207190e+00  4.2619813568324343e+00  4.2265172154375090e+00  6.5728241720272640e-01  6.3309185070740970e-01  4.4206069863913955e+00  3.6109869768982866e-01  9.9627866046724645e+00  9.8134700720961110e+00  4.8767323851502526e+00  4.9191764136898639e+00  1.8856815305017118e+01  2.5964297052399760e-01  5.5679208996063441e+00  5.6221273148118218e+00  4.9606595075071862e+00  5.0018179747683407e+00  5.7071397085326314e+00  3.7927431575022872e+01  2.8524106907124005e+00  2.8768174135873412e+00  1.2288252956926440e+00  1.2063967141834877e+00  4.1197322925999726e+00  4.1988320083359278e+00  2.1205230897397533e+00  9.3133479433465904e+00  8.9108356380484324e+00  3.4798607323154593e+00  7.1291402252110263e+00  1.2269637323814967e+01  1.2568584620754873e+01  2.6081429550322010e+01  2.6743229647052289e+01  2.5464309884662786e+01  4.2307499928070724e+00  3.4325650675513288e+00  7.9524086016111450e+00  1.1942236164797757e+00  5.7656633870033502e+00  1.1037040376313501e+01  5.0455231708517596e+00  5.0880846292962918e+00  1.4407274350771834e+01  1.4731700208475374e+01  2.6431287353136352e+00  7.0447605588843615e+01  1.7149004505818183e+01  2.3812566019389184e+01  2.4400599447870686e+01  2.8748512244050874e+00  2.4721775461522411e+00  4.3094323988576173e+00  4.2889083903175962e+00  3.4088154700030286e+00  3.4375033284241403e+00  3.5611425772404907e+01  3.5817401565305580e+01  4.0776287678009986e+01  4.4090923610632160e+01  7.1119091865497150e+00  7.0462062399035901e+00  1.3042138076732378e+01  1.4251690195747051e+01  1.3980684538624189e+01  1.8269787243234632e+01  3.7565762103155325e+00  2.0203809552587281e+01  2.1102600786765077e+01  3.3344079251162038e+00  2.2204949394610973e+00  8.1710275947004476e+00  5.2706178998587889e+00  5.3174883306998817e+00  4.0092474798019104e+00  3.9971481047907540e+00  3.3143239345234615e-01  3.4416706416816328e-01  5.5822863391689230e+00  1.5146345559566408e+01  4.4520564725732908e-01  5.4644070351355998e+00  5.5153679006909861e+00  1.7820698685348008e-01  1.7777300912871727e-01  4.3263693738090927e+00  5.3668512433388882e+00  5.4147916802988938e+00  3.4239318368592198e-01  1.7936684870297945e+01  1.7871870702612618e+01  5.0084299008643143e+00  3.0378783342984357e+00  3.0767517473095278e+00  4.9761782346507557e+00  1.5301052543534233e-01  4.0446004112806486e+00  1.0738314103036040e+00  1.1489327628888852e+01  1.1115089574249490e+01  1.4381636206525863e+01  5.4946314912161220e-01  5.7776666394608194e+00  2.9300318336239133e+01  2.7823499681538483e+01  2.7773121278962364e+01  4.7388263848601255e+00  4.7319319756688021e+00  4.8399542027044822e+00  3.2937566134639940e-01  2.1860295258328227e-01  3.9132187986526676e+00  5.4331368744480306e+00  8.7387619688434093e+00  9.4036080554359440e+00  8.9271019330625094e+00  3.8355024239106421e+00  1.7702930880231435e-01  5.4133665610654411e+00  9.8100854818981276e+00  1.0003768698826132e+01  9.8138824524307910e+00  1.0025632383804162e+01  1.0692654561422289e+01  1.0519607162001005e+01  2.1195356768577645e-01  3.9358570092927154e+00  7.0485366216704770e-01  2.0658631652693646e+00  2.0787635689519890e+00  9.4111584249531699e+00  3.6218299505260071e-01  6.0200402650823213e+00  2.3501999955368568e+01  9.9781782640058925e+00  9.8730268795454581e+00  4.1092827726375136e-01  7.2716146621250850e+00  7.3210725618700714e+00  4.4007539105444300e+00  4.4462955711861474e+00  3.4685448426813061e+00  2.4889744396897225e+01  3.2082820634519685e+01  3.8401601790900649e+01  1.3150035317709504e+01  4.0420370377843838e+01  3.9706826262274795e+01  2.9828010058483109e+01  3.7515946600375933e+01  3.6549763733306257e+01  2.3836309925105958e+01  2.3395464703293712e+01  2.2109034879888618e+01  2.7556217150487065e+01  1.7072738943846286e+01  7.2958768683851773e+01  5.5297270568630964e+01  1.0610491267204891e+01  9.9410358717476193e+00  8.2028230622706388e+00  5.9811902737273401e+00  5.0658555914825927e+00  2.0005996153620419e+01  2.2651115320053442e+01  1.4437870365212197e+01  5.9626728684633399e+00  6.0492936101484442e+00  1.0501277257984579e+01  1.0718429074530812e+01  1.0969869504932106e+01  4.4768584973945496e+00  1.2251556496017837e+01  3.5035618863521600e+00  4.0438149584184998e+01  4.0811767646876966e+01  2.0030984380405110e+00  2.0212082966647587e+00  2.0365975106251026e+00  8.6882984252095474e-01  1.3456478244133187e+01  4.9484257515773331e+00  1.1860080993782329e+00  1.1578461398671878e+00  3.3891776850043791e+00  1.1521195596579615e+01  1.0580190307783910e+01  1.0769969186687531e+01  7.6163632832330685e-01  8.0835750295877400e+00  7.9450401369300545e+00  8.0211795933420991e+00  3.7517741203145039e+00  1.0387572691000418e+01  1.0331170652252117e+01  1.2942865265248033e+01  1.2676538401154536e+01  4.1076934486935272e+01  3.9772267960395880e+01  4.7916950777812710e+00  8.5827643141166785e+00  1.5613607756457043e+01  1.2606099548511059e+01  1.5787454715262093e+00  1.5412648415631998e+00  2.7245411711741392e+00  3.4586038737533817e+00  9.1494854902752571e+00  6.2022034616148158e-01  2.5309065207286746e+01  2.5603485255555320e+01  9.1414242405834067e-01  8.9444624944418516e-01  7.1641058020872368e+00  6.8931822439785515e+00  1.0758196353515107e+01  4.8782131684307778e-01  5.0269000289515053e-01  1.4124958909784175e+01  1.3981321289078693e+01  3.2057837359707899e+00  6.1757281865707014e-01  5.9386611336194806e-01  1.0562139849375470e+01  4.1088895107614104e-01  6.7830186516993667e+00  6.8636821815706162e+00  9.6831018750215503e-01  4.7960714801667574e+00  7.6150434832240208e+00  1.0523888019822451e+01  8.1782361273951469e+00  6.5097789428670190e+00  6.3586209124791964e+00  4.4942810596312661e+00  1.8765532937438792e+01  4.9642571025481644e+01  4.9159698859119246e+01  1.3156491843819444e+01  1.1239626543571747e+01  1.4303464679079342e+01  2.5915199829729485e-01  3.6437439660047208e+00  4.1475666554287702e+00  2.8786188867916634e-01  2.6823597261234222e-01  1.1370623155773614e+00  5.2330728296794071e-01  3.0983655178966494e+00  5.3453754127661126e+00  2.4652019700334829e+01  1.1873892562947184e+01  1.3404591952440392e+00  2.4428732660127022e+01  3.1998741829836215e+00  8.0440162804924575e-01  2.5460081000154826e+01  2.4121528710870948e+01  6.3066292882857198e+00  6.4905115111652893e+00  9.7946614018661005e-01  9.2909797879067257e-01  9.7803480116672592e-01  1.8943409338738171e+01  2.4994077447080322e+01  1.4597045288816075e+01  2.8288567049622916e+01  3.6419662821208654e+01  5.0383613476183136e+01  4.5586282362379565e-01  1.9656804323756067e+01  2.0644904393594096e+01  2.1695652917276462e+01  1.7549270120757199e+00  1.7588372251342146e+00  1.0692112751344336e+01  5.0576811004706688e+00  5.0536150494397232e+00  5.1359569487228454e+00  1.0556397068379169e+00  6.1315865260943330e+00  6.0080508226134093e+00  9.4242949169172157e+00  8.8575231628453270e+00  1.2012055759803774e+01  1.1862459344027648e+01  7.6292758833240981e+00  7.2549602078978408e+00  2.3010421351361593e-01  5.6888410249750905e+00  3.8499340493157028e+01  3.6634204481307130e+01  3.8883218600889826e+01  4.6440699689729934e+00  6.5408222133950134e-01  7.0496785222001908e+00  9.0904993796857401e+00  2.3996425396703538e-01  7.3691897719063419e+00  8.3939783075316932e+00  8.3105667518863040e+00  1.1590923884243320e+01  1.1695048995344436e+01  9.4618674647073728e+00  6.4056757758882843e-01  3.0288762793093067e+00  5.8963368350139991e+00  1.0248752380629927e+01  4.2187790911139489e+00  6.4895331769185152e+00  6.5589105592459376e+00  9.0617908493405475e-01  8.5854468516381877e-01  3.3014262248943854e-01  9.6389493588747985e+00  3.3180981051122140e+00  6.6315900839773612e+00  6.7065140376778336e+00  2.3503869637643287e+00  4.0369172574706546e+01  2.5694017775649913e-01  1.0506402334504864e+01  1.4634706621553415e+01  1.3323736045658328e+00  4.5860995755202161e-01  6.1443653109387242e+00  5.9869465863642004e+00  8.9440166798641147e+00  8.8072061188815205e+00  4.1885951915252049e+00  9.1408460554535385e+00  4.9594935870569152e+00  4.9596542645533148e+00  4.9921956960550000e+00  1.7980803387174087e+00  3.4231118519028008e+00  1.8493525625517357e+01  6.1823554509799683e+00  6.2693292836465249e+00  7.0608413895128210e+00  3.7439300913983828e+00  8.8474516816840314e+00  8.2566134206015125e+00  8.1049653116959455e+00  8.1953307874506311e+00  3.1188852471172304e+01  3.7304642339667318e+01  3.4579981107510882e+01  1.5645823606834031e+00  2.8200838283365409e-01  8.6143721383370302e+00  3.0273076811834705e+00  2.9611301061894939e+00  2.3715128115930080e+00  8.4075270270481859e+00  6.6660556381540692e-01  6.3417554222963379e-01  8.7210597017722824e-01  8.7040224813166656e-01  1.2195761259441532e+01  9.4882341895812576e+00  1.3195597284643146e-01  1.3493163702721550e-01  8.4206353902561593e-01  2.4761580139250046e+00  7.3081532565888963e-01  2.1335238850427523e+00  7.8206633348473167e+00  9.8914410611724772e+00  8.0659326608542585e+00  4.4693643492578712e+00  7.9334326305522760e+00  4.0892045240054074e+01  4.0859924882450912e+01  7.7496138144281701e-01  8.0035924600914843e-01  8.2311772111648125e+00  1.4390380096078015e+00  7.7317307857596491e+00  4.0853588557216412e+01  9.0608264484151952e+00  8.4604509076968426e-01  8.3633033837828497e-01  4.0046164766527692e+00  8.0130705932144619e-01  1.2989763865739931e+01  1.7078457342153747e+01  1.7897167331659972e+01  2.6757274237385641e+01  1.0971207448170611e+01  7.1048726770323807e+00  3.5636083927383383e-01  8.7885443625783566e-01  1.1397665725074253e+01  4.7914131635971566e+00  3.1623456339115448e+00  7.5754565367005284e+00  1.4191350035155377e+00  7.6600774740746989e+00  4.9523692264480497e+00  4.8421909796986862e+00  5.0184275520176813e+00  7.6087458491714219e+00  4.7653773069296061e+00  1.2813903389409953e+00  9.6753390199315614e+00  7.5631548920629497e+00  1.3834814401907287e+00  5.2975427961794111e+01  7.4178001407632932e+00  7.3363602600768667e+00  8.4117929467176999e+00  8.5084165277735977e+00  8.8489283152250380e+00  6.5313016966175450e+00  6.5292609972176203e+00  6.7677933596001685e+00  1.7475469418210725e+00  1.3680434950905647e+00  3.1453171741712771e-01  7.6249523514237936e+00  7.5941571166692023e+00  8.3612287204435498e-01  7.5719931638585196e+00  1.1831868106029237e+01  1.2062230886839485e+01  1.2618918700917371e+01  1.0969166353522883e+01  1.3204509624010752e+01  4.3817240213365460e+00  7.6691126467251562e+00  7.0723009417426919e-01  1.3654379651455537e+01  1.1082730169370677e+01  8.7213107406459969e+00  8.6643899195745711e+00  4.1564717790319037e+00  4.1225566499145820e+00  7.8441424445505037e+00  7.9139136680071669e+00  4.1613144697901285e+00  6.3104879963983791e+00  6.5411780522250300e+00  2.7492730923162871e+00  7.8090757772816328e+00  7.7203799334031036e+00  1.1642890322595840e+00  7.9737231317187085e+00  1.1594524717639164e+01  1.2356133944598469e+01  5.1334027722989273e+00  5.1795030875473334e+00  9.0845404986588152e-01  8.5758887733800238e-01  7.8318175372463683e+00  7.9174093404389758e+00  7.7024308778612918e+00  4.0232016252583647e-01  7.9619194361690715e+00  2.6902012588647439e+00  1.0296769813780257e+01  3.2880218837479191e-01  3.5194520538590385e-01  7.7959723901388891e+00  1.0549916933697643e+01  7.5142581840807132e+00  5.7378717523629614e+00  4.3895675043868629e+01  2.9841761615353182e+00  8.9942157082012475e+00  3.9973588896712614e-01  3.9832922367867341e-01  1.5266295567118437e+01  8.6008130344961522e+00  6.1263158332813701e+00  6.5323693592619545e+00  6.9116600380518571e+00  7.2509684204345559e+00  2.1941131801181011e+00  2.1601533853764012e+00  1.0408073618545870e+01  1.0561041031711950e+01  6.0264164939663489e+00  4.4288653688336703e+00  1.0049035195371063e+00  6.4421407555780350e+00  2.9147651800950038e+00  2.9557587178739979e+00  1.5675663157776048e+01  4.3779715729851230e+00  2.5825973073345261e+00  3.7105817032072181e+01  3.5851773127655406e+01  9.9114255127198856e+00  9.7431273990190697e+00  1.0217490187366732e+01  2.7075682496441718e+00  2.7514399258711073e+00  2.8126258381775817e+00  8.6317893380003845e+00  2.7561041076606308e+01  2.8784649400298335e+01  2.9113081699143248e+00  2.9160892179211735e+00  6.7138462973562891e+00  1.5186156341918581e+01  1.5391774395584507e+01  1.5787787422867609e+01  2.6206533540825423e+00  1.1125125765419940e+01  1.1098238890329334e+01  1.1041857396912580e+01  3.9757768634943287e+00  3.5988347472960680e-01  3.7031613706990436e+00  3.6897890018252242e+00  4.6660562264254315e+00  4.7387909243016111e+00  5.6216529016664794e+00  5.3664227326580793e-01  1.0750047085041956e+00  1.8807849130475542e+01  1.8928149033483386e+01  7.0352733121134978e+00  9.3282534361138651e+00  3.0773632949552527e+00  6.3091328766130443e+00  1.3452340696392708e+00  3.1908287033967637e+00  6.5930798716563874e+00  6.6087042803272711e+00  3.1596579145871004e+00  4.7354895864178109e-01  1.4657773059525280e+01  1.6350313758105411e+01  1.7496902307139468e+01  2.0421899873127756e+00  1.2042801140283741e+01  3.2308293043378873e+00  8.3775250752509434e-01  8.4705427508248221e-01  7.1022928969324362e-01  4.6495191029747822e+00  3.1300636122183128e+00  4.7408857598437013e+00  4.7824086243148596e+00  1.0528670748847610e+01  2.8733037505771759e+00  2.8572835309991813e+00  2.3896443866856423e+00  5.9220078478493843e-01  3.2768989116971086e+00  3.3870544053171887e+00  3.3151202174908527e+00  3.3522282167220339e+00  2.7528661863402126e+00  4.7423685975716285e+00  1.0427758077962368e+00  6.4983939866273621e-01  3.1644092740384857e+00  3.9293667237605447e+00  1.1039295192499011e+01  5.9327592066245876e+00  5.7678639359580979e+00  5.7546717829693552e+00  2.2106513079151826e+00  1.1715354193468245e+01  2.5889017354335868e+00  9.8160283864126874e-01  2.5483850157300507e+00  9.9406646623942443e+00  2.4260599867353001e+00  2.5079482271229816e+00  1.0092364836167442e+00  2.4658107468570138e+00  2.2567699467482271e+01  9.7908830834728100e-01  7.7273492827680867e-01  9.6453686482857641e+00  9.8311323964757980e-01  1.1873150723945241e+00  3.5506385105591988e+01  3.6150278697562915e-01  3.7271276377332957e-01  1.0582722245142144e+00  1.2677893768786035e+01  1.2524410571791490e+01  2.7118796466644213e+00  8.3965562748976319e-01  4.5892746366796794e-01  4.7410518365166471e-01  1.1383694308408889e+00  9.0827025173950016e-01  3.0579593005562824e+00  2.6492620984441469e+01  3.2353965520636919e+01  3.1354823010517187e+01  2.4146584358371075e+00  2.2036654214799983e-01  2.1902576982522165e-01  3.2322626144881967e+00  1.1353445089989849e+00  1.7941300956443325e+01  9.5189059092043748e-01  8.8607232941056513e-01  1.1339416052044557e+00  2.1726795609724565e+00  2.1615387092692457e+00  3.1506833896490383e+00  1.3203079895450238e+00  1.8970084213139851e+00  8.3104467763840226e+00  2.4501017212520892e+00  2.4232486080853275e+00  3.1049047991585305e-01  3.6799970161160118e+00  5.0451173647795557e+01  6.4820469719494671e+00  2.4532869147456720e+00  2.9968957948285411e+01  1.0586963225385173e+00  1.2224571923001315e+00  2.1460184108624265e+00  2.2108746250717815e+01  2.3257393164921105e+01  2.7651814840764288e+00  1.0602918385007383e+01  2.4718544119963699e+00  9.7277659688049898e+00  2.5987938563678707e+01  8.9656061300897765e+00  3.0563709704861142e-01  2.9687634347342101e-01  6.0141569843100395e-01  4.3154881675266834e+00  2.3271152016039269e+00  9.1797376646391882e-01  1.2421276641589678e+00  1.2462045983691223e+00  1.1984415422181241e+01  1.3258923063003092e+01  1.3406212116326039e+01  7.1604864489053199e+01  6.1562772486305004e+00  6.1362918239241955e+00  6.2248806985004839e+00  1.0498703210180354e+01  6.0212023142251070e-01  1.8272014973064636e+00  7.1975954264459729e-01  2.0042398149995138e+00  2.5233385415559102e+00  1.3251973723517496e+00  1.8655923844613973e+01  1.8773889744575069e+01  9.0404279546485959e+00  2.2261678765584851e+00  2.2695754620651143e+00  2.2478185101335311e+00  3.8376641028044318e+01  1.8370337767494105e+00  2.2692579818479865e+00  1.7058698741410212e+00  1.2387384167599069e+00  1.5806924967810332e+00  2.0999546743246498e+00  2.1749491936003578e+00  1.9025561249997076e+00  1.9779338675446505e+00  1.2385439797078957e+01  1.1495081173147947e+01  5.6257543713300482e+00  5.6027356352957316e+00  7.8021225736569322e-01  3.1502238353970689e+00  2.3049358356569480e+00  2.1504235347864729e+00  3.0108859809879673e+00  1.0220206299419276e+01  2.9745295691744783e-01  2.9557069612667791e-01  4.1191361421016115e+00  4.0840504854888771e+00  7.9353262661153068e-01  1.8545558237242072e+00  2.5047859534251195e+01  2.5095233067870900e+01  1.6453984750612680e+00  1.7478130816202175e+00  1.0172886221052973e+01  1.9636083663791997e+00  1.8518207354185147e+01  7.5038880156708621e-01  7.3930703884863902e-01  6.4512256634308267e+00  1.4256316674775056e+00  1.1806176687720029e+00  4.9979842859908317e+00  5.0091475490045427e+00  2.1482560353595030e+01  2.0833607608384397e+00  6.3186848266798821e+00  6.2195374715124014e+00  4.8487589621499438e+01  5.1449833093158155e+01  1.1794801829877910e+01  1.1645367019559050e+01  2.1456525020802819e+00  1.3300815689965768e+00  1.4883057132402964e+00  6.9445890130500505e+00  1.6230000668208044e+00  3.9856038847091431e+00  1.5880692852545886e+00  1.1952834072799897e+01  1.2772720178822215e+01  1.5891681697723699e+00  1.6567547107143026e+00  1.5202007498648438e+00  2.4261310468396595e+00  1.5542870211503155e+00  1.7281947933669828e+00  2.0523081455103682e+00  1.9645208089010084e+00  1.8828514581866185e+00  1.0635607369265834e+01  4.2119645878008845e+00  1.8030931488970305e+00  6.4340763110435606e-01  6.4109190623273238e-01  5.4830666330844515e+00  1.9793819634719010e+00  3.8855836389749210e+00  3.3003043539626673e+00  4.3712746846409303e+01  4.5910855701148634e+01  3.6682217140535862e+01  2.6526475671238030e+00  1.2515681590861091e+01  1.2836018449714015e+01  1.9229293996572883e+00  1.8657946784930168e+00  9.7496782454224178e+00  9.8590754188458192e+00  1.8138662040048212e+00  1.0263703953357794e+01  8.3792040701491954e-01  1.7642520458451665e+00  7.9348602100373569e+00  8.1209291799119399e+00  1.9423292842264028e+00  4.2749866975168018e+00  1.1871336777787166e+01  2.5996440221438526e+00  2.7310638918451855e+00  2.8219987154787801e-01  4.7863854173481410e+00  4.8015036468225576e+00  4.9698317305140748e+01  1.1876495444432329e+01  4.6686942539569953e+00  4.8445004151844469e+00  1.1921622251189007e+01  3.6295888945838115e+01  2.4587745641750396e+00  2.1082820193555198e+00  2.1362347610186689e+00  2.9763487301722813e-01  3.0180508382374632e-01  5.4185648034088041e-01  5.6715486978454621e-01  1.4864957365319813e+00  2.1544651232302372e+00  4.4887017343805624e+00  5.1511312939791916e+00  5.0013891033620377e+00  5.1395338260614833e+00  4.2077591746107984e-01  5.0304711716317108e-01  4.5078984187380042e+00  4.5209490147600038e+00  1.5658150587555241e+01  6.0931833705171572e+00  9.8796647499320578e+00  7.3326466277365805e+00  5.8914415735813535e+00  5.7846252127707318e+00  5.7832103224964406e+00  3.9433318924910499e-01  3.8636866589257551e-01  2.6273145753160161e+01  2.9770060515595169e+00  9.2455783379141443e-01  2.2075196419314844e+00  2.7762573061819222e+00  2.8928926219164004e+00  4.7266287779697453e+00  7.8292253961145448e+00  7.7522232890561522e+00  2.0257266534446998e+00  5.1059407630639280e+00  5.1133339675120038e+00  5.0525261696804398e+00  2.3967645268076048e+00  7.5775481395386235e+00  1.2852373827091794e+01  1.3054046534471910e+01  1.1124360460432605e+00  4.6805158714793169e+00  4.6305710957015176e+00  1.9820035971021810e+00  2.2901073651586907e+00  2.3460164945960211e+00  2.2338469140828696e-01  4.0298964678521010e-01  2.5064373897661891e+00  1.1576584342678922e+00  1.2087581537278889e+00  3.6613497176366145e+00  1.3499817333474278e+01  9.4849357308512658e+00  9.5816842027320117e+00  6.4336449793766182e+00  6.6040413279990497e+00  2.8376786330857318e-01  2.9376195713262476e-01  2.8217342281260721e-01  4.6522776281254377e+00  4.5817959161469464e+00  4.6470608579524839e+00  4.1801468556526347e+00  1.1054317608529229e+00  1.1144200839321856e+00  1.1338241425220812e+00  4.4567619912705290e+00  4.4944943494739800e+00  2.7893165806301440e+01  6.0977149839497216e+00  2.2026991818609361e+00  9.3482966340743801e-01  2.3870999330162106e+00  3.3254168048888557e+00  3.2804212226280260e-01  3.4327419592023412e-01  8.1339516287778779e-01  3.3386003062780084e+01  9.8220698469014167e-01  9.7902188335854667e-01  2.2907459543355632e+01  5.4919034477380798e+01  5.3894825634110859e+01  3.7244578124758604e-01  1.6859764428787258e+01  1.6956469859614074e+01  1.6264414884577352e+01  2.9822322761624953e-01  3.6749509333640507e-01  5.7093548529268796e+00  5.7419456995935798e+00  7.3643464080581833e-01  6.2220303236588137e-01  3.7405112261321710e-01  9.7347574811925579e+00  9.3310740103298393e+00  9.6825387310328797e+00  2.4420828599952018e+00  2.3972453450937139e+00  1.0995977151148209e+01  1.0711850089954218e+01  7.0114685333095554e+00  7.1468621362959865e+00  7.2579509051518931e+00  3.4669936140562655e+01  3.2759517331672896e+01  3.3602472052779970e+00  6.3272717373628062e+01  6.1471888878514477e+01  9.1539100829026445e+00  9.2034407433188772e+00  3.6206127189736914e-01  3.5249613235858862e-01  4.7450902114910134e+00  4.8478752263789948e+00  2.4764238073389184e+00  4.5233633270206468e+00  4.4809758687085308e+00  4.5667589770169590e+00  4.5558342280822890e+00  5.0496016824030754e+00  4.9195582645220419e+00  2.6095268330224579e+00  7.2092363595272772e+01  3.6005992040260826e+00  7.2527019043589636e-01  8.5194111392712057e-01  8.6503604032288883e-01  8.2679952643824428e-01  3.4666407255388170e+00  3.4989082850057915e+00  3.4454260728527091e+00  3.4618104130110141e+00  4.3892733247635265e+00  4.9569153337642613e-01  2.7161522443701699e+01  3.6049462629140154e+00  3.6139691729959869e+00  3.6215117148524705e+00  1.0694837865394785e+01  1.0466848673148352e+01  9.9519830488307690e+00  9.8035553226867762e+00  1.0888502989885211e+01  1.0623273790919718e+00  6.7446239309683875e-01  6.4354299767939749e-01  2.2198848977190400e+00  7.3601495715756684e+00  7.3244176686533766e+00  7.4080797569107864e+00  5.0520989658810045e+00  2.0690719040784973e+01  2.1908543657371617e+01  2.0887300734113524e+01  7.2490589692995631e+00  7.1052954239398955e+00  3.6092549140164456e+00  2.6783069095656309e+00  2.7239677904239823e+00  9.5329055371878013e-01  9.5250627719038805e-01  2.9228418639852354e+00  3.5196659947701936e+00  4.7585093901574680e+01  9.7508262703977184e+00  2.6403267961651995e+01  2.4954937743757771e+01  1.6973203381392072e+01  1.8183042189259901e+01  1.7340460849053589e+01  9.6809423129087264e+00  9.4672053195919705e+00  1.1240693665182063e+01  1.1578736380314982e+01  3.7654951462917768e-01  3.6212219769094872e-01  8.8557004713488077e+00  1.4639991136948311e+01  1.5169078203400286e+01  4.3429876507518657e+00  4.2728311408832793e+00  4.3368267636344751e+00  1.4652500036660220e+01  2.8114203242690639e-01  2.6802278091533477e-01  7.0858218920423832e-01  1.7983210046395308e+00  1.8110430856400148e+00  9.7401262510255453e+00  9.8724121894022101e+00  5.4989567595580100e+00  5.3675973368418992e+00  1.0147643635885762e+01  9.9079814563435029e+00  4.4077731127287928e-01  4.5975536058525424e-01  8.7009079589342182e+00  8.5355573103146067e+00  4.3156263607044183e+00  4.5203638857248052e+00  7.0894512489135790e+00  7.1660268496632851e+00  2.9551128355295514e+01  2.7980843367681736e+01  1.9527157494879723e+00  2.7350986812695749e-01  2.7240341756816294e-01  5.4087256706934084e-01  3.2170487907390997e+00  9.6417207911922738e+00  9.7048731464600966e+00  1.3471559834870723e+01  2.9468937015240160e-01  2.9479569641131542e-01  1.3926951110520536e+00  1.4468790392861692e+00  6.0288327465170441e+00  5.8075327125002687e+00  3.2655861366742256e+00  1.4570624416208675e+01  3.5975344811080836e+00  3.7739461580574135e-01  3.6123216189208218e-01  3.6373041436887554e+01  8.2198276164925854e+00  8.0781146736145484e+00  5.7899221582507536e+00  1.0721192673101299e+01  9.0553529787216611e+00  8.8744446925085541e+00  3.2168389119663825e+00  1.2660850461529065e+00  1.2824248363698272e+00  5.0955375690187985e+00  5.1229479935485649e+01  4.9783970129365656e+01  9.8986762984783905e+00  9.9206937408563611e+00  1.6851781322658663e+00  1.6689843215256726e+00  3.5066097466772955e-01  3.1057874772874999e-01  2.9582007676348809e-01  2.5309228230963782e+01  8.7079881112622426e-01  5.8708828237774178e+00  5.6215055585021831e+00  7.5542417460887270e+00  7.4369925385474103e+00  1.2958418816502414e+01  1.2896330713180456e+01  2.4377172188958651e+00  1.6267675647569689e+01  1.5695771399843174e+01  1.5235350170073888e+01  4.7282040118709014e+00  8.6193546305278783e+00  8.4559858406979966e+00  4.2647351381425604e+00  1.4337026425133479e+00  1.4160910422883304e+00  4.9968036385161768e-01  5.5871576918061749e-01  7.4550766645362208e+00  7.3150661602750082e+00  3.5959273795542884e-01  4.3917501949400844e+01  4.7143449707696661e+01  3.0096080838391570e-01  1.2562663465266253e+00  3.4198721470154707e+00  6.9382837870424086e-01  7.2717887833648742e-01  5.3593969110110595e-01  5.1889551614239104e-01  9.6880179760197898e+00  1.3694388789066704e+01  3.0756164021608468e-01  3.1572423283118639e-01  7.5202679752569257e-01  2.0100457243385009e-01  1.8974451114042903e-01  7.0050008576550493e-01  4.7340205661671400e+00  4.7498184531345862e+00  7.7573405785210370e-01  1.2387581573962783e+00  1.2252236661478768e+00  1.6160644404487372e+00  3.9337229171381440e+00  3.9206928131804117e+00  3.7978476524386782e+00  4.3078849781595281e+00  5.6488956257634770e+00  1.3781424862581089e+00  1.3602049063664448e+00  8.0135058216979420e+00  7.6797238990062420e+00  7.8502662125543310e+00  7.0128144269414703e+00  6.9151185824646149e+00  3.0116794953495668e-01  3.0042242947509962e-01  7.8037080774107679e+00  7.6765710729300611e+00  1.7287100720940041e+00  2.2929816679806172e+00  1.0638855149580273e+01  1.0581774565439938e+01  4.3880746019833001e+00  4.3581931711410302e+00  1.2725465309816502e+00  3.1656767312078003e+01  1.9771902775102586e+01  1.9770309022787842e+01  7.1484209196418709e+00  7.0328067005936550e+00  6.7466880969011225e+00  6.6564362687915892e+00  2.8757709348148133e+00  2.8371816793354756e+00  1.6674624891973847e-01  1.5939849097209180e-01  5.5375109106689491e-01  5.4545018931182498e-01  3.8155687388253314e+00  3.9064085961871395e+00  6.6987667840556080e+00  6.3533107408619820e+00  6.4262583823231395e+01  1.3554881423989222e+00  1.3391721263405389e+00  1.2436800988807988e+01  1.2116056335883913e+01  5.2673206898501199e+01  5.6592516747046439e+01  7.2194317345986763e+00  7.1147006014333414e+00  2.4463286834952966e+00  4.5102841402154343e+00  4.5273076288845040e+00  4.5418099395223495e+00  6.5239994481857995e+00  6.4603665706361602e+00  2.7587846761722252e+00  1.5730564627773122e+01  1.7697822591583726e+01  1.7015723341170393e+01  7.4933969582242730e+00  7.5525511224864177e+00  6.0774674175136145e-01  4.4145155379341343e+00  4.4546865502406963e+00  4.4155002929206084e+00  8.7789411920198501e-01  6.4898694370940344e+00  6.4073972948342579e+00  3.4786574777056973e+00  1.0431759327798055e+01  1.0909039930004457e+01  6.1524253336723440e+00  6.1642234758916556e+00  4.5334239733957844e+00  5.0312848775275775e+01  5.2816800784220369e+01  4.9498794251317193e+01  1.0265598220397267e+00  9.8694844910759860e-01  1.7165308813486779e-01  1.7358642771437371e-01  2.3126490954888284e+00  2.1463651190957087e+00  2.1649984114776251e+00  6.0949965519753597e+00  6.0359959742874620e+00  9.3853117093868637e+00  6.1041916660818698e+00  6.0292538038707582e+00  5.3775424566044503e+00  5.5718105812543346e+00  6.3937615145490296e+00  2.3321596625339778e+00  2.3050115064889911e+00  1.8297355079016975e-01  1.7829953066382595e-01  5.5533606399497458e+01  5.7978105338874911e+01  2.6360693825166632e+00  1.2247932042309825e+01  3.0926226729315758e+00  3.1171008913283669e+00  2.3724857431979203e+00  2.3906515367005832e+00  6.8563350269505818e+00  6.7496589375305120e+00  9.8457319667741994e-01  9.9766550513086782e-01  4.5299512720787742e+00  4.4921530107606609e+00  3.3037529284311331e+00  3.2382565448684302e+00  8.8862453812128950e-01  5.7494355169263693e+00  5.8973048116815141e+00  6.3026128368276009e+00  4.0475031153666121e+00  3.8918327263912640e+00  3.9642616069643899e+00  4.9384499958346320e+00  5.1072896144418749e+00  3.2121558733684619e-01  2.7501276777691547e-01  1.1679773422061965e+01  1.2052682077827889e+01  1.1725953920030539e+01  7.2664164536649345e+00  7.1811792789034108e+00  5.1751518339216842e+00  5.3176326509268987e+00  5.1779251667643988e+00  5.0218323981283337e+00  4.2361102492961666e-01  9.6921296152300829e-01  5.9047336163876958e+00  5.8354550771289331e+00  3.3113337901885811e+00  3.2643598474533264e+00  3.1601626146904076e+00  4.3272629891496317e+00  4.3143860069447300e+00  4.2964738090137367e+00  6.2598542430114010e+00  6.1808980752294653e+00  7.6843708805119515e-01  7.4337439120354587e-01  2.6522788495100291e-01  1.2268375351175930e+01  1.2696223415683390e+01  1.2500855464390861e+01  1.3331440502522240e+01  1.3111359164467375e+01  5.0451607396637921e-01  2.2387219733045072e-01  2.3941253547767438e-01  8.2861921438109380e+00  8.1297480794149148e+00  1.2303381516688747e+01  1.1956847763777736e+01  1.0156953845897858e+01  2.5115494426765633e+01  2.5234627819362561e+01  2.4588512016710045e+01  4.3875027135032099e+00  4.3484223434674263e+00  2.4021741013956057e+00  2.4223422887176089e+00  3.0184782582681700e+00  3.0708699821937473e+00  5.5407357230054952e+00  5.7196683080093438e+00  5.6537455384040500e+00  1.0481384942525649e+01  1.0176081916316152e+01  5.2465118452882793e+00  2.0290727800708594e-01  2.1197563614964901e-01  5.3411667317147113e+00  8.2475805246956817e+00  8.1785671802266009e+00  5.4372732800864094e+00  1.1714577251672543e+01  1.1278714219952024e+01  1.1115619819408193e+01  1.0128379648494752e+01  1.0020752949910246e+01  4.6066654578045796e+00  4.5681533670944283e+00  7.7970866242308503e+00  7.8361222771799968e+00  1.0832559328941171e+00  4.0700979135160926e+00  4.0401909724356857e+00  7.8764716992792740e+00  2.6051753158942335e+00  1.1562389291558384e+00  5.1113010920079809e+00  2.6850015093875994e+00  3.1979692697666939e-01  9.5699949713244248e+00  9.9803934372510632e+00  4.3875331898852323e+00  4.3765267934171330e+00  4.3589551047326562e+00  4.1206641312143653e+00  4.0823441960081039e+00  5.8789181016331893e-01  6.1097493763476374e-01  5.5387275985049982e+00  5.4774455521528589e+00  1.3508594733888477e+00  1.3725697555986380e+00  3.3361219977191736e-01  3.3985062478627326e-01  1.1872245839061678e+01  1.2138662803941324e+01  1.1822283655064583e+01  3.1507092020531902e-01  3.2021004259754676e-01  3.1683794769667839e-01  3.2445744589512600e+01  1.1496520400002886e+01  1.1047987721675090e+01  9.2046899896763588e+00  9.1961937888497598e+00  5.9462442862641041e+00  6.8000324579393139e+00  6.7527842330495345e+00  3.9735555314730377e+00  3.9445128684806661e+00  1.2422115302054622e+00  1.0091350419285604e+01  5.2843318933603340e+00  5.1267742632849060e+00  9.9180299055589334e+00  9.7799521530026308e+00  3.7346073197390890e+00  4.0253778108261420e+00  4.1989866857170890e+00  1.5538608555721538e+01  3.0269184045021530e-01  3.3041937069543253e-01  7.2388443054597618e+00  9.4739560252565393e+00  9.6193199901403208e+00  1.3594384382942137e+00  1.3386916048649398e+00  2.2645441343162411e+00  2.2679254616649867e+00  4.3589772977275913e+00  4.0124174827572956e+00  3.9736936563257688e+00  4.1320252763819862e+00  4.1003491117090887e+00  1.5124540581105381e+00  1.4941167325660258e+00  1.5262784979136168e+00  4.1944631394484313e+00  4.1630687908576833e+00  6.5224457225921357e+00  6.4147537181808589e+00  6.4094797801489758e+00  1.2509523254383987e+00  1.2479663648664918e+00  8.4945580410168287e+00  8.8057081061581091e+00  1.3093739585775237e+00  1.3054173798478175e+00  5.1252902224238968e+00  5.0676848109600323e+00  4.5982816590158948e-01  4.9174557696315763e-01  3.2531454874625026e-01  1.3648219322015875e+01  1.3814508688047598e+01  1.3638155114817346e+01  4.1983910469971368e+00  4.1596907343494314e+00  3.8172130698846245e+00  3.7858012406523369e+00  1.6694552069765403e+00  4.2763879942229108e+00  4.2375620371750484e+00  3.5718483082507702e-01  3.7710839221179898e-01  1.4024300596466375e+01  1.5020803690024040e+01  1.4487492216869473e+01  6.8255367138124801e-01  6.6139246084418657e-01  8.1877522859846208e-01  9.5954289791043956e-01  3.2108425006412711e-01  3.1251195655895198e-01  6.5597989689958813e-01  4.9750622057116978e-01  4.6132527098745124e-01  4.6584893952216805e-01  5.9136780613778967e+01  1.1503029107774930e+01  1.0888796500155372e+01  1.0140617683157084e+01  9.9240826986050390e+00  1.3396844430788487e+01  5.9427289385421984e+00  6.3666075078953754e-01  6.3593413635771467e-01  5.6410602254027620e-01  5.9291612006995997e-01  3.4519149714028741e-01  3.4434913750059681e-01  4.4293248679634006e-01  4.6013832263207893e-01  3.8261610410685054e+00  3.8050717632088880e+00  3.7886449779288816e+00  5.9276659435869066e+00  5.8367413082472162e+00  4.8224605981174422e+00  7.2959929580633061e+00  2.2678695930005591e-01  2.3577425009849801e-01  3.0404756868285006e+00  2.9967086985545497e+00  4.8080096050121185e+01  4.9727166414235725e+01  6.1179481363952979e+00  2.7566890351698725e+00  4.9224429910642593e+00  4.8591661808234923e+00  9.3047583524722477e-01  2.8931235856120285e-01  2.4325553101397568e+00  2.4620116691984748e+00  5.2491779941577539e+00  5.1863797616388032e+00  6.6468362916419395e+00  6.5475732819954988e+00  5.3770781076307905e+00  5.3122781292028458e+00  6.7369321794718582e+00  1.3529296172927701e+01  1.3629098837942902e+01  1.3716628216297760e+01  3.5985247355384580e+00  1.7571504074012627e+00  1.7650356041000750e+00  1.6210010910464177e+01  3.7181964931400344e+00  3.6808255779229149e+00  3.8812690368485949e+00  3.8486912691943744e+00  6.5898855744168552e+00  2.5162457966879255e+00  2.4865339367172741e+00  2.0824976589906900e+01  2.1028389655225833e+01  1.3598870196453166e+01  1.3781640471533779e+01  1.3788644870476061e+01  6.8919630601021176e-01  7.1029881284722951e-01  9.6909889052482363e+00  9.9200826007825871e+00  4.3100970338683195e+00  4.3613674150622206e+00  6.3733414786755072e+00  6.2452258698586762e+00  6.2495017965312458e+00  3.9033983291239687e+00  3.8644855645191032e+00  2.9280946536343770e+00  3.0307146808080745e+00  2.8838411050940027e+00  4.7700362919640531e+00  4.7060356651470832e+00  7.2221088167749361e+00  1.9682650164355017e+01  1.8690553304820757e+01  3.9564297342242166e-01  4.0852008924475114e-01  5.4467008866295963e+00  5.4322739425728894e+00  9.3160336082655260e+00  8.9526766827411368e+00  4.3364701816287496e+00  4.2925797867360354e+00  4.3208378394206415e+00  2.4507336095094037e-01  2.3735186787182541e-01  1.0871463862272204e+01  1.0524193424364842e+01  5.5588219486051550e+01  6.2967543401079658e+00  6.3179832321277507e+00  1.4037866077830607e+01  4.0790751726285110e+00  4.0153862180473876e+00  3.5328388951820582e+00  3.4953627986364246e+00  7.6500381071351986e-01  7.8258377156479497e-01  6.2537335746505096e-01  7.1141813223248485e-01  6.3676246935715524e+00  6.3247150274932222e+00  6.3899188282180424e+00  2.6187896041163366e+01  2.6286647332416613e-01  2.5367307005741968e-01  2.1515915610504899e+00  7.5965634312681152e+00  7.6432576094039257e+00  7.6940779486429074e+00  1.4158615854929145e+01  4.6197628076207904e+00  4.5570153267507996e+00  9.9947378042247226e-01  1.0323099949831027e+00  8.2975784067109215e-01  8.2121488281228217e-01  3.8413368377856022e-01  3.8165143111955230e-01  1.2760417878533360e+01  1.2400391521800842e+01  1.2671748045492073e+01  2.6006414681203729e+01  2.6910919878805245e+01  2.7187900668260617e+01  2.7679484551618991e+01  6.7416297241093854e+00  6.4285058924681442e+00  6.5658149632508263e+00  9.4782304968879316e+00  9.7720286637403415e+00  4.5837186979201618e+00  4.5400715283256501e+00  6.0082180981192748e+00  6.2853905519835358e+00  3.3475688766468306e+00  3.3341074474234675e+00  8.3814473561715075e-01  8.5174821885943741e-01  4.3205082774747297e+00  1.1761936250024958e+00  1.2158515698715131e+00  8.1838471245017397e-01  8.1701672375805834e-01  8.2761269558977402e-01  2.9248123790982373e+01  3.2356670607815974e+00  3.1982935246657198e+00  4.9276192118174766e-01  4.9691359578117300e-01  8.5586697762330797e+00  8.3915930801235188e+00  1.2384627683709963e+00  4.4021151549626980e+00  4.2867447352237358e+00  3.6091465156294427e+00  3.5708651907566558e+00  5.7881463004186617e+00  5.7616714727802725e+00  1.0688981485481513e+01  1.0434256586038664e+01  1.0431373643118580e+01  2.5354596688345204e+01  6.2954594658547274e+00  6.2028508324302294e+00  6.1914262483679217e+00  4.3145683417075418e+00  4.2508987390242465e+00  3.5043473644648195e+01  3.9178539421507843e+01  9.6507615074271680e+00  2.2816156007928856e+00  2.2772156888145134e+00  8.1288933447478007e-01  8.0813377264013941e-01  2.1973867627644634e+00  2.1846777613076767e+00  3.2729907273415608e+00  3.2447442119738850e+00  6.1568703989933207e+00  6.0286005224106587e+00  1.1144517208150983e+01  1.0802610581617714e+01  1.6150674820471800e+00  1.6602065686008536e+00  1.1839529213871867e+01  1.2041369242804606e+01  6.4516292093778667e+00  6.4114218042995113e+00  6.4798719953371178e+00  5.9091215268731618e+00  5.7966151579342515e+00  1.8818619756445907e+00  3.9977495103317667e-01  4.2404137893921034e-01  5.6755135204745377e-01  3.3495697666765363e+00  3.2737137703398949e+00  3.0542926245943756e+00  3.0201907668146211e+00  6.9434007480163995e-01  7.1388415366827240e-01  3.1391239004522551e+00  2.9735565120380509e+00  4.5076005617849368e+01  4.5551727100802175e+01  5.6766985507747005e+00  5.5701399346180080e+00  5.5640420584626273e+00  2.4360681409193545e+00  2.4137711088362552e+00  1.0667268973366191e+01  4.3337808921695007e+01  5.4625641268689105e+00  5.3616803170926284e+00  5.3556751457074085e+00  6.0464514596887309e-01  6.2398507413823479e-01  6.3180018906778546e-01  4.6122395969171073e+01  6.1053284190898935e+00  6.0670238795128668e+00  9.4772790571442622e-01  9.6453757827905284e-01  1.8413779013612899e+01  7.7776733891823202e+00  1.9069354954928200e-01  3.4555775374979419e-01  5.7508559678676532e+00  5.6672495083135104e+00  3.3109018677348181e+00  3.2741301201732811e+00  5.2453739120582670e+00  5.1466269863149732e+00  3.3888769818127900e+00  3.3491931130262422e+00  4.1360965650095176e+00  4.0691501162144235e+00  1.1104586560941609e+01  7.1432918469474360e-01  6.1804178832542220e+00  6.0313170935529321e+00  4.9065231890343591e-01  4.9034692107925720e-01  4.4459466541399069e+00  4.3795896816815896e+00  2.3383062750222603e+01  8.8584098370491438e-01  9.0763594104621714e-01  2.9424809608950113e+00  2.9085723814082458e+00  1.1383127218209936e+00  1.0246499707491656e+00  1.0420167709216372e+00  1.0552337991182792e+01  2.9971194234864913e+00  3.9843241611024864e+00  3.9714289587348488e+00  2.5442091000903955e-01  7.8073481223466423e-01  7.8975496497879671e-01  1.7200905435137415e+01  9.7675184947824150e+00  9.9958212276263367e+00  9.9562471979134504e+00  2.6309793463302992e+01  2.4973270985584701e+01  3.1259645830178511e+00  3.0899373050876062e+00  4.9469525177705442e+01  5.3207146789446078e+00  5.2458323422419122e+00  5.2348740387754908e+00  2.4412806325756424e+00  4.3524190747488554e+00  4.4019598565614375e+00  2.9774811028024550e+00  3.1251996004495988e+00  3.8108278270517477e+00  3.7447226329368242e+00  6.3820838028496329e-01  6.5909864190137735e-01  1.3574744660841320e+01  4.3837303715921405e-01  2.0533678663947978e+00  3.0562769812399793e-01  3.0467110543917736e-01  3.0082393612428743e-01  9.6126427317577843e+00  4.0598936873731564e+00  4.1709564412896842e+00  7.2376374208317706e-01  7.2538051499457268e-01  8.6816413503959922e-01  7.1128394072449028e+00  7.4635102223649987e+00  4.8029196434521850e+00  6.6271888458484995e-01  2.8357540031577999e+00  2.7998036388464276e+00  3.2715683760179441e+00  3.2812949092469519e+00  3.2555455343245607e+00  3.2219551916823792e+00  3.2668515600966406e+00  1.1022180828429433e+00  1.1209765568195929e+00  2.1885998034608969e+00  1.0275095006863315e+00  1.0720664895672818e+00  4.7121492699284087e+00  4.5693754424882584e+00  9.2722622769237939e-01  9.3943135981725601e-01  1.9235607100682361e+00  8.9862350412004126e+00  9.8337542108042673e+00  9.8710570141477270e+00  2.9511772876647191e+00  8.8275321462235168e-01  8.7467770862372374e-01  2.6757302378941281e+00  2.6487627624380163e+00  2.0469820460820035e+01  1.1531286757828214e+01  1.1523482354516734e+01  1.1059924076221218e+01  7.3456992294628929e+00  6.9290036181408041e+00  7.0755960480909179e+00  5.8537175936193209e-01  5.7784774847749065e-01  1.3924946923161523e+00  1.3773057429402393e+00  1.3597464337057172e+00  1.3350052078981878e+00  1.3289019590908071e+00  3.5128326900951001e+00  3.4502484244869112e+00  1.1287098993147129e+01  1.0995598721331422e+01  2.6567281894945545e+00  2.6226033736191856e+00  3.9473342592434260e+00  3.8781688446871621e+00  9.6353162409679332e+00  1.0081791963077880e+01  7.6966068160430179e-01  7.7320663764888842e-01  1.4963480941146944e+01  9.3542860177870288e+00  1.2936393324117808e+00  1.3116013923456442e+00  3.4238125377883333e+00  3.3520982766761933e+00  1.1532519171332387e+01  1.0991684575750348e+01  1.0941556635717623e+01  2.9064820911353873e+01  3.1675642663158019e+01  3.7849639430113697e+00  4.1286837319049861e+00  6.8144112002406487e+00  2.4621821430845428e+00  9.9605641365405440e+00  9.8644939015904907e+00  6.1341295621454364e+01  5.8870368185863995e+01  1.8001294043859703e-01  8.9771306293802180e+00  7.9639648504729221e-01  8.3300702768226675e-01  8.7388720558383888e+00  8.9076167693265589e+00  8.5254910772996269e+00  3.4533689306723545e+00  3.3406152728885874e+00  2.4966850700369388e+01  2.2331910032831046e+00  2.2041279653330514e+00  1.1787719014256870e+00  1.2149423568262918e+00  1.7888068421530971e+01  1.7384404176224471e+01  1.2169346592089727e+00  1.2312232582804545e+00  3.7421403097797700e+01  3.8504743730321721e+01  5.1747336546852480e+00  5.1012058884461586e+00  7.2585911777414236e-01  1.5461474006740850e+00  1.1441920367250988e+01  1.1705023727005264e+01  1.0678921683027436e+01  1.0591593229186298e+01  8.4492958766261346e+00  4.6850069976661551e+01  3.8848983314560825e-01  3.9042872012466617e-01  9.2210316633876168e+00  9.3451636162755296e+00  9.6167333002923581e+00  1.2886212167865729e+00  1.2923973993496687e+00  1.3082672775365269e+00  2.9478322515225868e+00  2.8999992682504541e+00  1.7294530398768888e+01  1.6937901101289089e+01  1.7761851466028720e+01  1.0151554016612357e+01  9.9820178564080067e+00  9.9563026231316858e+00  1.2159370428232388e+00  1.2358344652847164e+00  3.6450513408116012e+00  3.5783681017011313e+00  1.3476180289274413e+00  4.7852869586028551e-01  9.1549326667673938e+00  9.4433060433806393e+00  1.4114498380766408e+01  1.4613642328924978e+01  4.6390883021237492e+00  2.7261424827359630e+00  2.6913206166087464e+00  5.0506385733556156e+00  4.9567267505033632e+00  8.7898327808301211e+00  9.2037354456836020e+00  1.3887008511928656e+00  1.4069502587727314e+00  1.2561110274796661e+00  1.2774748382981795e+00  3.6608402916235083e+00  3.7041835876384268e+00  3.6797784946294092e+00  4.9238799460241136e+00  4.8782316424555114e+00  7.6748720118741316e+00  7.6040802722794156e+00  7.0098447525247884e+00  6.9544508512718615e+00  2.1642247772038945e+00  2.1536467833210864e+00  1.0159295724801604e+01  9.9154519389105857e+00  1.0384934840403920e+01  1.1731369635438151e+01  1.1429396992799047e+01  4.1637292069547133e-01  4.0264276115559378e-01  9.2777517629371231e-01  9.4792169634046797e-01  3.4899641386116249e+00  3.5744771952323235e+00  5.8804496635464822e+00  5.7321407696200213e+00  8.0061598015082129e+00  1.6984062133935165e+00  1.7220042886595075e+00  1.4882743148790729e+00  1.5148656616419758e+00  1.5471845487235703e+00  3.1067183862702716e+01  1.8688719814478446e+01  1.1117016248864928e+01  1.1295940236587686e+01  4.2213403998083603e+00  4.0835565012194817e+00  3.1002587942293772e+01  9.8331497893154243e+00  9.7539425253996246e+00  3.9475304549579318e+00  3.8110398144985140e+00  3.3077558973621586e+00  3.3356326193323853e+00  3.6908457329833273e+00  3.5720008638902803e+00  8.4503913369127641e+00  8.7892579114043166e+00  6.3402414298959151e+00  6.6217351425044244e+00  6.5682977103919500e+00  3.2123121485144162e+00  3.1905565246385881e+00  3.1723160657502580e+00  5.8452445115375768e+00  6.1214945133909708e+00  1.5507025895429765e+00  1.5697181732581982e+00  5.4670546677408121e+00  5.4640975920212291e+00  4.4952442539302409e+00  6.6488640994850243e+01  6.9433183357061552e+01  1.0841034661217222e+01  1.0615922340562868e+01  1.6615755777798643e+01  1.6006029725918861e+01  4.3992410057489826e+00  4.3284416896817399e+00  1.9873887431642514e+00  2.0052587232024068e+00  3.4698735072338587e+00  7.1946750366087808e-01  7.3390105206212997e-01  1.2582458192207278e+01  2.2474013576135437e+01  2.4269429544945929e+01  4.6328960329856905e-01  7.4206760343290519e+00  1.1063840266211230e+01  1.7270403589569867e+00  1.7453361287339002e+00  4.9069338111013172e+00  7.3810168164975325e+00  1.1776236171289896e+00  8.4264929471052987e+00  3.1260013756159388e+00  3.2103031409666660e+00  1.1931705017642015e+01  1.2396343027410424e+01  2.2106722513488695e+00  2.1829265914561309e+00  3.9961072483062079e+00  3.9541258130150161e+00  2.0885130034214314e+00  9.9503071138720267e-01  1.6190271682154780e+00  1.6404663087678604e+00  1.6746819371965405e+00  2.4033343128374702e+00  2.4319475883185304e+00  2.8498339109005690e+00  2.8439945294805502e-01  2.7343433717988863e-01  2.0941964979994365e+00  2.1148995918247131e+00  1.2195665098037670e+01  2.4045822047024377e+00  4.3409984367053873e+00  4.1905717967766742e+00  4.0394985880032941e+00  3.8909429285275059e+00  4.9871985067339590e+00  2.6033018381479378e+00  4.6777256540988454e+01  3.7439074012997438e+00  3.6009130832457195e+00  1.9748019001252452e+01  1.3776167870126622e+01  8.4667537553381855e-01  2.4853698664686618e+01  2.6753339901048790e+01  9.7809387181687431e+00  1.6668590875742255e+00  1.6355766822291511e+00  8.6798553624921004e-01  9.0229651726165938e-01  9.0128587573764884e-01  2.2941496714194525e+00  2.2516335459404435e+00  4.5695431651933449e-01  1.1761652347295188e+02  1.4545410514819696e+02  5.5789370216770910e+00  5.4158053545405673e+00  3.4624973551137499e+00  3.3299359193976654e+00  6.8744178453103855e+00  5.1552351832773202e-01  5.5303799636973161e-01  1.0020154570292311e+01  1.2280065586565387e+00  1.2390248265282529e+00  1.2627873043726670e+00  8.6724612762457092e+00  2.2551919287075517e+00  2.2723590479127300e+00  1.3682425183787434e+01  1.3333791024963848e+01  1.3681057007352432e+01  8.7731473731407732e+00  8.5420817760172838e+00  1.6827706125361757e+00  1.6890073686615736e+00  1.7084880466331287e+00  2.2807715500268988e-01  1.0310092237386570e+00  1.0726544219477974e+00  1.0684924492264198e+00  1.1488210608552754e+01  2.2069832182189442e-01  7.1271746787715546e+00  7.3779593644458936e+00  1.7862784967983323e+01  1.8710977229435155e+01  1.4258791073288217e+00  1.4072816692157186e+00  1.2646944217867138e+00  1.2108690000122206e+00  1.0072329410077248e+01  9.8478233741237595e+00  4.0266989855195039e+00  3.9475280935708379e+00  3.9409033429606000e+00  3.3586038542371144e-01  3.6440303259624929e-01  7.4925590429535633e+00  7.7749117674844905e+00  7.1249505260260717e+00  7.1421293679172164e+00  7.3474168704937437e+00  7.7111429701715348e+00  8.0718714880467104e+00  3.9212451731119458e-01  3.7794514291409109e-01  2.9611528274326817e+00  3.0428403116718354e+00  2.8541069161981740e+00  2.8088077307769761e+00  7.3664279284548293e+00  7.5876364632721209e+00  2.3457656943913938e+00  2.3745354202142837e+00  4.7295667029239148e+01  4.8498936737900131e+01  8.5728509261093999e-01  8.4534165251435889e-01  6.9990265766321835e+00  1.8978407514283749e-01  1.9582182599171941e-01  8.7724051148342652e-01  2.8192252214608988e+00  2.8875873406238446e+00  6.6190438002793686e+00  2.7021358047811157e+00  2.7571915700774015e+00  2.5985107422605913e+00  2.6472018469139198e+00  2.9527210114931584e+00  2.9655182459157325e+00  1.8409634465784389e-01  2.0547295895643591e+00  2.0736561172695223e+00  1.2974425802761054e+00  1.3185654023276094e+00  4.7555288783805869e+00  4.7904408310366779e+00  1.3196949254578849e+00  1.3819915254600219e+00  1.3755329170440942e+00  3.2299490145153015e+01  3.2754603883398460e+01  2.9640295616694246e+01  3.0142893818202349e+01  1.1957129126014572e+00  1.7411354689451833e-01  2.3963134732245810e+00  2.3016513226351121e+00  2.2059054548166110e+00  2.1564157821862371e+00  2.1134626122022935e+00  5.4171897198309615e+00  8.7786446024588365e+00  1.2089474029301869e+01  1.2320057838374982e+01  1.2222677298162335e+01  2.0226189987928462e+00  1.9448023847639404e+00  2.1929388789897683e+01  2.3305644632136598e+01  1.0305252797467796e+01  1.0450381768911367e+01  1.6417505488557477e+01  1.6090533160423270e+01  1.0428845374070617e+00  1.8082885698094328e-01  1.9400071975073394e-01  2.9957778146253693e+00  2.8897479908605908e+00  3.0236293214645076e+00  8.9180999255670712e-01  8.5123922611078118e-01  3.6334070052712879e+00  1.8633273822477490e+00  1.7873194883101120e+00  3.4218537078634625e+00  3.4227083118218742e+00  3.5499720500603691e+00  2.7313473260261958e+00  6.6350899073405989e-01  6.7839329388676783e-01  9.5544272150717404e+00  1.3266361115450071e+01  1.2813377247533079e+01  2.5806002329885440e+00  2.5363770119207483e+00  1.1132687526970578e+01  2.3841021373820897e+01  2.4834893571976998e+01  2.4871029402338717e+01  1.0130752078025765e+01  1.0420597005327917e+01  1.0166923552022670e+01  1.0186498218809550e+01  1.7153987137936060e+00  1.6432497529592789e+00  1.2635141624260524e+00  1.2702408332915411e+00  8.9644971469182817e+00  8.5962081046668217e+00  1.1411924671983375e+01  1.1821772779462870e+01  1.2168615871802915e+01  1.0283528815549726e+01  1.0883134874016809e+01  1.2852324516249700e+00  1.2692476373171622e+00  1.0015806302284330e+01  9.8073079319948544e+00  7.1126850302416029e+00  7.3811623887663744e+00  1.4694300571447503e+00  1.4338697648365815e+00  9.9540018573760776e+00  1.0280699455296791e+01  1.0413970009331152e+01  1.0877904946310291e+01  6.3717105919419117e+00  1.5609530548827335e+00  1.9967164670716681e+01  2.1246595842679657e+01  1.1103429129623022e+01  1.1331649602990032e+01  1.3832139192481481e+00  1.3218770236932758e+00  3.0533739499106085e+00  1.6536985070013511e+01  1.7834832647730067e+01  1.3826730275986707e+01  1.3884952813410431e+01  1.2236017252308535e+00  1.2850958343704377e+00  1.1497379344999777e+01  1.1512167874672814e+01  4.0823080731938767e+01  4.2934894289623159e+01  2.7980637545317055e+00  2.7607576735294996e+00  4.3575035754236735e+00  4.3323073889418442e+00  2.8432681105582375e+01  1.3909107237337764e+01  1.3902091797898287e+01  1.5192999042870898e+01  1.5783731093804844e+01  1.1319499876176152e+01  1.2323539940637671e+01  1.3835580269648253e+00  1.4405967893144187e+00  4.8397019142529762e+00  4.7711286941050561e+00  3.2421146711810716e+00  3.2266595218761207e+00  8.5068324275276961e+00  6.0049625016531571e+00  3.4258090822679987e+00  3.4782297091101273e+00  4.7008540204787463e+00  4.7158493688816616e+00  2.5699506712810205e+01  2.5553634088613993e+01  1.2830400784053799e+01  1.3229278144520295e+01  6.0019312243777048e+00  1.3131424708070394e+00  1.5424912080451436e+00  1.5599574687869155e+00  5.0990968927285607e+00  5.1516448159121460e+00  1.4921019154559418e+00  1.4780660373434218e+00  1.4590003158327596e+00  2.4567365229451234e+01  2.3967512619899367e+01  1.2155534557287970e+01  2.5933868909922997e-01  8.2095769962357046e-01  1.3895133764307561e+01  1.3987448181752249e+01  3.6413268024069045e-01  3.5193650088204126e-01  1.4180383003406197e+01  1.4379182581623734e+01  1.5186639705971816e+01  1.3720599577757532e+01  1.4005116865157961e+01  1.1006498799316271e+01  1.1389703574114336e+01  2.6288845758037098e+00  2.5994988367283964e+00  2.6654701075909313e+00  2.6863698211313598e+00  1.0110779202235447e+01  1.0488631309157080e+01  2.2866105296008978e+01  2.3048731832751134e+01  1.3652465473260792e+01  1.4134844721316041e+01  3.2004395644536814e+00  3.0776293861847579e+00  2.7238381346202707e+00  2.7358377660531907e+00  1.9583046094271275e+01  1.8455894213733824e+01  1.9064096861350055e+01  2.6032877047855685e+01  4.1942792921017045e+00  4.1593046958241517e+00  4.3046903215349603e+00  1.4137627882428276e+01  1.4632589050673550e+01  2.7081138737721062e+00  2.7277284270835715e+00  1.4285866579442924e+01  1.4793817072229789e+01  3.3361769741793248e+00  3.4993701282379113e+00  3.4526626856579914e+00  3.6909975689492254e+00  3.7126056964068330e+00  1.3445834718043249e+01  1.3657336353547183e+01  1.3574631386489699e+01  7.6150354375897358e+00  1.9618881199943594e+01  1.7890293970469756e+01  3.6481889511643844e+00  3.6788030573703150e+00  4.4752003498397297e+00  1.6725342022890970e+01  1.6329279787751439e+01  2.6728584111959477e+00  3.5449513041734391e+00  3.6214053294373425e+00  3.6664505654857438e+00  3.6625468089037332e+00  2.8835389109437881e+00  2.9026005586649224e+00  1.0781156180033063e+01  1.9088781857934485e+01  1.9480312934589783e+01  1.8050413706563324e+00  1.7933823760848853e+00  1.7753347698451487e+00  4.3765077163296660e+00  4.2251197490603314e+00  4.2465330177054508e+00  3.6612736378127830e+00  3.7262362502109716e+00  3.7386871423975268e+00  5.3607381768536007e+00  5.4452572148734930e+00  1.0451724768520929e+01  9.9106281563171201e+00  1.0188016520460252e+01  1.3518165690401207e+00  1.3253134268784201e+00  7.4016590540270197e+00  7.2562225612433640e+00  4.7802130414489792e+00  4.6728861668785422e+00  2.4617379115020381e+00  2.5036091670861178e+00  2.5401586084713497e+00  2.6853659453139693e+00  1.2619761761388599e+01  1.2896888558023042e+01  1.2759164434700244e+01  1.6758034333516341e+00  1.6540489401924241e+00  1.6346551112706835e+00  5.8094675859129934e+00  2.8318060437032852e+01  2.9164471348339802e+01  2.9410744645138376e+01  1.0072656612813597e+01  9.6944473325352352e+00  4.2799611393881571e+00  3.2972596064018633e+00  3.4091626598755904e+00  1.0586886121974580e+01  1.0668631287862869e+01  3.9939722199778782e-01  3.9544683369939709e-01  3.6692300924183545e+00  3.6678246312161678e+00  4.7189431252470637e+00  4.8114028335330854e+00  3.5445709405007247e-01  5.3689009337017977e+00  8.3743591716235510e+00  4.7883708879488216e+00  4.7219778751559245e+00  4.9246260041040655e+00  5.0211579699642543e+00  4.4979411106308760e+01  2.9854183293277519e+00  3.0083148242736564e+00  1.3743853608437604e+01  1.3371455783605029e+01  5.0170613437359926e+00  5.1109118977032653e+00  5.1975029963381845e+00  4.3422099276910240e+00  4.2984663433825636e+00  1.3279118768174541e+01  1.3697019121678030e+01  6.6835858017793921e+00  6.5459479216411491e+00  1.1946592006445961e+01  4.9792015606432081e+00  5.1137748711072923e+00  1.4314068006781357e+01  1.4184977226145985e+01  6.2076989367533812e+00  4.6002959680948168e+00  4.3942964424101909e+00  4.5005637825678066e+00  5.6304631543567734e+00  7.4546551864016886e+00  7.8857396474896779e+00  7.6555169325985846e+00  3.7857610874740768e+00  3.6353442896517909e+00  3.6926343577894909e+00  1.4407166641815293e+01  1.4939629780343026e+01  9.4127326924237593e+00  9.6423618768587591e+00  1.5740909776093333e+00  1.5062179084005385e+00  1.1859613178275245e+01  1.2071066031530663e+01  1.1953193236362601e+01  1.2852128655424769e+01  1.2339606877156308e+01  4.3322149053929655e+00  1.5605462312436389e+01  1.6622123446188191e+01  1.5960075193216598e+01  1.2513772070388896e+01  1.2881380567060933e+01  3.6172355709734805e-01  3.7132566509934162e-01  1.6927943336796382e+01  1.6430169194132148e+01  1.6036134250621974e+01  9.0992584289483691e+00  1.7944932790729362e-01  4.5921916055978755e+00  1.3890874760603538e+01  1.3846646574524948e+01  4.0947009780892767e+00  4.2338197380371563e+00  3.0232790866221654e-01  3.0185271997567237e-01  7.0679258510663034e+00  4.4126965695305067e+00  4.4520348879852714e+00  2.8408829223005250e+00  2.8466803547750081e+00  2.8646224005879017e+00  2.7962924303515552e-01  2.1741641107606196e+01  2.0675885963926948e+01  1.9224890611978335e+01  2.2588134054075631e+01  2.3689464492327502e+01  2.2890218338789783e+01  2.5450763373840903e+01  1.1246286492907846e+01  1.1428745410818735e+01  1.1370816160477254e+01  1.5693289825758498e+01  1.6308312302229250e+01  2.9497261469548781e+00  2.8111786536459071e+00  2.8470156295987441e+00  9.0057871827211677e+00  1.2164003436265501e+01  2.4034256318325004e-01  4.0216446990821453e+00  3.0531711612399826e-01  2.7832035595770493e-01  1.3883605076728477e+01  1.3821925038339506e+01  4.8043209275580354e+00  4.9582976310403479e+00  4.9836046820740192e+00  5.4571772847688518e+00  6.1365758565715778e+00  5.9594718634768444e+00  1.7370845457218248e+01  1.6895998364354707e+01  2.7590216806310728e+01  1.0863649857723876e+01  1.0993848273936242e+01  1.0991184765249928e+01  1.6734412021568804e+01  6.1188713668027477e+00  4.0658536456523056e+00  4.4114363162288883e-01  3.0448371706851660e+01  2.9761181081124352e+01  1.2383186709344345e+00  1.2513989241118741e+00  1.0869942530001615e+00  1.0551540789336848e+00  2.6815905770454043e+00  2.7066646850126630e+00  5.1451505438822209e-01  7.2340198516591654e+00  7.2706574064597103e+00  1.4235482670378288e+00  1.3876705133447467e+00  1.2363072414821220e+01  1.3186875312615403e+01  1.2958036656919928e+01  9.8912789709499727e+00  7.2116549661256784e+00  2.3994480711570576e-01  1.9699713917325026e-01  2.5428177742322177e+01  4.0798226286108701e+00  3.9288561071157666e+00  5.8233601494868414e-01  5.6795116344341523e-01  1.2709875533407271e+01  1.2297127544821954e+01  1.1894253809881940e+01  1.1446368921965973e+01  9.4894366917099293e-01  2.2292545275813627e+00  6.1205128218927574e-01  3.9264039151349142e+00  2.6456342783563933e+00  2.6830340766783269e+00  8.5195171975266888e+00  2.2185689304004665e+01  2.1518081966690840e+01  2.0687765286010112e+01  6.4235610350602688e+00  2.5944074528097655e-01  2.6930127523885317e-01  1.4601473965657370e+01  1.5277106497584148e+01  2.7481091392656647e+00  2.7687411358843756e+00  3.6956520575393550e+00  3.6552637375049213e+00  5.0500495942040411e+00  1.1484839782330159e+01  1.1008372815999397e+01  9.3066705774791636e+00  9.0769051764835620e+00  1.1890297839170540e+01  1.2233502292376542e+01  1.1683571170411829e+01  1.1304498308284648e+01  2.3659927512126032e+01  1.0681196092168340e+01  1.0774872787738852e+01  1.0830206618984493e+01  3.6944264359370669e+00  3.7564810678821035e+00  3.7705244869665515e+00  4.0386355666691443e+01  2.6077113395064490e+01  2.6429057198685580e+01  1.3257106109881443e+01  1.2939412185476474e+01  1.2318136947681609e+01  4.6838375205025784e+00  4.6536477696874483e+00  3.8882109940144854e-01  3.8320207332704975e-01  3.7520080245279458e-01  1.6375117732094008e-01  1.2545696125831424e-01  3.9583494076154371e+00  1.6405451285678019e+01  1.5124102200600960e+01  5.4619416493393667e+00  5.4593739178373832e+00  3.7679935831535873e+00  1.0136316389952242e+01  4.9478853025591274e+00  4.9496993740698976e+00  1.4330656949339950e+00  1.3776520534783261e+00  4.2657180317875767e+00  1.7227921055445435e+01  1.7622256245821330e+01  2.8002076837799521e+01  2.2852286949373887e-01  8.1751793237389614e-01  1.0340583246672194e+01  1.0553762378129173e+01  1.3742571500948170e+01  1.3918121115672681e+01  1.0455517959624826e+01  4.9520933013745125e+00  4.9546790158813971e+00  8.4491065711408453e+00  8.2369733065422857e+00  8.1167006559872270e+00  8.1735782484471571e+00  7.8828759857598323e+00  3.1818725122018199e+00  3.1336387213093970e+00  1.0757391170163169e+01  1.0854440674617212e+01  4.7181623564128818e+00  1.1984715067169301e-01  1.2932300351761106e-01  3.0438321605716592e+01  2.9635283476512630e+01  3.0629432976936890e+01  9.4859519468239490e+00  7.0635715617427417e+00  5.1485202862385115e+00  5.2654716570022106e+00  5.3278881534831930e+00  2.1809767521353485e+00  8.1235159803246919e+00  8.0622974307252502e+00  7.8386966566007485e+00  8.3080295398018011e-01  8.0564253071652048e-01  7.2800612339005122e-01  5.6783481430801928e+00  9.5750999134480352e+00  9.7521292819331915e+00  7.0661665568516492e+00  6.8840432452476437e+00  7.8322154099423991e-01  7.6534164513908676e-01  3.7725606535536658e+00  5.3400494918819863e-01  8.4841808656909237e+00  8.3557382016601647e+00  8.1444256276487508e+00  1.2196043028398758e+00  1.1656626626512885e+00  9.9737704896597390e-01  9.8724106852198579e-01  1.0924311908563377e+01  1.0929431654036968e+01  1.1080445274330721e+01  7.5226756083875168e-01  7.4443716458965103e-01  1.3437677214419291e-01  1.2782540690443189e-01  3.5088341716953806e+01  3.5321036735341806e+01  1.4180878718213255e-01  2.1512846094240368e-01  2.9066000139339004e-01  4.0154409066648222e-01  4.8460895505059893e+00  3.7286143401697118e+00  1.2391929465719901e+01  6.1526413293205922e+00  1.3305499676493836e+01  1.3499326818317964e+01  3.9608812743525128e+01  7.4899626431636390e+00  2.9852490907402451e+00  2.9949601009019582e+00  8.5216889240946136e-01  1.0096920963140397e+00  3.1109462669638921e-01  3.2884872491327644e-01  4.1554968233418997e+01  8.6691915352190030e+00  8.7993577945424981e+00  2.3633863426651383e+00  2.3569587907001210e+00  2.3770066743054965e+00  1.0525883882706806e+01  1.1284075661601872e+01  1.1238135286380396e+01  1.1488537523769159e+01  7.2264132446835716e-01  7.2252303260240547e-01  6.1267970786891697e+00  6.1553891291267675e+00  8.9412335203752953e+00  9.0880602702305975e+00  3.6641835420024527e+00  3.4985649258382179e-01  3.4952710214704932e+00  7.9947151128300542e-01  1.3666782278934736e+01  8.0254571475855219e-01  9.2408021404184595e+00  9.4031878860685971e+00  7.1858115978315762e-01  7.2200466054757273e-01  1.0278268408780722e+00  9.9973867467154942e-01  7.9662923725750181e+00  8.0682329632253804e+00  3.0357217966419170e-01  1.5142037939639768e+00  1.3195684117687885e+00  1.1890170153108942e+01  1.1829027062407622e+01  1.2100890385363899e+01  4.6942509193318971e+00  1.0227982975659472e+01  9.6477132088566382e+00  6.2646279976516608e+00  2.8756768541771476e+00  7.4725884005403542e-01  7.5506539988073684e-01  6.1829476013094515e+00  9.7938309621584992e+01  6.7227571241187833e+00  5.6270077364572471e+00  5.7977594079092656e+00  5.7927961126494836e+00  1.0400911627421362e+01  1.0669434001384223e+01  3.4773966674287524e+00  1.3106602724384130e+01  1.2930005904683124e+01  3.1137002847914350e+00  3.1327129630092090e+00  8.1743164839691964e+00  8.4048662232324556e-01  7.3993094503309935e+00  7.4853991872824688e+00  3.9291614336072128e-01  9.1856480305697659e+00  9.3286008980696273e+00  1.7507484082155285e+00  8.4176212581627474e-01  6.3487020377539265e+00  8.7265839262507905e-01  6.7404221144084731e-01  7.0570257767353084e-01  4.5449432251455200e+00  7.9329954983458162e-01  8.0530183134480271e-01  3.2947202259994284e+00  2.6389532484040945e+00  5.3164066251271835e+00  5.4544380629714428e+00  5.4492550142652130e+00  2.7643465162640535e+01  2.8120380191866368e-01  2.7129848562490566e-01  6.3159461144801581e+00  6.9368278806623058e+00  7.0085452612880133e+00  2.5904820097426910e+01  2.4613262032672669e+01  5.4033484934870168e+00  7.5749050565370837e+00  7.6675907859906136e+00  1.0515560686744847e+01  8.6976354168353822e+00  8.7958594905207015e+00  8.5757679643027507e-01  8.7168773679688505e-01  4.8679177218319234e+00  4.9538288017878189e+00  4.9567828321152785e+00  1.1627467018092982e+01  1.1213977042100424e+01  4.5516128421892805e+00  1.2576750642280485e+01  1.2922376826385451e+01  6.5454111165563793e+00  6.6060381950375175e+00  9.1081889410029437e-01  9.2335028729930047e-01  1.2067546586172702e+00  6.6683018084592254e+00  6.7333980704256584e+00  4.8744296387384738e+00  4.8942037619502949e+00  4.9150836581167070e+00  5.2100352121125955e+00  5.2155344497240845e+00  6.2094688472755806e+00  6.2618998147888538e+00  6.8006077865085741e+00  6.8680690046567925e+00  9.5914650355745812e-01  9.7418185912898470e-01  1.2057122703479950e+01  1.1817532100211000e+01  6.1059639925177294e+00  6.1560232166977951e+00  3.2905496954992177e+00  3.2776668849154045e+00  4.6289046404939649e+00  4.6480360680142629e+00  6.0094730487028665e+00  6.0578080783258050e+00  6.3142034473008355e+00  6.3695436735133653e+00  8.3410950826701757e+00  8.4139059423323186e+00  5.9149442577971909e+00  5.9617991288178427e+00  1.0572482756578399e+00  5.8694776579031780e+00  6.4280937344940918e+00  6.4858964212940791e+00  1.0709088256532251e+00  1.0877362598139357e+00  4.3403615004629774e+00  1.1039836095817135e+00  1.1185409191367808e+00  3.4903313156779028e+00  3.3569904145046063e+00  5.6481978011998377e+00  1.1321707045722422e+00  1.1482362386324836e+00  1.3558834613989838e+01  1.4043411014595677e+01  1.2638475981097759e+01  1.1784962657887775e+01  1.1627178244165597e+00  1.1778813541221860e+00  4.2383528397465762e+00  2.5608832426688391e+01  2.5040058219545774e+01  3.1801689371146029e+00  1.1961442755682334e+00  1.2114779894536964e+00  5.4891351697726023e+00  5.5275601517844386e+00  3.0159676213647968e-01  3.0357493763058102e-01  4.5097066077129471e+00  4.3640005846947210e+00  1.2251558847187993e+00  1.2413298438965015e+00  5.4146566810168011e+00  5.4518826748129063e+00  1.2602407738977033e+00  1.2761534094590825e+00  5.3379979855804338e+00  5.3754448988984569e+00  8.0441226118378619e+00  8.1030287582171887e+00  8.8562336457387048e-01  8.9768572050986539e-01  1.2902634331342753e+00  1.3071118674920283e+00  5.2661619399029469e+00  5.3020631501823559e+00  4.4122306964080975e+00  4.4275178050950057e+00  1.3269744515288129e+00  1.3438043071196704e+00  5.1966859662372213e+00  5.2312357316522622e+00  1.3587941458005195e+00  1.3759809017889266e+00  5.1257243936901791e+00  5.1600525472364778e+00  7.4783664391182836e-01  4.2951435424714351e-01  4.5449208577900790e-01  5.0587331195963428e+00  5.0925922073776047e+00  1.3927746399921823e+00  1.4084754130329906e+00  4.9927983320878235e+00  5.0253125604712219e+00  4.9291446961143128e+00  4.9610402018593689e+00  1.4279458442402624e+00  1.4460095714050829e+00  5.0694796418730226e+00  5.0209686213336848e+00  4.8668695880257564e+00  4.8979585653653350e+00  1.4612602531866810e+00  1.4788465540077265e+00  4.8025638576233449e+00  4.8336181507868741e+00  5.2235987108118938e+00  1.5000676483586670e+00  1.5181190334818426e+00  7.8601548062336999e+00  7.8932193918294367e+00  1.5334563383982831e+00  1.5511386933974358e+00  9.5359166200308785e+00  1.5722764632893658e+00  1.5905947841437285e+00  9.8593660560599661e-01  1.6065537031810346e+00  1.6249478842581766e+00  4.6238415042939778e+00  4.6531091083540472e+00  3.2058438782173782e+00  3.1666861113600633e+00  7.3575642986458101e-01  7.0845727977182305e-01  1.6464385256287573e+00  1.6647106757695624e+00  4.5093211661435610e+00  4.5382796277160251e+00  4.6842669343849366e+00  4.7134684458885499e+00  6.6220009875742045e+00  6.6257080018992376e+00  4.4509742040759352e+00  4.4798388141178753e+00  1.7588657346674386e+00  1.7778152748991409e+00  5.2567363463601147e-01  5.5091972501027453e-01  4.3944336192174269e+00  4.4223341028245544e+00  1.8002585031677081e+00  1.8192765685098953e+00  4.7436733727180282e+00  4.7737719518161619e+00  1.8364924898548203e+00  1.8563149613953152e+00  4.3410016838447278e+00  4.3677129106792725e+00  1.4814645227174218e+01  1.5437420980357778e+01  4.2849822905387986e+00  4.3120434484313259e+00  1.1924695073414220e+00  1.2563126472699435e+00  1.6931990297704753e+00  1.9586417761864661e+00  1.9786955586593471e+00  1.9968557068064132e+00  2.0174417068317179e+00  7.7625266926649203e+00  7.7783711922307210e+00  4.0576273082142995e+00  4.1271079765976753e+00  4.1526313842038540e+00  2.9996752194100447e+00  2.0409723024006281e+00  2.0621988505995192e+00  4.0828761137979948e+00  4.0728286603055013e+00  4.0991290166127552e+00  1.9158029755272312e+00  1.9358041026638719e+00  4.0207328167166922e+00  4.0477332563454897e+00  3.8706257839412141e+00  3.8958955160554396e+00  2.1600466050167455e+00  2.1819295665139662e+00  1.8786462865694151e+00  1.8981269586220246e+00  4.8334640145996266e+00  4.8502760149651429e+00  4.8712921772354880e+00  2.2441715436952276e+00  2.2659387972888321e+00  3.7669518901586878e+00  3.7918398854636464e+00  4.0283148150416576e-01  7.7408575921357192e+00  7.7320504503237348e+00  2.3731069707848356e+00  2.3940677792945091e+00  3.6147588846946923e+00  3.6396998767612549e+00  2.4179828637206531e+00  2.4397286390359438e+00  2.0803664296333864e+00  2.1007683767431300e+00  9.2455899895690212e+00  9.4465871156119583e+00  2.3297750543889184e+00  2.3510678123204851e+00  3.6672584611951931e+00  3.6919905376448443e+00  2.4592376551028585e+00  2.4810044726098148e+00  3.9992793624815439e+00  3.9537203515320876e+00  3.5235583089900140e+00  3.5488729332314053e+00  2.2894958327161268e+00  2.3114127531060022e+00  3.7178004459927636e+00  3.7435074338745356e+00  7.3801948515738438e+00  7.5483674136005297e+00  2.5946309566411361e+00  2.6168378564335577e+00  2.6369585847110568e+00  2.6590463707240333e+00  3.3745098420660500e+00  3.3994300231905044e+00  2.6832177355808295e+00  2.7047546860332927e+00  2.8189460431040994e+00  2.8414937422557172e+00  4.1431818793859039e+00  4.1454483854378044e+00  3.2346283302183636e+00  3.2588615042795466e+00  2.5476940052706083e+00  2.5696998120387118e+00  4.2094592232071157e+00  4.2267041382659816e+00  2.7705935555238317e+00  2.7938780397521308e+00  2.9534235994337035e+00  2.9779026667948223e+00  1.0635953897802184e+00  2.7276914688246343e+00  2.7502792118295929e+00  5.7800722229996138e-01  6.0539060790739452e-01  3.0907837634989264e+00  3.0455899464990162e+00  3.0691094387026698e+00  9.5316045191586296e-01  1.3150092004193084e+01  3.8250419462528505e+01  1.2158266280668654e+01  1.2855858328090100e+01  3.5955133102785808e-01  7.8197026161463050e+00  7.7902957200149743e+00  4.8916666208575963e+00  4.8978970622341604e+00  6.0101924583607715e+00  6.0208747159676985e+00  4.2869456294008383e+00  1.6546378586554976e+01  1.7274799520516002e+01  8.8898681125946730e+00  1.0277501221791283e+00  1.0421196107816151e+00  6.9186123140182576e-01  7.2123825827889254e-01  4.2209342666154486e+00  4.7802637775317347e+00  4.8142915135753412e+00  7.9258727324330911e+00  7.9036941898692756e+00  5.2187951020553403e+00  5.2238082493001858e+00  2.8894557099109472e+00  5.1532396966570069e+00  5.1653363663737419e+00  5.2443220778918223e+00  3.6028315403458229e+00  3.5866462060763022e+00  1.3056303616083275e+01  1.1176599438468902e+00  6.4072746623481480e+00  1.9050086529931342e+01  1.8630960823127243e+01  1.9648467754718531e+01  8.0962801610750486e+00  8.0806968568306630e+00  3.8442723982073823e+00  3.8723562222972121e+00  3.8832881550075835e+00  7.3965483485688754e-01  5.1697810423573234e+00  8.2210127814658378e+00  8.1768257541477993e+00  8.2761748568602134e-01  5.8466413751386359e-01  8.1894309539891741e-01  8.5334911112292022e-01  4.5525205837873967e-01  4.5053083251983034e-01  4.3311179350647189e-01  2.7188316850633867e+00  2.7361016246233030e+00  8.1748248035447233e+00  8.2016641809802557e+00  1.3014592621450488e+01  5.3151213667924697e+00  5.3827515428299675e+00  5.8008560017523862e+00  5.8124929596616752e+00  1.1440851176530551e+00  3.7274723729013832e+00  7.6919581586413726e+00  7.7974703610044962e+00  1.1598901097844134e+01  1.1482419120750198e+01  7.7076074737820877e+00  4.7176314336377673e-01  9.3915709089992561e+00  5.9609162891857110e+00  5.2957014959698805e+00  6.5819991349715643e+00  6.7960777382082407e+00  2.5928141428895826e+00  2.6302861285789025e+00  5.6332269156616945e+00  5.6457604328883164e+00  8.6778882943226776e+00  8.5750421383578885e+00  2.7808335305541592e+00  9.6179880198511813e-01  1.0009277194191493e+00  1.0167868788736405e+01  4.5418460123864897e+00  1.2198195762563639e+00  1.2476072078143623e+00  6.6756047510516103e-01  6.8681835356973853e-01  3.8314017835078413e+00  4.3810431602841620e+00  4.4121682298904661e+00  4.4249014683253263e+00  1.1683240815222309e+00  1.1861400493948961e+00  3.2770620456191959e+00  3.3028167731890079e+00  1.2910507245762066e+00  5.8285176550608808e+00  2.4905064073631697e+00  3.2168197894001844e+00  3.2299941266501904e+00  3.4325100645838358e+00  3.3638489985857412e+00  3.3828117038684122e+00  1.1164457204475340e+00  1.1530324782647012e+00  3.1578846212951026e+00  2.6024902135040473e+00  2.4272035572089923e+00  2.4848345289918985e+00  2.5028105364319435e+00  6.2288187760970581e+00  2.9795213373434284e+00  3.8481448027060234e+00  2.5491969045410606e-01  4.9758678130597485e+00  6.0592087747832561e+00  6.0384704963581060e+00  1.3406739582064633e+00  1.0333081721606867e+01  8.3675201780914819e+00  8.5229987611402720e+00  2.9802263914423484e+00  4.0939405102488049e+00  6.5109193690814600e+00  6.5484380913027369e+00  2.4622532103740675e+00  2.4791708768263057e+00  2.4964853250350627e+00  3.1706999846559532e+00  3.6224512928391894e-01  3.5376753301520519e-01  3.2982788489665626e+00  1.0286013633673491e+01  7.3239561214812143e-01  9.9984004953443728e-01  1.0088111093300696e+00  3.3169135166602679e+00  4.1411197813602687e+00  5.3322953133883804e+00  5.0539031812794661e+00  5.2991494793225220e+00  1.0968512386510049e+01  1.1014981238335526e+01  1.1235303662561247e+01  8.6824124421976308e+00  4.1785255857250094e+00  4.2050395371875000e+00  4.2851323432804973e+00  4.2780300522790995e+00  6.2966595274328521e+00  6.3150989407629199e+00  2.8918845097054340e+00  1.3071430938461059e+01  1.7999863024667642e+00  1.8634252959214817e+00  1.6064149141264237e+00  1.4369126246733532e+00  1.3000317341760962e+01  2.4002954854919199e+01  4.4096304956319994e+00  4.4380336066517732e+00  4.4507076548459548e+00  1.1652381010846922e+00  2.0211274513142201e+00  1.0804799253042535e+01  2.2841546959734860e+00  2.1818713629554431e+01  2.1411436931993531e+01  2.2767004930438013e+01  1.9242925194458951e+00  1.9469276181196629e+00  8.4443673172215084e-01  1.7753538311805130e+00  7.8714425513410555e+00  7.9368869099591812e+00  1.0217770322294387e+01  8.1593707031819063e-01  1.6273171163676396e+00  1.5929918014618001e+00  1.6099728330487451e+00  1.6031884842823203e+00  1.5252519665814077e+00  1.5408319547760920e+00  1.9393350591194383e+00  1.9984141897114900e+00  2.2120919935182295e+00  9.9395350374928482e-01  9.7863252676746371e-01  6.4247864904091756e+00  6.4669112952158869e+00  1.7871085862491001e+00  1.8245189453700144e+00  3.5542833976509085e+00  1.7966763093463423e+00  1.8803949476268358e+00  7.3284858734870575e+00  7.4411801299764075e+00  1.9707137987713355e+00  2.0582986432495569e+00  1.1099139931022810e+00  6.8119732927014081e+00  9.1480767379976662e+00  6.7322416595786398e+00  6.8246212739534107e+00  6.8416612087814066e+00  2.2436723377248518e+00  2.0272633522966510e+00  2.0737315886583563e+00  6.4422800346173181e-01  2.5264028432969825e+00  2.6236132134986510e+00  1.0492988476654327e+01  8.3482913389821356e-01  8.3394410514086026e-01  1.7697755919872555e+00  2.1835555751451374e+00  2.2461618672614985e+00  1.9029665989156423e+00  1.9286583979447420e+00  1.0116003626353460e+00  1.0144702547710598e+00  6.3353923309053659e+00  6.3589256629292947e+00  1.0163938395039130e+01  6.0352828299553796e+00  2.1126115591398786e+00  3.9241701572229899e+00  2.5002718097276793e+00  5.7940501259325954e+00  2.1515197575250631e+00  4.6715606228581166e+00  4.6820339735790117e+00  1.2555423407914018e+01  1.2873930883335138e+01  4.2487829270997626e+00  4.2927820350626194e+00  5.5701953823723587e+00  1.3268811271847587e+01  8.6594468770001820e-01  8.9221823816163581e-01  3.2555450472253460e+00  5.3459144084714847e+00  3.3868829988981458e-01  3.2415441695868724e-01  9.3009094017168270e-01  9.5200820287343613e-01  1.2225319746159101e+01  4.3688422969844920e+00  2.1869321658248517e+00  2.2141642176117959e+00  1.2162992811870284e+01  1.2219776901771997e+01  3.4113258244123061e+00  3.4285791712132774e+00  3.6374215901837532e+00  3.3319512506406732e+00  6.7635287914635640e+00  6.8564449310754494e+00  6.8692319107159037e+00  2.2119450345345157e+00  1.2933631870674295e+01  1.2477890009240564e+01  6.7691022220184678e+00  6.6889327274550379e+00  1.8213020919089540e+00  4.5044008865940350e+00  4.5128564827284734e+00  2.3764898821719171e+00  2.2976731619187665e+00  5.7951691055222210e-01  1.9174989408908233e-01  1.9630693550761841e-01  2.8974481470988085e+00  1.1728456286561670e+00  1.1418236573469800e+00  1.6159241653567037e+01  7.2272227083060150e+00  9.9346837000970663e+00  1.0222320567657849e+01  3.0719997474839400e+00  1.1847269135958480e+00  9.3416774547862436e-01  5.1498210643268889e+00  7.5934013845375219e+00  7.6662818168575848e+00  7.7232252565062378e+00  1.0757682115806300e+00  5.0921643070653466e-01  3.3206732592452304e-01  4.1942423370588875e+00  4.2040198464293876e+00  3.4753099730225800e-01  3.3383755226983808e-01  1.0374748716706179e+01  1.0347656476229899e+01  6.0466988732331810e+00  1.6778308330906064e+00  1.6595594971315113e+00  1.1581109832719956e+00  1.2336095590970035e+00  6.9667373853211503e+00  7.0797460640469527e+00  8.3385381970647521e-01  6.3121734953796302e+00  6.3405710990292610e+00  4.6573837142148470e+01  4.9389670256477219e-01  5.0835511017203072e-01  3.2369484736236505e+00  3.2525551145114182e+00  7.7060779043595931e+00  7.7799560011231428e+00  7.8373591494402133e+00  2.5039668951768551e-01  2.9448369585802814e-01  1.2527905934395238e+00  1.3067833606805973e-01  4.9822965226855178e+00  4.9659856051620128e+00  1.0044187671907174e+01  4.4654220695529041e+00  4.4759158393520844e+00  8.1713715073884130e-01  8.2897783957187310e-01  2.3392984708540666e+01  2.5532192879027349e+01  1.1403082956475547e+01  1.1577542192752635e+01  1.1253833537973453e+01  5.2258185543984057e+00  3.8635573251188471e+00  3.5288004788988792e+00  7.8107575975017092e+00  8.6795642946492286e+00  8.7638101859899038e+00  8.8526460092944017e+00  9.7049936751177803e+00  4.0243216148905931e+00  3.8594473029857816e+00  3.8432909195675968e+00  4.6916177205113287e+00  4.6687610142004345e+00  6.9878125585288560e+00  1.1087857295316528e+01  7.6113718298417055e-01  4.8342918115160618e+00  4.8555584223281594e+00  2.9295301688182884e+00  1.0524765822000463e+01  1.1727922092621265e+01  2.1719202400111848e+00  8.0983908965497131e-01  9.9401218314459587e+00  1.4899317057152775e+01  1.2747590149744148e+00  1.3042528008996106e+00  1.0714469488530961e+01  2.8511107722373210e+00  2.8703465891066835e+00  4.0717845660297428e+01  3.9945873203857140e+01  2.2673301356092189e+01  6.9137699484091530e-01  7.1003686505948760e-01  6.8055295183104725e-01  1.1454326306077814e+01  9.8431069214785065e+00  3.5614632329524305e+00  4.7446651929601673e+00  6.3743705609588064e-01  2.9776440024885384e+00  2.6716017725041117e+00  6.6235393654323458e+00  6.8656672463583188e+00  1.2696556537805599e+00  4.2911425292900498e+00  4.3995257422928118e+00  6.1612894176705757e-01  5.6985886328081339e+00  9.5325287982013069e+00  9.6881635013892247e+00  1.0185184887595995e+00  9.9589461839380988e-01  3.2986957181380072e+00  3.2692634662036095e+00  1.3527403011679153e+01  1.2500456100587154e+00  9.4393626180883796e+00  2.9751595309249863e+00  3.0043357660136163e+00  3.3813731932243729e-01  3.2060382777932944e-01  1.2759738490301435e+00  1.2973461002100126e+00  1.2564071868248723e+00  1.2590615857714755e+00  9.9889071843671964e+00  1.0122403607388989e+01  9.8830798593180713e+00  4.7235059698036039e+00  4.8345963375908996e+00  5.4268008716237084e+00  5.4412578781966037e+00  4.2621412621383176e-01  2.2458892650401348e+00  2.2606511901137969e+00  4.1036172494704415e+00  4.1176959572670553e+00  3.2500991313005403e+00  8.3965455299467830e+00  8.6144639752462879e+00  7.1038764079009677e+00  3.5334050872145695e+00  4.7137960863750301e+00  2.8805422118854542e+00  1.3111026500039087e+00  4.0398308215574180e-01  4.0376422688447189e+00  3.7588417673181027e+00  4.2996650021080347e+00  4.4430107235069052e+00  1.5547952046545130e+00  1.5690232174917080e+00  1.2135457186461430e+01  1.2135330195546439e+01  1.1176892218292491e+00  2.3884253314729470e-01  4.2442826326149170e+00  4.6002189958030302e+00  4.4886601142752580e+00  3.9272699515762794e+00  3.9426380015283571e+00  1.5337265752298608e+00  1.7234580711619354e+00  1.4940740650118935e+00  1.6587002749270912e+00  1.3920775186502161e+00  1.4445453222588867e+00  1.5310741108199839e+00  1.5652712318154307e+00  1.4964975539195291e+00  1.5449916116415972e+00  1.0216920267278073e+01  1.0360004751637984e+01  1.0103847736477112e+01  8.4644474208822373e+00  1.0259114178211387e+01  9.0643165300975959e+00  2.2006064412841354e+01  2.3154615192045434e+01  7.7466948228057220e+00  2.8714827487224637e-01  8.9442764253675087e+00  9.0430885218209607e+00  8.8599513031131689e+00  5.8452994208580100e-01  5.7259573964107757e-01  3.6315814049886161e+00  3.6479836847118410e+00  1.7316629506174739e+00  6.2956389284098453e+00  6.2760445785815024e+00  4.6851498320608647e+00  3.2554369963402884e+01  3.6117352436129728e+01  4.1189787019920718e+00  1.1379309365118932e+01  2.2682047572023287e+00  3.8264305830051866e+00  3.5459045999272463e+00  8.0688630985619589e+00  1.3154716450474716e+01  5.6212288054402730e+00  2.1103600352443124e+00  2.5245424853295059e+01  2.4452086137829134e+00  1.2585231453892153e+01  3.1449467949852381e+00  3.1620603662430740e+00  3.8101950052563788e-01  3.7939065709740077e-01  9.5064064974255587e+00  6.6083475219493550e+00  6.5493008164448820e+00  4.3159081337237977e+00  4.3564084866445469e+00  3.7880989722921904e-01  3.1755506373375524e+00  3.1699233257545698e+00  9.1206568686007667e+00  9.2338439537660761e+00  9.0355449870064302e+00  1.3920494586248486e+01  4.2060530339779971e+00  1.3059502281510902e+01  9.3072773589517031e+00  9.4332120518270219e+00  9.2116910102942260e+00  2.5056464210783571e+00  2.5276614156475330e+00  1.8332910428298688e+00  3.2836477632946073e+00  4.4589712048977281e+00  2.4867480010746363e+00  2.2482096085593262e+00  4.6762963245123474e+00  7.0086804786843637e-01  1.3841903539711161e+01  2.9735623454311009e+00  2.9944599307986470e+00  3.0157703225109596e+00  1.1656026700419268e+01  1.9036907137415506e+00  4.9572523967859130e+00  6.4539783119843586e+00  1.2526629753981509e+00  7.2566164495326975e+00  7.4661231449784689e+00  7.1446461245002704e+00  7.2550284800901332e+00  7.1684778911378428e+00  3.0104896672977346e+00  9.1416334285465481e+00  2.7425477261152440e+00  2.7614937617202995e+00  1.2928526346677520e+00  6.3626491337076878e+00  1.3026662417123868e+01  1.3176898507113883e+01  1.7521959545789065e+00  2.8804455976267502e+00  1.3438650535298137e+01  1.3899805138984231e+01  5.0909794638049473e+00  2.6637156137143272e+00  4.2627763368268559e+00  1.7823703580013156e+01  1.8179326678257297e+01  1.3409622113314473e+01  9.3181765991553889e-01  5.2703169439066295e+00  5.4136230301701600e+00  5.4633497672439422e+00  3.2456248724626922e+00  6.2663511223305859e+00  7.7499993466222366e+00  7.6807731629680083e+00  1.4131768332744568e+00  2.5460871340802854e-01  2.4354239252043497e-01  1.2333083338805036e+01  4.3934101551990281e+01  4.5160302392345542e+01  3.0846068980711401e+00  1.0792340781415355e+01  1.0953748649925489e+01  2.9045112876244072e+00  4.9539639191289000e+00  4.9430762707444647e+00  2.9249414543487045e+00  2.8741285422521772e+00  1.2353118503289190e+01  6.4902360103546164e-01  7.6854855299794111e-01  8.0102839975057838e-01  3.1428677437736328e+00  1.9676918447254066e+00  1.9889738064993007e-01  9.1355894603445276e-01  9.2540547835845366e-01  1.6066165271674078e+00  1.1450907907891182e+01  1.1667948278384063e+01  1.6095080742531465e+01  1.5977007394311633e+01  6.6788167810745414e+00  6.6597157358311989e+00  4.2026613365234669e+00  4.2562159795592320e+00  1.3814511226183550e+01  1.3812326318134742e+01  1.3749005947481285e+01  1.3952607353031163e+00  1.3642858670918701e+00  3.0447281865403314e-01  2.6979666076925981e+00  4.0492935398382546e+00  4.0874617095136605e+00  2.0980496401192378e-01  2.7366494274312951e+00  2.6905423387790286e+00  2.6699520083497048e+00  6.2971097376119345e-01  1.4082283627162443e+01  1.4384872561597077e+00  2.0811031330289207e+01  6.0972067672586086e+00  6.1878988621895017e+00  3.8028986212775440e+00  6.1050727680485526e+00  6.0753226429399909e+00  1.1526452326564225e+01  1.1628655602438167e+01  3.7082853639091167e+00  8.2916170683755066e+00  2.6561386187023364e+00  2.7154206032590849e+00  6.2240337322529236e+00  6.1509823176308771e+00  3.0883942335697112e+00  3.9757358067508064e+00  2.4270558323164174e-01  2.4866304941994047e-01  2.2468930307195098e-01  2.4069296208318150e-01  2.3416934151826926e-01  1.3930484773895182e+01  1.1021363659230079e+01  1.1154798455408018e+01  1.4702197884131117e+01  7.8995961829087316e+00  7.8232412112237535e+00  6.6216384079359143e+00  1.3748450444410658e+01  2.0570147132491820e-01  7.1910385562458305e+00  7.2340854979834939e+00  7.1289173246778530e+00  8.0624254047659853e+00  7.9793788250965703e+00  7.2557591187632919e-01  7.4517347191539218e-01  5.1258329677418955e+00  2.0666715697968620e+01  2.6670317786027558e+00  2.5880183721916916e+00  2.7762871459863439e+00  5.9944605046385757e-01  6.2633165903700116e-01  6.1636958353420845e-01  7.0407074552752325e-01  7.0512355359228485e-01  4.6440854970076950e+00  4.7995498149140081e+00  4.5115375486397804e+00  3.8237417119039350e+00  5.0073706205011295e+00  5.0341849332823854e+00  2.8914439599920123e+00  5.2155864546335264e+00  2.4251398596351570e+00  2.3865696899629425e+00  1.8934800995720629e+00  1.8689408820275821e+00  1.0747034810819557e+01  1.0877210124519657e+01  1.1241416785907735e+01  1.1547648445540498e+01  2.8308838443030764e+00  2.8559319936614544e+00  4.6476544836270834e+00  3.0980744469683494e+00  3.7848797778215443e-01  3.7717467220967882e-01  4.8505737663824444e-01  4.6998853241167526e-01  2.3122729341204038e+00  2.3871106141112541e+00  1.8119045718294331e+00  1.7846110050516846e+00  2.5142134694611372e+01  2.6893885020592148e+01  2.5616434240026425e+01  2.3893133467931002e-01  2.4864337251706473e-01  7.2785817502429486e+00  1.0815957178969008e+01  8.2671364250155950e+00  5.3787000918084340e+00  2.8045585860049518e+00  4.1110761454841187e+00  4.0395204287142130e+00  4.7234154100078541e+01  6.4548421882238494e-01  7.0454165655496714e-01  3.7567129315333561e+00  3.7942429583211714e+00  1.7059410079549554e+01  1.0946098608598543e+01  1.0346297395196671e+00  9.0932737881424845e+00  6.6143771186402645e+01  6.3676081686489283e+01  9.6588404102199554e+00  6.2856241084455862e+00  2.2135049732416991e+00  2.2300471958649264e+00  4.4195440108748256e+00  3.4416158583687934e-01  1.2645705281316310e+01  2.3483053998785586e-01  2.3803025794107996e-01  3.1284843765973211e+01  1.2655004453528791e+00  1.1063857525834285e+01  1.1254571240994959e+01  5.2653488667115473e+00  5.2514489421421100e+00  1.6725798133813485e+00  1.6356818766959165e+00  5.6198411235000387e+00  5.0625890871173906e+00  9.5420084454352541e+00  1.1584774983402607e+01  1.1779713694075012e+01  3.0578793795284487e-01  2.9158321565933615e-01  2.7968426482505709e-01  2.7913618415827052e-01  2.8963878102989060e+01  2.9125389986477298e+01  3.1478180212442086e+00  5.0343384360417334e+00  1.0523916806142758e+01  6.8903379428034706e+00  6.9140065088469767e+00  6.8043035655473734e+00  2.0795463996102235e+01  5.7872548556248438e+00  5.9532984576370307e+00  2.9426287066861261e+00  3.0595580355831999e+00  1.9811670302566080e+00  2.0518114768150104e+00  5.5635056907949243e-01  5.4960193159431725e-01  1.8698331638233737e-01  1.8881330847615105e-01  1.2206608079064089e-01  1.2256219813495836e+01  1.2489987545917755e+01  5.6043308835271004e+00  6.2601504226599465e+00  6.2048223947336174e+00  1.2328265924866953e+01  8.0756135680314589e+00  2.7071496160273306e+01  6.9377607808046342e+00  7.3348317420974096e-01  5.9500582212635242e+00  5.9760643945017442e+00  6.1598699115169575e+00  1.9866665019419711e+00  2.0322746450414630e+00  3.0012260502525308e+01  3.8761920938727545e-01  4.1123679779208105e-01  4.0698225043129199e-01  2.0679439745575213e+01  2.1820097077814349e+01  2.1048650416610482e+01  7.4909412638314388e+00  7.6151509925743932e+00  1.3418726012401601e+01  2.1198588880956076e-01  1.9999337933702635e-01  8.6871390969032429e+00  2.4619446776846407e-01  2.5894372977576975e+01  1.3616562792310148e+01  1.4672486052073621e+01  3.8186903386589437e+00  3.8440471374263123e+00  4.4858630079326628e-01  4.5068830154018868e-01  7.7614968960232895e+00  7.8596736018101145e+00  7.0777475976309079e+00  7.1031133317446828e+00  6.9816817933675299e+00  2.9644735020719831e-01  2.4560862955224358e-01  4.5546824343872041e+00  1.0774949820040185e+01  9.9606617950062883e+00  4.5222341132744512e+00  6.0943678370498953e+00  1.1597060076512131e+00  1.1679533785817187e+00  7.3331458160506791e-01  8.9321765896989047e-01  9.1197050756470377e-01  9.9812978381065527e+00  1.8321734972700302e+01  6.3832870114860469e+00  6.3194229176216892e+00  1.2086492706642415e-01  2.9545377809622444e+00  9.9005532914300831e-01  1.0071487175165366e+00  6.5234047615853017e+00  6.4520828123590199e+00  3.0721884262712592e+01  4.0877695878218695e+01  4.2331400110533515e+01  2.0350699655950187e+01  7.3924553291823281e-01  2.0234492639683005e+01  2.1541051530718132e+01  2.8484211880649291e-01  4.6797026402701558e+00  4.6950797396679489e+00  4.6531652377337238e+00  5.3016523281945140e+00  1.6321472355396196e+01  4.5462285653506646e-01  3.3923524826800047e+00  3.4034670532051576e+00  4.4974233187763950e+00  4.9147815584562444e+00  2.5184272882035091e-01  2.4140732860798540e+01  2.5645002288592600e+01  2.4653816458115600e+01  7.5580681340262510e+00  1.9388980732220917e-01  4.5335317370504988e+00  2.2637060340765153e+01  2.0870148769528839e+01  8.4968637982213604e+00  8.5892218440206261e+00  7.4582527640170762e+00  7.5062064288463635e+00  7.6403948160043289e-01  9.4889589985364236e+00  4.8675935197879339e+00  4.9368350319224614e+00  4.9569433403200929e+00  5.7231118169316177e+00  1.4651924801265821e+01  4.4671622122702841e+00  4.4384840435756070e+00  1.6817330954964987e+01  9.2955655036597769e+00  1.8019392996822575e+01  1.8832287426654744e+01  4.3902715490450399e+00  4.5321304779835927e+00  2.9796770342486192e+00  3.0163895831211209e+00  8.3086302541668768e+00  8.5996610230761217e+00  2.9255524385794424e-01  2.8575614276423184e-01  2.8141920526474823e-01  3.0824210535175744e-01  5.8159927941450293e+00  5.8159970996919963e+00  4.2944462928810410e+00  6.6553623460716365e+00  6.1917459753342854e+00  6.0981358808780639e+00  4.8214105244352972e+00  4.8335412640970263e+00  3.7119211804132810e+00  3.7804307610200940e+00  8.8743556525634002e+00  2.4508386646969385e-01  2.5153852770677665e-01  7.0278456572506993e+00  5.0832138332860373e+00  4.3002988221152263e+00  3.3585480526828464e+00  3.2963259337009241e+00  6.8294105816630601e-01  6.8386673761070615e-01  2.4381992603355719e+01  3.1062118586290990e+00  1.6411014862609704e+01  1.7104100047844380e+01  5.3986786760788616e+00  5.4125483259392775e+00  5.3463434411346915e+00  2.5845729827838648e-01  6.2789894265290442e+00  6.3709756223288574e+00  4.7877629464420673e-01  9.1625114916060681e+00  4.2148903068747989e+00  1.1239977844750024e+01  1.0294639878331695e+00  4.2679602762786290e-01  1.7493899237476533e+01  2.6316822636964381e+00  2.6114014466719868e+00  4.2260787823308057e+00  4.5240233550278708e+00  4.4947600268620969e+00  6.5419223022984889e+00  3.4693368134714979e+00  3.4436986983265849e+00  1.6081371334416488e+01  4.0347779529475467e+00  7.1940758607907807e+00  7.3175813823076385e+00  1.4526717467338807e+01  1.4995786606577854e+01  4.4693433939687672e+00  4.8096032314425745e+00  4.9469692542535784e+00  5.0623052979353185e+00  6.0874824840704300e-01  6.2224482875059239e-01  1.4042488896932172e+01  7.9399749294747126e+00  7.9869456492892281e+00  3.0318190597985226e+00  6.9162085557093373e+00  6.4647733966561951e+00  5.0948917320626181e+00  5.0330694424875899e+00  1.0132474862223340e+00  1.0417545809911286e+00  6.8386763151461694e-01  6.8192535356754624e-01  3.6558691287374181e+01  3.5730867014489277e+01  5.6393488411305426e-01  8.1549466912358703e-01  8.3096760675344117e-01  6.4072810601692192e+00  7.0611038971815299e-01  2.6649346113425754e-01  1.8169886206562103e-01  3.8975786427426846e+00  3.9123026154737079e+00  3.8716488996709137e+00  6.6257306379185732e-01  6.8104169030035866e-01  6.8296271669246400e-01  5.5170815852903647e+00  5.4553560164300601e+00  3.7408953911555960e+00  6.0998461942819384e+00  6.0725175155788618e+00  6.1260012268400388e+00  3.1869610335441212e+01  2.7906417298090165e+01  5.6568117905823492e+00  5.5850469372035256e+00  6.8218806832563459e+00  6.0165469787960104e+00  6.0107370930860027e+00  5.9124608252533948e+00  1.4927810752545418e+00  1.5013572872253571e+00  6.0939325782316267e+00  1.3519728281024634e+00  1.3700959704547282e+00  7.7933425753734564e+00  7.8289352067831359e+00  5.1806789338011372e+00  1.4001587638906543e+00  1.3307340469504856e+01  1.3653535746011769e+01  6.9491673618282288e+00  1.9493133355253469e+00  3.9823461582468238e+00  7.5266815559905498e-01  7.8504158559860704e-01  7.8589456411248753e+00  6.6992852709467705e+00  7.5033512820876336e+00  7.5331434301223945e+00  7.7461661866619362e+00  7.7421003978544940e+00  7.7505649221874453e+00  3.6975320434516497e+00  9.8661989967058474e+00  3.6866868000825508e+00  3.1745689414048881e+00  3.1940842322059790e+00  5.7790714033155313e+00  5.7759731411691035e+00  6.3914506804178455e+00  2.9010019449077467e+00  2.9178209973402658e+00  2.9588859391870912e+00  2.7974457279728537e+00  5.3564252309659477e-01  3.1996812772587218e+00  1.2393417975958959e+01  1.2696658647799039e+01  5.2298964842711309e+00  5.1604380679750257e+00  3.9596718185593978e+00  3.8796503882042686e+00  9.6217002968868415e-01  9.5617330551393420e-01  9.7297578380175587e-01  4.8692524597430014e+00  4.8811189654093425e+00  5.3877504871375921e+00  5.3933785941361263e+00  5.3068007615071142e+00  3.9577729592906672e+00  3.9255683575504965e+00  3.5988137222241212e+00  3.6149112675967356e+00  3.5761523697734581e+00  7.7620781845135500e+00  7.7506537400928632e+00  5.4024898979201881e+00  5.2887091493107059e+00  1.3680237096384676e+01  2.8843581573722002e+01  1.0952213233214335e+01  1.1192650203204089e+01  1.1719082975295001e+01  1.1942701041547792e+01  1.3182403493686157e+00  1.3372584616272356e+00  6.3190179707356036e+00  6.3099644432012445e+00  6.1722744404822247e+00  1.4177082612015977e+00  1.4561317452346851e+00  5.1723174998756267e+00  5.1198734449654113e+00  2.3601948783332065e+00  9.1883255359896654e-01  6.0034029759976937e+00  1.2970102788936886e+00  5.2802563145224939e+00  3.8814731373418274e+00  2.7293574147928559e+00  2.7465158106406706e+00  4.6140864170576386e+00  5.1639440265600399e+01  5.3097380056058121e+01  5.3437475788489756e+01  1.7403365815187091e+00  1.7585616895437886e+00  2.8060494290772997e+00  2.8252220048516303e+00  1.3149731865949281e+00  1.3339107707624760e+00  4.9645196088907566e+00  2.5914333611904322e-01  4.3967813335758095e+00  1.0740747693912693e+01  1.5803775134873188e+00  1.5994522064614147e+00  7.1196542128868270e+00  7.0272621289368251e+00  4.6327300540462453e+00  4.5665978056556549e+00  8.9019169814939547e-01  9.2268296221079504e-01  2.1324058116741038e+00  2.1506961501235695e+00  2.7570296108770100e+00  2.7770228642439863e+00  5.9731192041987651e+00  5.3225759721118436e+01  4.1263896160006857e+00  4.1634338738866772e+00  1.1250825338789209e+01  1.1438397302496838e+01  8.3665939435922301e+00  8.6473113319117481e+00  5.3183081496898970e+00  5.4186346121103428e+00  6.6371941117913957e+00  2.8000873465911846e-01  4.0351401863979364e+00  8.9374498162985849e-01  7.9801964585477494e+00  7.9389509778843035e+00  6.4198442916422689e+00  6.4113958675262195e+00  6.2365871879256174e+00  1.2838554281654233e+00  1.3048913622889731e+00  1.6868879116183106e+01  1.0961775044367821e+01  1.7424914861394698e+00  1.7757085073736047e+00  2.4886754524402304e+00  2.5172726846629403e+00  3.8317376652001292e+00  3.8159178486267922e+00  9.7368408078155932e-01  9.6704917468327889e-01  4.1848997711532547e+00  4.2558546343392951e+00  7.9361888062782677e+00  8.1719353513564581e+00  2.6516074647286243e+00  2.6870719382340522e+00  3.1997260547831510e+00  3.1881293080287767e+00  6.1830796076504599e+00  3.8499359790127659e+00  6.5133796167266054e+00  3.1120370827945814e+00  3.1279832364379767e+00  3.0914803833603060e+00  3.5382518137935719e+00  4.4958127248112190e+00  9.0166757829509674e+00  3.2194954208140778e+01  1.3815688366123062e+00  1.4415554273849305e+00  3.5449473784375130e+00  3.6125350870762190e+00  6.2902063446688334e+00  1.1861983019169834e+01  1.1936010924647238e+01  1.0879288606211384e+01  1.0932069045645489e+01  8.4471019276916497e+00  8.7708942937674870e+00  6.0321938564601689e+00  3.0543141165126002e+00  8.2709136248832067e+00  8.2776358781924326e+00  1.1696030067232903e+00  1.1949004724867887e+00  1.0294101553681820e+00  1.0495545419787533e+00  1.7144601904872194e+00  1.7915519850758252e+00  3.4964552483536466e+00  3.5944706989590598e+00  5.5618462164075790e+00  5.6848724815439793e+00  1.6015401561722564e+00  3.3154240531378449e+00  3.3547656647376094e+00  9.0449036990254361e-01  6.3994095532993382e+00  1.2122210038262372e+01  1.0973307831143673e+01  1.0991397823200503e+01  5.8937514652468144e+00  7.7287121505807299e-01  6.9905504477490812e+00  7.1954627579559673e+00  4.8077686953800107e+00  4.9657829369107374e+00  4.2055022742336643e+00  4.7821077087368247e+00  4.7043391013912661e+00  3.9834113136525233e+00  4.0946644918750099e+00  1.0928122611980111e+00  4.9572064678956398e+00  4.8671298305960846e+00  1.1306400277715490e+01  1.1244780091674867e+01  1.1963582057737712e+00  1.2420359105497025e+00  4.0538836231203756e+00  4.2051537130339147e+00  1.2565288558767513e+01  1.2432466319323558e+01  1.1477425384985583e+01  1.1754290837166891e+01  1.1257702288926821e+00  6.0688515053053669e+00  3.0584009806077690e+00  6.0336908772006126e+00  3.4990398062017434e+00  3.6309224122116794e+00  7.3735815915122984e+00  7.5445750297973051e+00  2.7329509266556076e+00  1.2790946334077480e+00  1.1851469580802423e+01  1.1724234906150963e+01  1.1566704839998421e+00  1.2620787843208325e+00  1.3187795500765889e+00  5.4419069949192833e+00  5.3067880524832587e+00  1.3452775907588542e+01  1.2968908118402667e+00  5.1842713449916520e+00  6.1707170509029226e+00  6.3785827338217551e+00  1.3272310606648214e+00  3.1894765233580924e+00  3.2000903676642132e+00  1.1870241829379202e+00  8.5591743709020096e-01  8.4488643879488556e+00  8.8509076624479768e+00  5.5737064216153680e+00  5.4696356203046701e+00  3.1556379323816106e+00  3.1347038379107022e+00  1.3960815640053516e+01  1.3921667959665134e+01  1.3759028297090726e+01  1.3820486633136186e+01  5.4697011467106442e+00  1.1852574901827648e+01  5.7417368262070818e+00  5.5877355966020286e+00  2.5099185141337292e+00  4.8579220726778578e+00  4.9304471948638247e+00  4.9161417332344479e+00  7.6917505366602752e+00  2.6334085365403426e-01  1.2506968922687032e+00  5.3953407067637924e+00  5.0933387228611728e+00  1.3842492965944306e+01  3.6669446227476983e+00  3.6819050783820173e+00  1.0372829801816847e+01  6.1559241884808715e+00  6.1680455692938523e+00  5.9713820013592676e+00  2.7042466653296229e+00  2.7234769373606214e+00  3.3233257508165726e+00  3.3443812263438071e+00  5.0988910162134884e+00  3.1948650619171448e+00  3.2140805456836121e+00  4.9138342327310482e+00  1.3169566289503762e+00  3.2423935733972447e+00  2.3290310269989289e+00  2.2527756660173095e+00  8.4067839939556643e-01  8.4755920858182776e-01  5.2480256894931872e+00  1.4070214409588843e+01  5.2973004481279489e+00  5.3237909712134348e+00  1.2324800329392104e+01  1.2768461990529397e+01  2.3652735776857527e+00  1.7715267379333451e+01  5.1788009875881063e+00  5.4600151966331234e-01  5.2614876335188698e-01  1.4674132699942790e+00  1.4985010959690930e+00  2.3776160515812248e+00  2.3579173091505141e+00  1.3846701816444231e+00  1.3020930649557522e+01  1.3170258663982720e+01  5.0423792109878791e+00  1.9045536399143135e+01  4.5488470781353980e+00  4.5217027773286365e+00  9.5475680130144323e+00  1.2603026819120590e+01  1.3000659586257134e+01  4.9780816206711993e+00  1.4174631026034645e+00  7.1553685411146857e+00  7.2524688795739163e+00  1.5733752131043250e+01  4.9146550763473753e+00  3.3129438219729707e+01  3.2243616036168625e+01  4.8508767828365871e+00  1.4889796435826446e+00  5.2622321770502700e-01  1.3525853437391488e+00  1.3390069527608111e+00  1.2164365585187316e+01  1.2794004385607177e+01  3.7506731935908943e+00  1.2286788540795522e+01  1.5969118397724207e+00  1.5615290956018391e+00  8.3605999489612148e-01  8.7365305022317452e-01  1.4534636576476392e+00  1.4924151233251861e+00  1.4697916903956667e+00  1.7257756496229277e+00  1.7487856449258046e+00  1.0573927716915456e+01  1.0802874404500933e+01  1.6346975490610149e+00  3.7871842179269124e+00  3.8014744854433347e+00  3.7256413003183146e+00  8.2966574114492051e+00  4.6694156067008530e+00  2.7430342345108945e+00  2.7224539253038236e+00  7.5975153467678611e+00  4.4934380238565791e-01  4.7166965663927291e-01  2.6973204433793713e-01  3.9250933273987267e+00  3.8542836637318958e+00  2.3615118990378421e+00  4.4952754987676817e+00  2.7892627470048121e+00  2.7653326200189055e+00  5.7623306227389728e+00  5.7848193876348759e+00  4.4368854276924479e+00  4.7303331129466102e+00  1.7907297715082560e+00  5.3775419213682305e+00  5.2394055722363362e+00  2.1682926610961721e+00  2.2864933293932554e+00  4.3805081399305594e+00  3.1243737995984961e+01  3.0728026834136699e+01  3.0161681461786060e+01  5.6594965167035918e+00  5.7109982743157071e+00  5.5204952728411740e+00  2.5105290862755431e-01  4.3264683306005640e+00  3.4591401812593463e+00  2.1127573119987990e+00  1.6307763446750634e+00  3.4903316295476884e+01  3.4092507783905319e+01  2.0309052378970296e+01  1.8687389549914022e+00  3.2237725547176908e+00  3.2014109787765932e+00  1.9484002916780072e+00  2.0298992145069277e+00  7.0301089398651051e-01  4.1136326410344939e+00  2.4542492849443542e+00  2.5240058293090697e+00  1.4918427104838150e+00  4.2939693681746585e+00  4.3589447005930761e+00  1.5969845709421551e+00  1.6154635919394262e+00  1.7583820795456959e+00  4.0454510507830665e+00  1.7405282547857872e+00  1.0699613717336598e+00  9.4409695851267816e-01  9.0742673722021550e-01  6.7035642114780170e-01  1.1872232695362246e+01  1.2073820404458079e+01  7.8119753301280594e+00  8.0142514669286271e+00  8.1567886142642134e+00  2.7824853349116836e+00  2.2747907135732093e+00  1.5575655473853816e+00  1.5755476473506025e+00  2.4054619985912615e+00  3.3521524205276023e+01  1.3730246439128882e+01  9.8608561992726951e-01  1.0277816975885483e+00  9.8510528781554663e-01  3.6504090082949840e+00  2.3627376000251431e+01  7.7979435332887315e+00  7.8899277911684313e+00  2.1084446692315417e+00  7.5501200710259839e+00  7.5841462970256899e+00  2.3213405049831048e+00  1.6373600886983943e+00  1.6727870298221033e+00  2.2618809263917600e-01  2.1783262237498796e-01  7.3722786769291417e+00  7.5786453647558352e+00  7.5564177852811474e+00  7.6315367927426303e+00  7.7150827944908320e+00  7.4435391901006113e+01  6.8691148776940352e+01  1.5033775159552087e+00  1.4727369738122984e+00  2.6272040274782591e+00  2.7637052117070908e+00  2.6717687103399257e+00  1.3651438011066846e+01  6.6773208613939081e+00  2.5708807960088436e+00  2.7264730541993529e+00  2.8336568636908428e+00  2.5820628484461916e+00  1.9436455208455141e+00  4.4347669324484649e+00  1.2593621775941438e+01  2.8027414084042306e+00  2.7155830569478003e+00  2.8081084117255628e+00  2.8415242914405546e+01  2.8843538744335326e+01  2.8133131287418720e+01  7.6498616723800668e+00  7.6010802017847077e+00  1.6696589273245319e+00  1.7326691654851387e+00  3.3986881834476770e+00  3.4159858690788689e+00  2.5617779376063337e+00  2.5817478729697929e+00  1.1193829958597714e+01  1.1092937395290390e+01  3.0527773769388723e+01  2.9618522457152753e+01  2.3205837192814847e+00  1.1177183510510891e+00  1.0707035173657566e+00  8.8895338125526209e+01  8.0872956438422520e+01  8.7166245904993678e-01  1.3098937845711780e+00  1.3338842994716202e+00  2.9199215143369312e+01  2.8638384925027488e+01  2.8042550398870755e+01  2.8788837290879203e+00  2.6504978688646665e+00  1.3662053810017434e+00  3.1754219184659513e+00  3.2987807711938095e+00  2.4012823332372935e+00  2.4924897946475393e+00  1.8283652203888772e+00  1.8846104043237553e+00  9.7908160210227424e-01  1.4371170501034036e+00  1.3777961413280542e+00  4.5171073056804660e+00  6.1111332048466316e-01  4.4875959486176713e+00  4.5425625418694366e+00  4.3890397907387140e+00  2.7985686314923597e-01  7.8233557459122469e+00  7.7329443433109653e+00  3.6510812591657467e+00  4.7352808127332739e+00  4.5994783280871161e+00  3.0393261235928732e+00  2.9573184916317219e+00  3.2101434426481190e+00  3.2569748590939231e+00  8.0887654924411336e+00  7.9404651001902682e+00  1.1563801302032005e+01  1.1806879559180615e+01  1.7951531516929848e+00  1.8215068414253546e+00  1.1149582052434752e+01  1.1347414901819789e+01  1.2020286417778200e+01  6.1901542817793498e+00  6.2844838261241271e+00  2.6676182353128791e+01  2.7396629340192810e+01  2.6614224521729799e+01  5.1810335564312471e+00  5.0204234427044536e+00  4.8707185122953591e+00  1.3368043470979989e+01  1.3560991354912238e+01  1.0841676127613201e+01  1.0980560060741697e+01  5.3396303978063564e+00  5.1728197725342318e+00  3.4124179750388790e+00  3.4161063394693234e+00  1.1457449924933243e+01  2.8154681964484358e+00  2.3567055003616666e+01  4.6652217842606598e+00  4.7007218609119690e+00  1.9578253164670616e+00  1.9891702665198401e+00  1.0638577162342287e+01  1.0723325001649544e+01  4.6260789752028453e+00  1.5049143256918838e+00  1.4830652546223930e+00  3.1933742468485256e+01  1.2293181828289027e+01  3.6612435251794606e+00  3.5343967222778310e+00  3.0944396862573877e+00  2.5825155196392739e+01  2.4917198187666703e+01  2.4507879685747117e+01  2.3383078558540298e+01  5.7344800298735965e+00  1.0528231552861406e+01  1.0557825674303579e+01  1.0505339528063930e+01  1.0502025687398993e+01  3.1259596419720950e+00  1.0721277925840527e+01  1.0613710645950455e+01  1.9209109320851013e+01  1.8428662698832760e+01  1.4317511808497681e+01  1.0928336556275820e+01  2.4157477242964472e+01  2.3320013280529928e+01  2.6908482786785623e+01  2.6318572917051686e+01  2.5669963284000122e+01  9.2332822858632717e+00  1.5835945014297113e+01  3.5821423113978841e+00  3.6216781780581453e+00  1.1079804776444668e+01  1.0891097913092967e+01  3.4028765979507054e+00  4.7763875113252894e+00  8.6695026740503900e-01  9.0859332139238080e-01  3.9462171892463322e+00  3.7990869248966277e+00  2.6474299949677378e+00  2.7455132400879654e+00  2.6145446126835137e+00  1.1539873821205930e+01  1.1263816360844078e+01  2.2502161751130064e+01  2.1659772868073119e+01  2.0834852630547086e+01  2.0005595922196758e+01  1.2163409493987213e+01  1.1845659467722793e+01  1.4187777835226491e+01  1.3062544953471948e+01  1.3997201539360136e+01  1.3493888900634765e+01  4.0868396324228673e+00  4.5979565715384769e+00  1.3002408897080787e+01  1.2552583330065024e+01  4.1652782479387307e+00  3.1798357833332553e+00  5.0666494077980335e+00  1.0978054072254837e+01  1.1651601351405800e+01  6.9924462564911116e-01  6.8110630254025484e-01  1.4320826414468831e+01  5.0560689045402318e+00  4.2644406647820690e+00  4.1001023095851812e+00  2.2154862392871514e+01  2.1463898586274791e+01  2.0975843197321591e+01  3.5729746706002428e+00  2.5716732949233285e+00  2.6470130623509291e+00  8.5919003720732725e+00  1.3584787893993244e+01  1.3297684934733335e+01  4.6313253603823483e+00  4.5757382580664485e+00  4.4389555257113296e+00  3.9703530305286949e+00  6.6421205877937712e+00  6.6245689434751478e+00  1.4654801950063511e+01  1.4473555992224993e+01  1.0624251216368590e+01  1.0496495939364177e+01  1.4759660105568216e+01  1.5660924335832291e+01  1.5387154741358136e+01  1.4373520454831329e+01  1.5132806463060007e+01  1.4881531697359316e+01  1.9117685160838493e+00  4.6948682247530291e+00  3.8086360408412050e+00  3.9305444417181392e+00  3.7464787340414767e+00  1.7505030701034670e+01  1.6398736814542882e+01  7.6263458304770337e-01  7.5662687244942806e-01  5.0434597678529327e+00  4.9770914368703885e+00  4.8234095517072477e+00  1.6556987197911202e+01  1.6143515234693460e+01  1.9784856399798848e+01  1.8590118387785928e+01  5.5191097552291053e+00  5.2773612961251164e+00  1.5383280102095203e+01  1.4407887896697135e+01  1.5874936746028851e+01  1.7244222245883886e+01  1.6893204541596170e+01  4.2205720112315754e+00  4.3630389380125880e+00  4.1371551256204739e+00  2.5861137943367249e+00  1.3505683771485284e+01  1.2664823134178858e+01  1.3042605041730722e+00  6.0786293953894832e+00  5.8023696670068023e+00  1.1892735384083947e+01  1.1460884260640469e+01  1.1178757249931893e+01  6.7237764438804302e+00  6.3883369104130807e+00  4.8187328396203739e+00  4.5849224028884636e+00  7.4650962974683983e+00  7.0751820138578756e+00  1.0494253581570712e+01  9.9003708603263210e+00  9.3072959351159064e+00  9.0611315686529359e+00  8.8138081090597336e+00  8.3326180956092184e+00  8.0649872370887312e+00  7.8795824569902475e+00  4.6878583633077904e+00  1.2249760839671403e+01  1.2253452023191748e+01  1.9229722504419069e+01  5.1990285653148778e+00  5.3835838298105587e+00  5.0990590508462006e+00  9.1411071927891030e-01  4.0535270997255362e+00  5.8168077428918457e+00  6.0022761436723258e+00  5.6637414250487303e+00  2.3351696811220743e+00  2.4289850877819843e+00  2.3268612411705978e+00  2.3501546559007820e+00  1.4655571073990863e+01  2.5194449038566230e+01  8.0249731047846140e+00  6.7132095016545072e+00  6.3650644225782536e+00  1.0126160496435379e+01  1.0326759440734122e+01  4.9544603205003179e+00  7.7615858289030184e+00  1.5217720367046816e+01  7.1068575880462088e+00  1.8202953051557103e+01  3.3611752929571566e+01  1.4024770750130024e+01  8.5955300673592081e+00  1.6862847152132471e+01  2.9067746026139783e+01  2.0562140711032708e+01  1.8017730062436435e+01  3.7861116725058624e-01  1.1598527150066591e+00  1.3048455284140912e+01  1.1007443079937902e+01  7.9435395248347564e+00  2.2185925402392957e+01  9.7138421227751071e+00  9.7608476574850300e+00  8.0619321860134718e+00  8.1289170046885388e+00  8.7848590459070728e+00  1.3065843198645799e+01  8.2620243752272451e+00  1.1615388529707149e+00  2.9022730817658565e-01  8.4157500841336486e+00  8.0618210942315311e+00  4.1510391653673487e+01  2.2474550349825371e+01  2.1879540986429763e+01  1.1038153465786394e+01  4.2919603836818174e+00  6.8392152036867611e+00  2.1900833980782584e+00  2.2900140696630224e+01  3.1871562227979705e+01  2.3716147650772854e+01  6.1940383158718033e+00  4.2821366202765793e-01  1.2071461204506743e+01  1.2386096129259483e+01  1.2267349600227728e+01  9.4122611918753163e-01  9.0519576278691560e-01  7.9088483087568990e+00  6.2625836524240528e+00  1.0972556868463581e+01  1.0974057675887769e+01  1.5081467528385943e+00  3.4477146226708562e+00  8.2496950066871815e+00  4.3824201927948758e+00  3.4974568566411426e+00  4.9370148401010852e+00  4.7350022692513694e+00  3.4245590052456298e-01  3.6299090184184629e-01  9.4074129076671991e+00  2.6113607015638953e+00  1.0134413854609672e+01  4.5034409599298950e+00  4.6134096488161038e+00  9.6428254232491339e-01  9.8171068074381185e-01  9.4919966662713640e-01  7.6360185538120158e+00  7.5804593123912385e+00  7.9712799436635151e-01  4.8638070987318528e+01  4.6649042352070808e+01  2.5622775511379764e-01  5.6777424922696422e+00  7.9861334458332331e+00  5.0245714548470213e+00  8.1727080607860603e-01  2.8351616263973032e+00  2.8173361171877542e+00  3.8174106740755431e+00  3.8029093029162286e+00  3.6621139495199500e+00  3.5429470843196982e+00  3.5805484517518149e+00  2.4922167337342827e+00  3.2597913236406018e+00  7.3021990730907604e-01  7.9189428992687150e+00  7.0594249380872398e+00  4.1098640474427226e+00  1.6595815605215233e+01  1.5883607228170629e+01  4.3333200468748861e-01  7.3418324346429946e+00  9.3314665169947730e+00  2.9577922921668818e+00  7.2546339584501029e-01  1.5648721577604348e+00  1.5994876820745787e+00  1.5797552744135304e+00  1.2583206052533495e+00  7.5863143596811398e+00  4.1168960663161842e+00  3.3670945374375871e+00  3.6872429963462283e-01  3.5666224773510957e-01  3.9631994742130637e+01  1.0587198523826629e+00  3.2526465312012611e+00  1.0555581261583370e+01  6.7499112907910703e+00  8.6720949233844835e-01  1.1517183846863244e+00  4.3741066989835318e+01  1.1822610853338606e+01  1.6926887377042155e-01  6.8277972738337747e+00  6.9538960681149682e+00  4.9999130078850103e+00  5.0452663218749931e+00  8.6751216252617436e+00  8.5570509560094106e+00  1.2116036397838229e+01  1.3593673569761499e+01  6.6065068501845392e+00  8.1017339249705724e+00  8.2968694386904538e+00  9.3934865964304670e-01  9.4067697738859124e-01  9.2811143967823928e-01  9.2829218522572321e-01  3.8061209838732357e+00  5.3149334813026465e+00  5.3607157435583979e+00  5.5146165181732796e+00  5.5676306710963699e+00  3.4113963991153384e+00  6.6039016295795028e+00  1.4491836887875842e+00  8.1556149435391294e+00  1.4354212514532250e+01  1.3579876718599767e+01  2.5343615513184088e+00  1.7649652284470185e+00  4.1162210588073593e+00  4.0923842177663223e+00  4.3671590269083636e+00  1.3425666541170980e+01  1.0122023246404797e+01  1.5627105988915007e+00  2.3896574162951026e+01  3.0343911388769534e-01  3.1190708685549595e-01  3.0552747264048991e-01  3.0667068641991951e-01  8.5691721299574175e-01  8.2496156555799569e+00  1.3344187701003646e+01  1.3376489531840807e+01  5.5662587341926688e+00  5.6069413859655901e+00  1.1169462441558422e+00  1.1337496037413766e+00  1.1243433929409724e+01  1.1139742008443370e+01  5.8360812997349134e+00  5.7648031720705637e+00  3.5355639107309105e+00  1.0108433619222152e+00  1.0135224661925006e+00  2.8358596724571328e+01  6.7910056300122452e+00  2.7834944053102655e+00  2.6838561866506501e+00  5.3658406286263141e+00  2.7289074543485596e+00  1.5978476781820721e+00  1.6341405990922349e+00  1.1046027680234902e+01  1.0976048573802366e+01  4.3518448208029357e+00  8.7826989482254501e+00  8.9387290582282173e+00  8.8744419590447219e+00  8.4343117832976866e-01  3.1290698955542831e+00  3.0221560966764174e+00  1.6185050896327113e+00  2.7155590774805627e-01  2.8828878244863784e+01  2.8858804838776368e+01  1.6550874844127565e+00  1.6451136465755334e+00  4.6550515604335247e+00  4.8657136882843147e+01  5.4129446024910578e+01  7.7159733746483283e-01  7.7781297819462702e-01  7.6907345332181265e-01  2.5840575566927960e+01  3.0360816618888715e+00  8.6163489575865100e+00  6.3800364164552761e+01  6.0216824773514944e+01  6.4452521699249399e+00  6.3994902712302579e+00  1.7766133361223297e+00  3.8382406496487960e+00  1.2546606478615036e+01  1.8031230724731440e+00  2.6237449381664845e+01  2.9399318089316466e+00  2.3563950004667178e+00  7.2461257867103495e+00  7.2920992161466636e+00  6.6790068699045415e+00  3.6362501985199054e+00  3.6194545820792352e+00  2.2675135094023592e+01  7.3144273742481589e+00  1.9114817259676414e+01  1.9654413042251175e+01  6.9819837037247892e+00  4.5010716878236540e-01  1.3055434855844592e+01  4.0176934327715935e-01  2.6162254395785105e+00  3.0020214549461405e-01  2.5426000887037254e+00  4.2465471638282189e+01  3.4793503492242461e+00  1.3178033602694834e+01  3.3771222053715420e+00  1.2886026990113484e+01  6.3543562905074786e+00  2.0718985700135690e+01  2.3059778284122663e+00  2.8092638436611416e+01  8.5178677232923548e+00  7.5973461687899224e-01  1.8393057846400186e+01  1.8509305065197751e+01  4.6594746968443763e+00  7.8729593167463960e+00  9.3093733726581576e+00  6.0498935726522394e+00  7.0262048244628961e-01  1.4939910781899752e+00  1.4595637991715602e+00  3.1470797676105144e+00  2.3447535283488805e+00  4.1710943431182951e-01  4.8982354343512888e+00  1.0033194049872254e+00  9.5830794707896116e-01  1.1145597683866717e+01  1.2131974349313572e+00  1.1277974351172815e+00  9.1247855358524532e+00  1.2325577315218646e-01  5.8226594279190209e+00  5.9119429722724828e+00  1.4684187944537991e+01  3.4288495215119461e+00  3.3421302940187063e+00  2.8727825573680610e+00  2.8534782948799187e+00  7.2006441072446614e-01  6.8292314184794400e-01  1.6367943157036711e+00  1.6538076896612954e+00  7.0833870905266929e+00  7.1588377052507566e+00  5.5454513584879237e+00  2.1705546097094999e+00  1.1575301146916042e+01  3.7827476522220937e+00  8.0251906331769760e+00  8.1307123945137256e+00  1.1302234143544084e+01  3.5803461556806981e-01  3.4262947747268035e-01  1.1821103353152907e+01  1.1653865306412063e+01  4.9319326013219555e+00  4.9208319773355340e+00  5.7938960382407503e+00  1.2393738816229309e+01  1.8929594921370960e+01  9.8792457272738610e-01  7.0454519621210165e+00  5.5278557488257594e+00  5.9766279900730330e+00  6.5971142221676713e+00  6.5527123351092111e+00  3.4141401220423873e-01  3.6438827409044988e-01  2.6041525135194648e+00  1.9339131774683775e+00  1.8977831204263285e+00  4.1033312437397580e+00  2.6215932118706375e-01  8.1858567505361624e+00  2.6222434600719398e+00  2.6078811825343053e+00  4.4130849842330724e+00  4.3505997754771224e+00  1.9843109300144246e+00  2.0055286251464772e+00  1.3934334361953592e+01  2.9437599081087624e+00  7.8441692605848106e+00  8.1014798138174609e+00  1.2063410101013034e+01  1.9389096776276156e+00  5.0234183093262006e+00  4.9768280358473094e+00  8.2455406763959473e+00  1.0935786432745529e+01  8.7383378573819126e-01  4.9644490941828977e+01  1.1958130045628486e+01  8.5507672830653392e-01  1.5011342823815525e+01  5.3016158131997371e-01  5.5419037344984556e-01  2.2350871743588110e+00  5.2312567538210102e+00  1.1952963418603561e+01  1.1672206470499228e+01  1.6743465003162732e+00  5.5737848904579632e+00  5.4688664970052701e+00  1.1115222815158477e+01  1.1041169255920909e+01  3.6914549596631812e+00  3.3312423027651570e+00  3.9090013900543319e+00  7.7243311872312492e-01  9.7333821616568095e-01  9.9921786995053785e-01  9.9114970017325121e-01  2.9379930166575718e+00  3.4931209476414566e+00  9.3830242384329432e-01  9.5934859167361208e-01  6.7680477961849874e+00  6.6750730051964602e-01  1.1859883746471439e+01  1.2022215646925332e+01  1.4092309131806898e+01  1.3981930731240888e+01  3.7127289832783122e-01  2.2231247525798523e+01  2.0997188918835658e+01  2.8916907594070022e+01  3.0918974354843702e+00  3.1277470296908163e+00  3.7536993856812715e+00  9.4737973654392860e-01  9.4415516170660096e-01  5.9067688391969773e+00  5.8173950678895228e+00  6.0950961016068925e+00  6.2444121003020570e+00  6.0831980039271478e+00  1.0140128431724444e+01  1.0232979551000629e+01  6.6081510363532436e-01  6.3574554170954367e-01  4.3317215719335005e+00  7.5524903704061686e-01  7.7528824447320166e-01  7.4041958444108424e-01  8.0723537840040613e+00  9.9430629977147529e+00  4.9786065239011750e+00  7.1688043274037740e+00  7.0583176506175072e+00  8.2292560556565686e+00  8.1488607243550675e+00  1.3416151593040837e+01  1.3690336435745596e+01  3.5210153436914085e+00  1.1313365929675248e+01  1.1937921300720499e+01  3.3520202188709116e+00  5.0692990267404558e-01  2.6326953194769057e+01  2.7669022326853806e+01  3.3277747185841742e+00  6.5761754701412150e+00  4.4487589273034587e+01  5.1454275394197158e+00  8.1486107187061823e+00  8.2376047698003365e+00  8.0184270909516342e-01  1.0659151796959241e+00  1.1001590115257807e+00  7.4746498453834924e+00  4.7891322316548299e+00  5.7134551696270904e+01  5.4530830807847785e+01  2.6798142313726252e+01  6.9185862019647670e+00  4.2028175262493654e+00  9.8576639023046131e-01  3.1034039218751730e+01  3.1243833668045113e+01  3.0246244658353412e+01  9.1214387280819267e+00  7.7608762764040033e+00  4.2594660236108517e+00  8.1608849861166757e+00  9.4807125177983398e+00  3.7277904113515092e+01  1.4062928508720026e+01  8.6548197597421691e+01  7.9991536577288516e+00  5.5988047343236460e+01  1.3252530828047893e+00  1.3463050109848000e+00  4.1924036600132784e+00  4.1754094352969195e+00  2.8620556890249662e+00  2.9112446289314660e+00  7.2417496295247663e-01  5.6932100006126998e+00  5.8854001707217609e+00  7.5061088841057018e+00  7.5522955019711331e+00  5.9073530331051325e+00  5.8910724459479580e+00  2.8642704953633324e+01  2.6142340350361243e-01  5.1775050102002007e+00  2.0582968130595944e+01  2.4373675620540487e+00  1.9836813710400369e-01  7.4010304019102762e+00  4.2192803222453303e+00  4.2323260698811396e+00  1.0719527612488672e+01  4.4754148756644163e+00  1.4001162651388801e+01  1.3868937108318184e+01  4.5731332249687107e+00  1.3815450834458065e+00  1.3969197116038674e+00  6.5992325239112342e+00  2.8436051899015435e+00  3.9335504676214669e+01  3.3939193564447400e+01  2.7900023994777445e+00  2.8071913708702869e+00  2.7847380175453291e+00  6.6995972408639890e+00  1.3196419076616742e+01  1.2764817516682347e+01  1.1615046581308127e+01  1.1587256208481698e+00  1.4995111877929988e+01  1.4496579344575013e+01  1.4057361350403511e+01  6.8405828959665129e+00  1.0878779728845366e+01  1.0626134165382176e+01  2.5518866724588662e-01  1.5129385960367912e+00  1.5015779961808353e+00  2.8079090860714842e+00  2.7816713821036023e+00  2.8307805657532152e+00  2.7208605446196032e+01  2.1203927431125353e+00  8.8870598361158126e-01  4.4918974699683332e+01  5.5460165264459826e-01  6.1314790277590783e+00  5.9320012178939754e+00  4.1152639084361926e+00  6.1806388068308173e+00  6.2127648740874326e+00  2.6542388505066166e+00  8.1873056017439456e+00  3.9843725324895480e+00  4.0034155331429506e+00  6.5018253265869683e+00  1.0065969056022841e+01  2.5608070946791599e+01  6.3225322579114973e+00  2.1621455995184373e+00  2.6515499808191723e+01  2.7308669732668541e+01  1.6632577582591823e+00  1.2459593451530203e+01  1.2597138729794468e+01  1.2742496313363276e+01  4.2028566418212030e+00  4.2423845837440464e+00  5.8785432330183407e-01  2.3447168799479315e-01  1.2104913510210826e+00  3.2464935182891308e+00  3.3706068374576206e+00  3.8798670953092191e+00  1.5363566166776373e+01  1.5549865753908163e+01  3.3175316039968936e+00  3.2183522962182964e+00  6.0024482777450476e+00  1.2065804541841478e+00  5.5840107603878575e-01  5.9048360574363814e+00  2.4522964229359863e+00  2.5932132183087095e+01  2.4762973333218376e+01  2.1964414436774582e+01  5.2663491831091125e-01  2.8286271636220981e+00  2.8266068491475087e+00  1.1180507738708906e+01  3.3218254067162798e+00  4.5360891269864423e+00  4.5752621332539016e+00  3.5290719249159443e+00  4.5057183501221107e+00  1.3156613498697663e+01  3.4453487135021512e+00  3.9664473628560803e+00  3.9940597434434348e+00  1.5694956177783914e+00  1.6395602372894047e+00  1.2713749169410254e-01  8.8747849941098540e+00  3.8956431494514656e+00  3.9082368033901824e+00  3.3649114600611503e+00  3.3813097120908928e+00  8.6092614717558238e+00  3.4253202827940750e+00  3.4385861939011138e+00  3.9956296080562370e+00  4.7791536182052869e+00  2.7237931583587267e+00  2.5837506033342712e+00  2.8585266199933324e-01  5.7512754810521685e+00  1.3491006048405039e+01  1.3574272805447043e+01  5.7649190564194592e+00  2.6519559823769495e-01  1.6583147869182526e+00  5.8508798259996135e+00  1.3684002326494824e+01  1.3402520964241547e+00  3.0859365325860777e+00  2.9558397882032041e+00  5.5736395796181046e+00  2.4502249591506002e+00  5.4999847087371174e+00  4.6077727605432194e+01  4.5321001251211669e+01  6.1110936854305926e+00  3.9670169114128315e+00  2.5386069451262303e+00  2.5217557370947685e+00  5.1542511023563575e+00  5.2156989388174404e+00  3.6783401531777904e+00  3.6541342504811287e+00  3.3083259363317827e+00  1.5325038165649790e+01  2.0614364316439193e+00  3.3958417240599523e+00  5.3675404204829391e+00  1.7794871785912965e+00  1.7325822048485833e+00  4.1918056843943212e+00  1.5288324326463334e+00  1.0956774745988751e+00  2.9284848724223713e+00  3.4926976602972957e+00  1.3194550466897232e+01  5.0273492952480925e-01  6.2512999073017079e+00  2.1370874740289176e+00  1.8163862055897337e+00  1.0341214033276021e+00  1.6759312119741061e+00  6.1181901760335391e+00  1.4994129651591674e+00  1.4934043439724116e+00  4.1097411371420458e+00  3.4635271180578897e+00  7.9456313353139887e+00  4.2171995549876357e+01  1.2608455190812007e+00  1.0768868042129940e+00  1.7513776063721520e+00  9.6434307987800292e+00  7.1510325045707956e+00  1.2478043159366047e+01  3.8255149080952275e+00  3.8992138272355774e+00  8.3011142895249979e+00  1.0743059820099058e+01  1.8741414423570899e+00  1.8857366038595225e+00  1.3787987864084714e+00  3.5610949860996128e+00  3.4968633106500810e+00  2.7022397646746432e+00  4.5958374624351483e+00  6.4174961415083924e+00  4.5670102676220230e+00  5.3744875256631701e+00  6.4820265195211091e+00  5.1720187690000827e+00  1.4125569910895125e+01  1.3827684638585174e+01  6.4776384905560151e+00  6.4768543273577999e+00  2.9072316998442307e+01  2.7949572416547643e+00  2.7669056234042322e+00  3.1183475657218633e+01  8.3143448232769952e+00  5.0631948547107598e+01  5.0086859527056070e+01  8.7765089854128142e+00  4.6616044408626891e+00  4.7256330713552606e+00  1.2007833690446809e+01  2.5455308820993694e+00  8.9724393181608395e+00  8.9245317805186684e+00  4.6007165060254689e+00  4.3591248627522248e+00  4.4269931580862654e+00  7.7006306596258722e-01  3.5112843306633028e+00  8.6780034849512671e+00  8.8399259078161272e+00  4.7624577959260348e+00  3.9089203129733332e+00  1.0665430367696647e+01  3.7692231016571141e+00  5.7312621564251785e+01  6.8380969505166959e+01  5.3049728494617092e+00  5.1614967346496865e+00  2.7862274363244257e+00  4.4893053814742823e+00  7.2938184188860644e-01  2.8366959686990989e+00  1.1518904027685744e+01  9.4242476171682465e-01  4.7247644374106033e+00  3.8141327741397286e+00  5.0597264538470618e+01  1.3236000556609901e+00  2.4800577474936262e+01  2.3737327928402198e+01  2.7822747848817162e+00  1.0998206531789092e+01  6.4113668517607705e+00  3.6409291342316857e-01  1.9412328355938659e+01  6.0449457263127080e+00  3.7313581697633142e+00  1.1171153626756100e+01  4.0065462719223310e+00  9.2596736867080001e+00  7.1897294800661440e+00  7.5261663586660026e+00  3.7209588091904484e+00  4.0826266544255141e+00  5.9230981221876213e+00  5.9961639045730513e+00  4.7800634056541336e+00  1.6854079082753752e+00  1.7115422351069525e+00  1.2882152069310937e+00  9.6816833450148643e+00  5.8051897322673636e+00  6.7218773018491786e+00  6.5225657058215543e+00  4.9632720602671361e+00  4.9952796056503157e+00  7.3690999165326092e+00  5.1402958617101229e+00  1.7124214542597309e+00  9.2128753697899457e-01  4.9434558491982855e-01  4.9340354255285829e-01  4.7173686296446427e-01  6.5675671478947555e+00  4.0202532492445373e+00  2.8056607171480006e+00  2.8418496209555935e+00  3.8199039796682923e+00  3.2768117097466396e+00  3.3002834747890031e+00  6.3404392144217576e+00  7.9930430431180861e+00  2.1245577361065466e+00  3.4275551854194077e+01  3.7505565921405823e+00  7.5075190640513663e+00  7.4651848476049718e+00  1.7930930236239215e+00  2.7656204558690498e+00  2.8408949771908407e+00  2.6958923703699154e+00  2.4805928554510817e+01  1.4621700721315933e+00  1.4754626767235126e+00  6.0080851944237192e+00  6.0770990071077362e+00  3.6304733669764649e-01  2.5507545049098134e+01  5.2072618803160182e+00  5.4183823808861034e+00  6.4380004252110172e+00  6.3538909192454511e+00  1.2693872914614295e+00  2.5272273484376873e-01  2.1447469550549738e+00  1.3703668370189922e+01  1.3473401193713208e+00  3.4980142712163484e+00  3.5131481970931278e+00  1.5103632165140408e+00  1.3769459573467351e+00  1.4150418731092089e+00  1.6791347054411019e+00  4.8613428352763605e-01  2.1910975111629747e+00  4.0583758453806524e+00  1.1579546422330415e+01  3.0746683171320538e-01  1.5182778953448295e+00  1.4431005119726437e+00  1.2211392093146776e+00  1.1332942554414643e+01  1.1107183257496482e+01  3.2381837071361370e+00  9.5568671856027676e-01  4.3041213441915884e+00  2.2754359484342328e+00  1.4823212164250100e+01  1.4379220782584561e+01  7.8303357419221076e+00  7.8898524613008965e+00  6.1856008546244583e+00  6.0047521723863131e+00  1.1503083996986763e+00  1.1664127910034459e+00  1.3402963201367058e+01  2.2028398384549543e+00  6.6938860938049531e+00  8.2194004863262169e+00  8.3661746437742579e+00  3.2141143778157350e+01  3.2216508101147032e+00  2.5445372103153967e+00  2.6439510575893141e+00  1.1067349239468657e+01  3.9871092692918291e+00  5.0948783076242581e+00  2.9050158442751424e+00  3.2597484988578201e-01  1.3545384064551944e+00  3.5387491493171724e-01  3.3431053532539967e-01  1.5430314788511573e+01  2.5410420790734403e+00  2.5756630820132438e+00  5.0261202590414271e+00  3.2257852182028750e+00  1.0724318768440449e+01  1.0677648491734312e+01  7.2501750900640927e+00  1.4108925075655490e+00  4.8087948101135733e+00  4.8747668773173922e+00  1.9808960178568364e+00  1.9561202924040613e+00  1.1271197322187225e+00  1.1023580075579509e+00  1.0962589274697840e+00  2.0886370787981559e+01  6.3564325227932459e+00  1.9779723042996523e+01  2.4878551389272499e+00  2.4907707295364667e+00  2.5111821831064884e+00  1.8512383289632614e-01  9.4005676944672825e+00  4.7064924666692329e+00  4.7494769458443429e+00  5.3692198099604171e+00  5.3800770089390637e+00  1.1108741428224566e+02  9.7773497971447654e+01  2.0472175547156766e+01  2.1594616738593057e+01  2.4839381969516847e-01  1.3245731659884159e+01  1.3410721666102095e+01  7.7268517159740867e+01  2.9096946174151455e+01  8.3706879440794708e+00  8.2307382868930965e+00  4.7483446572805749e-01  4.8148537938107339e-01  1.6914297842613206e+00  1.7106351391651415e+00  9.9036300291523869e+00  3.2123421459509736e+00  1.9037593769760790e+00  1.9051531329618228e+00  5.6197015707168472e+00  3.2457525712593749e+00  2.5635287913130127e+00  1.3714463214717348e+01  1.3601378319519243e+01  1.1449456532947606e+00  3.2114120823835361e+00  1.8292751655477879e+00  1.8469304158864988e+00  2.5915475698575490e+00  2.5439097440010303e+00  9.3050994933329334e-01  9.7161510992442590e-01  3.4719740484696731e+00  2.5919926778125841e+00  3.9934436245220644e+00  4.0067775985741818e+00  3.9827086267943761e+00  1.8405178427096276e+00  7.4631335271419426e+00  3.1975457984557125e+00  3.3025669593722391e+00  3.1697325449703402e+00  4.6059203471950752e+01  2.2167968832274223e+00  2.1583952364587571e+00  1.9417089108416445e+01  1.8574378986425035e+01  7.4962558155640853e+00  1.2419666336012736e+00  1.5455935175205571e+00  1.5265004429316142e+00  5.3876747353665628e+00  5.3876831547616932e+00  3.5097839061858709e+00  1.9893797986327542e+01  4.2830348899580510e+00  4.3250096800003925e+00  2.6971303748641500e+00  2.7257288071131982e+00  1.7438492636414946e+00  1.5507695639349318e+01  2.1412061484524720e+01  6.7171709510610955e-01  6.5308246309428331e-01  6.0034412305135154e+00  4.3084712065044979e+00  4.3164501394566352e+00  1.0920688611638818e+01  1.1075629030882004e+01  1.1029734394321505e+01  7.3585636925611020e-01  1.0981560139616926e+01  1.1171401615074533e+01  4.5457130540861899e+00  1.1465156239640132e+01  1.1632796175968712e+01  9.4328099780469721e+00  1.3351506240653462e+01  1.3362520773994431e+01  1.3483513844244065e+01  2.4633699318408553e+00  1.0637541875729820e+01  2.9511595359462744e-01  3.0831897848732553e-01  2.6149624657048163e+00  2.6396750685302441e+00  7.2235125044219017e-01  8.5549873786493666e+00  3.4087658658021245e+00  3.3005454008733879e+00  3.7897695739257560e+00  3.6987798328945813e+00  3.6878279350687153e+00  5.1580230305336636e+00  6.5274412715884953e+00  6.6134880892661272e+00  4.8815294648875103e+00  2.2032505053321345e+00  3.6879668058079154e+00  3.5468886740432413e+00  2.2229392742407930e+00  8.3591859092831271e+00  2.1393137470834063e+00  2.1124347364989213e+00  2.1210783581835764e+00  6.5609090042955520e+00  1.0584539909018664e+01  1.0780737290557432e+00  1.6095160556958172e+00  3.6047821367153219e+00  3.5826989965014318e+00  6.6229065769879081e-01  3.5603989193569041e+00  1.2016196461880952e+00  9.6432833056902147e+00  8.8886593980584951e+00  8.8385120457523119e+00  8.7182336677736760e+00  6.9713857639042986e+00  7.0583039797644265e+00  6.9951786961005853e+00  1.0900243824379217e+01  3.2544080818697818e-01  3.3631094612814671e-01  1.3360402463835399e+01  3.9910489665324351e+00  1.4128639676826773e+00  1.4307044214684550e+00  1.7187277823709799e+00  1.9302371295350749e+00  5.7267973181528102e+00  8.8681664404324512e-01  8.7279198303537808e-01  3.5809339421364981e+00  8.0333354962508583e+00  7.9020557782486502e+00  1.0709501765748865e+01  6.0036912087451890e+00  1.8608316790077720e+02  1.7316972960784153e+02  4.5757836528206752e+00  6.0991384872588039e+00  4.1470027635163662e+00  7.3749264296794970e-01  7.4125939524397177e-01  2.2585740812940479e+01  2.5625592743031218e+00  1.5809830029153586e+00  8.2985512124796723e-01  8.2856577187609914e-01  4.3624179508995375e+01  5.9339658203442127e+00  7.5687857856630139e+00  2.5933840677181558e-01  7.6484005875204009e-01  1.1920768638607042e+01  2.3889147460300344e+00  2.3966044912036892e+00  3.2859310707372384e+00  3.3242324631273270e+00  9.4327511927693379e+00  2.2600617158966177e+01  1.3182058506346319e+00  2.7656839563590614e+00  2.7822734492158392e+00  2.7587797350592966e+00  4.8530055694191496e+00  4.9151936190469669e+00  4.4222288865789094e+00  9.2233937583105052e-01  3.8615881647178223e+00  3.9024188208314237e+00  1.1341717127800052e+01  4.9337121258892163e+00  4.8998722995564954e+00  1.5043065125391342e+01  8.1834279467642201e-01  5.1539636385122378e+00  1.7694290398336904e+01  2.7760926213254198e+01  3.4800123938587273e+00  2.8154411382026967e+00  2.8328647598428955e+00  1.0048443228781174e+00  3.3083185655453140e+00  3.3806506692746696e+00  6.5059730609540098e+00  2.3055462642396853e+00  2.2868520518583582e+00  3.9177798423372403e+00  3.7852304585869401e-01  3.4933099950864460e-01  1.2869348065587777e+01  5.3329585091873986e+00  5.2965325513389612e+00  1.0840403373525278e+00  2.5814868604588263e+01  9.8779396722245816e-01  3.7104204844419479e+00  4.1917796680809882e+00  1.5084359883881975e+00  3.2507928467388387e+00  3.2692463270857304e+00  1.8521975769154477e+00  9.4106557215198734e+00  3.5387944619608027e+00  3.7254548952866609e+00  7.4435103259398421e+00  7.3499611695262956e+00  9.1827933251435994e+00  3.4125446588484709e+00  3.4258385965492009e+00  2.2382189610138212e+00  6.9329036726096787e+00  7.3167950479902251e+00  3.0015394610574684e+00  3.0233319345817420e+00  1.1504963107315040e+01  4.4833788010993745e+00  4.5531056662279310e+00  4.0702927569103000e+00  4.0945494905870552e+00  1.5163976629364905e+01  1.5987181230902538e+01  4.5290225537615472e+00  4.9028890902119526e+00  6.4141038088513624e-01  1.1242783405625332e+00  1.1370065528530189e+00  4.1780651355145819e+00  4.2057686266919632e+00  6.2429457625776257e+00  6.1241500729086997e+00  5.4844640351379192e+00  5.4458038874670356e+00  7.5768405191093304e+00  2.8127390140334835e-01  5.5751905687264784e+00  5.4776935641775450e+00  7.2420540414247003e-01  5.6012669394513432e+00  5.6587887591354971e+00  4.1575255780962053e+00  8.0298045818395547e+00  2.0734580424224593e+00  1.1079242273485340e+01  6.3405806562594103e-01  2.4385718083075658e+00  3.2330668468698183e+00  2.6746381413437458e+01  3.1118276014795899e+01  1.3301344067834604e+01  1.0318311026292002e+00  1.9794711353106823e+01  1.4296339370615423e+00  3.4685735273868325e+01  3.8871582478525781e+01  6.3341069986251208e-01  6.2932923955040438e+00  4.7496713202874314e+00  4.7334636909542525e+00  2.6335386265363131e-01  1.1499167442596200e+01  1.1660581494879564e+01  1.1417589795612221e+01  7.8311741180089423e-01  9.2417704581318354e+00  9.3211018592245072e+00  2.8889755919567057e+00  2.0281762167356429e-01  2.0600976256181433e+01  2.0487303015892619e+00  2.0739851294253309e+00  2.0280932925403730e+00  8.4484784142727403e+00  5.0150606281286638e+00  4.9332577091734739e+00  8.2289478548610817e-01  8.4404184372680380e-01  8.0884949578841048e-01  6.5099245397810463e+00  6.6242425514269581e+00  2.8695734196018594e+00  1.4267667228559999e+00  5.1693553792868716e+00  5.3161789023262305e+00  8.0360213276785917e+00  1.3020624777525998e+00  1.3646460811316057e+01  6.4644183428167281e+00  1.2083523618404858e+01  1.2189353143532966e+01  2.1345725753315112e+00  5.2302971321776894e+00  2.0841541219309256e+00  7.1584817684858475e+00  6.7299503300330965e+00  6.9632616364846127e+00  2.2822354608594434e+01  2.0793331051639280e-01  1.7025551470936267e+00  6.3087912530409387e+00  6.3304870550436938e+00  6.3121350122567508e+00  3.2227644359449799e+00  3.0612527360138464e-01  3.0310312153957158e-01  9.0329854388703801e+00  9.2734467234399576e-01  4.1278440989776612e+00  4.1597603241625629e+00  1.0374633692654095e+01  1.4677326387502490e+01  5.6804932380184781e+00  5.7138765507128300e+00  7.4522955244866615e+00  6.5471195832950464e+00  1.5282274844317476e+00  3.9356157818062285e+00  1.7327560206942135e+01  1.7795256663315577e+01  4.9802868751828167e-01  5.2595614328834439e-01  2.7123883607001975e-01  2.8618141955067383e-01  4.8692665791620113e+00  4.8859993272873830e+00  4.9003487367368406e+00  3.9428041008379413e+00  4.9666576144141333e-01  2.8693048889395789e+00  2.8817265505895335e+00  3.2358560953899360e+00  1.1767984865921086e+01  1.1985825129257169e+01  1.7726277185787613e+00  2.8154723881804702e+00  2.8229253429067458e+00  8.4781263191337619e-01  3.1649677069720470e+00  9.3462394826873318e-01  6.7731732089734875e-01  6.5949136245007667e-01  4.0036465773947247e+00  9.4599068593574120e-01  4.1865015752266608e+00  1.5603458979328388e+00  2.8232102908347891e+00  4.5470335970868661e+00  4.4768701694847932e+00  6.0186915561951100e+00  1.2225221608163272e+01  1.2696492080079366e+01  1.7313164441064867e+01  1.7920791604202314e+01  2.8933989676905045e+00  4.3566664988433160e+01  4.3214069014365521e+01  4.4777939253661501e+01  6.7433317877436153e+01  4.8410855592508746e+00  8.0896564788547192e+00  3.2824638632287213e+00  3.9199004559559962e+00  4.7352674541925488e+00  1.0313419067247089e+01  1.0072806196868163e+01  3.8495293960922101e+00  1.2044035789600798e+01  1.8278991721667960e+01  1.9072473048711263e+01  3.5935268608937418e+00  3.5701757302619064e+00  6.0383920727287121e-01  5.8455544436914075e-01  1.6400454476122550e+00  1.6451051720329497e+00  3.8698967359450631e-01  4.8117191861120006e+00  1.8624238331381662e+00  2.8640181926528285e+00  5.6104911083355393e+00  5.4551209246201031e+00  5.4452394463932183e+00  7.7013487318023732e-01  1.1343333100074198e+00  1.1698330782328279e+00  9.2230590093191402e+00  1.3837690012890299e+01  6.4488095169846167e+00  4.3820771090587542e+01  4.2811602109217525e+01  1.1746714440800002e+01  1.1607890422491847e+01  1.2193344593276929e+00  2.3009530262954588e+01  3.4007469162603874e+00  1.3688664659579544e+00  9.4381221768379461e+01  7.7864087827917698e+00  1.0287118987464123e+00  1.0443477516360282e+00  6.2458374568689781e+00  6.3579323520202422e+00  7.9906897780679156e+00  8.2735392509150429e+00  3.1933639821970333e-01  3.4512690654162540e+01  2.9755985171374260e+00  5.0581721039963821e+00  4.5880803594109345e+00  4.6274500779643937e+00  1.1448623568272806e+01  1.1408309176010167e+01  6.3895891192505765e+00  1.1313430312171320e+00  1.1871829834932728e+00  2.7905425111539133e+00  1.2675561812933769e+00  1.2251003133119804e+00  4.3979252053403322e+00  7.5335322375493510e+00  8.3102237366711906e-01  8.3746994213691339e-01  1.3047294992828359e+01  7.4027151032978971e+00  1.9030176717062968e+01  3.6494330058531787e+01  3.8005955216725290e+01  3.1545283559857612e+01  3.0542866394536690e+00  2.7539245283139779e+00  2.5615083131363427e+01  2.5475814747973519e+01  1.8006958945048165e+01  5.5241347000226897e+00  5.5624490913701425e+00  3.2702431345717806e+00  7.6684277832265790e+00  2.8604045633614717e+01  2.3687512499417668e+01  5.0357764528898912e+00  5.3010394813821025e+00  7.3530380612993751e+00  4.4798891587124628e-01  2.5733887099471097e+01  2.7141190910864779e+01  5.6418770540535546e-01  5.8215766602854857e-01  4.1728911016289922e+00  4.2556966884418905e+00  5.6545565539325371e-01  5.1857161528651536e+00  2.1623336630781517e-01  3.1999314719890224e+00  1.4223387298458467e+00  1.8663308494671540e+00  3.3044969621382103e+00  1.1457734795666846e+01  2.9425103091686791e+00  2.9445607284649342e+00  2.9628572410637042e+00  4.9034388115064624e+00  7.2992035589106097e-01  9.4999984146415883e+00  9.7033256520090099e+00  5.6219410297040939e+00  1.8908462846322607e+00  8.1256512668860237e-01  3.2525887243439100e+00  4.0317041746748183e-01  2.8692258936584656e+00  1.4025799529063944e+01  1.4473525698672736e+01  2.9930121245961652e+00  5.9065623633893685e+00  2.0231680147956965e+01  1.9965393247449970e+01  1.2685052078782025e+01  4.1637339541139880e+01  4.2675555119303581e+01  1.1590830542330025e+01  2.4608150139424048e+00  3.4580842398003753e+01  2.5782446726192583e+00  4.9320995834762096e+00  6.5406980571511548e+00  3.6981497615494863e-01  1.3234890255391289e+01  5.4770105252498302e-01  1.0965610984553155e+01  1.1004137436137569e+01  1.2226479608456815e+01  7.2785155221593845e-01  4.1747975245763183e+00  3.2903318191556230e+00  4.5467839281157083e+00  6.9761605485863445e+00  4.3099819502101910e+00  1.4827940028130897e+01  1.5083578460618845e+00  4.4997926272462820e+01  4.3922192162708482e+00  4.3637413068784365e+00  3.5035796131668140e+00  6.6583448200777253e+00  1.7957978321126649e+00  5.6375779335800367e+00  5.5855090775145850e+00  7.0545432853055150e+00  6.2669102649020685e+00  6.3202107605155984e+00  3.8141651141205819e+00  3.9183418837907680e+00  1.0939342586215028e+01  1.1201813057154745e+01  1.0676555375717104e+01  1.0311330503600585e+01  1.0343509829293858e+01  7.2004197080684484e+00  7.2360463706707119e+00  2.7724593047292423e+00  1.6229589477873347e+01  2.0712792914041927e+01  5.1413522794376953e-01  5.0067550435880492e-01  4.3221373833715742e+00  4.0644123781649819e+00  4.0960986993412751e+00  3.8480539274816428e+00  3.0975228579609859e+00  3.0708700869388887e+00  9.0015395889755787e+00  2.8058562177790582e+00  2.7995040290659170e+00  1.3689150468982565e+00  1.3789602128364566e+00  2.2495811662288219e+00  2.2872558103140199e+00  4.9691266934535232e+00  2.3521420660267740e+00  2.0710236649500193e+00  2.0406295140401944e+00  4.8393238271647903e+00  5.8010381507924542e+00  6.0049436057984220e+00  8.4542181907247240e+00  5.4125618178904300e-01  4.0329812623857144e+00  1.2969187025277161e+01  3.9672191952181510e+00  3.1249644216427225e-01  3.0026012584189271e-01  6.1986030888822583e+00  3.7781646985159064e+01  3.6153422046570434e+01  5.2884167939139193e+00  5.3829636376903043e+00  1.9006472088889954e+00  1.9149383122509258e+00  1.4584088442966201e+00  1.4901344046224332e+00  9.7335436145975052e-01  1.2560549755138153e+00  1.2241750541966843e-01  3.5700629898579259e+00  4.7756139888188400e+01  3.9514782061820708e-01  3.5476586450101055e+00  3.7637252529992531e+00  4.7507324003041544e+00  6.6165621127379310e+00  6.6110960965253556e+00  6.5128911132058791e+00  4.7988697203652668e+00  3.2182553281246435e+00  4.2308811923246274e+00  7.2770542663170890e-01  7.3389967422860236e-01  2.3357691201991897e+00  6.7132029722077835e+00  1.2823129450027382e+00  1.2435530838284649e+01  3.5304896167231220e+01  4.7349194306469773e+00  1.1214644720978356e+01  2.3107471578334882e+00  2.0566334413122977e+01  2.1646325476664732e+01  1.8175834106041813e+00  8.9782268177773702e+01  3.3441198381228361e+00  9.9356144248172527e+00  9.8324543863949287e+00  5.4498300969665996e+00  5.4878044505303061e+00  2.7629026517689645e+00  3.3396095838648390e+00  3.2023433124672156e+00  9.0881844990440452e+00  6.6513018394735077e+00  2.9741730465274746e-01  2.9893584718617872e-01  2.7261126694350462e+00  4.5091452172237245e+00  5.2521667766412508e+00  4.8323346110732741e+00  4.8399095566771306e+00  2.4081953432009446e+00  1.5693386917960226e+00  9.6639538006810035e+00  9.8290857302482610e+00  1.4150199917049437e+00  7.0444010046911243e-01  2.4933852439904145e+00  3.9696008853273237e+00  1.4966854337397029e+00  2.9367494221185662e+00  2.0999577999000683e+00  1.5246083166128337e+00  1.6661306111410514e+01  1.1017041570151402e+00  1.3246715392255007e+01  2.3190639785440048e-01  1.3112490601464539e+00  3.0511773105530695e+00  3.2051957052076567e+01  3.8495912383572680e+01  1.5861895135338528e+01  1.0959913756730129e+01  1.0408523235868001e+00  1.0055282936422905e+00  7.9739030070008647e+00  7.7044381844312015e+00  4.2449668392008007e+01  4.2209219044871098e+01  5.4040451766549200e+00  3.6929744885030464e+00  5.5746379939578690e+00  2.7948573796571923e+00  5.4687745430696273e+00  8.2809038343081927e+00  8.1333734072425194e+00  4.9110798063176091e+00  2.7624746017574481e-01  1.4420432922168434e+00  5.1870748078647111e+00  5.2422596164113697e+00  5.4783456366998271e+00  3.7054848434716270e+00  9.1955341800442503e-01  3.3048451392913445e+00  3.3140144236342208e+00  4.8524091411006935e+00  1.9440394821911980e+01  3.5959022082354251e+00  8.1027762260848650e+00  6.7365870612107202e+00  4.7596763234863149e+00  1.5120731733280735e+01  1.4069363285793441e+01  2.0969559730400023e+00  1.6008230238214762e+00  1.6195106184755941e+00  4.6230720046510800e+00  5.1974009126092664e+00  5.2138197214012729e+00  6.4338636834619951e+00  8.0655058424397250e+00  8.0713048628645652e+00  1.8444708182138367e+00  3.4490446792641949e+00  3.4606731995914699e+00  3.7772162197394974e+00  3.6652168752795178e+00  1.4075832979179339e+00  1.5326709831943093e+00  4.8181905514220045e+00  7.4521631010582812e-01  1.1040962903589472e+01  2.7022395012616167e+00  2.5114332876842084e+01  2.4545957223682723e+01  2.4113660876251259e+01  2.4789418868713586e+01  1.5764787963228575e+00  3.9790523459124429e+00  4.7624603147592657e+00  2.3352062979102137e+00  5.2616923855007990e+01  1.2364127721921450e+00  9.4898243781114344e-01  9.3301051552640413e-01  1.1573395170514873e+00  1.4438219692752831e+01  7.8616557034690582e-01  3.6649590402291374e+00  5.9162012508801229e+00  1.2556517379709286e+01  8.3953306821920378e+01  8.1282446982676007e+01  1.2858050786544791e+01  1.3345244191822641e+01  1.1368829284882084e+01  1.2657682288498977e+00  2.0898059175329613e+00  3.8829478376371988e+01  1.9096966334290286e+01  1.8959806132265070e-01  1.8758694117766150e-01  7.0767495453856437e+00  7.3040487158788618e+00  3.0098442153505399e+01  2.8882069249457722e+01  4.9189899081499622e+00  4.9778417059348188e+00  6.2623105664340475e+00  4.9246929476669432e-01  6.9405192986877773e-01  4.6523417463418859e+00  1.0184184088234249e+00  2.5551530795844775e+00  2.5753449950170149e+00  1.0111873744716583e+01  8.3807612277417682e+00  5.0120784582588318e-01  9.3060236399747023e+00  9.1228154423088927e+00  1.0341510877588345e+01  1.0445833224905266e+01  1.0558313373642395e+01  2.7632216269888325e+01  8.4487066495105427e+00  5.1279120103667593e+00  7.7744261938936299e-01  8.0468099799598358e-01  1.4412161998331132e+00  1.4088751983203085e+00  1.5158194589760640e+01  1.5239007172529746e+01  4.3332593153747752e+00  4.8707381274772539e+00  8.5311384657224885e+00  4.6129999126487281e-01  3.0261976741429710e+00  2.8419733151365261e+00  2.8577993871809020e+00  5.5808372037793355e+00  1.0780273489296507e+01  1.0381986521309889e+01  2.3200263567073823e-01  2.1417893958705156e-01  8.2398253937671431e+00  3.9079756722610557e+00  4.0241685003684715e+00  4.4219670709646079e+00  2.5136468054355503e+00  4.5794716889946994e+00  4.6276042189544624e+00  4.7525156484539162e+00  4.4069772318949827e+00  1.5061356459425872e+00  7.5938217397730128e+00  3.9020854204487923e+00  2.5816540003350819e-01  4.6408522558689830e-01  7.8371673162191540e+00  8.1908424230553711e-01  2.8851575829038953e+00  1.8711911544525708e+00  8.7372457564255548e+00  4.2120619388583435e+01  4.0210331005748337e+01  2.8027655971874253e+01  2.7601490417549300e+01  1.0298718557748876e+01  1.0098314567979672e+01  8.7789563065123488e-01  3.3270992197325606e+00  2.9120623816763356e+01  1.8177449371006926e+01  1.1479156487536251e+00  1.1541617802999986e+00  4.6235431136216567e+00  7.7983938406980862e+00  3.6891692640409088e+00  9.9868882167891471e+00  1.0272636711311151e+01  2.9409525062924411e+00  4.7810542592615823e-01  1.0502609722029300e+01  1.2723368553588644e+01  1.1591852380315248e+00  4.0937509596819144e+00  4.1263573594504530e+00  4.5264452392763728e+00  8.0240853293785150e+00  3.5020106601906221e+01  2.2649052557313585e+00  2.3353259624406930e+00  1.1404587030207898e+01  1.4506785717996086e+01  5.8731067477463972e+00  6.2171753167056076e+00  1.0888076576739742e+00  4.8638002089822567e+00  3.9637735365030116e+00  1.1526591795244332e+00  2.6931811076260753e-01  1.7300266177754087e+00  3.3500329786532168e+00  1.1388838903409463e+01  6.7179053745702859e+00  1.8634365988920443e+01  1.9502646697995939e+01  5.4635710869807221e+00  1.4087651129290346e+00  8.3914481023971650e+00  4.8114711624873235e-01  8.9975749094973712e-01  8.9025531149886339e-01  1.0907707815522294e+01  2.5375289994254282e+00  9.1124521966522529e+00  1.2784020110641679e+01  1.1821787417653888e+00  1.0684802793970462e+01  4.8540403202906015e+00  7.2954806205146494e-01  1.8662262820566780e+00  8.3993937380511963e-01  4.4213923290468991e+00  8.3200969161963378e+00  3.8288271462917911e+00  1.0195678071510526e+01  2.5604161458846044e+00  2.6683317957806491e-01  3.3706921774391874e+00  2.6333710405360629e+00  2.6916076906751263e+00  1.0707209171203891e+01  3.4791754677560771e+00  8.0436656264843809e-01  7.6934034536688722e-01  3.4335846680834288e+00  3.6442455107880312e-01  2.7414276546259131e-01  4.7896203409867475e+00  1.2074617573101116e+00  4.3662915148777577e+00  4.3937085232200515e+00  1.2162147147424049e+01  8.4965173605080047e+00  3.4592226843910114e+00  3.5282963664032807e+00  7.3598232270498054e-01  1.6326169112262286e+02  1.3286814870476840e+02  2.4266163441728006e+00  4.8444497492987555e+00  4.8219260051806794e+00  8.0859949148643402e+00  5.2319136726804523e+00  2.9901430963879552e+00  2.3142815209759711e+00  1.2283363537644851e+01  2.6032626672024319e+00  8.9747966109889710e+00  3.8384662525059120e+01  3.8749167688665416e+01  1.1912396596945328e+01  1.1762062210056428e+01  2.7445847991687082e+00  2.8397293445441916e+00  9.4015280212123942e-01  1.0354646473467595e+01  2.4135484036855530e+00  1.8876715705861802e+00  1.9091979223911431e+00  5.6249124140312912e+00  5.3463539793022701e+00  9.7786895834553746e+00  5.9044880472427783e+00  3.3319312274084734e+00  6.4818434873747997e+00  2.3331732470253659e+00  1.2653470324498801e+00  2.8238587347314535e+01  4.7858407035877928e+00  6.6095981674940942e+00  1.8928491843983288e+01  1.8356422464090485e+01  1.8116241807833383e+01  2.5925165491875624e+00  6.4227040232835311e+00  1.2451903495280277e+00  3.2347281849714271e+00  4.9501206414809076e+00  3.8184570493120500e+00  1.7828793995294545e+00  2.9024601133683459e+00  3.8610608458130086e-01  6.3907508100855388e+00  1.2664400157274367e+01  1.2596588399057293e+01  8.1862370255091221e+00  5.0488896803563961e+00  1.2856815650936163e+01  5.7272588524487333e-01  3.4475126747909082e+00  4.6977354768037278e+00  2.6508923297063829e+00  2.6625601101684979e+00  1.2222019570736438e+00  1.0344808378403545e+00  1.0506253250659132e+00  1.0519225783066682e+01  1.0090952055452677e+01  4.0631188488266243e+00  4.1403803111945976e+00  6.8186368988374930e+00  4.6634160711239492e+00  1.3945776567035479e+00  4.0187303265346253e-01  1.9329503236556420e+00  5.7841490931881490e+00  1.1733745295507509e+01  6.0234925736389211e-01  6.1068639531179136e-01  5.5944786581381614e+00  5.6381661116292325e-01  5.5237074731114877e+00  5.5053938054979019e+00  4.3743275298694977e+00  1.2681663236599503e+00  3.9441066948472607e+00  3.9543818356599525e+00  1.0783814554880504e+00  6.2240924579881201e+00  6.3379574391822064e+00  2.5268061872720860e+01  2.8015324549280995e+00  1.2697313753734948e+01  1.2968722471905654e+01  1.1501867677950775e+01  1.1505748400915087e+01  4.6588974746315488e+00  3.1152970986363600e+00  2.8086775306366958e+00  2.8303648434401727e+00  5.4670384281716267e+00  6.5717653401853200e+00  2.2628127371182165e+00  4.1510152692113929e+00  7.6634190392644519e-01  7.6319149718096713e-01  2.8505161316555800e+00  1.0212883040993402e+01  1.1900398239810670e+01  4.4783547903397087e+00  3.7750763657353424e+01  3.8233791890955771e+01  2.5014174915750158e+00  4.6802474308387964e+01  1.1861449662345635e+01  1.1746634101404778e+01  7.3149454942770916e+01  7.8244229418826805e+01  7.4718637575373625e+00  1.1212283412091091e+01  3.8937003307630292e+01  3.3283862724162140e+02  2.0680026206297796e+02  1.5254424509940345e+00  8.8127190043453787e+00  8.7151189125589532e+00  5.2874890707710005e+00  1.0728525499086738e+00  3.5231952747602016e+00  7.3595895013550026e+00  4.5124402669470864e+00  2.7854130526991412e+00  3.5068753523659209e+00  4.8824860047785217e+00  4.8651494810236677e+00  5.3454630263567658e+01  6.2139883256489057e+00  6.2416871756522898e+00  8.6332968109986012e+00  5.7777966384440322e+00  6.7839908883159081e+00  1.7109302498530166e+01  1.7878990506852720e+01  2.3614199868240449e+00  2.3007882287344619e+00  4.0332141252292431e+00  3.0598447807653999e+00  5.8314522136570382e+01  6.0139192804468253e+00  6.1182988558656719e+00  2.5689169988866567e+00  1.4805069134052169e+00  6.3734983172366908e+00  1.7357364181122239e+01  1.9707260342548611e+01  8.9653121933027933e+00  3.3744979078241366e+00  9.9700469192730061e+00  7.6631585388594123e+00  3.4394148793667135e+01  1.0064020545105885e+01  1.0109548994977201e+01  6.5563502962396381e-01  6.0066497446284179e+00  1.2887435388136304e+00  4.5349884649011623e+00  7.6105072000385956e+00  5.4153306087753119e+00  5.4306140213755310e+00  8.1232387831552089e+00  8.1613374369514418e+00  1.2694321750299776e+01  1.3033179406637377e+01  1.3241273017369508e+01  8.9430324454744756e+00  8.1393039966204768e+00  8.2851032577226178e+00  1.9691464252288455e+01  4.1445171502746518e+00  3.1106586153439601e+01  1.1615115202178611e+01  4.3500284083578835e+00  4.7433229138191635e+00  6.1151674119171506e+00  1.7113758452526819e+00  7.9262313833619136e-01  1.9687710507255199e-01  2.0943635358082040e+00  7.1649371852948232e+00  1.3067701441668262e+01  1.3223690779460643e+01  6.0236025952732941e+00  5.8475183636149080e+00  1.7420991289024709e+01  3.2193247129147662e+00  6.0280590212523888e-01  1.0773603757259339e+01  2.8138764966722829e+00  1.4760481796923628e+00  5.8230197205169283e+00  4.4505381320034481e+00  3.2544621739779561e-01  9.6162419058081283e-01  2.2517998194138591e+00  4.1378170308330802e+00  4.1780109487852028e+00  4.1635269930463998e+00  3.8126432481077522e+01  2.9187982366748795e+00  2.9037440978687155e+00  2.7064768828424423e+01  3.4381856296097628e+00  3.3478848525621276e+00  1.7530708283294192e+00  1.7861180763647402e+00  3.1022258740745084e-01  3.4504783262481642e-01  2.9440605516319160e+00  7.6828179780355281e+00  7.7951522386775647e+00  1.3935499267640544e+01  1.4038377509765475e+01  3.1841713066149352e-01  5.4126836576090973e+00  8.9846734224310465e-01  9.0819891964766997e-01  1.2191102554195552e+01  9.9763539446654292e-01  6.5314462818690293e+00  3.1510303316289860e+00  7.8190875060150022e-01  1.0676996180837026e+00  1.2244457628902333e+01  8.7641125438863821e+00  1.3108517606985176e+01  1.9034234309360605e+02  4.5888313431231813e+00  2.6815040154379779e+00  3.1296082111559663e+01  2.7905277064136961e+01  6.2208378489319287e+00  2.3091642846359703e+00  1.7136687849607837e+00  4.2713537991315818e+00  4.1424891422911196e+00  1.0143812882579418e+01  6.4943351778567644e+00  1.0958864931807273e+00  1.0566813038693146e+01  2.4632704675246803e+01  3.4110871735155781e+00  3.4335697232836853e+00  4.2071065714482792e-01  3.2802094182879027e-01  1.4634566156960091e+01  1.2321282992645875e+01  1.2430361300341056e+01  9.2592890569090009e+00  9.4328209752234677e+00  9.5903479144030701e+00  1.5858849444133547e+00  1.6039825006919679e+00  6.4271918759338442e+00  2.2890225849530479e+00  1.4024541510178909e+00  1.3972134666236335e+00  2.8210773809509814e+01  3.5465353275472125e+00  8.9469020506905697e+00  9.1445801793986838e+00  1.2075330334765455e+01  4.3418217817158320e+00  4.3541118831063121e+00  1.6796563106183818e+01  1.2520527737744299e+01  1.3531256695753466e+00  1.3990416853625047e+00  1.3816422378748834e+00  7.4586201208723111e+01  2.2909783136433566e+00  1.2343700323638222e+01  9.9138050882182167e+00  9.7717809547996026e+00  8.3872869715469822e-01  8.2386781570096856e-01  7.3302728339406329e+00  1.2170199846818676e+01  1.7124773143782601e+00  9.1375772593735025e+00  8.8057283670516284e+00  6.2925510736072701e+00  5.7419548211199904e+00  6.3044435990234482e-01  6.2512095347034782e+00  8.8052666470021244e+00  8.6766624648968698e+00  7.9624996352337185e-01  1.2779883572537493e+01  1.3115368466121353e+01  1.3116353111688612e+01  6.6717063919390152e-01  6.7624663661111528e-01  8.6275707131430295e+00  1.2550536897339807e+01  1.3674133518919531e+00  3.6892777474375464e+01  7.4007363946122595e-01  1.2927488216894423e+01  2.0686782319053241e+00  4.1267516499170442e+00  3.4234923592605804e+00  2.9277947080611650e+01  2.7479697661413542e+00  1.0100171173341206e+01  1.1980747934840370e+00  1.2304258938276593e+00  4.7810520717795244e+00  1.6297672347353416e+00  4.3839602675578382e+00  4.3228438815370671e+00  3.0303791629791036e+01  6.8308834987685607e+00  1.5678781873397036e+00  5.5584352383900040e+00  9.8431543823678300e+00  1.4664414886262112e+00  6.4218499000563583e+00  1.6046896291043884e+00  7.4762660905902800e+00  4.1924616647076540e+01  1.5511191070324624e+00  1.5692343242663453e+00  2.7830780159951694e+00  1.4269121315826103e+00  5.9481547476333985e+00  1.5909187295784548e+00  8.3117112800067883e+00  4.4075939677389853e+00  5.8091426685451699e+00  2.4261379675714753e+01  6.8369101291557266e-01  2.8007744976545084e+00  2.8207530610597735e+00  7.8193252941273759e+00  1.0134109207675012e+01  1.2952174425291689e+01  9.1163659289088350e-01  1.4040311251305513e+00  1.3819466532545883e+00  1.4417580558538836e+00  1.1385526074689809e+00  2.7743332746247993e+00  6.3924066297537285e+00  3.7796425237210386e+01  2.8285133823102013e+00  2.8430274258459707e+00  6.1063583983181999e+00  2.3091186518235656e+00  5.1320938329669463e-01  8.5642725308843275e+00  6.8172763910628849e+00  8.9123266550991112e+00  1.4528406880123135e+00  6.3187864049444686e-01  6.6063943677798269e+00  3.8159552620585316e+01  4.3050150474494274e+01  5.0824177081225429e+02  </DataArray> 
</PointData> 
</Piece>
</UnstructuredGrid>
</VTKFile>