<?xml version="1.0"?>
<VTKFile type="UnstructuredGrid"  version="0.1"  >
<UnstructuredGrid>
<Piece  NumberOfPoints="1691" NumberOfCells="3204">
<Points>
<DataArray  type="Float64"  NumberOfComponents="3"  format="ascii">0 0 0  30 0 0  30 -10 0  0 -10 0  0.1391574078963744 0 0  0.2856388821882616 0 0  0.4398299073010886 0 0  0.6021362569539473 0 0  0.7729850389704483 0 0  0.9528258543586996 0 0  1.142131984380316 0 0  1.34140159760994 0 0  1.551159074717981 0 0  1.771956417032531 0 0  2.004374674080994 0 0  2.249025475789527 0 0  2.506552636773105 0 0  2.777633857742732 0 0  3.062982518028728 0 0  3.363349525995907 0 0  3.679525322337712 0 0  4.01234195575742 0 0  4.362675247811097 0 0  4.731447135329707 0 0  5.119628065610077 0 0  5.528239565804708 0 0  5.958356943167011 0 0  6.411112081475485 0 0  6.887696441559404 0 0  7.389364184530748 0 0  7.917435485335147 0 0  8.473300005202017 0 0  9.058420557070402 0 0  9.674336929103793 0 0  10.32266995225095 0 0  11.00512576896296 0 0  11.72350030646412 0 0  12.47968402994705 0 0  13.27566689579597 0 0  14.1135435963616 0 0  14.9955190732806 0 0  15.92391430904694 0 0  16.90117245730496 0 0  17.92986524844506 0 0  19.01269976086341 0 0  20.15252556282024 0 0  21.35234220269763 0 0  22.61530708683689 0 0  23.94474379751883 0 0  25.34415086349739 0 0  26.81721093579712 0 0  28.3678004819169 0 0  30 -1.111111111111111 0  30 -2.222222222222222 0  30 -3.333333333333333 0  30 -4.444444444444445 0  30 -5.555555555555555 0  30 -6.666666666666666 0  30 -7.777777777777777 0  30 -8.888888888888889 0  28.36780047917311 -10 0  26.8172109305839 -10 0  25.34415085606858 -10 0  23.94474378810899 -10 0  22.61530707566275 -10 0  21.3523421899591 -10 0  20.15252554870171 -10 0  19.01269974553473 -10 0  17.92986523206254 -10 0  16.90117244001232 -10 0  15.92391429097614 -10 0  14.99551905455266 -10 0  14.11354357708742 -10 0  13.27566687607703 -10 0  12.47968400987599 -10 0  11.72350028612546 -10 0  11.00512574843363 -10 0  10.32266993160086 -10 0  9.674336908396342 -10 0  9.058420536362949 -10 0  8.473299984546333 -10 0  7.917435464777824 -10 0  7.389364164113587 -10 0  6.887696420787165 -10 0  6.411112061446698 -10 0  5.95835692337857 -10 0  5.528239546282652 -10 0  5.119628046377237 -10 0  4.731447115907979 -10 0  4.362675229213632 -10 0  4.012341937260036 -10 0  3.679525304434552 -10 0  3.363349508456405 -10 0  3.062982500861274 -10 0  2.777633840953978 -10 0  2.506552620368097 -10 0  2.249025459771861 -10 0  2.004374658452946 -10 0  1.771956401795187 -10 0  1.551159059871345 -10 0  1.341401583153029 -10 0  1.142131970307521 -10 0  0.9528258406748833 -10 0  0.7729850256685147 -10 0  0.6021362439621285 -10 0  0.4398298947504031 -10 0  0.2856388700059078 -10 0  0.1391573960769001 -10 0  0 -9.855072463768115 0  0 -9.710144927536232 0  0 -9.565217391304348 0  0 -9.420289855072463 0  0 -9.27536231884058 0  0 -9.130434782608695 0  0 -8.985507246376812 0  0 -8.840579710144928 0  0 -8.695652173913043 0  0 -8.55072463768116 0  0 -8.405797101449275 0  0 -8.260869565217391 0  0 -8.115942028985508 0  0 -7.971014492753623 0  0 -7.826086956521739 0  0 -7.681159420289855 0  0 -7.536231884057971 0  0 -7.391304347826087 0  0 -7.246376811594203 0  0 -7.101449275362318 0  0 -6.956521739130435 0  0 -6.811594202898551 0  0 -6.666666666666667 0  0 -6.521739130434783 0  0 -6.376811594202898 0  0 -6.231884057971015 0  0 -6.086956521739131 0  0 -5.942028985507246 0  0 -5.797101449275362 0  0 -5.652173913043478 0  0 -5.507246376811594 0  0 -5.36231884057971 0  0 -5.217391304347826 0  0 -5.072463768115941 0  0 -4.927536231884058 0  0 -4.782608695652174 0  0 -4.637681159420289 0  0 -4.492753623188406 0  0 -4.347826086956522 0  0 -4.202898550724638 0  0 -4.057971014492754 0  0 -3.913043478260869 0  0 -3.768115942028985 0  0 -3.623188405797101 0  0 -3.478260869565217 0  0 -3.333333333333334 0  0 -3.188405797101449 0  0 -3.043478260869565 0  0 -2.898550724637681 0  0 -2.753623188405797 0  0 -2.608695652173912 0  0 -2.463768115942029 0  0 -2.318840579710145 0  0 -2.173913043478261 0  0 -2.028985507246377 0  0 -1.884057971014492 0  0 -1.739130434782609 0  0 -1.594202898550725 0  0 -1.44927536231884 0  0 -1.304347826086957 0  0 -1.159420289855072 0  0 -1.014492753623188 0  0 -0.8695652173913047 0  0 -0.72463768115942 0  0 -0.579710144927537 0  0 -0.4347826086956523 0  0 -0.2898550724637676 0  0 -0.1449275362318829 0  0.1309460514202492 -4.990980414828784 0  0.1171526873513358 -5.869565217391296 0  0.1344252986967795 -6.716855800502001 0  0.1221309018586645 -4.161899358592938 0  0.1166997684017801 -3.25954604704229 0  4.961569127360256 -0.3118894787216622 0  4.923897360678746 -9.687537149351071 0  0.1228405945134021 -2.536958536012416 0  0.1335945686177435 -7.466846676638523 0  3.206461751753455 -0.2806173508164562 0  3.213166004658842 -9.746377676274168 0  0.1155250883680452 -8.186784073011673 0  0.1359204609538445 -1.804202625344072 0  6.662432263484016 -9.600124945047963 0  6.631056521209421 -0.3942868763482545 0  2.126700074935258 -0.2065769621215452 0  2.120437876630353 -9.808537401472012 0  8.761385473272522 -9.4914222957189 0  8.786076048231736 -0.4923064159810888 0  0.1195911345135556 -8.749677128895598 0  0.1117474302775605 -1.230589418769438 0  11.3907841305612 -9.402816705944797 0  11.36435727088349 -0.618365439918426 0  1.211504568109637 -0.1471532661956818 0  1.239596144827807 -9.832618358594059 0  13.75158625181508 -9.315497816134139 0  13.7500399625954 -0.6902569910160397 0  0.131402377539402 -3.696772604078816 0  0.1204853385030979 -6.307560917781178 0  0.1346483804691658 -4.550944754283819 0  0.1255109280847009 -5.434782608695652 0  16.39894095075685 -9.180198571581517 0  16.44068234362399 -0.8166544577416346 0  0.1255109280847009 -0.7971014492753632 0  0.1162877148651766 -9.206770243020259 0  19.56645066956165 -9.043742294716539 0  29.11731382843969 -5.098539983867493 0  19.50527862123305 -0.9323941524176265 0  23.28904960561395 -8.8608997858633 0  0.6875606479622149 -0.1442604037134076 0  0.6875606348153145 -9.855739596611892 0  23.37074358394081 -1.15131614182933 0  10.00852704311311 -9.475417469395781 0  10.01049631493635 -0.5545437343697674 0  7.639131123468924 -9.543000896765111 0  7.693537846067955 -0.4574302764599576 0  5.733194300659633 -9.66079268774309 0  5.731454990332523 -0.3687808037058806 0  3.803630689980224 -9.686555789708486 0  3.834043646352164 -0.2754981925697493 0  2.618022704128803 -9.787800068206256 0  2.634320277618269 -0.2392104743186785 0  1.65952286941916 -9.813294854785646 0  1.665360553377539 -0.1820878093930922 0  0.1365068028365961 -1.543352471920677 0  0.1128108295274224 -8.471115901500411 0  0.1249192863256123 -0.5070564851587012 0  0.1172626025927563 -9.49200175151447 0  0.1255109280847009 -2.101449275362318 0  0.1255109280847009 -7.898550724637682 0  0.1247535864599936 -2.824177050114505 0  0.1155424837078822 -7.17494363557847 0  26.05192393553612 -8.777856070543081 0  26.00031291598836 -1.159065252957426 0  0.3627343947446455 -0.1301950113519217 0  0.3690141220077834 -9.868919517536135 0  28.90574865438674 -7.135369011630129 0  29.02069681040884 -2.861993939893059 0  0.1397555488250113 -0.2163338956475025 0  0.1255109280847009 -9.782608695652172 0  24.67098979274125 -8.799958058548517 0  23.93395881668722 -7.700959994796646 0  22.61396570077244 -7.764517377391733 0  23.2032949615693 -6.630776985250927 0  21.94857473380583 -6.690613342424633 0  24.50398505507967 -6.535933305198952 0  22.51489076809043 -5.580432145971667 0  21.29537841406989 -5.639199768252479 0  21.84985259542567 -4.547213342284197 0  20.65342988351128 -4.619546679988924 0  20.11277906893955 -5.663225279336593 0  19.49454290958806 -4.673886314669294 0  18.97860072994828 -5.624185949902217 0  18.40383886642446 -4.729683279047542 0  17.90575400337286 -5.630456854950327 0  17.35903168001753 -4.836859475002379 0  16.91444903556046 -5.680257663405808 0  16.36114434035519 -4.898890029095359 0  15.89440836794127 -5.835214594829282 0  15.41608945577568 -4.979845093198404 0  14.9809818125648 -5.732909169427192 0  14.51777858619734 -4.988431190461874 0  14.14039496103406 -5.776391085527889 0  13.67321261031888 -5.031745046943032 0  13.26988611760758 -5.891550007816156 0  12.85732927991246 -5.095735823822261 0  12.46423889659403 -5.760519953635332 0  12.07741841933393 -5.116608846746942 0  11.73131647445202 -5.75987862647932 0  11.35222911621012 -5.158061768105265 0  11.01225658271747 -5.784828178519854 0  10.65393216495117 -5.205808407572067 0  10.33042159780337 -5.788944717060055 0  9.98551374198097 -5.24118342090078 0  9.687616112021921 -5.812725728827915 0  9.357518717034999 -5.284717467130579 0  9.08157001076583 -5.820057568121996 0  8.766199932316585 -5.320212662582848 0  8.494748056481422 -5.830095453943056 0  8.194406727465122 -5.347802431655208 0  7.942610344706003 -5.833678024304247 0  7.660825631728443 -5.380025954369014 0  7.416702921751611 -5.83684433397813 0  7.147290851157173 -5.413787279190068 0  6.91632006965034 -5.851605397483334 0  6.658527053286988 -5.437627383845131 0  6.441897327469297 -5.862220684948111 0  6.194860224019926 -5.464520225953867 0  5.988748643021736 -5.866336295550595 0  5.755042825355586 -5.482399938780632 0  5.555770501455733 -5.867908174086599 0  5.334991086231989 -5.504761241472904 0  5.145076642106908 -5.873191062890511 0  4.935013388047023 -5.544035964184449 0  4.754345788811499 -5.880090917794126 0  4.554437025256316 -5.569020251233177 0  4.382470744799432 -5.88665007327689 0  4.192208958329529 -5.585677590398814 0  4.029485566904095 -5.896175760774888 0  4.354949258143058 -5.270074521138358 0  4.004482386201769 -5.289207815434526 0  4.158655721068861 -4.98145486433833 0  3.821444856080801 -5.001169872115685 0  3.97033944278737 -4.700814034221719 0  3.642688047138773 -4.720140385706738 0  3.788830742180677 -4.426816067812119 0  3.467446796449556 -4.450112744784491 0  3.325275354457695 -4.730293981808933 0  3.158439978631689 -4.466074367009679 0  3.294707394527546 -4.195055680715136 0  3.021574230894961 -4.734530082820444 0  2.993859080440858 -4.214029016477548 0  3.123930893564895 -3.950050218105329 0  2.835291609666758 -3.969361046907931 0  2.960637759540813 -3.712080946026505 0  5.948654685025428 -5.081902342488057 0  2.672191116985523 -3.73408536570235 0  2.794579700414266 -3.485378359617137 0  3.036434761662342 -3.432034449604653 0  2.553233272932738 -3.978525735246706 0  2.532713646366027 -3.494474846118962 0  2.639286508845206 -3.260340793269796 0  4.21026372373491 -6.193085346203559 0  3.867773143907016 -6.199516647927154 0  2.396018231977024 -3.262743083380761 0  2.49443854396068 -3.038559476313058 0  2.244299743722415 -3.048909073372709 0  2.354272151961723 -2.833114828637357 0  2.159309483746034 -3.294750491527594 0  4.040075436392568 -6.48965220195158 0  3.707761349711509 -6.495455346219675 0  2.624880759694506 -2.850054471823936 0  2.105414604867324 -2.841597278030335 0  2.243053000044011 -2.608175626208472 0  1.970337183571372 -2.633487300077484 0  2.071456366643011 -2.418750335607822 0  7.370589280335144 -4.961294165282302 0  3.87620940286814 -6.778656690357968 0  3.552307759023847 -6.784181030856061 0  1.839784892571135 -2.428099291162488 0  1.727868253622047 -2.641193859815058 0  1.938047661980169 -2.220062253155635 0  2.154969423218269 -2.222804755951559 0  3.718098089130093 -7.063118401580105 0  3.400340705339641 -7.063872400188488 0  3.239816933996462 -6.786179194487772 0  3.094735068137025 -7.058078351601356 0  2.937311035815345 -6.813935620196139 0  2.7999892593597 -7.070495055120954 0  2.656468841242283 -6.823314697207859 0  2.520800911406806 -7.064881262965157 0  2.38629190419589 -6.834005403458825 0  2.26051099880857 -7.070229349850689 0  2.128413026761354 -6.850611649027937 0  2.388168503369382 -7.291527486289613 0  2.136515335557597 -7.29946474482105 0  4.044595745428641 -7.060705534489831 0  2.263532660075942 -7.513407274141239 0  2.01676730624007 -7.520158110742951 0  5.773407523825119 -6.242094304494363 0  2.141133208912056 -7.72956064111002 0  1.898934282721154 -7.727500063931529 0  1.778374609668969 -7.527934274108807 0  2.245447115615113 -6.618573526599895 0  2.008702636593178 -6.629898721298259 0  2.11033501686553 -6.417756004634469 0  1.882274985957068 -6.422276040924578 0  1.981891489559088 -6.217381719604758 0  1.743231044464835 -6.225621450702727 0  1.851414832006238 -6.022227533196689 0  1.712318055953274 -2.230911021983824 0  1.801873277348303 -2.033051357858576 0  1.664545767160181 -7.7283497841246 0  1.780387551081347 -7.926215243002827 0  1.617356652529624 -6.454013002284817 0  3.249163467620084 -7.306178986750389 0  4.117875851327025 -4.401981322972667 0  1.61999977972388 -6.024557667655024 0  1.726053822694819 -5.82998376487887 0  1.583223141572891 -2.043235932564571 0  1.55378051669457 -7.924599556936878 0  1.663824411568417 -8.118527780024863 0  1.550616731317701 -7.533002577677808 0  1.674329440451501 -1.848264390110042 0  9.020920777688259 -4.796045580261678 0  1.502813146822781 -5.836803856125492 0  1.60464229685126 -5.643887433353299 0  1.445712442673173 -8.116259936366339 0  1.465397703693636 -1.855905210378212 0  2.236601396328155 -6.171977443398569 0  1.378266185462257 -2.04388974586323 0  1.548220048396963 -8.302103324645733 0  1.76045807010477 -8.300451335529033 0  1.555556348934626 -1.665142099278957 0  1.785671549414271 -1.677783307110496 0  1.386759778371347 -5.653681391538293 0  1.486044400746232 -5.461958262220167 0  1.338647223100429 -8.304245276335081 0  1.349192028112503 -1.674865849263535 0  7.172799366110617 -6.270673183549658 0  1.28265887161103 -5.842164106639638 0  1.272884529528454 -5.476980012004228 0  1.369107026679625 -5.285943058781728 0  1.43600190677968 -1.489401780661628 0  1.581076080060711 -5.271002273712577 0  1.465364217808109 -5.09315424562475 0  1.438037192912089 -8.48366237939722 0  1.236003690659791 -8.484853334001771 0  1.250912949419547 -5.106329353962484 0  1.346514715037898 -4.916816721741163 0  1.225405664587104 -8.123180146097869 0  1.231357101114616 -1.502001491557201 0  1.560631328151477 -4.902140714730204 0  1.438425123051069 -4.72670783546627 0  1.229790239057982 -4.742744577347731 0  1.317902417319129 -4.555653265131589 0  10.96355644854602 -4.599771800396304 0  1.336588365985115 -8.663683106004285 0  1.136216102332332 -8.66254486138865 0  1.111865482842401 -4.559168924653498 0  1.199083038774656 -4.380788817942627 0  1.319721458275886 -1.319074587310937 0  1.118878845935829 -1.333078498543228 0  8.815128342145623 -6.358855333399985 0  1.403488929654603 -4.368137804476014 0  1.283592483164952 -4.20066639380634 0  1.040881235393305 -1.498497192133072 0  1.082594303430005 -4.215907271579116 0  1.164100618717841 -4.037610901948693 0  1.487992467246858 -4.181838788655361 0  0.9681715798499351 -4.058720419320302 0  1.046929614088995 -3.880106757685173 0  1.206072154442905 -1.154554419939458 0  1.415407689482112 -1.138981949911989 0  1.011364557136801 -1.16827238412342 0  1.235032387607358 -8.83861110186078 0  1.437151881116042 -8.842438962828234 0  1.037602442059828 -8.83488862435142 0  2.390760800664609 -7.729855226320593 0  0.9415793879064971 -8.666443129359903 0  3.539055603688151 -6.214145113925981 0  0.8867664484606532 -4.237002555616188 0  0.8473837185504998 -8.832978925897141 0  0.9391190993177485 -8.996606704307894 0  12.43923281632609 -4.498490903686852 0  10.01523100154691 -6.342087972358906 0  1.026318920304211 -4.754609981607193 0  3.879878943801469 -7.353373642881895 0  4.215886332078304 -7.347604914510113 0  4.046335114343909 -7.6479337336506 0  4.391666924215421 -7.640188269106516 0  4.219686788767348 -7.937672032329688 0  4.570117928914033 -7.937126175820531 0  4.748149058621141 -7.627330924831592 0  4.940025985870182 -7.943183573582687 0  3.878130879619169 -7.946360692195865 0  4.04819302085099 -8.230813427811846 0  3.716774363597342 -8.233636723504159 0  15.03529558755956 -4.238165411031104 0  1.095656303896808 -0.9942621700461931 0  0.9039275291373858 -1.006270766345931 0  0.8224910263300185 -1.167715078076049 0  1.24224017410838 -3.857317140645198 0  1.123932832361247 -3.69927613103871 0  0.92980984130633 -3.726932456402595 0  1.004983471203101 -3.542018814071102 0  1.200464768020124 -3.517563251626223 0  1.078351820105059 -3.363259200598084 0  0.8878793540990273 -3.387729082627223 0  0.9580955976041725 -3.21186315400105 0  1.654213469944494 -4.708577544175765 0  12.09346460038365 -6.294482959517878 0  5.123884992953425 -7.610940620379179 0  5.324117861599078 -7.945914164815042 0  5.516943928091949 -7.611748090149263 0  5.726387692371645 -7.951212765669672 0  3.41965142212824 -3.924119470271565 0  3.178954784197241 -4.994522447151232 0  2.884121534393167 -4.995820673591646 0  4.542900647514237 -4.924826457270361 0  1.823533140128493 -5.6337231371631 0  1.780958425079353 -4.890720796494228 0  5.928483495867322 -7.600297800640219 0  6.14803103143543 -7.95517348060371 0  1.275338387045654 -3.333314332110278 0  1.401760166823976 -3.494260210523287 0  4.375425330661903 -7.057681838608242 0  1.333432230401042 -9.012825921393576 0  1.538080178241069 -9.021466040462451 0  1.880559308860924 -4.688522075867629 0  0.779750177097986 -4.08145029432988 0  0.9887405750344236 -0.8340489736652836 0  0.8035761396577783 -0.8466684892792546 0  1.189114245574292 -0.7933891285708032 0  0.7732805262956362 -3.242622469830689 0  0.8410678158976506 -3.068982137612969 0  1.026698912346879 -3.031492680241053 0  0.906041466597598 -2.891217899981843 0  0.7550078055227765 -8.993596483566103 0  0.8424776225966255 -9.152375055388564 0  0.7543203194203407 -8.672897606681499 0  3.034890772166108 -5.243427232942118 0  0.7015470381362388 -4.248158550055831 0  0.7073883085487491 -3.402126701693743 0  4.749022136094192 -8.247916517703459 0  2.751092139433357 -5.249723909164723 0  2.895527602503233 -5.489207111714443 0  3.880682141728135 -8.514485792053211 0  3.555589030918718 -8.509068162899993 0  3.407472680662421 -8.246986460694638 0  3.245302895087198 -8.512762571195596 0  14.57654680065799 -6.480259839481473 0  0.7218221101113294 -2.927424863288015 0  0.7862125851646287 -2.749534673723655 0  0.9704750140876097 -2.717166710014635 0  0.8504158004671591 -2.577122754312548 0  6.355373007899743 -7.57190561845947 0  6.588033605081973 -7.934776442357152 0  1.863687566765476 -6.853165384759709 0  17.83561750068683 -3.951011571850627 0  0.8435419129043566 -8.508336666046002 0  23.04789076265119 -4.488561955974046 0  0.6630313410882458 -9.150747412257777 0  2.746952315496237 -4.764585284235653 0  0.6631612261487625 -8.516354596692619 0  0.7475640448974072 -8.359298203932457 0  3.396493028168946 -8.772727793389164 0  3.093933058396985 -8.768742817933131 0  2.947818844714496 -8.516394970558553 0  2.806220555063893 -8.761595741137636 0  2.675476416960418 -8.5215624512233 0  2.531678802670939 -8.756387483575001 0  6.811392221440592 -7.55263293825935 0  7.052377864449253 -7.933735460293871 0  7.287549379001108 -7.543215627530731 0  7.5335822897612 -7.957118715607113 0  0.8834772396639021 -0.6847192584433612 0  0.7084778778870806 -0.6970014386620846 0  0.626257874107905 -0.8543080511710919 0  1.43720944046064 -9.19285631669311 0  1.642064984278585 -9.204014686804364 0  1.753560184108769 -9.020064240576026 0  5.518783330271628 -8.275944421794076 0  0.6689885040686967 -2.608274159172286 0  0.7318671282786031 -2.439399123493585 0  2.008461439258806 -4.877859111004287 0  1.480302640024133 -3.302747062167056 0  2.619847669466221 -5.498474206184145 0  2.764436144487728 -5.736137302067728 0  0.7500252203624509 -9.306305859677336 0  0.9292000531085272 -9.309292514649549 0  2.264814086818744 -7.947008923948113 0  0.5776819009088143 -8.995478847279525 0  1.863566410570911 -9.212302282000204 0  1.035277191576215 -2.542186179898658 0  2.786483596768807 -6.559603705728099 0  7.785539738743575 -7.526726262061024 0  8.048577666743132 -7.963844934318044 0  4.949940825113577 -6.215747550257527 0  0.5759158099598629 -9.304524767957552 0  3.177732740470725 -5.497158144697655 0  0.5991488597301071 -4.101918032416025 0  0.5265759316689476 -4.263209621603473 0  0.6247278347061247 -4.406700167532083 0  17.58375168088791 -6.481310075179135 0  2.657907826427005 -8.989936624328907 0  0.5725578241554228 -8.364090376557519 0  0.6544734620520138 -8.209936195643772 0  1.158575170070419 -2.681729312107174 0  0.594352207397046 -3.269319170650653 0  0.5446537702691536 -3.417221160476966 0  5.314343398952513 -7.244146126606939 0  6.365127163114352 -8.340117410581662 0  21.1772050630938 -3.556957786543474 0  2.806587982956632 -8.304200380585918 0  2.113108307257667 -4.666449222898861 0  1.976801904707564 -4.469991983352398 0  0.555559674098749 -2.469074826859174 0  0.6154558942521327 -2.303451947929261 0  0.788815582375296 -2.272244126418911 0  0.6722628337507395 -2.135922234457823 0  0.8477353152079452 -2.103119883117129 0  0.7285785315768205 -1.970246785219856 0  0.5568856190357749 -2.002972653711458 0  0.6110567246737322 -1.839351061707272 0  0.5286794761955687 -0.7115581276207275 0  1.61022671068722 -3.470338024135017 0  2.427833714895243 -8.559066719580551 0  0.4959299660922181 -2.634691029542704 0  8.309701824470208 -7.473593424917014 0  8.587851713864032 -7.961505745966625 0  8.86019967631932 -7.447487669287129 0  9.152296690846807 -7.963644116590673 0  0.9062546574038333 -1.933128576930087 0  1.229885847881601 -2.514091280255707 0  0.6039830018045347 -0.5573036058764611 0  0.4422315482620274 -2.326818656937475 0  1.977282077914131 -9.018205720873178 0  2.090425096760754 -9.219698504450674 0  7.219318077747127 -8.381081027769003 0  6.553643007240915 -7.101859381081038 0  0.8348162330337754 -9.463062952477387 0  1.657860364276914 -7.336333328936359 0  1.436620293074338 -7.346291105225281 0  1.333798982258298 -7.532838838594299 0  1.22480237365485 -7.355392197608121 0  1.126044178921905 -7.531345316634579 0  1.022935629468851 -7.360275580284767 0  1.116046954950248 -7.186245049688042 0  0.9196648092986131 -7.193152075633762 0  1.008778270791012 -7.02335683379964 0  0.9296991771399377 -7.53280421353983 0  0.822867390270261 -7.028331794958817 0  0.9063239565256787 -6.864459922949278 0  0.7157233087387951 -7.19992497663023 0  0.7067820008431536 -6.845947284025209 0  0.8102901436290288 -6.700954706857838 0  0.990784453235376 -6.697839707075705 0  0.8887871462204213 -6.541850671340394 0  0.7140142897817281 -6.538452974885138 0  0.7871119993339519 -6.383540515819243 0  1.203884307552331 -7.011124602430653 0  0.9698658564631053 -6.376274612655372 0  0.8655838364206954 -6.222614430987436 0  0.6838235998237039 -6.233301389106001 0  0.7607631065760234 -6.072846106094969 0  0.583254120042767 -6.087940632472457 0  0.6581073104118325 -5.927877353318699 0  0.8299966329163162 -5.914857951435676 0  0.7308267549465235 -5.765823695501286 0  0.5545572792412905 -5.782488379052614 0  0.625439060597575 -5.61920976114062 0  0.799578796538249 -5.604406700360423 0  0.6966956936490352 -5.459059011145142 0  1.02845889636397 -7.699274448494544 0  0.8363348123316214 -7.700665407892701 0  0.5210978937335362 -5.474206070299042 0  0.5903818602722772 -5.316093815729904 0  0.7660964034878184 -5.29601269172407 0  0.6575909579573587 -5.156500770845264 0  0.4858053333455565 -5.17819990097875 0  0.5454280727338201 -5.019020419042418 0  0.5078695033582417 -6.243671501639772 0  0.4892643196266029 -8.516479083285734 0  3.23869926296803 -9.030643747453844 0  3.544795721985107 -9.038991278909229 0  1.022817558886507 -9.475418015218004 0  0.9394824583469639 -7.860641060936236 0  0.8350827100241638 -5.130347889338345 0  2.481314130136345 -5.266853136112951 0  0.4548790467803627 -0.863642822013146 0  2.219099493263457 -4.448343607782311 0  2.088202414740731 -4.239235297905681 0  0.4127428492013046 -6.10395132781715 0  0.7421120130719032 -7.540142756617705 0  0.6544010450457876 -7.69943996660512 0  0.5634413327355752 -7.548745804268895 0  0.4786065446205221 -7.698709582519115 0  0.4808565044807391 -8.218701015901159 0  1.864369697703932 -8.822995190768063 0  8.00342895858943 -7.13111165355626 0  1.053375579714558 -6.207904295931067 0  1.163309528319925 -6.367158146670315 0  0.6711780906178539 -3.937636382511299 0  0.4970604027555936 -3.959184724901339 0  0.5464016395110374 -1.005149327419883 0  0.5626889190140147 -7.841285944803701 0  0.453908086335133 -4.418834064216944 0  0.549609160354434 -4.561343662919613 0  9.437455180984003 -7.444086693021368 0  9.747105984851263 -7.974716241484336 0  2.353471602148826 -5.503184579466017 0  19.36233151169711 -6.517209573265497 0  0.5647206834209229 -3.802156249989869 0  1.536216691968653 -7.156513467621336 0  0.8234557753670071 -8.197239050086939 0  5.109421205551813 -5.190465073932838 0  8.309851923897773 -8.437273583763155 0  10.043622852273 -7.429604674381713 0  10.36943107950899 -7.981755780676862 0  10.6809967046705 -7.417494095903002 0  11.02041664103963 -7.95441009734483 0  3.934326361471433 -4.125782462017115 0  4.269584593533486 -4.100915916633761 0  4.080789165896908 -3.815920709062262 0  4.423955898692885 -3.793330365305093 0  4.230982601114068 -3.503686951006167 0  4.5828839824215 -3.482464068529636 0  4.384791462426804 -3.18342648344716 0  4.746457978336027 -3.163882654078504 0  4.54131290886604 -2.85832666006057 0  4.909629300219775 -2.832371162029882 0  5.12050258477389 -3.148092277430472 0  5.291176415509321 -2.801780603848822 0  5.511984114319965 -3.132144057264516 0  5.690867684884065 -2.766122283849934 0  4.699699544876772 -2.52913428066431 0  4.335074857074092 -2.555378078254896 0  5.922505579050508 -3.114822064129837 0  6.112014903692717 -2.730661793263246 0  4.492849962184078 -2.230838277518895 0  4.140382967301711 -2.252220231871829 0  6.345643468631938 -3.09264177540872 0  6.549270999593794 -2.694785334048674 0  6.801534450080451 -3.066243962428043 0  7.006251663546362 -2.660608327221235 0  4.289853074503139 -1.941364510210893 0  3.945959261092284 -1.9738223639816 0  4.643676579839685 -1.90869764784913 0  5.864844185025866 -2.382834608323445 0  7.273731236526736 -3.055358522714958 0  7.495604822122996 -2.62642064674686 0  7.772610121449221 -3.036619985662324 0  8.006380469964132 -2.59880519595455 0  3.800042603426606 -2.270959746367462 0  3.618253930786391 -1.998393477593683 0  3.755281209876976 -1.692013520393758 0  3.437488639458536 -1.731042149136364 0  5.295878449061172 -3.458467146999308 0  8.290878845101396 -3.011765186662451 0  8.532652701688182 -2.533913699953426 0  8.837773669370867 -2.968356834808206 0  4.438403633750477 -1.618599939290229 0  4.799215461024728 -1.583329682425846 0  6.809730385793122 -2.276757546739286 0  9.099582577996303 -2.508267219534713 0  3.569626334509865 -1.447079465675528 0  3.264286799397834 -1.495980790624165 0  3.128023210740416 -1.742973726729184 0  2.966190827271346 -1.502085303947593 0  4.606543697634805 -4.079224899559924 0  6.192824372874808 -3.466119316462876 0  9.419987771938711 -2.951839054343548 0  9.690840632852137 -2.470087544653142 0  3.123565659633437 -1.242635121871158 0  2.809040316760274 -1.272951200238017 0  3.990594334966806 -3.204105845729661 0  3.478241816013911 -2.28864165436126 0  8.052565570908355 -3.474391884378884 0  7.688907929547041 -2.166069721366172 0  2.685994972208617 -1.51949308334919 0  2.525848446103813 -1.297468528690603 0  10.02306997344864 -2.942707898982303 0  10.30907199232002 -2.422875460259415 0  10.66165196854984 -2.923645320712831 0  7.067813353550219 -3.43225829419271 0  2.641676216851021 -1.053641180283766 0  2.3768451262869 -1.083021777881912 0  10.95224322923846 -2.339732678436328 0  4.588426633912601 -1.28935970334129 0  4.955235743467936 -1.251794368030149 0  11.32594387513937 -2.894558355460859 0  11.63252162227272 -2.289689285250103 0  5.173806608098531 -1.558254484550712 0  2.416956784880815 -1.543071309012903 0  9.292295556654118 -1.943514687678838 0  12.03076395063309 -2.86836571537496 0  12.35422466680239 -2.24166694982005 0  12.76776609086898 -2.840799383936233 0  2.566287238904989 -1.758862396943353 0  9.739035526492831 -3.487620704815632 0  2.477040641567537 -0.8476435405728608 0  2.227285476063862 -0.8750798377307127 0  2.124894526602972 -1.103725444517481 0  1.982473303398223 -0.9017358141087914 0  2.733374617562417 -0.8330910768545374 0  5.338514719668741 -1.185136212571463 0  5.570194059965628 -1.546159376499661 0  3.653020488009446 -2.555222052493804 0  3.337556164594229 -2.572999390368462 0  3.511969409922328 -2.8408659922716 0  5.740020836708108 -1.140328943580198 0  5.982854335145156 -1.521543753259297 0  3.166701418316126 -2.314057933503013 0  1.884531645846051 -1.118569383323328 0  3.200422986414379 -2.85052207379792 0  10.53589134303509 -1.800977166082525 0  1.750364690850855 -0.9263840341929797 0  1.843357579879257 -0.7165542032164645 0  1.619080434621663 -0.7406390071043667 0  4.233173445862887 -1.323328183333697 0  4.378638595162613 -1.001628731020026 0  4.033759348592843 -1.031118845526946 0  13.09757436493077 -2.15609225976598 0  13.53546622007367 -2.80025467794245 0  13.89219546836146 -2.089715367293122 0  0.3798738088638682 -1.012703829482624 0  0.475619120935221 -1.148616670127043 0  1.539648262449239 -9.363562079662948 0  0.9141589663607306 -9.658766007301775 0  1.349406235424869 -3.138833560851346 0  1.557995558268233 -3.107214340562687 0  4.212568521817971 -8.520893145864703 0  4.041168976852514 -8.798612882607191 0  4.379764884265935 -8.814958362184598 0  4.203653643404278 -9.101979112499397 0  0.4444692164686384 -1.876402736141317 0  0.4966410594780211 -1.714981818946089 0  0.663750759421438 -1.677721962282511 0  0.5496764674941303 -1.558614943149173 0  0.4372855074378066 -0.5711814613274715 0  0.5095908518416188 -0.4257812065604263 0  12.65763918285721 -1.593137461930912 0  0.7217490196562792 -4.550427248263027 0  6.157665110314797 -1.124572014825122 0  6.407619087210916 -1.477970556950567 0  14.3363895303368 -2.754007575843981 0  14.71952649943002 -2.012460841617774 0  15.1860398951111 -2.722108042334512 0  2.332792732788825 -0.6524180520587173 0  1.117977511482749 -2.360573714877638 0  0.9456500045164251 -5.275361986800139 0  1.256121384713749 -6.193380276983158 0  1.894113244423494 -5.079729182005279 0  1.527583139504904 -3.660918553456507 0  1.742059172288732 -3.642251851282564 0  0.6460272894671917 -4.703917196651334 0  0.4725269346197418 -4.710725788376153 0  2.027646049447679 -1.328593274750585 0  4.380611208523765 -6.490276558138328 0  2.237762466248382 -4.860389620782013 0  1.431943029186689 -2.945065395588498 0  4.552721495181956 -9.114690039353198 0  0.7149791219243475 -1.513872542675555 0  0.4248884985314998 -3.29532692979006 0  0.4863512022622682 -3.138445971981478 0  0.376261187224074 -3.445418078660909 0  9.423121577564084 -8.478019349544208 0  21.34262038664631 -7.866791866942224 0  0.396747664747874 -3.823397675994697 0  2.307548201821447 -1.776456101988073 0  11.34229671816903 -7.400675716637067 0  11.73120141631453 -8.058187680036577 0  1.653755200209993 -3.831956300786605 0  1.875497424893913 -3.816389351375574 0  1.018749794353084 -2.066320919520061 0  0.394459831577521 -2.031435506625504 0  0.3956734361830989 -7.549211758386312 0  0.4735126166139771 -7.405058137030601 0  5.390463358997129 -1.892624322666647 0  0.2874832664985778 -7.688454713181735 0  0.6740069797447958 -0.4066477507416648 0  1.970064012360069 -9.417177048681193 0  2.177599227352125 -9.423656399384882 0  0.3609629406936108 -4.280417065561927 0  4.736099880197463 -8.821817767231433 0  2.085039462421744 -8.818052065299284 0  1.125404894780365 -9.324704705631724 0  1.223062898057734 -9.494741821907752 0  4.17658381803507 -0.7313533168501749 0  11.67959164624491 -3.466544925628876 0  0.3930457991198395 -1.585033161900155 0  0.4485044876773614 -1.417386400874715 0  10.69366919155017 -8.572690853203833 0  3.838491362659248 -0.7678985401207603 0  1.615234826597575 -4.352104574334613 0  1.763786989527297 -4.014884665986876 0  1.974405557030217 -8.627923545609162 0  4.91638555642497 -9.115440547069042 0  5.106183355880434 -8.807996123550994 0  5.295768107003155 -9.138385382247996 0  1.088053339205402 -1.8921105461659 0  13.16850779098312 -3.494318089251758 0  3.664849008808222 -5.291884639193117 0  4.372376732565527 -9.416494636137761 0  2.519432989748443 -7.93958674416437 0  2.649974007950142 -7.723635512074789 0  0.3809983875511289 -5.045084589730177 0  0.3214391076214866 -5.203797875981207 0  6.59864066572533 -1.077769802178527 0  6.864250955164261 -1.449754930933794 0  7.061483658559855 -1.02863405103162 0  7.34068109292094 -1.406074597896439 0  3.382428248867352 -9.286652774748056 0  3.076096970451722 -9.264318104748554 0  0.7389500342743194 -8.0523445240858 0  0.3338287958932682 -3.979793458162915 0  1.701972672561482 -0.5415993819440761 0  1.488152452438289 -0.5666324052183445 0  3.363930498919826 -3.104982388091684 0  0.3532976734313493 -0.4336275808586034 0  1.365033214922036 -2.62812658119102 0  1.426145342754051 -2.465752911907972 0  1.926473357569961 -0.5155924206743947 0  5.110703283350432 -0.8951527237493595 0  1.96144090666429 -3.616451696732034 0  2.132945564723149 -3.822204748730147 0  2.312125334163387 -9.21171034570747 0  2.419440239976822 -9.435886882580217 0  15.44435551965482 -2.029109322330965 0  16.13046330005597 -2.502054707945178 0  0.740369564537497 -9.616606321099725 0  11.00553511388152 -6.871284199807945 0  1.779402917832229 -1.313873840332363 0  1.747647905272942 -8.636268636248175 0  6.212628530981863 -1.875746304987406 0  2.46531004737324 -1.997833623086944 0  2.7138453670898 -1.979983983584342 0  2.603836658176974 -2.222709349376164 0  2.232633359143005 -5.28664319831184 0  1.121185700615841 -7.865486482579759 0  0.4627364051653764 -3.671944933088991 0  4.509346304654942 -0.6732203608149492 0  3.686378678842662 -9.317464085967973 0  0.3286884083691373 -3.165596783429558 0  0.3832468107920874 -3.019409320272635 0  0.2359135869670137 -3.056586433281084 0  0.6265154928443941 -3.649677170337388 0  12.08608087791815 -7.41130802918814 0  12.4348679696907 -7.996204321887958 0  12.8273677772826 -7.363343998259305 0  13.17750807577876 -7.995708685343766 0  13.55820263818509 -7.331416505020218 0  13.91692661607063 -7.978135979102538 0  12.79023533744335 -8.66364113629923 0  0.3475483727886211 -6.250291537661422 0  0.4330339274246064 -6.392121809767039 0  0.2496648240848174 -6.097145142692099 0  0.3300006350295206 -5.94523058691057 0  3.836616070745912 -2.860469030674918 0  1.757823226099607 -7.13979575022347 0  15.11492109555145 -1.327648977675945 0  0.8336558187030647 -1.642301751749971 0  5.496405891253994 -8.803666315140738 0  2.404296129473535 -8.13588125530649 0  2.130087230847785 -8.169846516435776 0  0.2711613650137661 -4.447848654665084 0  3.659988372868437 -1.106988555301237 0  3.510415325153797 -0.8132610924627972 0  1.361939624212594 -6.356626755243175 0  1.256646698279901 -6.521713254892038 0  2.305996371833309 -4.213691785961297 0  2.458703180859152 -4.377469117459754 0  1.646166554904781 -2.899033489025816 0  1.775808998376281 -3.077288387167013 0  2.160852610912553 -3.564051074526298 0  9.128438189419604 -6.926158088514612 0  3.486686451139107 -9.560487073129394 0  0.3195222757502858 -1.175128303360514 0  0.233757794923811 -1.039429719387763 0  5.696597427453296 -9.139738531687165 0  5.907063685792055 -8.809336078021055 0  6.114846954139201 -9.163090691725063 0  2.781662372101826 -7.946786308454465 0  2.917612962820199 -7.720278237169827 0  2.786261688059369 -7.50708401758682 0  3.057892057580162 -7.959434399879327 0  3.197492839785662 -7.748380397530525 0  0.2859882129047691 -7.398351065785521 0  0.3833647123308683 -7.265891613080964 0  1.62063830356144 -6.942595920806266 0  1.663137006405508 -6.711869752969024 0  1.474867512159909 -6.794619454709322 0  1.024987375318915 -8.031658024784866 0  7.137354322350061 -1.861280874915639 0  2.111786933582046 -5.488281427651886 0  2.195110943184323 -5.687179072304684 0  0.2064994839570602 -4.28958012570249 0  2.169778575776098 -1.549023819207128 0  2.050072093621303 -1.768777512779578 0  1.03734916085153 -5.117993346673082 0  0.914027534965097 -4.939943988351728 0  0.2806405996618633 -1.911674891599461 0  3.062344074633245 -3.119782396349889 0  0.2395539076260853 -3.836628096528174 0  1.135959847644385 -6.027015007297432 0  15.60836021968291 -3.453664510661882 0  16.4926723523491 -3.413715879934951 0  17.15669147288052 -2.60601630541593 0  1.400248966058403 -0.7623257015150529 0  1.280285587082062 -0.5920372465482684 0  1.364879677708251 -0.4069010016291195 0  1.164642417628624 -0.44013792605638 0  1.07916177720019 -0.6323172169654656 0  0.9707423112654379 -0.4629815453726787 0  1.043317838111063 -0.2747733289807188 0  0.8517992306759723 -0.3235114896892259 0  4.311666239364977 -0.3986301998074273 0  2.892850498276957 -2.20490840969725 0  2.696434657091306 -2.433835176236351 0  2.450557697388705 -2.440475211860218 0  0.256187732728824 -6.387095027974084 0  0.3544773463789532 -6.531258455948578 0  0.2062252334781824 -6.557814887359852 0  0.2979698185785633 -6.679136777853852 0  0.2572182116294783 -6.832668239402269 0  0.4077886506180803 -6.786600353282946 0  0.3733472065509069 -6.941780572598629 0  0.2353627681986268 -6.982427895470406 0  2.004625017398535 -7.083867763334125 0  3.338899643443082 -1.053549039461995 0  3.210067497181146 -0.8184646043787032 0  4.017005390663909 -9.380110498452211 0  13.13829906384117 -6.720520737181012 0  0.8221831767707339 -4.695774009525152 0  0.9013601490645708 -4.533689744743583 0  0.5318825458549519 -6.895807025445755 0  0.4918601931523376 -7.044289604940206 0  0.5472194697992556 -6.731843867546269 0  0.5002824096972631 -2.163752366983264 0  0.3475004446452825 -2.181913071078531 0  0.2674392394733811 -2.32576604298536 0  0.3879166767144717 -2.480654849126184 0  0.3340121756642134 -2.623186662013299 0  0.3968965826690685 -2.763456527243616 0  0.5796142470555541 -2.796147186211395 0  3.387155369208466 -6.499491463164011 0  3.225067551295719 -6.22774315675101 0  3.383233735299065 -5.938576699828508 0  3.115226364268521 -5.959392740543121 0  2.915553836621553 -6.21522648358145 0  3.076016845795884 -6.486245736717301 0  2.627792258759296 -6.316835445498453 0  2.666895920728772 -6.029209897871945 0  2.614168813885426 -5.029651592160908 0  0.5452734787190732 -7.262651070679089 0  0.5458568166253457 -2.982927797827071 0  2.38348463754614 -3.730837777137813 0  0.2683166919227222 -0.5783803486772321 0  25.2725897595875 -7.628174618982954 0  25.78265590433437 -6.415974113989119 0  24.98671734418063 -5.380665167200675 0  26.23149647645837 -5.200350263282138 0  25.45460096001152 -4.219528895327875 0  26.68979402818612 -4.024916831493441 0  27.0314494500935 -6.204018396433317 0  25.91135396676192 -3.089956108351455 0  24.71880706069291 -3.282078885127522 0  27.15385789254589 -2.857567011659443 0  27.93301213690853 -3.786558400802157 0  26.77484696883093 -7.545870154194022 0  21.98441714156186 -8.923485187076743 0  1.190756347658406 -5.668045414161154 0  1.062574120559075 -5.495938269932389 0  1.156412965259111 -5.293091004692341 0  1.137077252985229 -4.932628978460878 0  3.845813559788027 -5.59879204498108 0  3.478856621969953 -5.598648894188611 0  3.05144297231444 -2.607263760453943 0  2.911474367029633 -2.854625735712107 0  0.9342293680118559 -1.332761943692458 0  1.126216633482619 -8.325401839440108 0  0.4030313708790807 -8.367566521268856 0  0.3315767621469554 -8.518230447037903 0  0.3841241692528499 -8.690573716603318 0  0.3217750549932497 -8.229072271362497 0  0.3867960785299811 -8.092543492592959 0  2.879785213178755 -4.493462214884522 0  2.704105602503535 -4.235021639575957 0  27.40601038058939 -8.888880062970854 0  0.4204228226077049 -5.333779740361948 0  0.358713943409688 -5.487930871775065 0  0.4507546263848319 -5.630587285451615 0  0.274992715951047 -5.642955241542109 0  0.3897271356429481 -5.789959073704805 0  24.63594330052782 -1.14015373751804 0  0.3169285212490802 -1.734295639349806 0  0.1973250151553483 -1.666666666666665 0  0.7916725864093266 -3.573460817338469 0  1.444301118956954 -7.723496259655961 0  1.311503894237129 -7.921923769549116 0  0.6664752978167954 -8.836306903830319 0  0.4888849968171698 -8.840840137272318 0  0.408121052769129 -8.994907633305283 0  0.3150172404889879 -8.867042860636648 0  0.2504226979022928 -9.01513823274694 0  0.3360741163385725 -9.149921804062851 0  27.63740259184113 -1.331091453888437 0  0.4087898156702874 -0.2789204536200138 0  0.275934536727144 -2.899289224506719 0  1.389685323197334 -6.02328181242892 0  20.01552465428237 -3.645607464633431 0  20.50923039364488 -2.632164504857184 0  19.39945619764684 -2.77029243631688 0  21.66755163158717 -2.422817565035057 0  20.97535068883649 -1.521364415862142 0  0.2960277497688484 -3.694660896751201 0  0.2234317647131032 -3.5943892311454 0  3.567103742583189 -7.983225281513681 0  3.682006526610726 -7.663632519063466 0  0.3686566829935494 -0.7201026327455331 0  0.2725029151937832 -0.8713781599387245 0  0.3787772894445194 -4.567154866704318 0  0.3109428270369392 -4.720066276477631 0  0.3943425854132627 -4.877122303432995 0  0.2260286424175462 -4.857944128352703 0  3.300794233607496 -2.017438383378384 0  3.352966987499016 -0.5585758912997552 0  3.084724151205684 -0.5684959463078556 0  2.90447994478931 -0.3184280168928337 0  2.686723218433828 -0.4498562789600502 0  3.514103881571007 -0.2772754226799403 0  0.8287468298612204 -7.366005550076444 0  3.888546180028232 -1.378568689629159 0  7.523359493151775 -0.9405408559282389 0  7.83651753464322 -1.365052669725263 0  8.033365963974889 -0.9128917124645994 0  8.349994069571959 -1.357233822575214 0  0.4323809432076899 -4.122697734021271 0  1.472230981174217 -2.261522785031408 0  0.5384312257419932 -6.558631271337042 0  0.5605024541460359 -8.082934915858198 0  1.520901747366981 -0.9478089482608247 0  1.645490603788616 -1.12486042346109 0  0.6437935584127779 -1.159046469061442 0  0.5591317429885176 -1.293065349483935 0  15.46389533205404 -9.206583129934057 0  15.90131056071402 -8.387175092930379 0  16.86049549316841 -8.319365719399748 0  16.29627583964032 -7.511073610378105 0  15.43599279867642 -7.668728881808113 0  15.80072091937375 -6.775788165108729 0  12.84971854735613 -0.8031815994023397 0  18.46296054051389 -9.078535227658408 0  18.98854775519181 -8.174030332789165 0  20.13740341592393 -8.04864653099415 0  17.89177300370615 -8.240614828062295 0  18.43144958805475 -7.248218177266759 0  18.45971156806495 -0.9339961962796455 0  1.130684444847114 -1.687503832549949 0  4.181459768076285 -2.880335331054929 0  3.656340666757952 -3.128166071955227 0  3.504365213642826 -3.392417323461749 0  10.28068771057278 -4.658460133898994 0  10.62998728848873 -4.065254188409516 0  8.447090034349134 -4.849408989231142 0  8.687756029648721 -4.333770795063289 0  8.126304463016467 -4.404656973084245 0  9.25510313511791 -4.263911558743448 0  8.897921279727608 -3.854717031924172 0  14.0780753405664 -4.264462710372755 0  1.041945553885432 -9.827204291083067 0  1.12865581435371 -9.65813655530139 0  1.330353764104045 -9.660070837703689 0  0.8533576871399013 -9.847664765434148 0  6.873757112978893 -5.002006419160602 0  7.078250843882635 -4.565146062500236 0  6.600891892202915 -4.606927519296912 0  6.782648665475097 -4.192317191802908 0  6.328605340347826 -4.236570058616677 0  7.272261511583897 -4.127069341093033 0  6.142011623426233 -4.649817496263348 0  5.884044254157029 -4.286468812295924 0  5.694242218538946 -4.70067992823237 0  5.448864518601322 -4.344694023440032 0  5.629363683809181 -3.941341107645324 0  5.250977548834925 -4.031589984990148 0  5.05716975851356 -4.36184634011822 0  6.471661473183827 -3.836420810807554 0  5.509311969144722 -5.126025122706042 0  5.21351979416456 -4.79594221132945 0  4.82414523920662 -4.685170154631408 0  8.222820886723705 -6.300582284957864 0  0.1464847823335074 -4.71466870325566 0  0.3826265279328886 -7.831566178772749 0  6.687365433248463 -6.268823834501675 0  6.882626888850004 -6.69192221055927 0  7.383352381110598 -6.694562913421917 0  3.882462198878745 -3.565627228081348 0  3.740779489571505 -3.878081490452815 0  0.8548784240090583 -3.91102797963718 0  0.2410556114710385 -8.655374573399186 0  2.50748264463992 -6.592630299420884 0  0.6585674199603559 -9.459050474194516 0  0.4884268963819505 -9.449850460224646 0  0.410519719861977 -9.301168329821859 0  0.3342940794431897 -9.436431820425934 0  0.3979947215814335 -9.584716473070896 0  0.4952239901544342 -9.149458132447474 0  0.5591367758747037 -9.598034589650213 0  0.4595575075500733 -9.730721235444822 0  0.2770335356184326 -9.722306129190907 0  27.39374688800277 -4.967847299202669 0  28.24080123065712 -5.890301479496994 0  0.488064888261615 -5.939574558879382 0  4.091869467519 -1.654616201139889 0  17.43798252684147 -0.9056710767514566 0  17.83744315479317 -1.811893990623237 0  12.0556475203889 -0.6477311753285058 0  11.6368466325847 -1.20636389578085 0  10.97208052191759 -1.194397108663792 0  3.691897329153115 -5.901221489532665 0  0.2550258883088894 -0.3205360418641039 0  0.5136898444761577 -0.1416121565045154 0  2.940929781005575 -9.009906772661164 0  2.797814556766934 -9.249403945597017 0  2.979615124895169 -9.510049703381414 0  6.39975903007436 -5.034745428392336 0  0.5743717215137565 -8.678908674060967 0  3.561165710012411 -7.338384181251002 0  5.942947394497583 -0.7512665712202562 0  2.019002341148209 -7.93681431154832 0  4.185848525374023 -9.699297832746488 0  1.133085088149056 -9.00579955241556 0  20.52796323613715 -6.840433518901898 0  9.894552248529035 -4.067333198645946 0  3.491473973419374 -4.996236885010717 0  2.271643085309115 -1.323376307102695 0  7.906440367630736 -4.881212550005178 0  9.63238272182066 -4.718608559930238 0  18.89415497793136 -3.778442649188919 0  18.191856897001 -2.868282960550579 0  1.034038236526381 -8.500127361581971 0  14.58331968205166 -9.267450426776183 0  9.370414527877308 -9.48901101410762 0  9.092471466571723 -8.984197528908723 0  8.441633295897532 -8.951948183018461 0  9.381831156110106 -0.5330642265414589 0  9.69084309911155 -1.064900720921661 0  9.092392644186123 -0.9736847158526336 0  10.69714457397514 -9.332212012043623 0  7.132205908361644 -9.570857952115658 0  6.892840797637547 -9.20991140090571 0  7.354323407485159 -9.159354753127399 0  7.861545905752498 -9.102665990121601 0  8.182405207952606 -9.514839560937345 0  7.14067291286778 -0.510582571058003 0  20.75595989205909 -8.980444313288276 0  0.7490931522782631 -7.870964360166216 0  6.169667413404509 -0.3808353454035771 0  5.485829858730183 -0.7165084919053255 0  5.315172850116783 -9.686716755532558 0  10.66822363231842 -0.5833538837329559 0  12.17207746300987 -9.25080320988857 0  11.68278805575732 -8.754399255049277 0  0.2418515896641384 -8.378229232066424 0  6.181304459263009 -9.578110066409749 0  2.470221143341895 -5.769701516048278 0  2.430913322252827 -6.016666092858308 0  5.329309787974921 -0.3316783345144199 0  17.40753461003669 -9.136452391116993 0  11.68552125793557 -4.547302803858003 0  13.2397497777747 -4.309688067443534 0  1.836708351257249 -4.251456400211074 0  1.263548836023013 -2.213167539040412 0  2.369696176014545 -9.799458028674728 0  2.363648121071662 -0.2198122387783794 0  6.222463268578696 -6.262214034896665 0  5.984180473342025 -6.60563809664791 0  5.551312772249275 -6.583481681458482 0  5.740782090086835 -6.979916702906504 0  6.43783614702912 -6.668867814630091 0  6.078569991614478 -7.24192558313366 0  1.883345292238317 -9.811148015535288 0  1.767745909983976 -9.6195935390289 0  1.541982153893546 -9.65606449145789 0  1.888165545556806 -0.1947180809917679 0  6.340451481654965 -8.803926177146918 0  1.421188020734149 -0.2026831149947066 0  3.097736421878338 -8.235714967758387 0  9.406875235140099 -6.354713299097012 0  8.454476340133082 -6.900371007435437 0  5.353358393243383 -6.223523339940927 0  0.2480776138121499 -9.28358064591918 0  0.2724353277138061 -1.446417749883879 0  1.44249879604345 -9.8263466183029 0  1.219637978332569 -2.994820950110739 0  5.145753258152205 -6.558481861843128 0  4.753500280256596 -6.518568691200066 0  4.950941205069256 -6.900031975690325 0  15.02856207100893 -8.515134973706132 0  0.2459624027811849 -5.358898337209616 0  0.1658632295994149 -5.220511262567226 0  1.871252877118732 -2.857117592773219 0  0.7209908276519226 -4.994086462279486 0  22.35662336335173 -3.461269760706185 0  0.3446283963693961 -7.108448521271415 0  8.065214990707272 -1.776597044008491 0  8.586683101932593 -1.816232650313553 0  0.9187311386336834 -5.764388096860515 0  10.30732841382856 -1.139744500174227 0  14.24426367105309 -1.369127477571158 0  0.7981576918232012 -0.5233534672672153 0  22.87684484972142 -2.320351963608176 0  0.1264821323343739 -9.638374145935156 0  0.1243345748936164 -0.365822848799608 0  0.3330067446142628 -1.321121608943868 0  5.444954539867261 -2.462064620249215 0  14.25567758348508 -7.230161958883475 0  0.1252524981138343 -0.6519206317262736 0  4.921801588574549 -7.290728339781027 0  1.56842689717017 -0.3751062674760366 0  0.121927581729647 -1.379721775844458 0  0.1538879041165853 -3.991654088237789 0  0.1228072300716487 -2.247531055473402 0  0.1322677800167451 -1.962589447102643 0  0.1311587807219965 -7.754839070554443 0  0.1238327561488148 -8.04173503332914 0  0.2747267517902472 -7.967374769005477 0  0.7356520707732628 -1.340532891159687 0  0.1257299048472724 -2.394766007307229 0  0.1255109280847009 -7.608695652173913 0  0.1170764167657872 -2.68096221121439 0  0.1255109280847204 -7.318840579710145 0  0.1165859264514602 -3.400433631875115 0  0.2576277899201038 -3.313455675592035 0  2.914723270165021 -1.025101188799109 0  0.1267370756621879 -5.723101235909191 0  0.1153003253399927 -6.01619085711534 0  10.9853265863671 -3.477620543111417 0  0.1255109280847009 -5.579710144927536 0  2.056482442257582 -6.029655161639057 0  3.607623701054827 -4.166661319342207 0  0.6604551130982141 -3.10495373519848 0  2.079103493132155 -0.6858865619804071 0  2.18278753433372 -0.4407394500824324 0  0.9143549324246987 -2.404892453686725 0  3.714367891140206 -8.780133037236254 0  28.99484563840695 -1.717366084148766 0  29.08565481056426 -8.376005712638211 0  1.15125482180987 -3.178930646318759 0  29.04997828976228 -3.986949514672212 0  1.29959964391881 -0.9691081329827451 0  1.522334931353472 -1.303544384745053 0  9.716882972028348 -6.876010100951808 0  6.040275305722778 -3.874538201900136 0  27.81153003465734 -6.958426750396558 0  1.36032428659569 -4.019285592026059 0  4.728397282826322 -0.9624034304630928 0  16.85943952630816 -1.690871311497163 0  4.724576458225727 -5.245950578347962 0  10.33131337806396 -6.889242541301372 0  1.888739574348042 -7.326112431657574 0  1.537834184532702 -8.657771752664104 0  4.849411400451125 -2.203542395707307 0  0.9371169232390528 -6.061017511934425 0  1.320208861560086 -7.175112700674518 0  1.406668515836586 -6.986017199865091 0  23.75459373485043 -5.506183480928072 0  1.228082634561456 -7.700364621011857 0  0.6455117881346624 -7.398048993445144 0  3.263080530099359 -3.628953621559187 0  2.175089339401685 -4.045107230325849 0  1.884488755636713 -8.120335121944491 0  4.302258275036909 -4.678426737993601 0  4.569412052239423 -6.192623771670108 0  4.383526529671876 -8.232510410933244 0  0.7244079611928171 -1.006526363558942 0  1.98753693328451 -5.824777079479401 0  1.693549753824239 -5.453705676805386 0  0.6107140909107045 -6.391619910425706 0  1.09179623082753 -6.855288576457474 0  7.679979925198912 -6.267823536505528 0  3.984897102733324 -2.549423042092256 0  6.308529187055875 -2.315448809223402 0  5.805357064086957 -1.947430410065865 0  2.011240084546358 -3.060832780789605 0  9.86098779828647 -1.582485543520061 0  7.591793293035733 -4.479179922396536 0  2.837888032557057 -1.742559894349447 0  2.418864627935955 -8.990233611460702 0  13.42070399934475 -1.453405607903822 0  5.064851303844961 -2.500920227520418 0  0.5745594369213869 -4.855421530960552 0  5.12462682909916 -8.251103917963665 0  5.93163953030356 -8.287306253436039 0  6.736841467143067 -8.586741084169702 0  2.895803744198961 -9.766351991505942 0  7.051929882529206 -7.135371552984743 0  1.752092024285465 -9.400083655476015 0  7.788770105031832 -8.387791827803932 0  0.8053329337900372 -4.392719631331675 0  10.03765823237439 -8.500821366026722 0  8.834537778106993 -8.462764751298641 0  5.713447599772843 -3.535603959388992 0  7.544248841951812 -3.448595031532401 0  7.750021882365359 -3.943306512608048 0  12.41317678098301 -3.453162570131571 0  13.95917354763761 -3.458233682412196 0  10.33997185054844 -3.477000532249691 0  0.1493555580123882 -8.898020089307449 0  1.321745950407594 -3.6777874836593 0  0.8713195388978203 -5.454948942120089 0  1.07355135821396 -6.532791281630326 0  1.680498925537078 -5.080678953136167 0  1.691774990214252 -3.27397009066497 0  8.349231142421614 -3.90994308970562 0  1.502423388520526 -6.203786144853758 0  2.357553776129503 -4.622162605167578 0  4.927863679374235 -3.462286544950287 0  6.654814036278154 -1.841554436203202 0  0.7848551610894425 -1.804421842439625 0  1.820956227830299 -3.446066607365895 0  1.032351494886816 -9.159215721640749 0  0.7397958531013131 -3.766815176036133 0  1.52984617891409 -4.538119136810748 0  2.515213812563454 -7.512957064284469 0  4.207995150062938 -6.77453504232543 0  22.08450260587667 -1.072397326339749 0  0.1163724451690129 -4.40071926060615 0  0.2682818282878152 -4.137673638379888 0  0.9617763803681676 -2.237828823119008 0  4.550426207029956 -7.342299713311759 0  4.547300689575046 -9.709052129595523 0  0.9658344747577541 -1.763780916748053 0  1.646440671829243 -8.833500803924508 0  4.438227557633883 -4.37514033097143 0  5.00846833842612 -1.887179472637102 0  2.008952168926299 -2.015382305821922 0  4.558059305045054 -8.528467421011912 0  1.092187474491531 -5.830305253135158 0  17.26511969314966 -7.439586151020692 0  2.005688282280529 -5.27260307746519 0  8.239412421401141 -0.461864232908531 0  0.9958471127163548 -4.380339521779334 0  1.284195418217092 -6.836137052948454 0  0.1201141956211913 -9.057971014492754 0  0.5271307562862333 -9.866357316585693 0  24.2471675233363 -4.384789055891726 0  0.2454676671845419 -9.5531107957496 0  0.1213090388224316 -6.88817556410834 0  12.96013111486394 -9.331493106076536 0  1.749812306917656 -4.517533797280234 0  1.671216146305923 -1.494398005374888 0  4.752286305010527 -3.767042748730786 0  3.867895050481449 -9.069548482612042 0  1.093360047276406 -2.854742006707301 0  0.9206716918726894 -8.353184339255389 0  0.216529424219754 -0.1096137960649486 0  0.2164737234860041 -9.878295335450654 0  0.1153821804167769 -9.348963906565965 0  2.122887069527428 -5.0740599294224 0  3.337792983505272 -5.270313040530574 0  1.23541253182521 -9.176847542925183 0  0.245478789558204 -7.826841378791665 0  2.997966561548861 -1.966609681071602 0  5.333158220380238 -6.864372136325162 0  10.67881230762614 -6.332122657423028 0  1.500298973872134 -2.748725341755864 0  0.8673790631623923 -0.162988206916638 0  4.727894524566596 -9.408570007775909 0  0.6538083592540627 -7.021725073112231 0  1.626952008884754 -2.423819129776431 0  2.946258640370145 -7.285731197066269 0  18.87522625698172 -1.866825721191729 0  11.37811617174363 -6.316348335490037 0  1.174680028401571 -6.687965521687222 0  2.342412151258118 -6.403449018032178 0  0.1168879355767096 -6.161037638830726 0  1.440233475885758 -3.84022510216746 0  1.272424661038311 -1.85146046661224 0  1.939383818450018 -1.518056702743962 0  1.989398752651383 -9.623423995336694 0  7.538596735720636 -7.128813995715398 0  8.595244792313776 -3.431190687266864 0  0.2452670746480745 -7.536231884057971 0  11.25356359783342 -1.775274051148043 0  2.643561067960649 -7.287839099546795 0  14.70055568681573 -3.481773655442739 0  2.194780041421351 -8.594083373779556 0  2.095216745862237 -8.410382035319115 0  9.696740442913157 -8.990266101504975 0  1.50449659320647 -6.628502494510531 0  1.911335963222243 -3.258305207798729 0  3.015352579124958 -5.719595328560579 0  0.2461560998825973 -7.229018040565026 0  14.64592683297347 -0.683697293878943 0  4.844941433188122 -0.6214216789236193 0  0.1176067268954917 -0.9443036375745937 0  2.358605829497284 -5.058564773280799 0  0.1110110882536546 -3.116582619849819 0  23.54306195554829 -3.371010521798389 0  0.2237178024174415 -5.098240018135357 0  0.1144799631488649 -8.611616704632691 0  3.569562522655851 -3.63769571859219 0  1.329980973317056 -9.345181824689456 0  0.1128187036169717 -8.328901516080551 0  0.7627053545772213 -4.833979186843313 0  0.11410028077524 -6.451930361799353 0  6.371615841611309 -0.7537551569484107 0  0.2412897324982701 -5.818806723494195 0  2.196941526611695 -9.009916801861143 0  2.458051401483647 -0.4391414783394216 0  0.9999307029516018 -8.19327816552299 0  5.219601584445389 -2.182164668676267 0  1.789391393204291 -5.269161003865407 0  1.785300878839065 -0.3560450498288903 0  3.660384999496682 -0.5421540143916586 0  7.227569824671917 -2.318227423397839 0  13.47559042131583 -8.640477419776317 0  11.74569611712213 -6.848433693109265 0  11.3274781840868 -4.02495877678445 0  4.551789661829861 -6.79232216302968 0  0.2510814826837553 -2.049156796392113 0  0.2387741633108114 -8.129581083522199 0  2.678889674422456 -9.509894377593959 0  19.95186416975781 -1.7578603685841 0  13.82316786080183 -6.571716688985037 0  0.5848873420639897 -0.2790798204846769 0  3.437506527572445 -7.580129137041672 0  0.1160669050714631 -2.972083995877572 0  0.2442433789469884 -2.733294554544408 0  3.055342064570798 -7.511139753582711 0  1.563853732089211 -4.010891146927229 0  4.610495480925008 -0.2929728470389996 0  4.928745202872868 -8.534906650946219 0  6.616448334219788 -3.440906404453215 0  0.1057368708938053 -1.086956521739129 0  29.25277274269671 -6.069286539443367 0  2.768517272626511 -3.06391246553107 0  1.188930530579107 -2.044689897862712 0  8.54796771597675 -0.9307827034210936 0  0.1049929949334594 -3.840579710144927 0  3.227598560002438 -9.473577066456317 0  16.5920374199074 -6.528547373287372 0  2.55069353133667 -8.322549826544936 0  25.28146165774093 -2.191320069247219 0  24.07114373469536 -2.24270521985478 0  1.638550467846894 -8.475356250103257 0  1.294808068943379 -2.808868264576766 0  0.6207375567497238 -9.73528962616675 0  2.547507043282094 -9.231177631211379 0  15.92145674951315 -4.218076769794756 0  0.8710743148522901 -1.492962781130064 0  4.692030921190106 -7.065842230511016 0  28.13251172023751 -2.297371419394266 0  3.234080408226644 -5.742674361563695 0  7.063440057954546 -8.830196474196981 0  0.2320479432617191 -0.7237766444726255 0  5.111286870825545 -9.40207533202933 0  0.4291773022233674 -6.657494145193738 0  1.980815022419124 -4.019472501923725 0  2.589060158024161 -0.6444603875792927 0  0.100691895234263 -4.854747634794676 0  10.24935926774498 -8.983367631324562 0  2.234730124905319 -2.002294029336046 0  2.797132730878483 -2.666113758478712 0  6.473672473669488 -9.2109089823671 0  0.1114465770488291 -7.033418589881538 0  2.245063250785197 -9.625679324105388 0  7.527157711876185 -8.733799966242881 0  3.987381038919166 -0.4931778760759169 0  1.670908903794867 -4.17327229077119 0  0.2421222907939189 -2.489498078874577 0  2.371862045185825 -2.238552980352342 0  9.145424375432418 -3.402814220870791 0  2.494803878727012 -4.813647795802466 0  1.04343186162442 -0.116982960418607 0  0.2518979538566661 -4.598363444834895 0  7.841616503263679 -6.664808597415194 0  18.45237750279218 -6.300276126112787 0  14.22756700497203 -8.602952209742607 0  15.62823606342922 -0.7168872737359671 0  2.871956743855455 -3.264549883696086 0  1.864179705952335 -1.868651774736123 0  0.467752524971953 -7.962657364183658 0  2.309189695992824 -8.78795667592604 0  3.299093121790511 -8.001907464375865 0  7.613735174033707 -1.715014981582401 0  12.04302875699336 -3.99316117340031 0  4.734280224304293 -4.359540953104773 0  5.715824580922622 -7.335606860687317 0  0.9391172401295016 -5.605203772554288 0  11.16318231162231 -8.888891827500435 0  16.86148541845807 -4.136948865633675 0  1.433568553814982 -9.503329558888922 0  9.344616849346583 -1.390260197743537 0  0.6073174657059059 -1.425401179495268 0  0.2275464493002008 -5.507246376811596 0  1.861799849211277 -8.456901742716497 0  2.981698879145785 -0.8140637080044266 0  6.784539386030083 -0.7531202502746153 0  0.7156859126888548 -0.2772569517680354 0  5.312206715124749 -8.538665963981522 0  2.291451184779849 -8.352115647642828 0  0.2713199372047068 -4.978362530729661 0  11.95685483105676 -1.737683502558336 0  1.110196610561223 -2.184516178883966 0  0.3629875320850644 -3.582384446920412 0  15.00343144866358 -7.02917939769648 0  4.91175184786122 -4.051715281601036 0  0.223483478243546 -0.4347826086956772 0  4.883096782781603 -4.982762940783252 0  2.258379706495965 -2.385751781996083 0  2.629904521807859 -4.548841679970061 0  0.8792478072547318 -8.019187152239928 0  1.351613864463339 -6.667688166821921 0  0.1054115302758944 -3.545291005595284 0  9.38816592254174 -3.80678691146378 0  3.518270545056552 -9.809418603094736 0  1.954520349150599 -8.291028653490228 0  6.91878213592061 -3.797702183696787 0  2.000509141129038 -0.3399131180588011 0  2.449848279956521 -6.210148742958601 0  5.14816539191739 -0.5864914181797518 0  29.15458627796625 -9.251574808877361 0  29.05254988486884 -0.7529542514656322 0  0.6391744184185413 -7.960238884068858 0  2.238447612303361 -5.91677369923007 0  0.09006233379697903 -6.594202898550725 0  1.903873409102523 -5.461847624756543 0  2.006657118144636 -3.430922521874114 0  15.23468257240564 -6.369278781524793 0  3.255294406605477 -3.332529789083504 0  0.1041054166874229 -5.119917353599027 0  12.43898104673382 -6.817135242867521 0  4.101621625640965 -0.2334612536906189 0  28.05054449152042 -7.982921855781578 0  26.40100258325072 -2.143472820028051 0  8.258810727283253 -2.207166115848876 0  2.65808889011265 -8.121399884635069 0  2.93864187214956 -2.414182531159636 0  2.510873201984225 -2.643928555529447 0  6.812708024232816 -8.231543315500582 0  2.476261068866132 -9.630999548326681 0  15.99835670378486 -1.510747100492876 0  0.1024874960916424 -0.104062333376528 0  0.09622840952952139 -9.90319529897419 0  0.2228678649917555 -2.181163248258345 0  12.18239340338229 -8.541671832636332 0  5.714089846936758 -8.547674371669345 0  20.38747224906905 -0.8423237873727736 0  0.1067328047901039 -5.322379736080838 0  12.7278397014953 -3.961528252635048 0  14.63461408250534 -7.855563493338591 0  1.817249060880952 -6.605817113590797 0  17.31526369224881 -3.354252244127514 0  0.08592544157408177 -4.27536231884058 0  19.49157225010851 -7.391890667916128 0  0.5852863995187505 -7.137563018058072 0  0.2120589713368606 -2.612780008531818 0  0.08535705391934378 -1.666666666666667 0  0.2181548407364176 -6.240626052987902 0  5.508420996851338 -9.400615110778526 0  0.5125926361551123 -3.551956862632658 0  0.2106651512305753 -9.415778625028842 0  0.2356571552092426 -3.455948215235745 0  11.25825152325679 -8.44571594262699 0  8.868991656278022 -1.401951462930812 0  0.2189669947878663 -7.107117029491583 0  5.090009920618929 -3.755482921432085 0  0.8862044938065061 -4.808549689213211 0  8.037801907496608 -8.727486327412503 0  2.515358810704862 -4.173423633761634 0  3.128977043174789 -1.019510585418176 0  7.306331960961618 -3.753437596970739 0  1.540422737372417 -2.574365037005428 0  0.2105513876832017 -9.127167612117992 0  2.349454467032407 -3.984579756573385 0  28.41291928796269 -8.8998764880536 0  0.9770225361623304 -5.920867279859968 0  0.4354174939640636 -1.270800543699263 0  0.240343637560688 -8.770224431858466 0  0.2062771315780303 -3.1804646880509 0  5.554206768219396 -2.156411620769397 0  0.438929228667357 -2.896392167858998 0  0.7632368819206352 -9.742813263322859 0  6.175765782167325 -6.89254804910175 0  0.4637843368601366 -7.168925569595642 0  8.787006553553219 -2.199864400001954 0  4.56174693869659 -4.619997689844035 0  0.6782211949445802 -6.681324080529698 0  0.216264185209889 -1.296782059617219 0  12.23021939442179 -1.199527565575561 0  3.393774700007429 -1.27871258812089 0  12.7429778438552 -6.264722039949529 0  2.906966265339287 -8.107872131147431 0  1.244687024571673 -0.3026406784711071 0  2.004368271856379 -5.619161668271123 0  2.881221032819148 -5.922246259823039 0  0.2115755371313597 -8.539778829651857 0  6.701449255611921 -8.928336823757283 0  0.2106816408607859 -5.9493877055207 0  28.30348906752982 -4.690267818203139 0  5.397468655605717 -3.749439537585392 0  2.336122456829276 -3.461574528930547 0  1.417726428470777 -6.5177882406704 0  6.101060298690729 -8.567624714439901 0  0.2685808827740175 -1.58476375016673 0  3.404292678624428 -7.796282065138706 0  0.2061489199906443 -8.250513635208668 0  0.967048274307901 -1.629810365369638 0  5.898506425049614 -9.375981975431021 0  1.168281665227189 -7.989709899593545 0  0.1968122105507106 -1.160853809142534 0  3.089578177937362 -2.125753601912562 0  1.042395236585651 -5.694106280550019 0  6.05521421176956 -2.139350332481126 0  9.950292409390217 -2.066138360002594 0  1.621395571995393 -9.504524852499117 0  2.840413258035436 -0.6300786153117643 0  1.303141275142732 -2.368614438865282 0  3.730568472350004 -3.36615585150175 0  0.6365645588453468 -3.518888542495845 0  0.2773529775664905 -0.2071521345878162 0  </DataArray>
</Points>
<Cells>
<DataArray  type="UInt32"  Name="connectivity"  format="ascii">188 968 1062  868 1238 1374  1019 1233 1234  186 1192 1363  1242 1311 1478  224 909 943  795 1137 1138  1050 1068 1070  554 1019 1233  772 777 1226  846 1292 1297  647 873 1090  224 909 998  245 1177 1280  188 1062 1063  400 965 1447  1149 1150 1156  894 1491 1517  542 979 980  877 1100 1222  795 1137 1140  1136 1238 1374  1150 1153 1156  847 982 1278  186 1192 1509  243 1035 1521  561 1016 1018  1158 1257 1545  148 149 1289  666 1257 1545  268 270 1493  542 980 1278  524 926 956  245 1177 1425  497 499 979  658 1239 1527  380 935 1383  899 1419 1447  499 976 979  742 925 1126  205 932 1395  184 954 1299  178 989 1595  1191 1491 1517  815 1311 1478  400 1419 1447  742 925 1127  497 542 979  896 1325 1611  452 1000 1001  270 999 1493  524 926 995  862 1239 1527  761 1274 1634  595 597 1257  452 967 1041  452 967 1637  414 966 1040  470 1064 1390  102 103 1140  647 1090 1359  425 452 1001  400 965 1550  178 989 990  869 1043 1428  920 1229 1615  577 1265 1286  913 1064 1390  205 932 1544  499 975 976  827 1434 1515  1050 1070 1648  1070 1376 1648  920 1229 1417  1073 1314 1592  17 18 1095  772 890 1226  322 326 1023  1070 1071 1376  652 795 1138  191 1242 1311  221 1100 1222  974 1183 1207  566 1043 1428  406 971 1076  606 1162 1247  561 1016 1017  1014 1043 1187  518 1011 1022  846 1297 1451  351 353 1017  46 1081 1617  901 1350 1386  761 1562 1634  1307 1344 1594  185 1094 1095  1384 1542 1580  887 1434 1515  732 933 1660  896 974 1325  46 1081 1394  1050 1068 1194  209 1087 1464  975 1108 1318  1121 1200 1624  429 942 1256  185 1093 1094  1128 1337 1599  834 1121 1200  882 1289 1396  962 1344 1594  1115 1407 1510  346 939 1269  985 1532 1608  241 1177 1425  380 935 1672  954 1299 1461  577 1265 1432  2 60 1591  1 51 1592  732 933 1099  722 1099 1181  853 1429 1471  1110 1111 1295  817 1039 1040  1034 1035 1521  295 297 1155  595 666 1257  1026 1031 1036  416 959 1479  1072 1171 1259  1177 1280 1415  103 216 1140  621 1002 1004  953 1495 1498  980 982 1278  818 971 1076  381 1495 1498  924 1060 1180  745 960 1484  1160 1294 1551  730 1350 1386  380 957 1458  242 1179 1322  1080 1279 1394  499 975 1318  1133 1354 1372  243 1035 1317  817 1039 1378  17 227 1095  620 1021 1336  683 1212 1369  543 601 1278  6 7 1189  577 1246 1432  322 325 1023  1136 1374 1454  777 1196 1226  924 1060 1476  353 561 1017  985 986 1608  594 1008 1009  467 1110 1295  817 966 1040  620 1098 1336  766 1201 1375  179 1289 1396  681 1479 1581  429 942 1257  583 594 1008  1014 1043 1522  1151 1321 1370  652 854 1138  848 849 1448  242 1179 1504  148 179 1289  849 1448 1535  570 1123 1407  1153 1156 1157  1052 1294 1551  745 960 1554  1004 1106 1657  374 380 1383  380 957 1621  236 1075 1496  773 778 1351  321 1147 1149  1128 1337 1470  895 896 1611  351 1012 1017  326 1023 1671  786 1099 1181  859 1216 1530  1146 1354 1372  464 1136 1454  834 1037 1223  439 1108 1109  1149 1155 1156  906 1066 1335  722 732 1099  801 998 1421  297 682 1155  848 1250 1365  529 1542 1580  40 1462 1548  966 967 1041  149 1289 1508  981 982 1435  203 970 1082  945 1087 1464  416 1047 1479  606 1162 1364  1011 1022 1651  355 357 1168  1211 1212 1369  346 939 1434  340 346 1269  1130 1201 1375  414 966 1041  909 998 1421  834 1121 1223  974 1183 1325  1007 1290 1614  1065 1066 1335  597 942 1257  453 1085 1195  1009 1539 1626  1025 1026 1036  808 1118 1357  179 963 1396  102 1137 1140  678 1200 1624  518 519 1011  818 1076 1383  824 964 1203  19 20 1097  859 1216 1559  753 769 1203  577 1246 1557  977 1254 1287  221 1100 1102  188 968 1291  18 185 1095  1050 1167 1648  1072 1171 1174  853 854 1471  832 1574 1630  602 1005 1006  625 1106 1657  925 1126 1349  1034 1073 1604  570 1407 1510  964 965 1447  558 1069 1174  621 1004 1657  1162 1163 1364  1095 1096 1686  602 1006 1007  453 455 1085  920 1417 1485  981 1435 1543  1008 1009 1539  226 1363 1491  926 995 1328  1007 1290 1296  776 885 1127  321 1149 1155  425 1001 1410  439 1108 1318  361 995 1328  357 369 1168  846 1292 1430  848 1250 1448  773 845 1351  1080 1081 1394  601 847 1278  636 1058 1060  927 1462 1548  847 982 1568  899 1109 1319  524 956 957  247 251 1025  933 996 1660  1183 1207 1440  1010 1075 1497  912 1075 1496  201 1417 1485  830 910 1301  143 144 1159  941 1023 1671  703 1126 1349  977 1254 1663  908 1463 1500  7 215 1189  914 1486 1601  584 602 1005  518 1022 1309  1164 1470 1688  959 1479 1581  519 549 1011  334 941 1597  1164 1165 1470  636 637 1058  1034 1073 1521  818 935 1383  1058 1059 1060  194 1213 1215  334 941 1671  295 321 1155  1072 1259 1643  425 426 1410  337 1532 1608  467 1110 1343  310 313 1202  144 205 1159  1059 1303 1306  1079 1207 1440  734 1092 1431  202 1118 1357  6 240 1189  20 225 1097  324 1337 1599  221 1102 1409  408 414 1040  647 1270 1359  576 832 1630  938 1054 1580  253 256 1200  424 445 1208  51 1073 1592  466 467 1343  854 1138 1139  1119 1122 1236  230 1260 1288  1192 1363 1491  1129 1201 1205  1069 1072 1174  223 1196 1225  344 351 1012  776 925 1127  877 1222 1567  1094 1095 1686  511 655 1020  969 1045 1505  482 1165 1308  1092 1431 1681  1019 1234 1589  291 293 1193  319 325 1054  882 1104 1396  625 1106 1346  329 446 1187  927 1548 1611  1042 1043 1187  605 1362 1609  730 960 1386  678 1123 1546  501 518 1309  728 786 1181  1163 1364 1449  393 416 1066  769 824 1203  246 247 1025  869 1042 1043  50 239 1073  313 483 1202  321 1147 1193  186 943 1509  542 543 1278  636 1060 1180  530 649 1194  737 1321 1370  1067 1068 1194  256 678 1200  743 779 1092  440 467 1046  306 869 1042  241 1176 1177  446 1014 1187  445 526 1208  1134 1201 1205  228 1251 1261  625 626 1346  248 834 1037  688 1165 1308  1016 1018 1019  316 529 1053  824 964 1447  558 1067 1068  605 1362 1523  568 850 1104  1114 1122 1236  537 593 1552  48 217 1061  974 1207 1622  63 214 246  388 610 1065  880 1191 1192  924 1476 1668  642 1056 1057  747 753 1203  617 660 1098  561 1018 1168  649 1050 1194  251 1025 1026  504 558 1067  338 340 1269  1031 1036 1322  477 1486 1601  232 1024 1285  895 927 1611  737 1154 1321  861 1239 1418  1018 1019 1589  80 193 1221  203 1082 1083  429 1158 1257  199 981 1543  825 1264 1341  783 1108 1109  665 900 1401  899 1319 1419  792 945 1087  217 1279 1394  1260 1288 1658  583 602 1008  184 954 1451  22 983 1500  60 1055 1645  1170 1173 1175  406 971 1406  545 1429 1471  1122 1123 1407  806 1024 1086  803 857 1062  823 1088 1089  355 561 1168  195 1376 1648  969 1505 1549  564 1264 1341  359 524 995  582 1239 1418  496 669 1166  407 1038 1039  1139 1251 1261  535 571 1190  952 1255 1553  659 924 1180  778 901 1351  1009 1010 1497  80 81 1221  264 1117 1510  796 1262 1316  502 1262 1316  179 963 1623  19 185 1097  584 586 1005  60 61 1055  1270 1359 1473  42 208 1182  36 198 1184  528 558 1174  259 525 1206  902 1531 1540  664 1048 1051  880 1190 1191  1059 1303 1476  439 1109 1319  621 1002 1437  193 1212 1221  533 535 1190  694 742 1126  761 1274 1655  642 643 1056  257 259 1206  885 1127 1128  570 1123 1546  632 659 1180  470 471 1064  199 1254 1663  339 986 1579  436 496 1166  48 49 1061  420 452 1041  62 63 246  1169 1170 1175  227 1095 1096  214 246 247  956 957 958  1006 1007 1614  217 1061 1513  291 1141 1193  730 960 1484  287 342 1204  358 359 995  186 943 1585  178 990 991  464 972 1454  675 684 1320  214 248 1037  49 239 1061  62 238 246  674 823 1088  203 970 1508  682 1155 1156  781 1044 1045  775 779 1044  231 1231 1666  293 321 1193  209 1087 1524  43 44 1124  37 38 1118  1191 1192 1491  938 1384 1580  223 1226 1235  72 201 1209  77 218 1216  79 193 1210  32 194 1213  42 43 1182  83 189 1217  36 37 1184  28 190 1222  317 319 1054  65 1037 1223  358 361 995  26 223 1225  401 407 1038  215 1435 1568  87 182 1227  677 962 1233  661 672 1224  1212 1220 1221  723 734 1092  275 422 1237  271 450 1238  819 1408 1427  892 1338 1644  336 344 1012  615 620 1098  565 1169 1170  285 287 1204  386 393 1066  455 461 1085  484 511 1020  555 565 1169  403 416 1047  428 440 1046  1133 1204 1354  780 783 1109  670 882 1104  385 396 1105  303 306 1042  294 365 1243  836 965 1531  721 743 1092  68 1119 1236  279 1129 1205  572 664 1048  1173 1175 1176  785 975 1108  314 316 1053  378 388 1065  284 286 1158  613 617 1098  395 1234 1594  417 432 1125  678 1123 1624  1048 1049 1231  1079 1206 1207  290 292 1161  956 958 1333  416 959 1679  567 568 1104  515 1255 1553  61 62 238  49 50 239  795 897 1652  782 1186 1276  415 420 1041  888 1105 1438  663 846 1160  365 1245 1258  282 429 1256  448 504 1067  199 981 1663  198 1186 1228  610 1065 1335  942 1256 1320  867 1125 1446  558 1068 1069  591 806 1086  71 72 1209  76 77 1216  78 79 1210  32 33 1213  82 83 1217  28 29 1222  26 27 1225  1059 1060 1476  637 642 1058  86 87 1227  308 310 1202  1264 1265 1488  972 973 1518  50 51 1073  854 1139 1561  339 986 1608  573 881 1107  660 1098 1336  923 1304 1668  857 1062 1674  1062 1063 1674  931 1197 1339  250 253 1200  553 677 1233  1056 1057 1267  795 1140 1652  641 661 1224  1115 1117 1510  1031 1178 1179  1049 1231 1666  413 424 1208  273 275 1237  269 271 1238  869 1202 1428  43 1124 1182  37 1118 1184  1145 1154 1321  948 1232 1533  223 1196 1226  292 294 1243  1160 1294 1430  304 329 1187  692 742 1164  198 1184 1185  1028 1031 1178  571 1190 1191  238 246 1025  1018 1168 1443  656 792 1087  470 1166 1390  277 278 279  279 280 281  275 276 277  281 282 283  273 274 275  283 284 285  271 272 273  285 286 287  287 288 289  269 270 271  267 268 269  934 996 997  265 266 267  204 987 1628  263 264 265  261 262 263  860 933 934  1148 1149 1150  289 290 291  93 186 1363  259 260 261  278 279 280  280 281 282  276 277 278  282 283 284  274 275 276  284 285 286  272 273 274  286 287 288  229 1254 1287  768 769 770  270 271 272  288 289 290  268 269 270  770 780 783  266 267 268  506 530 1194  264 265 266  257 258 259  1047 1208 1423  262 263 264  733 734 735  741 746 747  1145 1147 1148  884 975 976  535 536 537  713 720 721  303 304 1042  291 292 293  260 261 262  293 294 295  295 296 297  467 1046 1295  215 1189 1494  297 298 299  446 1012 1013  594 1009 1010  280 282 1256  290 291 292  301 302 303  258 259 260  299 300 301  593 1455 1552  296 297 298  294 295 296  514 515 516  533 534 535  292 293 294  496 508 567  655 677 905  575 576 830  659 921 923  317 1053 1054  978 979 980  298 299 300  850 932 963  357 358 359  355 356 357  353 354 355  351 352 353  300 301 302  256 257 258  302 303 304  255 256 257  396 1105 1240  677 905 961  536 537 593  312 313 314  525 1206 1207  534 535 536  436 447 496  500 509 575  835 882 970  632 648 659  352 353 354  354 355 356  336 446 1012  356 357 358  1173 1176 1177  350 351 352  611 612 613  612 613 617  240 1074 1189  1147 1148 1149  1068 1069 1070  720 721 743  401 406 1038  933 934 996  610 611 612  515 516 1255  386 1065 1066  662 663 843  892 1023 1644  1083 1574 1632  663 843 846  313 314 316  661 662 663  414 415 1041  368 378 388  193 1210 1211  1229 1230 1615  660 661 662  484 529 1020  553 655 677  802 842 968  189 1217 1218  609 610 611  746 747 760  268 517 1493  367 368 378  648 659 921  448 506 1067  641 660 661  557 931 1197  769 770 780  508 567 568  407 408 1040  836 964 965  447 496 508  428 432 1046  649 1048 1049  193 1211 1212  743 775 779  760 836 964  673 850 932  775 781 1044  344 350 351  576 830 832  680 956 1333  780 899 1109  781 969 1045  516 533 534  84 189 1232  214 247 248  565 1170 1171  463 514 515  509 575 576  316 484 529  1013 1015 1016  572 649 1048  210 1259 1643  1069 1070 1071  511 553 655  445 448 506  1143 1145 1147  788 860 933  443 445 448  253 255 256  25 223 1235  721 723 1092  359 370 524  329 336 446  568 673 850  1150 1152 1153  723 733 734  707 713 720  735 741 746  591 656 1086  801 870 998  753 768 769  388 609 610  306 308 869  99 228 1261  314 317 1053  613 615 1098  372 374 380  391 401 406  310 312 313  378 386 1065  617 641 660  615 618 620  830 832 1301  365 1244 1245  873 1090 1571  319 322 325  364 367 368  880 1192 1509  1170 1171 1172  630 632 648  973 1518 1560  420 425 452  330 332 334  543 544 591  567 670 1104  783 785 1108  365 1243 1244  670 835 882  433 436 447  962 1344 1664  1133 1372 1382  340 345 346  646 873 874  393 403 416  785 884 975  376 385 1105  530 572 649  332 334 1352  696 703 1126  403 413 1047  980 981 982  474 500 509  656 1086 1087  385 394 396  248 250 834  1455 1456 1570  219 1214 1276  976 978 979  833 1211 1457  404 417 1125  976 977 978  198 1185 1186  549 583 594  424 443 445  955 1272 1461  417 428 432  292 1161 1243  264 1117 1598  324 969 1549  694 696 1126  544 591 656  354 1439 1453  785 883 884  589 802 842  792 944 945  783 784 785  997 1093 1094  843 846 1451  1077 1078 1079  827 939 1434  504 528 558  1131 1132 1133  374 383 1383  440 466 467  747 752 753  753 767 768  675 942 1320  95 226 1241  735 740 741  1141 1142 1143  788 855 860  1119 1120 1122  830 831 910  1150 1151 1152  583 584 602  721 722 723  589 590 802  549 550 583  224 998 1198  723 732 733  1089 1091 1159  22 983 1602  786 787 788  219 1228 1276  607 897 1169  910 911 912  567 669 670  806 807 886  1004 1106 1526  1016 1019 1665  498 543 544  1143 1144 1145  97 192 1249  897 1169 1175  707 712 713  646 647 873  1129 1130 1201  474 475 500  555 607 1169  1036 1322 1603  1182 1183 1325  348 1531 1540  314 315 317  593 1511 1570  670 679 835  516 532 533  44 213 1124  688 690 1165  464 972 1518  38 202 1118  303 305 306  703 706 707  1048 1051 1231  591 601 806  433 434 436  332 333 338  185 1093 1097  317 318 319  322 323 326  376 377 385  326 327 330  404 409 417  338 339 340  319 320 322  498 542 543  330 331 332  417 427 428  340 341 345  1112 1209 1266  385 389 394  394 399 404  345 347 376  1013 1014 1015  306 307 308  308 309 310  1089 1090 1091  310 311 312  420 421 425  630 631 632  378 379 386  359 369 370  463 513 514  428 438 440  690 1164 1165  448 449 504  1161 1162 1247  284 429 1158  1057 1058 1059  504 505 528  440 465 466  1243 1244 1247  358 360 361  466 497 498  613 614 615  401 402 407  391 392 401  383 384 391  374 375 383  372 373 374  189 1232 1533  290 405 1161  370 371 372  413 423 424  239 1073 1604  386 387 393  602 1007 1008  461 462 463  617 640 641  393 397 403  304 328 329  253 254 255  843 844 954  224 943 1585  663 672 1160  1141 1143 1193  388 608 609  618 619 621  361 363 364  238 1025 1036  615 616 618  1233 1234 1594  364 366 367  403 412 413  806 886 1024  344 349 350  1053 1054 1580  424 441 443  528 555 565  286 1158 1348  248 249 250  329 335 336  304 1042 1187  336 343 344  802 803 1062  251 1026 1027  316 483 484  549 594 1011  437 470 1166  250 252 253  803 805 857  586 588 589  484 507 511  511 512 553  743 774 775  1049 1050 1167  506 1067 1194  921 922 987  519 521 549  572 573 664  962 1233 1594  850 963 1396  501 503 518  506 526 530  712 728 1181  436 437 1166  607 795 897  530 531 572  1213 1214 1215  775 776 781  886 1074 1188  781 885 969  471 473 474  760 765 836  987 988 989  568 569 673  643 645 646  633 636 1180  1245 1258 1263  728 755 786  437 469 470  637 639 642  632 633 1180  461 463 1084  426 431 433  1113 1115 1116  780 824 899  905 1408 1427  696 702 703  633 635 636  692 694 742  747 760 1203  900 1329 1401  650 879 880  533 650 1190  690 692 1164  250 834 1200  415 419 420  383 391 1076  650 880 1190  308 869 1202  932 963 1395  1012 1013 1017  835 907 1082  626 629 630  46 47 1394  792 793 944  408 411 414  656 671 792  194 1215 1507  622 624 625  579 1077 1078  786 788 1099  557 930 931  257 1077 1206  413 1047 1208  455 457 461  407 1039 1040  643 646 1056  1131 1133 1204  1028 1030 1178  823 1090 1359  807 886 1074  443 449 1199  471 474 1064  1077 1079 1206  461 1084 1085  1010 1011 1651  1030 1034 1035  978 980 981  1112 1113 1266  395 1307 1594  842 1005 1006  884 976 977  324 969 1599  874 1267 1268  228 1250 1251  642 1057 1058  255 579 1077  601 806 807  64 214 1037  665 863 900  367 379 1197  664 1051 1052  802 968 1062  823 1089 1090  982 1435 1568  220 1219 1220  674 822 823  586 589 1005  904 985 986  350 381 1195  770 783 784  422 1129 1130  923 924 1668  1170 1172 1173  390 1131 1132  285 1131 1204  211 1119 1120  1113 1116 1266  276 1433 1441  1171 1172 1259  342 1141 1142  934 997 1093  277 422 1129  67 211 1119  283 390 1131  543 591 601  70 207 1112  207 1112 1113  267 464 1136  204 987 1474  64 65 1037  289 342 1141  575 830 831  741 747 752  65 66 1223  1026 1028 1031  590 802 803  733 735 740  564 1263 1264  784 785 883  832 1574 1632  805 857 858  1148 1150 1151  550 583 584  713 721 722  835 970 1082  496 567 669  247 248 249  67 68 1119  70 71 1112  79 80 193  31 32 194  69 70 207  41 42 208  77 78 218  33 34 219  66 67 211  44 45 213  72 73 201  38 39 202  63 64 214  47 48 217  75 76 197  35 36 198  81 82 220  29 30 221  27 28 190  83 84 189  588 589 590  767 768 815  220 1217 1219  241 1176 1413  68 69 1236  85 86 222  25 26 223  497 498 542  752 753 767  35 198 1228  87 88 182  23 24 181  831 910 911  910 1301 1649  659 923 924  911 912 1075  521 549 550  1173 1177 1415  965 1404 1531  1128 1470 1688  312 314 315  20 21 225  90 91 224  475 500 501  281 283 390  275 277 422  277 279 1129  271 273 450  287 289 342  535 537 571  283 285 1131  267 269 1136  265 267 464  443 448 449  279 281 1205  787 788 855  71 1112 1209  34 219 1228  76 197 1216  78 218 1210  33 219 1213  259 261 525  92 93 186  18 19 185  815 1310 1311  82 220 1217  29 221 1222  301 303 305  505 528 555  503 518 519  27 190 1225  427 428 438  514 516 532  1015 1016 1665  293 295 321  740 996 1660  289 291 1141  409 417 427  722 723 732  297 299 682  449 504 505  1030 1035 1178  1026 1027 1028  94 95 226  16 17 227  399 404 409  669 670 679  86 222 1227  679 835 907  438 440 465  641 653 1224  465 466 497  273 450 1237  269 1136 1238  1142 1143 1144  377 385 389  181 1463 1500  367 378 379  473 474 475  255 257 1077  208 1182 1325  1144 1145 1154  389 394 399  446 1013 1014  96 97 192  14 15 191  434 436 437  618 620 1437  357 359 369  347 376 377  353 355 561  1151 1370 1670  645 646 647  706 707 712  333 338 339  1244 1245 1246  341 345 347  339 340 341  768 815 1310  331 332 333  564 1258 1263  327 330 331  673 674 1088  755 786 787  98 99 228  12 13 229  323 326 327  611 613 614  315 317 318  469 470 471  320 322 323  612 617 640  356 358 360  318 319 320  350 352 381  661 663 672  662 843 844  421 425 426  639 642 643  649 1049 1050  101 102 1137  782 1276 1353  761 1353 1562  345 346 1438  528 565 1174  368 388 608  305 306 307  1120 1122 1123  100 101 200  10 11 199  431 433 434  423 424 441  294 296 365  889 1310 1311  631 632 633  298 300 564  302 304 328  309 310 311  307 308 309  282 284 429  278 280 451  288 290 405  272 274 477  553 554 1233  266 268 517  81 220 1221  1069 1071 1072  441 443 1199  760 964 1203  412 413 423  260 262 570  532 533 650  677 961 962  500 501 1309  635 636 637  379 386 387  908 983 1500  954 955 1461  702 703 706  397 403 412  387 393 397  993 994 1272  1013 1016 1017  1265 1488 1520  534 536 580  361 364 1328  419 420 421  991 993 994  16 227 1242  463 515 1084  256 258 678  1115 1116 1117  1186 1228 1276  857 858 1260  626 630 1346  402 407 408  392 401 402  384 391 392  313 316 483  375 383 384  369 370 371  629 630 631  373 374 375  363 364 366  391 406 1076  371 372 373  360 361 363  34 35 1228  462 463 513  445 506 526  824 899 1447  366 367 1197  411 414 415  619 621 622  616 618 619  703 707 1349  614 615 616  101 200 1137  560 816 1312  296 365 1258  103 104 216  7 8 215  648 921 922  867 1125 1400  254 255 579  833 1211 1369  14 191 1252  844 954 955  640 641 653  624 625 626  1210 1211 1457  720 743 774  15 191 1242  582 658 1239  349 350 1195  608 609 680  200 1137 1138  328 329 335  394 396 1446  343 344 349  335 336 343  673 932 1088  252 253 254  298 564 1258  508 568 569  1143 1147 1193  457 461 462  12 229 1254  405 1161 1162  280 451 1256  13 229 1252  249 250 252  746 760 765  741 752 1302  734 735 1355  870 998 1198  1300 1583 1632  531 572 573  89 90 1198  15 16 1242  1130 1305 1375  573 664 1107  483 484 507  99 100 1261  512 553 554  507 511 512  967 1270 1473  788 933 1099  526 530 531  13 14 1252  850 1104 1396  565 1171 1174  769 780 824  606 1247 1653  11 199 1254  466 498 1343  544 656 671  396 1240 1506  490 796 1316  11 12 1254  646 874 1056  225 1097 1483  105 106 241  5 6 240  922 987 988  988 989 990  774 775 776  474 509 1064  776 781 885  684 1320 1327  524 957 1621  705 715 1350  770 784 1310  569 673 674  671 792 793  312 315 1308  74 1229 1417  849 894 1535  212 1179 1669  765 836 902  1002 1003 1437  756 890 1324  575 831 1309  796 827 1262  609 680 1332  546 794 1365  1214 1276 1353  814 972 1454  376 1105 1438  514 532 1313  247 249 251  589 842 1005  296 298 1258  658 1338 1527  882 970 1289  299 682 1326  744 1372 1382  447 1367 1410  1124 1182 1183  752 771 1302  938 1054 1639  874 1056 1267  1031 1179 1322  1245 1246 1432  897 1175 1516  205 1159 1544  1028 1029 1030  460 510 1360  481 548 1361  1263 1264 1265  541 605 1366  799 801 1421  404 1125 1446  676 833 1368  176 1091 1529  681 881 1581  667 971 1331  441 493 1199  784 889 1310  951 1439 1453  300 564 1341  426 433 1410  831 1022 1309  870 1198 1399  1030 1032 1034  808 1118 1659  301 305 1326  315 482 1308  829 1295 1519  244 1188 1281  89 1198 1399  883 884 1287  90 224 1198  219 1213 1214  716 751 1371  762 856 1373  368 608 1328  654 967 1270  611 614 1332  700 724 1370  458 510 1342  366 557 1197  612 640 1335  803 804 805  532 651 1313  1161 1243 1247  662 844 1336  254 527 1271  88 182 1399  593 1455 1570  584 585 586  302 328 1341  31 194 1409  1196 1225 1475  349 453 1195  586 587 588  519 520 521  712 713 1181  270 999 1661  288 405 1348  1130 1305 1487  73 201 1417  779 984 1607  501 502 503  655 1020 1465  1073 1314 1521  648 922 1346  74 75 1229  84 85 1232  24 25 1235  555 556 607  192 1448 1535  1114 1122 1407  720 774 1349  342 1204 1354  471 472 473  855 908 983  1145 1148 1321  1014 1015 1522  95 96 1241  643 644 645  485 1157 1578  1085 1195 1495  796 797 827  305 485 1326  22 23 1500  437 468 469  607 652 795  97 98 1249  1132 1134 1135  637 638 639  858 1111 1563  544 671 1343  712 714 728  426 430 431  1027 1028 1029  251 1027 1334  746 765 1355  1083 1583 1632  441 442 493  61 238 1055  1240 1506 1573  249 251 1334  1078 1080 1081  633 634 635  737 1154 1502  560 600 816  415 418 419  1260 1282 1658  311 382 688  842 1006 1489  693 695 1385  728 729 755  608 926 1328  370 524 1621  614 627 1332  750 757 1305  640 906 1335  626 628 629  1113 1114 1115  493 494 545  408 410 411  599 1387 1400  545 546 794  701 715 1283  582 657 658  650 651 879  858 1260 1282  844 1021 1336  622 623 624  993 1003 1272  254 579 1271  490 552 796  692 693 694  366 444 557  694 695 696  696 697 702  688 689 690  690 691 692  93 94 1363  516 534 1255  653 906 959  513 798 799  654 966 967  680 926 956  873 874 1468  879 909 943  108 109 245  174 175 244  197 1229 1230  328 825 1341  573 681 881  349 362 453  557 871 930  839 862 1499  311 688 1308  898 1433 1441  799 800 801  801 828 870  756 772 890  30 221 1409  777 810 1196  666 1449 1545  601 807 847  495 581 582  453 454 455  405 1163 1348  768 770 1310  455 456 457  559 604 848  667 818 971  522 606 1248  500 575 1309  740 741 1302  699 701 1283  838 1230 1615  701 705 715  680 1332 1333  709 711 730  478 577 1286  757 856 1305  793 1110 1111  922 1106 1346  717 719 745  537 571 1356  731 739 761  749 754 782  763 789 808  813 895 927  1036 1055 1603  1146 1372 1641  761 1353 1684  513 799 1313  109 110 1280  173 174 1281  578 1253 1362  554 1019 1665  202 1277 1357  213 1124 1440  705 709 1350  40 41 1548  104 216 1413  674 809 822  493 545 1429  774 925 1349  311 312 1308  262 264 1510  522 538 606  902 903 904  665 852 863  488 522 1248  562 595 666  916 918 999  597 675 942  458 460 510  686 837 898  459 478 1286  478 480 577  1047 1423 1479  228 1249 1250  479 481 548  1001 1367 1410  352 381 1439  813 927 1277  489 523 578  671 1110 1343  546 559 1365  782 1186 1452  539 541 605  563 596 683  536 593 1511  598 676 833  904 984 985  685 687 859  686 898 1327  915 917 920  872 950 951  881 1224 1581  921 987 1628  217 1279 1513  590 803 804  513 514 1313  66 211 1223  190 1225 1475  281 390 1205  69 207 1236  172 173 232  110 111 233  779 984 1681  1163 1449 1545  1217 1218 1219  913 1064 1689  669 1166 1390  274 477 1441  765 903 1355  668 935 936  299 301 1326  1010 1075 1651  1132 1135 1382  1029 1030 1032  547 603 665  1199 1389 1429  1024 1285 1524  884 977 1287  814 896 972  710 716 751  171 172 1285  698 700 724  704 708 737  718 725 744  550 584 585  487 551 819  460 479 1360  764 790 868  738 748 766  449 1199 1389  757 762 856  990 991 992  1038 1039 1682  839 840 862  820 821 839  481 489 1361  610 612 1335  609 611 1332  594 1010 1011  1029 1032 1033  660 662 1336  176 1091 1571  541 563 1366  194 1409 1507  239 1061 1512  676 685 1368  167 168 196  115 116 195  170 171 209  112 113 210  503 519 520  166 167 1288  876 878 960  364 368 1328  759 773 845  778 811 901  381 1195 1495  505 555 556  100 200 1261  784 883 889  165 166 230  117 118 231  465 497 499  459 1286 1398  831 911 1022  406 1038 1406  475 501 502  163 164 188  119 120 187  300 302 1341  888 1105 1687  427 438 439  991 992 993  162 163 1291  120 121 1293  447 508 1367  161 162 234  121 122 235  491 592 820  252 254 527  752 767 771  645 647 1270  160 161 1290  159 160 1296  740 996 1640  158 159 183  124 125 184  123 124 1297  122 123 1292  157 158 1298  125 126 1299  679 907 913  664 1052 1107  156 157 236  126 127 237  389 399 400  469 471 472  286 288 1348  379 1197 1339  716 718 1371  762 764 1373  700 704 1370  804 805 829  713 722 1181  211 1120 1121  153 154 180  129 130 178  630 648 1346  579 1078 1080  434 437 468  152 153 1300  150 151 203  132 133 204  639 643 644  147 148 179  135 136 177  390 1132 1134  240 1074 1690  134 135 1304  144 145 205  138 139 206  137 138 1306  136 137 1303  341 347 348  787 855 908  141 142 176  331 333 337  423 441 442  635 637 638  498 544 1343  421 426 430  315 318 482  707 720 1349  320 323 324  928 1387 1400  1142 1144 1146  1273 1274 1605  631 633 634  587 588 599  706 712 714  585 586 587  822 823 1359  387 397 398  207 1113 1114  305 307 485  309 311 382  1178 1179 1669  332 338 1352  330 334 1671  411 415 418  968 1291 1489  699 1283 1358  547 665 1401  1111 1295 1563  735 746 1355  520 521 560  624 626 628  402 408 410  363 366 444  384 392 486  109 245 1280  174 244 1281  695 698 1385  373 375 1307  640 653 906  371 373 395  619 622 623  614 616 627  372 380 1621  337 1045 1505  844 955 1021  532 650 651  1148 1151 1321  608 680 926  75 197 1229  932 1088 1544  993 1002 1003  452 1000 1637  531 573 681  462 513 798  1046 1295 1519  85 222 1232  24 181 1235  328 335 825  797 827 939  343 349 362  534 580 1255  759 845 1403  671 793 1110  472 473 490  556 607 652  1134 1201 1584  856 1487 1555  238 1036 1055  383 1076 1383  105 241 1413  644 645 654  552 796 797  507 512 566  114 115 1376  53 54 243  57 58 242  922 988 1106  405 1162 1163  566 1043 1522  249 252 1334  1018 1443 1589  54 55 1317  430 431 435  709 730 1350  791 813 1277  200 1138 1139  569 674 809  853 1389 1429  1101 1103 1273  774 776 925  96 192 1241  750 1305 1375  5 240 1424  106 241 1425  55 56 212  442 493 494  714 728 729  657 658 937  418 419 476  338 1269 1352  729 755 756  765 902 903  98 228 1249  628 629 667  8 215 1435  276 278 1433  382 688 689  494 545 546  581 582 657  689 690 691  691 692 693  693 694 695  695 696 697  905 961 1408  604 848 849  202 1277 1462  444 557 871  232 1024 1577  627 1332 1333  502 1262 1422  645 654 1270  651 879 909  173 232 1281  110 233 1280  476 1391 1418  220 1220 1221  1132 1133 1382  192 1249 1448  798 799 800  1039 1558 1682  876 960 1386  598 833 1369  800 801 828  526 1208 1423  362 453 454  559 848 1365  1057 1267 1564  454 455 456  252 527 1334  483 1202 1428  789 808 1357  456 457 458  634 635 1275  39 202 1462  944 1658 1680  479 548 1360  489 578 1361  894 1535 1610  809 822 1000  206 1267 1564  563 683 1366  261 525 1560  521 560 1312  685 859 1368  369 1168 1443  354 356 1453  658 937 1338  603 665 852  588 599 1387  903 904 984  225 1483 1537  172 232 1285  655 905 1465  896 972 973  521 550 1312  1024 1086 1524  1089 1159 1544  697 702 1358  538 606 1364  791 1277 1357  934 1093 1483  821 839 840  592 820 821  91 224 1585  992 1002 1004  495 582 1418  744 1371 1372  820 839 1445  438 465 1318  334 1352 1459  473 490 1316  171 209 1285  1093 1097 1483  902 904 1540  718 744 1371  704 737 1370  258 678 1546  764 868 1373  1090 1091 1571  872 951 1392  469 472 1377  10 199 1543  651 1313 1421  47 217 1394  473 475 1316  1015 1460 1522  579 1080 1271  596 683 1369  210 1259 1426  529 1020 1542  409 427 1319  639 644 1378  167 196 1288  195 1167 1469  930 1511 1570  599 841 867  88 89 1399  166 230 1288  992 993 1002  525 1560 1622  451 1256 1320  212 1179 1504  804 829 928  431 434 1323  560 574 600  431 435 1323  411 418 1380  468 469 1377  821 840 891  200 1139 1261  684 686 1327  862 1499 1538  163 188 1291  120 187 1293  638 639 1378  1080 1271 1279  624 628 1379  412 423 1329  809 1000 1001  635 638 1275  587 599 841  668 936 1379  396 1446 1506  755 756 1324  755 787 1324  211 1121 1223  623 624 1379  600 887 888  779 1092 1681  162 234 1291  121 235 1293  939 940 1269  410 411 1380  669 679 1390  94 226 1363  520 560 574  490 491 552  629 631 1331  790 868 1374  1116 1575 1620  748 766 1375  652 853 854  588 590 1387  654 817 966  161 234 1290  472 490 491  556 652 853  487 819 1380  702 706 1330  207 1114 1236  628 667 668  698 724 1385  444 871 872  122 235 1292  644 654 817  797 939 940  621 622 1657  318 320 1337  449 505 1389  629 667 1331  430 435 861  550 585 1312  418 476 487  390 1134 1205  379 387 1339  160 1290 1296  657 937 938  1284 1575 1620  362 454 492  159 183 1296  124 184 1297  891 892 941  879 943 1509  456 458 459  123 1292 1297  158 183 1298  125 184 1299  140 1268 1618  923 1304 1444  115 195 1376  944 1282 1658  689 691 736  494 546 547  157 236 1298  126 237 1299  307 309 1340  1102 1409 1507  604 849 893  667 668 818  896 973 974  695 697 698  419 476 1391  476 487 495  373 395 1307  1118 1184 1659  1103 1273 1274  800 828 851  729 756 759  546 547 559  30 31 1409  756 759 772  375 384 1344  392 402 1345  153 180 1300  871 872 949  616 619 1347  849 893 894  697 698 699  495 551 581  145 146 1395  590 804 1387  559 603 604  457 462 1342  135 177 1304  136 177 1303  58 59 1315  422 1130 1487  138 206 1306  137 1303 1306  948 1253 1533  419 421 1391  772 773 777  699 700 701  438 439 1318  751 1502 1587  949 950 952  360 363 1392  458 459 460  777 778 810  807 1074 1494  701 704 705  771 1528 1686  810 811 875  828 851 864  705 708 709  872 949 950  875 876 877  668 818 935  342 1142 1354  459 460 478  709 710 711  877 878 1100  140 1268 1600  574 600 887  1100 1101 1102  475 502 1316  711 716 717  478 479 480  840 891 892  335 343 1393  950 952 953  717 718 719  460 478 479  491 552 592  487 495 551  465 499 1318  480 481 488  491 820 1377  719 725 726  726 727 731  551 581 826  488 489 522  940 1269 1352  547 559 603  651 909 1421  731 738 739  864 865 866  457 458 1342  739 748 749  479 480 481  749 750 754  813 814 895  754 757 758  763 764 789  758 762 763  789 790 791  791 812 813  866 929 946  522 523 538  970 1289 1508  481 488 489  946 947 948  178 991 1416  892 941 1023  538 539 540  698 699 700  489 522 523  1074 1189 1494  851 864 865  540 541 562  1052 1294 1490  700 701 704  523 538 539  562 563 595  595 596 597  865 866 929  929 946 947  1172 1173 1415  597 598 675  916 917 918  918 919 1284  675 676 684  914 915 916  947 948 1253  686 687 837  684 685 686  837 838 914  539 540 541  704 705 708  541 562 563  708 709 710  563 595 596  759 772 773  596 597 598  598 675 676  676 684 685  685 686 687  917 918 919  687 837 838  915 916 917  838 914 915  710 711 716  427 439 1319  716 717 718  773 777 778  718 719 725  814 895 896  846 1160 1430  778 810 811  725 726 727  812 813 814  727 731 738  811 875 876  738 739 748  764 789 790  762 763 764  748 749 750  790 791 812  750 754 757  757 758 762  876 877 878  878 1100 1101  231 1231 1472  1101 1102 1103  73 74 1417  104 105 1413  52 53 1314  505 556 1389  434 468 1323  562 666 1449  1029 1033 1414  861 1391 1418  502 503 1422  787 908 1324  816 1312 1397  1078 1081 1492  987 989 1474  318 482 1337  508 569 1367  631 634 1331  423 442 1329  1274 1605 1655  679 913 1390  706 714 1330  485 1157 1656  307 485 1340  1185 1186 1452  1212 1220 1638  320 324 1337  421 430 1391  392 486 1345  375 1307 1344  387 398 1339  616 627 1347  265 464 1518  697 699 1358  855 983 1537  235 1293 1294  1156 1157 1578  309 382 1340  1271 1279 1467  384 486 1344  402 410 1345  854 1471 1561  619 623 1347  811 901 1386  462 798 1342  472 491 1377  335 825 1393  180 1300 1301  991 994 1416  644 817 1378  113 114 1412  145 205 1395  717 745 1484  1142 1146 1354  1246 1248 1557  702 1330 1358  944 1282 1647  113 210 1412  978 981 1663  343 362 1393  347 348 1404  128 129 1416  363 444 1392  433 447 1410  54 243 1317  893 1356 1517  45 46 1617  789 791 1357  325 1054 1639  21 22 1602  858 1111 1647  418 487 1380  628 668 1379  1086 1087 1524  526 531 1423  399 400 1419  1114 1115 1407  131 1474 1595  55 212 1317  111 233 1426  451 1320 1327  856 1305 1487  416 1066 1679  538 540 1364  347 377 1404  131 132 1474  815 1478 1528  106 107 1425  4 5 1424  804 928 1387  190 1222 1567  1081 1492 1617  129 178 1416  483 507 1428  793 944 1647  112 210 1426  114 1376 1412  596 598 1369  197 1216 1559  653 1224 1581  569 809 1367  230 1063 1627  733 740 1660  754 782 1452  188 1063 1627  1105 1240 1687  985 1532 1607  734 1355 1431  260 570 1546  1279 1467 1513  1027 1334 1414  8 9 1435  552 797 1381  790 812 1374  748 750 1375  1272 1461 1635  1246 1248 1653  893 894 1517  1074 1188 1690  399 409 1419  1209 1266 1547  556 853 1389  264 266 1598  325 1023 1644  805 858 1563  766 1201 1584  369 371 1443  111 112 1426  863 1455 1456  581 657 1384  618 621 1437  230 1063 1674  242 1322 1603  833 1368 1457  92 186 1585  906 1066 1679  430 861 1391  710 751 1502  1096 1528 1686  620 1021 1625  182 1399 1436  599 867 1400  957 958 1458  345 376 1438  1263 1265 1432  482 1165 1470  190 1475 1567  409 1319 1419  527 1334 1414  811 876 1386  810 1196 1475  552 592 1381  883 889 1482  234 1291 1489  816 1240 1687  724 1370 1670  809 1001 1367  581 826 1384  444 872 1392  362 492 1393  742 1164 1688  1154 1502 1587  627 1333 1411  863 1456 1565  395 1234 1589  821 891 1388  58 242 1315  133 204 1444  134 1304 1444  797 940 1381  143 1159 1529  585 587 1397  763 808 1572  215 1494 1568  711 730 1484  1027 1029 1414  510 1342 1405  657 938 1384  822 1359 1473  488 1248 1557  592 821 1388  244 1188 1690  952 953 1553  627 1347 1411  683 1212 1638  890 1324 1463  606 1248 1653  206 1267 1618  682 1156 1578  53 243 1314  394 404 1446  749 782 1684  236 1075 1497  233 1280 1415  738 766 1541  1245 1263 1432  587 841 1397  170 209 1464  201 1209 1547  799 1313 1421  731 761 1655  116 195 1469  905 1427 1465  117 231 1469  837 898 1486  456 459 1398  745 1273 1554  1244 1246 1653  337 1045 1532  118 231 1472  838 1230 1633  503 520 1422  119 187 1472  843 954 1451  937 1639 1644  454 456 1398  352 354 1439  154 180 1466  203 1083 1583  494 547 1401  689 736 1402  3 108 1613  0 175 1612  551 826 1427  585 1312 1397  539 605 1609  1153 1157 1556  442 494 1401  529 1053 1580  800 851 1405  454 492 1398  451 1327 1433  729 759 1403  382 689 1402  714 729 1403  520 574 1422  274 276 1441  691 693 1420  531 681 1423  512 566 1460  1044 1532 1607  742 1127 1688  898 1327 1433  691 736 1420  278 451 1433  1214 1353 1562  693 1385 1420  798 800 1405  3 107 1613  0 4 1612  133 134 1444  1044 1045 1532  493 1199 1429  592 1381 1388  1033 1414 1467  825 1264 1488  886 1024 1577  1267 1268 1618  540 1364 1449  950 951 1498  227 1096 1478  1101 1273 1554  1381 1388 1459  551 819 1427  828 864 1436  476 495 1418  507 566 1428  422 1237 1487  230 1260 1674  485 1326 1578  727 1450 1541  1275 1406 1646  940 1381 1459  708 737 1502  1158 1348 1545  911 1075 1651  442 1329 1401  914 916 1601  725 727 1450  333 339 1608  168 196 1503  782 1353 1684  360 1392 1453  828 870 1436  714 1330 1403  227 1242 1478  382 1340 1402  862 1239 1538  767 771 1528  1237 1487 1555  1371 1372 1641  156 236 1496  39 40 1462  988 990 1526  890 1226 1590  838 915 1615  571 1356 1517  1059 1306 1564  798 1342 1405  931 1339 1586  397 398 1514  398 1514 1565  951 1392 1453  864 1436 1525  893 1356 1477  1124 1183 1440  885 969 1599  812 814 1454  897 1516 1652  1265 1286 1520  604 893 1477  937 1338 1644  150 203 1508  1051 1052 1490  883 1287 1482  139 140 1618  216 1413 1516  1120 1123 1624  323 324 1549  235 1294 1430  331 337 1505  623 1379 1442  468 1377 1445  381 1439 1498  57 242 1504  1039 1378 1558  870 1399 1436  527 1414 1467  239 1512 1604  745 1273 1605  1071 1376 1412  918 1284 1493  56 212 1504  851 1405 1501  480 577 1557  1082 1083 1574  603 852 1477  620 1437 1625  356 360 1453  142 176 1529  917 919 1485  127 237 1534  140 141 1600  235 1292 1430  931 1456 1570  990 992 1526  371 395 1443  432 1125 1677  180 1301 1649  600 816 1687  958 1333 1411  346 1438 1642  889 1482 1588  182 1227 1525  878 960 1554  527 1271 1467  1144 1146 1587  725 744 1450  874 1268 1468  1084 1085 1675  1007 1296 1539  477 1441 1486  169 170 1464  154 155 1466  218 1210 1457  852 863 1455  545 794 1471  842 968 1489  967 1473 1637  891 941 1597  940 1352 1459  903 1355 1431  116 117 1469  719 745 1605  1135 1382 1450  213 1492 1617  389 400 1550  839 1445 1499  525 1207 1622  1266 1547 1620  118 119 1472  744 1382 1450  948 1232 1678  860 934 1483  229 1252 1482  936 1379 1442  971 1331 1646  903 984 1431  187 1293 1490  9 1435 1543  152 1300 1583  151 203 1583  827 1262 1515  540 562 1449  523 578 1609  739 761 1684  930 931 1570  229 1287 1482  165 230 1627  1249 1250 1448  852 1477 1552  1283 1358 1480  468 1323 1445  1091 1159 1529  164 188 1627  182 1436 1525  412 1329 1514  898 1441 1486  130 178 1595  623 1347 1442  820 1377 1445  779 1044 1607  845 1403 1480  927 1277 1462  871 930 1606  1219 1220 1536  216 1140 1652  1006 1489 1614  191 1311 1588  410 1345 1481  754 758 1452  687 859 1633  510 1405 1501  512 554 1460  574 1422 1515  517 1284 1493  147 179 1623  1139 1251 1561  218 1216 1530  341 348 1579  1135 1450 1541  578 1362 1609  840 892 1527  951 1439 1498  861 1239 1538  1368 1457 1530  377 1404 1550  836 902 1531  672 1160 1551  887 888 1642  1152 1153 1576  432 1046 1519  184 1297 1451  128 1416 1534  213 1440 1492  952 1255 1662  672 1551 1593  1185 1452 1572  860 1483 1537  237 1299 1461  892 1338 1527  510 1360 1501  867 1446 1506  829 1295 1563  23 181 1500  989 1474 1595  973 1560 1622  571 1191 1517  1347 1411 1442  132 204 1474  881 1224 1593  1088 1089 1544  955 1272 1654  1116 1117 1575  937 938 1639  1057 1059 1564  822 1000 1473  881 1107 1593  242 1315 1603  146 1395 1623  825 1393 1488  226 1241 1610  1078 1079 1492  910 912 1649  1116 1266 1620  868 1238 1619  155 156 1496  908 1324 1463  603 604 1477  536 580 1511  1226 1235 1590  961 962 1664  879 880 1509  810 875 1475  262 570 1510  1262 1422 1515  233 1415 1631  1456 1565 1586  816 1240 1573  187 1490 1676  983 1537 1602  672 1224 1593  270 272 1661  155 1466 1496  900 1329 1514  1176 1413 1516  263 265 1518  638 1378 1558  189 1218 1533  169 1464 1503  244 1424 1690  1033 1467 1513  931 1456 1586  887 1434 1642  918 999 1493  858 1282 1647  994 1416 1534  807 847 1494  1020 1465 1542  168 169 1503  812 1374 1454  177 1303 1476  56 57 1504  183 1296 1539  380 1458 1672  711 717 1484  917 920 1485  634 1275 1646  410 1380 1481  826 1427 1465  886 1188 1577  1330 1403 1480  482 1337 1470  1330 1358 1480  605 1523 1536  904 986 1540  1175 1176 1516  819 1380 1481  1286 1398 1520  873 1468 1571  1275 1406 1682  492 1393 1488  149 150 1508  327 331 1505  837 914 1486  965 1404 1550  1293 1294 1490  1007 1008 1539  997 1094 1566  826 1465 1542  9 10 1543  450 1238 1619  263 1518 1560  889 1311 1588  971 1406 1646  856 1373 1555  819 1408 1481  41 208 1548  855 860 1537  218 1457 1530  996 997 1640  907 1082 1574  537 1356 1552  195 1167 1648  901 1350 1683  435 1323 1499  1252 1482 1588  1215 1507 1634  258 260 1546  900 1514 1565  1253 1533 1667  1032 1033 1512  1107 1551 1593  950 953 1498  397 412 1514  885 1128 1599  1244 1247 1653  708 710 1502  1071 1072 1643  237 1534 1635  509 1064 1689  515 1084 1553  1345 1481 1596  681 1423 1479  1323 1445 1499  758 1452 1572  142 143 1529  841 867 1506  851 865 1501  919 1547 1620  1172 1415 1631  435 1499 1538  963 1395 1623  261 263 1560  236 1298 1497  767 815 1528  988 1106 1526  127 128 1534  682 1326 1578  605 1366 1536  724 1385 1636  1061 1512 1513  907 1574 1630  715 1283 1650  859 1368 1530  875 1475 1567  715 1351 1650  921 923 1628  1214 1215 1562  1102 1103 1507  930 1511 1606  945 1464 1503  1356 1477 1552  808 1572 1659  197 1230 1559  91 92 1585  992 1004 1526  1220 1536 1638  912 1466 1496  1360 1501 1569  222 1227 1629  370 372 1621  1218 1219 1523  944 945 1680  794 1561 1685  840 862 1527  1188 1281 1577  326 330 1671  574 887 1515  509 576 1689  181 1235 1590  327 1505 1549  377 389 1550  863 900 1565  1153 1556 1576  323 327 1549  1049 1167 1666  766 1541 1584  622 625 1657  176 1468 1571  1251 1561 1685  829 928 1519  864 866 1525  191 1252 1588  1125 1400 1677  192 1241 1535  450 1237 1555  485 1340 1656  201 1485 1547  653 959 1581  209 1285 1524  859 1559 1633  1373 1555 1619  994 1272 1635  348 1404 1531  865 1501 1569  566 1460 1522  1085 1495 1675  196 1658 1680  1052 1107 1551  243 1314 1521  492 1488 1520  1215 1562 1634  1051 1490 1676  1051 1231 1676  1163 1348 1545  841 1506 1573  435 861 1538  916 999 1601  59 1315 1591  727 738 1541  805 829 1563  977 978 1663  961 1408 1596  1172 1259 1631  771 1302 1566  878 1101 1554  348 1540 1579  548 1361 1616  52 1314 1592  845 1351 1650  732 733 1660  953 1553 1675  1250 1251 1685  480 488 1557  1151 1152 1670  1227 1525 1629  915 920 1615  151 152 1583  578 1253 1673  492 1398 1520  208 1548 1611  1146 1587 1641  339 341 1579  1032 1512 1604  1035 1178 1669  875 877 1567  736 1556 1576  272 477 1661  1079 1440 1492  1003 1272 1654  222 1629 1678  793 1111 1647  638 1275 1558  758 763 1572  130 131 1595  865 929 1569  208 1325 1611  919 1485 1547  450 1555 1619  222 1232 1678  1144 1154 1587  1134 1135 1584  866 1525 1629  1302 1566 1640  177 1476 1668  958 1458 1582  857 1260 1674  715 1350 1683  548 1360 1569  548 1569 1616  212 1317 1669  826 1384 1542  108 245 1613  175 244 1612  1408 1481 1596  961 1596 1664  517 1284 1575  984 1431 1681  232 1281 1577  2 59 1591  1 52 1592  204 1444 1628  1032 1034 1604  1033 1512 1513  1103 1507 1634  794 1365 1685  141 176 1600  206 1306 1564  751 1371 1641  21 225 1602  997 1566 1640  1298 1497 1626  146 147 1623  333 337 1608  1366 1536 1638  164 165 1627  832 1301 1632  1250 1365 1685  580 1606 1662  1127 1128 1688  240 1424 1690  929 1569 1616  266 517 1598  45 213 1617  736 1402 1556  580 1255 1662  1120 1121 1624  237 1461 1635  1219 1523 1536  1035 1317 1669  912 1466 1649  1184 1185 1659  724 1636 1670  1241 1535 1610  907 913 1630  325 1639 1644  719 726 1605  395 1443 1589  1283 1480 1650  1388 1459 1597  871 949 1606  1071 1412 1643  911 1022 1651  181 1463 1590  523 539 1609  231 1469 1666  984 985 1607  398 1339 1586  929 947 1616  726 1605 1655  139 206 1618  1361 1616 1673  1411 1442 1582  955 1021 1654  936 1442 1582  866 946 1629  736 1420 1576  1458 1582 1672  949 1606 1662  687 838 1633  1096 1478 1528  852 1455 1552  486 1345 1596  841 1397 1573  868 1373 1619  726 731 1655  600 888 1687  187 1472 1676  947 1616 1673  946 1629 1678  1009 1497 1626  486 1596 1664  715 1351 1683  949 952 1662  973 974 1622  234 1290 1614  919 1284 1620  816 1397 1573  739 749 1684  1253 1362 1667  233 1426 1631  994 1534 1635  946 948 1678  906 959 1679  346 1434 1642  1300 1301 1632  1103 1274 1634  947 1253 1673  794 1471 1561  225 1537 1602  935 936 1672  845 1480 1650  334 1459 1597  183 1298 1626  234 1489 1614  891 1388 1597  210 1412 1643  890 1463 1590  180 1466 1649  1038 1406 1682  554 1460 1665  1157 1556 1656  740 1302 1640  196 1503 1680  634 1331 1646  958 1411 1582  901 1351 1683  683 1366 1638  4 1424 1612  107 1425 1613  1003 1437 1625  1362 1523 1667  196 1288 1658  936 1582 1672  578 1361 1673  432 1519 1677  923 1444 1628  928 1519 1677  928 1400 1677  1218 1523 1667  888 1438 1642  398 1565 1586  486 1344 1664  1000 1473 1637  177 1304 1668  244 1424 1612  245 1425 1613  183 1539 1626  176 1468 1600  1117 1575 1598  1015 1460 1665  1135 1541 1584  1259 1426 1631  1268 1468 1600  1340 1402 1656  847 1494 1568  1402 1556 1656  216 1516 1652  226 1491 1610  1385 1420 1636  580 1511 1606  894 1491 1610  1185 1572 1659  1167 1469 1666  576 1630 1689  1231 1472 1676  945 1503 1680  1420 1576 1636  477 1601 1661  986 1540 1579  1315 1591 1645  953 1495 1675  751 1587 1641  1152 1636 1670  1218 1533 1667  1152 1576 1636  517 1575 1598  1315 1603 1645  1230 1559 1633  1003 1625 1654  1021 1625 1654  1084 1553 1675  1275 1558 1682  771 1566 1686  999 1601 1661  1094 1566 1686  1055 1603 1645  913 1630 1689  60 1591 1645  </DataArray>
<DataArray  type="UInt32"  Name="offsets"  format="ascii">3 6 9 12 15 18 21 24 27 30 33 36 39 42 45 48 51 54 57 60 63 66 69 72 75 78 81 84 87 90 93 96 99 102 105 108 111 114 117 120 123 126 129 132 135 138 141 144 147 150 153 156 159 162 165 168 171 174 177 180 183 186 189 192 195 198 201 204 207 210 213 216 219 222 225 228 231 234 237 240 243 246 249 252 255 258 261 264 267 270 273 276 279 282 285 288 291 294 297 300 303 306 309 312 315 318 321 324 327 330 333 336 339 342 345 348 351 354 357 360 363 366 369 372 375 378 381 384 387 390 393 396 399 402 405 408 411 414 417 420 423 426 429 432 435 438 441 444 447 450 453 456 459 462 465 468 471 474 477 480 483 486 489 492 495 498 501 504 507 510 513 516 519 522 525 528 531 534 537 540 543 546 549 552 555 558 561 564 567 570 573 576 579 582 585 588 591 594 597 600 603 606 609 612 615 618 621 624 627 630 633 636 639 642 645 648 651 654 657 660 663 666 669 672 675 678 681 684 687 690 693 696 699 702 705 708 711 714 717 720 723 726 729 732 735 738 741 744 747 750 753 756 759 762 765 768 771 774 777 780 783 786 789 792 795 798 801 804 807 810 813 816 819 822 825 828 831 834 837 840 843 846 849 852 855 858 861 864 867 870 873 876 879 882 885 888 891 894 897 900 903 906 909 912 915 918 921 924 927 930 933 936 939 942 945 948 951 954 957 960 963 966 969 972 975 978 981 984 987 990 993 996 999 1002 1005 1008 1011 1014 1017 1020 1023 1026 1029 1032 1035 1038 1041 1044 1047 1050 1053 1056 1059 1062 1065 1068 1071 1074 1077 1080 1083 1086 1089 1092 1095 1098 1101 1104 1107 1110 1113 1116 1119 1122 1125 1128 1131 1134 1137 1140 1143 1146 1149 1152 1155 1158 1161 1164 1167 1170 1173 1176 1179 1182 1185 1188 1191 1194 1197 1200 1203 1206 1209 1212 1215 1218 1221 1224 1227 1230 1233 1236 1239 1242 1245 1248 1251 1254 1257 1260 1263 1266 1269 1272 1275 1278 1281 1284 1287 1290 1293 1296 1299 1302 1305 1308 1311 1314 1317 1320 1323 1326 1329 1332 1335 1338 1341 1344 1347 1350 1353 1356 1359 1362 1365 1368 1371 1374 1377 1380 1383 1386 1389 1392 1395 1398 1401 1404 1407 1410 1413 1416 1419 1422 1425 1428 1431 1434 1437 1440 1443 1446 1449 1452 1455 1458 1461 1464 1467 1470 1473 1476 1479 1482 1485 1488 1491 1494 1497 1500 1503 1506 1509 1512 1515 1518 1521 1524 1527 1530 1533 1536 1539 1542 1545 1548 1551 1554 1557 1560 1563 1566 1569 1572 1575 1578 1581 1584 1587 1590 1593 1596 1599 1602 1605 1608 1611 1614 1617 1620 1623 1626 1629 1632 1635 1638 1641 1644 1647 1650 1653 1656 1659 1662 1665 1668 1671 1674 1677 1680 1683 1686 1689 1692 1695 1698 1701 1704 1707 1710 1713 1716 1719 1722 1725 1728 1731 1734 1737 1740 1743 1746 1749 1752 1755 1758 1761 1764 1767 1770 1773 1776 1779 1782 1785 1788 1791 1794 1797 1800 1803 1806 1809 1812 1815 1818 1821 1824 1827 1830 1833 1836 1839 1842 1845 1848 1851 1854 1857 1860 1863 1866 1869 1872 1875 1878 1881 1884 1887 1890 1893 1896 1899 1902 1905 1908 1911 1914 1917 1920 1923 1926 1929 1932 1935 1938 1941 1944 1947 1950 1953 1956 1959 1962 1965 1968 1971 1974 1977 1980 1983 1986 1989 1992 1995 1998 2001 2004 2007 2010 2013 2016 2019 2022 2025 2028 2031 2034 2037 2040 2043 2046 2049 2052 2055 2058 2061 2064 2067 2070 2073 2076 2079 2082 2085 2088 2091 2094 2097 2100 2103 2106 2109 2112 2115 2118 2121 2124 2127 2130 2133 2136 2139 2142 2145 2148 2151 2154 2157 2160 2163 2166 2169 2172 2175 2178 2181 2184 2187 2190 2193 2196 2199 2202 2205 2208 2211 2214 2217 2220 2223 2226 2229 2232 2235 2238 2241 2244 2247 2250 2253 2256 2259 2262 2265 2268 2271 2274 2277 2280 2283 2286 2289 2292 2295 2298 2301 2304 2307 2310 2313 2316 2319 2322 2325 2328 2331 2334 2337 2340 2343 2346 2349 2352 2355 2358 2361 2364 2367 2370 2373 2376 2379 2382 2385 2388 2391 2394 2397 2400 2403 2406 2409 2412 2415 2418 2421 2424 2427 2430 2433 2436 2439 2442 2445 2448 2451 2454 2457 2460 2463 2466 2469 2472 2475 2478 2481 2484 2487 2490 2493 2496 2499 2502 2505 2508 2511 2514 2517 2520 2523 2526 2529 2532 2535 2538 2541 2544 2547 2550 2553 2556 2559 2562 2565 2568 2571 2574 2577 2580 2583 2586 2589 2592 2595 2598 2601 2604 2607 2610 2613 2616 2619 2622 2625 2628 2631 2634 2637 2640 2643 2646 2649 2652 2655 2658 2661 2664 2667 2670 2673 2676 2679 2682 2685 2688 2691 2694 2697 2700 2703 2706 2709 2712 2715 2718 2721 2724 2727 2730 2733 2736 2739 2742 2745 2748 2751 2754 2757 2760 2763 2766 2769 2772 2775 2778 2781 2784 2787 2790 2793 2796 2799 2802 2805 2808 2811 2814 2817 2820 2823 2826 2829 2832 2835 2838 2841 2844 2847 2850 2853 2856 2859 2862 2865 2868 2871 2874 2877 2880 2883 2886 2889 2892 2895 2898 2901 2904 2907 2910 2913 2916 2919 2922 2925 2928 2931 2934 2937 2940 2943 2946 2949 2952 2955 2958 2961 2964 2967 2970 2973 2976 2979 2982 2985 2988 2991 2994 2997 3000 3003 3006 3009 3012 3015 3018 3021 3024 3027 3030 3033 3036 3039 3042 3045 3048 3051 3054 3057 3060 3063 3066 3069 3072 3075 3078 3081 3084 3087 3090 3093 3096 3099 3102 3105 3108 3111 3114 3117 3120 3123 3126 3129 3132 3135 3138 3141 3144 3147 3150 3153 3156 3159 3162 3165 3168 3171 3174 3177 3180 3183 3186 3189 3192 3195 3198 3201 3204 3207 3210 3213 3216 3219 3222 3225 3228 3231 3234 3237 3240 3243 3246 3249 3252 3255 3258 3261 3264 3267 3270 3273 3276 3279 3282 3285 3288 3291 3294 3297 3300 3303 3306 3309 3312 3315 3318 3321 3324 3327 3330 3333 3336 3339 3342 3345 3348 3351 3354 3357 3360 3363 3366 3369 3372 3375 3378 3381 3384 3387 3390 3393 3396 3399 3402 3405 3408 3411 3414 3417 3420 3423 3426 3429 3432 3435 3438 3441 3444 3447 3450 3453 3456 3459 3462 3465 3468 3471 3474 3477 3480 3483 3486 3489 3492 3495 3498 3501 3504 3507 3510 3513 3516 3519 3522 3525 3528 3531 3534 3537 3540 3543 3546 3549 3552 3555 3558 3561 3564 3567 3570 3573 3576 3579 3582 3585 3588 3591 3594 3597 3600 3603 3606 3609 3612 3615 3618 3621 3624 3627 3630 3633 3636 3639 3642 3645 3648 3651 3654 3657 3660 3663 3666 3669 3672 3675 3678 3681 3684 3687 3690 3693 3696 3699 3702 3705 3708 3711 3714 3717 3720 3723 3726 3729 3732 3735 3738 3741 3744 3747 3750 3753 3756 3759 3762 3765 3768 3771 3774 3777 3780 3783 3786 3789 3792 3795 3798 3801 3804 3807 3810 3813 3816 3819 3822 3825 3828 3831 3834 3837 3840 3843 3846 3849 3852 3855 3858 3861 3864 3867 3870 3873 3876 3879 3882 3885 3888 3891 3894 3897 3900 3903 3906 3909 3912 3915 3918 3921 3924 3927 3930 3933 3936 3939 3942 3945 3948 3951 3954 3957 3960 3963 3966 3969 3972 3975 3978 3981 3984 3987 3990 3993 3996 3999 4002 4005 4008 4011 4014 4017 4020 4023 4026 4029 4032 4035 4038 4041 4044 4047 4050 4053 4056 4059 4062 4065 4068 4071 4074 4077 4080 4083 4086 4089 4092 4095 4098 4101 4104 4107 4110 4113 4116 4119 4122 4125 4128 4131 4134 4137 4140 4143 4146 4149 4152 4155 4158 4161 4164 4167 4170 4173 4176 4179 4182 4185 4188 4191 4194 4197 4200 4203 4206 4209 4212 4215 4218 4221 4224 4227 4230 4233 4236 4239 4242 4245 4248 4251 4254 4257 4260 4263 4266 4269 4272 4275 4278 4281 4284 4287 4290 4293 4296 4299 4302 4305 4308 4311 4314 4317 4320 4323 4326 4329 4332 4335 4338 4341 4344 4347 4350 4353 4356 4359 4362 4365 4368 4371 4374 4377 4380 4383 4386 4389 4392 4395 4398 4401 4404 4407 4410 4413 4416 4419 4422 4425 4428 4431 4434 4437 4440 4443 4446 4449 4452 4455 4458 4461 4464 4467 4470 4473 4476 4479 4482 4485 4488 4491 4494 4497 4500 4503 4506 4509 4512 4515 4518 4521 4524 4527 4530 4533 4536 4539 4542 4545 4548 4551 4554 4557 4560 4563 4566 4569 4572 4575 4578 4581 4584 4587 4590 4593 4596 4599 4602 4605 4608 4611 4614 4617 4620 4623 4626 4629 4632 4635 4638 4641 4644 4647 4650 4653 4656 4659 4662 4665 4668 4671 4674 4677 4680 4683 4686 4689 4692 4695 4698 4701 4704 4707 4710 4713 4716 4719 4722 4725 4728 4731 4734 4737 4740 4743 4746 4749 4752 4755 4758 4761 4764 4767 4770 4773 4776 4779 4782 4785 4788 4791 4794 4797 4800 4803 4806 4809 4812 4815 4818 4821 4824 4827 4830 4833 4836 4839 4842 4845 4848 4851 4854 4857 4860 4863 4866 4869 4872 4875 4878 4881 4884 4887 4890 4893 4896 4899 4902 4905 4908 4911 4914 4917 4920 4923 4926 4929 4932 4935 4938 4941 4944 4947 4950 4953 4956 4959 4962 4965 4968 4971 4974 4977 4980 4983 4986 4989 4992 4995 4998 5001 5004 5007 5010 5013 5016 5019 5022 5025 5028 5031 5034 5037 5040 5043 5046 5049 5052 5055 5058 5061 5064 5067 5070 5073 5076 5079 5082 5085 5088 5091 5094 5097 5100 5103 5106 5109 5112 5115 5118 5121 5124 5127 5130 5133 5136 5139 5142 5145 5148 5151 5154 5157 5160 5163 5166 5169 5172 5175 5178 5181 5184 5187 5190 5193 5196 5199 5202 5205 5208 5211 5214 5217 5220 5223 5226 5229 5232 5235 5238 5241 5244 5247 5250 5253 5256 5259 5262 5265 5268 5271 5274 5277 5280 5283 5286 5289 5292 5295 5298 5301 5304 5307 5310 5313 5316 5319 5322 5325 5328 5331 5334 5337 5340 5343 5346 5349 5352 5355 5358 5361 5364 5367 5370 5373 5376 5379 5382 5385 5388 5391 5394 5397 5400 5403 5406 5409 5412 5415 5418 5421 5424 5427 5430 5433 5436 5439 5442 5445 5448 5451 5454 5457 5460 5463 5466 5469 5472 5475 5478 5481 5484 5487 5490 5493 5496 5499 5502 5505 5508 5511 5514 5517 5520 5523 5526 5529 5532 5535 5538 5541 5544 5547 5550 5553 5556 5559 5562 5565 5568 5571 5574 5577 5580 5583 5586 5589 5592 5595 5598 5601 5604 5607 5610 5613 5616 5619 5622 5625 5628 5631 5634 5637 5640 5643 5646 5649 5652 5655 5658 5661 5664 5667 5670 5673 5676 5679 5682 5685 5688 5691 5694 5697 5700 5703 5706 5709 5712 5715 5718 5721 5724 5727 5730 5733 5736 5739 5742 5745 5748 5751 5754 5757 5760 5763 5766 5769 5772 5775 5778 5781 5784 5787 5790 5793 5796 5799 5802 5805 5808 5811 5814 5817 5820 5823 5826 5829 5832 5835 5838 5841 5844 5847 5850 5853 5856 5859 5862 5865 5868 5871 5874 5877 5880 5883 5886 5889 5892 5895 5898 5901 5904 5907 5910 5913 5916 5919 5922 5925 5928 5931 5934 5937 5940 5943 5946 5949 5952 5955 5958 5961 5964 5967 5970 5973 5976 5979 5982 5985 5988 5991 5994 5997 6000 6003 6006 6009 6012 6015 6018 6021 6024 6027 6030 6033 6036 6039 6042 6045 6048 6051 6054 6057 6060 6063 6066 6069 6072 6075 6078 6081 6084 6087 6090 6093 6096 6099 6102 6105 6108 6111 6114 6117 6120 6123 6126 6129 6132 6135 6138 6141 6144 6147 6150 6153 6156 6159 6162 6165 6168 6171 6174 6177 6180 6183 6186 6189 6192 6195 6198 6201 6204 6207 6210 6213 6216 6219 6222 6225 6228 6231 6234 6237 6240 6243 6246 6249 6252 6255 6258 6261 6264 6267 6270 6273 6276 6279 6282 6285 6288 6291 6294 6297 6300 6303 6306 6309 6312 6315 6318 6321 6324 6327 6330 6333 6336 6339 6342 6345 6348 6351 6354 6357 6360 6363 6366 6369 6372 6375 6378 6381 6384 6387 6390 6393 6396 6399 6402 6405 6408 6411 6414 6417 6420 6423 6426 6429 6432 6435 6438 6441 6444 6447 6450 6453 6456 6459 6462 6465 6468 6471 6474 6477 6480 6483 6486 6489 6492 6495 6498 6501 6504 6507 6510 6513 6516 6519 6522 6525 6528 6531 6534 6537 6540 6543 6546 6549 6552 6555 6558 6561 6564 6567 6570 6573 6576 6579 6582 6585 6588 6591 6594 6597 6600 6603 6606 6609 6612 6615 6618 6621 6624 6627 6630 6633 6636 6639 6642 6645 6648 6651 6654 6657 6660 6663 6666 6669 6672 6675 6678 6681 6684 6687 6690 6693 6696 6699 6702 6705 6708 6711 6714 6717 6720 6723 6726 6729 6732 6735 6738 6741 6744 6747 6750 6753 6756 6759 6762 6765 6768 6771 6774 6777 6780 6783 6786 6789 6792 6795 6798 6801 6804 6807 6810 6813 6816 6819 6822 6825 6828 6831 6834 6837 6840 6843 6846 6849 6852 6855 6858 6861 6864 6867 6870 6873 6876 6879 6882 6885 6888 6891 6894 6897 6900 6903 6906 6909 6912 6915 6918 6921 6924 6927 6930 6933 6936 6939 6942 6945 6948 6951 6954 6957 6960 6963 6966 6969 6972 6975 6978 6981 6984 6987 6990 6993 6996 6999 7002 7005 7008 7011 7014 7017 7020 7023 7026 7029 7032 7035 7038 7041 7044 7047 7050 7053 7056 7059 7062 7065 7068 7071 7074 7077 7080 7083 7086 7089 7092 7095 7098 7101 7104 7107 7110 7113 7116 7119 7122 7125 7128 7131 7134 7137 7140 7143 7146 7149 7152 7155 7158 7161 7164 7167 7170 7173 7176 7179 7182 7185 7188 7191 7194 7197 7200 7203 7206 7209 7212 7215 7218 7221 7224 7227 7230 7233 7236 7239 7242 7245 7248 7251 7254 7257 7260 7263 7266 7269 7272 7275 7278 7281 7284 7287 7290 7293 7296 7299 7302 7305 7308 7311 7314 7317 7320 7323 7326 7329 7332 7335 7338 7341 7344 7347 7350 7353 7356 7359 7362 7365 7368 7371 7374 7377 7380 7383 7386 7389 7392 7395 7398 7401 7404 7407 7410 7413 7416 7419 7422 7425 7428 7431 7434 7437 7440 7443 7446 7449 7452 7455 7458 7461 7464 7467 7470 7473 7476 7479 7482 7485 7488 7491 7494 7497 7500 7503 7506 7509 7512 7515 7518 7521 7524 7527 7530 7533 7536 7539 7542 7545 7548 7551 7554 7557 7560 7563 7566 7569 7572 7575 7578 7581 7584 7587 7590 7593 7596 7599 7602 7605 7608 7611 7614 7617 7620 7623 7626 7629 7632 7635 7638 7641 7644 7647 7650 7653 7656 7659 7662 7665 7668 7671 7674 7677 7680 7683 7686 7689 7692 7695 7698 7701 7704 7707 7710 7713 7716 7719 7722 7725 7728 7731 7734 7737 7740 7743 7746 7749 7752 7755 7758 7761 7764 7767 7770 7773 7776 7779 7782 7785 7788 7791 7794 7797 7800 7803 7806 7809 7812 7815 7818 7821 7824 7827 7830 7833 7836 7839 7842 7845 7848 7851 7854 7857 7860 7863 7866 7869 7872 7875 7878 7881 7884 7887 7890 7893 7896 7899 7902 7905 7908 7911 7914 7917 7920 7923 7926 7929 7932 7935 7938 7941 7944 7947 7950 7953 7956 7959 7962 7965 7968 7971 7974 7977 7980 7983 7986 7989 7992 7995 7998 8001 8004 8007 8010 8013 8016 8019 8022 8025 8028 8031 8034 8037 8040 8043 8046 8049 8052 8055 8058 8061 8064 8067 8070 8073 8076 8079 8082 8085 8088 8091 8094 8097 8100 8103 8106 8109 8112 8115 8118 8121 8124 8127 8130 8133 8136 8139 8142 8145 8148 8151 8154 8157 8160 8163 8166 8169 8172 8175 8178 8181 8184 8187 8190 8193 8196 8199 8202 8205 8208 8211 8214 8217 8220 8223 8226 8229 8232 8235 8238 8241 8244 8247 8250 8253 8256 8259 8262 8265 8268 8271 8274 8277 8280 8283 8286 8289 8292 8295 8298 8301 8304 8307 8310 8313 8316 8319 8322 8325 8328 8331 8334 8337 8340 8343 8346 8349 8352 8355 8358 8361 8364 8367 8370 8373 8376 8379 8382 8385 8388 8391 8394 8397 8400 8403 8406 8409 8412 8415 8418 8421 8424 8427 8430 8433 8436 8439 8442 8445 8448 8451 8454 8457 8460 8463 8466 8469 8472 8475 8478 8481 8484 8487 8490 8493 8496 8499 8502 8505 8508 8511 8514 8517 8520 8523 8526 8529 8532 8535 8538 8541 8544 8547 8550 8553 8556 8559 8562 8565 8568 8571 8574 8577 8580 8583 8586 8589 8592 8595 8598 8601 8604 8607 8610 8613 8616 8619 8622 8625 8628 8631 8634 8637 8640 8643 8646 8649 8652 8655 8658 8661 8664 8667 8670 8673 8676 8679 8682 8685 8688 8691 8694 8697 8700 8703 8706 8709 8712 8715 8718 8721 8724 8727 8730 8733 8736 8739 8742 8745 8748 8751 8754 8757 8760 8763 8766 8769 8772 8775 8778 8781 8784 8787 8790 8793 8796 8799 8802 8805 8808 8811 8814 8817 8820 8823 8826 8829 8832 8835 8838 8841 8844 8847 8850 8853 8856 8859 8862 8865 8868 8871 8874 8877 8880 8883 8886 8889 8892 8895 8898 8901 8904 8907 8910 8913 8916 8919 8922 8925 8928 8931 8934 8937 8940 8943 8946 8949 8952 8955 8958 8961 8964 8967 8970 8973 8976 8979 8982 8985 8988 8991 8994 8997 9000 9003 9006 9009 9012 9015 9018 9021 9024 9027 9030 9033 9036 9039 9042 9045 9048 9051 9054 9057 9060 9063 9066 9069 9072 9075 9078 9081 9084 9087 9090 9093 9096 9099 9102 9105 9108 9111 9114 9117 9120 9123 9126 9129 9132 9135 9138 9141 9144 9147 9150 9153 9156 9159 9162 9165 9168 9171 9174 9177 9180 9183 9186 9189 9192 9195 9198 9201 9204 9207 9210 9213 9216 9219 9222 9225 9228 9231 9234 9237 9240 9243 9246 9249 9252 9255 9258 9261 9264 9267 9270 9273 9276 9279 9282 9285 9288 9291 9294 9297 9300 9303 9306 9309 9312 9315 9318 9321 9324 9327 9330 9333 9336 9339 9342 9345 9348 9351 9354 9357 9360 9363 9366 9369 9372 9375 9378 9381 9384 9387 9390 9393 9396 9399 9402 9405 9408 9411 9414 9417 9420 9423 9426 9429 9432 9435 9438 9441 9444 9447 9450 9453 9456 9459 9462 9465 9468 9471 9474 9477 9480 9483 9486 9489 9492 9495 9498 9501 9504 9507 9510 9513 9516 9519 9522 9525 9528 9531 9534 9537 9540 9543 9546 9549 9552 9555 9558 9561 9564 9567 9570 9573 9576 9579 9582 9585 9588 9591 9594 9597 9600 9603 9606 9609 9612 </DataArray>
<DataArray  type="UInt8"  Name="types"  format="ascii">5 5 5 5 5 5 5 5 5 5 5 5 5 5 5 5 5 5 5 5 5 5 5 5 5 5 5 5 5 5 5 5 5 5 5 5 5 5 5 5 5 5 5 5 5 5 5 5 5 5 5 5 5 5 5 5 5 5 5 5 5 5 5 5 5 5 5 5 5 5 5 5 5 5 5 5 5 5 5 5 5 5 5 5 5 5 5 5 5 5 5 5 5 5 5 5 5 5 5 5 5 5 5 5 5 5 5 5 5 5 5 5 5 5 5 5 5 5 5 5 5 5 5 5 5 5 5 5 5 5 5 5 5 5 5 5 5 5 5 5 5 5 5 5 5 5 5 5 5 5 5 5 5 5 5 5 5 5 5 5 5 5 5 5 5 5 5 5 5 5 5 5 5 5 5 5 5 5 5 5 5 5 5 5 5 5 5 5 5 5 5 5 5 5 5 5 5 5 5 5 5 5 5 5 5 5 5 5 5 5 5 5 5 5 5 5 5 5 5 5 5 5 5 5 5 5 5 5 5 5 5 5 5 5 5 5 5 5 5 5 5 5 5 5 5 5 5 5 5 5 5 5 5 5 5 5 5 5 5 5 5 5 5 5 5 5 5 5 5 5 5 5 5 5 5 5 5 5 5 5 5 5 5 5 5 5 5 5 5 5 5 5 5 5 5 5 5 5 5 5 5 5 5 5 5 5 5 5 5 5 5 5 5 5 5 5 5 5 5 5 5 5 5 5 5 5 5 5 5 5 5 5 5 5 5 5 5 5 5 5 5 5 5 5 5 5 5 5 5 5 5 5 5 5 5 5 5 5 5 5 5 5 5 5 5 5 5 5 5 5 5 5 5 5 5 5 5 5 5 5 5 5 5 5 5 5 5 5 5 5 5 5 5 5 5 5 5 5 5 5 5 5 5 5 5 5 5 5 5 5 5 5 5 5 5 5 5 5 5 5 5 5 5 5 5 5 5 5 5 5 5 5 5 5 5 5 5 5 5 5 5 5 5 5 5 5 5 5 5 5 5 5 5 5 5 5 5 5 5 5 5 5 5 5 5 5 5 5 5 5 5 5 5 5 5 5 5 5 5 5 5 5 5 5 5 5 5 5 5 5 5 5 5 5 5 5 5 5 5 5 5 5 5 5 5 5 5 5 5 5 5 5 5 5 5 5 5 5 5 5 5 5 5 5 5 5 5 5 5 5 5 5 5 5 5 5 5 5 5 5 5 5 5 5 5 5 5 5 5 5 5 5 5 5 5 5 5 5 5 5 5 5 5 5 5 5 5 5 5 5 5 5 5 5 5 5 5 5 5 5 5 5 5 5 5 5 5 5 5 5 5 5 5 5 5 5 5 5 5 5 5 5 5 5 5 5 5 5 5 5 5 5 5 5 5 5 5 5 5 5 5 5 5 5 5 5 5 5 5 5 5 5 5 5 5 5 5 5 5 5 5 5 5 5 5 5 5 5 5 5 5 5 5 5 5 5 5 5 5 5 5 5 5 5 5 5 5 5 5 5 5 5 5 5 5 5 5 5 5 5 5 5 5 5 5 5 5 5 5 5 5 5 5 5 5 5 5 5 5 5 5 5 5 5 5 5 5 5 5 5 5 5 5 5 5 5 5 5 5 5 5 5 5 5 5 5 5 5 5 5 5 5 5 5 5 5 5 5 5 5 5 5 5 5 5 5 5 5 5 5 5 5 5 5 5 5 5 5 5 5 5 5 5 5 5 5 5 5 5 5 5 5 5 5 5 5 5 5 5 5 5 5 5 5 5 5 5 5 5 5 5 5 5 5 5 5 5 5 5 5 5 5 5 5 5 5 5 5 5 5 5 5 5 5 5 5 5 5 5 5 5 5 5 5 5 5 5 5 5 5 5 5 5 5 5 5 5 5 5 5 5 5 5 5 5 5 5 5 5 5 5 5 5 5 5 5 5 5 5 5 5 5 5 5 5 5 5 5 5 5 5 5 5 5 5 5 5 5 5 5 5 5 5 5 5 5 5 5 5 5 5 5 5 5 5 5 5 5 5 5 5 5 5 5 5 5 5 5 5 5 5 5 5 5 5 5 5 5 5 5 5 5 5 5 5 5 5 5 5 5 5 5 5 5 5 5 5 5 5 5 5 5 5 5 5 5 5 5 5 5 5 5 5 5 5 5 5 5 5 5 5 5 5 5 5 5 5 5 5 5 5 5 5 5 5 5 5 5 5 5 5 5 5 5 5 5 5 5 5 5 5 5 5 5 5 5 5 5 5 5 5 5 5 5 5 5 5 5 5 5 5 5 5 5 5 5 5 5 5 5 5 5 5 5 5 5 5 5 5 5 5 5 5 5 5 5 5 5 5 5 5 5 5 5 5 5 5 5 5 5 5 5 5 5 5 5 5 5 5 5 5 5 5 5 5 5 5 5 5 5 5 5 5 5 5 5 5 5 5 5 5 5 5 5 5 5 5 5 5 5 5 5 5 5 5 5 5 5 5 5 5 5 5 5 5 5 5 5 5 5 5 5 5 5 5 5 5 5 5 5 5 5 5 5 5 5 5 5 5 5 5 5 5 5 5 5 5 5 5 5 5 5 5 5 5 5 5 5 5 5 5 5 5 5 5 5 5 5 5 5 5 5 5 5 5 5 5 5 5 5 5 5 5 5 5 5 5 5 5 5 5 5 5 5 5 5 5 5 5 5 5 5 5 5 5 5 5 5 5 5 5 5 5 5 5 5 5 5 5 5 5 5 5 5 5 5 5 5 5 5 5 5 5 5 5 5 5 5 5 5 5 5 5 5 5 5 5 5 5 5 5 5 5 5 5 5 5 5 5 5 5 5 5 5 5 5 5 5 5 5 5 5 5 5 5 5 5 5 5 5 5 5 5 5 5 5 5 5 5 5 5 5 5 5 5 5 5 5 5 5 5 5 5 5 5 5 5 5 5 5 5 5 5 5 5 5 5 5 5 5 5 5 5 5 5 5 5 5 5 5 5 5 5 5 5 5 5 5 5 5 5 5 5 5 5 5 5 5 5 5 5 5 5 5 5 5 5 5 5 5 5 5 5 5 5 5 5 5 5 5 5 5 5 5 5 5 5 5 5 5 5 5 5 5 5 5 5 5 5 5 5 5 5 5 5 5 5 5 5 5 5 5 5 5 5 5 5 5 5 5 5 5 5 5 5 5 5 5 5 5 5 5 5 5 5 5 5 5 5 5 5 5 5 5 5 5 5 5 5 5 5 5 5 5 5 5 5 5 5 5 5 5 5 5 5 5 5 5 5 5 5 5 5 5 5 5 5 5 5 5 5 5 5 5 5 5 5 5 5 5 5 5 5 5 5 5 5 5 5 5 5 5 5 5 5 5 5 5 5 5 5 5 5 5 5 5 5 5 5 5 5 5 5 5 5 5 5 5 5 5 5 5 5 5 5 5 5 5 5 5 5 5 5 5 5 5 5 5 5 5 5 5 5 5 5 5 5 5 5 5 5 5 5 5 5 5 5 5 5 5 5 5 5 5 5 5 5 5 5 5 5 5 5 5 5 5 5 5 5 5 5 5 5 5 5 5 5 5 5 5 5 5 5 5 5 5 5 5 5 5 5 5 5 5 5 5 5 5 5 5 5 5 5 5 5 5 5 5 5 5 5 5 5 5 5 5 5 5 5 5 5 5 5 5 5 5 5 5 5 5 5 5 5 5 5 5 5 5 5 5 5 5 5 5 5 5 5 5 5 5 5 5 5 5 5 5 5 5 5 5 5 5 5 5 5 5 5 5 5 5 5 5 5 5 5 5 5 5 5 5 5 5 5 5 5 5 5 5 5 5 5 5 5 5 5 5 5 5 5 5 5 5 5 5 5 5 5 5 5 5 5 5 5 5 5 5 5 5 5 5 5 5 5 5 5 5 5 5 5 5 5 5 5 5 5 5 5 5 5 5 5 5 5 5 5 5 5 5 5 5 5 5 5 5 5 5 5 5 5 5 5 5 5 5 5 5 5 5 5 5 5 5 5 5 5 5 5 5 5 5 5 5 5 5 5 5 5 5 5 5 5 5 5 5 5 5 5 5 5 5 5 5 5 5 5 5 5 5 5 5 5 5 5 5 5 5 5 5 5 5 5 5 5 5 5 5 5 5 5 5 5 5 5 5 5 5 5 5 5 5 5 5 5 5 5 5 5 5 5 5 5 5 5 5 5 5 5 5 5 5 5 5 5 5 5 5 5 5 5 5 5 5 5 5 5 5 5 5 5 5 5 5 5 5 5 5 5 5 5 5 5 5 5 5 5 5 5 5 5 5 5 5 5 5 5 5 5 5 5 5 5 5 5 5 5 5 5 5 5 5 5 5 5 5 5 5 5 5 5 5 5 5 5 5 5 5 5 5 5 5 5 5 5 5 5 5 5 5 5 5 5 5 5 5 5 5 5 5 5 5 5 5 5 5 5 5 5 5 5 5 5 5 5 5 5 5 5 5 5 5 5 5 5 5 5 5 5 5 5 5 5 5 5 5 5 5 5 5 5 5 5 5 5 5 5 5 5 5 5 5 5 5 5 5 5 5 5 5 5 5 5 5 5 5 5 5 5 5 5 5 5 5 5 5 5 5 5 5 5 5 5 5 5 5 5 5 5 5 5 5 5 5 5 5 5 5 5 5 5 5 5 5 5 5 5 5 5 5 5 5 5 5 5 5 5 5 5 5 5 5 5 5 5 5 5 5 5 5 5 5 5 5 5 5 5 5 5 5 5 5 5 5 5 5 5 5 5 5 5 5 5 5 5 5 5 5 5 5 5 5 5 5 5 5 5 5 5 5 5 5 5 5 5 5 5 5 5 5 5 5 5 5 5 5 5 5 5 5 5 5 5 5 5 5 5 5 5 5 5 5 5 5 5 5 5 5 5 5 5 5 5 5 5 5 5 5 5 5 5 5 5 5 5 5 5 5 5 5 5 5 5 5 5 5 5 5 5 5 5 5 5 5 5 5 5 5 5 5 5 5 5 5 5 5 5 5 5 5 5 5 5 5 5 5 5 5 5 5 5 5 5 5 5 5 5 5 5 5 5 5 5 5 5 5 5 5 5 5 5 5 5 5 5 5 5 5 5 5 5 5 5 5 5 5 5 5 5 5 5 5 5 5 5 5 5 5 5 5 5 5 5 5 5 5 5 5 5 5 5 5 5 5 5 5 5 5 5 5 5 5 5 5 5 5 5 5 5 5 5 5 5 5 5 5 5 5 5 5 5 5 5 5 5 5 5 5 5 5 5 5 5 5 5 5 5 5 5 5 5 5 5 5 5 5 5 5 5 5 5 5 5 5 5 5 5 5 5 5 5 5 5 5 5 5 5 5 5 5 5 5 5 5 5 5 5 5 5 5 5 5 5 5 5 5 5 5 5 5 5 5 5 5 5 5 5 5 5 5 5 5 5 5 5 5 5 5 5 5 5 5 5 5 5 5 5 5 5 5 5 5 5 5 5 5 5 5 5 5 5 5 5 5 5 5 5 5 5 5 5 5 5 5 5 5 5 5 5 5 5 5 5 5 5 5 5 5 5 5 5 5 5 5 5 5 5 5 5 5 5 5 5 5 5 5 5 5 5 5 5 5 5 5 5 5 5 5 5 5 5 5 5 5 5 5 5 5 5 5 5 5 5 5 5 5 5 5 5 5 5 5 5 5 5 5 5 5 5 5 5 5 5 5 5 5 5 5 5 5 5 5 5 5 5 5 5 5 5 5 5 5 5 5 5 5 5 5 5 5 5 5 5 5 5 5 5 5 5 5 5 5 5 5 5 5 5 5 5 5 5 5 5 5 5 5 5 5 5 5 5 5 5 5 5 5 5 5 5 5 5 5 5 5 5 5 5 5 5 5 5 5 5 5 5 5 5 5 5 5 5 5 5 5 5 5 5 5 5 5 5 5 5 5 5 5 5 5 5 5 5 5 5 5 5 5 5 5 5 5 5 5 5 5 5 5 5 5 5 5 5 5 5 5 5 5 5 5 5 5 5 5 5 5 5 5 5 5 5 5 5 5 5 5 5 5 5 5 5 5 5 5 5 5 5 5 5 5 5 5 5 5 5 5 5 5 5 5 5 5 5 5 5 5 5 5 5 5 5 5 5 5 5 5 5 5 5 5 5 5 5 5 5 5 5 5 5 5 5 5 5 5 5 5 5 5 5 5 5 5 5 5 5 5 5 5 5 5 5 5 5 5 5 5 5 5 5 5 5 5 5 5 5 5 5 5 5 5 5 5 5 5 5 5 5 5 5 5 5 5 5 5 5 5 5 5 5 5 5 5 5 5 5 5 5 5 5 5 5 5 5 5 5 5 5 5 5 5 5 5 5 5 5 5 5 5 5 5 5 5 5 5 5 5 5 5 5 5 5 5 5 5 5 5 5 5 5 5 5 5 5 5 5 5 5 5 5 5 5 5 5 5 5 5 5 5 5 5 5 5 5 5 5 5 5 5 5 5 5 5 5 5 5 5 5 5 5 5 5 5 5 5 5 5 5 5 5 5 5 5 5 5 5 5 5 5 5 5 5 5 5 5 5 5 5 5 5 5 5 5 5 5 5 5 5 5 5 5 5 5 5 5 5 5 5 5 5 5 5 5 5 5 5 5 5 5 5 5 5 5 5 5 5 5 5 5 5 5 5 5 5 5 5 5 5 5 5 5 5 5 5 5 5 5 5 5 5 5 5 5 5 5 5 5 5 5 5 5 5 5 5 5 5 5 5 5 5 5 5 5 5 5 5 5 5 5 5 5 5 5 5 5 5 5 5 5 5 5 5 5 5 5 5 5 5 5 5 5 5 5 5 5 5 5 5 5 5 5 5 5 5 5 5 5 5 5 5 5 5 5 5 5 5 5 5 5 5 5 5 5 5 5 5 5 5 5 5 5 5 5 5 5 5 5 5 5 5 5 5 5 5 5 5 5 5 5 5 5 5 5 5 5 5 5 5 5 5 5 5 5 5 5 5 5 5 5 5 5 5 5 5 5 5 5 5 5 5 5 5 5 5 5 5 5 5 5 5 5 5 5 5 5 5 5 5 5 5 5 5 5 5 5 5 5 5 5 5 5 5 5 5 5 5 5 5 5 5 5 5 5 5 5 5 5 5 5 5 5 5 5 5 5 5 5 5 5 5 5 5 5 5 5 5 5 5 5 5 5 5 5 5 5 5 5 5 5 5 5 5 5 5 5 5 5 5 5 5 5 5 5 5 5 5 5 5 5 </DataArray>
</Cells>
<PointData  Scalars=" mean stress"> 
<DataArray  type="Float64"  Name=" mean stress"  format="ascii">1.3185604219408800e-01  3.6824028148447532e+01  7.5639996017883948e+02  5.1177803914079441e+01  1.2480880665636626e-01  1.2002245193327898e-01  1.2754428698898970e-01  1.4178541769237690e-01  1.6230526983766849e-01  1.9279618496514750e-01  2.2698575800385981e-01  2.6574301049039339e-01  3.3707397257759153e-01  3.9871794954321998e-01  4.8115675025973409e-01  5.8189823476142033e-01  6.7750282015014673e-01  7.7813569416199446e-01  9.5527408022812565e-01  1.1239003181558189e+00  1.2989743031719900e+00  1.5885940097582654e+00  1.7405747765721018e+00  2.0490143025932381e+00  2.3754557687374445e+00  2.7330505484981922e+00  3.1543825292578953e+00  3.6834302648171269e+00  4.0758360584561446e+00  4.9032919218875710e+00  5.8488290026621153e+00  6.7881840182605462e+00  7.8563935928280042e+00  9.4392040837430695e+00  1.1187319123641133e+01  1.3170150027968939e+01  1.5789408548274505e+01  1.7470171356886691e+01  2.1016538521034185e+01  2.4602914487612690e+01  2.6949805780542462e+01  3.0058571659450525e+01  3.0462704005194908e+01  3.2009206167039402e+01  3.2864629237026151e+01  3.5732942195676458e+01  3.2040634263234573e+01  3.4075273540898564e+01  3.4309272023120784e+01  3.4912882776225693e+01  3.3707829166153154e+01  3.5922998387585132e+01  3.2127031205182696e+01  3.6483404763798788e+01  3.8757093334819615e+01  4.4893849865953911e+01  5.1832848192629442e+01  6.4509723911022093e+01  9.7289319062276036e+01  1.2156531809497389e+02  2.0329636520085185e+02  1.1399435961664773e+02  7.7666096208310478e+01  5.8406578098351460e+01  4.5340831357818310e+01  3.7150082424802427e+01  3.1337746573697665e+01  2.6818315292179665e+01  2.3881947800315331e+01  2.1507390337525823e+01  1.9833520297506212e+01  1.8843324234456929e+01  1.8338287305034076e+01  1.8446169802185775e+01  1.9310859287518685e+01  2.1003976083856273e+01  2.5025092402707678e+01  3.0998070838670252e+01  4.7064325095362506e+01  1.0213078478866980e+02  7.3668766996136114e+01  3.0679583350315465e+01  2.0685128138874202e+01  1.5065571093276128e+01  1.1536585865184131e+01  9.7997380786089749e+00  8.5032693353193203e+00  7.5337345210137805e+00  6.9140187924231018e+00  6.4956315576164796e+00  6.1934209708814061e+00  6.1360841706293874e+00  6.0923682816572855e+00  6.1317969328854254e+00  6.2894634498467150e+00  6.5963082677127893e+00  6.9247323270069021e+00  7.3990659438050495e+00  8.0663548677625325e+00  8.8951814297418643e+00  9.9017330464829865e+00  1.1392378702510923e+01  1.3236538553616375e+01  1.6056467025774715e+01  1.9198140807617431e+01  2.4882949469102481e+01  3.3831376511425063e+01  4.8295720323461317e+01  2.5399693550234659e+01  1.7803227958468902e+01  1.3377240530810253e+01  1.0820551546510961e+01  9.2507107497078707e+00  8.1707659688066325e+00  7.2642987424505465e+00  6.6193253405278112e+00  6.1510285636367934e+00  5.7540318850156016e+00  5.3987141022224936e+00  5.1105295528936168e+00  4.8458216885226921e+00  4.6425235883408806e+00  4.4405619271983152e+00  4.2606707514621558e+00  4.0903949596666935e+00  3.9253860351011345e+00  3.7877162842194858e+00  3.6494450464866257e+00  3.5172756450253813e+00  3.3932814570271379e+00  3.2686770836748686e+00  3.1629986881364180e+00  3.0628378938449341e+00  2.9424785218907825e+00  2.8355912406428829e+00  2.7388971488025273e+00  2.6230891667650380e+00  2.5368610931139179e+00  2.4318496758728951e+00  2.3271632089133898e+00  2.2387481762993193e+00  2.1397667805699685e+00  2.0452091410391326e+00  1.9709818897980609e+00  1.8544470714594934e+00  1.7596240462760717e+00  1.6796742715808406e+00  1.6071975184126284e+00  1.5251185929411037e+00  1.4200845653337617e+00  1.3520087507125165e+00  1.2624371215622514e+00  1.1936813710333989e+00  1.1236027470337959e+00  1.0428976353919213e+00  9.5841092008244455e-01  8.9898901956539035e-01  8.3941310628048582e-01  7.7690977817587736e-01  7.0214284349594724e-01  6.5085448707735793e-01  5.9736553430227379e-01  5.4817148053899800e-01  4.9103736502414774e-01  4.3671307373388263e-01  4.0581478285367878e-01  3.6080015997875892e-01  3.1661552766483048e-01  2.8399531323850247e-01  2.5474591908952904e-01  2.2672114776289939e-01  2.0957898926502883e-01  1.6545809891536997e-01  3.0754903730514782e-01  9.3052499838806299e-02  1.1967845711523269e-01  2.0883382149426759e+00  2.6911690726644490e+00  3.3301115690825918e+00  1.5720273216126237e+00  1.0743849058547104e+00  2.0565570949267231e+00  7.7373377689584597e+00  7.4806972385022230e-01  4.0211905748102117e+00  9.6147138480000216e-01  6.5858685846954357e+00  4.9819350439911032e+00  4.7910756152689798e-01  1.3734428647848167e+01  3.5409057604924015e+00  4.9351090846458612e-01  7.5016364121140855e+00  2.9198889074258997e+01  6.4413201352875218e+00  6.3458758079401170e+00  3.0797291172461427e-01  2.2041954516978290e+01  1.2019455378234486e+01  2.4724008736698982e-01  1.0694165202616379e+01  1.9246506727445787e+01  1.8916539223117375e+01  1.3136989728903055e+00  3.0007638784426622e+00  1.8192266448433358e+00  2.3979373679363212e+00  2.1868496440962584e+01  2.5208797540393178e+01  2.3500262483555159e-01  8.6563940229887617e+00  3.0222530478401879e+01  4.8144676048362200e+01  2.9302724624241748e+01  5.1461291518412608e+01  1.6143349274026061e-01  1.6486764743793579e+01  3.2120127153833970e+01  3.0597102402833475e+01  8.8436080293185206e+00  2.3070611737938023e+01  4.8092695214690195e+00  9.4750063650322058e+00  2.6374507192305634e+00  6.7921738808280185e+00  1.2857515504137784e+00  6.8615986958380004e+00  7.0065214619240757e-01  8.7363653772794319e+00  3.5922449095858827e-01  3.9465722212109805e-01  5.5555567388818341e+00  1.7038295787715110e-01  1.1882895992687033e+01  5.7563547280532834e-01  4.5422137021486346e+00  8.6656556250641192e-01  3.7197021285928846e+00  8.6017371501594809e+01  3.3281011229055188e+01  1.2975316339566537e-01  2.2827707910713681e+01  7.2121071243932036e+01  3.8026308105172262e+01  1.2198558632310512e-01  2.0893662309532388e+01  6.4818803855127697e+01  5.1860943801877212e+01  4.4506734587466063e+01  4.3512870398822223e+01  3.8976005097979090e+01  4.7974288409409041e+01  3.7799002897702643e+01  3.5010949656118584e+01  3.3893230646161861e+01  3.2026621253415641e+01  3.1902214825653587e+01  3.0183152067866665e+01  2.9645869641446104e+01  2.8051259184756287e+01  2.7948645282375999e+01  2.6059496889717927e+01  2.6101101008832959e+01  2.4460308756139401e+01  2.4269343566998334e+01  2.2479054479493382e+01  2.2016817410375662e+01  2.0118173663361706e+01  1.9934521675601673e+01  1.7619840798304644e+01  1.7585930844578684e+01  1.5475213358550761e+01  1.5053838896919320e+01  1.3363579874000205e+01  1.2974410846975648e+01  1.1465700656491389e+01  1.1214462306329612e+01  9.8520048929147315e+00  9.7269081776316302e+00  8.6147951538553897e+00  8.5904373114765633e+00  7.5673240098661605e+00  7.6490514631317970e+00  6.7879799010807540e+00  6.9206708500651821e+00  6.2162943486529674e+00  6.3900192584664355e+00  5.7589325259227371e+00  5.9677865675673196e+00  5.4164447089494123e+00  5.7014075872060559e+00  5.1963785882891242e+00  5.5519392411652690e+00  5.0484423689269828e+00  5.4672973355413683e+00  5.0085806171146592e+00  5.4740361887295652e+00  5.0070920799924536e+00  5.5341824710604364e+00  5.0783004136255130e+00  5.6519622624078494e+00  5.1960346647688125e+00  5.8486541178647773e+00  5.3490691638377452e+00  5.9408221568771760e+00  4.7211436312249662e+00  4.7981039537158123e+00  4.3301455322589044e+00  4.2604331371640694e+00  3.9004569637109654e+00  3.8065148274028449e+00  3.4778183052715028e+00  3.3925323637531570e+00  3.7102113122093954e+00  3.2834502644748076e+00  3.0151340127785060e+00  3.5672841869968721e+00  2.8882590737956981e+00  2.6761742361595817e+00  2.5629395257503242e+00  2.3735801242032402e+00  4.6047385127868097e+00  2.2599469860361805e+00  2.1120620684281555e+00  2.1679184014988104e+00  2.4355026306494003e+00  2.0105524312438265e+00  1.8489120308842082e+00  6.5412593882433443e+00  6.6484963084035300e+00  1.7362408302812045e+00  1.6431362676516859e+00  1.5393687221773686e+00  1.4523047261564646e+00  1.6497892612838285e+00  7.3046399063958525e+00  7.3372530295636817e+00  1.5771521478123947e+00  1.3447723716698312e+00  1.2776068266343217e+00  1.1803518299127496e+00  1.1081929263060577e+00  5.2218789026631587e+00  8.0343799360288077e+00  7.8815606810105416e+00  1.0329650360430420e+00  1.1042592862246794e+00  9.6861035755304115e-01  1.0340876541136095e+00  8.6795616722883580e+00  8.2271600769540125e+00  7.4363982596488922e+00  7.6840556146300427e+00  6.8806291773237751e+00  6.9020033177436249e+00  6.2167301511128379e+00  6.2434247934221236e+00  5.6040096016856520e+00  5.6687602406897835e+00  5.1464967294999919e+00  6.2341876898658892e+00  5.7013073769667555e+00  8.6330653498674970e+00  6.2473517569116064e+00  5.7554964053021376e+00  5.9530405689737691e+00  6.2875157073920391e+00  5.8144336599777482e+00  5.3469130365490045e+00  5.0706746166259649e+00  4.6748178725311025e+00  4.6159664646485128e+00  4.2938768227504882e+00  4.1938977411747018e+00  3.9032424440819025e+00  3.8517557281548189e+00  9.0042022670498978e-01  8.5024954564244093e-01  5.4354225664381826e+00  5.8845424717673893e+00  3.9705948130840212e+00  8.3906379758850758e+00  3.5210318229584248e+00  3.5611837617942692e+00  3.4983072255475807e+00  7.9861941955883697e-01  5.5623413521198390e+00  6.0132732009769052e+00  5.0201195518695823e+00  7.2904168385935231e-01  6.7954610395669510e+00  3.2984392994880616e+00  3.2229084793632086e+00  5.7100038662861330e+00  6.7841604444988102e-01  4.5023364755447171e+00  7.3343761426732412e-01  6.1783301055951849e+00  6.4736915289584953e+00  6.3623422047149325e-01  7.1192412895129698e-01  3.0502601262809867e+00  2.9729936238147801e+00  5.9045717810268199e+00  5.8107639490486784e-01  6.3026033608052003e+00  3.1096445348577970e+00  2.8243267116669619e+00  2.7356141229441469e+00  5.5061170185516939e-01  2.8899390116804056e+00  2.6556911379320685e+00  6.4005866041852366e+00  6.1820446609043440e+00  2.5335107788053675e+00  2.4441877503468241e+00  5.4809892049532767e+00  5.1380984164170873e-01  2.5733177093781592e+00  2.3606433181286155e+00  2.2586012653512459e+00  2.1608740725370952e+00  1.0088018055157900e+01  6.7166548845907315e+00  6.5325765452059139e+00  2.0637228520461250e+00  1.9777513359853607e+00  4.7512358439591496e-01  4.4075977319161452e-01  7.8599028358136867e+00  2.0734216865665989e+00  1.8937412612336271e+00  4.6912757104425057e-01  1.8251008728997473e+00  1.7408507588655537e+00  1.9853932645391161e+00  1.6822464266215822e+00  1.5981290132385784e+00  4.0910801921655260e-01  4.5104241673905054e-01  3.7800208854738138e-01  7.1235633206464692e+00  7.3075171983611495e+00  6.9680707668258899e+00  6.8295559637768068e+00  6.3916173712682607e+00  6.6025202395346847e+00  1.7621906691689202e+00  6.8552677195857585e+00  7.5238920012864261e+00  1.3619622575647300e+01  9.7838674487387234e+00  2.1467614119557630e+00  9.3489617818050004e+00  9.2001868745781330e+00  9.8427906429489997e+00  9.7436086150625929e+00  1.0177296912961433e+01  9.9817675735160680e+00  9.2875918311272585e+00  9.6773618087293922e+00  1.0162668593281143e+01  1.0225897824706697e+01  1.0061269293154442e+01  2.0841788630509612e+01  3.5287728153558251e-01  3.2386558644538732e-01  3.5014677732119315e-01  1.6529259800189542e+00  1.5099833457472347e+00  1.4608708895282607e+00  1.3812833906349129e+00  1.4204532912006349e+00  1.2972367431443290e+00  1.2570631683661651e+00  1.1838749520494649e+00  2.4815089354978226e+00  1.4699481837954727e+01  8.8320211606231460e+00  9.3750384153866193e+00  8.6232169963295089e+00  9.1723069210738988e+00  2.7816263135897392e+00  4.0202647614671756e+00  3.8307027400022879e+00  4.2727149463308685e+00  3.4335925963965828e+00  2.7241488105169109e+00  8.3893699262787571e+00  9.1504449978567362e+00  1.3385240574353570e+00  1.4815544158159251e+00  8.3980197278916240e+00  7.7754602524340255e+00  7.8912715025731694e+00  2.6291781838730039e+00  1.6362404617729112e+00  3.0272035997510366e-01  2.8047339491162987e-01  3.3010832796889833e-01  1.1555257715083120e+00  1.0822719304722761e+00  1.1069919190975051e+00  1.0081932821694517e+00  7.4597647875305961e+00  8.2652113968547649e+00  6.2960428474627586e+00  4.3362781120712182e+00  1.7183200558431071e+00  1.2188998141616907e+00  1.0135150343768814e+01  4.0640804652211493e+00  4.5609345912416241e+00  9.9380740738163400e+00  9.6745730075267726e+00  9.5793373979769605e+00  9.2761239580882382e+00  2.1589991437446240e+01  9.8475612518218936e-01  9.1842320332803440e-01  9.3581556287849232e-01  8.4961913944337975e-01  8.1428309584764875e+00  9.1155619659795395e+00  4.7109960718572443e+00  2.6645337827994190e+01  5.9188068891871062e+00  3.5871946670689198e+01  8.2700083687979777e+00  3.4183680910136318e+00  5.8403946476814168e+00  5.5232986974367471e+00  9.1293966332824255e+00  8.8999558139361561e+00  8.8732708608174420e+00  8.6117739133046260e+00  8.4025969079675065e+00  8.3307461639568885e+00  8.1621412797647501e+00  9.1702136648515307e+00  8.4405020404644038e+00  9.6775087912473587e+00  2.6126120975979034e-01  2.4085806574851970e-01  2.5797901102541121e-01  8.3783465067571132e+00  8.3994352367933374e+00  7.9731137488749830e+00  9.8633767637611189e+00  8.2813693981113046e-01  7.6762712934796529e-01  2.9008240164126691e+00  1.3957796511345213e+00  4.2320136523128724e+00  4.7560036758306383e+00  9.3295200764688957e+00  9.2200735526510638e+00  6.8461222673422606e+00  7.4242292912561050e+00  8.3495794755304349e+00  8.7616914908135890e-01  6.1020587819427750e+00  8.7875195934767234e+00  1.0329678433093671e+01  6.1692967186373400e+00  9.3680496153141242e+00  4.8277917937624322e+00  1.6040563775973038e+00  1.6873163220529450e+00  1.7979114930451616e+00  2.7443826160419690e+01  8.4014949274881836e+00  5.4496667480635859e+00  5.1929487944339154e+00  9.6329238285431595e-01  1.1307885621741327e+00  1.1921344393169537e+00  7.9519967672318517e+00  1.0157081726173669e+01  3.1372345425148009e+01  8.4530677922111330e+00  2.7744365670748645e+00  2.5058035955693239e+00  7.5096796493639484e-01  6.8865263332768334e-01  7.0493317515423382e-01  6.3546712856404375e-01  6.5058826675243198e-01  5.8327937965483367e-01  5.7033751525437537e-01  5.2157354182819293e-01  2.1987487162373812e-01  1.5518859648806074e+00  7.9733864732561770e+00  8.0983594526676439e-01  9.1750526099225294e+00  1.1085137399777730e+01  9.8662647187073116e+00  1.2058951185245766e+01  6.0036793039170200e-01  9.0021750832483760e-01  2.0326517448653944e-01  6.8145413950011524e-01  8.0638858289549589e+00  8.2587300399274675e+00  1.0957180512664417e+01  7.2784752140519435e+00  1.0470903891760424e+01  4.9314029572380873e+00  4.6634829399024724e+00  4.7590763053714786e+00  4.4531030516782826e+00  4.5584637820523035e+00  4.2863272440423028e+00  4.1781401605887059e+00  4.0401694193123125e+00  3.9379509248621170e+00  4.4033553080963550e+00  3.8076265994798595e+00  3.7156703407213283e+00  3.9221442459934930e+00  3.5934221331473850e+00  3.5067604533090440e+00  3.6263816860114382e+00  3.4194730026281439e+00  3.3338579670355264e+00  3.2466230096826343e+00  4.0808144203077727e+00  3.3349943579021128e+00  3.1537655553116637e+00  3.0889658987553679e+00  2.9990961759199459e+00  2.9349916608081399e+00  2.8402676074641566e+00  2.9139817945739539e+00  2.7556299218254625e+00  2.7033711638740687e+00  2.6062882308444810e+00  2.6631558100243899e+00  2.5190971239101709e+00  4.6807442386340812e+00  4.5451855867841342e+00  2.4807505313128946e+00  2.3875539093122526e+00  2.4318806606399561e+00  2.3020810988221254e+00  2.2589290201608008e+00  2.1655216107591175e+00  3.0341586013265402e+00  5.7766668955958931e+00  8.5708026231632388e+00  8.7080697499735820e+00  1.0308225095512048e+01  4.8167047563972059e+00  2.3395878951453000e+00  3.7780750270060079e+00  2.4539772059070536e-01  2.6396946115605582e+00  2.3478794114074071e+00  2.8927580164003284e+00  4.2955103682830229e+00  4.4365328558501149e+00  4.2191182374439054e+00  4.3516103331750928e+00  5.1391007593137212e+00  7.6410031700018912e+00  8.2068407688771234e+00  3.2437773065342337e+00  3.4443004656102714e+00  1.5231369965630459e+00  1.5038646728481782e+00  2.8139965104143161e-01  4.5637296697124912e+00  1.7667102580015064e+00  1.8694400824492790e+00  1.0849456926451008e+01  1.3241599229204379e+01  3.9134425579375915e+00  3.1227750198077672e+01  1.4228412218265045e+00  4.5632095466494800e+00  5.2619369579310176e+00  4.6027517323511873e+00  1.2447820480937658e+01  1.2052964841767210e+01  1.4642822449301578e+01  1.3437278947779893e+01  1.6109145984649690e+01  3.1573951858612315e+00  3.2341616959109554e+00  2.8919287122883723e+00  3.0101737076420023e+00  2.6952157557185785e+00  2.8244942388587964e+00  2.5386387204502245e+00  2.6789835128001918e+00  2.4146693979051381e+00  2.5753658732954330e+00  2.8422828841267913e+00  2.7639474834077458e+00  3.0393884115387597e+00  2.9990817552953204e+00  2.3194261013764499e+00  2.1477538731680039e+00  3.2721295021684051e+00  3.2649281531026837e+00  2.0700369555396607e+00  1.9005838897103176e+00  3.5650458010300876e+00  3.5280736595853237e+00  3.8521915171211063e+00  3.9127314026331232e+00  1.8489469774056098e+00  1.6907799247528903e+00  2.0422836164254652e+00  2.9408159900497122e+00  4.2606953494276318e+00  4.4333076647836869e+00  4.7646646301211586e+00  4.8521567252616782e+00  1.7500753276568572e+00  1.5512602497494705e+00  1.5004561481304630e+00  1.3506425411831995e+00  3.1147549803620862e+00  5.2839605961600533e+00  5.4811323420449067e+00  5.8883034591420103e+00  1.8394656709691426e+00  2.0500796900468394e+00  3.6498558009951432e+00  6.3016874233864391e+00  1.3280971353198170e+00  1.1825256336598184e+00  1.2268211149690678e+00  1.0777026235545817e+00  3.3102926303186706e+00  3.6135059694982585e+00  6.7145788460137128e+00  7.1988217774750431e+00  1.0489476917380796e+00  9.2712746282301450e-01  2.3961049008111974e+00  1.6221042837496980e+00  5.0985525926562882e+00  4.5166493369868084e+00  9.6020737966887892e-01  8.2769510113309397e-01  7.7781722923177483e+00  8.3168609427655174e+00  8.8974446636512106e+00  4.1977498662071007e+00  7.9638214483577119e-01  7.0624899232035587e-01  9.4930533743939982e+00  1.8444351152243317e+00  2.0640369484372036e+00  1.0370173518920275e+01  1.1016421587466674e+01  2.2716832811349996e+00  8.6487021191196856e-01  6.5903921391503735e+00  1.1987499836420522e+01  1.2818663063034258e+01  1.3898536786579204e+01  9.9687464599885389e-01  7.2839483270293011e+00  6.8869363683659868e-01  6.0850838263271523e-01  6.3506926864188495e-01  5.3678815765762633e-01  7.8628528191156810e-01  2.3292734808931370e+00  2.5402383269562541e+00  1.8292621851148272e+00  1.7046807030420190e+00  1.9268843932681794e+00  2.6406338435759156e+00  2.8527718066839456e+00  1.4758106453212594e+00  5.6796924499979895e-01  1.8077920768240288e+00  9.0142418928242751e+00  4.8039779191852189e-01  4.5816495669190482e-01  4.0609079322703395e-01  1.6384993236957444e+00  1.6451573377359736e+00  1.4439534179661075e+00  1.5109305401926612e+01  1.6227597305858126e+01  1.7288077500575795e+01  2.7740751187871210e-01  3.1652442525251662e-01  8.8543550666501716e+00  1.2036098427806792e+01  1.2600206084770782e+00  1.3086335772027138e+00  1.0052792648688108e+01  9.5228199711868502e+00  9.6774872536714742e+00  8.8413664701820576e+00  5.0790865937767338e-01  4.7035255890110200e-01  4.6955955988787079e-01  4.2846682690920407e-01  1.9401582714777491e-01  1.7198487364460360e-01  1.4351878967993247e+01  1.9126335208728280e+00  3.0182505321717934e+00  3.2344762653320820e+00  1.8100290828278954e+01  1.9604559332109663e+01  2.0337385443807708e+01  5.9427061865265340e-01  8.0738137751981720e-01  2.5021029974529689e+00  3.3860631131910544e+00  2.9841172451105611e+00  1.6403997730299862e+00  1.7297000618964140e+00  1.9919360695046049e+00  1.9676168850210527e+00  6.6742823384440220e-01  7.1171202477011475e+00  3.0838742853596037e+00  1.1847214940710995e+00  9.1088516547067488e+00  4.3451679815026883e-01  1.1238948175369732e+00  1.0534165684512629e+00  1.1917445572412129e+00  1.5401442051777673e+01  3.8172879483232244e+01  1.4080647209780575e+00  9.1136486316929533e-01  1.5108932431555884e+01  1.7839068648702472e+01  1.8121302546077038e+00  1.9427938714274096e+00  6.6619929454515736e-01  5.6049998512358523e-01  4.1507018091794192e+00  4.0254281552419755e+00  2.5019884513160822e+00  4.2891940543944589e+00  1.7955500526692894e-01  8.4730565359797438e+00  8.2293903555907235e+00  1.6730884410644611e+00  9.8461299024176405e+00  7.8496945086055074e+00  9.1633171982498087e+00  9.9381981199575158e+00  1.4726461334139564e+00  1.1197860298042285e+01  4.1068740564601608e-01  3.8395309465131056e-01  1.8225434906738762e+01  1.3074367692799909e+00  2.1578308872910976e+00  2.0264184454296239e+00  7.4114280796327705e+00  9.4964108137522736e+00  1.0089808987132315e+01  1.0077900846458643e+01  6.1423173663298425e-01  1.4993850683223384e+01  4.7746802318459602e+00  8.0801835778126012e+00  7.4686777266909354e+00  7.4472324238451000e+00  2.1683515942962117e+00  2.2559948319609289e+00  3.4239405742480136e+00  3.6142907284269481e+00  3.8557847080737191e+00  4.1208573346586004e+00  7.9523456718905274e+00  8.0647015200675956e+00  4.9931667692660637e+00  1.4893168291534762e+00  3.8730637851111627e-01  3.4208068395610614e-01  2.0389707631917182e+00  1.6242418492622063e-01  9.8451486955193979e-01  9.4025522307282638e-01  4.4649328545954503e-01  2.0986539713437282e+00  1.8091767715212852e+00  2.0406376575776450e+00  8.2190818047681482e+00  7.9917549942840038e+00  2.1772570755422262e+01  2.3033384689019908e+01  1.2344656005437423e+01  1.2934452308920537e+01  5.9030498000885201e-01  7.1360591866529370e+00  3.0764785775706347e+00  1.0596299189751079e+00  1.1433281700801152e+00  1.2050096125178544e+00  3.5142586612336562e+00  4.9811486811893113e+00  1.3369023792297277e+00  1.6291272095919167e+00  7.8933612441360497e+00  1.0469980145140898e+00  9.7877986168470221e-01  9.7929292445561933e-01  1.3568089620717736e+00  1.6921582549079538e+01  1.9176322102845312e+01  1.8606443351797594e+01  2.0240581068838694e+01  2.0183348527608178e+01  2.1316021176511018e+01  2.0350892134416227e+01  2.9856886296415746e+00  3.1274505259699592e+00  2.8622135377833486e+00  2.7690334935448471e+00  2.0722143068772172e+00  4.8400968585512656e+00  2.0675182675329644e+01  4.8714484625009136e-01  1.0381833315396129e+01  7.4396067886006048e+00  6.9060074188895255e+00  1.7612349456966023e+00  1.2732974827306158e+00  1.1298938732659254e+00  3.6493089442970112e+00  3.6960360777575714e+00  2.4882693073231867e+00  2.7396484877882781e+00  1.2298842328529727e+00  1.3715178261454588e+00  1.8483264587440633e+00  9.1543719708008862e+00  7.2784876610457863e+00  3.1136752683589608e-01  2.6782396225666899e-01  1.0729977327214083e+01  1.0954128664083475e+01  1.1274744230367574e+01  8.1320374504094701e+00  8.1891282681287869e+00  7.5276399927913786e+00  8.8581389568942868e+00  8.8995044023830712e+00  3.9655844718204287e+00  3.8614869937282510e+00  4.4558341172954758e+00  4.3138823473846468e+00  4.1673565028402866e+00  5.1280119881484421e+00  3.9432172629530839e+00  3.6159834638570585e+00  3.9636556807663426e+00  1.6578434723825159e+00  7.7818912343006630e-01  8.2335991454665880e-01  2.4146874264805787e+00  2.2479003466494425e+00  5.0662322179060293e-01  1.9339320685516013e+00  1.3928089312176923e+00  3.1594298699970769e+00  2.1587907134429805e+01  2.3397723082442241e+01  2.5183836579641103e+01  3.6549757754421153e-01  3.0335747645470706e-01  2.9170623641663823e-01  2.5045241593713924e-01  2.8129425741640418e-01  2.3527609027662724e-01  2.1233856020287420e-01  1.9650237789812094e-01  1.5317087038063080e+00  1.3198254352769281e+00  1.3660073210782504e+00  1.2373291907249993e+00  3.0783911725627155e+00  3.2003896759859596e+00  3.2092494404787435e+00  3.3062519271426707e+00  3.4313474770145396e+00  3.4346006874023574e+00  3.5544860123712287e+00  3.5695856100010110e+00  5.2082662379482230e+00  1.0973261175892088e+00  9.9599583900410216e-01  7.9543816985648252e+00  1.8264984938169473e+01  2.0444675580677867e+00  1.9732458264431785e+00  3.5597972318294908e+00  3.6652485978247422e+00  3.4408768331699551e+00  6.2517019172175414e-01  6.1287106392078683e-01  6.6613130592149183e-01  7.3258173425861872e-01  7.8215390069692792e-01  8.5893566821278156e-01  9.0185078262674478e-01  7.0262545374202698e+00  6.2401714352091133e+00  5.9285801019324209e+00  5.6850562415740242e+00  5.7776474781214473e+00  6.5744125928450323e+00  5.4128715716937794e+00  5.1092054967730416e+00  3.6153039967755882e+00  3.9290263462483170e+00  9.8359709112853710e-01  2.1198390036862267e+00  2.0142841108866655e-01  6.0607080675151671e+01  5.2068481426740995e+01  4.3024081670517106e+01  4.4887317542802165e+01  3.8730504291057919e+01  3.9552884782614264e+01  5.2919166737975807e+01  3.7401510644320432e+01  3.6313745631815884e+01  3.7047187489071575e+01  3.9786215037925352e+01  6.8892951964573058e+01  4.1947941900861565e+01  2.9000413525349251e+00  2.7074679501262753e+00  2.6112122201364683e+00  2.3470586138479956e+00  5.3292793278979476e+00  5.2611936862232751e+00  1.5874608920794799e+00  1.6835598396333638e+00  4.0235794990410539e-01  5.7481429931857804e+00  5.3925342410485984e+00  5.6988018097173372e+00  6.1928598325473505e+00  5.1091087847467280e+00  4.8625856338722437e+00  3.1625757127152916e+00  2.7802990216588466e+00  1.1683737198995900e+02  2.3542408310162113e+00  2.4550905900759119e+00  2.5713970455791046e+00  2.5490357227949572e+00  2.6615568397179703e+00  3.2639267736774045e+01  4.6478609831338874e-01  4.2593739621925486e-01  1.3407678722488021e+00  5.1208109085447662e+00  5.2617219626092409e+00  6.7879472178180329e+00  6.7265429012578357e+00  7.3911081860073926e+00  6.8220469428186057e+00  7.4240226653522399e+00  8.2411429400737486e+00  3.3749314380887540e+01  1.4274225454279954e-01  9.0853404503933055e-01  3.3527339996580521e+00  2.9458845845933105e+01  3.0591500124518852e+01  2.8845315415700387e+01  3.0864234237093584e+01  2.9456160626244817e+01  1.3223733179172772e+00  1.2667741978250564e+00  9.9298343380025429e+00  9.8344622813219988e+00  2.1545075665513055e-01  2.5080450940414190e-01  1.8541089390582899e+00  1.9391513770839284e+00  2.0544095296649423e+00  1.9959294983075062e+00  1.3924414684701392e+00  9.8840456951812838e-01  8.4722408085770395e-01  8.1304471225791353e-01  6.7973951430193280e-01  1.1120961485523788e+00  4.1505404770497627e+00  1.4625899840382410e+00  4.2293271989729559e+00  4.7250836893577546e+00  4.8591528740644883e+00  5.3669000963109754e+00  1.5830120755895665e+00  8.4828337557434097e-01  3.2810742771455299e+00  4.9362268670749474e+00  4.3084121671639913e-01  5.0103700368824455e-01  3.2294609722497730e-01  3.5614955175393415e-01  2.0470890080467832e+01  2.3105856140091962e+01  2.4843353143029681e+01  2.4934933431841113e+01  2.3366800325476955e+01  2.4208721605735096e+01  1.6072930289521224e+01  2.6606790919014013e+01  2.9944337801065828e+01  3.3977539847601903e+01  2.7204728624391599e+01  2.9037577540022390e+01  2.8299056266346742e+01  5.5136092112573298e-01  2.2437282559964959e+00  2.1949376287868891e+00  2.3028045104437900e+00  8.6866897544899651e+00  9.0256046074127791e+00  6.1336333610480605e+00  6.1323227284811876e+00  5.5421295323210611e+00  6.7817429309276287e+00  6.1822597129971699e+00  1.8403098847194471e+01  1.2112031605100531e+01  1.1065852110475719e+01  1.0162907751782603e+01  1.4053627033595250e+01  4.9374221366431383e+00  4.7656588712219881e+00  4.5124574301118603e+00  4.3459366103995594e+00  4.1022092499017369e+00  4.6213313416106887e+00  4.3262456150961253e+00  3.9449340588996735e+00  4.2100324801208586e+00  3.8209911387378623e+00  3.5597222737089798e+00  3.4746286239618049e+00  3.7097539709978680e+00  3.9505752667568639e+00  4.5344043407743726e+00  4.1412060607053780e+00  3.9413084397095917e+00  7.1093699907965560e+00  1.9192971325233945e+00  4.4990992858669392e+00  6.1061086439696837e+00  6.7088708605558924e+00  6.9565274224962508e+00  2.5969248753263203e+00  2.8325549531597276e+00  1.5499935291511382e+00  6.0393879409117925e+00  5.6081253538753977e+00  1.0726431396735268e+01  1.0859483321242601e+01  9.3865371061262444e+00  1.0825950347667735e+01  1.3379379868775532e+01  8.2455196821679575e+00  1.2948255855790862e+01  1.6462762717565155e+01  1.7163893083631752e+01  4.5414363884192156e+01  5.3155893766871053e+01  2.7999377934551859e+00  1.6491781274286823e+00  2.6670956337152937e+01  2.5667695557915987e+01  1.4122533562633055e+01  1.1561040561327747e+01  1.0027473301215792e+01  5.9729819271463001e+00  1.2975897108115597e-01  1.4323423505835625e-01  8.5262192981655005e+00  8.1276077395670114e+00  7.4960050372273486e+00  4.7436517817582535e+00  6.2296502499242727e+00  9.0429179785691378e+00  2.6790493120821752e+00  6.3359690915095346e+00  6.9100156751700377e+00  7.6389708498004110e+00  3.4871314366442306e+01  7.7887008697331943e+00  4.2022418303853959e+00  7.4337222108482193e-01  5.6292257165960731e+00  7.6384168400334866e+00  2.7932956947354693e+01  2.7040280626764904e+01  6.0360775981816390e+00  1.9588729821894251e+01  3.1052083079400191e+01  1.9783405628087426e+01  1.7705959061624657e+01  7.5139096755318953e+00  7.3521400834891626e+00  6.4364087542107358e+00  2.4571788190046892e+01  1.7147424455961001e+01  1.4388331243435234e+01  1.5264534624387172e+01  1.7068569477182397e+01  2.6727536995888958e+01  4.0825085304694975e+00  3.5394421688486993e+01  4.7098304724005819e+00  3.0606013221006072e+00  2.3342198624353943e+00  8.4606820499628217e+00  1.0268885260891427e+01  2.0348480383414145e+01  2.0327566012932188e+01  5.3877785005470837e+00  1.1384782960833691e+01  4.3813515145722688e+00  4.6552340448294549e+00  2.2983583256539357e+00  2.3915981229513839e+01  1.1708408405966033e+01  1.5924181509151532e+01  2.2496390733908194e+00  7.7984540620171194e-01  7.0762379261253843e+00  5.8602752448875106e-01  5.9730383310834023e+00  6.4949003040583833e+00  6.5508623719401520e+00  7.1729190613346185e+00  6.5240612845674164e+00  7.5817958605101206e+00  8.0809772881154061e+00  8.7650446686358183e+00  9.4142180651815845e+00  4.2630986013196565e-01  1.1574929021428403e+01  2.9823788200073076e-01  9.1109190915437797e+00  8.7580734376529463e+00  8.2391656848290395e+00  6.0445608148583219e+00  9.2753764795102995e+00  3.6760877615355114e-01  9.5857266288430107e+00  1.1373616620648235e+00  6.7508419586753154e+00  6.8910791127361408e+00  7.4979601944634116e+00  2.1823458826806142e+01  2.3489274978291066e+00  2.2549227879295533e+00  1.2701234720020418e+00  2.2127717379619058e+00  3.3264322462066410e+01  3.7027086860366314e+00  4.9220079522644156e+00  5.5827160848001078e+00  2.8302614109188560e+00  8.5440977425225135e+00  1.8345182002033500e+01  2.1957573769858293e-01  3.1430817714909640e+01  1.5060711562673847e+01  1.2027713905346651e-01  3.4211127541445630e-01  2.7172238535280306e+00  2.1486594330409620e+01  2.2973083380173265e-01  8.4829865963226361e+00  3.2222447317337582e-01  3.4159913198494657e-01  1.4806982133671520e+00  6.2537075442149670e-01  5.2754651359947524e-01  4.3608465725720489e+00  4.7546714546577959e+00  4.6560290614855280e+00  3.7803410762093392e-01  6.8807005782370179e-01  4.1781878618321748e+00  8.0539147009900069e-01  3.8596508060708539e+00  1.1566418816227433e+00  1.1195691194408319e+00  8.9915207069837155e-01  2.5937051663816151e+00  2.7869030314247083e+00  9.6272376073440231e+00  2.4836872997227029e+00  4.1533146889088028e+00  3.1043505031123364e+00  1.0598887406339930e+00  5.2496943498006876e-01  5.1159810478134760e-01  7.7984713263425876e-01  9.3445041865058087e+00  3.3022525059851652e+01  1.1430874868094594e+02  1.2139322646477622e+00  4.1651510246031798e+01  3.8785839409150041e-01  5.2156381070801539e-01  1.0131747849926919e+01  3.7429730025868491e+00  6.6805035898884782e+01  1.8150738710855236e+00  1.8363749543623422e+00  2.4122551134940807e+01  4.7228760738524880e+00  1.1372848456755813e+01  5.2791774190671736e+00  6.9231800416541986e+00  2.2555543985559572e+00  3.0753319213108830e+00  4.3569052690590571e+00  4.2485939853221657e+00  4.0693382464867931e+01  4.8564357385863097e+00  4.0806960336226723e+00  2.4593528518968717e+00  2.2464668565444263e+00  6.3931395269399989e+00  3.9040481935146447e+00  6.3479163385236070e+00  1.0238036745972934e+01  3.0003252481527581e-01  3.8238511202709669e+00  3.1460447353123016e+00  3.1816874734546050e+00  3.8368822540189442e+00  6.6299163588228147e+00  1.9799968535756824e+00  3.2842771565352491e+00  2.7999135609093031e+00  1.4485572930265598e+00  7.7622246075346366e+00  5.0912319733757831e+00  1.1024084909348801e+00  8.2906657623097715e+00  1.6013174433977451e+01  2.5090917842571878e+00  2.0853955816633838e+00  9.9888023836726703e+00  9.8396221813460887e+00  1.1243395216611988e+01  6.6562818356890414e+00  7.4785318048126568e+00  8.6465374421251440e+00  1.1530750525868990e+01  1.8376402173188244e+00  1.6786826427843391e+01  1.3982000367707373e+01  3.3705188857428650e+00  4.6589997796467344e+00  4.9972374017831660e+00  1.3012235695477372e+01  1.7466622118885837e+01  8.3819201234576202e+00  6.9198215092120083e+00  1.5675101784310972e+00  2.5798133922308888e+00  3.5375248480060639e+00  2.8074117833387615e+00  1.4639396929530377e+00  5.5420666243091867e+00  3.6145386880304944e+00  2.9480518465067460e+00  2.9459402317470995e+00  3.4897466573597469e+00  5.3274329570344248e-01  1.6267181648353177e+00  8.3104464711689907e+00  1.4343169563209666e+00  2.2713823065482299e+00  6.8449620192325549e+00  7.9158151326905255e+00  3.1051459461626202e+01  1.7181099854264852e+00  1.5677204129494333e+00  7.2564253136540635e-01  8.9365770771052642e+00  7.1965744180583844e+00  5.3571993606360746e-01  7.4647765315933503e+00  3.5770147013411271e+00  2.2557329294577602e+00  8.9109240658929123e-01  1.0092383607439698e+01  2.9691829567200765e+00  2.6678924479584914e+01  3.2752698312219768e+00  5.5688715421625092e+00  1.8980461259123018e+00  3.9827169850139605e+00  7.6743851728366579e+00  1.9324583629538303e+01  3.7527836199273771e+01  1.2736287161760785e+01  3.4595049601447352e+00  1.9410956692278507e+01  2.3907675180833752e+00  6.0979528612858025e-01  3.0991081282712400e+00  8.7811391822889799e+00  1.0326075564823907e+00  5.6204473998354674e+00  1.1787317764102556e-01  2.6947654008687714e+01  9.9461117095441747e+00  3.1919969339779057e+00  4.5572381160398612e+00  8.3771719533062878e+00  4.4593193095077677e+00  1.2644735501366831e+00  7.0700946765239809e+00  1.1116676556045464e+01  1.0804943423776134e+00  1.8921266819261015e-01  8.4702796940918024e+00  3.7031594433424355e+00  9.6339612269724195e-01  7.6623625706379981e+00  2.7184629174620451e+01  1.2780815260985044e+01  3.7601179869871735e+00  4.9787858906962068e+00  2.9003226945836476e+00  1.7273364027579963e+00  6.3541818359834745e-01  6.9320889836510924e-01  8.2549945705189689e+00  7.7292548371875371e+00  5.6895428599738684e+00  4.1063270374279135e+00  1.0592702707884268e+01  6.8806202253164708e+00  1.9661504798171684e+01  7.6631305134596168e+00  7.2036162765184084e+00  2.0826145472835403e+01  4.0232217451455998e+00  1.5385213972404643e+00  5.0425064724824029e+00  3.7870052649176733e+00  2.1167812271479121e+01  1.8428702921147444e+00  2.5319179912141354e-01  3.4131373331770209e+00  1.0085182909302071e+00  3.4916143329671797e+01  2.1802695745662439e+00  5.9492368507078330e+00  2.5904887946129067e+00  9.0648530775823186e+00  5.2371112954805117e+00  2.1157477465761820e+00  3.1195068902192742e+00  3.0361085430608656e+00  2.6612510740086890e+00  8.1487585498681661e+00  5.9795251447167108e-01  5.4062273284284279e+00  2.4614214616577796e+00  3.0561674231942546e+00  3.7906953119293502e-01  1.1403426556436997e+00  4.0635900616250815e+00  2.0556124095973615e+01  1.4719790283469683e+01  1.0507843942541678e+01  7.6562264360314680e+00  5.5994439058245249e-01  4.8920450268462883e+00  7.6122631219234442e+00  2.8310577772267024e+01  1.9980845225416541e+01  1.5767393677680269e-01  9.1256192259927591e+00  9.3902128032901089e-01  8.3147644004228660e-01  8.4334858585370096e+00  1.9050237936727443e+00  1.7779080802213956e+00  1.0122970730605108e+01  3.8575833871459104e+00  2.7573460237867176e-01  5.7175408791100558e+01  1.7579969177421895e+00  6.9282131352937781e-01  5.5852369138696076e+00  1.3895703163413808e+00  7.4105651213014996e+00  2.5719107046979214e+01  7.9765076279931888e+00  3.3176629854299435e+01  3.2509516267770181e+01  6.6391170515686291e+00  1.0610274956295882e+00  1.5053761871398954e+01  8.1414205302205911e+00  2.3088652436660215e+01  4.4093084269547245e-01  8.1142688698289778e+00  3.6073326503612002e+01  5.2563544614719317e+00  1.2789341216244663e+01  2.2121150997547281e-01  8.9804623455574699e+00  3.3308346165541276e+00  2.1265124787840959e+00  6.9571593101869877e-01  2.0080129630939330e+00  2.1117167207958978e+01  9.7117497132010189e-01  1.5090019298735415e+00  1.2894454003613554e+01  3.5934647738245959e+00  7.8313665253075238e+00  1.3282354735926093e+01  1.2955493878439082e+00  2.0731955640070123e+00  7.2433955852461052e-01  1.1171559386058070e+00  6.4140654892574327e+00  3.2604460169175344e+00  2.0946162852812883e-01  1.8566178774163269e+00  7.3631921535090301e+00  2.8916192073126691e+01  2.0998387445736203e+01  2.3523906673427170e+01  1.9753210091270106e+00  8.1338618516628436e-01  4.7052673639458096e+00  8.0429964822676059e+00  9.3146326042260608e+00  4.3670080705838865e+00  1.2259933021789093e+01  3.6143647759439661e+00  7.8984422993975132e+00  2.7437069922432693e+00  2.0531856062864478e+01  2.5014866699302001e+01  9.4806491100457837e+00  6.9078515547146404e+00  3.7818640757000183e-01  2.4419343501044719e+00  6.9312064715044093e+00  8.8594838642154650e-01  3.3978851689102356e+00  1.6710560627950852e-01  1.0178981765103169e+01  7.4795012207859628e+00  2.1030854880971575e+00  1.2490878078822238e+01  7.3455515058509890e-01  1.2611234593598111e+00  2.2742284883198248e+01  3.3935632632483208e+00  1.4673630911557892e-01  4.4047222168062072e+00  1.1561607435096466e+00  3.0916583036826184e+00  5.0324005340297688e+00  3.9012369047776785e+00  1.2385029888581338e+00  6.8044632026817267e+00  6.2901425395730772e+00  6.8202376300424294e+00  4.2302575636305324e+00  4.3137014188628908e-01  4.8805511641274260e+00  2.0185639848825763e+00  2.5298257504213981e+02  3.4476491699362448e+01  4.7877329180037425e+00  4.1737742351143297e+00  3.2292634967301441e+00  3.3520242397397455e+00  1.6576686282767372e+00  2.2820918455495011e+01  2.1383391970867480e+00  2.1734098510136186e+00  1.6630091926263709e+01  1.4978454577663523e+00  8.9427428724997625e+01  3.3782189017126498e+01  5.1024692284536020e+00  8.0084677710650212e+00  1.4691924710998043e+00  1.4038896878278109e+00  9.9928725898898705e+00  7.5189266382747473e+00  2.2428035868933556e+01  1.1022552511905903e-01  3.4232935037229446e+01  5.9802641830852232e-01  1.9815786309793054e+01  1.0226405811579845e+01  3.0162987152921009e+01  2.3027052969100659e+00  1.3966641900354787e+01  2.2212049794321263e+01  4.3554390727417669e+00  2.5189217136443371e+01  1.6409583725208479e+00  3.1732148876196501e+01  3.7891483991081731e+00  7.7138359093450093e-01  4.3343924218101348e-01  2.9566227959479741e+00  9.8032049893780187e+00  1.2760079122216501e+00  1.0814815987627821e+01  1.1959185528381626e+00  1.8733799914295698e+01  6.1698319935553911e+00  3.6726172247792404e+00  3.2209829268494761e+00  2.1412253314966998e+00  1.4204849511754446e+01  2.5725076877270472e+00  9.6753550572641334e-01  4.5299969214895164e+00  1.0120514321748484e+00  8.1220035061481664e+00  2.3204314944492950e+00  1.5036196787691233e+02  3.0017718854575706e+00  3.3588439232699274e-01  6.4625528461909960e+00  1.0448153369212410e+00  2.6391795534481362e+00  9.4564380606628695e-01  1.4105537132334899e+01  6.9526712620341904e+00  3.7979798927780481e+00  5.7685436660785658e+00  3.8492537256518329e+00  3.4139826712121057e+00  3.2888363929300751e-01  1.3111247920009053e+01  1.1566941911872637e+00  1.6318215421814568e+01  8.6618161247634795e+00  2.5031434847815198e-01  3.6330470513569315e+00  5.3175104341580743e+00  5.7085526899017456e+00  1.2474810584565578e+01  2.7444463936951347e+00  4.4142669866944040e+01  3.3483195771585139e+00  1.8653129241222375e+00  3.8300504032946954e+00  1.0465461457323913e+01  4.0819163274137499e-01  9.2151361209434484e+00  5.1020221044193201e+00  4.9162039473155394e-01  1.0791473005553664e+01  5.1886690274365792e+00  2.9098145125866309e-01  1.3578468910926014e+00  2.8234629675009808e+00  3.0392800070569814e+00  7.6638928241494053e+00  9.1293217509222444e+00  7.8159638422305489e-01  8.2874587641876862e-01  2.4476511071061404e+00  1.2730522247669835e+00  1.2151901119441812e-01  </DataArray> 
</PointData> 
</Piece>
</UnstructuredGrid>
</VTKFile>