<?xml version="1.0"?>
<VTKFile type="UnstructuredGrid"  version="0.1"  >
<UnstructuredGrid>
<Piece  NumberOfPoints="13179" NumberOfCells="25814">
<Points>
<DataArray  type="Float64"  NumberOfComponents="3"  format="ascii">0 0 0  30 0 0  30 -10 0  0 -10 0  0.02360821169319077 0 0  0.04721642338638154 0 0  0.07206717063563725 0 0  0.09691791788489297 0 0  0.1230766011355843 0 0  0.1492352843862757 0 0  0.1767707375239038 0 0  0.204306190661532 0 0  0.2332908770901271 0 0  0.2622755635187223 0 0  0.2927857633803451 0 0  0.323295963241968 0 0  0.3554119623832387 0 0  0.3875279615245094 0 0  0.4213342730081758 0 0  0.4551405844918422 0 0  0.4907261762804851 0 0  0.526311768069128 0 0  0.5637702848355051 0 0  0.6012288016018821 0 0  0.6406588220121138 0 0  0.6800888424223455 0 0  0.721594129780935 0 0  0.7630994171395246 0 0  0.8067891887833475 0 0  0.8504789604271704 0 0  0.8964681941825949 0 0  0.9424574279380195 0 0  0.9908671465681095 0 0  1.039276865198199 0 0  1.090234462786975 0 0  1.141192060375751 0 0  1.194831641933244 0 0  1.248471223490737 0 0  1.304933942963653 0 0  1.361396662436569 0 0  1.420831104471586 0 0  1.480265546506604 0 0  1.542828113436244 0 0  1.605390680365884 0 0  1.671246013469327 0 0  1.73710134657277 0 0  1.806422752814762 0 0  1.875744159056755 0 0  1.948714057431306 0 0  2.021683955805857 0 0  2.098494373901932 0 0  2.175304791998006 0 0  2.256157866653476 0 0  2.337010941308945 0 0  2.422119443935387 0 0  2.50722794656183 0 0  2.596815840700639 0 0  2.686403734839449 0 0  2.780706776094687 0 0  2.875009817349925 0 0  2.974276175689285 0 0  3.073542534028646 0 0  3.178033441002704 0 0  3.282524347976761 0 0  3.392514777963501 0 0  3.502505207950242 0 0  3.618284608533553 0 0  3.734064009116865 0 0  3.855937062816526 0 0  3.977810116516187 0 0  4.106097541496641 0 0  4.234384966477093 0 0  4.369424362562147 0 0  4.5044637586472 0 0  4.646610489729194 0 0  4.788757220811188 0 0  4.938385356669961 0 0  5.088013492528733 0 0  5.24551679218304 0 0  5.403020091837347 0 0  5.568813038399614 0 0  5.73460598496188 0 0  5.909124878408681 0 0  6.083643771855482 0 0  6.267347873338513 0 0  6.451051974821543 0 0  6.644424714363561 0 0  6.83779745390558 0 0  7.041347702348167 0 0  7.244897950790754 0 0  7.459161368238869 0 0  7.673424785686984 0 0  7.898965226038037 0 0  8.124505666389089 0 0  8.361916654054033 0 0  8.599327641718979 0 0  8.849233942517035 0 0  9.099140243315093 0 0  9.362199507946787 0 0  9.625258772578484 0 0  9.902163261537794 0 0  10.1790677504971 0 0  10.47054616023911 0 0  10.76202456998112 0 0  11.06884394887334 0 0  11.37566332776555 0 0  11.69863109504192 0 0  12.02159886231829 0 0  12.3615649378891 0 0  12.7015310134599 0 0  13.05939003847426 0 0  13.41724906348862 0 0  13.79394276982091 0 0  14.1706364761532 0 0  14.5671561683298 0 0  14.96367586050641 0 0  15.38106501332897 0 0  15.79845416615153 0 0  16.23781117165827 0 0  16.677168177165 0 0  17.13964923659526 0 0  17.60213029602552 0 0  18.0889524622663 0 0  18.57577462850707 0 0  19.08821901304263 0 0  19.60066339757818 0 0  20.14007853843172 0 0  20.67949367928525 0 0  21.24729908993883 0 0  21.8151045005924 0 0  22.41279440541421 0 0  23.01048431023601 0 0  23.63963157605829 0 0  24.26877884188056 0 0  24.93103912515648 0 0  25.59329940843241 0 0  26.29041549584691 0 0  26.98753158326142 0 0  27.72133799026916 0 0  28.45514439727691 0 0  29.22757219863846 0 0  30 -0.3571428571428571 0  30 -0.7142857142857142 0  30 -1.071428571428571 0  30 -1.428571428571428 0  30 -1.785714285714286 0  30 -2.142857142857143 0  30 -2.5 0  30 -2.857142857142857 0  30 -3.214285714285714 0  30 -3.571428571428571 0  30 -3.928571428571428 0  30 -4.285714285714286 0  30 -4.642857142857142 0  30 -5 0  30 -5.357142857142857 0  30 -5.714285714285714 0  30 -6.071428571428571 0  30 -6.428571428571428 0  30 -6.785714285714285 0  30 -7.142857142857142 0  30 -7.5 0  30 -7.857142857142857 0  30 -8.214285714285714 0  30 -8.571428571428571 0  30 -8.928571428571427 0  30 -9.285714285714285 0  30 -9.642857142857142 0  29.22757220128658 -10 0  28.45514440257316 -10 0  27.72133799277628 -10 0  26.98753158297939 -10 0  26.29041549304805 -10 0  25.5932994031167 -10 0  24.93103911757599 -10 0  24.26877883203527 -10 0  23.63963156418132 -10 0  23.01048429632737 -10 0  22.41279438968936 -10 0  21.81510448305136 -10 0  21.24729907078059 -10 0  20.67949365850982 -10 0  20.14007851622273 -10 0  19.60066337393564 -10 0  19.08821898813588 -10 0  18.57577460233611 -10 0  18.08895243498708 -10 0  17.60213026763805 -10 0  17.13964920724307 -10 0  16.6771681468481 -10 0  16.2378111405086 -10 0  15.79845413416909 -10 0  15.38106498063496 -10 0  14.96367582710082 -10 0  14.56715613432376 -10 0  14.17063644154669 -10 0  13.79394273471576 -10 0  13.41724902788484 -10 0  13.05939000246495 -10 0  12.70153097704506 -10 0  12.36156490115379 -10 0  12.02159882526251 -10 0  11.69863105774323 -10 0  11.37566329022395 -10 0  11.06884391115945 -10 0  10.76202453209494 -10 0  10.47054612224479 -10 0  10.17906771239465 -10 0  9.902163223385379 -10 0  9.625258734376107 -10 0  9.362199469747061 -10 0  9.099140205118012 -10 0  8.849233904370102 -10 0  8.599327603622193 -10 0  8.361916616050124 -10 0  8.124505628478055 -10 0  7.898965188258209 -10 0  7.673424748038361 -10 0  7.459161330755727 -10 0  7.244897913473093 -10 0  7.041347665226496 -10 0  6.837797416979896 -10 0  6.644424677660922 -10 0  6.451051938341948 -10 0  6.26734783710581 -10 0  6.083643735869675 -10 0  5.90912484269068 -10 0  5.734605949511682 -10 0  5.568813003235423 -10 0  5.403020056959164 -10 0  5.24551675760658 -10 0  5.088013458254 -10 0  4.938385322710374 -10 0  4.788757187166745 -10 0  4.646610456411224 -10 0  4.504463725655707 -10 0  4.369424329906533 -10 0  4.234384934157362 -10 0  4.106097509520442 -10 0  3.977810084883522 -10 0  3.85593703153344 -10 0  3.734063978183357 -10 0  3.618284577954206 -10 0  3.502505177725055 -10 0  3.392514748095728 -10 0  3.282524318466404 -10 0  3.1780334118518 -10 0  3.073542505237196 -10 0  2.97427614725823 -10 0  2.875009789279265 -10 0  2.780706748384375 -10 0  2.686403707489482 -10 0  2.596815813710069 -10 0  2.507227919930656 -10 0  2.422119417661861 -10 0  2.337010915393062 -10 0  2.256157841092762 -10 0  2.175304766792465 -10 0  2.098494349048437 -10 0  2.021683931304413 -10 0  1.948714033278215 -10 0  1.875744135252013 -10 0  1.806422729354161 -10 0  1.737101323456312 -10 0  1.671245990692352 -10 0  1.605390657928396 -10 0  1.542828091333185 -10 0  1.480265524737977 -10 0  1.420831083031992 -10 0  1.36139664132601 -10 0  1.304933922176438 -10 0  1.248471203026863 -10 0  1.194831621786765 -10 0  1.14119204054667 -10 0  1.09023444350921 -10 0  1.039276846471754 -10 0  0.9908671279064798 -10 0  0.942457409341209 -10 0  0.8964681758842019 -10 0  0.8504789424271948 -10 0  0.8067891710751951 -10 0  0.7630993997231954 -10 0  0.7215941126497469 -10 0  0.6800888255762949 -10 0  0.6406588054444597 -10 0  0.6012287853126246 -10 0  0.5637702688178621 -10 0  0.5263117523230996 -10 0  0.4907261607992695 -10 0  0.4551405692754429 -10 0  0.4213342580497894 -10 0  0.3875279468241395 -10 0  0.3554119479341011 -10 0  0.3232959490440663 -10 0  0.2927857494269297 -10 0  0.2622755498097931 -10 0  0.2332908636189828 -10 0  0.2043061774281725 -10 0  0.1767707245216883 -10 0  0.1492352716152006 -10 0  0.1230765885890825 -10 0  0.09691790556296098 -10 0  0.0720671585317838 -10 0  0.04721641150060663 -10 0  0.02360820575030331 -10 0  0 -9.957983193277311 0  0 -9.915966386554622 0  0 -9.873949579831933 0  0 -9.831932773109244 0  0 -9.789915966386555 0  0 -9.747899159663866 0  0 -9.705882352941176 0  0 -9.663865546218487 0  0 -9.621848739495798 0  0 -9.579831932773109 0  0 -9.53781512605042 0  0 -9.495798319327731 0  0 -9.453781512605042 0  0 -9.411764705882353 0  0 -9.369747899159664 0  0 -9.327731092436975 0  0 -9.285714285714286 0  0 -9.243697478991596 0  0 -9.201680672268907 0  0 -9.159663865546218 0  0 -9.117647058823529 0  0 -9.07563025210084 0  0 -9.033613445378151 0  0 -8.991596638655462 0  0 -8.949579831932773 0  0 -8.907563025210084 0  0 -8.865546218487395 0  0 -8.823529411764707 0  0 -8.781512605042018 0  0 -8.739495798319329 0  0 -8.69747899159664 0  0 -8.655462184873949 0  0 -8.61344537815126 0  0 -8.571428571428571 0  0 -8.529411764705882 0  0 -8.487394957983193 0  0 -8.445378151260504 0  0 -8.403361344537815 0  0 -8.361344537815127 0  0 -8.319327731092438 0  0 -8.277310924369749 0  0 -8.235294117647058 0  0 -8.193277310924369 0  0 -8.15126050420168 0  0 -8.109243697478991 0  0 -8.067226890756302 0  0 -8.025210084033613 0  0 -7.983193277310924 0  0 -7.941176470588236 0  0 -7.899159663865547 0  0 -7.857142857142857 0  0 -7.815126050420168 0  0 -7.773109243697479 0  0 -7.73109243697479 0  0 -7.689075630252101 0  0 -7.647058823529411 0  0 -7.605042016806722 0  0 -7.563025210084033 0  0 -7.521008403361344 0  0 -7.478991596638656 0  0 -7.436974789915967 0  0 -7.394957983193278 0  0 -7.352941176470589 0  0 -7.3109243697479 0  0 -7.26890756302521 0  0 -7.226890756302521 0  0 -7.184873949579832 0  0 -7.142857142857143 0  0 -7.100840336134453 0  0 -7.058823529411764 0  0 -7.016806722689076 0  0 -6.974789915966387 0  0 -6.932773109243698 0  0 -6.890756302521009 0  0 -6.84873949579832 0  0 -6.806722689075631 0  0 -6.764705882352941 0  0 -6.722689075630252 0  0 -6.680672268907563 0  0 -6.638655462184874 0  0 -6.596638655462185 0  0 -6.554621848739496 0  0 -6.512605042016807 0  0 -6.470588235294118 0  0 -6.428571428571429 0  0 -6.38655462184874 0  0 -6.344537815126051 0  0 -6.302521008403362 0  0 -6.260504201680672 0  0 -6.218487394957983 0  0 -6.176470588235294 0  0 -6.134453781512605 0  0 -6.092436974789917 0  0 -6.050420168067227 0  0 -6.008403361344538 0  0 -5.966386554621849 0  0 -5.92436974789916 0  0 -5.882352941176471 0  0 -5.840336134453782 0  0 -5.798319327731092 0  0 -5.756302521008403 0  0 -5.714285714285714 0  0 -5.672268907563025 0  0 -5.630252100840336 0  0 -5.588235294117647 0  0 -5.546218487394958 0  0 -5.504201680672269 0  0 -5.46218487394958 0  0 -5.420168067226891 0  0 -5.378151260504202 0  0 -5.336134453781513 0  0 -5.294117647058823 0  0 -5.252100840336134 0  0 -5.210084033613446 0  0 -5.168067226890757 0  0 -5.126050420168068 0  0 -5.084033613445379 0  0 -5.04201680672269 0  0 -5 0  0 -4.957983193277311 0  0 -4.915966386554622 0  0 -4.873949579831933 0  0 -4.831932773109244 0  0 -4.789915966386555 0  0 -4.747899159663866 0  0 -4.705882352941177 0  0 -4.663865546218488 0  0 -4.621848739495799 0  0 -4.57983193277311 0  0 -4.537815126050421 0  0 -4.495798319327731 0  0 -4.453781512605042 0  0 -4.411764705882353 0  0 -4.369747899159664 0  0 -4.327731092436975 0  0 -4.285714285714286 0  0 -4.243697478991598 0  0 -4.201680672268909 0  0 -4.159663865546219 0  0 -4.117647058823529 0  0 -4.07563025210084 0  0 -4.033613445378151 0  0 -3.991596638655462 0  0 -3.949579831932773 0  0 -3.907563025210084 0  0 -3.865546218487395 0  0 -3.823529411764707 0  0 -3.781512605042017 0  0 -3.739495798319328 0  0 -3.697478991596639 0  0 -3.65546218487395 0  0 -3.613445378151261 0  0 -3.571428571428572 0  0 -3.529411764705883 0  0 -3.487394957983193 0  0 -3.445378151260504 0  0 -3.403361344537815 0  0 -3.361344537815127 0  0 -3.319327731092438 0  0 -3.277310924369749 0  0 -3.235294117647059 0  0 -3.193277310924369 0  0 -3.15126050420168 0  0 -3.109243697478991 0  0 -3.067226890756302 0  0 -3.025210084033613 0  0 -2.983193277310924 0  0 -2.941176470588236 0  0 -2.899159663865547 0  0 -2.857142857142857 0  0 -2.815126050420168 0  0 -2.773109243697479 0  0 -2.73109243697479 0  0 -2.689075630252101 0  0 -2.647058823529412 0  0 -2.605042016806723 0  0 -2.563025210084033 0  0 -2.521008403361344 0  0 -2.478991596638656 0  0 -2.436974789915967 0  0 -2.394957983193278 0  0 -2.352941176470589 0  0 -2.3109243697479 0  0 -2.268907563025211 0  0 -2.226890756302522 0  0 -2.184873949579832 0  0 -2.142857142857143 0  0 -2.100840336134454 0  0 -2.058823529411765 0  0 -2.016806722689076 0  0 -1.974789915966387 0  0 -1.932773109243698 0  0 -1.890756302521009 0  0 -1.84873949579832 0  0 -1.806722689075631 0  0 -1.764705882352942 0  0 -1.722689075630253 0  0 -1.680672268907564 0  0 -1.638655462184875 0  0 -1.596638655462185 0  0 -1.554621848739496 0  0 -1.512605042016807 0  0 -1.470588235294118 0  0 -1.428571428571429 0  0 -1.38655462184874 0  0 -1.344537815126051 0  0 -1.30252100840336 0  0 -1.260504201680671 0  0 -1.218487394957982 0  0 -1.176470588235293 0  0 -1.134453781512605 0  0 -1.092436974789916 0  0 -1.050420168067227 0  0 -1.008403361344538 0  0 -0.9663865546218489 0  0 -0.9243697478991599 0  0 -0.882352941176471 0  0 -0.8403361344537821 0  0 -0.7983193277310932 0  0 -0.7563025210084042 0  0 -0.7142857142857153 0  0 -0.6722689075630264 0  0 -0.6302521008403374 0  0 -0.5882352941176467 0  0 -0.5462184873949578 0  0 -0.5042016806722689 0  0 -0.46218487394958 0  0 -0.420168067226891 0  0 -0.3781512605042021 0  0 -0.3361344537815132 0  0 -0.2941176470588243 0  0 -0.2521008403361353 0  0 -0.2100840336134464 0  0 -0.1680672268907575 0  0 -0.1260504201680686 0  0 -0.08403361344537963 0  0 -0.04201680672268893 0  0.0363876220077497 -5.14705882352941 0  0.03598395043898961 -5.694145116905108 0  0.0363876220077497 -4.600840336134454 0  0.0363876220077497 -6.197478991596639 0  0.02728175721451187 -4.096089061311412 0  0.03615392211002266 -3.591927954185072 0  0.03956082644416803 -6.655578396555776 0  0.03757904884233199 -3.129743234210153 0  0.0363876220077497 -2.710084033613446 0  0.0353598570481406 -7.078892276516878 0  0.03433038817490086 -7.496900405979358 0  0.03576239295646744 -7.879412739871658 0  0.03976568293121474 -2.3340559528716 0  5.011846150285887 -0.131408798377703 0  4.863347305792225 -9.872860890760817 0  3.923351379312514 -0.1115931412126159 0  3.780872468098288 -9.902543143924021 0  0.03532043245221494 -1.918204117565494 0  3.024233544479484 -0.08389040867692543 0  0.03579105074518196 -1.580868576067636 0  0.02892286293335822 -8.215150094589415 0  2.924642968268747 -9.91618199158998 0  2.379641686067473 -0.07025688144555087 0  2.296584378242914 -9.929979183681871 0  0.0342273917655973 -8.550420168067211 0  5.996253337364557 -9.845640793512095 0  1.84118351161402 -0.05789302571380972 0  1.766249641933902 -9.939895204125978 0  0.03730306876818545 -1.281939803236048 0  6.167796314269125 -0.1531015102758522 0  1.395080545385767 -0.05145358155994995 0  0.04026587744785459 -8.845739558294968 0  1.334130248883701 -9.950474775398018 0  7.353390661907712 -9.814716370569572 0  7.569048026913914 -0.1764029844287185 0  0.03031598255785717 -0.9901614896839233 0  1.063361991507646 -0.04577510582037281 0  1.016178453791651 -9.957955028843839 0  8.72273498892838 -9.789498214033099 0  0.03312610202430122 -5.946896502415219 0  0.0390097034241812 -5.440600383548093 0  0.0363876220077497 -4.34873949579832 0  0.03513303497906684 -4.856129956607515 0  0.03540285356402961 -3.844609898940723 0  0.03516638869574606 -9.095180083056967 0  8.961040275326241 -0.2040352840659132 0  0.7783602606642539 -0.03340776301060533 0  10.35462489360163 -9.756448350697186 0  0.7437473763729709 -9.964149252610611 0  10.60697987203477 -0.2480324994892289 0  0.03278672513496517 -0.7361951805605447 0  12.19158186320815 -9.712941225289004 0  0.03282069665289633 -9.346968385998712 0  0.03329357219505624 -2.12207632064294 0  0.04020245308275605 -7.290449591008342 0  0.03172884835191425 -3.344234072592148 0  0.03675230741029623 -2.922204786038239 0  0.03311148388690377 -6.872072398302212 0  0.0369888948075392 -6.451711124340585 0  12.20919930416473 -0.3053891299303704 0  0.580506760418201 -0.0378380814453827 0  0.5441114412290347 -9.968217859041875 0  13.98228962298705 -0.3262263191294767 0  13.90968808213394 -9.678835128677491 0  0.03499086399876106 -0.5217693624861806 0  16.01520045115454 -9.63008499879397 0  16.03557226558196 -0.3650397297216728 0  0.4019678619099381 -0.02746670879850388 0  29.69985278455046 -4.829114726051199 0  0.03427179735156116 -9.56022035588575 0  18.35159397912664 -0.42585668967219 0  4.432114726134026 -0.1208618033891895 0  3.447665031357218 -0.09059560814625911 0  17.84101199254042 -9.582983221543977 0  4.285081068373842 -9.891756811674448 0  3.325292782833975 -9.909478392850328 0  0.3714300175315266 -9.972933448918365 0  19.8693837654504 -9.542345298015304 0  0.03594224935156376 -1.745543625310357 0  0.03301673014647477 -8.386713690584525 0  0.03887531035073799 -8.04625501613863 0  0.03330577600355866 -7.71108795731076 0  0.03485479350835519 -2.496467289503416 0  29.67544464699305 -6.279234851199026 0  20.40816068628044 -0.4716074798968659 0  22.13573391991328 -9.506956918583253 0  0.03365627979053087 -0.3569177920941815 0  22.74150366508743 -0.4916216787877072 0  25.20581563145945 -9.442389599171285 0  25.28535299267007 -0.5347187282142469 0  0.2768705416137642 -0.0286154224945161 0  0.2463118886905313 -9.973036412471894 0  29.6834057372101 -3.364860611204325 0  0.03490697012284549 -9.724489124445846 0  5.486916205293987 -0.1394432577173204 0  2.552021866820358 -9.924354241536332 0  2.055516587736717 -0.06489418301882033 0  6.737942841237233 -0.1602264818791159 0  6.54639302678121 -9.837277313183467 0  9.774767829989742 -0.213324157309029 0  8.243313125178718 -0.1982035701132077 0  9.49206362041604 -9.772904068929043 0  8.010741226772886 -9.805160765318764 0  1.511328355143707 -9.947272684433116 0  11.22090083232511 -9.734939841588071 0  1.169919808437829 -9.954461314113457 0  0.87704653253763 -9.961246546661926 0  5.323533519083238 -9.863845394437512 0  2.646403134971832 -0.07583513165062872 0  1.995149283567628 -9.939500466260597 0  1.57410939690104 -0.05418077228703222 0  1.221885395820742 -0.0461312617823264 0  0.9196344072661606 -0.03892482319496438 0  0.03510941215524355 -0.230924062089505 0  0.03565746770570932 -9.222727132339674 0  0.04107064227868662 -1.112274652757074 0  0.04128503549062579 -0.8592861272947792 0  0.0380148548975523 -8.967680340789723 0  0.03558847579621549 -8.718354633884182 0  0.03464659532057723 -1.403417454395164 0  0.03747306307585418 -6.324614917415596 0  0.03755470315189413 -6.067440616251707 0  0.02886544858537476 -3.468726995369664 0  0.04005584549266317 -3.718846675486757 0  0.03361063354128291 -5.820147851502322 0  0.03302251724506533 -5.567905940899124 0  0.0316190153442264 -4.475488922969481 0  0.04046964572593836 -4.729073153363366 0  0.03450245075408098 -4.220395753309851 0  0.03968166873114853 -3.9740711419943 0  0.04018035628713434 -5.316833545340837 0  0.03670522433828438 -4.98272835250753 0  0.1907081804623054 -0.01916493623505744 0  0.1592095412709291 -9.97542309054143 0  29.75130418072517 -2.337963111138153 0  29.69086218151467 -7.344647964004073 0  27.39774961617279 -9.430673502994015 0  27.42164686723766 -0.6157696130631392 0  0.109288751233688 -0.02508167306286779 0  0.03608517398777167 -9.855202000401571 0  29.69070521293413 -8.392857142857142 0  0.08643819114543128 -9.975858655949175 0  4.716754785958665 -0.1220757122467226 0  4.170241253986868 -0.1111001690191626 0  3.677017480126235 -0.0967867308536281 0  3.230903902480929 -0.0911261560661254 0  23.95947099089557 -0.5486619013419141 0  21.5343438594667 -0.4958570153666511 0  11.21883977225873 -0.2383149247077325 0  14.73141222558711 -9.656636555099958 0  14.73044102960957 -0.3323580314013288 0  19.34169332869704 -0.4411652802996677 0  7.168559589969691 -0.1603145333001992 0  23.9649964417396 -9.495967172850095 0  5.837198803099058 -0.1483369249571167 0  2.831383389204623 -0.08019561470548364 0  5.651709476373561 -9.856419096756492 0  6.939545547385615 -9.826525642990786 0  16.90660515128204 -9.6055641125607 0  16.90408406651679 -0.376772506052685 0  12.83778289812131 -0.3369955024370581 0  2.136899557920502 -9.933480226958379 0  20.96752321433408 -9.52188385190335 0  12.89443440235113 -9.680800341896372 0  1.704302511195669 -0.05865304721070785 0  2.73355522793695 -9.920372889523195 0  2.21714008878998 -0.07005946538591612 0  1.638068104759753 -9.946933261952836 0  18.83199679523599 -9.567304889910517 0  4.573719022220377 -9.878299623699624 0  0.4373141860054712 -9.971225317953138 0  4.026663184217652 -9.898800622067636 0  3.54727927725826 -9.9060995804764 0  3.114349838280992 -9.912680345756531 0  0.6584401463781102 -0.03087042796384409 0  0.620943795378583 -9.966706287010778 0  0.4798214548951485 -0.02832244772756631 0  0.3061835500878658 -9.969395238056507 0  0.03398218707601686 -0.1460391758933843 0  0.3393539628125879 -0.02711793963948317 0  29.67761560711247 -1.250000000000002 0  0.03584440836692693 -9.641428894175625 0  0.02829171771225525 -9.476297981290791 0  0.04074097471389138 -0.608473495453012 0  0.0363876220077497 -0.4411764705882311 0  0.03752483626371372 -1.201631466130257 0  0.03386037458007252 -8.634453781512612 0  0.03963874412776391 -8.462150220455641 0  0.03440040953283585 -1.659663865546258 0  0.036829561767032 -1.493050455899475 0  0.03504881807712223 -8.128425196590808 0  0.0353249857875646 -8.300513705942906 0  0.03686743741784859 -1.828956015154299 0  0.03497405578853474 -1.991083444426692 0  0.0363876220077497 -2.205882352941176 0  0.03671524292434825 -7.96297664693174 0  0.02909903409935666 -7.794695508050962 0  0.03424304627213814 -2.408965375778117 0  0.03986730573964437 -7.625776736992402 0  0.03822206317704335 -2.584817058126401 0  0.03293381260818329 -7.415293119719941 0  0.0363876220077497 -7.205882352941178 0  0.03343801126227142 -2.795451797167786 0  0.0363876220077497 -6.995798319327731 0  0.0363876220077497 -3.004201680672269 0  0.03912259837974474 -6.786012027492952 0  0.03899443953954318 -3.215878972335039 0  0.03159897469443251 -6.581150172393638 0  0.0359563809102319 -5.227518266940023 0  0.03267371680666642 -5.062950957125478 0  29.65728927754247 -4.108420364804351 0  29.71119219055306 -5.535339076537444 0  0.05964179701109629 -0.02098334474255292 0  29.66458402289639 -9.127352747576706 0  0.03290276859890007 -9.937610930155861 0  28.82689328051132 -0.6607533057944828 0  28.82763223959878 -9.350175598731614 0  0.02922118418186592 -0.06656041444756422 0  0.03183978098396167 -9.976525159054084 0  29.69847221706308 -0.4343024674581093 0  28.14063055321373 -0.6084417437964795 0  27.78973076971556 -1.146055959044489 0  27.18933470782376 -1.207119866248433 0  27.49051523969162 -1.666043401092789 0  26.95766314174773 -1.739064405236546 0  27.2426800795679 -2.176790030903617 0  26.70332294362994 -2.239139474853783 0  27.02080169119267 -2.686707656478683 0  26.4765710926793 -2.741235716522904 0  26.79402565224931 -3.189803378091328 0  26.25906110461117 -3.249957845857784 0  26.53868182407792 -3.680815705287579 0  26.02456725060809 -3.755682564464298 0  26.32134665516165 -4.194147113515712 0  25.78127254008265 -4.263898920545975 0  26.1262743372557 -4.727316870957338 0  25.54807317134868 -4.786140531501057 0  25.2107216444567 -4.320386298282775 0  24.974136217863 -4.844401552948186 0  24.63746209169997 -4.376491131831679 0  24.40012319126291 -4.902154080541501 0  24.06334601841323 -4.434231828819355 0  23.82600525583895 -4.9540988462869 0  23.49305141085287 -4.513972481329022 0  23.25413339248784 -5.015749817123142 0  22.9214446175041 -4.56271986881772 0  22.68776589922442 -5.066744024069514 0  22.35839089999897 -4.632619009057916 0  22.1262493537695 -5.123596584092893 0  21.80252297188935 -4.674622095239285 0  21.57490220484016 -5.172280696641863 0  21.25367568177494 -4.73010659238945 0  21.03067990956268 -5.223470105288908 0  20.71543324057478 -4.788915747491695 0  20.4970654471777 -5.274839193108145 0  20.18916233695519 -4.840424310188918 0  19.9730992934788 -5.320763876821751 0  19.67316840282894 -4.885606583053659 0  19.45662354271163 -5.37057085611475 0  19.16448483257103 -4.945063412277461 0  18.95390300939959 -5.415768321128066 0  18.66260336756468 -5.009559874367913 0  18.46255798336163 -5.458478526475162 0  18.18232333684724 -5.094218361491463 0  17.97945232900978 -5.504333970489524 0  17.7081940311432 -5.152247767576584 0  17.51212630625369 -5.551888860393642 0  17.24405904153722 -5.195643266375919 0  17.05340001500338 -5.592179886837758 0  16.79015219611074 -5.245545916799301 0  16.60216863098594 -5.62776614558949 0  16.34550831323697 -5.274296620096409 0  16.16637826957034 -5.662367819057962 0  15.91671474482776 -5.327969514709578 0  15.73858934225634 -5.681711454337044 0  15.49512968568274 -5.373633661658245 0  15.32223006739491 -5.719177383928127 0  15.08336490412465 -5.407753714272033 0  14.91580516917605 -5.778356151997842 0  14.6843279440736 -5.456226870727354 0  14.51816221370066 -5.810599201667861 0  14.2938000397836 -5.49970172701223 0  14.13458467263158 -5.845224154142025 0  13.91362226533545 -5.537509261150133 0  13.75817385609604 -5.878152698353579 0  13.54229351831437 -5.577876379350553 0  13.3915399294665 -5.912850296344025 0  13.17934098170247 -5.61693607746222 0  13.32539278085651 -5.296553778989353 0  12.97155526509821 -5.347907709559253 0  12.82377911026276 -5.651207272688793 0  12.62207676981471 -5.371270443288241 0  12.48088154012225 -5.679577433843269 0  12.28270358977034 -5.407024145997966 0  12.14409151046888 -5.710705615931355 0  11.94888063904568 -5.444559897246812 0  11.81639342202321 -5.742246546310342 0  11.62837298652094 -5.482025002731458 0  11.4982419470948 -5.77273752785165 0  11.31162078537858 -5.518303952476477 0  11.18667441107257 -5.801955166708327 0  11.00707360859191 -5.554028431219743 0  10.88337764316 -5.830426209874213 0  10.70670120766 -5.588520764814127 0  10.5871671100299 -5.858106806704043 0  10.41643534263126 -5.622397617889143 0  10.29883200569014 -5.887148419144113 0  10.13195367036701 -5.655382793872471 0  10.23314308907454 -5.374352523832138 0  9.958719535682928 -5.414327466362852 0  9.853439239208745 -5.680368590746763 0  9.692240017321794 -5.458226672444981 0  9.583973250531759 -5.706519861233289 0  9.427307011450683 -5.4919906081517 0  9.321028710813534 -5.733819044603062 0  9.167880082778687 -5.522038662204937 0  9.063132098369906 -5.746600762999423 0  8.914801195963504 -5.550183483131242 0  8.812528979774514 -5.76767790771318 0  8.666512923878845 -5.583468670109547 0  8.569410867938039 -5.80374552443198 0  8.428013275805085 -5.61214110747522 0  8.332059013282933 -5.829004077416831 0  8.193939261997155 -5.642727239326264 0  8.100373518302597 -5.852430864739816 0  7.963901240378467 -5.667995580193371 0  7.873869115108484 -5.87479424908546 0  7.741598728883499 -5.696594726394881 0  7.652925322467953 -5.897539784625693 0  7.525399627716778 -5.722156251691756 0  7.610642772106835 -5.52318571397154 0  7.39808143062503 -5.547974329929897 0  7.313740974284126 -5.744107524972789 0  7.18971807701703 -5.573706944560194 0  7.106877594720373 -5.76346608389475 0  6.985209628779764 -5.59893139778284 0  6.904601388814866 -5.78408252324019 0  6.786169359603266 -5.623658556477834 0  6.707066786978249 -5.804513228751267 0  6.590583988013048 -5.647757448969698 0  6.513897631415414 -5.824518006899056 0  6.400835469277947 -5.671426914731367 0  6.325362958631535 -5.844074482492121 0  6.214770515619747 -5.696028536377517 0  6.141085676214189 -5.863435830315775 0  6.0317153427123 -5.716932042515252 0  5.960823979430435 -5.881859092910142 0  5.854333940890562 -5.740298668896947 0  5.78442855839662 -5.90135022048493 0  5.68166180582282 -5.760878699108146 0  5.749040977160337 -5.601985979229765 0  5.578863805996642 -5.622542754608568 0  5.51286972970116 -5.781223961633933 0  5.412619239151415 -5.644285400645208 0  5.34748766858873 -5.798383242910073 0  5.249388579741975 -5.663991641175517 0  5.186187807318774 -5.819521152318538 0  5.090048156767851 -5.684803626460731 0  5.027418734476843 -5.834151422674513 0  4.934023742274093 -5.703252938680937 0  4.872230939602215 -5.839478383227731 0  4.780982533220316 -5.724306097163863 0  4.72122431937704 -5.854060052285359 0  4.632419103067933 -5.74331877598703 0  4.574215598762407 -5.872173204337715 0  4.487709309593598 -5.761783506664663 0  4.43029086444318 -5.890875730330649 0  4.345304988487964 -5.779985927050874 0  4.289777900172108 -5.904442208980748 0  4.20656475016424 -5.797718419061806 0  4.152826270614632 -5.923751353472239 0  4.261273916404658 -5.670359827209532 0  4.124891656229371 -5.688318237015454 0  4.177602792883363 -5.562238199602842 0  4.043719747603802 -5.57951054513993 0  4.095498718303658 -5.455441457116903 0  3.968114731787868 -5.468470175151487 0  4.014502630295144 -5.350214280068436 0  3.886588769232073 -5.364351584247482 0  3.931144598878394 -5.249236514748572 0  3.810981699437198 -5.259193394802727 0  3.853437231140623 -5.146518469355071 0  3.73057608095881 -5.160067449563071 0  3.691040819240969 -5.286930597589295 0  3.775779735298784 -5.046175595639845 0  3.654119869269397 -5.058987467886511 0  3.702877999052923 -4.943830526615408 0  3.580374365860212 -4.960116463158474 0  3.635146400114824 -4.844539511385794 0  3.50750391882471 -4.861707656862587 0  3.553129798910636 -4.751609296544267 0  3.434306739806965 -4.76522084071169 0  3.477591269183787 -4.657035560544434 0  3.363205805880126 -4.670997126949481 0  3.407476630319568 -4.562147009494399 0  3.293360934915825 -4.577388804158984 0  3.338338427598446 -4.469641186299561 0  3.452518955595156 -4.453936528804798 0  3.248118185344881 -4.683266810769913 0  3.382376147401477 -4.362181056523384 0  3.498476523557114 -4.346433671818834 0  3.427026452864679 -4.25387819437728 0  3.54386186501932 -4.237743323826773 0  3.311855543313492 -4.269966344608787 0  3.355513283405781 -4.162663964870701 0  3.241850834552441 -4.178068237190221 0  3.284917246696619 -4.072711431199185 0  3.173248516013308 -4.088099324215905 0  3.215187428019071 -3.984364920411726 0  3.105372490738452 -3.999392980788623 0  3.14501517119821 -3.89847003551415 0  3.038208702048742 -3.912199422091394 0  3.077531734813114 -3.812548722992152 0  2.972056549612534 -3.825711265235175 0  3.01189866437846 -3.727137463669273 0  3.112678225311518 -3.707145118360414 0  2.907438329048906 -3.741080706187772 0  2.946644764101922 -3.643346628440838 0  2.843055201341233 -3.657075611530765 0  2.803970257204872 -3.75332074825615 0  2.882131730801685 -3.561280680886776 0  2.780471843481143 -3.575066396431512 0  2.81914048345709 -3.480007278013218 0  2.718738595081103 -3.493519899211333 0  2.756461233682996 -3.400288998870891 0  2.657605386862588 -3.413532980901708 0  2.694706485312683 -3.321606014547623 0  2.597049122680978 -3.335500437539262 0  2.633882294120607 -3.244197179496644 0  2.731712668315765 -3.230064746856277 0  2.670424616389194 -3.152711179107278 0  2.76860186777963 -3.137809473215322 0  2.57359422830489 -3.167512086337081 0  2.609427737499416 -3.07662690689883 0  2.514130901914529 -3.090929288129025 0  2.549322288612286 -3.001571529892132 0  2.45533278855757 -3.015326887194416 0  2.490171081299492 -2.927509239284382 0  2.39763814702823 -2.941235748988525 0  2.430903352732155 -2.855426098240648 0  2.342468938055125 -2.869128224492819 0  2.313410803304869 -2.948312840051109 0  2.373542158630038 -2.783978717223453 0  2.271852736658877 -2.803809304929805 0  2.315295673112143 -2.713792929510682 0  2.403647059006708 -2.69370688967728 0  2.2286210667713 -2.725212659396856 0  2.261125056068407 -2.643072326750082 0  2.174669592417096 -2.655353314644799 0  2.206630782165064 -2.574284427174042 0  2.120973319429439 -2.586625573830762 0  2.153258317456832 -2.509894450072777 0  2.068251031796136 -2.519773584158887 0  2.036804491288178 -2.598051346928832 0  2.108648861511298 -2.43658537067016 0  2.015561348723454 -2.452406455267106 0  2.045350738743306 -2.376486803697685 0  1.964390930293851 -2.387792717272009 0  1.995038593538593 -2.312004865271609 0  2.069310348452312 -2.307430771554299 0  1.914430066117202 -2.322463003328083 0  1.943960030272253 -2.246563270695032 0  6.658115829747139 -5.477980178885961 0  1.864589706751755 -2.25842684453376 0  1.891610928107502 -2.183550103771684 0  4.227420233313117 -6.02738390569947 0  4.097831316385196 -6.049844499428053 0  4.171046996618413 -6.155306079187982 0  4.044001816800707 -6.174413638687636 0  1.815165998616742 -2.195877220106505 0  1.786520973365345 -2.268932685427128 0  1.842866855174044 -2.123685803027536 0  1.766975643065896 -2.134371209437308 0  1.794325961726129 -2.06342468135494 0  4.122474936178534 -6.28181011086541 0  3.991050153294463 -6.296735590376429 0  1.719598683818429 -2.073998155507183 0  1.747493064319098 -2.00278905204071 0  1.817641515218192 -1.983830311686331 0  1.672935500200063 -2.013702016411117 0  1.700287714801661 -1.944025306737627 0  4.069387615368345 -6.404063555760807 0  3.938502787520857 -6.419831278049971 0  1.627080547570136 -1.954768423157272 0  1.654096569530999 -1.886204713960309 0  1.581655308706599 -1.896915397643965 0  1.554395116608966 -1.964602938673674 0  1.608363633256722 -1.829272545899401 0  4.016211980263986 -6.525007144303947 0  3.88640373150931 -6.540511707181651 0  3.963011285233048 -6.644211543904325 0  3.834496003783524 -6.658135315749458 0  1.536932764377941 -1.840048038206985 0  1.563283779408593 -1.773230141962946 0  5.645969213682866 -5.465384293091994 0  1.493055222788325 -1.783811796829522 0  1.518909186297853 -1.718003752834644 0  1.586859801373581 -1.708001035645241 0  3.910350589010461 -6.7620949222302 0  3.783709074078313 -6.775493035601896 0  1.449671507111731 -1.728227605900946 0  1.475179308977928 -1.663576699848187 0  3.85884280403757 -6.878577941503337 0  3.733280758401879 -6.891174357720906 0  3.65862206631558 -6.791077935721233 0  3.610056813482565 -6.903768699025489 0  3.53806250747423 -6.805754452831655 0  3.489825370990314 -6.916532796769117 0  3.420277588409331 -6.826526922767554 0  3.372026638089901 -6.928768224544708 0  3.304477405935554 -6.841755261959239 0  3.257235683117925 -6.940526096570036 0  3.195065647902421 -6.851745524634546 0  3.146168119975531 -6.951960465212206 0  3.081855844661842 -6.854616299470106 0  3.036186076440385 -6.961911241566865 0  2.972318683260495 -6.879632338735393 0  2.927932830601597 -6.974530900585707 0  2.868390396843409 -6.890430435689439 0  2.82377986028775 -6.985323982923681 0  2.765451798723294 -6.905225609335631 0  2.720359287206872 -6.995853377824854 0  2.660874733340886 -6.916981873858743 0  2.619090778582478 -7.006116504230372 0  2.560790248972438 -6.926231243920423 0  2.518858113148216 -7.018427247891591 0  2.463213486941333 -6.937978307445348 0  2.42123025187319 -7.028164302166545 0  2.367876839027714 -6.949546701208273 0  2.329358051203215 -7.035448601826864 0  2.275242812589452 -6.960491218603938 0  2.240652186129159 -7.046322052733784 0  2.291950035140964 -7.119489152464949 0  2.202691433604759 -7.129658374240494 0  2.254511422825914 -7.202277167524453 0  2.167911982094655 -7.212988112143115 0  2.217748678595953 -7.284560637462337 0  2.129772121368282 -7.293626054929732 0  2.17491784885876 -6.978178305381669 0  2.181149748297488 -7.365444372413192 0  2.093847283862448 -7.374254460921134 0  2.14516179031539 -7.445492543511167 0  2.058547640437997 -7.453836941402999 0  2.007750006704489 -7.383434520365412 0  1.973420137605228 -7.462249167120422 0  2.023068370376356 -7.531382366282526 0  1.940572430382892 -7.540370181985079 0  2.218762083477165 -6.888805252468694 0  2.130755241709362 -6.896897191021525 0  2.165659642868858 -6.816383564667648 0  2.077389756605001 -6.82709372828548 0  2.112025993238083 -6.746171697433362 0  2.025322341628037 -6.756642754887392 0  2.05820865112042 -6.677398146037088 0  1.987844516941108 -7.607923293297878 0  1.90681469413671 -7.617095796696974 0  1.976964363882541 -6.684221304317207 0  2.006727491076559 -6.608151546020201 0  1.95064464066672 -7.682018906533114 0  1.87148639259302 -7.691674690804044 0  1.893894935372622 -7.470848470043625 0  1.92661429165836 -6.614809939977445 0  1.956430576004619 -6.539403272747593 0  1.915772743217655 -7.756203501484705 0  1.837929623143181 -7.766138554843211 0  3.091958432326667 -7.047581650605907 0  1.873117372199705 -6.549377722846779 0  1.905313259978549 -6.472693295030803 0  1.882637972175736 -7.830155776050235 0  1.805187496279075 -7.839740090063096 0  1.965739645754619 -7.817149568022107 0  1.822836432431416 -6.482734554873355 0  1.853214407453633 -6.408075313943299 0  1.773079161444647 -6.416375566494635 0  1.803285729029927 -6.343050264770353 0  1.74137663522689 -6.491921247069492 0  1.847991622121979 -7.903491156380952 0  1.772534147531974 -7.911558964852455 0  1.726961112188373 -7.848217380578272 0  1.695148822641215 -7.919342069345429 0  1.740447725181886 -7.982111936792428 0  1.663915434012848 -7.989847329771932 0  1.724668721282018 -6.350991755946938 0  1.755649035566805 -6.277721775013096 0  1.650405934941231 -7.856979217252887 0  1.707982112101261 -8.051793560915824 0  1.632145313089472 -8.058542351198362 0  1.677160988131213 -6.286770904717295 0  1.707596369966238 -6.214143038746178 0  1.629744902045619 -6.222798369487851 0  1.660653516166413 -6.150890327589601 0  1.676013999237053 -8.1204167347755 0  1.600478625811302 -8.126034046788201 0  1.583598637926148 -6.160169464383403 0  1.616204239994344 -6.08725555732124 0  1.644520725956067 -8.187985193302769 0  1.570304480118748 -8.194094479451397 0  1.537298326146253 -6.097969061825061 0  1.570230546898202 -6.025866750587654 0  1.510261558105602 -6.169421410059959 0  3.681753200034045 -7.003844806429209 0  1.407086947317763 -1.673715490848072 0  1.432210031937874 -1.609959123942967 0  1.494044527831917 -6.040430838788366 0  1.523514189001887 -5.967820203762214 0  1.61373010438904 -8.255557564085297 0  1.540624210850542 -8.262070788150755 0  1.687721439549367 -8.248800672745279 0  1.497765053960007 -8.20200338280176 0  1.46886469028189 -8.26822011917236 0  1.427328424207046 -8.210652538716534 0  1.398635405947591 -8.275048546816636 0  1.439137236926603 -8.332228262045664 0  1.369706711353363 -8.33850750723516 0  1.60053519374668 -5.956923556332075 0  1.551900314567195 -5.897415669749312 0  1.409528223732709 -8.395180945375859 0  1.341225082470373 -8.401175333838129 0  1.465126841295467 -5.908179485169754 0  1.503300472783824 -5.837312071424002 0  1.365078686525312 -1.619985516300271 0  1.34027974166761 -1.683967421676278 0  1.388471462455449 -1.558267953121857 0  1.358168721129861 -8.218499704910613 0  1.579790952361735 -5.82739968537357 0  1.53319884820603 -5.767789708188674 0  1.834837120430356 -6.275585470222074 0  1.458942081503412 -5.777571300940026 0  1.487238276790753 -5.708671840903331 0  1.323312849260136 -1.566875114763066 0  1.346406592627122 -1.506461535370984 0  1.380399600405728 -8.457018707204236 0  1.312688670089697 -8.463331044096819 0  1.413585044966577 -5.719000197965131 0  1.440243079464466 -5.64975578563587 0  1.514474381069224 -5.639850307040403 0  1.468508425246494 -5.581705887701919 0  1.282549979789501 -1.515256540467881 0  1.306464584565614 -1.454372353447286 0  1.376048695835269 -1.454333683960083 0  1.394966720570746 -5.592411921781325 0  1.422636916669131 -5.523910143261146 0  1.495849264807772 -5.512992803753337 0  1.449426212126969 -5.455194045275296 0  1.526131613462351 -5.441137573243481 0  1.479776537253503 -5.383037983194634 0  1.406573072889428 -5.394149963897486 0  1.430601144818247 -5.3272468098966 0  1.508624634975249 -5.314325764929378 0  1.456636863904752 -5.259113063782053 0  1.383499587817203 -5.270993778484921 0  1.408577904932027 -5.203140699994918 0  1.480838454629708 -5.190598991815127 0  1.433472875426723 -5.133740070842222 0  1.506521222470637 -5.121403864303338 0  1.459031104485415 -5.064772332049963 0  1.387570602445958 -5.075588122765351 0  1.411810692064256 -5.007891621114243 0  3.985708954579716 -6.865428290257887 0  1.351665161371445 -8.518324928453925 0  1.285183176118615 -8.524852110772727 0  1.242396635336423 -1.46348443364492 0  1.266145216382771 -1.403764701612425 0  5.888355774573089 -6.042819004388292 0  1.323523041844833 -8.578811600337019 0  1.257552695800154 -8.584499735022455 0  1.484004635573548 -4.995417898316174 0  1.436277758210554 -4.939554484584088 0  1.364709742038261 -4.952306942398114 0  1.38877323089253 -4.884277769920489 0  8.765535593670803 -5.363709325294468 0  1.219767996437355 -8.531553803944359 0  1.192494089643906 -8.590424705160645 0  1.203111618703659 -1.413141867894391 0  1.226585054093025 -1.354669075207053 0  1.318149294035596 -4.897599337269471 0  1.341948509387235 -4.82987902830068 0  1.411142968564429 -4.817521213562547 0  1.363016647747919 -4.764276330045012 0  1.229943364091056 -8.64305254002611 0  1.166069313100941 -8.64901507545847 0  1.295524803024435 -4.77616922837644 0  1.318994903346839 -4.709285376501287 0  1.165528721471873 -1.362391720475021 0  1.141253345647639 -1.413284286843769 0  1.190215858534639 -1.305207030330386 0  1.395203260719123 -4.699875825473979 0  1.34115896171763 -4.643186727954966 0  1.272422143226443 -4.659623988099868 0  1.294170035841603 -4.589229766676364 0  1.359219593351838 -4.574382272574206 0  1.315085981888449 -4.521644669134139 0  1.155542444857232 -8.538096731498207 0  1.202419164282674 -8.70081021803558 0  1.139293340464192 -8.70648566683772 0  1.127890184050306 -1.313140412189337 0  1.151923242105862 -1.256411922352054 0  2.917062877964447 -6.809495455697052 0  1.246821301310405 -4.535874557393723 0  1.268387341410486 -4.469532207881627 0  1.337141513611677 -4.454524454413273 0  1.289672143299086 -4.402710145261436 0  1.358691933160657 -4.387136258782835 0  1.310866650629588 -4.335348517669176 0  1.243252402067347 -4.35120877418843 0  1.263482648646782 -4.283615660116017 0  3.885401575774125 -5.025206082029087 0  1.175463761932647 -8.757862471834644 0  1.113538369853689 -8.763683037752255 0  1.090119859335287 -1.264905568882424 0  1.111134402629819 -1.209500038309357 0  1.177826066938572 -1.198206344177386 0  1.330303002757784 -4.269481206344696 0  1.283298718242531 -4.217787929380819 0  1.21634806758879 -4.232416970387615 0  1.236374531120502 -4.166688675814217 0  1.307533080329744 -4.152980585640208 0  1.259162968982833 -4.101188297007917 0  1.189430606019069 -4.115129624534442 0  1.20902178412654 -4.050122263766512 0  1.281792712789679 -4.03541876608284 0  1.227588265000874 -3.984805863713815 0  1.052477087750436 -1.217498115302065 0  1.072975561519153 -1.162946526518569 0  1.149054170965861 -8.814013670613942 0  1.087659420906597 -8.819129712300168 0  7.482173615828346 -5.350979900451223 0  1.052618681427695 -8.769721285560992 0  1.027082395045817 -8.824489531574713 0  1.161613140775366 -4.000659638546524 0  1.180254456993218 -3.936014960474235 0  6.62885069801097 -5.974972974560314 0  1.014157055716279 -1.171674071872136 0  0.9874500533178487 -1.227073331850828 0  1.035699547937394 -1.117286729432427 0  1.248050388639637 -3.922905132792393 0  1.198685499828947 -3.871624591417095 0  1.133413488155801 -3.887828326583976 0  1.151034652129297 -3.823204942777473 0  1.061807588315368 -8.873561754752474 0  1.00236017207585 -8.87895477423069 0  1.035463528416919 -8.926953244972147 0  0.9773342428135976 -8.932382675891095 0  0.9927680461497594 -8.775637890911067 0  1.209941768760137 -3.805433009106939 0  1.164498954707012 -3.757657586796928 0  1.106336359993854 -3.777314461596579 0  1.123280657991998 -3.712208328700202 0  0.9782204569354747 -1.125546270780579 0  0.9993087677685111 -1.071975923270455 0  9.799723893974321 -5.210239362677075 0  1.17921883203152 -3.6934795255261 0  1.136581668474619 -3.648264816448365 0  1.081351292609275 -3.669819933033317 0  1.093997111317517 -3.602749922755474 0  1.153904737604027 -3.582928821559383 0  1.107409488842318 -3.537885621955735 0  0.9426492819413781 -1.080640248542255 0  0.9635621013506039 -1.027539349790862 0  1.019977349308524 -1.018844060197418 0  1.21107245437922 -8.808891040858498 0  1.010078662999874 -8.979757212694327 0  0.9531595418621102 -8.985373813680701 0  1.039946390033283 -3.560254429450939 0  1.059444070110466 -3.493277521138983 0  1.122880874484121 -3.47036922764412 0  1.074672351165248 -3.428860430429519 0  0.9841348476913296 -0.9746248386300289 0  1.040485193648037 -0.9655034015413184 0  0.9284364810678802 -0.9833498656463231 0  1.013632359582338 -3.447377227552821 0  1.028610977080737 -3.384976454548449 0  1.089604317884021 -3.366881764165212 0  1.043059907544592 -3.322839018215318 0  0.9860125843976331 -9.032207515768659 0  0.929096841262389 -9.036924108095475 0  0.8965424829453248 -8.990809252393634 0  0.872911746363684 -9.041775861843476 0  0.9824573251576521 -3.341138548558373 0  0.996759235092652 -3.279267340569604 0  1.057472073129819 -3.260660766220335 0  1.010885812953921 -3.217269619378263 0  0.9485363072146313 -0.9311570258279094 0  0.8939488777226536 -0.9395096270639911 0  7.780823134846918 -6.074793194303776 0  1.071558172600238 -3.198583969349399 0  1.024708697918022 -3.155459981845103 0  0.9654104960053473 -3.175222435786129 0  0.9790971652919893 -3.113114224562969 0  2.560074895235886 -3.425751324521991 0  0.9050150409491629 -9.087518810366646 0  0.849681253612351 -9.092167685451781 0  0.8407600880817139 -8.995995877176409 0  0.9135421756172235 -0.8882928731256206 0  0.8598038849932905 -0.8965157421642935 0  1.040133890873426 -3.095649339176615 0  0.9898963480663845 -3.05427154491377 0  0.9323969081715013 -3.07338758844618 0  0.9451211342960946 -3.00990836433686 0  0.8792617819704471 -0.8460191650751083 0  0.8259296977364983 -0.8544824620746398 0  0.806569255990528 -0.904302262997895 0  0.8809496260198664 -9.137337304684374 0  0.8264874828496751 -9.142154019855145 0  11.43016944192719 -5.237539913835965 0  0.9989774449516204 -2.993983098211737 0  0.9560720139726921 -2.950849285184009 0  0.899090660584994 -2.968200985922558 0  0.911592408153032 -2.908428323221204 0  8.734415402809557 -5.996314933856086 0  0.9685411734664964 -2.88938051012426 0  0.9237048205942546 -2.84837805823488 0  0.7732271334486693 -0.8628564167703416 0  0.7538211114229814 -0.9119137511315749 0  0.7924445521958283 -0.8135057975171964 0  0.8663988981111359 -2.867685839692469 0  0.8781956838684941 -2.808168002822769 0  0.9355970057017995 -2.78865014845186 0  0.8897971037170844 -2.748650063245052 0  2.038268105908056 -6.529381879655502 0  0.8574342142614562 -9.186546453444155 0  0.8040031919295014 -9.191302813821462 0  1.390204143921448 -8.573108329944883 0  0.946962252156915 -2.728946655384958 0  0.9010368311063441 -2.689378243965331 0  0.8458825214082797 -2.70943397296675 0  0.8589009591197083 -2.650869118558047 0  0.7405214531539279 -0.8217966696881973 0  0.7591948325847682 -0.7731699980575204 0  0.7082738555485779 -0.7809435532514719 0  0.7266622736340587 -0.7334362032229063 0  0.9119349539977595 -2.630214297214716 0  0.8666400451623701 -2.592038418301318 0  0.8100943670311604 -2.619184257526009 0  0.8211672103122964 -2.554568963245871 0  0.8343774721687574 -9.233848535064764 0  0.8878243346287604 -9.230505172352848 0  0.7814253667497972 -9.237871178165925 0  0.7513283251486822 -9.194208777802036 0  0.7290944531366002 -9.243717331640276 0  2.232516464365736 -7.436937409898322 0  0.6993113247187743 -9.199986952438174 0  0.6775775978341763 -9.247922389286991 0  0.8763907092361531 -2.534181035368297 0  0.8311791405124467 -2.495700062893024 0  0.7761827968627575 -2.515314297931432 0  0.7864269970322297 -2.457812184882103 0  0.841026773910162 -2.437576080706636 0  0.7962614014226581 -2.400257550557906 0  0.7646589875174854 -9.291086328695876 0  0.8508095749208238 -2.380046545944325 0  0.8057677601489353 -2.343054726307486 0  4.93437833392302 -5.95719992999449 0  0.6768091700330388 -0.7413012092356883 0  0.6940817699459583 -0.6950786194962557 0  0.7392438034122559 -0.6836328297210317 0  12.77575510249029 -5.091025774895837 0  0.7538660980933827 -2.360342485276267 0  0.76251879636912 -2.30479407342303 0  0.6465384945637069 -0.7014769778546022 0  0.6303378857616249 -0.7465155413646167 0  0.6626973496611086 -0.6567019334947046 0  0.6480762878961066 -9.20403347326593 0  0.6268008869721591 -9.251715147931542 0  4.996276700056743 -5.547381501739988 0  0.814366946879467 -2.286370462353648 0  0.7700606224579438 -2.249747907277274 0  0.7197177937764234 -2.267662082033 0  0.7266925749404258 -2.213341547754334 0  0.6160643861289579 -0.6628692044146387 0  0.6322351235930252 -0.6185930803722668 0  10.46581330303037 -6.120937793726966 0  0.7785330934012347 -2.19384326358472 0  0.734520223303516 -2.158211164667868 0  0.6829967616788899 -2.177864303954464 0  0.6908756060472339 -2.12309328932004 0  0.7427363313307609 -2.102699374558534 0  0.6989651910273604 -2.067882801779058 0  0.5872644180696902 -0.6239606027770375 0  0.602161038864109 -0.5809349839780849 0  0.5976370102231954 -9.208656995908523 0  0.5766832119971355 -9.255800026133453 0  1.043498731593095 -9.027853512413426 0  0.7507555407724453 -2.047381260704228 0  0.7068125927169966 -2.012896676415789 0  0.6559131007598857 -2.033511002398062 0  0.6640824003794048 -1.978890208159178 0  14.84396207406098 -5.085660981044362 0  0.7138775692758657 -1.958424246167295 0  0.6705408906841512 -1.924458815317015 0  1.929016504446668 -6.760141544831061 0  0.5579150308904346 -0.5864686988023431 0  3.859571792534481 -6.320026763128012 0  0.5726359768320215 -0.5443470062212086 0  0.6182005757692544 -0.5347876895099031 0  0.6203200928780248 -1.943347684203756 0  0.6277483350524271 -1.89076269497567 0  3.067137963265207 -4.095979579276382 0  11.65026102927431 -6.036329251439957 0  0.6774838744354863 -1.870441740198178 0  0.6345835128517248 -1.837449634419758 0  0.5479774203156609 -9.214908556159742 0  0.5273124416368162 -9.260170459904684 0  0.5554499879078971 -9.30068060712467 0  0.5273622515737166 -0.5510161943973184 0  0.514248414255837 -0.5978131042709522 0  0.542897446670926 -0.5086177543260479 0  0.567868955923899 -9.167637555900972 0  0.5067561890371852 -9.304821056215257 0  0.5343133758183143 -9.344524582726915 0  0.5852338221147502 -1.857915449079444 0  0.59211421831351 -1.804811859314842 0  0.6413212172650606 -1.784144401844977 0  0.5988245316378364 -1.751759852085886 0  0.6479360616371785 -1.731076520025452 0  0.6052379298522403 -1.699046875535846 0  0.5192284038311854 -9.174280221355565 0  0.5398961119049428 -9.130006678688016 0  0.49845924724724 -0.5151050976812881 0  0.4866016892441145 -9.348489464583402 0  0.5135390282020165 -9.387508676928661 0  0.5499978658720099 -1.71551258888432 0  0.5638899247263254 -1.664057588945057 0  0.5138625028591548 -0.4734238206004378 0  3.459871113039304 -4.973093478670559 0  16.08753193391338 -4.92089234395932 0  3.258172433962454 -6.758674534775817 0  0.4675308898713268 -9.390875382852087 0  0.493341097534497 -9.429671234628158 0  0.6113645350409964 -1.646504452160543 0  0.5691763696109771 -1.614724653141958 0  0.469662963555038 -0.4802597110722697 0  0.4908686220984926 -9.134631117301099 0  0.5116025328205929 -9.092470039044366 0  2.238040819249941 -2.493229063313382 0  2.580306488486652 -2.910302488724758 0  3.325143711213675 -3.968956801965829 0  0.9329174125954403 -0.8373511639307294 0  2.78045842436596 -7.079241086596386 0  2.604377459628541 -6.845429507529142 0  4.136884220138143 -6.520501761676812 0  0.5234587126996129 -1.632635915962576 0  0.5277658831654861 -1.583557872003426 0  0.5748791696176649 -1.563404420711741 0  0.5332289536399077 -1.532616017789895 0  0.4484121700037811 -9.434213973821388 0  0.4736641483472681 -9.471606452772615 0  0.5192205924340207 -9.467778567955797 0  0.4993584280089287 -9.508958513840998 0  0.5448706108755523 -9.50565999228418 0  0.4544121408671167 -9.51271901872826 0  0.4796794688654167 -9.549476800144459 0  0.4355311396878463 -9.55314255438471 0  0.4859974502348763 -0.4416104702822601 0  0.529302688494182 -0.4316940641822065 0  0.4427801523546702 -0.4464530893717162 0  0.4280942938882468 -0.4894825129436793 0  0.5805240474407984 -1.51200087064694 0  0.53876634189605 -1.481509568457242 0  0.4626901261431566 -9.095065104809446 0  0.4879122352345515 -9.048476692195781 0  17.4848652306616 -4.775759752238772 0  0.4948713345307194 -1.502463557059096 0  0.498022105891625 -1.451267767787744 0  0.5441674451858667 -1.430575600250572 0  0.5030315530328586 -1.400505197638144 0  0.5493997579776391 -1.379855285486919 0  0.508180252124772 -1.350157529227619 0  0.4602815101012094 -9.589251641894034 0  0.4164913138656878 -9.593268651824822 0  0.4423078844938111 -9.355514969277484 0  13.60278202506997 -6.21192877946973 0  0.4643533165140052 -0.402939861587198 0  0.4157192030695214 -0.4126846863894773 0  0.4622640829825428 -1.370515309202309 0  0.4672045094865496 -1.320881312030584 0  0.5546015640763056 -1.329182816760411 0  4.137896231105891 -5.335020118863833 0  15.15190082982122 -6.130915210980733 0  0.4343204507366707 -9.054782464219606 0  0.4545742228710985 -9.010660927384404 0  0.4147096660114471 -9.098478626193163 0  0.4319837736788426 -0.3694474822512026 0  0.3885933188199626 -0.3800144479488772 0  0.3918298140043817 -9.557038505999666 0  0.373122682624679 -9.596926169755253 0  0.4401336143953838 -9.62981583476294 0  0.4841131951184998 -9.625411424931137 0  18.87877881780748 -4.505455154672426 0  0.406644760447433 -9.015347354414713 0  0.4265195534323425 -8.9715188282595 0  0.4745526665668152 -8.966734733016855 0  0.4463982984848869 -8.92734759346963 0  0.4932978738397544 -8.921693402900221 0  0.466191810623755 -8.882465897403833 0  0.515165698704747 -8.87759579180381 0  0.4862047614766105 -8.837104186468563 0  0.5360831606347087 -8.832515516640306 0  0.5070995041072202 -8.792031426111167 0  0.5571134398489406 -8.787008832248453 0  0.5277449501515683 -8.74610841782307 0  0.4779522837035515 -8.751214135121502 0  0.4982486689416916 -8.705522218748293 0  0.5482461340144678 -8.70014428348764 0  0.5186030765681906 -8.65935844611402 0  0.5690992377629822 -8.65382569912585 0  0.5391550968631051 -8.612470013986425 0  0.5876203156946183 -8.605922937200635 0  0.5594748200708253 -8.565096150308474 0  0.6083864966378112 -8.558494304288805 0  0.580299753891822 -8.517459544481868 0  0.6323497368366979 -8.511948966258309 0  0.599582922049235 -8.468218875257723 0  0.6541425759987316 -8.463794812120435 0  0.6205773595851696 -8.419204482424174 0  0.6763159184839154 -8.415053843526788 0  0.6444309891524238 -8.371371337188869 0  0.6964674714799131 -8.367074322800619 0  0.6659093133610767 -8.322501710538743 0  0.613059290352032 -8.32812462203534 0  0.6347172006344088 -8.279180932946698 0  0.6880549169986505 -8.272957709461206 0  0.6562848781869572 -8.229545437892565 0  0.7100457547891637 -8.223167360344132 0  0.6778457266340716 -8.179307562694373 0  0.7321846702033366 -8.172903007298983 0  0.7005182392902434 -8.128944588758072 0  0.7549045300811343 -8.122348035032264 0  0.7227548310774559 -8.07784532764809 0  0.7776413145555505 -8.071138422109096 0  0.7455639499713591 -8.026395155669531 0  0.7991113575988642 -8.018802500993084 0  0.7679053744160225 -7.974146408662257 0  0.8231135935937122 -7.967140165343631 0  0.7911808293499085 -7.921724672005375 0  0.8451950088808484 -7.913735850682194 0  0.813998570848133 -7.868445431777277 0  0.8698379950473232 -7.861098577016274 0  0.835229133921807 -7.813976189356978 0  0.8936636206812771 -7.807967313507291 0  0.8585055922019897 -7.759712668642308 0  0.9179414413269651 -7.753680679369446 0  0.8821447342445836 -7.704909267695146 0  0.9416971226985087 -7.698074743238871 0  0.9059095158371644 -7.649780915670075 0  0.8466288190108795 -7.65670198064783 0  0.8678706729723658 -7.60027708424694 0  0.9294047737795808 -7.594280454320085 0  0.8908682714675962 -7.544557860560782 0  0.953060098587164 -7.538516782445708 0  0.9163593758883675 -7.489755379602649 0  0.9774697509467796 -7.482598201195841 0  0.9405382758600531 -7.43351027860288 0  1.001976768767836 -7.426027353329228 0  0.9645914122576151 -7.376813264620903 0  0.9030932997175114 -7.382671314111211 0  0.9270514366680285 -7.326881814470887 0  0.988249105834937 -7.319788829208065 0  0.9505933285845725 -7.270825932242026 0  0.8898647601250129 -7.278289769119006 0  0.9129978386835287 -7.2224705061814 0  0.8530010728539814 -7.230939958559722 0  0.8757114894393805 -7.174900121501015 0  0.9357238102565653 -7.166279906903929 0  0.9001862452435159 -7.119367719133335 0  0.8385221834554457 -7.127134405322243 0  0.8609916640079192 -7.071142662982337 0  0.810966857066564 -7.608838431858342 0  0.9230551378366982 -7.06315310007143 0  0.8831491608845266 -7.01510728459979 0  0.8234275756892373 -7.023902484549122 0  0.8449183091428552 -6.968016744885348 0  0.7863244987053299 -6.977689459769893 0  0.8077069574719324 -6.922108120063239 0  0.8662637289689954 -6.912534630118996 0  0.8288885944700706 -6.865990874871581 0  0.8879040009098631 -6.856641117767758 0  0.8498843430755638 -6.810277453103543 0  0.7913590962403845 -6.819615461928421 0  0.8119754837665027 -6.764282637315502 0  0.7320985234433337 -7.928190846393738 0  0.7537758308998441 -6.773690023783826 0  0.7742332786109838 -6.718538236520062 0  0.8326644816097311 -6.708996511086453 0  0.7947605766803321 -6.663742275382777 0  0.7367521376083381 -6.67328305104435 0  0.7571431436576006 -6.618869372968007 0  0.699973348940361 -6.628927473674617 0  0.7200150830900576 -6.574749730814231 0  0.7768969669389634 -6.563675757497325 0  0.7392131596568419 -6.520272340720656 0  0.6830958868879264 -6.53074254442624 0  0.7019643332860781 -6.476377406372359 0  0.7584741666011432 -6.465998158774317 0  0.7208948156464956 -6.421959534119422 0  0.7777591945730542 -6.41159127932298 0  0.7398770479040575 -6.367802400621157 0  0.6834492145766369 -6.378287940750869 0  0.7021066077703786 -6.324178172719636 0  0.7587380487378788 -6.31324965043159 0  0.7205627391820126 -6.269682087370803 0  0.7775135609240404 -6.258273581424812 0  0.7390213609244611 -6.214897653056481 0  0.6826439498528298 -6.226151658616534 0  0.7007235870299535 -6.171490887040079 0  0.7570145888541013 -6.160165261784474 0  0.7186112141263621 -6.117246264100165 0  0.6436575380152973 -8.139869069561955 0  0.6627389416113783 -6.128653146820011 0  0.6803230239023392 -6.074548953070487 0  0.7363678260446065 -6.062680294575739 0  0.6976657157462682 -6.020115989080586 0  0.7540085535304808 -6.007750646003242 0  0.7150188481478423 -5.965391616806921 0  0.6590494112914893 -5.976489200203577 0  0.6761862518949791 -5.922662819983476 0  0.731970657273763 -5.910486439514951 0  0.6930925037044329 -5.868642365010894 0  0.6378031764427767 -5.880930138732543 0  0.6542322688864228 -5.827509921260648 0  0.7094952666327679 -5.814380960187957 0  0.6704910322664617 -5.773054973489892 0  0.726017680175417 -5.759869886429036 0  0.6869464901991655 -5.71806367864762 0  0.7425369197818039 -5.70506029023381 0  0.7031240402587695 -5.663435201093071 0  0.6478391965263803 -5.67650615170743 0  0.6639172091577574 -5.622238420521406 0  0.7192933405238264 -5.608670227415664 0  0.6797925054217853 -5.567512684011893 0  0.7353385013539899 -5.553525176643381 0  0.6954129394245854 -5.512465376893666 0  0.6404971355865694 -5.526376251963173 0  0.6559434311179881 -5.471909881660312 0  0.7108525709118751 -5.457635484494216 0  0.6712357783880147 -5.417041059874465 0  0.7262192470857851 -5.402717998711224 0  0.6864086853830997 -5.361662632649964 0  0.7419034824505601 -5.347449586841992 0  0.7016212479552291 -5.306554389689362 0  0.6462694817252359 -5.32083002798866 0  0.6615310623226183 -5.266068841934445 0  0.7164375520092729 -5.251599361199593 0  0.676244552937618 -5.211359448414279 0  0.6219171036069309 -5.225896453860578 0  0.636364904985431 -5.171268943583408 0  0.6907920088807948 -5.156619441532145 0  0.6506230791056886 -5.116611314687189 0  0.7049294954759908 -5.101808171152847 0  0.6645758878948556 -5.062200647177667 0  0.6105650163580165 -5.077033652919883 0  0.6244049208652918 -5.022755131825764 0  0.6785056726680594 -5.007647033013606 0  0.6380872728133404 -4.968281432091103 0  0.6920738972615244 -4.952975450420608 0  0.651548806402392 -4.913952907580488 0  0.5982333671736182 -4.929721403735086 0  0.611291773872102 -4.875153720568261 0  0.6649266681391168 -4.859565498570397 0  0.6243789778369582 -4.820778186209717 0  0.6779742343226687 -4.805005265734388 0  0.637256144763839 -4.766536382225037 0  0.5498903590886286 -8.47553417206778 0  0.5841642184160456 -4.782265151652771 0  0.5969524276680538 -4.728651402810968 0  0.6498943427184152 -4.712338227696818 0  0.6092550005759758 -4.67436458855252 0  0.6624923201265531 -4.658119137170021 0  0.6217541809543157 -4.619982172614297 0  0.6752483254129569 -4.603670824707102 0  0.634278821735748 -4.565690013666499 0  0.5812666091175913 -4.581899835059078 0  0.5935909391398067 -4.527819865371381 0  0.6465799314666612 -4.511447707480935 0  0.6056685041049459 -4.473688077194258 0  0.6584977919549093 -4.457136665004691 0  0.6174916517024229 -4.419766440692312 0  1.039453113154003 -7.475769262732688 0  0.5651254346820807 -4.436232099960256 0  0.5767608880833102 -4.38252102683958 0  0.6292010340952139 -4.365813530538148 0  0.5882515618142037 -4.328692766144181 0  0.640535492834152 -4.31179800006038 0  0.5994758810888268 -4.274995279026654 0  0.9781887007194623 -7.747493871409356 0  0.5476728541781437 -4.291863189093146 0  0.5620709894745879 -4.239242844579859 0  0.6110425049484629 -4.221443895517932 0  0.5665158239966779 -4.179394533884857 0  0.6210912838244411 -4.166783387458012 0  0.5822036845789285 -4.127829404534569 0  0.5444012573915913 -4.744595051829363 0  0.6324772540015235 -4.113934343355898 0  0.5915578747656092 -4.077159154802446 0  0.5456949500545001 -4.092885871716683 0  0.5502934909948127 -4.041781257176819 0  0.6019270293958865 -4.024140674800298 0  0.5607919633006357 -3.988270712015686 0  0.6012921944671774 -5.48557560546576 0  0.5997191538277455 -5.840521180685625 0  0.7825488578295463 -5.38881918360331 0  0.7165165722506934 -4.641441464767897 0  0.7824499920591244 -5.747080170104024 0  0.5786250043130501 -8.285909989397252 0  0.489810376513466 -8.619978424579514 0  0.6121383979148742 -3.970653930137386 0  0.5709723640464688 -3.935120397906648 0  0.5200988590289395 -3.952608383179896 0  0.5301179374209042 -3.899693782039582 0  0.5810236128239623 -3.881977918796288 0  0.5399851868662591 -3.846701065666269 0  0.59070455308213 -3.828807765597596 0  0.5496037210069868 -3.793957077407503 0  0.5094001028629958 -4.249718905354183 0  0.4993477687992005 -3.811722854683592 0  0.5079329942533093 -3.759127010922085 0  0.5588501021187984 -3.741119135476285 0  0.5170660511134724 -3.706516752643329 0  0.7865535186053929 -8.167769358132853 0  0.5682000457139118 -3.6883707966784 0  0.5270004144738589 -3.654197514953434 0  0.4726364584687062 -3.674621507729178 0  0.4836550651892466 -3.622041270409744 0  0.5355049933858993 -3.602195334879742 0  0.4948499670349431 -3.56829583601302 0  0.5447310559421172 -3.549717178880703 0  0.5040432844217175 -3.515681319156451 0  0.5533102623589841 -3.497784024957183 0  0.5126816447946361 -3.463492118689738 0  0.9018351257888604 -7.906810814391269 0  0.6739482922104365 -4.149775832240254 0  0.5697151139566543 -3.442355302280775 0  0.5213563189130817 -3.410841202118016 0  0.4720610176987421 -3.429614324601104 0  0.4804443710339861 -3.377347085160288 0  0.5279743271141228 -3.358538602584586 0  0.4884336077161802 -3.325278932450272 0  0.5377224615656893 -3.306631902028586 0  0.4968113036543169 -3.273791792322003 0  0.417862410974184 -8.887677576526002 0  0.4481411724127256 -3.292210955548582 0  0.4562210299721876 -3.240949587728704 0  0.5048082200016566 -3.222187808373977 0  0.4640428706963533 -3.189502228455375 0  0.4433807743861813 -3.58732167445053 0  0.5123987772951359 -3.170560016483518 0  0.4715494218724601 -3.138237540610795 0  0.5961975414649512 -1.359390126188108 0  0.4220160564854751 -1.340949354253999 0  0.4268879328387509 -1.292032948443994 0  16.41751003212214 -5.994903100248095 0  0.7095890939101572 -8.45756602618615 0  0.6015205687096365 -1.307691840562031 0  0.423675743238018 -3.15743608565406 0  0.4310845656768763 -3.106487707112849 0  0.478752837442002 -3.087067368363436 0  0.4383552094084902 -3.055463449752112 0  0.4860332659815736 -3.036047415131241 0  0.4457944756750418 -3.004396245486958 0  0.493288963205611 -2.985166676155999 0  0.4530241292143398 -2.953100086763729 0  0.4034806083026083 -0.3388888086264323 0  0.4445774149544555 -0.3320129843898538 0  0.3619318506064939 -0.3454788019907387 0  0.3472093944592327 -0.3844395194298933 0  9.494601989595543 -5.953735498797496 0  0.5913497412085515 -3.530230212601528 0  0.5011240820614731 -2.934683771260781 0  0.459971283325654 -2.902176171265033 0  0.41198871376195 -2.920228230033688 0  0.4193578678643206 -2.870266031253721 0  0.4667813451254155 -2.851135922085077 0  0.4262138944431086 -2.819687188289143 0  0.464482829053452 -9.664737014594806 0  0.5078212673718561 -9.660828009138752 0  17.78060576774384 -5.929043015728243 0  2.916926890074201 -3.46536840607875 0  0.4733418712567925 -2.800303274096705 0  0.4327347565665605 -2.769271956744912 0  3.672265636466021 -4.736761919825822 0  0.3485797993943205 -9.560890897836268 0  0.3302233952612887 -9.599882130863271 0  0.3829913469896908 -3.070344907546322 0  3.927618321383127 -5.587595529360933 0  0.3823315793988193 -1.312246519673761 0  0.3873317679270993 -1.263704148671402 0  0.3771765692349174 -1.3604773549036 0  0.431651068359983 -1.243347919219812 0  0.3922009590107578 -1.214603552498321 0  0.4364028135116111 -1.194830771267671 0  0.3970939270112961 -1.165940261781488 0  0.4411321407424538 -1.146430986818834 0  0.4017793626135315 -1.118093951563338 0  0.4457594724377749 -1.098277025573443 0  0.4063293785127726 -1.070257436638455 0  19.24635408921414 -5.825160524004986 0  1.386190252581718 -8.154821021956641 0  1.317836384959186 -8.162286494568495 0  1.345504553544499 -8.099363414501415 0  0.3861015168232633 -2.788543546325751 0  0.3926611995455254 -2.738790170975742 0  0.4390030458310683 -2.718990642810853 0  0.3989665147375909 -2.688756286042996 0  0.4452653348862601 -2.668839088182416 0  0.4050519761558888 -2.638129143199389 0  0.4516712321958529 -2.618577688995755 0  0.411297466444621 -2.587656138124182 0  20.40526417611186 -4.353686029786354 0  0.3765658941461467 -0.3068829540416118 0  0.3362032474464129 -0.3130218205539625 0  25.88403360061005 -5.249578740657142 0  0.6436614848198339 -1.338611509758786 0  0.6228916821935204 -8.642796404257362 0  0.3627608567355445 -1.08996253709626 0  0.3669500768215919 -1.042783571946917 0  0.4106007173923238 -1.022644812843881 0  0.3707878901270387 -0.9960886599451486 0  1.65635365697943 -8.316580043454898 0  1.72995323818191 -8.310515624742845 0  1.699235499429113 -8.378293512435926 0  1.773477245082024 -8.372129773698543 0  1.744655077306495 -8.438938942684736 0  1.817090498599347 -8.434593220354094 0  1.788748489148507 -8.50154388386834 0  1.86167299596203 -8.497340222365427 0  1.829808978680724 -8.567724604264223 0  1.908021393333367 -8.559867825281344 0  1.87425605390197 -8.632259494582854 0  1.953745738471509 -8.623789155111167 0  1.920768594309937 -8.695118744230701 0  2.000080090269812 -8.688209151990598 0  2.033812042011609 -8.615362577738647 0  2.081054565171442 -8.681475256426753 0  2.115752401529802 -8.606522282157668 0  2.163705078414601 -8.672938136233686 0  2.199109528099417 -8.597840393915481 0  2.248251082914376 -8.66565092478886 0  2.284789615471542 -8.591932992504381 0  2.334680892190576 -8.65748995014318 0  2.371378667010879 -8.580747526509958 0  2.423032796491608 -8.649654858283078 0  2.461413040945089 -8.574299175519281 0  2.513527638456507 -8.641013036582045 0  2.552094455170772 -8.562272496199302 0  2.606028856479803 -8.632752587625331 0  2.645965063879391 -8.551666033522537 0  2.700774110326467 -8.63015814545712 0  2.741302032660384 -8.542918648365109 0  2.797974562033023 -8.622332966645857 0  2.839705860194348 -8.53342346355176 0  2.897807683224595 -8.615574245507716 0  2.940209388376289 -8.522452127693057 0  2.99954164095554 -8.607356201129068 0  3.042871732136206 -8.511839832278802 0  3.102548249274324 -8.597129897798737 0  3.147757120314152 -8.500769075085019 0  3.20951354167887 -8.587810442835204 0  3.255120369288084 -8.489814033867052 0  3.318462761532363 -8.577247980431956 0  3.365438657107703 -8.478018327547263 0  1.966255281038009 -8.760219834686076 0  3.430134445658229 -8.567766599685172 0  3.478252526531746 -8.466296395871801 0  3.544381209954713 -8.55692360839042 0  3.593365241757958 -8.4547424100568 0  3.661073312979376 -8.551390497676062 0  3.711546280481581 -8.443313374633222 0  3.781218972430862 -8.537016192910929 0  3.833173799631934 -8.432236241195589 0  3.904177969815187 -8.530913517295797 0  3.957392677020369 -8.420384044370538 0  2.300282180532733 -8.73973141013747 0  4.027645409629091 -8.528684945537572 0  4.083801609510116 -8.405998180926478 0  4.157532618421619 -8.515412225591373 0  4.214200119819093 -8.392169862132302 0  2.882878262721306 -8.44420906138587 0  4.290659151531287 -8.500464149210364 0  4.347484372346649 -8.378093611548161 0  4.424577635344718 -8.492597580079615 0  4.483368554599833 -8.357976276679354 0  4.562990978293591 -8.481447799470686 0  4.622975067374544 -8.342682952745163 0  4.705578170176976 -8.465881822761586 0  4.766649498739181 -8.331467053105692 0  2.646897503102934 -8.702088312736237 0  4.85156023933768 -8.455046912059405 0  4.913299488094545 -8.317233811631304 0  4.999502559781563 -8.441507484582329 0  5.062491568903496 -8.305036650716662 0  4.973421334351709 -8.178378844673857 0  5.125399728533626 -8.163818947769347 0  5.214910115292394 -8.28991710657596 0  5.279711014021302 -8.148682406164035 0  5.188332775048668 -8.021114297602342 0  5.345972126946114 -8.00535267824935 0  5.43828300216078 -8.131543002391641 0  5.506404652048831 -7.988503367882725 0  5.602149948212499 -8.117548197748777 0  5.670656403556723 -7.969639467742162 0  5.768612884439808 -8.100273196136406 0  5.836332762330027 -7.951331347680034 0  5.943074854002163 -8.081441634010893 0  6.012218162010672 -7.93277384875562 0  6.119406881329475 -8.069900256682796 0  6.19172207258096 -7.911415198796755 0  6.29389614766164 -8.048794389234274 0  5.252388906343544 -7.877921584006252 0  3.300340790512497 -8.391508842022414 0  6.368375336345029 -7.889290582516066 0  6.484944968700589 -8.060290094592927 0  3.061724085461899 -8.692940645228751 0  6.554663619822504 -7.872178700072032 0  6.662547774673639 -8.022338723350225 0  2.486681663752016 -8.500181661524834 0  6.741154550585128 -7.848643771559644 0  6.856152266030445 -8.008019675637296 0  4.403098586512693 -8.252173703664448 0  3.748634167626431 -8.334699482626942 0  3.504946871981694 -8.651633808589601 0  6.935222913820189 -7.826735440429667 0  7.053257863271623 -7.990509483923985 0  1.887357648988688 -8.767540212767589 0  1.932618964818014 -8.831849749326583 0  1.854458265705892 -8.838357881298194 0  1.89671891819904 -8.900814841739233 0  1.822057544779609 -8.908573826634228 0  1.864292634463242 -8.970540734500899 0  1.789860069022193 -8.978039629249768 0  1.831065161788421 -9.038500447927611 0  1.758464559524409 -9.046125257936392 0  1.799658595927452 -9.105801868759563 0  1.877393486512114 -9.102210453444455 0  1.727562277606655 -9.113322820388706 0  1.769802126422393 -9.172849017071467 0  1.696972268334786 -9.179627334719378 0  7.134956781728851 -7.804258735315535 0  7.253591820035036 -7.958995289072998 0  7.339001117795446 -7.777843675821791 0  7.460086865076169 -7.93732166792428 0  3.842301550254989 -8.642910203388116 0  5.73476073131701 -7.822723658276005 0  7.547782153545491 -7.753205309193023 0  7.672194789493579 -7.921006022078157 0  1.740375950149627 -9.237292905303734 0  1.666786796359698 -9.244996761390917 0  6.264057245760881 -7.754844331240506 0  5.699156044379556 -8.237305639190927 0  4.227739308630715 -8.64029305939636 0  7.761456271847247 -7.730143156836234 0  7.889148661260026 -7.900578320936233 0  7.980547349110235 -7.705869183262165 0  8.111882886754323 -7.887861161619862 0  1.708163601780177 -9.302965238400828 0  1.637422423942857 -9.308750308879524 0  1.78167016280339 -9.296118866333069 0  1.597468049458122 -9.251381373547856 0  1.568805733200348 -9.315061715576261 0  4.642588953147783 -8.605907632834938 0  2.248272051431313 -8.522463119589112 0  6.226983372902335 -8.189338555734928 0  8.205306324421395 -7.681791046332766 0  8.339635853453636 -7.8605783023995 0  7.2099035764958 -7.582154123380615 0  8.435698345585996 -7.654575313624701 0  8.573190038578328 -7.836229642679509 0  1.60777821617673 -9.37064044388357 0  1.540366947564962 -9.378258324174798 0  1.50146600455324 -9.321145922543039 0  1.473687260317078 -9.381894220840771 0  6.774102750831149 -8.181780999803495 0  8.67224366780307 -7.626072203241252 0  8.81363638670658 -7.822130423895839 0  7.577338646812171 -8.112906717933482 0  8.914161649932561 -7.600587644855585 0  9.051494602368395 -7.793912572508744 0  1.436907546965077 -9.327720493163373 0  1.409897627659632 -9.386479376968493 0  1.443422618662098 -9.442389700674077 0  1.381157061015713 -9.44348518199399 0  1.346844825899359 -9.390696984087137 0  1.319682820270629 -9.447040346313754 0  1.849667941391807 -8.37424672708798 0  8.241899371573936 -8.070366282443153 0  1.685374186396402 -9.054137334373809 0  1.353940950008214 -9.497977912000975 0  1.294021752709666 -9.502413421837343 0  1.248667349378014 -9.450532404549826 0  1.234551623929651 -9.507544146208582 0  9.160950695279787 -7.575118280129694 0  9.305860400864615 -7.810634955129832 0  8.936671698836252 -8.042487194449594 0  20.80722592876895 -5.709473349341392 0  0.358847345649755 -2.658937576824702 0  0.4579129809654763 -2.568294332788856 0  0.4175833739314054 -2.537474135143548 0  22.45260727689526 -5.580328017351228 0  0.6490222976051427 -1.28610296135334 0  1.268084314886295 -9.555843030803253 0  1.209777662733291 -9.560217214176397 0  1.177418792738461 -9.516087289689793 0  1.152470126381566 -9.564310391312706 0  1.120843118949661 -9.518484892229564 0  1.097069394749822 -9.568163691284653 0  1.065824620916406 -9.522883700974699 0  1.042146963625923 -9.571842838071749 0  24.16270753837347 -5.42797616693652 0  1.011901474766274 -9.527515409781696 0  0.9891011714683167 -9.575585732501755 0  0.5341701042804186 -3.016875468374333 0  9.415907606036455 -7.548169200955533 0  9.56786945514469 -7.755937631169934 0  1.072393795240313 -9.616623090991926 0  0.3479305064557057 -1.235036266578028 0  0.4891492493151457 -9.698814711820182 0  0.5310150646164757 -9.695607532298457 0  0.4465721641565548 -9.702104267937933 0  0.3056597329755881 -9.564597900397862 0  26.46555205497364 -5.193677566137904 0  8.291221433287269 -7.44292568506512 0  1.089112765280392 -9.475546037478566 0  22.04542133905791 -4.214193448069068 0  0.3504529025490353 -0.2752953181468003 0  0.3107943536427751 -0.2814379235074327 0  0.3236347546462532 -1.062780072767941 0  26.22357358408108 -5.707202728380235 0  0.4642503498437129 -2.51788429572106 0  0.4236702341176759 -2.487394953797341 0  0.3775271212015294 -2.506786872335399 0  0.3835701947879393 -2.45714814450327 0  0.4290871492557269 -2.437693661582451 0  0.3890092879853153 -2.407720693071704 0  1.778032443958171 -8.846792309608549 0  0.3438382780893718 -2.427270969787128 0  0.349497915950387 -2.378474874686549 0  0.3944806602521354 -2.358428953217598 0  0.3546970567055912 -2.32934279180087 0  0.4000011159299657 -2.309288817064279 0  0.3598799362985154 -2.280417398262223 0  0.4053375190103186 -2.260069061403213 0  0.3653762165524679 -2.230871287795437 0  0.9592188683595744 -9.532083605592105 0  0.9369286734286728 -9.579095324529693 0  0.2874026883850433 -9.603349636434029 0  1.27778399228221 -8.107180967423709 0  1.304902627532773 -8.04588313378882 0  1.250341948041687 -8.168762757605045 0  0.4147970555625378 -0.9753700780549641 0  0.3755478583711032 -0.9486384584154095 0  0.9075559287551798 -9.536534835267753 0  0.8853165403360883 -9.582679766708729 0  0.9140018796232905 -9.624717836646411 0  0.8640581771696159 -9.62882950804552 0  0.8567286925235429 -9.540981907209048 0  3.179712150081281 -4.59161198947134 0  3.135914882380559 -4.695287600709271 0  3.0692079658967 -4.606299087346604 0  3.025249897242993 -4.701111815058894 0  2.959869465312542 -4.620532069753726 0  2.917333815931425 -4.711765499318011 0  2.853674486391281 -4.634553587856902 0  2.812741788012556 -4.729907532896591 0  2.750447516035143 -4.648063515921327 0  2.709566115921378 -4.74372086555184 0  2.771373720385183 -4.8258338998918 0  2.648789285451443 -4.662074523577435 0  2.669603608523159 -4.838228347445312 0  2.730053850021205 -4.919642491577969 0  2.629544209356975 -4.931022406806674 0  2.689311281319753 -5.012298406393088 0  2.589764456204263 -5.023442753906116 0  2.648891120038909 -5.101558382327093 0  2.550317401398932 -5.114688166343094 0  2.620517816820414 -5.203443021380138 0  2.513168319121878 -5.207286032035872 0  2.569359679365714 -5.285340510475439 0  2.48792020609082 -5.036030730761102 0  2.465367057865398 -5.30319715124236 0  2.530108080735355 -5.374667073300141 0  2.616170910930157 -5.372110830650581 0  2.583646797679883 -5.457331007450302 0  2.49306241460055 -5.466437928017871 0  2.547650386184465 -5.544709223853713 0  2.641382432462986 -5.538723806223111 0  2.604487323511341 -5.625832507850006 0  2.704008595787284 -5.616622342383963 0  2.662980344128888 -5.707410792952982 0  2.759613660940435 -5.699893815911951 0  2.451536803453561 -5.553613574982204 0  2.721430987419579 -5.789516395365638 0  2.823736097411338 -5.778892130798151 0  2.621411964408395 -5.799076437116183 0  2.679680279388602 -5.880594737596462 0  2.580405635741554 -5.890138048248323 0  2.637715140383953 -5.971159347912035 0  2.806615518788098 -5.600242157805712 0  2.740530135607262 -5.087782033604132 0  2.539404750516679 -5.980686020018316 0  2.595881041069838 -6.062591233373021 0  2.695171531134696 -6.052832506901058 0  2.688127910441334 -4.567725201276385 0  2.588063245844101 -4.581236976967284 0  2.626381150372417 -4.489080427699207 0  2.52834884981587 -4.501970155417993 0  2.565999428190889 -4.410417757487498 0  2.469333224245752 -4.423394638277179 0  2.431961478056733 -4.513144933882068 0  2.374413426003803 -4.436561287593021 0  2.33764202782425 -4.523442230888766 0  2.281334504150349 -4.44904745937975 0  2.316393686492098 -4.362998301008882 0  2.225118807804673 -4.375674384007509 0  2.259988502473664 -4.291045244302802 0  2.170271724216548 -4.30331978074559 0  2.200712973831193 -4.222757423167781 0  2.245508442104136 -4.534369192225147 0  2.117231044263496 -4.232959988904365 0  2.145413978293902 -4.153263550857271 0  2.063692225413252 -4.161975594989982 0  2.095164040073794 -4.081052198481647 0  2.088800332229777 -4.311855931060222 0  2.009785131516743 -4.09097359491493 0  2.042367611536616 -4.012035475917155 0  1.957526775745453 -4.023237954540642 0  1.989927419053627 -3.944639900335023 0  1.906003088630223 -3.955749483110511 0  1.938163920278752 -3.87840073304393 0  1.855871392927028 -3.889667988777846 0  1.887235868801085 -3.81310964744345 0  2.126693464439317 -4.000869800327332 0  1.806059755153308 -3.823925295202068 0  1.837083085370471 -3.748152459524106 0  1.917959234944005 -3.736909015786572 0  1.867499003444768 -3.672565029611798 0  1.787110745902215 -3.683154571637512 0  1.817132201482144 -3.608097922648934 0  1.897687406225261 -3.596757031585626 0  1.846898038364465 -3.533152162229492 0  1.767187369093492 -3.544713460780178 0  1.796267002144841 -3.470591291846826 0  1.717807081493376 -3.482334650461279 0  1.746368137321923 -3.408884785245098 0  1.927795359145303 -3.520589914371822 0  1.668959372087279 -3.421043377627298 0  1.697187864057112 -3.348091315609919 0  1.92513116581064 -4.100771613655844 0  1.774745749369941 -3.335742751268426 0  1.725101742818998 -3.275046224235173 0  1.648454211136336 -3.287448866106437 0  1.67584913012718 -3.215127022893018 0  1.59980292184199 -3.226345428190395 0  1.627106503174101 -3.155266932232335 0  1.7027658442926 -3.143021316299134 0  1.653519155930972 -3.084427831605834 0  1.578847906509926 -3.096002690930438 0  1.604842635615993 -3.026225509786888 0  1.531324900629569 -3.037943668689688 0  1.557140502530533 -2.968679304804421 0  1.728048619025845 -3.072404990446325 0  1.484470576986842 -2.980921233732482 0  1.509845746770202 -2.911781548362492 0  2.272187168786971 -4.20338682159933 0  1.582587116346797 -2.899412035115736 0  1.534875259828175 -2.843180059170387 0  1.463018439625094 -2.855571632313123 0  1.487560449671832 -2.78743855664772 0  1.416336592133938 -2.800381234681866 0  1.44096995296524 -2.732620793601276 0  1.511665799909386 -2.719609901990331 0  1.463803908561417 -2.666027897210556 0  1.394387868722335 -2.678289999881751 0  1.416587448361895 -2.612788963553351 0  2.652820043307178 -6.145281405935211 0  2.753509842500712 -6.134906205058317 0  1.774939924002215 -3.89932073959859 0  2.497687050994692 -6.070815345680537 0  2.44238014736656 -5.988248111009342 0  1.640480822178173 -3.493035602694611 0  1.348733961344122 -2.624156997490209 0  1.371462130542055 -2.559075846460503 0  1.303811279975875 -2.571414025495172 0  1.326699696061807 -2.506238824366054 0  2.401770888082316 -6.077646721075663 0  2.346353595000025 -6.000627950758002 0  1.53359901778161 -2.653306977309601 0  1.394106356842997 -2.493987407206157 0  1.34885330532561 -2.441199948703136 0  1.280794355355898 -2.45561643698961 0  1.30191680088782 -2.391200908779439 0  1.370607190817266 -2.376302012517003 0  1.325031120817782 -2.325333584703458 0  1.259873273774744 -2.337701358265319 0  1.280277966620805 -2.274481068507968 0  1.217934002975779 -2.285306794200267 0  1.23618596741658 -2.224651155218133 0  9.676149418452074 -7.516844324179229 0  9.833401762497878 -7.731797562402744 0  9.72140640328389 -7.975695311518232 0  9.990395306064229 -7.950917848150787 0  10.10493038148038 -7.70247366585331 0  10.26590010541451 -7.926853090212711 0  10.38428562682865 -7.670682799377604 0  10.54955976106221 -7.898733803588669 0  10.66944898108637 -7.639505634928438 0  10.83886468086735 -7.867671634076943 0  10.96199648931942 -7.606006731000909 0  11.13477389008652 -7.851223086710964 0  1.242053724243821 -9.60806396433863 0  0.4706613865222291 -9.735967165095978 0  0.4284435440309586 -9.738819873020017 0  11.25763930798144 -7.578921670235527 0  11.43904649167029 -7.814780283507162 0  11.56442816181526 -7.544758548055654 0  11.7504523472346 -7.7805087009502 0  11.88396564505971 -7.502535608125218 0  12.07085188889934 -7.769706519473567 0  0.3204271004998365 -2.25081613762325 0  0.3258206718253227 -2.202300701087619 0  0.3703242959766921 -2.18225635543313 0  0.33090351449904 -2.153602352172187 0  0.3752899097728601 -2.133659490342927 0  0.3358028700424391 -2.104907396421099 0  1.172733576984331 -2.237014006644504 0  1.191728003841797 -2.176051713337658 0  1.458790462603172 -3.049380928767007 0  0.8918562047945588 -9.66944377796732 0  0.8428872444486224 -9.673285432242016 0  26.78725378649783 -5.649277632908841 0  0.691722100521293 -1.31714697111183 0  0.4921219463127482 -2.648752602384729 0  2.198527943439593 -6.735870271644261 0  1.966093508758567 -8.901551414113007 0  0.5429560722500568 -8.9209307955455 0  0.3252349214717754 -0.2442338867333165 0  0.3642126893949467 -0.2379876815450253 0  0.2858779014931141 -0.25033827336902 0  0.2711925062951366 -0.2874884225630367 0  2.71081706067346 -6.227442841635229 0  2.812282519043375 -6.21738836507072 0  9.90652909003548 -8.195389345048756 0  1.12940506326575 -2.188304306959927 0  1.148719268293872 -2.127740477510718 0  23.72003657244305 -4.028275939507615 0  0.3044096201148143 -2.397877214265185 0  0.3801324490794027 -2.085063680352351 0  0.3404525009005823 -2.056661973648425 0  0.2964738406111458 -2.076429946143846 0  0.3012407614309076 -2.028395707704343 0  0.3449764697641164 -2.008487658945945 0  0.3057926610706474 -1.980426454552328 0  0.6970513239425546 -1.264533545069429 0  0.4191865157331573 -0.9281144469510529 0  0.3804533716359781 -0.9010378462402961 0  0.3378795981221305 -0.9203680491836845 0  0.3421347473804808 -0.8757478097740075 0  0.3845673504795286 -0.8546320984089499 0  0.346410855698954 -0.8274840946319761 0  0.4582733955949614 -0.9555542135061206 0  0.305202450173061 -0.8510029218668471 0  0.3087068718222437 -0.8021512569384317 0  1.210624941339955 -8.113837344921096 0  1.184225990148368 -8.176330599612786 0  1.211423981764757 -2.114671724112991 0  1.168230956623386 -2.066623042828932 0  1.106713932487756 -2.079674897175044 0  1.12525658701203 -2.019217860225559 0  1.187794490967788 -2.005490056501427 0  1.144453857456657 -1.958520085846706 0  1.082754709198383 -1.972086117431189 0  1.101497998072674 -1.912144470152177 0  1.040757606371669 -1.925486452183273 0  1.059109084081058 -1.866540011654706 0  2.307787320946098 -6.0864164232582 0  2.256714395282179 -6.008296062975527 0  2.361530584138603 -6.163144522636115 0  0.3494913976723417 -1.960475706401108 0  0.3101121097779433 -1.932607305928778 0  0.3548229167804635 -1.911263779035667 0  0.3154990242496662 -1.883485490772791 0  26.55730513852086 -6.16260040144445 0  1.392691639546758 -2.31096702948855 0  10.7511210304095 -8.112490903789716 0  0.2629662790344618 -9.56840657036998 0  0.2809957263048766 -9.529504044879339 0  9.009856355919288 -7.373286465163727 0  1.280927915627178 -2.636033820431383 0  11.61542929125957 -8.077161150691598 0  0.9992766288789596 -1.879656760524389 0  1.017334052669311 -1.821597896806959 0  27.06896125814695 -3.693943360490846 0  27.10860550105807 -6.095001870407994 0  12.20787875169011 -7.468953415691955 0  12.39868183417055 -7.722326218722205 0  0.6542128357613048 -1.233606215920193 0  0.2683375884035382 -0.8231378631391548 0  0.2716598845003428 -0.7761425570191385 0  0.31238292276017 -0.7562344135290431 0  0.2753334613353928 -0.7305961112726589 0  0.7022374702015792 -1.211901003718217 0  0.6581333010167967 -1.182503067725386 0  0.2451249671351601 -9.607108411839302 0  0.2691153474323187 -9.641604295860173 0  27.32309383342096 -5.608117958565703 0  1.753976498293204 -8.572758833804908 0  0.2463114137428732 -0.256262531532192 0  0.2609112839264149 -0.2196355161776093 0  0.2810266010897777 -2.223403146494837 0  1.15503825950066 -2.301319023970605 0  0.2323259251251866 -0.2939197317323758 0  0.3161094803213924 -0.71131377687382 0  0.2790775700562982 -0.6857628093905097 0  3.077382847552675 -4.801804057007783 0  0.4458195751349336 -2.289433097794499 0  0.4526374471063672 -9.772237859682285 0  0.4128557839726863 -9.774949587577908 0  0.8702398359848402 -9.713258871377702 0  0.8220146082937383 -9.716413259868578 0  0.7949614102436495 -9.677274541831565 0  0.7750427600804883 -9.719544321540106 0  0.7487189189140491 -9.681290030529311 0  0.7272448895580901 -9.720444108334011 0  1.145414670043275 -8.121727670097405 0  1.11922641848146 -8.181667628070558 0  0.4201023916030309 -2.113262691756054 0  0.958229223973504 -1.834932027748355 0  0.9762115018444746 -1.777229519089999 0  1.035242150646091 -1.763700357510663 0  0.9938704357104058 -1.719597776837396 0  0.9189628769307596 -9.710037065327448 0  0.271431441460674 -1.904548103855557 0  0.2758473426059709 -1.857289235878413 0  0.3194265222404447 -1.835321295998897 0  0.2799740749691324 -1.80986099148307 0  0.3226376839457732 -1.789599957429432 0  0.2842203022357861 -1.762594665340174 0  2.300628799299243 -4.608325561441475 0  2.209643423254629 -4.618877837361539 0  0.9355874370718489 -1.733088053647949 0  0.9529115686959013 -1.676109614432468 0  0.7072038872719997 -1.159545165058923 0  0.6628127483712856 -1.13538202011974 0  0.2291912861138456 -9.645952274255745 0  0.2510922279328156 -9.679170005090423 0  25.98626492903323 -6.228462080049701 0  25.95394284745189 -2.83976696071421 0  0.8782924275180246 -9.494721090564312 0  0.8279407603648536 -9.49984815322604 0  0.2576419126247309 -2.047332766140354 0  0.550559775056243 -9.657495110087032 0  0.5604135028512047 -9.085107237906296 0  0.238276909816312 -9.53331063035208 0  0.2562895252356761 -9.494247224904683 0  0.6861746904199606 -1.370059315129463 0  0.7348044005190868 -1.348256238812082 0  0.7289556457755744 -1.40101183074608 0  0.7790419490061549 -1.379440153589076 0  0.7733454693129929 -1.434206151315557 0  0.8236206484204196 -1.4125468501999 0  0.2222015004097493 -0.2254975134160189 0  2.268902801779632 -6.171334909441668 0  2.321930482381751 -6.247344595981069 0  26.33143641182738 -6.671114035745878 0  25.75038913808631 -6.757233404299854 0  2.855794829916835 -6.124238411144306 0  2.915873401181496 -6.207486788476134 0  2.958420037123487 -6.107346481994494 0  3.021945668544138 -6.198112156860719 0  3.06211602514016 -6.093184069304404 0  3.130234140559002 -6.190574328687595 0  3.173209253535763 -6.087003832943408 0  3.241469662442768 -6.182533236381026 0  3.288443349005121 -6.079145835840571 0  3.219526606234801 -5.984849651751694 0  3.335927034914093 -5.975480500932981 0  3.268791005438635 -5.88230635919639 0  3.384127897762664 -5.871026002118404 0  3.316553323611567 -5.777237249961826 0  0.2363821181162304 -0.1894711411546339 0  1.081728047546346 -8.128846605093461 0  1.055924532449735 -8.186963708054192 0  1.107262215338073 -8.070191778931846 0  3.616226706708408 -4.333643366086584 0  3.663118981904766 -4.220974057541822 0  3.73715172173355 -4.319798280073715 0  3.779858710912405 -4.208138034692391 0  3.860868606040327 -4.302231808058323 0  3.898080982134257 -4.169746807548324 0  3.985908652935191 -4.28431713842512 0  4.037067237608694 -4.166892197000701 0  4.116769178239606 -4.270633650890344 0  4.166603067985623 -4.148790860583135 0  4.086125240825901 -4.04487987167523 0  4.217407209375693 -4.02582308155849 0  4.138488549883583 -3.921532893531346 0  4.269042354130807 -3.901967092667016 0  4.186154129608333 -3.795598709809283 0  4.318556301603056 -3.775857979288082 0  4.236747547071928 -3.668902027035498 0  4.37070892424785 -3.649622823643068 0  4.287890753710187 -3.541641066368365 0  4.421145477741854 -3.521576578847536 0  4.339118634543935 -3.413332533425979 0  4.476670926730653 -3.394839573800699 0  4.391477455760896 -3.284387692729846 0  4.526521016352202 -3.263922246628902 0  4.443360869597061 -3.153957481136062 0  4.583107866323441 -3.134954657755383 0  4.674877520370011 -3.269216299469749 0  4.726658375214175 -3.117476940518884 0  4.496090788322725 -3.023932088626228 0  4.815279073190739 -3.228741732845499 0  4.871210558113383 -3.092485978957559 0  4.962602721563382 -3.201636934987294 0  5.020985332609575 -3.068198342264588 0  5.119580858828215 -3.195644264834131 0  5.174130804366815 -3.047507664764554 0  5.277470941459541 -3.167314885218461 0  5.329857030085542 -3.024049313838702 0  5.428282502762174 -3.149289254722174 0  5.489421490483302 -3.000209971140575 0  5.085626362640479 -2.928038554267371 0  5.589093342709299 -3.128901727222103 0  5.652715328771349 -2.975959160334857 0  5.752861810698356 -3.106926410650191 0  5.819661116663497 -2.951754471961492 0  5.922263677270337 -3.085194375463877 0  5.990990124454333 -2.926319650778455 0  6.099023616250937 -3.064298561898386 0  6.168418015556391 -2.909165005321829 0  6.278080181333186 -3.04323914686867 0  6.348526438867165 -2.884232835144077 0  6.460584700727411 -3.020503894275219 0  6.530869626056969 -2.848355472772294 0  6.646991607317162 -2.995355260350453 0  5.714276861973572 -2.818027554846358 0  6.718896094982535 -2.818699812340128 0  6.837700874805119 -2.970309756331594 0  6.912784700047993 -2.794822222056336 0  7.033896399338143 -2.946165842341282 0  7.110586754425597 -2.766367578429839 0  7.234528380596412 -2.920855001386242 0  7.310831500398432 -2.730196034938007 0  7.438462023487999 -2.892437711341293 0  4.350341172500119 -4.004889775297928 0  6.392283784779709 -2.693560278343024 0  4.35715071113164 -3.043729985570483 0  4.409215385157097 -2.914839626217546 0  4.272930255045578 -2.933549858330827 0  4.323641623415998 -2.806732233841415 0  4.189763849475112 -2.826093107758561 0  4.239545713933811 -2.701356628377616 0  4.106565008935204 -2.720430768880672 0  4.156180316430818 -2.597651264073345 0  4.026300546181112 -2.615090283460468 0  4.074632939686587 -2.494685424721254 0  3.946886314670847 -2.512948024721465 0  3.994329179669283 -2.393048993394502 0  4.122259274368353 -2.374672659316031 0  4.041128663645388 -2.274185141983974 0  4.169511987667958 -2.253869290262263 0  3.914899688215485 -2.292660852652673 0  3.960711186164021 -2.174657398710795 0  3.839468496121668 -2.191647752797782 0  3.881409765776299 -2.077344965235274 0  3.762698622386907 -2.093736416729556 0  3.803384317272579 -1.981632424360866 0  3.683797742326146 -2.000352725080329 0  3.728008681863436 -1.88557136121223 0  3.608752512293263 -1.906023962325162 0  3.851994624992329 -1.863049312295592 0  3.652261668801193 -1.792675388766849 0  3.535345611972891 -1.812549525144784 0  3.576881490992101 -1.703683070689506 0  3.462816484831844 -1.721427908183505 0  7.518896676014203 -2.698857086879403 0  7.648893311290104 -2.865998774692777 0  3.504174962510415 -1.614445772555678 0  3.391119182191396 -1.632645915547975 0  5.365984942664218 -3.299143831817388 0  7.73069923833382 -2.660049020876118 0  7.864904316503007 -2.833531539424497 0  3.350299853844007 -1.737547139341732 0  3.280784259993016 -1.64952267928376 0  3.320696119085849 -1.546474739239332 0  3.211869443749787 -1.563266024583552 0  3.251040099287462 -1.461852510887146 0  3.144042579394409 -1.479265775886253 0  6.015086396817424 -3.219029185221351 0  7.948295164356068 -2.625616091381959 0  8.085922379670155 -2.804393581841559 0  3.105663995860912 -1.57860777368319 0  3.039723971664941 -1.4954730614943 0  3.077221856894049 -1.397901238937719 0  2.974342923562991 -1.414038096042044 0  8.172030014623614 -2.599163299399874 0  8.312078260433307 -2.781854952516795 0  3.011138599527527 -1.318042889589538 0  2.910007274648031 -1.334762335293021 0  2.873950234676569 -1.428794112132374 0  2.811172549435234 -1.350745768320415 0  2.84659795275466 -1.258044008315387 0  2.749404613043067 -1.273902458929235 0  2.775291762133801 -1.443126847505217 0  6.757977009608044 -3.138528577798302 0  3.642002733022874 -2.107239205093071 0  2.783693563186571 -1.182790435946841 0  2.688535315690388 -1.198369986468089 0  7.202704969285028 -2.583394930978719 0  8.400057266436077 -2.568649877084945 0  8.543639969964151 -2.743286592902328 0  8.633881938621094 -2.532420186694067 0  8.781189805117664 -2.710800177333824 0  2.722215070853562 -1.108760487113647 0  2.628754644157613 -1.124060347518568 0  7.783303562834666 -3.046352618953926 0  8.873581765880349 -2.497733407809561 0  9.024967789673674 -2.691086695637875 0  3.89888556123385 -2.631431964631568 0  9.118973180825996 -2.462778021491325 0  9.274624699253435 -2.659310437544873 0  2.663065756471788 -1.033963984229633 0  2.570938201550886 -1.055665077105816 0  2.536407734933642 -1.137302873801308 0  2.480952379770279 -1.074605213591389 0  2.447364174275194 -1.151345146093395 0  2.391980508037319 -1.085560044804676 0  2.359685056844077 -1.164539027372874 0  2.305014554568388 -1.096250482443811 0  2.754992807198219 -1.019570847424612 0  2.341757651226999 -1.006477202336508 0  2.251540422729246 -1.027831989498064 0  2.219861072589067 -1.10673300068842 0  2.167636626417814 -1.041388096778793 0  2.194994645805068 -0.9660969191174011 0  2.115136128134278 -0.9788064569599344 0  2.086328396213892 -1.054118759620314 0  2.035470890749833 -0.9916262256528459 0  2.063640090371344 -0.9168246179238082 0  1.985282429561678 -0.9298215664521337 0  2.012578504344182 -0.855134959518189 0  1.935604994647795 -0.8685061666408771 0  8.020728418703785 -2.405483853986786 0  8.463781758390621 -2.972430586198444 0  1.908602572514793 -0.9417909609300699 0  1.860202382233664 -0.8819802572761493 0  1.886251218576431 -0.8110032210478728 0  1.812256386522796 -0.8244221212608771 0  1.786569973585362 -0.8936247306121841 0  1.739417822417028 -0.8354578788698266 0  1.764811147382137 -0.7684246048642809 0  1.693427186943399 -0.7787500092347592 0  3.617885094147999 -1.595714800102726 0  9.372867411194772 -2.426493852609254 0  9.542885046786807 -2.63910183401908 0  2.586921397031668 -0.9603880694920583 0  1.718667259492978 -0.7133748072096093 0  1.649076653762332 -0.7247069109867672 0  9.62367854716052 -2.394699246118442 0  9.797670800353298 -2.596679555173236 0  9.177639870978897 -2.893957922301816 0  4.159036336542666 -3.560888570840496 0  9.836480656105648 -2.329926396072774 0  10.0669105504513 -2.496084280188313 0  1.713778648027811 -0.9012696170252488 0  1.673209156355638 -0.6598113088803164 0  1.604800794033633 -0.6720832834582531 0  1.742602359578447 -0.6474719496136156 0  1.580891146850085 -0.7357541477393177 0  1.537683180207241 -0.6835051850137894 0  8.717416808842197 -2.311084126259804 0  9.959251821933558 -2.787950710768558 0  10.23129104447342 -2.749912108670027 0  10.36376453748938 -2.49456297646446 0  10.51025337424241 -2.742355365963836 0  10.63411176685934 -2.476167503838504 0  10.80218637404507 -2.714723628370183 0  1.560922517075308 -0.6205617273218307 0  1.495592806081603 -0.6317456801499919 0  10.91268930376978 -2.434676423955009 0  11.09118235024451 -2.670867075093468 0  10.40056081125245 -3.004832991622218 0  1.514388623697142 -0.7464616703707438 0  1.518085398917114 -0.5699835073930206 0  1.454128698225599 -0.5807373163529528 0  11.20819450163539 -2.389600198635038 0  11.39427073695164 -2.633455095503299 0  11.51155055366747 -2.349234888599358 0  11.70310549084786 -2.595671252307186 0  9.458134371895548 -2.200896676071789 0  4.3764081422229 -2.682708099017536 0  1.476167229801369 -0.5180328592878203 0  1.413170205972637 -0.5266432701702684 0  1.390559637319054 -0.5907050832115672 0  1.350681157388129 -0.5419549561864088 0  1.329014533220164 -0.6006148293809419 0  1.290190853230328 -0.5528666479643594 0  1.312879039214549 -0.4872650201661433 0  1.251571359545252 -0.5058492810445054 0  1.539981120324187 -0.5083748885969479 0  4.911550894071922 -3.346418593256073 0  11.58202690807376 -2.884029391226155 0  11.89878451410774 -2.861330095931915 0  12.02016098197416 -2.555408296085271 0  12.22085582815034 -2.826163570645924 0  12.34605471191189 -2.510737511925047 0  12.54855277624657 -2.773272130003799 0  12.67836727073175 -2.458954700829141 0  12.88455821728281 -2.733216910897702 0  13.01998714369172 -2.41003785778903 0  13.23106071858489 -2.69336098612153 0  1.230572791478188 -0.5623302162161661 0  1.193405359597609 -0.5159061091395127 0  1.213536360104543 -0.460993817655134 0  1.155567982969657 -0.4720803489515673 0  11.76887976568559 -3.15984591312808 0  1.136315256722813 -0.525256308375381 0  1.100133613478208 -0.4810555423403313 0  1.118628900152011 -0.4290240778988661 0  1.064323334951695 -0.4379914171910126 0  13.36864090787001 -2.362867243393203 0  13.5870449807339 -2.646745092841434 0  1.497586210289043 -0.4554799740809381 0  1.561976186722102 -0.4467444214680931 0  1.045315360850642 -0.4898302048373155 0  1.010532160784912 -0.4472638249590242 0  1.029227801841294 -0.3964218640340604 0  0.9763582039017784 -0.4055226637148195 0  10.76785926813418 -2.198181801266699 0  13.44514556523105 -2.981889461393426 0  13.80814142061429 -2.936440768978503 0  13.94980428621838 -2.596547541083189 0  14.17771661678683 -2.893198336385894 0  14.32510650822245 -2.547186259777853 0  14.55595793650943 -2.849466405473199 0  14.70821938109569 -2.491810621838582 0  14.94494164743842 -2.804644215954469 0  4.135296703102686 -2.951939338933847 0  0.9943363916834542 -0.3553886235417822 0  0.9426672581182451 -0.3646347666367262 0  0.9244746249024409 -0.4138135378765462 0  0.8915789127984084 -0.3737208541485177 0  2.414302349230148 -1.232549137155283 0  15.10048918405171 -2.437797470520723 0  15.34305680637319 -2.758848937197969 0  15.50239280727967 -2.382931103972209 0  15.75099325123928 -2.712403475740131 0  0.9090501261085482 -0.3254387173852997 0  0.859474149268129 -0.3342857140685123 0  0.8723019107149668 -0.4237973357960865 0  13.66321524339353 -3.27204246353333 0  12.46845248049486 -2.21044561136278 0  1.519556056726529 -0.3958830581722061 0  1.583991249111929 -0.3857532635580512 0  15.91420657572251 -2.326869710224841 0  16.16917078896778 -2.666171824070394 0  0.8763846014910719 -0.2874412380178732 0  0.8279591744373356 -0.2957109855876165 0  4.065706874523965 -4.392312208363691 0  4.19780324863769 -4.375704988297266 0  16.33560313119904 -2.271339280821381 0  16.5970967251387 -2.615592163317864 0  16.76654554431186 -2.210523757902148 0  17.03378757477985 -2.56874210495242 0  3.692810468076502 -4.119529247560637 0  15.18077162093108 -3.121588141836356 0  14.46711936785622 -2.206402200862482 0  4.145482619970004 -4.499481657731541 0  4.27992522455374 -4.482213698523264 0  4.226649963238838 -4.606925274547537 0  4.362291446860553 -4.588888709112103 0  4.416134769939365 -4.463475130861394 0  4.500652503519158 -4.572233052098864 0  4.55570021570634 -4.443830134146251 0  4.641819117145264 -4.551762827597628 0  4.698784954365493 -4.42340596433288 0  4.78668472308153 -4.533974779877157 0  4.845018166917017 -4.403018677388209 0  4.936633382573012 -4.529291706712341 0  4.991765811186603 -4.390155516199484 0  5.088145578518148 -4.514884886466087 0  5.141569951207838 -4.344475975182148 0  5.242268488413806 -4.487524689239407 0  5.303343658232393 -4.342175338339345 0  5.401781794742693 -4.470564390315023 0  5.464145612164605 -4.320276819993545 0  5.563728442599338 -4.447564440001304 0  5.628364415952946 -4.298727417435817 0  5.729406681481935 -4.430464685275321 0  5.796284962759216 -4.275444067950326 0  5.899930148796933 -4.406529078243859 0  5.962739730441717 -4.25404516465186 0  6.073732841598527 -4.390013645764535 0  6.126640730471042 -4.230907183852215 0  6.250015688748466 -4.370012198333299 0  6.309340307241573 -4.20183548076045 0  6.433624697643561 -4.354798843923664 0  4.581639684939789 -4.689188887391892 0  6.5038919876799 -4.167265039714466 0  6.622307486068429 -4.332527096209001 0  6.69438572081248 -4.139690304911383 0  6.813168262363895 -4.303720733593246 0  6.886763206556065 -4.113314120034333 0  7.008612334713024 -4.278858657068226 0  7.082133902141287 -4.081823094515568 0  7.208599825469157 -4.254383620551818 0  5.186044205534721 -4.644492282640545 0  6.014054224266527 -4.537038152893907 0  4.899716084485677 -4.28315826420464 0  7.287039461171773 -4.06595907126017 0  7.4120948976646 -4.231284024578068 0  7.49481756201268 -4.040270871392238 0  7.621722421404001 -4.203843018176409 0  7.70743548123715 -4.008503239799532 0  7.839255913171712 -4.179527223031291 0  6.930103740125515 -4.463134079395195 0  5.368353276450829 -4.173464257600555 0  7.924933006615126 -3.979898100824302 0  8.059459791353476 -4.157261628736318 0  7.972279624694567 -4.359138169453388 0  8.195909789558417 -4.337040175502824 0  8.286210640244345 -4.127166250741666 0  8.426663045635875 -4.311515835805599 0  8.51902954055144 -4.094907701033828 0  8.662114267616273 -4.284789770599934 0  8.756759313459547 -4.062819898978173 0  8.903274914410092 -4.257617974258005 0  8.994389495530418 -4.035282548190573 0  5.860589739938103 -4.112703654448814 0  9.150427073529258 -4.235751861640911 0  9.249245506420333 -4.005959810016607 0  9.404595749393238 -4.208981236039016 0  6.371948923595466 -4.022922292891334 0  9.51138768502485 -3.967537277462189 0  9.663562613043764 -4.173654283312151 0  2.768688986152346 -6.310021080547441 0  1.092142802069388 -8.240748342594852 0  1.03004842273308 -8.244221640668558 0  4.501786400828548 -3.621052788426211 0  0.3254147970069123 -1.74228331284049 0  0.2880994284234859 -1.71522429815685 0  2.663883898913298 -4.397302428966788 0  2.603378317867151 -4.318638843217378 0  8.106766781962897 -4.544971493097896 0  1.05293125616625 -1.705717306701259 0  0.8014304922995485 -9.758985068332317 0  27.61053712482163 -2.604603299442546 0  11.06988734304195 -7.332729314628127 0  0.2384508612766449 -0.7055015839530174 0  0.2424035706205849 -0.6605498090624895 0  0.2825758683775206 -0.6414073156743472 0  0.2461142154863438 -0.6162961880838118 0  12.53828342564013 -7.434237139989442 0  12.73573320814692 -7.708142948353584 0  12.56048241986409 -8.03602222643266 0  12.93826491943475 -8.008133994254482 0  13.08061787306765 -7.680505680026982 0  13.28545730219269 -7.965760572464071 0  13.42723186144682 -7.631160424481334 0  13.64216974544346 -7.932093615484898 0  13.78741460027466 -7.587142311257573 0  14.00884484577376 -7.901483880256465 0  2.263896046243463 -4.692192031080316 0  2.173750806643795 -4.702012961625424 0  2.120187836945069 -4.630209144161286 0  2.085046467158637 -4.711743754133858 0  2.032523008256488 -4.641985081949066 0  1.998274873320986 -4.722060953758913 0  2.049840932066974 -4.791632684015478 0  1.947246986048588 -4.65753859859866 0  1.964097379259258 -4.801120244706509 0  2.014740841906015 -4.870376703108976 0  1.930023361271429 -4.879675284773009 0  1.980192991670433 -4.94837202643623 0  1.896083357262764 -4.95790662452995 0  1.945837208078741 -5.026520539709146 0  1.846557625210705 -4.889855470709813 0  2.030699262798517 -5.01706810142134 0  1.995787014786968 -5.095003395407019 0  1.911413870978853 -5.104142123844164 0  1.960820082788247 -5.172505786288639 0  1.876693923031965 -5.182038171699998 0  1.925458902138194 -5.25154155255695 0  2.010117019563152 -5.241696631779664 0  1.97498275301875 -5.319885380057361 0  2.060358599172451 -5.310853437949374 0  2.024767636357632 -5.388821254110948 0  1.939598973347884 -5.397418918339644 0  1.988709279538238 -5.466387539726768 0  1.90417915950125 -5.473447320272585 0  1.952771065664022 -5.542928222010193 0  2.037625807691153 -5.53601770700002 0  2.001542103893279 -5.613500879429967 0  1.916431549234549 -5.620554948814806 0  1.964811340281074 -5.691046485922741 0  2.050095337324699 -5.683933114447949 0  14.16269658288523 -7.538850392825283 0  14.3854509880138 -7.86686452383676 0  0.8447903706116033 -0.2499539803537578 0  0.7972670484697453 -0.25775482457263 0  0.7805907032677553 -0.3030781557884525 0  0.7505292853304333 -0.2657892984506436 0  0.734015020781241 -0.3102571759597517 0  0.7046705212590361 -0.274129432940402 0  0.892778550616665 -0.2411802915306502 0  0.8960764278047719 -1.688922197968349 0  0.7217985253525079 -0.2295528085580276 0  0.6773855203329688 -0.2378404443311251 0  0.3286913641215143 -1.694769363641769 0  0.291379453640868 -1.667958576747528 0  0.2487995187334526 -1.692232803902439 0  0.2524476526402282 -1.644117296213928 0  0.2952929807781892 -1.621531804656463 0  0.2581914432851971 -1.595142303212883 0  0.299161523618821 -1.574209691169374 0  0.2598440197549721 -1.54363254467428 0  1.207124475240061 -1.944381256631084 0  17.20876496322918 -2.148867895398118 0  17.48322935102892 -2.51924203839117 0  2.013050253587386 -5.761296335239956 0  0.2412639407397759 -1.785078086546775 0  7.363531988616908 -3.863675678367808 0  16.44169124868253 -3.038759825552594 0  0.2122712466586876 -9.683503708621952 0  0.2334667878171555 -9.716216421242553 0  1.855748372550696 -5.405749058806229 0  1.578883626931983 -9.438614633877208 0  1.928069721367084 -5.76808359889629 0  1.975769439097022 -5.838173919813224 0  0.2747874204389937 -0.1846832357747168 0  3.784753256150179 -2.309380477036662 0  2.414336784885693 -5.218176245418673 0  3.49215752678136 -1.921933093513417 0  27.63731743692959 -6.037592809465475 0  27.42978010312086 -6.517059573532572 0  1.541720096496908 -0.3365199019685887 0  1.478113972877466 -0.3463472703863619 0  1.605871119193443 -0.3246774520123195 0  1.64866120875382 -0.3751825474278991 0  1.671112447189948 -0.3116367214243194 0  1.714669320524532 -0.3640275900067795 0  2.052567677207689 -6.902788827890392 0  1.84441043391152 -6.631183402193463 0  1.602501770533122 -6.292247836211668 0  3.97076232970533 -6.06760311435275 0  2.936890925699839 -3.924150187140024 0  2.679634449173701 -3.587275467655605 0  3.758849298919358 -6.556280131516873 0  2.42445994290186 -3.100079017777891 0  2.076189132320351 -7.214155786520367 0  2.141886114644723 -2.732317575226717 0  1.0653397903578 -1.322499154147608 0  1.885280025714518 -2.397075234898203 0  2.007008158897261 -1.06653784352215 0  10.8189082097253 -5.308486457435786 0  3.240440404781985 -1.752710140332963 0  12.06164941083043 -5.144532812369986 0  1.644927218739218 -2.084085403925108 0  14.06479812811717 -5.189026130803815 0  0.788249068129943 -7.663671684541592 0  0.7538559268205898 -7.619916089445417 0  0.7303273200937177 -7.669074337516421 0  0.6967681875677822 -7.623986595640618 0  0.6742897464154645 -7.674519805664634 0  0.6412695782774733 -7.630139787558216 0  0.6192334396694434 -7.680021689460599 0  0.586870645441115 -7.636725572757721 0  0.5653196050497371 -7.686110517665762 0  0.5334169573505321 -7.643328550021778 0  0.5544220212759043 -7.594174514839819 0  0.512468976178063 -7.692097396789622 0  0.5017066926238254 -7.601204317449328 0  0.5222543091073497 -7.552502578295267 0  0.470346571358359 -7.5592863756844 0  0.4906872139831773 -7.511169551102428 0  0.4408503323777602 -7.518066122407986 0  0.459735644549756 -7.470260689527547 0  0.4211074325395057 -7.568945711305323 0  0.4038168420810333 -7.48042713368481 0  0.4278785460598424 -7.430077527085175 0  0.4756208500621639 -7.42223984941925 0  0.4456236318335236 -7.381581371022855 0  0.3960531068304061 -7.384223836022247 0  0.4153437348008975 -7.339178511221875 0  0.4612768181334097 -7.331353452440416 0  0.4355442573967512 -7.29442671703316 0  0.3838343211718804 -7.297908465420876 0  0.405128348889578 -7.255198784959544 0  0.4517900886582566 -7.247548896254862 0  0.4219778069254367 -7.209105242656888 0  0.3734239444545508 -7.214557208896777 0  0.3921869757586069 -7.168647321946187 0  0.4492901754907823 -7.164155223268363 0  0.4116706574970657 -7.122312503857172 0  0.3608223711325742 -7.12949147715501 0  0.3771538890743962 -7.082040580246644 0  0.4283789865267522 -7.074735968959278 0  0.3944563009480575 -7.034768158241736 0  0.4462761486907674 -7.027282454143538 0  0.4140132240383565 -6.988237486585751 0  0.3632580346480196 -6.995882943989947 0  0.3820669354555264 -6.94938842297362 0  0.4379029039992908 -6.937611897661988 0  0.3991474554194081 -6.901785466810168 0  0.3493072282376453 -6.908032728400125 0  0.3664227921240677 -6.862338515538949 0  0.4142501546224153 -6.858565446574132 0  0.3824137272866217 -6.818461372169681 0  0.3336524422057998 -6.823806035939993 0  0.3519048076008851 -6.779284957391049 0  0.400338114097849 -6.771199933454192 0  0.3681400814690221 -6.732615521140912 0  0.3197127804035595 -6.741460814375998 0  0.3358417813688845 -6.695192495118372 0  0.3844185671724443 -6.685579400245091 0  0.3516902368817174 -6.648222069928204 0  0.7222700204434567 -7.569488188891326 0  0.400342176102388 -6.638414235175706 0  0.3674861142872352 -6.601106610583335 0  0.3182825553946742 -6.608877001476852 0  0.3339479695945897 -6.562785069394855 0  0.3830300117495504 -6.553929095082799 0  0.3500633630817411 -6.516845624378098 0  0.3987568020933825 -6.506754301434427 0  0.3655332228183248 -6.469716658895461 0  0.3172728658148198 -6.479870705887094 0  0.3323439863197351 -6.432615911505005 0  0.3808201629238237 -6.422456558524841 0  0.347385260534514 -6.385350103704481 0  0.3959502587392691 -6.375119453567901 0  0.362403506893795 -6.338356031022477 0  0.3141865031455318 -6.34865899002926 0  0.3286836189569993 -6.301780732849032 0  0.3772694591701047 -6.291069020622965 0  0.3432663547854915 -6.254512416426474 0  0.5437406093713602 -7.734685979009592 0  0.4911869960045685 -7.740530661639171 0  0.5216073250155269 -7.779992871951302 0  0.4704791666716073 -7.788165480809427 0  0.5003285100597576 -7.831109285047125 0  0.4477309093123463 -7.834570022784291 0  0.4194924617963487 -7.794273513854545 0  0.3987530500222434 -7.839885522717907 0  0.4278482513290669 -7.881017357033418 0  0.378312035284095 -7.884532112850586 0  0.4063523113240066 -7.925753301371265 0  0.3583671141205453 -7.930357291412567 0  0.3862252814875369 -7.970937093528598 0  0.3693692167706697 -7.799096371748116 0  0.3374787248790536 -7.974398011444525 0  0.3666613491229569 -8.01610393212767 0  0.3171339235434427 -8.015780240514768 0  0.3460880881098625 -8.059346061821735 0  0.2914084277123088 -8.05796451892645 0  0.3279372331292087 -8.104921339590634 0  0.3081788669156822 -7.929836056042686 0  0.2790755262000246 -8.108352094302566 0  0.3073999389588025 -8.147773380554202 0  0.3919223517619308 -6.243603815924424 0  0.3580334376345231 -6.207231478194911 0  0.309760469233737 -6.218178468861473 0  0.3243004893077277 -6.170990332907694 0  0.3725157312213607 -6.15984104224829 0  0.3384974767772917 -6.123653740790616 0  0.3868190243148693 -6.112192410494824 0  0.3525743190317367 -6.076228793878423 0  0.3044939330712211 -6.089713631975632 0  0.3182139300629157 -6.04213353941183 0  0.3662939548755286 -6.029088860459495 0  0.3320763503275721 -5.993736489624235 0  0.3731933489326931 -8.095710116806766 0  0.2843247117998313 -6.008673013834155 0  0.2980719128322118 -5.958858484137458 0  0.345569646631521 -5.946445603503977 0  0.3113431025374407 -5.91140846407849 0  0.2608760531364602 -8.152776106965129 0  0.2886141374386284 -8.191230297778867 0  0.3588810290502806 -5.899061825391838 0  0.3245355006830657 -5.863926729269381 0  0.3721913925435398 -5.851538996539954 0  0.3377463133032474 -5.81609399104774 0  0.3857324654572984 -5.803783489921837 0  0.3509526462025487 -5.768400817239383 0  0.3033466022147238 -5.780682200769863 0  0.3163295668609916 -5.733128569038597 0  0.3640855000761913 -5.720702822266531 0  0.3292079066725258 -5.685474220292734 0  0.3768963301350414 -5.672888523828268 0  0.3419128681506418 -5.637930434804797 0  0.2945918688178519 -5.650501972287144 0  0.307094803106466 -5.603098306035626 0  0.3545550783075413 -5.590301739341205 0  0.3194925910893716 -5.555527393865686 0  0.4355599414295774 -7.968639165392856 0  0.3669759137986048 -5.542479913282309 0  0.3317141475529652 -5.507987787936797 0  0.2847024887695024 -5.520999959629276 0  0.2965135073171918 -5.47301209963743 0  0.3436275993387135 -5.460442954462743 0  0.3081068939896667 -5.425053522340773 0  0.3556989595336795 -5.412639000982217 0  0.3201596295843796 -5.377958893786302 0  0.3678227022141449 -5.365070197088941 0  0.3323347233907388 -5.330616904803182 0  0.285088196742624 -5.343852252605115 0  0.2968694617707808 -5.297013862609974 0  0.3440143664905833 -5.283194902366828 0  0.3083280492007958 -5.250216338017311 0  0.3536151025248628 -5.236906135663841 0  0.3195305537541326 -5.202512932497475 0  0.3697629394166029 -5.188349167423821 0  0.3313180640226214 -5.153396490538662 0  0.2842759211920978 -5.169755813499506 0  0.2956579113004576 -5.120262730880413 0  0.3425709941545669 -5.105916721030696 0  0.3067458753118402 -5.072314128555178 0  0.3535181710161179 -5.058066920395967 0  0.3176091718616956 -5.024750532350232 0  0.2712380188437713 -5.038885421247731 0  0.2819243703068306 -4.991534051823059 0  0.3283805219716207 -4.977182079102662 0  0.2924879591145952 -4.944066903432073 0  0.338867938055369 -4.929508214878674 0  0.3028342470025205 -4.896692116386923 0  0.2638505659236188 -5.921290409188456 0  0.2419714786763461 -8.196273263920475 0  0.269417229452662 -8.234323307348189 0  0.3161071252376324 -8.229574806726944 0  0.2968143860309489 -8.272593754050664 0  0.2500057483504872 -8.277603188314407 0  0.2772288832092435 -8.315376369124813 0  0.3242515376430788 -8.311000840469429 0  0.3042703735220993 -8.353829031284452 0  0.2576150994462605 -8.357997521832504 0  0.2843339631938733 -8.396316351725726 0  0.2569105481667791 -4.911206648716332 0  0.2671049727665427 -4.864083978967855 0  0.312953984879762 -4.849330504867247 0  0.2771500465947092 -4.816848113061289 0  0.3231555340996408 -4.801987248640451 0  0.2871903031299521 -4.76962147552834 0  0.3317490796424529 -4.756346342208907 0  0.2969843990270356 -4.722309041104163 0  0.3399984198070172 -4.71020666086034 0  0.3065712333407689 -4.674939939840395 0  0.2601247697986846 -4.687763443384561 0  0.270891254080059 -4.641742522380479 0  0.3169181979226945 -4.626861976245312 0  0.2807747312905597 -4.594407313979517 0  0.3267041833141029 -4.57919465324378 0  0.2904399815368901 -4.546787517623049 0  0.3365197793729351 -4.531492899357371 0  0.2999927259216939 -4.499160901035599 0  0.346227678267395 -4.483684241555039 0  0.3095599231143282 -4.451488163038063 0  0.2637658823299258 -4.466902324009336 0  0.2731886374423933 -4.419358042036777 0  0.2515283452836528 -8.078740944805661 0  0.2379559864078189 -8.400453986085335 0  0.2644859184043398 -8.438770769391592 0  0.3109701892344763 -8.43470448862319 0  0.2909763470382067 -8.476987849024164 0  0.2446383583930221 -8.480914733617979 0  0.2708957761940436 -8.519042871607384 0  0.3190018953680713 -4.403850375399425 0  0.2824466900098397 -4.371829699654534 0  0.2504921099234458 -5.310773955898943 0  0.2499161698563519 -5.485309092073702 0  0.2399803093307948 -4.783834482711242 0  0.2248656634532633 -8.522717345131227 0  0.2508918082298912 -8.560890071959527 0  0.5314239938140179 -4.797275680175869 0  7.064358014988882 -5.411155206937865 0  0.232639234315382 -1.877218675205694 0  0.2280409856591277 -4.435047530396915 0  0.21854421604802 -4.481452191393743 0  5.314069753265546 -5.507301529892782 0  0.660337552002856 -0.2809752967718406 0  0.6315676458117441 -0.2464894859493638 0  1.788621831965862 -7.70628250890246 0  0.4712832346712368 -9.178578767560188 0  0.3935898253891441 -1.940440683211202 0  0.4930854424208313 -9.769771054566689 0  0.4752460090733219 -9.805500181772663 0  0.5150708990773207 -9.803126151383417 0  8.222363773280588 -6.03618564446499 0  5.281827020988324 -5.954643278755906 0  0.2382179595760192 -5.532934687005547 0  6.247030219033384 -6.00796497021153 0  0.5862233620550548 -5.539281311142334 0  3.447959863123151 -6.703264916244265 0  3.001603697634492 -1.59359575382129 0  7.022920478837673 -5.946733582956809 0  0.3378507744691994 -8.47310434345405 0  0.7338092924943282 -6.829555419854383 0  1.10311285302785 -8.655019958760677 0  0.9912732760415821 -0.4979669230988399 0  3.326847596789307 -7.03243959224236 0  2.327859576611436 -1.245309587545612 0  2.382038023266082 -1.313942594603891 0  2.296056846912093 -1.326556624025695 0  2.349910424751336 -1.394981087301394 0  2.264216525303024 -1.407666902796195 0  2.317908761869951 -1.475633739044926 0  2.232696839441742 -1.488253168502495 0  2.286096486473488 -1.555817814251976 0  2.201219340135886 -1.567491516401725 0  2.253489254271578 -1.633552933789223 0  2.148602272043057 -1.501457220921912 0  2.336851547109159 -1.62549674921931 0  2.306545502640459 -1.702895373087064 0  2.391132544959117 -1.694208717159128 0  2.361365216817205 -1.77414677232717 0  2.452549541066645 -1.75940751610096 0  2.417440989974969 -1.844653800518132 0  2.510188403688073 -1.82917643931212 0  2.473771720666477 -1.916339457485818 0  2.563882657595142 -1.903226014701899 0  2.529898301910134 -1.989282245493885 0  2.628391432354913 -1.976555180268073 0  2.588766558491839 -2.063956936207455 0  2.683399100525367 -2.051288702587399 0  2.64638048230333 -2.138727961699578 0  2.74089044995336 -2.126416762546429 0  2.705849730992844 -2.215846348701342 0  2.802770133487309 -2.201279605424679 0  2.766627853985408 -2.293493831106471 0  2.863621455822226 -2.280195474143504 0  2.827892445813401 -2.372761034878049 0  2.928033590871667 -2.357918244542401 0  2.890584341326516 -2.45262857788616 0  2.992370180727894 -2.437626955207683 0  2.954263237466739 -2.534002542353312 0  3.057527008247344 -2.518760127129673 0  3.018755555742167 -2.616499375311152 0  3.123655814007378 -2.601158237437162 0  3.084316357781354 -2.700609583274309 0  3.190815382526473 -2.684903939681032 0  3.1508165125978 -2.785743553659455 0  3.258973522730898 -2.769946069012589 0  3.218438813040272 -2.872503198252609 0  3.327826540169777 -2.856074318091124 0  3.286936832723864 -2.960010237066848 0  3.394748702135585 -2.946918884147514 0  3.35625042913356 -3.049939732968852 0  2.117382519074649 -1.580023973495712 0  2.065607138381937 -1.514949750763471 0  2.327464808809564 -1.853728899126309 0  3.465565513513523 -3.036597809718202 0  3.426882670006348 -3.140846965038217 0  2.03556973187912 -1.591230734332801 0  1.985416009534019 -1.527853738463258 0  3.541781661992669 -3.124137897688681 0  3.499049824875332 -3.233209003072882 0  2.956011043039318 -2.263529138822287 0  3.227942460563213 -2.585860210663668 0  2.494625515114228 -2.076357225277881 0  2.770137167999099 -2.033738297614 0  1.955937928848648 -1.602899577407017 0  1.906004503658771 -1.541136720154449 0  2.005352230158541 -1.666104639094652 0  1.935073419789052 -1.466510604922338 0  1.857031954004757 -1.479769076168169 0  3.616140296999639 -3.215534152353329 0  3.572236757382822 -3.326719927211998 0  2.67339745378038 -2.303799623845427 0  1.885309108221199 -1.40667587731832 0  1.809524068237357 -1.418412528079243 0  1.837275820897267 -1.349192925437533 0  1.762339145929303 -1.359045923858229 0  1.788224262815069 -1.292495282254533 0  1.715344769688093 -1.301569450803282 0  1.688823487034096 -1.36953250126045 0  1.642557676232068 -1.312006357331644 0  1.669090515791623 -1.244625121837476 0  1.597970233373292 -1.25538691874836 0  3.248898486241838 -3.062099546798089 0  2.61076509774051 -1.813873115631644 0  2.857078506190149 -2.544385233482572 0  1.623308798228612 -1.189325361770111 0  1.553270707390489 -1.200288144533118 0  0.6756760903103611 -0.6064307520230852 0  2.199532268251421 -1.340592200879218 0  0.9437489213917356 -8.884414970557586 0  0.8975792571888412 -9.753840035692338 0  0.9460687876818081 -9.750617319957307 0  0.6897488732797434 -0.8295576214952955 0  4.060050159887103 -3.813119618293672 0  1.508912000294403 -4.925990920048095 0  0.6967195152961292 -6.783692273676154 0  0.6762369264822379 -6.83727745948868 0  0.6407059424405439 -6.793386723861223 0  1.592750626003335 -3.433220920251749 0  1.564610484109448 -3.503419410819828 0  1.518024763729027 -3.444979311150489 0  1.490244501362637 -3.514063906552761 0  1.536451888005351 -3.572494270750233 0  1.444761970566333 -3.455448283836161 0  1.412889304616057 -2.993373283492681 0  1.390158366191329 -3.06203553202737 0  1.346813571511737 -3.006120028777932 0  0.9095009196075772 -6.800438879044261 0  0.9480198080462934 -6.846890844198189 0  0.9704618683976687 -6.790174769295458 0  1.009736604413394 -6.837871754806701 0  1.032254018039412 -6.77984323515063 0  1.072429633300649 -6.829141864836628 0  1.095887120100993 -6.768444880141353 0  1.137013274457086 -6.819519083582386 0  1.160464430681611 -6.758304268821477 0  1.201736704406086 -6.810242932264629 0  1.118895845929394 -6.706696252102475 0  1.183981281510441 -6.695999034129943 0  1.143354621520443 -6.64500848579164 0  1.181075016522975 -6.869745875664051 0  1.244847376759495 -6.862342486317296 0  1.223534854524495 -6.922973428747353 0  1.286583079864666 -6.916507900565897 0  1.262280919320665 -6.980097680609425 0  1.331143838814272 -6.969165261514801 0  1.304963880820877 -7.035073903804491 0  1.37307914394006 -7.025594622138106 0  1.349101788207554 -7.090150639514013 0  1.419371127775475 -7.079301641329479 0  1.393686252950566 -7.145981582717811 0  1.308544560357898 -6.859547722068148 0  1.464803941805094 -7.134939912149529 0  1.438635050799906 -7.202467860540735 0  1.208328905226143 -6.633627040142596 0  1.167073416898575 -6.582135434946999 0  1.442393351083425 -7.009019291584069 0  1.232451414436298 -6.570364715636724 0  1.189163616685468 -6.518345439850739 0  1.510539265686372 -7.191340050504698 0  1.484066138158624 -7.259423377048315 0  1.412145049687755 -7.270511919877277 0  1.457024172406298 -7.326956494675937 0  1.124590923747942 -6.534364881531591 0  1.146119684833868 -6.467274918077174 0  1.210738621902051 -6.455927017721862 0  1.168253671714083 -6.403589576206668 0  1.385706083145044 -7.337895089179681 0  1.430019374288676 -7.393733708182038 0  1.277841408673288 -7.10350418105793 0  1.106264608211504 -6.41305219521595 0  1.127486366563058 -6.351051786346648 0  1.557306593520869 -7.248840599307425 0  1.584076668120726 -7.179037575205767 0  1.190328187848351 -6.340418953861131 0  1.147559087384035 -6.289084235988732 0  1.359373687291059 -7.404189225771954 0  1.403309520554131 -7.460465062203539 0  1.474280161568615 -7.450052090354283 0  1.447250488017325 -7.516632656996747 0  1.376584662537315 -7.526736800502758 0  1.420081418500514 -7.582807329190324 0  1.349998420959512 -7.592178373980812 0  1.393045953734603 -7.648015382003605 0  1.3236360202485 -7.657346685994074 0  1.366243614534797 -7.712757123701888 0  1.297432961773524 -7.721731791343254 0  1.315573892779579 -7.348901119279818 0  1.275639611064964 -6.623102149666861 0  1.087716583832151 -6.3004276417696 0  1.106307555205248 -6.237450942665213 0  1.169197756453803 -6.226236553663084 0  1.125531830748153 -6.175883067300337 0  1.062578667119849 -6.187350422081043 0  1.082195701654376 -6.126012879507583 0  1.146506602010831 -6.113311733289521 0  1.102693894182927 -6.063692349475084 0  1.167995162461969 -6.050185397252731 0  1.123621035942113 -6.000640139382501 0  1.062231980732653 -6.014915742024077 0  1.07949671417223 -5.951446500932034 0  1.144103427275679 -5.936668701076704 0  1.099482414094304 -5.888468722477815 0  1.03564477195202 -5.902131731714235 0  1.058606277395029 -5.841014813355946 0  1.119983682966978 -5.826035122924815 0  1.06943424306742 -5.773327420603646 0  1.631764062347761 -7.238096699630399 0  1.659047077714851 -7.166390701840347 0  1.189811324737889 -6.990000568181285 0  1.13865209152539 -5.762435962965855 0  1.094714534988245 -5.714411238692086 0  1.51899673948102 -7.506797254832341 0  1.255507652124525 -7.668550415214051 0  0.65575488742844 -9.29385689677552 0  27.84305701719053 -5.566172268910531 0  0.8090945056239374 -0.7634593543927606 0  0.6882209597213969 -8.032487084857658 0  0.8532930751022718 -6.653384070235152 0  1.294230541590876 -4.964514744944877 0  0.5834296996565769 -5.892894433448916 0  1.608872655701967 -5.757208042860098 0  0.7648464577706573 -7.032293989624502 0  0.7945250764359884 -9.096327463616056 0  0.5669301744912509 -0.6679449273197262 0  0.3378215146195398 -1.331853550901978 0  0.8298772755274655 -7.286584784778211 0  2.66781892340313 -6.319431303779385 0  6.281004653793113 -5.530882977802294 0  4.690188771453386 -5.611265095797932 0  1.237069166042955 -2.584284445720113 0  1.214207677379104 -2.648089724674201 0  1.248820801353983 -4.910861691284377 0  1.225267752608133 -4.976417384464196 0  1.180449471179855 -4.923975672041884 0  1.15770217909253 -4.988073915078675 0  1.114216566494227 -4.936761433565787 0  1.091683996989067 -4.999470147050841 0  1.048957007736981 -4.94923662285126 0  1.070505408069934 -4.88719983523964 0  1.026713065046954 -5.011349767245399 0  1.068845582048755 -5.061020132282459 0  1.006784657573567 -4.899545489114684 0  1.027928415860675 -4.838539846399319 0  1.004633791118534 -5.072144729204046 0  1.046187132666143 -5.121762987204545 0  0.9829354730968642 -5.132777280738659 0  1.023981748611661 -5.182389966017413 0  0.9679396502000586 -4.851567662270753 0  0.9864828347326302 -4.790182063458554 0  0.9501578902522763 -4.91546057735069 0  1.087826790117273 -5.171337006140766 0  1.065221287593694 -5.232565154123261 0  1.586859304925831 -7.996899934243751 0  1.012417959410325 -7.263577987157877 0  3.933879242589924 -6.982824526180748 0  4.062404370608682 -6.969778319568535 0  4.009365883761124 -7.08961584111793 0  4.139927801138533 -7.075550114062741 0  4.086065268306438 -7.196909240292096 0  4.218638037650557 -7.182738047994748 0  4.273733334334782 -7.066313999339244 0  4.353672104959081 -7.170581055709899 0  4.410203185250504 -7.050833997616532 0  4.491728212615305 -7.157944542009121 0  4.547393009836519 -7.020513192930812 0  4.163698278045583 -7.304112026631345 0  4.031940603291442 -7.317809604807082 0  4.626843586238834 -7.149471506496931 0  4.688575377110455 -7.002378036326832 0  4.5682320043051 -7.275478703684047 0  4.777993980492935 -7.152476889877743 0  4.837061603748426 -6.995954255156215 0  4.924244405263508 -7.113883150721175 0  4.986100268401898 -6.977446758913393 0  4.10639250175727 -7.423357288293373 0  3.97798312116231 -7.436705076181585 0  5.075948730922626 -7.096100485628396 0  5.138640283746721 -6.958858954745638 0  4.748024352735712 -6.862832686139674 0  4.051365313549963 -7.542009196329612 0  3.924671741754981 -7.5553196456193 0  5.230880531561359 -7.080511865465462 0  5.294771381575284 -6.940602430099467 0  5.389087852059532 -7.061833499461321 0  5.455660222597356 -6.925725090153281 0  5.551486172676299 -7.046400040689272 0  5.619855701730778 -6.905227819793922 0  3.998814905949294 -7.660361303329505 0  3.871901499447011 -7.671809131538001 0  3.798320499459434 -7.569119621138616 0  3.746597035073568 -7.683127822786651 0  3.674634845905038 -7.58343848185165 0  3.624098149116278 -7.694937067975993 0  3.553749554968391 -7.597040152636304 0  3.504371863728002 -7.705880331118288 0  3.434915623594129 -7.610128905098653 0  3.38715145481782 -7.717059027502078 0  3.320108327520767 -7.623030253597733 0  3.273328275267911 -7.727239255152233 0  3.207099636961107 -7.635406472627539 0  3.161305675552644 -7.737433750305724 0  3.097319727030259 -7.647649447623019 0  3.05262564635508 -7.747117357455032 0  2.989732211822997 -7.6604285721256 0  2.945442358556287 -7.757004587466271 0  2.883803816466756 -7.670942571754233 0  2.841800402348419 -7.766473000944695 0  2.781219351554304 -7.683122610018348 0  2.740059662580748 -7.775450649302091 0  3.004432678494517 -7.840358571150326 0  4.124555139561441 -7.641462106530874 0  5.203257046293105 -6.818968903542944 0  5.717426468126547 -7.037330544178756 0  5.786405233494758 -6.883190599594808 0  5.887492347690243 -7.020932057094225 0  5.958445614112691 -6.862800497525438 0  6.062371019051504 -7.004313083276296 0  6.135026854870294 -6.841627545009151 0  6.241470781784889 -6.989925382029186 0  6.315270177029179 -6.820952858098932 0  3.458228114457663 -7.813856888656668 0  6.424151161136848 -6.972899051013808 0  6.499623711810777 -6.799565714112562 0  2.681217479449044 -7.693575497296062 0  2.640191582014667 -7.784423296630619 0  2.697297810321313 -7.865347786843664 0  2.599694515912807 -7.874038568988634 0  2.655800647906281 -7.953887047597847 0  2.559213438212931 -7.962706575649866 0  2.503852504951771 -7.884236153420006 0  2.464576867143354 -7.970738017369484 0  2.721454411775358 -7.602097999100135 0  2.410157020401456 -7.894668818102812 0  2.371896934706008 -7.979060737620671 0  2.615149414620088 -8.040997801659735 0  2.712124976754151 -8.032920855326848 0  3.952704523797987 -7.776216295925894 0  6.611325672260328 -6.958555412725189 0  6.688346685842939 -6.778155442375374 0  3.031701297920961 -7.564759855786057 0  6.802690998149799 -6.940879032265262 0  6.882298328287899 -6.765757620359858 0  6.996768305220716 -6.906587420774054 0  7.078679976090042 -6.733420816558926 0  7.196163567323822 -6.87696103833477 0  3.250000149590381 -7.536437919583658 0  3.221544000375943 -7.82242165830432 0  3.694178367936559 -7.795697089901839 0  5.021384791785307 -7.249767064751424 0  2.617180551613966 -7.607101593942221 0  2.664894673740987 -7.518339997963292 0  5.685859994131455 -6.752703542258057 0  2.424895516604103 -8.054812715485205 0  2.333595623634913 -8.06257864309778 0  0.2989521018189514 -2.446056611748193 0  0.26039104641983 -2.417560857191622 0  0.2547439896945871 -2.464558238775068 0  1.012333390094032 -1.987750193155046 0  1.726362801558038 -3.834980000024814 0  1.695711458246461 -3.908085191818058 0  1.648085379719213 -3.846043905741876 0  1.617800552648724 -3.917954376806257 0  1.664922351731519 -3.979735003391461 0  1.57107146167105 -3.856418882311073 0  3.383544933493486 -3.248705276605591 0  0.7506661672165365 -1.190188031695146 0  0.7939345044933752 -7.239639423472614 0  0.771261033934465 -7.293504066276781 0  0.7359885692667731 -7.247752641927665 0  0.7142109126635603 -7.300797307812066 0  4.660715619941604 -5.995289148263076 0  1.926378956312135 -1.677348411607788 0  2.573674635765485 -7.099903831430471 0  5.096053016632602 -7.894158059931822 0  0.9358815533658031 -9.133106484299255 0  1.588156245158455 -3.989510183441356 0  1.634237053188979 -4.049222003401063 0  1.578502686001379 -1.134935216777277 0  1.510017604774118 -1.145282255038354 0  1.534762997706597 -1.081422609860302 0  1.467167003450474 -1.092542925593329 0  1.442754048504359 -1.155103343254044 0  1.400992435775477 -1.102973430056237 0  1.424787977200204 -1.041127029153885 0  1.359729851929085 -1.051483861928564 0  1.382717338889961 -0.9906774331249188 0  1.316901977781651 -1.002061544618662 0  1.341255400363256 -0.9412759759273621 0  1.022629467928573 -6.141750250165083 0  3.544974953376046 -1.507723384824142 0  3.659238611024261 -1.487260446333491 0  3.585902082243312 -1.398400937109018 0  3.701364656226174 -1.377987136775939 0  3.627601435003907 -1.286941256245099 0  3.743136201798981 -1.267820335422354 0  3.669280196293094 -1.176164908109694 0  3.786071264916083 -1.157392893479905 0  3.860562512843881 -1.244423370147408 0  3.903583456202551 -1.131406683648966 0  3.981949133401718 -1.225116823913205 0  4.025347263438135 -1.108997889019984 0  4.105592813071411 -1.204920362444266 0  4.151348204481421 -1.087951475801255 0  4.233022354685353 -1.194031124266623 0  4.279404356305596 -1.067487554763455 0  4.357873225075005 -1.178757854527386 0  3.71085738460769 -1.065843678967654 0  4.41026249209694 -1.050715024805573 0  4.495039001151907 -1.155207096580112 0  4.439999169356614 -1.286779061712357 0  4.580786652366491 -1.262998653127462 0  4.631578783070665 -1.132285597374875 0  4.719977032836455 -1.240567232168844 0  4.66855017828515 -1.372690123056024 0  4.809638855630087 -1.35079368220998 0  4.757074800551427 -1.48477952558115 0  4.900802899556801 -1.463220055832406 0  4.953336576245762 -1.327101883337368 0  5.046318967293578 -1.44180334999303 0  5.101446827294131 -1.302939335870289 0  5.19656278194145 -1.421619453450375 0  4.846918958283949 -1.598292916482471 0  5.252294178870089 -1.277576869491988 0  5.350193452335581 -1.39804020426465 0  5.29265432731246 -1.544429479280468 0  5.448167804697785 -1.513411975626992 0  5.507685117733569 -1.372535990139439 0  5.619747409938745 -1.512210691954264 0  5.67121825941282 -1.348947966116067 0  5.772205638676237 -1.474987257020091 0  5.833855183880315 -1.31910396620155 0  5.940256635897521 -1.451316561970066 0  6.003774455349619 -1.291184295993065 0  6.113302557324733 -1.427204749875791 0  5.393844171184295 -1.646863818022568 0  5.876978566153545 -1.610449067582414 0  4.067084385187263 -0.9761472702774903 0  6.178014844028507 -1.26231631521339 0  6.290028085399989 -1.402241161270883 0  3.594886839939013 -1.085806039630538 0  3.635978645898682 -0.976020644609199 0  3.521755200446794 -0.9957242230243448 0  3.562193870498168 -0.8875670224231333 0  3.4505188390222 -0.9056971572683059 0  6.356318001531989 -1.233916419160886 0  6.470997593415722 -1.376851513487438 0  5.15582861557248 -1.159708431405023 0  6.54028928271484 -1.211579690918936 0  6.657158308573049 -1.350664748818433 0  6.586562725885624 -1.525326918979467 0  6.775930955706839 -1.500265032449558 0  6.847190609218774 -1.319655919691921 0  6.969073195758448 -1.473730199023986 0  7.041586076426522 -1.28860698749301 0  7.166350336620802 -1.445940581122026 0  3.488482456050475 -0.8014317602613827 0  3.379547863101568 -0.8183374326100781 0  3.596335442548718 -0.7840145649101435 0  5.730437281654844 -1.190170101741438 0  7.24151755483955 -1.256705873748591 0  7.369078229232844 -1.418012499229334 0  7.446192674597413 -1.224155768396173 0  7.575352091456478 -1.388849996890859 0  4.703671935273155 -1.62020034337036 0  4.792924913239538 -1.7330126165222 0  3.416663689921355 -0.7163681760450604 0  3.309731942245488 -0.7332008410562647 0  3.271766576644733 -0.8346166699927107 0  3.204095685121196 -0.7505365310812362 0  7.653807748948514 -1.192821434862019 0  7.785934939799217 -1.346816059598724 0  6.703248832399925 -1.677688944684542 0  3.241434751036612 -0.651076040535246 0  3.137086526546188 -0.6682810148251193 0  6.242960995972417 -1.100020805861298 0  4.072358742378478 -1.326225812220366 0  7.869195579686599 -1.158205793665723 0  8.005543632410863 -1.316181949957077 0  4.650392825181225 -1.754728204986934 0  4.738848432328018 -1.866696128800812 0  8.090101762786777 -1.12051689640653 0  8.230204757252373 -1.296699709273234 0  7.502905514984754 -1.567372086770114 0  3.173638856853579 -0.5697492064865433 0  3.071301979041158 -0.5876582849394447 0  8.316123783412134 -1.086079505105229 0  8.456676804003818 -1.274159387451293 0  7.105289747812678 -1.09071446149719 0  3.407805146054875 -1.020265019771788 0  3.166318480113153 -0.8501933346824799 0  3.035315280046836 -0.6839136179511129 0  2.9754272587922 -0.6068163330484584 0  0.1987347914666753 -0.1951454781476105 0  1.748865679229111 -9.361960517904512 0  1.820675004389518 -9.356763553732916 0  1.789214590403828 -9.42275897585419 0  1.861555656593744 -9.416864061745205 0  1.83009919206776 -9.483221953603678 0  1.903110175375454 -9.477213344808233 0  1.935071223422685 -9.410425704503639 0  1.977662448050641 -9.471940527131739 0  2.010362645899907 -9.402201408094541 0  2.054044506898746 -9.466638671210452 0  2.087346236661251 -9.395079568568489 0  2.132043886115131 -9.461233530063435 0  2.165624422451774 -9.389948103943972 0  2.211818177703675 -9.456080343533083 0  2.246745052901378 -9.38305992058112 0  2.293680974695235 -9.450700432718293 0  2.329710194343084 -9.378098128419264 0  2.377410386687655 -9.445467342472465 0  2.413648252708121 -9.367747072473371 0  2.463399428454649 -9.439147617249768 0  2.501356962716699 -9.363648464339061 0  2.551700238818228 -9.433717729264909 0  2.590138074395458 -9.34924860963398 0  2.641875713447474 -9.426295545632041 0  2.681455671961483 -9.33976126132541 0  2.734555200060049 -9.419592705181611 0  2.775323689687339 -9.334039763264599 0  2.829595484108644 -9.412391449458799 0  2.871539678137864 -9.325986681010125 0  2.927128901804968 -9.405759492110997 0  2.970148769062401 -9.317241532953341 0  2.288690890796808 -9.314429598548966 0  3.027050630672106 -9.397665291927874 0  3.069937879281403 -9.30940792031638 0  3.129355299937419 -9.390705258527284 0  3.176233370211222 -9.301569058841336 0  2.538096936339358 -9.277922843165555 0  3.234784943700543 -9.382418814504483 0  3.284220273101692 -9.290434989621378 0  3.342895402045958 -9.374657289423009 0  3.391118623730007 -9.284952764922551 0  3.452436262997283 -9.371437476890311 0  3.507018289882192 -9.259074989408699 0  3.567426756645524 -9.362404917786924 0  3.617390746993211 -9.260104903907454 0  3.683351685390392 -9.360654090846875 0  3.733583774445734 -9.250542398388038 0  3.802141869233793 -9.353768324335906 0  3.852141654577428 -9.241281393965052 0  3.923735888578191 -9.344243098317232 0  3.97538990663586 -9.229611510189336 0  2.815335774501484 -9.246904695329942 0  4.048693146502051 -9.335456729153869 0  4.103558839184466 -9.220603685464235 0  1.871176264861759 -9.543234973574949 0  4.175870708316943 -9.322355344999076 0  4.233253745255494 -9.209208309999502 0  4.307932108987284 -9.314950865691628 0  1.798791997207335 -9.549023056671052 0  4.365574392218672 -9.193902350378455 0  4.442762625165964 -9.307223640067521 0  4.49704165650569 -9.184948854554882 0  4.579940407292321 -9.298632270769758 0  4.632133648751449 -9.147671552727516 0  4.719845389674848 -9.278395763586724 0  4.783768522771485 -9.154003578383218 0  4.865499114650154 -9.275512163404272 0  4.930090380156084 -9.142163643140243 0  2.175437199980921 -9.525802760484904 0  3.33311982592657 -9.188325577516625 0  5.013996530303183 -9.259962777544716 0  5.079816300350814 -9.128168566798299 0  5.165230242680808 -9.255069219084794 0  5.232917360397215 -9.115482660417484 0  5.321259936792746 -9.244496574530258 0  5.389860586666103 -9.10172629124094 0  5.48082740924904 -9.236956760674531 0  5.550493028663379 -9.090397877433473 0  2.422246556362769 -9.510507860765642 0  1.839380689004912 -9.608882360340305 0  1.768276728308946 -9.612872593848039 0  5.643656400024842 -9.226911415204214 0  5.713619706182833 -9.073851759468226 0  5.80915283797931 -9.218205581158127 0  5.882951909365724 -9.062667458801954 0  5.978635226249081 -9.211164029258102 0  6.055620968895763 -9.051220998091706 0  6.153996623579738 -9.190456232931492 0  6.231091623997392 -9.027852203606994 0  6.334668990004046 -9.181181033601797 0  6.413768596012714 -9.018913698716149 0  6.518873610126473 -9.170461494149261 0  6.598727189958659 -8.995901130019037 0  6.705249087433968 -9.150402576899349 0  6.788207967013701 -8.978259300019252 0  2.798946234373904 -9.498070293789677 0  6.899140941409708 -9.137649741940713 0  6.983972697475611 -8.953710190193352 0  5.476345627856293 -8.954521634059477 0  3.665049273732349 -9.152317631559043 0  7.096485878773712 -9.123510190358138 0  7.18406863755874 -8.934551203212866 0  7.299129175959814 -9.110332797861689 0  7.388145380747772 -8.912905063391104 0  0.4626877041391531 -0.9078874123820544 0  0.502099717429358 -0.9356432296103847 0  0.2308071277801353 -0.7953951427753196 0  0.2275378474526146 -0.8415481313192492 0  0.3880352652126504 -0.8082823679685394 0  3.355330193712396 -6.172235879711049 0  0.9814042139562815 -9.484575905306853 0  1.093284220043557 -8.923960483478217 0  2.278531688538827 -5.907887651207279 0  0.2361703822265291 -5.00607930661225 0  0.2254870898854051 -5.052470097337642 0  2.196420599099351 -7.517397478267164 0  0.3462417102406494 -2.757898162810526 0  0.3399195312624066 -2.807012374377084 0  0.3009946281915745 -2.777312814310834 0  0.2944801519119249 -2.825191592709145 0  0.2565006368978437 -2.795785935048203 0  0.2500939159753521 -2.843354284727891 0  0.2626919421011955 -2.748507852859261 0  0.7354875578201678 -2.478163597935812 0  0.7289712158936421 -2.535142411829116 0  0.4082919032194177 -3.259767143056393 0  0.4002887351843949 -3.310881606623807 0  0.3609310917972532 -3.278312598129081 0  0.353222164380675 -3.328445110830814 0  0.3148956502991673 -3.296498528339042 0  0.3070520246082822 -3.344802356167294 0  0.2696197270178295 -3.313892766986419 0  0.2769610228448975 -3.266327049307395 0  0.2618709755633795 -3.361621340483578 0  0.298731986153296 -3.392278288378678 0  0.2539971706584616 -3.409112830645332 0  0.290763968568454 -3.439448818179128 0  0.2461399778019704 -3.455998908126777 0  0.232454402160716 -3.283643235414577 0  0.2395467815133756 -3.237002110903722 0  0.2827803432649798 -3.486426242119795 0  0.2382949278938646 -3.502915464748796 0  0.2748123761750314 -3.533274483142234 0  0.2331138300020736 -3.550279998090599 0  0.2667925967964155 -3.58003557429708 0  0.2257782780673203 -3.59726528403996 0  0.2590434464838065 -3.626620677886003 0  0.2154640743691303 -3.643381187122498 0  0.2511634092041213 -3.673029349556884 0  0.2068343190997908 -3.689623286082557 0  0.2431209828230898 -3.719234988896905 0  0.198505451379738 -3.736650706254388 0  0.2349622702666814 -3.766018192600714 0  0.2795646455777909 -3.749204828039623 0  0.2714447755268079 -3.795897324410217 0  0.2269362512645028 -3.811985944478396 0  0.2632030620653634 -3.842434408950302 0  0.2189047812467777 -3.858402411204621 0  0.2549773085923999 -3.889041011814109 0  0.2997980389889037 -3.87292657424149 0  0.2912007849894422 -3.91997466783758 0  0.2460576216781565 -3.935939301328894 0  0.2824059016353573 -3.966960982412286 0  0.2375627135922223 -3.982718936653631 0  0.273618833750545 -4.01373813447668 0  0.2289600695125866 -4.029430973512497 0  0.2648415893073164 -4.060369147562528 0  0.2202913027799944 -4.076030448488364 0  0.2561745056139948 -4.106992900884892 0  0.3012066968516489 -4.091031972333321 0  0.2941386193058619 -4.1363180678363 0  0.2515988804180047 -4.161461917663063 0  0.8213951361393068 -2.827900567193076 0  0.8097428096153791 -2.886081939260291 0  0.7656131633606655 -2.847314286407667 0  0.7539412594436641 -2.904100338634335 0  12.70044423604181 -5.956160924590274 0  1.046957414668592 -0.345953600368615 0  1.463732553379629 -9.268218210474508 0  1.399638941885589 -9.27437704667329 0  1.426033127500052 -9.215586553003074 0  1.361968863253971 -9.221342851011544 0  1.388549492818985 -9.16324488426557 0  1.325043317101432 -9.169570507799483 0  1.351275922942378 -9.111293004163151 0  1.298697173122257 -9.2266773575403 0  1.913174703767872 -2.108278133188584 0  13.30180851453042 -3.315813617357134 0  13.51734252203863 -3.605126642571773 0  13.15969160262695 -3.645545339114581 0  1.266069160143577 -8.695809076690804 0  1.300389487658505 -2.211409697113009 0  0.5625945946189539 -9.384891747946991 0  1.607753783878101 -2.829966900693147 0  0.7866010151315113 -0.9533846757309936 0  0.9368252714515535 -3.297632185062223 0  0.9224898257532779 -3.358376070915094 0  0.8778408197734944 -3.316001667220462 0  0.8636140255900457 -3.375142916781399 0  0.8200103192366068 -3.333610590343255 0  0.833163189525493 -3.275429250996059 0  0.8061536422275957 -3.391910418900588 0  0.5432708424096688 -1.825392966213932 0  0.8492281872937095 -3.433331623370332 0  2.879950267204977 -1.165881207451982 0  1.262586734061307 -9.176126398705685 0  1.236766827264535 -9.23173008967898 0  3.08392652201624 -6.290478957009844 0  2.984076227629705 -2.712072109059132 0  1.802915539663179 -3.262128799331476 0  4.553763642403988 -2.901364791317601 0  7.507862445046462 -9.092465460631679 0  7.598832149021059 -8.906121424371173 0  1.025773035108406 -0.5408592553029203 0  0.9718937241867049 -0.5487148339577104 0  1.006120822018181 -0.591410573177626 0  4.00642272284294 -2.058953332956353 0  0.269312478764574 -5.745776054353573 0  0.2350279087302614 -4.609131261193013 0  1.448260860913908 -8.451114587344865 0  1.20072248146055 -4.484528301676617 0  1.1797666422297 -4.549371520878731 0  1.134498963062075 -4.498926031962564 0  2.0908494504408 -0.8419717655817252 0  2.039387395751843 -0.7816387893428471 0  2.117573830120534 -0.7677910144339712 0  2.065740894178024 -0.7061939906350103 0  2.144846042105911 -0.6931067186876421 0  2.093691177657462 -0.6322020755482303 0  2.17231612624775 -0.6182871829423577 0  2.121137972805087 -0.5570900519827475 0  2.203346697109735 -0.5398287272960243 0  2.25316053284377 -0.6045073826488654 0  2.28442769562816 -0.5227866481300101 0  2.335285254925877 -0.5908510425438127 0  2.365498592325597 -0.5076750311454887 0  2.418645950902214 -0.5766258115330958 0  2.447306869504148 -0.497070893155982 0  2.151838818981616 -0.4782414274228266 0  2.503627427961092 -0.563223817491588 0  2.533759110400053 -0.4801657489572415 0  2.070101447938104 -0.4954060085026235 0  2.098098857234469 -0.4195548884487863 0  2.178868904335996 -0.3929229639320226 0  0.2768939646446054 -6.182114795475062 0  0.2624718556985925 -6.228552041413484 0  0.230322964826021 -6.193304437852305 0  0.2103121711111733 -6.247234984591167 0  1.911842293825275 -9.603706566446711 0  0.2845027950995558 -6.442434248906368 0  0.2696183639421825 -6.489122345044106 0  0.2376819716667598 -6.45286369237148 0  0.2229164050622643 -6.498116313767453 0  1.171259788625306 -2.597233534527903 0  0.6246490802297409 -6.088734332560224 0  0.607036511580759 -6.144482381365908 0  3.277741654052456 -0.5516489003305711 0  1.692604312433652 -1.178013469679748 0  2.020487423957469 -3.86726916816491 0  0.6463414632030258 -6.334867581692468 0  0.6278790363489346 -6.388300821826209 0  0.2878764833543066 -6.703171005077744 0  0.2719387971820417 -6.749686556974169 0  0.240531194008879 -6.713800332065848 0  0.2251081881816965 -6.75826210504892 0  0.7985335903053361 -5.33246160806643 0  0.8398512774025519 -5.374702537706353 0  1.784450860321954 -8.045121477400833 0  1.3005992942287 -9.604399533182267 0  1.274304641911185 -9.656351300280839 0  1.332833553929067 -9.652790887395035 0  0.3516249909805804 -8.349550151375325 0  1.339983867944653 -5.531826351605103 0  0.327077732289963 -7.090428043416074 0  0.3117428785600733 -7.136306602747613 0  0.2809576631285005 -7.098970000763622 0  0.2642585198187941 -7.143427136706236 0  0.2345374416998354 -7.106203984704161 0  0.2505589356509841 -7.062759413140714 0  0.2176387109362494 -7.150217356654757 0  0.2468379540917791 -7.187110754459168 0  4.324119086593505 -0.9411099048112499 0  1.415439680839487 -9.104833438789324 0  1.377643940033096 -9.051997680879214 0  1.698114052083154 -6.078113708727791 0  1.936134737188933 -6.405419615164028 0  0.5406648864769821 -7.50672095800683 0  10.20648517416655 -7.44192645383207 0  1.814951912461286 -4.965709840019028 0  2.034520935128453 -7.679741381387776 0  1.300094995650234 -6.558535112945612 0  1.344409973755404 -6.612435064541714 0  1.369373605617724 -6.546220662881678 0  1.414732936036895 -6.601507089832488 0  13.87788224391597 -3.561961941496055 0  2.305088431067357 -7.276784753217014 0  5.388330464277338 -2.873471723007267 0  6.076518248926497 -2.761180841845913 0  0.4487099251806619 -8.710919463200444 0  6.789488838988193 -2.635539169820938 0  1.820999010540268 -5.480395018011555 0  11.32154564663182 -2.104040011035988 0  13.16157250281217 -2.085061332458186 0  15.2502011340973 -2.081204497038911 0  1.11949098272061 -1.852684685822084 0  9.52149361511349 -7.302360664833048 0  1.97550316955628 -1.740451972125725 0  0.3788468841017867 -8.976308639433354 0  0.3591570927480703 -9.019548923328687 0  0.3317994984551227 -8.980807621017016 0  0.312108475927829 -9.023329707540704 0  0.2854043201823693 -8.985384511205158 0  0.2659447491208393 -9.027206512846865 0  0.2394435518433156 -8.989892976043917 0  0.258557061353045 -8.948172861357284 0  0.2206252557548787 -9.031467138301053 0  0.2465866794186926 -9.068565997460137 0  0.2132608913010898 -8.952874455050182 0  0.2319098743541552 -8.911545047167216 0  0.1940893009851337 -9.719470594159153 0  0.2157152539639284 -9.751882822966852 0  0.1770023544727835 -9.754978869323081 0  0.1977884327744164 -9.785719273145537 0  0.2366830149897048 -9.783551634156471 0  0.2208449941462067 -9.817807886643843 0  0.2578006443425362 -9.814649946529348 0  2.388236357459752 -0.6540838281284085 0  0.6851903849307046 -4.096106544894114 0  0.7277437137070919 -4.133085133203776 0  0.739283973731407 -4.077416237036006 0  0.782537022474024 -4.114672407166344 0  0.7946086353635007 -4.058432921556654 0  0.8384571854880782 -4.097143880279262 0  0.8268903357690682 -4.154422716416517 0  0.8504867237862364 -4.038993349068288 0  0.8060572233988346 -4.000324445263851 0  0.8621276944708995 -3.980380998969486 0  0.8172390849966717 -3.940935442415172 0  0.8832580305110866 -4.136728241242588 0  0.871720009505129 -4.196009149238048 0  0.8737865988282554 -3.921532060373979 0  0.8286834350018246 -3.881835155958949 0  0.9289549409590698 -4.176935788163384 0  0.9151423531569236 -4.239583772534306 0  14.54363472736183 -7.497039324188503 0  14.7697154821073 -7.838673362769133 0  4.679029380984129 -8.202955785885175 0  0.729427190155544 -4.586986181396244 0  0.771777970989401 -4.625324057679374 0  0.7850200678292651 -4.569465995795588 0  0.8275768021240602 -4.609022935710021 0  0.8418396712975049 -4.551678427523333 0  0.8855360157241527 -4.59224456911225 0  0.8984293108937536 -4.533097236285056 0  0.8550018499083336 -4.492630642740185 0  0.9118709803025595 -4.473639830535524 0  2.477787587271818 -8.720590669852989 0  2.604739622087399 -9.509332369292514 0  0.7110087167578634 -2.865640627004399 0  0.7219347568645915 -2.809436089600374 0  0.7951482342393721 -2.08234528865128 0  4.261917879073074 -6.277356018868931 0  2.994620617139207 -9.483029324786894 0  3.524795406336699 -8.360625842372661 0  3.013417182748208 -0.5012049349525576 0  0.9932399831210628 -2.768673033850917 0  2.227669505461915 -4.775044682021849 0  0.8962588759767449 -2.417517694724427 0  0.9062397125854087 -2.35894615738372 0  3.08512805980782 -8.414972685459871 0  2.691391440237055 -8.463966831981292 0  2.860973270428886 -8.711963335648344 0  2.725637761989628 -6.402284986692247 0  2.625250500098522 -6.410843571373455 0  0.7993491245178141 -5.691577878128724 0  1.250805202814952 -1.991915277941633 0  0.3716540282913101 -8.306330312948772 0  0.5537408537669677 -3.203019811769718 0  0.5746263695013099 -3.337749530818281 0  3.278194418656581 -8.671741009448477 0  0.181225187516084 -0.2284620983321837 0  3.47858628366463 -7.508289158947876 0  0.6099255361331828 -3.7231130354594 0  0.21344587502373 -9.498028773347819 0  0.2315905172268948 -9.458797379822991 0  1.118772122855979 -3.242050143802494 0  3.012137739070972 -9.230228981837818 0  0.6820634004022246 -4.348735744094106 0  1.228237524346817 -7.726949655240999 0  0.3624757416461755 -4.611323709411861 0  1.438624980260206 -2.362635434615631 0  0.3752264722849432 -4.962503548727236 0  11.45780659328326 -3.179991729952979 0  11.64552260153528 -3.431931185354416 0  11.33409328406909 -3.470548447278746 0  11.52080716965602 -3.719682176314416 0  11.21228763169253 -3.756895526130525 0  0.3900698887438576 -5.091863677866893 0  3.446302941115389 -2.850081221240305 0  0.3852478295086925 -5.272328132615682 0  0.7327587290737654 -4.993484774531431 0  1.064402299865538 -7.418341128462684 0  0.4126088915282491 -5.705062968136172 0  0.4255899772330771 -6.27995638941741 0  1.40688266676811 -4.43979127239535 0  1.428702243920347 -4.371211296447349 0  1.477768538787444 -4.424814074465499 0  1.500100710356367 -4.354676052941629 0  1.550205664474817 -4.409597070414239 0  1.573149818409602 -4.33793770008426 0  1.624211480456587 -4.394085975042423 0  1.600349239839289 -4.466616110112726 0  1.647647604068087 -4.320914062682584 0  1.699779969085235 -4.378273544036368 0  0.4323626215329437 -6.543940680170724 0  1.554691759432647 -5.178675371830655 0  0.8160580750051274 -6.302061664842441 0  0.4337508819783906 -6.676198246623875 0  0.4789549271129143 -7.067071167629337 0  0.4973648831531996 -7.018831896124701 0  0.5303477637105658 -7.059357322254755 0  1.979491768886234 -3.585402223402792 0  2.01025485029626 -3.507015083913138 0  2.062749375048751 -3.573629881924216 0  2.094236196428724 -3.493669351240676 0  2.147816638498508 -3.561786606859192 0  2.179717717474301 -3.481135393134191 0  2.125262888310424 -3.412826733187426 0  2.23463046332715 -3.549810962481005 0  1.183862895683959 -5.81070509822331 0  1.21228959574661 -6.100483757755329 0  6.361940617203139 -4.518094340458394 0  14.93070075063333 -7.486819397076933 0  15.16428062794503 -7.812462895735323 0  15.35060793826394 -7.394559767989439 0  15.57010983878703 -7.772562218859767 0  0.8153313500901458 -6.454556538761462 0  5.509202753617309 -4.595435343301146 0  4.849369436615676 -4.651496865760132 0  6.514889792111639 -1.702750984271871 0  5.670992328108447 -3.261753930929144 0  7.326260961776195 -4.421144237305952 0  6.379384476635003 -3.181205422639485 0  1.462829689418935 -3.58164281769047 0  1.306902972290485 -9.704947048220571 0  1.365691653307746 -9.701665695296223 0  1.248397105346726 -9.70756057022022 0  0.3183572146118259 -3.997559475648808 0  3.432583980073304 -5.765370076620306 0  3.364200967650696 -5.67094694687947 0  1.494055228866777 -1.594987832584811 0  3.452030872903784 -5.96567442311795 0  1.707619908129885 -7.226840497783837 0  1.735792180905324 -7.154380552513762 0  1.686314732721328 -7.093738333477201 0  7.089790690192221 -1.63272445915015 0  7.848534235813186 -7.529856915535538 0  0.5865533585915568 -8.828168298409535 0  4.456965293971331 -0.9241016213613626 0  4.370434524106365 -0.818195834849571 0  4.504388531096662 -0.7983275806095484 0  4.418561397212358 -0.6950812907757999 0  4.552232096046431 -0.6723482228032607 0  4.285271074817228 -0.7144620651430449 0  7.589239765951911 -2.485753229179364 0  7.695298487064334 -5.325123754378738 0  0.6653903894497226 -8.558733604014973 0  0.6794269651130733 -7.255446085790759 0  0.2016148884301217 -0.6811873260702255 0  2.404102000237845 -1.463343829238425 0  0.8303519037362328 -8.060459715282956 0  1.076800816968014 -1.009996763348999 0  1.097622020431634 -0.9562177053954661 0  3.093732522782958 -2.422595809119167 0  7.721259072579853 -9.078131294651609 0  7.816395605353825 -8.896566776269303 0  7.939098902895689 -9.067179816880257 0  3.584960016672031 -3.005262754736217 0  11.81584628052672 -3.717220953991248 0  2.020976812542628 -0.4360806327668536 0  2.122245917119228 -9.323461874968661 0  1.939664040566569 -8.481928203129982 0  4.130936543051064 -8.286972472585621 0  0.3281760978191492 -4.356234677544366 0  1.002230730303109 -7.691424480935408 0  8.036755914625555 -8.874506534395953 0  8.164181832411346 -9.049304786048967 0  8.276343803108279 -8.818759001603267 0  2.391597414774123 -0.4315057507134741 0  1.678786200879816 -7.297162457849868 0  0.8033887545748541 -2.026005713307208 0  0.2757538752369921 -9.455955675950971 0  0.2499989455994438 -9.419554727167229 0  0.2065092837287992 -9.423324020982982 0  0.2247966413437332 -9.383837362224005 0  0.7416483404526435 -8.270033674086626 0  9.765584237634283 -3.929026101876063 0  9.929053593943209 -4.142815382180693 0  0.2970037394559544 -8.557204970803122 0  0.2768617465389731 -8.598955124268924 0  0.230903827028591 -8.602493282676797 0  0.2566476119509886 -8.640478391855236 0  0.2121664343267877 -8.642872876231012 0  0.2367894683056999 -8.681491842349425 0  3.691360515768464 -3.308907261525175 0  3.646533796579847 -3.420496028291829 0  3.527784028953787 -3.437884432150249 0  3.601118725580783 -3.532954744326616 0  4.883172207430203 -1.846880032381976 0  4.828470675684798 -1.982464740986994 0  4.974457151507067 -1.962462261947367 0  4.91791579195022 -2.101615765778646 0  5.06735346634334 -2.079357926623606 0  5.009703667881354 -2.221353322560707 0  5.162146806261308 -2.19818469323124 0  4.771409933804909 -2.119458178361645 0  1.462988733600659 -7.638739087993132 0  5.327603001032095 -7.210520778930794 0  2.110989561531362 -5.380589894566157 0  4.326479590793795 -4.711525489917102 0  1.066092412784513 -8.294696920488327 0  1.004523469756142 -8.30042150756436 0  6.761781070420604 -3.939437061881566 0  0.6911075059468708 -1.763440004617886 0  0.6977446616626573 -1.70960942971629 0  17.66322479623701 -2.091548778091269 0  17.94495154701763 -2.461210256321511 0  0.1990384714581186 -9.61532439978666 0  0.182432495210481 -9.819912491712383 0  0.5708213225840097 -7.778130999625581 0  3.181910715623957 -9.479967518414746 0  2.59084843470289 -0.5486663710014987 0  2.621485976037517 -0.464624684349686 0  26.106138988377 -7.185920040659072 0  25.51510397400082 -7.293851537735847 0  0.2115078993909094 -8.36242589799879 0  0.4037752910207253 -5.39959233658674 0  0.2190454337165448 -2.766736388519602 0  0.2251157547401696 -2.719874198785054 0  4.639660611377028 -0.7754613455614603 0  4.689046371183911 -0.6471759263102888 0  1.10258573961606 -7.468837804727846 0  13.13654561124214 -8.294985833612316 0  0.9156240230876946 -1.632121177357124 0  0.9697459295318946 -1.619437394048818 0  1.500148457592132 -0.2880209483807628 0  1.438107773093261 -0.2987257852038931 0  0.3384287416069949 -4.121806010491371 0  17.75959143514165 -2.894525679453275 0  18.22864738722323 -2.83686530484043 0  18.41654641306828 -2.39899258954772 0  18.70661136823728 -2.780314603034519 0  18.90070544264616 -2.332526059209076 0  19.19718744636908 -2.726045603749133 0  19.39520989426273 -2.267113791739615 0  19.69992805434203 -2.6740166485021 0  2.317885879965974 -7.903582560321414 0  0.639417704467979 -2.143500979376538 0  0.2692419910916062 -9.380223927070283 0  0.2435043639152834 -9.344116750784551 0  11.05567928418801 -6.069640676322924 0  2.211396883339047 -3.399735361118251 0  2.156410576586328 -3.331569685019815 0  9.266020353820302 -5.263647712014967 0  0.2859482992460727 -0.5971603117555366 0  0.2495602461419857 -0.5723278728172927 0  0.3226923267247663 -0.6222757019491656 0  0.6227508395393215 -1.542763549896846 0  6.630306760883487 -1.854455009651655 0  6.442984081595363 -1.880702056458878 0  1.313511926450031 -9.059658992304069 0  27.94198202788007 -6.453817497476647 0  27.74068247759665 -6.927675661002867 0  0.9222253277358767 -4.806600148190302 0  8.099747276002592 -1.530040480703313 0  2.201780671099966 -3.631531728740939 0  2.289848309706022 -3.619650472780404 0  1.448058624730612 -0.9809875598505871 0  0.9076191504231321 -4.019878214019473 0  3.248978180281554 -5.683013671412969 0  3.295727301759303 -5.577698457593025 0  5.977257869770272 -8.917173436882022 0  8.54698962698534 -1.050215058824566 0  8.692271353403797 -1.244962422646562 0  0.5053307024333442 -2.548683389164525 0  0.5117315708410199 -2.497376408009798 0  1.39165425465217 -9.648262045531721 0  1.425293118640161 -9.698093614039131 0  1.452555005562107 -9.644010076291432 0  1.486892536875384 -9.694869591982176 0  0.2102970980775005 -3.423721618789942 0  0.864704317147627 -9.279147394315221 0  0.9252208134177486 -9.274031487101766 0  0.9525856076538126 -0.5998778471472423 0  0.6330135352957367 -2.198093019461987 0  1.441075476269308 -9.044931987856071 0  1.404081864443359 -8.991928736608994 0  1.468431880102457 -8.9847841127871 0  1.431088292990635 -8.931099731745714 0  1.495658454273757 -8.923527321865439 0  1.458450938193717 -8.86938770592295 0  0.6476157554395954 -0.2049055330435721 0  0.6045635865012606 -0.2126365437617928 0  0.2147890375440937 -8.157736380074658 0  0.2100970960803785 -0.5911691316116636 0  0.2136512404172084 -0.5475250158207761 0  0.2196176923558237 -4.878801688189673 0  0.2147416468582755 -1.614640277522755 0  0.3998119089113086 -8.345539661976799 0  1.73756710695511 -0.2988701754188678 0  8.3966444757794 -9.031704591655043 0  0.7460141219464695 -5.141935007082247 0  0.2003795067336043 -7.193916102830309 0  0.2293551409018946 -7.230447588362821 0  1.133852508455856 -3.180279556868886 0  1.181707999191977 -3.223990591724884 0  8.500156913193585 -8.825894963533287 0  8.630753625185511 -9.011535276558217 0  2.385296740319649 -8.136994226144337 0  2.29513230711674 -8.14472275901168 0  2.244121764816171 -8.069345645681217 0  2.206732697782583 -8.151508090836611 0  0.2017461688099473 -9.072447394611022 0  0.2278867133065852 -9.109007985095504 0  3.307087085961722 -6.277425631001496 0  4.597302208431461 -1.886307400179837 0  4.509982867139296 -1.776278050034166 0  4.440789274651758 -6.927363267837842 0  0.3822843360393833 -4.516072017638464 0  0.3927236589810477 -5.934121313897672 0  0.5825662973372712 -5.185201710395542 0  0.7487209702817434 -7.346526972148165 0  4.017771391699958 -9.120153460294958 0  0.885611791249735 -3.862418624248554 0  0.8402181594612781 -3.822722065192248 0  8.374785916615306 -3.914597228829661 0  1.879717276455416 -9.669229381133839 0  1.952932482280538 -9.664430800416518 0  2.701893527099951 -4.305362765104045 0  2.640737287138265 -4.226889651938327 0  0.2742467851368247 -9.780971445443598 0  0.5512686606327346 -7.008163067081725 0  3.397666835488678 -9.47303938608794 0  4.778174689718877 -0.7556750973942314 0  0.4277778022627743 -6.416295892793736 0  0.9525408884102475 -2.397411948239795 0  2.155625673852173 -8.079841130914529 0  2.119711252112502 -8.15801680595917 0  1.764071173200925 -7.081141011533195 0  1.714443485761073 -7.02163880236747 0  0.2124260511305742 -0.1603569439895018 0  1.909613683936083 -1.339056451905227 0  0.2170794601101811 -2.436339291735811 0  0.2115182076576456 -2.483045443831013 0  0.222433654074262 -2.389917406264759 0  0.3654260375653635 -4.38827761403871 0  2.467419075231566 -1.670599831794026 0  0.1996215586900014 -9.348212346173042 0  0.2176954220535521 -9.308445826682053 0  0.263792625079871 -9.304178586913212 0  8.84527710072086 -3.84397085569749 0  0.8613544312570607 -0.2041774869729274 0  1.339650678341012 -7.776882478528465 0  0.2528136467725712 -0.5288593020844266 0  0.2173352294928961 -0.5043382676203301 0  3.113179538333092 -2.88431337969652 0  2.998824067923479 -4.524066466613408 0  0.7932564505971111 -6.050882578244259 0  0.8111944232711306 -5.994907007742645 0  2.081532465544278 -5.086416292950626 0  1.270732868686414 -1.929685433998138 0  7.513376097717531 -1.025340818506995 0  1.439661533989366 -6.536442589973932 0  1.486374605775552 -6.590640755187753 0  1.394601104206345 -6.487296575277297 0  1.460329832741422 -6.658582127654553 0  1.533296555114701 -6.647516586908114 0  1.506501294180374 -6.717424670867225 0  1.58062563573414 -6.705543916881197 0  2.256404332637683 -3.703070046473798 0  2.346057255468271 -3.690580938076589 0  2.311668561177882 -3.776174862717032 0  2.401773084375943 -3.763593416458034 0  2.367708972091616 -3.850103615751111 0  2.4592969033905 -3.836841202662422 0  2.35593651195968 -7.820455559586035 0  0.1835896401793953 -9.115001585732733 0  15.3964920930983 -8.148902799592078 0  15.81111402574507 -8.111959355973893 0  15.98956174190038 -7.741014210483034 0  16.23416234928407 -8.079843207919577 0  16.4132439871747 -7.688750181106094 0  16.66410818273925 -8.043337316895624 0  16.85194655362577 -7.644181091492746 0  17.1102828227792 -8.007293671484355 0  17.29998660886513 -7.600334135685785 0  17.56566770351465 -7.968456558158422 0  17.76023001244385 -7.554595325653972 0  18.03238731987793 -7.931436233003812 0  18.23444356203199 -7.511851355506423 0  18.51066162831312 -7.892058902987701 0  14.21947759792527 -8.222281565420651 0  1.113551207878093 -4.562580149824627 0  4.828677063731082 -0.6223171500850828 0  18.71897982120433 -7.476577810406861 0  19.0003950285905 -7.855470770672572 0  19.20882230309506 -7.411290195954419 0  19.50036984579248 -7.810724896260698 0  19.71882421862323 -7.379490440152547 0  20.01341195858525 -7.772649001739678 0  1.234267739704341 -6.03619234764847 0  2.045114313334871 -0.3646890800802041 0  0.9090788768681506 -0.1953441929871769 0  0.2051104251569242 -7.069521306382081 0  0.2212965344224038 -7.026282415576789 0  11.39712086732355 -4.004625190624377 0  11.08819529668233 -4.034998064548814 0  1.461055976195944 -2.296374687559093 0  1.508004214714203 -2.349791508107748 0  0.6164427918175175 -0.2877037321258182 0  0.6440660263846993 -0.3227737763750067 0  1.219879462439989 -1.524594317768711 0  1.781394855592362 -1.491206438519186 0  0.9867518933730857 -0.6422880176363215 0  1.040332145336656 -0.6341749077783296 0  0.3311813950857623 -4.167887067657288 0  19.90043706700222 -2.203122055423004 0  20.21160837041101 -2.617749221899591 0  0.3895253190514829 -7.754424497871033 0  0.3403872369036502 -7.75974281777187 0  0.204349459291274 -5.499925065418791 0  0.1927103752258716 -5.544980103717168 0  0.2488380418254827 -2.510919917619618 0  0.2059485586853782 -2.529178618664926 0  0.1960535434571149 -8.201740004266423 0  0.3325000869044157 -1.378678069704216 0  0.2942928755652012 -1.351596719128437 0  6.531425613944691 -7.123965956169064 0  0.2042803051600171 -9.850558141066427 0  0.1688025221462333 -9.853714621648036 0  7.279573107171293 -6.696607791543562 0  7.402140226728902 -6.864939247681823 0  1.5204640040195 -4.288897777195536 0  1.523944111473739 -8.861725443646502 0  0.7920719444504272 -3.449893298677911 0  0.8347763376926345 -3.491100255829814 0  0.2950218042470141 -9.811955806695323 0  3.114249541038543 -1.300331789220759 0  2.934864991868652 -0.699373592676249 0  3.627406711193085 -9.443506524554362 0  8.2860680909357 -5.442643243693542 0  1.513815987703623 -9.639391656315876 0  1.549700847960226 -9.691123712080167 0  1.993902579791396 -0.5083510808101659 0  0.8399597542432513 -5.734084511828293 0  0.8559173717694684 -5.678449472087545 0  0.1903578142245443 -0.8141943464664667 0  0.1862491367186099 -0.8585596386880781 0  1.553473742490528 -6.776411180954782 0  1.628605767365432 -6.764268539364522 0  0.5714730380289463 -5.039327003860068 0  0.4008924101221858 -5.576794845251552 0  7.153546933515296 -3.095763326758819 0  12.34151942500282 -7.165143616849665 0  7.919401837667158 -0.9553064696236868 0  7.170182871257037 -8.161053979663496 0  0.6923386357309447 -7.353558030617489 0  2.563664588510555 -0.3957771017226603 0  2.651750874847071 -0.3799882210500733 0  0.9247369276280875 -9.794551964066736 0  0.9730751053521622 -9.791252452540341 0  5.103713616295499 -2.340864473151764 0  4.951929978512895 -2.363023814651703 0  5.25680434087451 -2.319832602032119 0  5.316129606710344 -2.174439900658763 0  5.413770751122877 -2.299190113476 0  5.474207830902039 -2.148619905799151 0  5.574245432604386 -2.273567707784213 0  8.784335204548261 -1.011379675935424 0  8.936115708837953 -1.204534262809277 0  9.027928287558753 -0.9713513770508859 0  9.183556071735399 -1.169269401434156 0  1.656245462270659 -5.81795023407994 0  4.3324742393881 -0.5932564517763002 0  4.202745607437969 -0.6143014816682832 0  0.1921655047608937 -8.404249750753122 0  2.284756556100042 -7.508895823214378 0  3.48130603133699 -5.658226259257935 0  3.550812558793403 -5.754798208196065 0  4.92025165412716 -0.7311600281344433 0  4.97029751665228 -0.5879722579185076 0  5.06458432522165 -0.7020495363796355 0  0.2775554340611617 -9.845164059036353 0  0.3149950708935592 -9.842522000770044 0  8.734524976736775 -8.8008464264745 0  8.871555162404203 -8.994886399548356 0  8.977318429149529 -8.777185420754094 0  9.118076169669802 -8.987765991585958 0  11.6925677060058 -7.253054264926655 0  1.049017539073347 -4.777947730752134 0  0.3380477169015244 -1.60086149448624 0  0.1741894874294267 -9.312643836892658 0  1.201470695035354 -9.182417014645695 0  1.176205831687977 -9.236812354283247 0  1.485078888754401 -8.806314145563512 0  1.555382303043777 -8.800632630040488 0  3.722049212952987 -7.479745232160012 0  1.12993342418609 -5.221580834753223 0  1.10681723577791 -5.283131946715869 0  6.028065339663385 -6.699302226676169 0  1.292131066322796 -1.34526770208686 0  20.41734057152887 -2.135746223344582 0  20.73499519193512 -2.559420833978983 0  0.187063690404484 -8.915959364394979 0  0.2055851777425737 -8.874856046804645 0  0.2505476324562714 -8.87034846890333 0  13.37253105938158 -3.935112040406048 0  0.373082738839436 -1.759670022213661 0  0.5065258938869164 -0.8872742299114327 0  0.5435361029066268 -0.9149393945212925 0  0.5416947460090995 -0.9638151656108436 0  5.794295645897183 -7.170243013541403 0  0.1758051948824466 -0.1657864922647523 0  4.93649598671616 -8.578687643916801 0  0.194448372808349 -6.722980527125467 0  0.2095975859795978 -6.678850138825679 0  0.776738191183119 -3.29270468936627 0  0.7896882688592459 -3.235487856273024 0  1.680539157068225 -1.817817811111036 0  3.422492401875955 -6.266650438451682 0  6.479344430305289 -8.841863525940381 0  0.3367731151164275 -3.903916098192504 0  10.03569019082306 -3.889612624249029 0  0.7193068135796974 -4.844011738591962 0  3.735552828636456 -3.196292404121279 0  0.5683212740112449 -5.239469462029545 0  0.2015300296225888 -3.951965616341854 0  0.8295041754292676 -1.356666790580867 0  0.9751042829547867 -4.218318434217578 0  0.1848731142679156 -4.045376104650734 0  0.1764615367141715 -4.091080254494369 0  0.390723215257097 -9.742722402076547 0  3.866221204591138 -9.464718386463559 0  12.67632602654226 -7.130344894422427 0  1.040149541823983 -8.350651747178478 0  0.9789291147886168 -8.35655934030142 0  1.101850735372787 -8.345291945885137 0  0.1932847353482074 -8.683342271961788 0  0.8779204322996463 -1.745453308546688 0  0.7341197464314071 -0.9584718529212388 0  0.9416683581070213 -5.08447006628892 0  2.318141948265982 -4.765391398006563 0  0.8748759917384206 -1.389562130277235 0  0.3163569861793665 -3.779388334367201 0  2.42519116590268 -3.923584750261329 0  2.519115397728594 -3.90982959691903 0  0.1953135455841135 -3.524410013513295 0  0.755815229510965 -1.137062676470516 0  5.116377839408313 -0.5591711589145438 0  5.225534421011643 -0.7000485850628815 0  1.398150966990382 -9.751601102075739 0  0.5146315521510729 -2.831747841249139 0  3.209716220797649 -0.4708565675745806 0  3.313402042862769 -0.4527393790240577 0  0.4212484685513225 -6.148450226163895 0  0.4359542274100274 -6.100139895960703 0  0.2957400251148528 -3.653402158669633 0  2.559531882707248 -0.6310753151900839 0  0.4991428760891665 -4.055480779475753 0  8.837791351576513 -1.447304660975679 0  0.7780261882044197 -3.507517483503454 0  0.8205286639824632 -3.548525439094532 0  0.7639787516781773 -3.564656091672047 0  0.8062883577978646 -3.605761691446627 0  1.159447675902662 -5.699944750634855 0  1.114426092737316 -5.651226559971832 0  1.616624169465259 -1.379278482663227 0  2.233257741424719 -6.253206320162675 0  2.282668303318175 -6.330937518409635 0  2.188846410718076 -6.179138748996371 0  0.341885760484443 -1.553117666421239 0  1.023049221921713 -0.6837750363613981 0  1.075988123240322 -0.6767459302064882 0  1.055919677907911 -0.7288638119377806 0  1.11154668266499 -0.7177587571251642 0  4.408545610112734 -9.079821223361954 0  9.619519123432402 -3.728961485002184 0  0.2824553264907372 -8.678465556961857 0  0.3861655671176472 -4.914144706397439 0  0.1922047735205616 -9.272945296059273 0  16.07117199259459 -1.952543797375506 0  0.1956829172835324 -3.254052978373503 0  0.2029996499914599 -3.207856270156659 0  0.2464774738149735 -3.190823759059545 0  0.2087251595662991 -3.161886319915012 0  1.315317408987383 -1.978810252895469 0  0.8972298489106407 -3.803173689977974 0  8.566348807333743 -4.501215639427273 0  1.014463320009254 -8.406266980609505 0  0.954216263015109 -8.412218036540548 0  0.9890813473321849 -8.461077860054893 0  0.9294027846244219 -8.467087604216164 0  0.9639769745346936 -8.515461917701462 0  0.9049454455976456 -8.521314085297517 0  0.9389897063037473 -8.568957757593008 0  0.8806003126847255 -8.572044418448431 0  0.4971959465097022 -9.838520775833345 0  0.536981821229217 -9.836365015166006 0  0.4581564233919746 -9.84088326214448 0  0.5551549886666933 -9.800442324954854 0  0.5776401295994145 -9.834565396415632 0  7.56545423126971 -5.152902149507493 0  3.18214455256995 -5.589408115194813 0  3.228101784281719 -5.485553562105252 0  4.114573298020295 -9.450206272327149 0  2.685072179773936 -6.492002955843335 0  2.581275409697572 -6.490653214362382 0  2.784149149861802 -6.485279991644554 0  1.078608264277907 -6.657984132726042 0  5.636090707180596 -2.122640433434575 0  5.738571830694408 -2.250780950042502 0  0.5740442503808794 -9.692761326668801 0  0.5929591445448317 -9.654612722970278 0  13.01852693501216 -3.974669355960149 0  0.1862258326008899 -8.605353176834569 0  0.9919623855348672 -4.157313946240849 0  20.22350341091134 -7.282453307150149 0  20.53555391433955 -7.723574485490481 0  20.73418195771285 -7.200375319833722 0  21.0680516854116 -7.675003800796038 0  21.30244301365552 -7.205916730499919 0  21.62018332643726 -7.651671092136679 0  0.1835479359967103 -7.236931794169751 0  0.2122427770081217 -7.273453761841177 0  5.086591157814008 -8.565398424081005 0  1.280782790303055 -9.75615321713795 0  1.223659025955838 -9.758921941287284 0  0.8672631805840716 -4.434192814157631 0  28.07471624463651 -1.596042175976972 0  0.4855774513273232 -1.126539252800907 0  0.2930021044198678 -4.323555177506378 0  0.2459848797182822 -4.340228893156879 0  1.044440301768672 -8.077284741121428 0  1.069569597953475 -8.019092905280512 0  2.346696542060712 -8.219036156175926 0  2.436694945584938 -8.211506797630641 0  0.3234240322331416 -8.595503436951933 0  1.408674554092924 -7.768023025853448 0  0.8946696762611381 -8.418251721817704 0  14.35774867065633 -6.15877830063065 0  0.9593992407513952 -4.284169673396491 0  1.723487455552387 -4.303946392272448 0  1.776897000362663 -4.362110939758039 0  1.752401436810313 -4.437489282273234 0  1.830722892047874 -4.421388746063607 0  0.9626131378510152 -2.33738648653059 0  0.5960007313407232 -9.798286124765227 0  0.6188870401315221 -9.832613091302427 0  0.9438007409249245 -8.306741080980556 0  0.6995573557611365 -2.921720894302346 0  0.7420446583370683 -2.959965878811452 0  0.1793526062074431 -6.766805770021133 0  0.2093665318099553 -6.802046844747582 0  0.1910949609688881 -5.020313562093016 0  0.1806981520494499 -5.065508460244522 0  0.6203910184844741 -0.1711107476401255 0  0.5776009419461516 -0.1794908679689424 0  0.6653780134383478 -0.1602310269883649 0  0.5627671351201116 -0.2190160271905031 0  0.5364453092483181 -0.1867488543472753 0  0.5826270263173541 -7.051202258968708 0  0.5633600480476577 -7.101097524174296 0  1.558304879223133 -4.059096325945104 0  1.517169069447672 -4.000941119194808 0  1.042315752240068 -5.293305222301008 0  1.083425282621695 -5.344342186804129 0  1.148483078493294 -5.334105708404711 0  1.12502472417491 -5.396094960650819 0  1.058723825057148 -5.399111141555941 0  3.721152604790863 -3.51560752804506 0  3.675057842786998 -3.629306040936619 0  3.1162482940586 -5.497095598461312 0  3.161403532004034 -5.394928579729085 0  3.050817418753537 -5.406279842599402 0  3.095527533640134 -5.305279999079222 0  3.272434326669849 -5.380300392245149 0  0.8485324887508181 -2.061802501505681 0  0.1781423653311034 -9.03337619109006 0  3.482845307134934 -3.548565691516722 0  6.387153495589287 -6.649901781345168 0  1.141302325473939 -9.188198140267918 0  1.116973768235042 -9.242155222507598 0  2.669957028149659 -8.118944960940299 0  2.768216984227877 -8.113688580230971 0  1.150830934912104 -9.290241639494324 0  1.092553519024186 -9.295095836755314 0  3.812351992233337 -3.290635365463531 0  0.1717511042306779 -7.15700778138004 0  1.784916830953296 -7.215613768894691 0  2.069801789268679 -8.08589511851334 0  4.378955614028341 -9.43315763200741 0  0.191530396311558 -6.463409759269478 0  0.2058049045228199 -6.41831480966464 0  0.1772056052239872 -6.507306528562685 0  1.782104095278234 -0.351826382000354 0  1.805297611019256 -0.2867063572205888 0  1.580688001323201 -5.108538832510532 0  1.76944728172338 -4.901924566171252 0  0.3758627953277198 -4.153750010225304 0  0.3656149857339663 -4.202558865470214 0  0.1459034254039864 -9.8225946295792 0  1.528065549089693 -1.265837672547339 0  5.113474404634259 -9.378832908209388 0  0.3599482687190658 -7.71505026107974 0  0.3113691532043354 -7.721025261284847 0  0.2921381857820258 -7.765021393617167 0  0.2634485385012457 -7.726706340474499 0  0.2825043684007333 -7.682933903775822 0  0.2446061986815717 -7.770433459103999 0  0.2353501411341092 -7.688577663280862 0  0.2537989801468097 -7.645355018304269 0  0.2072959253316391 -7.650877660061116 0  0.2255638695175435 -7.608113998320034 0  0.1888807873466796 -7.694325028979661 0  2.281786211141714 -4.847692594763294 0  0.620948715017299 -6.845639552399152 0  0.5859595641014668 -6.802566616655331 0  0.8353068664904768 -6.24632924353892 0  0.6318218826662338 -3.86399130509208 0  0.4201813209410687 -8.301025342106739 0  0.4487849767246015 -8.341422540835275 0  0.1679714247771464 -9.68474244379766 0  7.790775176228276 -3.804181585991647 0  1.38166143027756 -7.832606335066812 0  1.31230486822416 -7.840363317140699 0  0.8579615277410433 -4.255631487031521 0  1.773096624896047 -5.413842568430399 0  4.092394222244437 -4.62216718944401 0  2.168544482139961 -8.229672597154948 0  4.256027609924718 -3.313775313037322 0  0.9609718499239843 -5.19223598492052 0  5.159185942866371 -7.751680277984923 0  5.004361064124556 -7.769785722421412 0  0.9936542434828652 -8.191829712697851 0  1.970437176992922 -9.334384761307041 0  0.1797426747325126 -7.613607091014659 0  0.1976614629606086 -7.570971296679206 0  0.2435005292263508 -7.565495710673547 0  0.2155141485324616 -7.528216128107599 0  0.1689895714071099 -3.661392683304904 0  6.558401584692479 -2.029486508403285 0  6.749319619350498 -2.002526063268894 0  6.371210483080871 -2.054865396819824 0  0.1836128670768531 -4.450514788799876 0  0.1741134460612237 -4.495635764319381 0  1.570634365841155 -5.501865104192602 0  0.2429080332252376 -2.557067113260657 0  0.2000717550957525 -2.574931092703231 0  0.2882357733884202 -1.396790793213256 0  0.2513482947867764 -1.370096738492018 0  0.2563313548855906 -1.324297470779823 0  0.2143212256284937 -1.343405170596659 0  0.2190464238928307 -1.297771818037187 0  0.2093085303589088 -1.388643084228087 0  0.1727990198957485 -1.362164688152052 0  0.1678647615726305 -1.407050716644575 0  0.4231267630320055 -4.947914015965529 0  0.7008136247753693 -7.203066800757529 0  0.8024994087968089 -1.167370508102455 0  5.8015081709407 -2.098721710946559 0  0.8556223056516377 -1.646262342229723 0  0.8747139402012163 -6.291041073617509 0  2.05712341357231 -1.128865933547989 0  0.1745691418772903 -0.5661111538277552 0  0.7815526981935896 -7.820692731748865 0  0.8492547170961444 -9.453173802206841 0  0.798723687361889 -9.4574721455446 0  0.7781264467003517 -9.504662395047283 0  0.7488040715166253 -9.462049383185342 0  0.7284657618936201 -9.507747973188657 0  0.9188339109663897 -0.5569014384976816 0  0.6103660922600405 -6.999604146161401 0  0.5501726608362159 -5.499816339210556 0  0.868838702743572 -1.446099474769215 0  0.9209983994564297 -1.422732577241216 0  2.740059813398402 -4.212636007949994 0  0.2241693761964427 -8.834937678582252 0  0.2694261953287658 -8.830286824098778 0  0.1793306275536377 -8.83852501872515 0  4.665652658196942 -9.400489793844148 0  7.488466279754409 -6.67955316000753 0  7.612950881511392 -6.853323688570097 0  9.049524071129191 -4.460103314187125 0  0.899909499787146 -0.607747395030696 0  0.8666703481263962 -0.5661882422241735 0  0.2563521301208489 -5.79214927910316 0  0.2231200604425947 -5.758208403145899 0  0.2101944579693971 -5.803318468872457 0  0.177782030089201 -5.769927126927982 0  0.1901537551770858 -5.72526130423942 0  0.2528715279049081 -3.144546765609777 0  0.2140599375940937 -3.115981442154117 0  1.471526404081898 -3.387678001909629 0  1.399511696684861 -3.399091882289315 0  1.425478396238503 -3.33150244598233 0  1.373198251534284 -3.465552541392212 0  1.329302662360375 -3.413001715628883 0  0.2387670831825925 -5.356722252785052 0  0.2048130117130622 -5.323881986319923 0  0.1935221528441211 -5.369149431519588 0  0.6054284547888678 -6.751091008065802 0  1.796526353749982 -4.825043519928434 0  1.716030993054655 -4.839152840127295 0  1.747692683254327 -4.761792673001725 0  1.672810770789942 -4.768393324691292 0  0.1887492967272024 -3.299971325103705 0  7.372433168235496 -6.493953306610999 0  3.512418330271565 -1.310166546098199 0  9.276419379919671 -0.9346466689172859 0  9.436340982537128 -1.134566960933572 0  0.2530356840199914 -2.095299482199797 0  0.2147018084003669 -2.066075907206186 0  0.2101090220295116 -2.113639632649258 0  0.228451216946139 -1.923865754433807 0  0.1906161646464852 -1.89715605488479 0  0.1862178327629973 -1.942628254566378 0  20.94595176603524 -2.066570733628127 0  21.27145610287327 -2.498089740600622 0  21.48334748861566 -2.000100531884596 0  21.81627364070764 -2.436104374188841 0  1.279748445499784 -6.088115789669204 0  0.5898261040246489 -2.166052080895003 0  4.457820494181734 -1.905691345466909 0  4.37288022831612 -1.796117596248243 0  1.75851606085844 -0.4172806763542987 0  1.792897145745568 -7.008554978112451 0  1.843331946701568 -7.06943691373508 0  18.04025253182678 -3.271214333194475 0  2.522073461252248 -5.808603710776008 0  0.1836434344888769 -6.20556448599024 0  0.1979555907576831 -6.159623317376448 0  0.1681812493983319 -6.245786681127388 0  0.1830962729385703 -3.828551878956067 0  4.595269313907982 -0.5496506162506556 0  2.50024033589526 -3.348679812614656 0  0.7015180374893646 -9.46742326462023 0  0.3195199961854129 -1.109176594145564 0  0.2814012862297339 -1.082059780927897 0  0.2761895241976475 -1.129224216135071 0  0.2390365342001317 -1.101537940781149 0  0.2438672438267897 -1.05525053221803 0  0.2026078627162047 -1.074052833593257 0  0.1966898817064795 -1.11927551934906 0  0.2069136555130182 -1.029207041654837 0  0.1662183883418376 -1.047600821210767 0  0.1704676795748874 -1.003261275522626 0  0.2107699364749571 -0.9845849524390324 0  0.1649644809902036 -5.814186226708907 0  2.034823878410602 -8.164646135912594 0  1.51359727966717 -8.74313932902459 0  0.4286456604385371 -8.755905614588032 0  0.216119360996089 -5.278417165804891 0  2.06984128339313 -3.349983002949259 0  2.10015458829136 -3.267707020594385 0  1.368434055626 -0.6490915187401374 0  1.307008313201987 -0.6586885963279219 0  1.34585333286322 -0.706557511099831 0  1.459275654790577 -0.2402107070798571 0  1.398416771324964 -0.2517590659093223 0  1.377478244624768 -0.3091409502002698 0  1.339016307966975 -0.2631653817146633 0  0.5634414524265576 -5.446798315979314 0  6.253987692935697 -9.351381512642536 0  1.556676532595059 -0.7988802568486602 0  1.257821615759715 -2.699443960708557 0  1.191733208592202 -2.711450609532912 0  1.234682111238051 -2.762411924633951 0  10.20151809626645 -4.111247979219884 0  10.09216331539349 -4.364602721344919 0  10.31052543859599 -3.855402921688631 0  21.85420755705782 -7.136990771315402 0  22.17816965620777 -7.609182409683185 0  22.41679735066683 -7.079544911560228 0  22.74594439970617 -7.564558616177822 0  22.99013935680374 -7.039289185801739 0  23.32263352122052 -7.517235981679455 0  0.7345063962400253 -3.25025495563013 0  0.7470789523543679 -3.19475567449213 0  0.5916240253660234 -6.345897325611464 0  5.715092449991669 -6.060736135729514 0  1.891509246423125 -5.844124820931277 0  1.938569172128002 -5.91445529076275 0  10.18154910240538 -6.147444943096756 0  10.34540633138482 -6.379364915738343 0  10.06500212048349 -6.405511834580501 0  0.1822510489375695 -2.738258013341345 0  0.1760576702870349 -2.785205138237711 0  0.2876721207750119 -2.872360634393349 0  0.2436770414699794 -2.890315676733141 0  0.2808986307502543 -2.919331621482389 0  0.2369562640195539 -2.936854408312242 0  0.2001598188972835 -2.907992926712313 0  0.1936917979779107 -2.95381805473122 0  0.2741847719951771 -2.966299784707998 0  0.261845669147716 -7.522510760199 0  0.2334854166001943 -7.485520418668871 0  0.1875465762619548 -7.491252882176003 0  0.2043138512454785 -7.44962173721543 0  0.2457002967713162 -7.440339097836102 0  0.7632479773030294 -0.3470224121973775 0  5.90644440038789 -2.233109552423694 0  1.627758926311868 -0.2621635308908727 0  0.3683416141888465 -1.407641205137399 0  1.671478856413376 -8.440873347742899 0  9.227599376333863 -8.757627957907681 0  9.373249681008335 -8.970431447983518 0  6.818988439249274 -7.669296705784364 0  6.176154289956468 -7.163947211753017 0  1.759634947294256 -0.9614166807155407 0  1.511562376525738 -6.52551468805172 0  0.2724016112299381 -9.105502960913924 0  0.253662030267737 -9.146086022896759 0  1.700057997833408 -4.69794071274678 0  1.684525882395929 -5.747213747573594 0  0.8544255373998251 -7.493584491204999 0  0.4204441665435734 -5.839281839566566 0  1.584528259793263 -8.736966813184385 0  1.54363960263221 -8.67981709920965 0  1.372211830346387 -8.036478319118679 0  28.24466543592995 -6.854660621550579 0  28.05607934309106 -7.330201267371575 0  4.311499656057682 -5.55071946360211 0  0.1728156485675854 -2.085986302301715 0  0.1680894574960998 -2.132618179296573 0  5.815979046214036 -5.443540666191733 0  5.711955136034337 -5.306856799821228 0  5.882854566422552 -5.28446619353236 0  5.777948758421724 -5.146208405011175 0  5.607974418026256 -5.169015875560942 0  5.950462664564103 -5.124192709270408 0  0.9277379243633543 -3.900393202099353 0  6.799409002389556 -6.617810046474772 0  1.048082333261382 -6.88506516054479 0  1.13260259797535 -8.011792174258821 0  1.094662216142831 -7.960606472161682 0  0.5360452107510802 -1.877711555173651 0  0.5218897283564132 -0.2249273992859422 0  0.4961638728073456 -0.1930083817070223 0  0.5105133238723347 -0.1554263301438734 0  0.4714195426543526 -0.1618248634615496 0  0.1547520281968762 -5.504841203951196 0  7.700857207476345 -6.65892626886787 0  7.828720217603961 -6.834179823601024 0  0.7492135958605353 -3.408843662895057 0  2.762063722189861 -7.510077693458102 0  2.702406551074649 -7.429965817738427 0  2.802003600799019 -7.418325796496485 0  2.605098766362545 -7.440568083422487 0  1.531194514505646 -2.283360952486293 0  1.479655279321253 -2.234430200589357 0  1.578682103763226 -2.335886390408713 0  1.555291801168059 -2.404610734431997 0  1.626512806172542 -2.390844930137084 0  0.9401170772063345 -1.892166616999249 0  0.1890648510385518 -0.1319869858953453 0  0.2228059422224788 -0.1274310059053265 0  0.1534695134036106 -0.1372462072276406 0  2.654108842511386 -1.288207841976559 0  0.1799361719541359 -2.408445429750119 0  0.1851842644855335 -2.362421571629756 0  1.285196980739682 -0.7164467652007707 0  8.630044779938467 -0.8222486101323128 0  0.1759261949151565 -7.033260769938186 0  0.1922487030365954 -6.990361674739905 0  2.405360368994861 -6.861659385781255 0  2.398789657808079 -5.480664504476138 0  2.356512701379998 -5.566513611309044 0  0.1676604504256822 -7.279240114628449 0  2.831801399092457 -4.908856627574928 0  1.060890207315239 -0.9120476276835152 0  1.118228235732927 -0.9018865660809201 0  17.57263256549061 -3.326069781588582 0  1.222662446890268 -8.233040717100943 0  2.055222338098908 -1.729466228075984 0  2.024853393401036 -1.804506071111581 0  1.012634966154414 -0.3053347122973546 0  1.064620162386033 -0.2959431890463939 0  1.029142042561409 -0.2563830359354604 0  1.082478622113959 -0.2460624240070066 0  1.117307312221907 -0.286739568410515 0  1.135685417760184 -0.2354062422295247 0  0.8511128953256044 -6.038949373486987 0  0.1640603991905305 -6.810288054018085 0  1.376941726663807 -1.164944899762055 0  1.004269150719173 -2.709380425059494 0  3.151435660031037 -5.888271060592805 0  0.4761229024566376 -1.222922283469564 0  0.1654245888621073 -8.367506241566941 0  0.6684754851884023 -9.153458605447081 0  3.751570908377046 -0.955390819581373 0  1.626052058025429 -5.165110764181385 0  10.3694295659604 -4.334331348477283 0  1.047589501468352 -0.2062093281486144 0  1.166187391770734 -9.133759968247384 0  0.1714945625905102 -5.291099256577723 0  0.1824378808784992 -5.246409038828697 0  0.2981404747175294 -9.142623491326713 0  0.2562019945163989 -0.4857740327729214 0  0.2208217933682359 -0.461644265842784 0  0.1820867859533557 -0.480200199587455 0  0.1857532739744556 -0.4376698780765702 0  0.2231346064636668 -0.420926864346157 0  0.187540058948569 -0.3982592737291553 0  1.001089029036695 -5.855109027363355 0  0.368222770589373 -4.788652392156754 0  1.521222912113322 -9.747919374609257 0  1.585174479476605 -9.744277302154359 0  1.62268039134227 -4.706960268475041 0  2.711089116955142 -0.4492011691219195 0  2.742196132414374 -0.3625337340271022 0  0.1948868616973947 -6.8438847078646 0  0.366894913161536 -9.521892088296333 0  5.316210929173206 -7.733507928535112 0  19.49288440053208 -3.121893018985636 0  6.868803481286122 -8.831641418881247 0  1.306749721140605 -7.538260087491261 0  0.6803120900230724 -9.511241434128097 0  5.30748821099974 -1.132810001725616 0  1.36582234464532 -8.941221933087677 0  0.327739582329178 -3.469935622271517 0  2.648228809567239 -0.6179584709486781 0  11.62947907863345 -2.061150296233028 0  11.43639760782521 -1.814608407794743 0  11.74757742064187 -1.770252412670716 0  11.55224588771162 -1.519414529416285 0  11.26361930586131 -1.56712438899573 0  11.86692240666758 -1.476225523538107 0  11.66976003461246 -1.222949558437694 0  11.98764658963158 -1.179262717009634 0  4.239269819660597 -7.401223861744676 0  0.2918431671162676 -0.5101285590383977 0  23.56675889986747 -6.99141697350894 0  13.5070669500494 -2.032438326144919 0  13.29573326522041 -1.751855808762526 0  13.64461613147549 -1.698560694753012 0  13.43329710288188 -1.416207335339127 0  13.78381286052712 -1.361698114078656 0  13.06877529177824 -1.451311267413206 0  2.147392881283443 -5.302247380266956 0  0.398210090414743 -1.891737352083223 0  24.8768463025424 -3.862921239755622 0  0.1522132153687643 -7.576107829315577 0  18.60663428101544 -1.982275790981085 0  0.4252448383424614 -2.064238946109168 0  2.265176946329692 -7.829013437901699 0  7.918421172999085 -6.634316348049433 0  8.049017537399532 -6.813353206799412 0  2.124030962575258 -8.747538297578046 0  0.4512416426196548 -2.23940386307725 0  0.4922730459891866 -2.269270778842138 0  5.816556988208291 -6.201330272052228 0  5.645688131716817 -6.218873304807431 0  0.4276413910474908 -8.385262558977958 0  1.656238648624544 -2.887105125117057 0  1.682216221892801 -2.815923423187887 0  1.73130533088818 -2.874446422529197 0  1.757865404054968 -2.801836114295605 0  1.807916590999032 -2.861613252817198 0  1.832711215078815 -2.783940468224569 0  1.780270756453646 -2.728545493282977 0  1.885649668427259 -2.847907814788831 0  16.10680933488899 -7.299760196744174 0  17.06699665932196 -7.155675756352288 0  0.8589765684523112 -3.594210855824219 0  0.5213694587837878 -2.780037177898118 0  0.3746982815858289 -4.339877866216686 0  0.4105548086738544 -4.373389591794468 0  1.134225332943959 -1.000447373828807 0  7.783043548569121 -5.126327030405727 0  0.5616777825652193 -3.150661914182699 0  0.1630957317326036 -3.178179114937628 0  1.039363357356841 -7.740685564740384 0  1.063547086810095 -7.68498441124212 0  0.6179795034478843 -3.671161409948358 0  0.6613786650811555 -3.704633385527849 0  2.986431599892807 -5.316561366271098 0  3.030541923550423 -5.216063479367393 0  3.140113090636083 -5.204550097668146 0  9.555854207760742 -4.427093891734377 0  27.54628187312546 -5.145472381275918 0  28.0450614323076 -5.121239276093411 0  28.32834806874707 -5.532075588991709 0  0.6079672980322908 -8.781737541986416 0  0.6378578463084459 -8.823787526968015 0  0.6595663215920169 -8.776449323647688 0  0.6899207953843742 -8.819035726426407 0  0.712185314629437 -8.770944916545904 0  0.6678454530258371 -8.866886290466759 0  0.7490456067211717 -8.820859875663086 0  0.7667444744193599 -8.765801601370548 0  0.6879569586683765 -2.977463633046303 0  0.7301091376015858 -3.015544936264459 0  1.189066140405007 -5.387313858179589 0  1.167348774008428 -5.448439461776812 0  1.006772832867565 -4.729415058439728 0  1.049920286069451 -5.665614751518921 0  2.830781673963848 -3.215817101870396 0  2.868830437003528 -3.122198373076881 0  2.932038125462665 -3.202426083697487 0  2.800168456907867 -3.046591709740684 0  9.340276434429647 -1.372479947979882 0  9.597183469526092 -1.33844861310101 0  9.694677706556277 -1.094749532010472 0  9.86126297260218 -1.303629930751894 0  9.961039485804692 -1.051008960650943 0  10.13095847896987 -1.267018459271051 0  10.23392675481372 -1.010881732567344 0  5.404422654378207 -9.349565975360047 0  17.38142435812312 -1.724961362812946 0  0.995283734075965 -9.747003320647067 0  1.022991241727565 -9.788556170302932 0  3.735411673682163 -1.575314485145566 0  0.5297517241721401 -5.19980232996355 0  12.40614548176083 -3.12306502039714 0  0.5533669866577995 -2.52878244770516 0  0.5600037631630741 -2.476537383129883 0  4.251886470737649 -2.355315150108897 0  0.1564818934309073 -9.352680285766816 0  0.1405105799904263 -0.1691087889407523 0  1.201045800256395 -5.039792882150262 0  1.760879634880823 -8.245715162531733 0  1.168833282252777 -2.774054254918155 0  1.21174373031133 -2.824931562473044 0  0.4866561036439556 -2.319940829219193 0  0.5339850543625797 -2.299575347745262 0  1.196907021519035 -3.160395133242531 0  1.259134265609941 -3.197591906067563 0  1.171064481077527 -0.2772998248852652 0  1.189506794063211 -0.2254602057556516 0  1.153796894521504 -0.1835257420586194 0  2.243560948832243 -3.317380051752609 0  0.1693004746803837 -8.163280786955129 0  0.6939270348808648 -4.293915202377956 0  0.8233534341348356 -5.43089495608755 0  0.8220815088847431 -5.788696568305452 0  0.7326922965114768 -4.788395035737481 0  4.841576136848772 -9.034197822281863 0  4.122736333843347 -6.839277986360934 0  0.7343329255396931 -8.721662854566091 0  0.7887729977737941 -8.717465567993044 0  0.8207528010588625 -8.760066852352168 0  10.02782201065372 -1.520813934089371 0  10.30242511055037 -1.485075919909715 0  2.194354513507916 -0.7512848868184179 0  11.27432885499893 -4.287606663356128 0  11.5815863032053 -4.253141709224598 0  1.021824300272028 -4.26041023073785 0  1.007388342693515 -4.324738097700705 0  1.60439891925172 -0.4969200450451812 0  7.894299681521806 -8.69314660763658 0  1.336084229422738 -5.210623155664688 0  1.385710477779631 -5.780098575306003 0  0.1635233476886206 -2.547175970990022 0  0.1578747773852669 -2.592253101445858 0  7.633427684672813 -9.259243170680726 0  2.802168970017309 -4.292703596874578 0  0.2596279146291955 -3.098604211190168 0  21.05280264912661 -2.98868159606549 0  1.255032983044142 -9.806420670937142 0  1.199483867402789 -9.809563922755986 0  1.168709895903739 -9.76415736169908 0  0.1430008581438571 -6.729613034406425 0  0.7265556802182971 -7.39910913540791 0  27.53141985604868 -7.408638606284152 0  0.8126533373117653 -4.665086200006704 0  5.270089637054557 -0.5452106606744529 0  5.368663378245879 -0.6623828000081655 0  0.1889754819319762 -9.883033828611214 0  0.1551258788834868 -9.8852430122157 0  1.477203217757411 -9.09357827906787 0  1.128220643234684 -7.411243871573606 0  0.9130810709882198 -8.621343213378982 0  0.5412869271939638 -4.543637691941561 0  0.5291230947366756 -4.598520007217624 0  25.87621005878342 -7.747028134790214 0  25.29046924944162 -7.834543503733041 0  1.89681872963374 -1.750999111341795 0  1.848462036571885 -1.689108278803936 0  1.069527800937777 -5.60303642258445 0  1.573261045121034 -9.632985500425434 0  5.733369576899989 -9.371847056641542 0  0.5645060918021549 -6.85573941320139 0  1.425529872568172 -1.791537797246384 0  4.6047413487975 -4.316069853887994 0  2.48268879609722 -3.997272795584887 0  2.574863912474964 -3.983733413468328 0  1.508334125609046 -3.640770237146589 0  1.43554319972935 -3.649858754081625 0  3.372324880767732 -6.372167427903947 0  4.247768427237082 -0.4932448204906228 0  4.120660069343437 -0.5165910097721138 0  4.075959955306599 -0.6350489610994039 0  3.995798683047077 -0.5391427456133302 0  1.433339264546404 -3.116764099199884 0  1.318647812059364 -0.3198139474722064 0  0.9665392968337745 -0.6934041797648609 0  1.858221624163495 -2.923220699341478 0  1.937718131053632 -2.909876072867395 0  1.909367296659175 -2.986318849785821 0  1.990588720566468 -2.972299268171939 0  1.961560918826661 -3.05009117225686 0  2.043765483067892 -3.036355565647285 0  3.951487962463325 -0.6558392809415938 0  3.873629448521788 -0.5607000320430826 0  7.650912681073841 -4.953714074730236 0  7.444903262541316 -4.978139750042797 0  0.4794913059092067 -9.873156681433944 0  0.4411529518110608 -9.874188680957172 0  1.28844894927181 -1.06431553981932 0  4.770741650616715 -1.108224651226855 0  1.855703513246603 -4.344409385530561 0  2.104985469603349 -8.002901557242957 0  13.91169461484801 -7.185000563353285 0  0.254979809771509 -4.293180418434772 0  0.2102662869796372 -4.309038037862805 0  0.1608415599363919 -6.428495114907339 0  0.1746640481532182 -6.385035748219211 0  1.014192405042031 -7.797534949162759 0  1.076431490448407 -7.790963068919235 0  6.920860779331953 -7.104720258445597 0  1.146553569229757 -2.83681854112857 0  1.18902043018311 -2.887179127276502 0  1.920317817882355 -9.730083898641304 0  1.994152768947947 -9.725560550433379 0  1.848832452220035 -9.735348768513592 0  27.8584241174087 -7.830876938044123 0  28.38131849940538 -7.74584572812916 0  1.60318305231125 -2.4603690111518 0  1.675727768539437 -2.446267737610537 0  0.2079157633386508 -6.542172937289624 0  0.1626535617846336 -6.551344729643134 0  3.809794270979697 -4.424171859515488 0  0.573612021587449 -6.399394022816431 0  0.1530281916043261 -3.270861750430272 0  0.7601041908347774 -8.676334019910289 0  0.9513341461328899 -9.834916183972371 0  0.9034273926652006 -9.838065360588576 0  0.6747685989000622 -3.027140340427609 0  2.072995206184869 -2.957302350372127 0  0.2914436272704535 -9.67577125096831 0  23.07403028725911 -8.046589677691481 0  1.651957820052239 -2.516810517093479 0  1.724420950270192 -2.503703273405526 0  7.260039784860145 -8.731123064859293 0  1.405568824592553 -8.811978449447391 0  0.3925157287206709 -1.58429979529159 0  0.8816742665479289 -5.417615509367919 0  0.864633431789926 -5.473781122394263 0  2.09942815746556 -5.754551807067601 0  8.14140837889061 -6.607201546661996 0  8.274165758546264 -6.777799221678312 0  8.369658532197743 -6.577945288127095 0  8.505823061656823 -6.75385394381968 0  23.65939396021871 -7.997979290254033 0  28.5183078220772 -5.083610755488724 0  28.25161455703018 -4.706498915131604 0  0.5902992008314296 -0.9376868340271018 0  0.5839805913790315 -0.9974878376467577 0  1.301887970907869 -6.02204253174202 0  0.6704358761379137 -7.405746558314563 0  0.6367067824789299 -7.360175574026087 0  25.18948714063352 -6.810729453590852 0  0.8047398765340752 -1.114308094598472 0  0.5648303821919498 -2.812548554445479 0  0.5704441415970116 -2.759340748812586 0  0.7088266074921705 -9.553015219715025 0  8.294719524320026 -9.226405872195159 0  1.490596910796302 -0.8092212995931467 0  3.074376879447176 -5.116200506442815 0  1.179663200545006 -5.636304717284253 0  0.1595921832279732 -7.454848989284476 0  0.1761586187854061 -7.413614775129047 0  0.7276760866894492 -9.421898780079658 0  27.31312501875847 -7.909198920163957 0  0.1511562996458977 -0.4141966305875275 0  0.1540769112262836 -0.3733226870455031 0  0.1489070239571362 -9.277123635929382 0  0.2965271001283938 -9.874934867955243 0  0.3341889708451031 -9.872515814892072 0  1.601052332120856 -6.834417853847158 0  1.677210798647355 -6.822802264157955 0  13.23007161794008 -4.262744784823393 0  13.58738679671723 -4.22368657242539 0  0.1668589825011022 -9.237529891306188 0  5.045217762978904 -2.482129831543102 0  4.895004591791736 -2.502956603396107 0  15.63283188006988 -8.487808159605686 0  15.22044185708348 -8.522700903335391 0  2.616531595617955 -0.7018957779971498 0  1.158190371853552 -7.953206588435993 0  26.39529901210317 -1.733217719589944 0  0.3006599667380883 -7.639242304777532 0  10.2295073168201 -6.635119693172435 0  10.5093070940122 -6.610674132635932 0  9.947854569836778 -6.662016331262903 0  0.1530854331322242 -6.170470233481438 0  0.1663185246997525 -6.126550268137867 0  22.03544376497689 -1.924633132526972 0  22.37653502485727 -2.376262596227864 0  0.8694614852448908 -5.981819173541253 0  4.423071170530751 -1.668723893913238 0  4.288137027324961 -1.688766710573461 0  2.070058357475617 -4.564475453041549 0  0.547337537889744 -0.8662585809479921 0  0.5105976379851267 -0.8385362436692327 0  0.8986760264685358 -5.720752162688306 0  2.023654067849652 -5.908477205126138 0  1.985894198211714 -5.98540586848039 0  0.1466700894989685 -8.408999209859173 0  0.7360975775175529 -4.331732235120811 0  0.6003989548600117 -0.3291128610213772 0  0.6277337017913176 -0.3641030439865975 0  0.4658911141190938 -2.093067445278247 0  0.4711673477659328 -2.042974703076903 0  10.25742174830989 -4.59356614114243 0  10.5369914666608 -4.562973223889938 0  1.009657771177359 -2.376211072876744 0  0.9992690323256568 -2.436920559126789 0  1.057384840231576 -2.415489234041746 0  1.045002129935689 -2.476508761114991 0  2.742978544786187 -6.575605446968283 0  16.50686705325753 -8.436891589144988 0  0.2727612675209699 -7.808466725811556 0  0.2259490077999935 -7.81386576860272 0  8.604579494498742 -8.610198074717609 0  1.726704411777209 -9.552425669389017 0  0.802354745989609 -3.178706143792504 0  18.4889012228071 -7.112967182070863 0  0.1481387503035698 -5.557166405728609 0  0.1806606344319306 -5.5894002881124 0  0.1363952755820126 -5.601244868709687 0  0.414748659129037 -5.529135221577963 0  1.005882390345873 -5.6173826325443 0  7.493396133064163 -7.033393483014073 0  1.323773202348498 -0.764361164575595 0  1.262530414218151 -0.7739539737149714 0  4.297788729452598 -2.235168852635139 0  4.384050160103882 -2.337370911842715 0  0.4589143288086301 -3.777257633257747 0  0.8201530910472279 -9.411306305661309 0  0.871131543859434 -9.406842689619323 0  0.1445315971518006 -3.318022328543385 0  0.2274270867420523 -2.343899618615777 0  0.1888533772956471 -2.319238871386604 0  3.858221293770283 -3.178257218114491 0  1.602459489612887 -2.266129565051498 0  3.915993660859641 -0.4454667098489669 0  3.799284538326134 -0.4652373649231407 0  0.4816687893430398 -0.2310943655550872 0  19.2828157409488 -8.280259627371215 0  1.854358070039122 -5.922277115827005 0  3.183045480692336 -4.291660691991551 0  1.273961694029735 -8.409354451229984 0  17.40725757357255 -8.380644809480708 0  1.053200623976418 -9.243757382636712 0  1.978164502333225 -1.141035175910488 0  0.2367796220987923 -6.983515540034176 0  2.325224678634326 -3.537447407318488 0  0.1509702201855099 -8.207484740081126 0  0.4764798240820731 -3.912901859960467 0  0.8775846969218399 -0.1582533594872206 0  0.8306757423398139 -0.1673103611415367 0  0.9251079103554503 -0.1493561913411776 0  0.150327472120793 -0.8323868297189208 0  0.1469671102982488 -0.8773635554062258 0  0.1541390052448399 -0.7887323764667027 0  0.2906792311697828 -3.171903170849956 0  1.452140039226673 -7.823590225016393 0  4.878788119910819 -0.4917622573459894 0  18.30120431857888 -8.347182491406148 0  0.2041894999109157 -1.433708964017086 0  0.1628394736035528 -1.451851409940244 0  1.359566095908781 -0.2055694758355058 0  1.711048695746376 -4.041824311953532 0  5.844572643430356 -4.984942731584164 0  6.019340281622089 -4.961675399950066 0  6.126454064766506 -5.103490187509365 0  0.5516447565397637 -6.758346013725622 0  0.5703521490766974 -6.707657501403457 0  2.374047335229056 -6.324093527499366 0  2.335131678700474 -6.408267087323612 0  2.197848665480555 -6.335499110776905 0  0.2583272514420827 -7.266885337291862 0  0.2419603303282543 -7.309515504154238 0  6.622985896268686 -9.332805543550526 0  9.031885680062796 -9.192696272466133 0  5.150565366924701 -8.985475834004468 0  1.581821475467843 -3.631179650044928 0  2.439935854372555 -3.684078098130617 0  1.044259953944852 -9.74267698937167 0  0.3115299013527224 -3.563615410850097 0  12.47628853018772 -6.858112212986934 0  12.81511022988915 -6.82027058304519 0  0.1533240772608231 -6.850388528879815 0  3.489284656023619 -6.363119073425675 0  3.540179927575748 -6.255172389517623 0  1.760232133792146 -0.2338994310767752 0  11.02859745811188 -3.511611161600318 0  14.72732413323818 -7.150602160831438 0  2.105616937348632 -1.793574654803558 0  2.074595294518069 -1.869467745374688 0  1.484263323281318 -4.068100162744874 0  1.225512593979701 -5.685876748341183 0  2.567453184566372 -4.845855943960659 0  0.2788331890115163 -9.183693105485297 0  0.3240621872134835 -9.180063269082535 0  2.593165273017453 -0.3115000213867489 0  0.8516076772391123 -3.763704932229151 0  0.9090144566224545 -3.743668565772909 0  0.1304636519509259 -6.394953818602418 0  1.278637471435646 -0.9510754253934701 0  0.8468377958653548 -8.52711714041175 0  2.725813860616311 -8.200790024895143 0  2.825436334751311 -8.194674280488954 0  2.868312803368756 -8.103583666437332 0  2.927120925301955 -8.186999446817778 0  2.970584391783481 -8.093326879041951 0  3.0305741303102 -8.178883756866197 0  3.074973468723128 -8.082970940276331 0  2.137364436488724 -5.676037695619157 0  6.247141989776971 -1.902832094153623 0  20.23281002606056 -8.181452814350983 0  6.475935846726362 -2.217519764896581 0  0.7926163473965886 -3.782529252167336 0  1.144776149518966 -9.813266176237574 0  0.9392436462083733 -4.579118905942236 0  22.59979883527656 -1.85046153254081 0  22.94478038765728 -2.308639182849266 0  22.71652328123624 -2.835942640868179 0  0.1575228964759994 -2.92519831357769 0  0.1510110251997112 -2.970418412613009 0  1.103333897123029 -2.454363766134066 0  0.8804879780981345 -1.33349006396546 0  0.5071590868078157 -0.2631288010723445 0  0.5377660652181984 -5.554872832041998 0  2.560358107684014 -3.830506529344302 0  0.6569504663730115 -9.469078919166598 0  5.423867742008053 -0.5214373438185795 0  5.524656385319451 -0.6378935727312376 0  0.6093152569075606 -1.205608912931256 0  1.06826101443442 -4.304125811548785 0  1.805698323676626 -4.498002467681604 0  5.528300789010466 -2.41783006759664 0  0.1470657599150638 -5.033832615474734 0  0.1572401110674093 -4.989376423799579 0  0.1367117991889071 -5.078329174669743 0  0.1695151869633325 -5.109798412741338 0  0.1324463718176059 -6.517020183129871 0  0.6197155955088469 -7.089178094065701 0  1.828636363131187 -0.2208253948582541 0  0.5920460377944803 -0.1390324719293146 0  1.826952768494101 -0.4054336206487994 0  1.80283990912335 -0.4690846432693281 0  3.245828096215652 -0.3735461413557601 0  3.35037081714575 -0.3545296770371786 0  3.419153713934355 -0.435376126000218 0  1.853238202566898 -3.323319794373464 0  1.88002901953524 -3.250688980706197 0  0.4349947065521853 -4.900362655169316 0  1.603071847836459 -1.07006468695509 0  28.71043162610359 -4.660397931018489 0  28.46044433987051 -4.291478947821227 0  2.251189475818091 -7.590647945953346 0  2.33998502627961 -7.581288676057365 0  1.584137086998293 -8.863892121263275 0  1.910989976981744 -4.404921619176326 0  2.642398346053362 -7.351112966580552 0  0.6460458084163392 -2.939179659479994 0  3.184526821739381 -5.103157303094093 0  0.2369325092733874 -2.603084207487792 0  0.2960675588435286 -8.865864730214021 0  0.3141192974023213 -8.823822508734255 0  0.660442286317112 -9.554963732950991 0  19.60136585581053 -1.787929679070707 0  1.302816881665976 -3.476047807659406 0  0.1663282840424696 -0.1044074326854219 0  0.1316481885810248 -0.1094098550113589 0  12.1879112265672 -1.434455797086556 0  12.31194256290359 -1.130599932403367 0  7.011392789990225 -9.298990622113147 0  1.070670850781624 -4.720099143455274 0  1.112801582908403 -4.76574453416171 0  3.60064150080645 -5.645636779152967 0  3.671444046417726 -5.744306115194449 0  3.529728206008748 -5.548213823679073 0  0.6374033795548737 -9.79544577770244 0  0.6605882856684744 -9.830141239266556 0  0.1434486353655995 -2.381079060695836 0  0.1380632646722457 -2.427180616638667 0  3.070621342011886 -5.600007342136819 0  8.603338461823316 -6.550722578258208 0  8.743620337241705 -6.743429731131961 0  8.840317335835548 -6.52787283345726 0  8.986699675081244 -6.723127484684158 0  9.085676760234747 -6.499504825069195 0  9.236508529321522 -6.694037344537253 0  3.136316182198868 -8.170544384506794 0  1.007259942630453 -8.026569286055695 0  0.6448622872407714 -7.210912606239299 0  2.543326877248052 -4.240376200287879 0  0.8561209761457036 -5.317249749566749 0  21.35281461450703 -8.109256544488041 0  2.548653901751301 -7.360032687811167 0  6.196825886085129 -4.937573790553923 0  6.306333643120531 -5.083100943119611 0  1.874360173824993 -0.274308350852464 0  1.898057432132267 -0.2070299795420008 0  3.458143652505527 -0.327285022318331 0  1.907859812233038 -2.767023642066403 0  2.027916914769488 -1.203328294978402 0  6.378248417786303 -4.912821196749056 0  6.490596789657443 -5.061158448556772 0  6.563962190905357 -4.887324208670393 0  6.678953131883066 -5.039105752518076 0  0.1456383358452129 -5.73694318810446 0  0.1416217706190466 -4.061047007653201 0  0.1332540860804841 -4.105852097676691 0  1.206503530043804 -0.1744962610937675 0  0.7746057502952794 -4.828106072119246 0  10.19568912961726 -1.74388880386998 0  0.7617224808642717 -3.962128063992174 0  3.795401786233569 -3.611478716075847 0  3.748101750676991 -3.725200830130082 0  3.628113947445737 -3.742511798573489 0  0.5157183176053479 -5.252783074232223 0  4.319592900471655 -1.917476163240806 0  0.8093032744956457 -4.456942342649959 0  0.1864668546352437 -2.998948534315482 0  0.1443025788834653 -3.015404181640595 0  0.4708697102914279 -6.137348263894258 0  0.486539935275438 -6.089773691507654 0  3.181743717381291 -8.072384496173353 0  4.431517785799368 -2.21937264500381 0  4.519490939282743 -2.318061746750951 0  2.843060558525719 -6.569721469254466 0  5.220483080349 -7.608230716406627 0  5.378994371977393 -7.587421022887636 0  0.5118522418042168 -2.072715667367723 0  0.1393222551643234 -2.757197581415053 0  0.1428335576584399 -2.713343641721793 0  0.1331042455298288 -2.806066717231475 0  1.614009162172449 -4.127343298411883 0  0.5392271011818135 -6.357519828331836 0  0.5577291865774541 -6.302570726612425 0  11.78832733671108 -0.9275176230247846 0  11.47343413867229 -0.9718357082754121 0  1.985294398159743 -8.0936847801912 0  0.603638005552277 -3.183838104359825 0  0.39974607004517 -8.715904136755267 0  5.466081031427548 -0.7875804011254237 0  5.625193515309467 -0.7620970605369557 0  5.683610507488504 -0.6096638583372389 0  5.788527047976654 -0.7371851672808445 0  5.849573496718318 -0.5855258314165646 0  5.956323671790138 -0.7083501616898733 0  19.89863423331344 -6.898105552712496 0  9.484836868321423 -8.737713645724488 0  9.633665574292422 -8.95306595475169 0  9.336303820615722 -8.523758677382293 0  0.2190788916439566 -4.262600790552006 0  0.1750879535408316 -4.27842202491224 0  0.1662827719965776 -4.325261742215202 0  0.1312985298351457 -4.294641171015185 0  0.1399730924520934 -4.250571977686906 0  0.9149337608072621 -1.479625857531282 0  0.9679309928328177 -1.456381710781097 0  0.8624443878275354 -1.502909319319662 0  6.018769555515343 -0.5559999044856312 0  6.128033326085648 -0.6808086193991265 0  1.526104642420957 -6.846978229756205 0  1.570980002348568 -6.90732639413867 0  0.6182541890192521 -9.690373840862799 0  0.9268845371579673 -5.461636163523335 0  1.546618499058633 -7.439379086129641 0  1.592604381421586 -7.496677427616715 0  0.2567781812076113 -0.3251912739008702 0  0.5689477614072551 -9.618346285712301 0  5.695723734694148 -1.968144480293389 0  2.027368712969405 -9.659649345651237 0  2.06964883093611 -9.72119485445609 0  0.147264704216969 -6.997629069092319 0  10.14157352745043 -3.631599278874167 0  1.952058978972932 -8.171795423000397 0  1.999245135059942 -8.239390333945089 0  0.3847450780074446 -4.10511221071426 0  0.4228331265327991 -4.137790694679734 0  2.116043762355492 -5.007762561035875 0  2.167964119591723 -5.077277972485287 0  1.732171253721422 -4.985655540694614 0  0.4899798836401992 -1.078099418306857 0  0.5302148405300677 -1.106754003724623 0  23.29129900211509 -2.77229658831728 0  23.52070888353106 -2.238137005946478 0  23.8708246507494 -2.7075231212121 0  24.10493249712221 -2.172236191928112 0  1.232622136379618 -3.268871950233474 0  0.1493642911664743 -1.915981189740511 0  0.1533873854389967 -1.871231880156217 0  0.1450044408472664 -1.960968573473743 0  2.886905226664551 -6.476222861116409 0  2.946863920239224 -6.562476347399834 0  17.86854594295776 -3.690921784052751 0  17.40505635697216 -3.788639946392235 0  13.57040919925773 -1.07659931029967 0  0.7943101122155678 -1.220436842777277 0  0.8464763110611013 -1.199398850454699 0  0.6281219934770199 -1.491017859209373 0  0.6708433084973446 -1.522313135292773 0  0.5589689118058363 -9.870347980501711 0  24.45815897657038 -2.641779816279684 0  24.6946123570897 -2.102844739861646 0  1.994007081498559 -1.878888200243248 0  2.043191779576276 -1.945329016920655 0  2.125145068286628 -1.934740409233023 0  2.093046832111659 -2.011819525184851 0  2.174550571534159 -2.002164250496296 0  2.143319991911259 -2.079142523647358 0  2.226093967020915 -2.069454666618586 0  2.194682626517553 -2.14748717230279 0  2.277699430673959 -2.138367227258456 0  2.246676653221353 -2.216928780316344 0  2.333787158820298 -2.205013581206985 0  2.300045928221504 -2.28691511616819 0  2.385488934424174 -2.27756465284824 0  0.9434756567171121 -7.005612179764817 0  0.987598232024693 -7.0524894410072 0  0.4851021854676674 -0.1251622797069585 0  0.4467722253575186 -0.131511167717675 0  0.4330368601603816 -0.1669919144342424 0  0.4095565868449675 -0.1367461297574684 0  3.24451037927901 -8.162008015706119 0  3.290989610061619 -8.061550969480116 0  0.4914974085348796 -4.759377817725182 0  2.970760043946852 -3.106765002309346 0  3.03171058218965 -3.187569886199697 0  1.605647879864179 -6.636547097067535 0  5.829521664439637 -2.398848858214927 0  6.015674958424624 -2.365308208398921 0  5.02695741580601 -1.82679667013316 0  1.25454991883538 -2.875925276386285 0  0.641725930289649 -9.867602837689851 0  0.6827115057367088 -9.864924784804796 0  0.7027958919812995 -9.827754141836431 0  0.7234204602082173 -9.862093123317877 0  1.887795483745137 -9.79539073951311 0  0.1965329033062506 -8.798485567315929 0  0.1529171148853372 -8.80240640258601 0  0.1222686527406491 -6.137073597719507 0  0.1352139782179869 -6.093709143642034 0  0.1793236313411377 -6.083035126541331 0  0.1484619713026021 -6.05179091070958 0  0.8933675280307654 -6.234972011477694 0  3.935551520315757 -3.273836223907209 0  0.3869445820604724 -1.53324656757199 0  1.534745547732168 -0.8599837950626386 0  0.5176359181934131 -2.021854052619686 0  1.027288982384345 -9.29854197353529 0  1.131239800346535 -0.6678554022313357 0  1.553374588134666 -9.800691237189525 0  1.62028029183007 -9.79536124510463 0  1.650177820925613 -9.739337667423179 0  1.683345174922149 -9.792797554785581 0  2.898546914300651 -6.027378219528497 0  1.318161065458785 -6.678246557029888 0  2.221098912485893 -3.787754914832582 0  2.125167352756106 -3.021467701965674 0  6.192746619697457 -0.514034007501369 0  6.304945637318673 -0.6562918778595064 0  6.372753683520576 -0.4850032182828183 0  6.48487254812402 -0.6306857232053469 0  0.5280382982791529 -2.351196843075006 0  0.5759484495173943 -2.329591719860444 0  0.6332386652684292 -9.647264388851063 0  0.1147179731096912 -0.8069698371592668 0  1.077128134406378 -7.527355654346582 0  1.141205491317489 -7.520328212582426 0  0.1386373101040625 -7.243820276025678 0  0.1442147416751336 -6.35176791399765 0  0.1884318687073172 -6.341809455758587 0  2.187702263420126 -5.748375030977654 0  0.9103382813411258 -6.026506768125808 0  0.8911482770236159 -6.08384683851122 0  3.355224133802682 -8.153283960035083 0  12.87816897591165 -4.299867557755746 0  12.67027255669486 -4.018336669498416 0  12.46237911388974 -4.335740378857833 0  0.1350874488065443 -8.843188202990092 0  1.438962293006162 -4.007541477241405 0  2.397742789557672 -8.293432423788758 0  2.489012911175973 -8.286470155975572 0  0.4773106743553264 -8.38212933201592 0  0.4560121261640724 -8.426490421761374 0  1.070098506794587 -4.516296438119405 0  0.3510302126407563 -9.840621340781301 0  2.38968176044974 -4.010785459447344 0  2.706732533919974 -0.6884328710581542 0  1.125686426629262 -9.342755086518258 0  1.185920546206383 -9.339165681093807 0  0.221967206314714 -0.8906222029647548 0  8.633223685101859 -6.969938754049987 0  0.847891866481767 -0.6157290660342767 0  0.8153877440672765 -0.5752271101889797 0  0.2800906625823618 -2.585188273448432 0  0.6567749427767104 -6.893820844110619 0  0.7414615411773191 -1.742440645095816 0  15.4724517722942 -8.871561696322804 0  1.607818457846399 -5.428419114642792 0  1.259633996674713 -3.4229637830755 0  1.480616547898467 -3.70867637785382 0  1.408331530900984 -3.718931924362269 0  1.363734624190819 -3.659214698935418 0  3.525628281536292 -0.417880566316458 0  2.197297035423793 -5.371925340097869 0  1.356512474264333 -0.3657739158202027 0  0.8458759944965628 -0.1226069271942567 0  0.8003938828061408 -0.1313826525721034 0  3.402471609472205 -8.047642317186572 0  1.478176738963857 -9.592749490574443 0  0.4720053733653256 -4.933118148499602 0  0.4590118941336669 -4.98195344539539 0  0.76808297434936 -9.638500117878356 0  0.5466645292528796 -5.852863488790893 0  0.5635354062950739 -5.79761862659934 0  0.5313816625697623 -5.904793993044898 0  7.942819071608389 -7.008013620907078 0  0.1345762496470382 -7.618437893976148 0  21.48978136025157 -6.635654760900216 0  0.1385846223004172 -5.259466618665336 0  0.1493098257234404 -5.215125460798035 0  0.9554080885888965 -3.783787512838213 0  0.1400111564173194 -4.465063454862394 0  0.1308533571467532 -4.509632806166401 0  0.9335628256562245 -6.28086454307156 0  0.9142314943591359 -6.338049882654072 0  0.8560408938257407 -2.00721476952442 0  0.2621112258077893 -8.718068527941947 0  1.107299736089939 -9.139976548516138 0  0.7637214063144349 -1.083706470710598 0  28.43401448240406 -6.404867134447006 0  28.72181893845397 -6.78287338512185 0  18.32539263350392 -3.649626383183866 0  4.338517125371158 -1.558360235497744 0  4.205315496727534 -1.582973397180523 0  4.156708207495544 -1.706796509925693 0  4.075498504530657 -1.604057254674907 0  0.1311412239516123 -7.039922622169922 0  10.06038748440357 -0.7939050071255869 0  28.23193229245589 -8.206327996242948 0  1.019740770362592 -2.315689233145711 0  0.9701848569670517 -2.279647743886208 0  1.53491876041411 -8.98202059195502 0  0.9013178895271956 -2.042353037860809 0  0.8938541370592699 -2.098890854536248 0  0.9489007202382904 -2.076686525361256 0  0.9402078005609873 -2.135626814062038 0  0.5159711148509256 -5.460069292498779 0  0.5278762750485591 -5.405111791639701 0  0.9297689386831607 -9.877982804135407 0  0.9116877424777847 -5.521008121761937 0  0.8077567502731835 -1.0607200967588 0  6.754001155113659 -4.86126712918254 0  6.870443480629703 -5.006119990921431 0  1.611305470276385 -8.674786081697638 0  1.572462026703022 -8.615312013183352 0  1.220154422882942 -5.327714825336344 0  1.025337334972932 -5.555649810893237 0  0.1318348411399519 -1.380497121720456 0  0.1365260205858227 -1.336234240426006 0  0.1102616420284601 -3.288033542855294 0  1.124215094048202 -2.898740237174766 0  1.166402192770608 -2.949008354044868 0  1.658301676446404 -8.740763030673927 0  1.230012791466406 -9.855990002514694 0  0.8343518907966949 -0.5248471591276997 0  0.7833885033653942 -0.5353241180781483 0  0.8015501614820231 -0.4863721471506892 0  0.7518628387286821 -0.4963442740880941 0  0.1303091930320743 -1.021767645459155 0  0.1342760648423287 -0.9780655137629033 0  0.1259527001045342 -1.065441858545478 0  0.9939464770428028 -8.564205594100322 0  27.94798722792813 -4.270827730141666 0  28.21148817279266 -3.914792764624168 0  28.66413287543058 -3.887509560594787 0  28.42713726745959 -3.517099518513972 0  5.746448158482728 -6.358410478322718 0  5.576781964218629 -6.374700207857104 0  5.918577117918021 -6.341152218365197 0  1.425076344904983 -7.892063676230155 0  0.4696497579437775 -8.296340487057787 0  0.4405550952571033 -8.255582078403513 0  2.673142627173721 -0.7764912529151493 0  2.841142262379492 -4.198354559129802 0  2.904651012680743 -4.27987408566968 0  2.777700109440259 -4.117590896814535 0  2.372517011940477 -7.501128984306272 0  2.579137949870661 -0.7868016284530635 0  1.053587173278299 -4.364738321500644 0  0.1184491821496518 -0.7636381044373399 0  0.1718676951169424 -5.461658708018722 0  2.35338062698772 -2.358765721389438 0  2.439469184492067 -2.349769284229777 0  2.407734946840838 -2.431331950862627 0  2.494705957641216 -2.422648266447549 0  0.4905546427157716 -8.250712386340789 0  0.4611304747189404 -8.209599743682933 0  0.5116315453600944 -8.204647013120828 0  0.4819274820426784 -8.163148402208485 0  0.3455275128339572 -1.505226965680549 0  3.650059099004917 -5.535089969924199 0  9.805084541899955 -6.405338003279626 0  1.872036272659088 -6.993702042931134 0  1.924121829555508 -7.057070816365385 0  1.815810464088226 -6.92903194267835 0  1.701337534168029 -2.574154185604868 0  1.771504988040199 -2.559370086817579 0  2.31189001985852 -2.07198287884345 0  9.498703846442339 -1.580313839830701 0  1.082836101468287 -4.247236308014457 0  5.477054566935966 -6.238496222775177 0  5.410130779204934 -6.390950652148228 0  5.313546244805181 -6.25815341738995 0  5.247610107891429 -6.407549369960918 0  5.152879579226306 -6.275591894828219 0  5.087717868158666 -6.423544357367081 0  4.995953123159428 -6.293904535954554 0  4.933512367847745 -6.437900154424934 0  4.842339627499621 -6.313815075586497 0  4.781551904860482 -6.451989410584061 0  4.693542292570621 -6.331510999092588 0  4.633472119305148 -6.466326615786814 0  1.652543274303824 -4.638128095324093 0  1.575810231106619 -4.645163485161318 0  0.2238719612163216 -9.880015555098447 0  0.2088780987789498 -9.91087847299322 0  0.2424560561964029 -9.908363193771679 0  1.70503675452508 -6.751105451832856 0  5.878205082329055 -0.8653773910926459 0  23.233317333958 -6.515759395687409 0  0.2535575886196408 -7.851536090155567 0  0.2071821949623214 -7.856191751368533 0  0.1799799064228917 -7.819277587316596 0  0.161333434027954 -7.860973348349239 0  0.1882580475823907 -7.897870371075953 0  0.143127238335957 -7.902633178833554 0  0.1694841446181812 -7.939032558467422 0  0.134814074881545 -7.824491461483859 0  1.593705140586051 -4.786087032908697 0  0.7220301541778085 -3.524246176364969 0  5.014873750920367 -0.8224628731402754 0  7.564903067340513 -6.09790892026555 0  0.1489970712328326 -4.420554518233381 0  0.2950494398047532 -0.4670826732677718 0  1.736690558704415 -5.487360421165601 0  0.707355424237619 -7.720351654167199 0  2.463200204930796 -2.50485761668992 0  2.555178331138489 -2.493227919833217 0  0.1276769879484227 -5.304057677243125 0  0.1158714403490464 -5.525081886408334 0  1.081411503813724 -0.8611895375883254 0  1.139532696761654 -0.8503334087604815 0  0.1076359162212039 -7.582542305903543 0  3.836941440119015 -0.353011278665134 0  3.95667219500125 -0.3301051821285208 0  0.1972389919108863 -5.847564216987061 0  0.1523391779826682 -5.858301237533855 0  0.1633312354095491 -6.955151529259082 0  0.3106024665240845 -9.778893192264857 0  0.7285866647403267 -6.986996407464408 0  5.173225551927674 -0.4149933007422995 0  4.87223810036587 -6.582002669591565 0  3.467777646042038 -8.144062653000733 0  3.516735989468605 -8.035766965147506 0  3.5843880465175 -8.135322424403718 0  0.1646037496203956 -4.539994555367184 0  6.948247109498016 -4.832867396591752 0  0.5329009621216869 -8.158142765801852 0  0.5029415353686471 -8.116319547454845 0  0.1188967402518202 -6.96236610631046 0  0.1214862105166077 -4.554024900473311 0  28.79078836434144 -5.475482788538749 0  2.802488013268523 -0.4331928305675543 0  2.834057388810262 -0.3448615876990608 0  0.7085676839495871 -3.073710141074077 0  0.7724383074607974 -3.053611949472385 0  1.296924058313929 -3.249713114063722 0  0.4937530727236332 -1.84692800430033 0  1.33543000755094 -1.915136215712866 0  1.288283226079709 -1.868788698568536 0  1.380957710653638 -1.964465560195328 0  1.360251741001212 -2.029122364755027 0  5.86326829499775 -1.942392895666277 0  0.3397819805292954 -0.2077399481922004 0  0.6024105907833057 -2.508454439957465 0  0.5952221124378365 -2.56064457329147 0  0.6065530244311343 -2.457058328263946 0  0.5050365971489512 -4.70806489877776 0  0.1528489969550222 -7.783068619025406 0  5.375324548927743 -2.027113141771613 0  0.132212858759436 -7.418839643795686 0  1.231795492292417 -5.439808242920742 0  0.4899872703939323 -4.560037772213655 0  0.4782193409875273 -4.615078225933143 0  0.1259725130083602 -5.122617219947082 0  2.014696033281309 -0.6436051322423975 0  2.476276865002067 -2.265175830047103 0  11.45721585333864 -4.526280878760474 0  11.75864901084762 -4.49388983319079 0  0.1316608043885914 -2.105606116275451 0  0.1269926127437184 -2.150482106218255 0  0.1630239186705236 -2.17716913837722 0  0.1359438211315727 -2.061117301091467 0  0.1221642235432014 -2.195010439308549 0  0.7102467022294618 -3.578507882449185 0  0.1574361906524544 -2.219977246288123 0  0.1171901033083032 -2.239155960367029 0  10.42171005657573 -3.596049572008706 0  0.1497915887737449 -7.37948870758116 0  1.133916879076491 -4.704015880277064 0  2.942288872060095 -5.416247077297302 0  2.879216590797347 -5.328350242700571 0  3.889376673191764 -7.331689277440939 0  2.772518534233285 -0.2735279838935849 0  2.861388773663272 -0.2513361127743483 0  2.927325671005253 -0.3271098383112427 0  0.3048271748335232 -9.221375984418952 0  0.3499537413647111 -9.217787981058406 0  0.3308763790186067 -9.259103805331137 0  0.3761498251198656 -9.255501175128824 0  0.3570357085869382 -9.296873168978525 0  9.519631926201154 -9.17749852942644 0  9.783295576170399 -9.159509642010178 0  9.900805430274508 -8.928762882855393 0  10.04790787735016 -9.149548215695802 0  10.17387935590394 -8.907164524396197 0  10.34233961070145 -9.174435713856745 0  10.45755834680253 -8.889271347585311 0  10.61600128048854 -9.119762185124053 0  10.74275789733696 -8.859965702608044 0  10.95093912333435 -9.149463389502884 0  11.04637345118839 -8.841444526653198 0  11.21276576207456 -9.034163337815089 0  11.34419331395437 -8.801514077866859 0  11.47236965029157 -9.10935975036816 0  11.64753549958744 -8.787187726763857 0  11.82063614281831 -9.051174517465295 0  11.9688482117059 -8.756789401170618 0  12.14090634945047 -9.037495844839798 0  12.30976696480652 -8.7196599099072 0  12.48344571296615 -9.002856445944161 0  10.29393814501882 -8.652940006526309 0  11.16901729511529 -8.559206747667577 0  1.807346719679582 -5.339198009875671 0  1.725929548946123 -5.347559213692032 0  1.760066959547997 -5.273988504057467 0  0.4720485056285053 -9.263919774433383 0  20.62118238439408 -1.658269755061643 0  4.941929763260715 -7.910486347627968 0  4.852836881744716 -7.787137432887057 0  4.913491409194393 -7.648389868373634 0  4.764102981112266 -7.666828939610506 0  4.704657594599693 -7.801986054746063 0  4.617888778245295 -7.684629200036638 0  4.559388883506239 -7.816216740178795 0  4.474996992977092 -7.700658142222766 0  4.41840422899314 -7.83068649260799 0  4.822958215814976 -7.529217440443256 0  4.501339583980442 -7.944706767529592 0  4.361808653855446 -7.958413449599155 0  1.929212091152873 -1.078280127505076 0  1.90117201580048 -1.152033592036755 0  1.852959305674565 -1.091024204480159 0  2.096268122582366 -1.440874277299978 0  0.4780078892568582 -5.214960037614618 0  0.4915128321991222 -5.163422638212617 0  1.453107450589235 -3.776346365457175 0  1.381509022377214 -3.786339800769615 0  1.425822095798711 -3.843378400353236 0  0.1497150564175271 -4.016023366230561 0  0.1072851674153377 -4.031541108041516 0  0.1150729056880611 -3.987643703117379 0  0.4384621302674017 -1.919865659909559 0  11.13882244436587 -4.543703956487836 0  2.411128630712362 -5.646102972626899 0  3.633447191436963 -8.028143604506649 0  0.3534853327471392 -9.635913139641515 0  0.1090126387364219 -8.806901367249674 0  0.1269385071884965 -8.766881560816664 0  2.548407007458511 -4.673046284782266 0  3.410726748547923 -3.453748516445372 0  3.367011377759598 -3.56289163714159 0  3.296259981935673 -3.470606378846462 0  0.7210286600511306 -3.3086515130799 0  0.9824455474845859 -8.083468330511876 0  0.523916597478749 -0.1186164155493579 0  1.348463408827426 -6.07435466884586 0  1.325662223051031 -6.141403992631961 0  0.1246046504710403 -8.169171141288826 0  0.1423596476569209 -8.127732277325771 0  3.821326176978729 -2.531542677095141 0  3.774413571004384 -2.648339473029884 0  3.704053032134698 -2.553672888271928 0  3.850576415374682 -2.747337014305647 0  3.727390700746 -2.763556669551015 0  3.807525056801374 -2.858594835782112 0  0.6240557497694397 -7.262526728402087 0  0.5903085211593151 -7.218913675816693 0  0.5696937169376906 -7.270670693931168 0  0.527506483165892 -4.399245174851729 0  0.5146315303347571 -4.452402022286001 0  0.4699780127375259 -3.963350031681861 0  0.4468075362432327 -3.82636594536617 0  3.565333392975059 -0.308276545425251 0  0.6821544110155138 -3.261257272527907 0  0.1842468076236567 -5.891558120193542 0  0.1400999975657484 -5.902535756715571 0  0.171492542187238 -5.935361150455627 0  0.1280768165208457 -5.945597181648095 0  0.1227174084760545 -4.34331188821448 0  0.4541951174339829 -4.723359626347658 0  0.1160119090962901 -3.241850524748481 0  0.2608715125170669 -1.278693912039054 0  0.2244153735508885 -1.250948867353271 0  10.42531197360576 -4.823722880334141 0  1.250788551562112 -3.1340416410792 0  1.211546699320955 -3.095734679816424 0  0.6152548933910946 -7.412320422067458 0  0.6541678479292798 -7.453225098851232 0  0.5817539473108404 -7.368771391638532 0  0.6460600026008674 -6.486154244796217 0  0.6275208197201891 -6.540157088536233 0  0.5912290498761852 -6.497607735152806 0  0.5737554710887309 -6.54990029475021 0  0.5375653973997032 -6.507795796492125 0  0.330618799051603 -0.4913123413714029 0  0.2685145329634775 -2.701626409796292 0  0.6091893535960065 -5.634918532415043 0  0.5934502113017412 -5.688788464376042 0  0.5554986005880291 -5.64791393743133 0  0.5404804320808871 -5.700374231612648 0  0.2802753532398921 -6.31391769653586 0  1.681484314385784 -7.786614530027196 0  1.604516099328597 -7.796788048614248 0  1.633514648406258 -7.727650351413417 0  1.289793167112119 -7.413826597058677 0  0.1422598081641517 -7.496689299009219 0  1.048202251074638 -8.455208092490388 0  1.677869837864755 -3.771265478562678 0  0.9045427805114485 -1.842466242690749 0  1.818785296968713 -5.108655621242956 0  0.7481722764804672 -1.687847528304264 0  0.7018807045788389 -0.9195962326490559 0  0.1685711006041224 -8.956951773406429 0  3.76055552439983 -0.576543375976228 0  3.151092402404554 -0.3882052375105527 0  0.1921438343487161 -6.039390473938591 0  1.497143290225928 -7.879384777475006 0  1.468340496525222 -7.952011031010344 0  0.1822323765735661 -1.271500441455678 0  0.1875783467657666 -1.224679954165322 0  0.1458576072403872 -1.244925911564212 0  0.1504966063429762 -1.198323413533158 0  3.308533880530863 -1.840333738576138 0  3.1996249829843 -1.855392540183278 0  3.266687859973604 -1.941506545020292 0  3.158723703458183 -1.956569907393714 0  3.225757012610284 -2.042738493365629 0  3.092613174133055 -1.871619006623172 0  3.053010611706174 -1.97066264811397 0  2.987874430424476 -1.887968923973129 0  28.73417117793315 -8.126990830777764 0  0.431809540239545 -3.395970730365103 0  10.39275013116552 -6.868508864196623 0  10.67671890565531 -6.844734125981836 0  1.181973972479048 -8.479466540711741 0  3.233281230683561 -0.9372096223438469 0  3.128095200839351 -0.9499915853429393 0  3.193220865850996 -1.031709252361577 0  3.096396600232215 -1.042302927772574 0  3.02622594081318 -0.965346761678723 0  3.702675242478239 -3.839358602366156 0  3.581822549230308 -3.85437298345925 0  0.5012151226516757 -1.794793996938102 0  0.1549866651724159 -4.584177863825598 0  1.778739475804318 -4.687930822001596 0  2.307547732054259 -8.298676848875191 0  2.358475350488316 -8.374258606562211 0  0.1988401526892432 -8.484388805957503 0  2.837006744619108 -1.520994220185008 0  2.739539595351886 -1.534758872211476 0  2.800075121147746 -1.611704450752305 0  2.700541300529684 -1.628002167298748 0  2.760132775181248 -1.705453137167738 0  2.643351995524423 -1.550057433449433 0  1.662387350591704 -1.440241456763054 0  1.589925426496491 -1.449923258741455 0  1.634325354069672 -1.518890508186399 0  1.546120688979313 -1.390645649827503 0  1.521513230436639 -1.458406541051611 0  3.509059814048637 -3.757346872186803 0  0.1794858410647002 -8.526466112149674 0  0.1538129577307359 -8.488340272407001 0  0.1347832578835249 -8.529546227777924 0  0.1931694054321706 -5.202004253695531 0  0.1752104100577423 -3.873899985923071 0  0.1395176742587179 -3.845302879459974 0  0.1319915603261137 -3.889115237442382 0  0.147630299676603 -3.799776368679165 0  15.04278147252767 -8.892169590909727 0  1.418140469578201 -1.216920995734463 0  1.017558736515914 -8.721042916996206 0  0.1848812215203033 -8.325578475825719 0  0.1399110441284694 -8.329957068182232 0  0.6085508624420921 -6.595262003988381 0  0.5552110366725724 -6.606465238076725 0  1.47118682803282 -8.685247932075216 0  0.5052025912948572 -5.662016559199103 0  0.142825069410577 -8.920495264833701 0  0.5665818232170352 -5.944910816609813 0  0.5142992071244503 -5.956230917936407 0  0.5517036543189739 -5.995628524351386 0  1.785725500208946 -5.554355381837563 0  1.705237527901531 -5.56111550204981 0  4.164677012572801 -0.3957976883044765 0  4.291833142002154 -0.3722846193724099 0  10.78264350363092 -9.388455382455378 0  0.5538024795437178 -5.294554740041957 0  0.5023970748321815 -5.306428149418994 0  2.50573572112425 -0.3275407376851431 0  2.534662498905998 -0.2444609993344731 0  2.448550098770824 -0.2602060366913275 0  1.486766827003844 -9.800934122264632 0  0.8640798598459281 -8.945400320924126 0  0.8087326413950038 -8.950716337624598 0  0.8319260700115176 -8.901453553223901 0  0.7860928377225243 -9.001375060560729 0  0.7545451954935469 -8.956378487279901 0  0.7321923654470979 -9.006052782320074 0  0.8985337570856657 -0.795968233142367 0  1.367265799344043 -2.939256485935889 0  0.1244719381662236 -8.960755540219871 0  0.09894519810032421 -8.924949258920407 0  3.881662153913709 -7.10046947524358 0  1.27256540391523 -9.282859489697543 0  2.035637982268053 -9.788976285431268 0  2.112230885623809 -9.786150039838239 0  2.146471636134013 -9.715793813094017 0  2.189925958782563 -9.782269485123159 0  2.224921851104778 -9.710242691733775 0  2.269382757741409 -9.777753524572487 0  2.305262909726167 -9.704314485546721 0  2.350845272134526 -9.773516337454309 0  2.387302942823748 -9.698198412981085 0  2.434480774909993 -9.768573247902809 0  2.472209035604115 -9.691900294941236 0  2.52071310213983 -9.764189554417936 0  2.55849129412398 -9.685556065389493 0  2.608526462872149 -9.75959647690931 0  2.648309036647778 -9.677543000743601 0  0.1174281904825687 -0.3909799994257028 0  0.115081117956672 -0.3463296950671459 0  9.11833399252556 -0.7351425327881209 0  9.368669021468998 -0.6975116067236256 0  0.4604979857578826 -7.69934083700981 0  0.1705717335767538 -0.6097737373586245 0  0.1346379157585993 -0.5856640741749981 0  0.1302063966073987 -0.6306589028388059 0  0.1390126398829388 -0.5417364989482305 0  1.426927774828428 -2.014692054073783 0  1.405866502059517 -2.079908318814935 0  1.471112690186997 -2.063249712882529 0  2.698572888974656 -9.754230143745696 0  0.1955355167547221 -9.537059937206102 0  0.170837649430247 -9.501998782769864 0  0.1529052277646166 -9.540733441634771 0  0.128395634379336 -9.505976520518917 0  3.609262210770408 -6.354207171299198 0  3.560974734698112 -6.467278771048343 0  10.47624442930053 -1.706966228026984 0  10.58299966053938 -1.444727370414607 0  1.246438437901114 -7.359060180720387 0  1.271863811303131 -7.295022034364269 0  1.204102808136673 -7.305067110871594 0  1.228823921237833 -7.239603501671826 0  1.149398954821441 -7.257077843438184 0  1.183419974633367 -7.187584375685577 0  1.11128834524121 -7.199290638785747 0  1.141448428372726 -7.137593163316251 0  1.074291358032493 -7.148309395777618 0  1.098990455368742 -7.087320542722706 0  12.14834906894369 -6.895727260877377 0  12.27731646036837 -6.589500671673096 0  11.89853055847525 -6.632517260672486 0  0.7008114915315762 -8.961755724391812 0  0.6790906381566408 -9.010247145526519 0  0.648351376721628 -8.967623720065589 0  0.7092624617489829 -9.053758409243713 0  0.1683236193956539 -4.137455009770928 0  0.125984085615741 -4.149333075279362 0  0.7831109997403836 -7.392296716167513 0  0.7608533779218689 -7.44514053272121 0  0.1133532561606465 -0.4320554882187571 0  1.559401415969615 -1.02009656393269 0  0.95795073000766 -8.726751646444177 0  0.9351764479109672 -8.781523836687709 0  0.7689711851085121 -0.4501047395239972 0  0.7215130330722239 -0.4586438227330429 0  0.4209817391499389 -8.671551868764219 0  1.018773275801387 -9.07996055111413 0  4.531432071700156 -7.570192631843656 0  0.1248380539919687 -7.943680060475108 0  0.1509304474859192 -7.980205125321183 0  0.1958206426231968 -7.975600460053144 0  0.1769620455975094 -8.014678678964534 0  0.1323652549720293 -8.020787774618656 0  1.184110545232341 -8.864693895694987 0  1.244658601389087 -8.859186759106496 0  1.213690382823948 -8.915930690437278 0  1.717343689235797 -9.42661466993885 0  0.2393841370933369 -6.837270509600453 0  0.2258888657617035 -6.8773576043686 0  13.92391157420689 -1.021627296186749 0  14.1511937073167 -1.314679877517077 0  1.361615913543918 -8.633913016824811 0  0.946361495390093 -8.033160148365674 0  0.8804189937841027 -0.6567723838328581 0  3.257977587351409 -6.381989140124874 0  3.322334345169462 -6.476379966144897 0  3.204579654871109 -6.475258210271376 0  0.4227920595567376 -0.1023659363504237 0  0.3866198386102351 -0.108005827139892 0  0.6117589505942078 -3.130537221382163 0  0.1461545187198308 -9.467241677948168 0  4.547055459468933 -6.34840887327047 0  4.488800107601104 -6.481305990181058 0  4.573247854189381 -6.598360188545445 0  4.430314782181222 -6.611967736211645 0  0.3172518171374961 -9.903992117378522 0  0.353508778747905 -9.901778600627358 0  0.1552177434522957 -0.3340358472793099 0  0.1241067580495958 -0.3076484619905662 0  1.520728921654248 -0.2287894520713314 0  1.479983361391943 -0.1812347566144989 0  0.9394720432412811 -5.404283682697834 0  2.067779662844851 -5.977550421210147 0  2.032922310448242 -6.05645041897624 0  1.947960839405452 -6.062289428113756 0  1.99515867035694 -6.133439291777995 0  0.9920463085097389 -6.73118850142273 0  1.352793523035627 -1.226470596699082 0  1.393560287826269 -1.281115492803178 0  1.310374271975256 -1.174585908075321 0  1.154014955497933 -9.400900838285594 0  0.4183258095638145 -4.327729450156753 0  9.979759913871993 -4.621397534639645 0  9.90727220092888 -9.392430687161609 0  1.433214326907869 -6.727853079391208 0  0.2670613551258505 -1.227467883544975 0  2.46915045295056 -1.301445471183874 0  9.242027291248018 -1.61291754402537 0  2.236192763188447 -5.291975562526843 0  0.1236933940650076 -9.241657160390961 0  0.143315181480336 -9.201091770056397 0  0.1058756685812181 -9.28117055569933 0  1.284499947845461 -9.852699072500858 0  2.37222393343708 -4.840089578098954 0  2.33471848255302 -4.919599859119219 0  2.432103020683703 -7.57173242838174 0  0.4236041616091466 -3.44760720155065 0  9.923602925208431 -1.773108723719245 0  0.8919494380815216 -3.474485300225116 0  0.2871852384424471 -7.303974838730364 0  1.017030468991916 -9.701999765605198 0  0.7034515392548268 -1.65645125641126 0  0.7530746395748231 -1.634881957282841 0  0.6826799716403009 -0.9677920269198905 0  0.1447301344549246 -0.07776449429376964 0  0.1108246917703717 -0.08240384110737331 0  2.966018350811186 -5.127870564688837 0  3.009052721250928 -5.028601593104677 0  0.8132210952070729 -1.97293171446417 0  0.2709818554958296 -7.346829094536815 0  0.559634124663793 -1.277786128747232 0  0.2634923140982028 -4.246822709039 0  0.09830212731274734 -1.354500054973956 0  0.1219838642102271 -7.292177782584552 0  12.12549802810052 -8.448253958282084 0  0.3533062562067002 -0.7369484830037916 0  0.3568845279814958 -0.6920135591692409 0  0.3944625056294999 -0.7176195659257063 0  0.3976298173992756 -0.6725338147850852 0  0.4356425236450789 -0.6975895352767294 0  11.7090252864481 -9.333961490354922 0  3.18730164166359 -0.2991042902602441 0  0.3256337523097805 -0.5781493561823714 0  13.4423699957043 -4.554490087597824 0  13.80543762449079 -4.517392744591492 0  1.214399349845763 -5.502681571092126 0  2.739271193734767 -9.672248101302388 0  2.791370851041263 -9.749665962646976 0  2.833453158062518 -9.665408252420052 0  2.014416739724362 -3.114780248293589 0  4.981391439599994 -2.61764530181406 0  4.837254617475638 -2.641783855444565 0  5.106697997957099 -2.617120111610532 0  4.755640506724513 -2.526892606013114 0  0.4954465639035384 -2.216072103898528 0  28.86422226900302 -3.497288022613509 0  28.63380041870764 -3.125560076291853 0  2.886508265601588 -9.744823978259044 0  0.3690243290230129 -3.228130432189174 0  0.1575205590785043 -5.690309037510436 0  0.2020316744377588 -5.67439353194406 0  0.4112755862739128 -8.215489154369875 0  1.694810334320833 -0.5963566306620534 0  0.3625614910948425 -0.6030348755429404 0  0.3660261750421476 -0.558640924355557 0  0.4028395141392949 -0.5838461611847849 0  1.035303684573064 -4.66777040559857 0  0.3389861756972508 -9.061779103824463 0  7.872513439385297 -4.552619354749213 0  8.010694314423176 -4.749834399073441 0  0.813687048739137 -5.276567593159091 0  0.5558112518470715 -0.8174858516573176 0  0.5152729893097749 -0.7901191553389726 0  0.4493582045545974 -6.054925418111012 0  1.563324100618507 -7.561466966188775 0  1.638161835735238 -7.552416073966568 0  1.66729184752068 -7.484915452928957 0  1.7133430198604 -7.544929478329026 0  5.021923553408413 -8.702733837502898 0  5.174745696963441 -8.691009350248571 0  4.872239621337817 -8.715199969671925 0  10.33594234651793 -0.7520086495221721 0  0.8289045946090745 -5.938502740437019 0  1.255325986286609 -5.970134625975635 0  1.323703838583953 -5.955686351666634 0  2.16128387269479 -5.452624493252118 0  0.1990127029708244 -1.478574593856441 0  0.1576805378979742 -1.496216173772088 0  0.1217209809821096 -1.469738929571135 0  0.1166411954792679 -1.513485201008334 0  0.1522397011677405 -1.540387157754673 0  4.780107588813998 -2.979579846759948 0  0.518450791049375 -6.969347479200781 0  2.106759883438306 -1.191384277138058 0  2.077616263774271 -1.266311207147268 0  0.3181388190012751 -2.949171664094536 0  0.3115776685801901 -2.996183211055141 0  1.332506207711344 -7.981273529206628 0  0.8231135901005029 -8.576779607427333 0  0.2396904130436504 -1.462710794246627 0  0.7165424086048002 -0.3524325181060775 0  1.203998530984759 -4.858961355033506 0  0.351177711284322 -8.938012363936693 0  0.7473974521323807 -4.276765274296681 0  2.566851553117907 -6.32572980897275 0  0.193133438112346 -6.588495482134128 0  0.1482911906278517 -6.597560223463972 0  0.108472716962309 -5.869685499378392 0  1.630416453357887 -2.761297431516746 0  0.6614301059215677 -9.901002781818997 0  18.13622073486144 -4.096439792108213 0  0.9428622760562089 -9.226307271968333 0  0.9763487260544892 -9.874588674504373 0  1.827316250735077 -3.190344357117973 0  13.24091368885171 -6.24457411210898 0  13.44857370525093 -6.542295956058613 0  13.83120302919959 -6.521357932653777 0  0.7600624284838311 -5.086782204281169 0  0.8000230084318609 -5.129151129064946 0  0.8206744506996753 -5.077010209759496 0  14.29409167171037 -0.9666818349008972 0  14.52815782873526 -1.267764887370736 0  0.8062483658668533 -3.724466532237042 0  0.4344459334850015 -5.791230283234263 0  0.3439751702880045 -8.553553848530449 0  0.3705867352593515 -8.592039096507426 0  0.3910165069654887 -8.549933041726074 0  0.6538172896967538 -4.006397232196622 0  0.4491447045245636 -1.475026607530126 0  1.131026848227631 -9.085548672999344 0  1.19044574402845 -9.079165966409825 0  1.155790690030356 -9.030603066226012 0  0.4411620245097332 -6.232300790342288 0  0.6999886483366407 -4.494721038529359 0  1.094758992826881 -1.750030878484115 0  1.112938526731316 -1.691334272175617 0  1.155318098449328 -1.736652136625515 0  1.174509044662015 -1.679634588901302 0  1.13185946271012 -1.626911715976353 0  1.217093444942236 -1.723669628151819 0  0.4500703681883635 -6.628533584778552 0  0.90033264367203 -5.917873861584225 0  0.5540005296983761 -8.111042011220185 0  0.5240573436198783 -8.068904255321716 0  0.5757247089709381 -8.063677038341442 0  0.5454500563205968 -8.021172743727407 0  0.4728063278392938 -8.074253809297153 0  0.4817983897322389 -1.606674492020911 0  0.4749419101476864 -1.658601223134662 0  0.7753529875406127 -5.594981961283709 0  0.1216204356436297 -2.564795699080817 0  0.1162058261980743 -2.609440900008591 0  0.1274118877567201 -2.520345649532281 0  5.342470263793544 -6.538815977170611 0  1.557453820801484 -4.982371648529744 0  0.9736097302813498 -1.399075724909043 0  0.1203000104255203 -6.818315524140651 0  8.009407640345096 -3.775901706949456 0  7.873767291525951 -3.599406438066127 0  8.095356753028309 -3.568515023618122 0  7.655903603607635 -3.629349223609546 0  8.240867753117735 -4.728751697444838 0  8.149809538157074 -4.938109411398359 0  8.378709219650979 -4.914141124161314 0  1.957512144008104 -3.442722469582424 0  0.5249819045261059 -1.154245117555371 0  17.84085151227558 -1.663422861368485 0  17.55770660323513 -1.294333248634703 0  17.09699943892201 -1.358291526125934 0  0.3784616985621732 -1.632059928176373 0  0.7344565682458217 -1.797002674680875 0  9.782900338790451 -7.274524736784578 0  9.612519371568961 -7.0634742643514 0  14.40076910050727 -3.185533183984576 0  1.531688684775165 -2.473521218119314 0  1.04755733361679 -7.310615256817469 0  0.9898021779267729 -7.588158720320034 0  0.3729243094842758 -0.1413313109411067 0  0.3505896041675562 -0.1133797718567093 0  15.87917165372766 -8.838575389833363 0  1.894033249244144 -7.133873547870984 0  1.297439545058504 -0.375904026512643 0  1.273535440604501 -8.803510984472721 0  1.602513566220351 -5.23808233774122 0  2.5209863310494 -2.578414594424908 0  2.609692556522454 -2.566466827696852 0  2.5777609798246 -2.653910613607024 0  2.679924716848257 -2.632372388992567 0  6.417329026216471 -0.8005892658326328 0  6.601906425180655 -0.7735341874374457 0  6.675258838276143 -0.6020996323316519 0  6.784629075503085 -0.7408025990649634 0  6.866129629404041 -0.5663886070168571 0  6.981258674612969 -0.7414558659242401 0  2.030760324036912 -3.652346008735637 0  1.451851224103184 -4.489286086936414 0  1.639782122760991 -7.035320661210235 0  1.541130896683285 -0.1678585707935607 0  0.559804135690122 -2.865871577331894 0  0.7608005057418321 -4.883823572130471 0  0.8167830763307329 -4.868420323310488 0  2.115783941793884 -5.901643622207479 0  0.651880562778004 -3.758591758696645 0  0.4025744933745798 -4.421436107672614 0  1.093866065444827 -1.108052106652986 0  2.767086364976732 -0.7592323158852423 0  0.2902559702263652 -7.559652936535076 0  0.3088466408790644 -7.516260369041978 0  2.863719413593358 -4.372497307369974 0  23.80076052884297 -6.471055259619407 0  0.3453281992256034 -3.856381383226089 0  2.881306921613035 -0.6218282734754794 0  2.067388585422703 -8.544379193495971 0  0.9884518720941298 -2.497338046401619 0  1.032907718497576 -2.535628905410054 0  0.8852756059093334 -2.156669163826961 0  3.843291470400585 -3.498246794445812 0  0.7900356371487884 -8.53318211478495 0  0.8129881899501932 -8.481504658296112 0  0.5648086350160852 -9.464395512364696 0  2.299345302067115 -3.386770709326915 0  2.332074958792065 -3.303142659773179 0  2.275121183801398 -3.233135533338837 0  3.620468932044201 -5.855020119902384 0  3.74340377666017 -5.844399667843821 0  3.688905438355738 -5.949857441176341 0  2.637551816370401 -2.729399208843112 0  2.731688302068612 -2.71907181916489 0  0.4532325166062332 -1.815521538069646 0  0.4608225115832845 -1.763537939262082 0  0.3081293565891752 -8.716758264218941 0  0.3285632200404898 -8.676920620735725 0  2.648992660037102 -2.468382229618737 0  1.287369965213044 -0.8901200672872109 0  1.351868388010514 -0.877860085898158 0  2.100458925844023 -4.861585131453887 0  1.480851132839661 -7.756191586020829 0  3.250202736603404 -5.192377358877245 0  0.8438687998403189 -8.71168907987046 0  0.3244344222457123 -3.731848410408656 0  4.971469058132529 -7.510073144961707 0  3.983105590521111 -3.158516861232851 0  3.702233916567433 -8.125384177607661 0  3.753622502439187 -8.016012727216967 0  3.824262900062958 -8.114762912603517 0  3.875864221772515 -8.004291168864542 0  3.948583611758012 -8.102880100414204 0  3.999506542129975 -7.993005245365643 0  0.6136658831675081 -2.792224982873969 0  0.6197051733173318 -2.738446952488041 0  0.5770618852289768 -2.706478067973678 0  0.6265906290656602 -2.684633403920393 0  0.6709662052635395 -2.718254093545666 0  0.6774340351495773 -2.662759948517324 0  0.7223005674868084 -2.697066987484812 0  1.489986915411208 -9.207078377673017 0  1.841276428670042 -5.770796040667358 0  1.716090194996926 -9.736441219460035 0  5.239567227617584 -8.550476166758433 0  5.329625848100036 -8.678230267504819 0  5.397676030133397 -8.535708189034937 0  5.48933445876041 -8.666058385332768 0  1.021414555253774 -1.432564128397942 0  1.015415091547828 -1.491348214252749 0  1.856325591403426 -9.281098117490197 0  13.01813510045843 -7.098129732403068 0  10.51281026051519 -0.970191930394968 0  0.4330432868545753 -0.7416794354870868 0  1.819267224221571 -1.761768237691157 0  1.771988142590549 -1.70086228168277 0  1.867070624092214 -1.823253710058439 0  0.6569390304541169 -9.057912357970404 0  28.88736538437419 -7.706941452014036 0  1.277439647013052 -5.904472783644319 0  1.944486178340775 -0.2614805201615216 0  1.969145958323109 -0.1942325062734849 0  1.920971741828067 -0.3274647626716085 0  0.3829214535255545 -3.887381997053865 0  0.3756667390860855 -3.934794605696159 0  13.95193648097233 -4.181967248188349 0  14.17446271440719 -4.479238750701043 0  14.32605641916742 -4.13534051512284 0  14.55098597217022 -4.438653755380362 0  14.7063078557766 -4.085619161004597 0  14.93939316248722 -4.398853067305889 0  15.10076536788417 -4.034832231305722 0  15.33887879810012 -4.352209956897143 0  15.502529067086 -3.984743130768323 0  1.154347609003983 -4.436352711144059 0  0.8027957561325696 -4.925529346015692 0  11.89609273237106 -4.213279727658954 0  4.252404992929964 -1.454408310898645 0  1.152761594716953 -5.160000621782899 0  1.195701224533309 -5.21028878346775 0  0.9281323624081832 -4.41227499559114 0  0.1064337459512821 -4.435453003942435 0  0.9651710709713122 -4.68188569522766 0  1.816659002073294 -9.800128063384726 0  0.8822991616218001 -9.880809463537114 0  0.8565869670903261 -9.841705987891805 0  0.8357100188851874 -9.882984829203899 0  0.8102886500532342 -9.845866273189426 0  3.333666524174721 -2.033541728391986 0  3.292650929201983 -2.129805859326365 0  3.183455310894137 -2.14416368441741 0  3.250478489280168 -2.231900653062881 0  3.359962665388835 -2.217310157799774 0  3.317453593141048 -2.320473584756104 0  3.427269974679128 -2.307363806954569 0  3.385245868589841 -2.410786894462254 0  3.498109130607636 -2.393852243909428 0  3.467295117065472 -2.510946263640638 0  10.79738163276897 -6.581005091662639 0  10.96931245476069 -6.818243278261697 0  1.742143598462865 -7.475100368133315 0  2.860779839866181 -1.688522595806818 0  2.824255601405961 -1.780266061208261 0  0.6636524782732973 -3.950176557510687 0  3.659756410753502 -6.244114239744601 0  4.030863594417097 -0.7522198725852602 0  3.908070138926018 -0.7725463508207202 0  0.7112067992550735 -4.440008891868035 0  1.197838430872334 -1.784012235211647 0  28.95866536474487 -6.344316323538894 0  0.4398126260235102 -0.652281511327458 0  0.967248807374439 -3.72319454746585 0  2.91006551527013 -8.009799898424054 0  1.214177438182681 -9.021882321859765 0  6.634870024126599 -4.709584737025204 0  1.246204693564541 -0.6655888748099681 0  0.4470348403917477 -6.499875153256069 0  0.8813296203256566 -4.372448396819914 0  0.1065976258324852 -7.383867762068729 0  5.567769855987823 -0.9144978796199013 0  0.3711321815134649 -9.178419728917476 0  1.171003688511245 -0.1346436307285712 0  1.118771407637073 -0.1428850337452685 0  7.052789173412842 -0.537888015806903 0  7.180219721597386 -0.6862710812334569 0  7.252763794163398 -0.4975149403296921 0  7.38263903570586 -0.6557478878812395 0  2.444827016829548 -4.08400190577761 0  1.15277421782595 -0.3283788522815527 0  1.189015036900042 -7.675498425994618 0  0.1163567079484658 -6.437843221295478 0  23.75567436048521 -1.669940028884297 0  0.595752986360564 -0.8531073617799736 0  1.583301118192463 -4.912806064823608 0  1.18594216177798 -0.9007981138982313 0  7.524909500287219 -4.778291248972822 0  29.05967199677768 -3.103353932535066 0  28.83376415173323 -2.73362232427613 0  29.15190285635093 -6.780117851991797 0  0.3643549102945585 -3.762473428133987 0  0.3709634036750185 -3.714353205518307 0  1.28585306619817 -1.236182545819026 0  3.488793088760877 -0.5189332015186174 0  4.692587673619258 -2.659365495589451 0  0.7049819556858505 -0.5049063949727577 0  0.676463379728224 -0.471689694539716 0  0.4632989483835086 -9.907090209572132 0  0.4236375523184073 -9.908674987648375 0  0.5005056564601418 -9.905016760097467 0  0.2318220469868404 -2.296918094831229 0  1.193598413054898 -2.535700402560806 0  0.5621667464415445 -4.893326520577679 0  1.245998328909392 -5.621092620610185 0  8.01359447145343 -6.431171255757114 0  0.1878630088159383 -9.195077314383369 0  1.05060567560543 -7.848186809523236 0  1.113613471736301 -7.841491604140122 0  2.994881310709422 -3.283540665383131 0  3.104778056679942 -3.270088315605775 0  10.14128517117244 -0.5000838523193432 0  0.1124001873142291 -1.557838602245556 0  1.118703272335031 -2.718421451047872 0  5.746147948453849 -0.4455290297118957 0  25.63899708212487 -8.322209285367233 0  25.06828106716624 -8.364175910479442 0  26.22760976148013 -8.197703073246018 0  0.3725156951713213 -8.762671936678057 0  1.78325361680916 -0.1698848028536331 0  1.715809704289835 -0.1817156320270428 0  0.4791483829703687 -0.6751449964563525 0  0.9939074017461547 -2.113521692631763 0  1.083153878296269 -2.851048670797575 0  1.635133415457098 -5.688451676039758 0  0.4194121659624912 -9.840707797566765 0  0.5964665320030633 -2.110217137686138 0  2.988684797585496 -6.468910233994754 0  4.280754484506026 -7.848561911506945 0  4.483397291585279 -2.441722765537489 0  1.031928940593621 -2.253824611452754 0  6.712097277868509 -0.9379553857027014 0  0.1816089810201866 -1.988537620471246 0  3.056445713899446 -3.374200103561589 0  3.025759555070012 -1.789840670571788 0  0.1130854744050325 -4.598260461259895 0  0.1456710668468713 -4.628137956956099 0  0.1067344501455718 -4.642466453781407 0  0.1374559833127833 -4.672287032241905 0  0.8535573391907985 -6.191005823878689 0  0.4430755547625722 -6.370947490507628 0  1.004275848143605 -6.995865261233932 0  0.7857014067609995 -4.771747219100915 0  18.0061544746093 -1.240882692016645 0  0.4769929368370285 -4.820194653877566 0  0.4118832920876994 -5.347378144818062 0  2.930563966895297 -9.659765092464113 0  2.98506377956134 -9.739768733367599 0  3.029922085802784 -9.652732465755332 0  3.085170520786045 -9.734757957018402 0  0.7211520871100117 -9.640817730194044 0  3.913664334999293 -3.596528065138771 0  15.32401295271842 -9.25824287696757 0  1.33902054272181 -2.091811477319137 0  0.09742271936394253 -0.1142155248039041 0  1.115321857962602 -7.578254613511323 0  1.177869090776644 -7.569978864981303 0  0.158630020786406 -8.289202833689981 0  0.5971122582692878 -8.015626991014846 0  0.5669813708399669 -7.972913589767069 0  0.6191207258566145 -7.967302886262248 0  0.5886512012812499 -7.924399543557984 0  0.5358473677530746 -7.930409478761604 0  12.6594427810495 -8.685751909650842 0  12.82975279482335 -8.977318260556546 0  2.998658509218076 -0.7797191605029052 0  0.9524518442232619 -0.7875684392198217 0  1.624147000348989 -1.007308258962078 0  1.670907800095394 -1.056979378065714 0  0.2675257782447922 -3.011818599538945 0  4.476673540978551 -1.530000122701106 0  2.781986578548558 -8.284042887071774 0  2.683621818044113 -8.286121570709227 0  0.7847627014507417 -0.1750039043453775 0  0.7555035879335215 -0.1393199662923088 0  0.09087839522701557 -1.040721387269134 0  2.840399068086942 -5.422734528338573 0  0.1638564515755743 -2.880088379155542 0  0.121905905840066 -2.897074796823772 0  1.384053785047533 -2.14375339746549 0  10.56675323347955 -7.112250828372704 0  10.97489168149098 -2.961139260500802 0  2.15287013903616 -2.944288546253585 0  0.5169386255567101 -2.447098213908771 0  0.7057331112875271 -7.039380786867128 0  0.7429724923744185 -7.08822457758434 0  6.222526736096563 -1.569308329777309 0  1.218806542940328 -5.147359762892465 0  1.496906642655246 -3.319744580734238 0  1.441049011455735 -3.248805410095523 0  3.963549313997301 -3.480228825581014 0  11.59137971315705 -0.6856157152629407 0  0.9053530203898799 -0.4635035189895547 0  1.857753777761712 -9.86286569737389 0  1.237092636933616 -1.658747638780782 0  0.1808039965170583 -3.345007787856928 0  0.1380670674316953 -3.364860670568359 0  0.6239116398247138 -6.699815451378833 0  2.302011336365785 -7.748084422482673 0  2.212709303868957 -7.757323120539225 0  2.176417208789413 -7.837114921749711 0  2.391570652730326 -7.737394590418217 0  1.346697184280371 -3.531135810181031 0  1.278903274059175 -3.541869417248059 0  0.2269970204238057 -5.402513944808741 0  0.336973245745277 -0.14701535576644 0  0.3167608453726753 -0.1173518377445273 0  0.5563551822368211 -8.333101833975455 0  0.1142096305208593 -8.293475999699229 0  1.498577842055266 -0.1210648121528006 0  1.800104205650467 -1.629174286471013 0  1.724571510845022 -1.640989735392369 0  10.71085493479755 -4.790566589646308 0  0.2694283930327153 -6.872772859086663 0  0.5056775562634837 -2.120048422016092 0  1.675662715838818 -9.680973479143402 0  0.1135861356302392 -1.88999435583324 0  0.1169801307750387 -1.845454386057927 0  0.1572167996686442 -1.826690903959756 0  0.1207054452466316 -1.801096751690071 0  0.1608228793375943 -1.782272439619388 0  0.1244207127687815 -1.756712696388527 0  0.1646116396552966 -1.737886450817888 0  0.1281670265668957 -1.712299711236179 0  0.1682787562239092 -1.693419301131087 0  0.1341814831551176 -1.66887222376416 0  0.2581139649530471 -9.226331899182465 0  2.426276234413855 -6.406855254791592 0  2.388507978407967 -6.485000648231231 0  2.295361332932016 -6.492740478681338 0  2.348019797841182 -6.569730116085878 0  2.257246037253131 -6.576229232974464 0  2.205018307210876 -6.500794730679063 0  1.297540831729213 -7.225399158804812 0  17.7188495714541 -0.8715930553778009 0  1.207029811069566 -0.3195221212191672 0  0.2484868915956877 -2.143325067430293 0  0.5639923581634676 -8.199114182315769 0  1.962148551448296 -1.955730932702497 0  2.878560635644686 -4.103845192006581 0  9.156076697375694 -6.91186268216474 0  0.1113006002391224 -9.544032185007554 0  0.1350620297331826 -9.577986614781095 0  5.556608114148883 -8.520881811204243 0  5.652596490732547 -8.653349314510557 0  1.673533947862126 -4.247288500661312 0  1.747154932409961 -4.228975124234865 0  28.01304162772387 -3.511460436034279 0  3.925564172013509 -2.846677825810406 0  3.360113755830607 -1.443411625564713 0  3.289559488481729 -1.360661913086529 0  3.821527522235362 -3.824739910466044 0  0.3568511246035868 -2.980245141227468 0  10.60235904392352 -3.82038048613152 0  0.9098523056226746 -6.17930225090981 0  0.3168570102197652 -7.340954287891833 0  0.5044942505266441 -4.968630618745467 0  0.1139185315656572 -5.003021169996992 0  0.1237246292106846 -4.959012108582769 0  0.1665654903270024 -4.945199322088367 0  0.1327747843784124 -4.915055038485985 0  0.08863370855323893 -4.927977602258029 0  0.9571010630953189 -0.1858900037675841 0  0.9736309769319629 -0.1401207733180163 0  0.2383685536307922 -6.577632584450996 0  2.458902265043267 -3.440351913229317 0  2.521718111222468 -3.513860982663819 0  0.5783019603250121 -5.391609894824013 0  0.5838447444739501 -0.3707809259300801 0  0.5574810073922531 -0.3347492160410344 0  0.6130339912190657 -0.4067799030064858 0  0.5207013051375924 -6.40877403766605 0  7.067602692939169 -4.99354320108429 0  7.140849757411393 -4.815738122766582 0  23.39692661110614 -8.527237574929464 0  22.81680263050495 -8.558938124963722 0  0.3143553968675583 -1.155394578684639 0  1.385169527115384 -0.7548687842910189 0  2.113009355340891 -2.155505967869066 0  1.244181746969264 -0.2166401201900703 0  1.261558496664776 -0.1591632006998722 0  11.09307803370037 -6.550157486975764 0  11.26943381792814 -6.793074394672172 0  11.38524415908122 -6.529841426156002 0  1.088396409298332 -5.540746340991475 0  24.14676658918987 -6.939162160629635 0  1.934755083367611 -4.327601218214853 0  1.877638445287925 -4.265782089582435 0  6.081496048523199 -2.208959663622161 0  6.188674784917978 -2.346573600792508 0  0.4060003777804795 -8.802745909788648 0  0.7658112710532805 -0.5826057187436486 0  1.754592441059408 -6.810004083162707 0  0.4839466949290507 -6.666695894079183 0  0.4667209617806023 -6.720255749084308 0  4.027539975637302 -1.724675032877756 0  4.107364634344467 -1.82745561519378 0  1.82581247608163 -1.162706177119229 0  0.3006367188580779 -7.846774135245303 0  4.213219290918293 -2.135841530993678 0  0.15773752262219 -0.7453180349057247 0  0.1222189937520142 -0.7204750648002474 0  1.293379110518838 -5.672155737067332 0  1.27134795007186 -5.736819852938737 0  1.65445892596976 -5.095378290508114 0  0.1792757636927931 -4.661128676448085 0  0.1690709804238235 -4.703745653951343 0  0.1278764668903491 -4.716806444962112 0  0.1597969292612742 -4.746946048711709 0  0.1169914060142183 -4.760490274404837 0  0.1498468614928861 -4.790665982397821 0  0.1069106594896052 -4.803364429298171 0  0.1407423412917108 -4.83272826424221 0  3.588376445938561 -6.149572076518565 0  2.732272552710661 -0.8497316892737814 0  2.823619157197651 -0.8315864667346409 0  2.22607739432468 -5.668109222593486 0  2.277204085369503 -5.742224249867303 0  1.742866979624154 -2.427151256100777 0  2.627768715559956 -0.219835288877813 0  0.1993364312093195 -2.203727858731995 0  1.478663626321953 -1.400501669651898 0  0.5574893178042082 -5.091368410978066 0  1.599526949164645 -0.8513430580764201 0  1.910305900612299 -6.136524792119208 0  1.863789258969907 -6.068084445597553 0  1.957124722957001 -6.20722696335275 0  0.5839594114775277 -3.286839222984416 0  2.584221522938924 -7.272567555738824 0  2.683953114205499 -7.262291514449333 0  2.487265181281002 -7.280543129682298 0  1.300871042759274 -2.751060972239901 0  1.351348273746501 -3.851766898058926 0  1.725959430926789 -4.51203458047478 0  0.9215134091732846 -1.133624863294444 0  1.410469847467558 -4.076578362390364 0  1.454275818594828 -4.13536754557339 0  0.2658184192430291 -6.361437203861326 0  0.9740322906252707 -6.32768076584272 0  0.9565089643898883 -6.384104742957108 0  1.256369910732754 -9.903272048125199 0  0.8748999167739555 -5.261324703076546 0  0.9159644459306584 -5.306394996865954 0  1.750704394242328 -5.620121209047475 0  5.213899820910338 -1.014183626938671 0  0.5225258464929716 -5.053634876376136 0  0.9238508100276075 -3.683656929897388 0  2.016691641370327 -0.2467397260181148 0  0.1453671701621726 -1.58413651584976 0  0.1026760855223792 -1.604984522229418 0  0.09733496208728099 -2.079776433424946 0  0.1013759727222023 -2.03226328871337 0  0.09065213887522638 -6.407045670055682 0  2.950730409388981 -1.983239830989587 0  3.013425239116222 -2.068594334514179 0  0.110448399095338 -8.491969433035038 0  0.1056315327662425 -3.815422337117045 0  0.113031393669754 -3.771262259313319 0  0.978851946946822 -4.461285647373668 0  0.2914493084388727 -9.746321574634424 0  2.397728566834012 -9.844340009637119 0  9.334731564445644 -6.464778275672655 0  9.163222962935702 -6.26421803077969 0  22.22578601924979 -1.41768790308248 0  7.958346387372091 -3.395827605463452 0  8.183796902122641 -3.366213825324123 0  8.322082040939945 -3.537818735141208 0  0.3279672006689811 -0.08564785755325932 0  0.2936529376354269 -0.0908188321272112 0  1.897471725522768 -6.920211185867355 0  0.2600336406268973 -5.615258374897779 0  6.416200865534375 -5.229662625953567 0  0.1136892844426463 -5.703661722785227 0  0.1019415503844847 -5.748278946695674 0  24.35958515838999 -6.405677377004748 0  23.96132550863439 -8.472375819598142 0  7.685671781821354 -6.275566711574001 0  0.249339952291157 -5.136797429132778 0  0.09580621515836363 -8.33373549210574 0  3.949708689292086 -1.624715635747776 0  0.3837727532727264 -3.414447631446323 0  24.20058905579208 -7.928397334498392 0  0.2707037489285682 -2.322390400675936 0  3.788349631147735 -3.066077657649019 0  2.340811068163946 -9.63096734616788 0  0.1104690380002094 -1.218371483186043 0  0.1146157616744574 -1.176086911858974 0  0.6409391477150947 -7.918369466507865 0  0.610880866713515 -7.875227039592907 0  0.6634272322934862 -7.869122231802176 0  2.441451122821627 -6.562383891987251 0  2.400695169619169 -6.647652619768742 0  2.493718156450711 -6.641813270402398 0  0.3859395246312047 -4.289778162827503 0  0.1104024220572306 -6.176995726202939 0  0.07964763080512505 -6.145176822574568 0  0.1052942820539595 -1.262296727523051 0  0.1018733540251855 -0.5616585174696533 0  0.1053220223126878 -0.5180107142019965 0  0.4266539646619449 -0.8344144121384325 0  0.3714688826378101 -2.88650197406055 0  26.00119202390855 -8.82234615576407 0  0.9760684623005602 -0.2677661187450395 0  14.86165469273972 -3.739270389631422 0  3.04624282359095 -1.225595201124035 0  3.160123876220295 -1.198965886672709 0  2.694259274115645 -2.80945976437911 0  2.78865516399866 -2.795548580798309 0  1.141957319325254 -0.09292507956392804 0  3.1182635719811 -7.984963599796178 0  10.62048391877784 -0.7155056294509325 0  10.77994576705879 -0.9236982354261576 0  0.1808598887274862 -3.043005050976162 0  0.1378046039550256 -3.060108358797933 0  0.5822759772744259 -2.655402558945459 0  1.259963814371964 -1.768939342197695 0  0.7844364412397233 -1.775717489185392 0  0.7787468982532708 -1.831055439172642 0  2.477450029901915 -0.1855507704175139 0  4.231324590771948 -7.967853820603837 0  15.74636771213953 -4.303608651769115 0  15.91517024459862 -3.931512058950891 0  16.16308821857649 -4.273401456546429 0  16.33710209159079 -3.881015762880557 0  16.59205169782075 -4.215552439521087 0  0.5708204853314776 -1.13465854317216 0  0.5772524806458872 -1.083244563239678 0  0.7039067503828811 -3.740392158267902 0  0.7076022869711274 -3.68378161926757 0  0.6941180086194159 -3.793935361487735 0  3.54123690788083 -2.294793243448914 0  0.9875247058898324 -0.8283814613497729 0  28.40305368165527 -2.739038177124744 0  28.60166022169182 -2.343459354441285 0  1.873621776770639 -0.4604587522772015 0  1.847915227330134 -0.5240379483065416 0  5.988038886580092 -5.420565840388902 0  1.178884332250286 -4.751747170398541 0  7.915429952831191 -5.297803566184922 0  0.6539206013825574 -3.164367716990112 0  2.097212298374414 -2.879921448695945 0  23.43660433118853 -5.993886220030372 0  23.04448478916239 -3.293057792847856 0  0.5807984876685808 -2.276692833545627 0  0.6242303199524439 -2.308865909941042 0  0.6182601139704857 -2.360104150582731 0  3.131743097230148 -9.646725457095767 0  3.188926992584426 -9.729351118004582 0  3.236242560536507 -9.639321627269853 0  3.294248486878956 -9.724111677974605 0  1.733600501202048 -0.4784262069672449 0  3.141905145598594 -2.245437403567352 0  0.8293658829036783 -0.6641014649366896 0  0.6206572879049084 -9.902617192479299 0  8.462181000352153 -6.367540324244919 0  17.14733622604592 -3.349778308418197 0  0.1103278084357555 -2.987176500987367 0  15.66373421859175 -3.633206229596825 0  1.068233036495718 -9.697431382874768 0  14.81830892423967 -8.550079394856791 0  14.63428164514746 -8.878052875926052 0  0.7901739001034187 -9.889203682089509 0  0.8144973243502527 -9.923753672083475 0  2.265077127885917 -8.370797928694383 0  0.8734299526841323 -0.991606591280954 0  0.2239822148920148 -6.072207287553243 0  12.94608155429225 -3.356268429877996 0  1.197436800707804 -8.003988663180632 0  1.233470259753018 -7.950028265196261 0  0.4985228020258461 -0.08982131207577115 0  0.5372207786527348 -0.08463066266008479 0  1.920149418489491 -8.244347007309358 0  1.966345777861013 -8.311605876489619 0  2.046239158098663 -8.306933573059201 0  1.871961263189004 -8.177195687859287 0  11.22920427031006 -0.7328266504271852 0  10.74523789840221 -1.670942219484063 0  2.863227386349845 -7.498372326715975 0  2.904022594346813 -7.405488199587213 0  2.842148698142328 -7.326333606079948 0  2.945653032058784 -7.313627065128239 0  3.007763664668904 -7.394090235390083 0  3.049889269587075 -7.29819762102599 0  2.986429314827355 -7.215783256463355 0  3.114017899562366 -7.383913857147257 0  3.157492365244551 -7.284482954297913 0  2.957162278068646 -0.2376992086676895 0  0.4825636934988236 -5.9147661858105 0  0.3005072492663512 -7.384389291455898 0  0.09786721536961096 -4.266251626822335 0  0.8417582018191716 -9.365890934824954 0  0.7915755641849493 -9.370082548746666 0  0.8931457734076247 -9.360131447605628 0  0.922678125461168 -9.402490287992775 0  0.9456649339883914 -9.355367529038281 0  0.9753570662941797 -9.398027519612381 0  3.296619209691823 -5.089882153251112 0  3.364382171511659 -5.18189729356873 0  3.229654283177991 -4.996420555055346 0  0.7638616030599632 -8.584142197567086 0  0.4639916442899121 -5.965530097258984 0  10.65470343554451 -4.313209635003935 0  1.974464603385471 -7.120791983292895 0  1.941536504714747 -7.194099726705481 0  2.006939151834509 -7.046129582103708 0  2.968242233417028 -4.362807060791961 0  2.529411544544606 -8.204059701692826 0  1.439676700332296 -0.1361275463407576 0  1.706131992872486 -5.15751848492574 0  2.979866340692507 -8.270345875169591 0  4.39588827983264 -7.58921153897887 0  4.547898466993272 -2.008367039249485 0  3.052381727487179 -6.554346828894548 0  3.009802325633165 -6.649134096181604 0  0.4859789414344675 -9.938549425020645 0  0.1514930923165068 -2.636683506413421 0  0.1101579310686489 -2.653636964321599 0  0.8918327057565261 -6.69880237560195 0  0.9120203949380574 -6.64226254666551 0  0.8737407019869128 -6.596304328141594 0  0.9331987930354924 -6.585242359166925 0  0.894767631272563 -6.539383992831231 0  0.9545806905455336 -6.52937764890416 0  0.9941713138184252 -6.573825806366949 0  1.016872231426326 -6.516502850587518 0  0.9149861391614991 -6.487419575136074 0  0.1097412590386622 -7.78883899698233 0  0.1261556940526205 -7.74581470813528 0  0.09787245507779119 -7.253162171918071 0  0.1121856588768946 -7.208245569415275 0  0.08878666157297843 -4.525518277933164 0  1.447631343574635 -1.949147621932277 0  4.450582942188795 -7.467522884101211 0  2.136430386712446 -1.718145879021407 0  2.1872689906183 -1.785511796084527 0  3.606621861647122 -2.377691716648404 0  2.797033884907588 -6.65961571838734 0  2.687637496251128 -6.664684269169355 0  1.204362638781941 -7.508543185469104 0  0.3046714672811781 -3.040410529814664 0  5.724878084622357 -8.506315976709377 0  5.820635438630626 -8.637197591012335 0  5.896891541946175 -8.487227618197423 0  5.992711924692806 -8.623218363681517 0  0.9077463334198761 -1.534782630377515 0  3.255073430100435 -3.57678406777481 0  3.323620040611686 -3.670349331776839 0  0.7437509182225988 -9.823708486504463 0  1.825292550440412 -6.139595689512051 0  1.879431339793868 -3.058072782125823 0  0.3795122347124131 -0.203012278811701 0  0.4027764553248012 -0.2352439638499924 0  0.3581755610604311 -8.430811713664337 0  0.38482204532799 -8.470549006292218 0  0.08352840694303332 -8.771002749897782 0  0.1023063024428765 -8.732087436858349 0  0.6569456552546491 -0.3955304581730674 0  0.09097436471741638 -7.830048174483181 0  0.3777315596163557 -9.778146258740406 0  0.7185026252511122 -1.009956190646206 0  0.6661726740617393 -1.014712039352597 0  9.489723540919442 -6.647675931181311 0  1.932549204107325 -3.310580888720085 0  0.3409383156373806 -8.858060377525167 0  2.586350496535928 -4.148219849970443 0  0.1077297744657582 -4.226344479749241 0  24.21864871769844 -3.169167205860866 0  0.9216449559601454 -8.091074974141996 0  0.1785879979830707 -0.07394447700105111 0  2.159246907189212 -7.598412604501718 0  0.1063512557458033 -8.209421042793515 0  0.2812590538210564 -0.1249472965394229 0  0.3401210076557444 -7.54993403798483 0  0.7893140691559886 -4.315978855238747 0  0.5386167639259583 -7.227377152904629 0  11.94082969956975 -2.016890601522362 0  2.121960381830529 -6.049342320775186 0  0.305096340305516 -7.262186021186495 0  5.475006491469358 -7.715338069432579 0  5.539847845083486 -7.566955166167613 0  3.007197970922336 -4.266675511531028 0  2.286664928796583 -5.360303219212987 0  13.86379128603474 -1.982371139022405 0  2.215872915984992 -2.298944901849858 0  0.4420752289698466 -4.577524789975882 0  0.6634381370346478 -3.32429558569355 0  2.392424397670379 -0.1995840989216253 0  2.363265737639159 -0.2750473468308963 0  2.309034242240266 -0.2125736058941037 0  2.280954315748557 -0.289530020780755 0  2.230791181561646 -0.2176465270607109 0  0.4663873325819434 -0.266310405540592 0  2.409475837339711 -4.76076520535499 0  0.09653330492957224 -5.272473631386807 0  0.09537389449526579 -9.58088806931638 0  0.1225708955919345 -9.620303718372051 0  0.1981932226740817 -7.372930178694897 0  22.48711208100031 -3.363069390399279 0  0.07280151944904745 -3.786166994099613 0  6.066850068828579 -8.474461898556456 0  6.167042446198488 -8.613802935091037 0  0.9799444472921053 -3.659045504273941 0  4.075565936791914 -8.084058881847952 0  1.168567251578436 -0.7113346258999709 0  0.9705536146831228 -7.979286853600065 0  5.912930732771173 -4.828350031947905 0  5.739156384459053 -4.848000161545352 0  8.410679982651569 -3.326771200775727 0  8.55431671821175 -3.511632617078797 0  8.647295591054121 -3.300223539272564 0  8.792408455929923 -3.482211234088538 0  8.888511537437807 -3.269993676446912 0  9.037279380069071 -3.448651416468559 0  0.835004528628783 -6.400928069373943 0  0.4739929984181011 -6.270478518849211 0  0.49077915091382 -6.221274166035419 0  1.118521423483049 -4.344589045774272 0  0.57479472273398 -9.764892751452457 0  2.549046612902632 -2.745395689432928 0  2.039357703847292 -6.202972172639887 0  12.08760375268453 -6.319066660666408 0  4.155114056784248 -7.867781065341725 0  3.222864457396335 -7.372337389036341 0  3.268341526440613 -7.276905550993268 0  3.334174049649326 -7.360506505017188 0  3.379436396964723 -7.256745875486091 0  0.1053091569424183 -9.471999989404104 0  0.1217451623620214 -9.432788872342572 0  2.013291281219349 -8.378951397017918 0  2.093013806344462 -8.37467763153006 0  0.6651380074995235 -1.574641685078975 0  0.7127878925401969 -1.556562714716788 0  0.1588169600233265 -4.177181815356255 0  2.203510488598679 -4.99980128539569 0  2.249555741375231 -5.067647594555701 0  1.788310026782472 -7.54085152231603 0  1.924930278396213 -0.1330834215820014 0  1.473277024765327 -0.8684899771495047 0  0.4010156715403213 -5.043403067616957 0  0.4351681521278206 -5.080075256639438 0  0.8779119275368821 -1.894758914916151 0  0.3289675074017442 -9.744193845234816 0  3.709086699672332 -6.132710162973773 0  2.372531793237602 -2.515020913480593 0  0.6596847185584664 -9.68476509105667 0  1.704453096378092 -2.945897434253197 0  0.4297086637992535 -2.015109426641556 0  0.9514912273941682 -9.918309425331749 0  0.4549477200668992 -2.189136247102301 0  0.8658382661868309 -0.704756501052838 0  0.1106780951887423 -6.85833227917055 0  0.1651010141130982 -8.051620797077961 0  0.1222374374912345 -8.0599161474758 0  3.062299828122804 -3.083703108088649 0  2.814882624079818 -4.02254129449878 0  0.5694388051826103 -3.098405654903266 0  0.6290374695060006 -8.734508880417533 0  2.042176408191903 -0.1814399093151211 0  2.088827218850042 -0.2308423045005874 0  2.115795821047497 -0.1634370053293264 0  10.36057081342231 -1.980971464969434 0  3.578639083688889 -5.441904060008637 0  3.459194980853551 -5.453455863382679 0  3.506203692755381 -5.336940441529748 0  2.75911387144442 -2.884206180173768 0  2.845364562809927 -2.861331112132372 0  1.39463905445958 -6.12733622728366 0  1.371458258868861 -6.194893743393528 0  1.302276646236763 -6.207335396282038 0  1.348398199039121 -6.262390821589106 0  1.417514578589639 -6.248622274281178 0  1.394816581250153 -6.317384904685549 0  1.324131410556099 -6.328380686053434 0  1.464274849898619 -6.304557682942786 0  1.444039243269614 -6.371489676541955 0  0.9884788295553406 -7.854234635083672 0  1.96141820947585 -3.235530318371295 0  0.7912990406596379 -5.539603192341702 0  0.8320631799557283 -5.584903678493007 0  0.7049810423963319 -4.239456851342731 0  2.006811550714884 -6.278778379329724 0  1.104117526419676 -2.959904464649926 0  1.142067915380499 -3.009603935643268 0  1.208674161398921 -2.999431134887315 0  0.480296370517463 -2.370331643398248 0  0.3998371147338755 -4.86160019223599 0  0.7445450014600947 -4.733866669723283 0  0.9211036080017951 -1.944552127098548 0  0.9642689477163682 -6.949432000388949 0  0.1020186483183974 -2.733349362837909 0  0.4227711022683192 -5.652245393286722 0  0.09761434806397062 -4.886583270083698 0  0.5608702338666429 -7.419062188612953 0  0.5213017030030738 -6.125626645066291 0  2.131272831837229 -5.1554193447949 0  0.9164120320183731 -5.662449240918551 0  0.950823463260356 -5.714480356419888 0  0.9405982292835926 -5.766563480471081 0  12.5090659355692 -1.388739146699379 0  12.63407893763872 -1.077177839508477 0  12.43063276129314 -0.8240949796171151 0  1.683039893405146 -7.60906392411538 0  2.929583964723825 -6.383928144547689 0  0.589835213989593 -9.505842457284269 0  0.5672080390092145 -9.547067097375223 0  1.186897585737475 -0.3755431120226662 0  0.7033019986133553 -8.683732990051194 0  5.842643190034313 -6.491571078024522 0  2.019846087876738 -9.534286147189627 0  0.1062145901555205 -6.061983211640355 0  0.1166077221023425 -6.021063659671263 0  0.4447118348235772 -5.571034635880832 0  0.5353136250860864 -1.012530008220858 0  2.988151992231845 -3.005072202781998 0  0.1626727223683684 -0.2914635933125309 0  0.1271176265517262 -0.2683818014368091 0  0.09236680446351642 -0.2821578004456322 0  0.09558008914556382 -0.2405591383783161 0  0.1817794695254822 -4.820712215018587 0  6.810366925118501 -5.197105777506771 0  0.8340012566204944 -1.302449190754947 0  0.8834383555658345 -1.279999676848425 0  0.9316433904614012 -1.310423280748051 0  1.306933474109227 -8.854196985766475 0  0.9883566687793213 -6.266778149146483 0  0.7868688103046413 -5.183617863217163 0  0.8440739637810957 -5.16842272946315 0  3.385574859703313 -0.2509597811917859 0  3.343351700335187 -9.633029553888388 0  3.403390438739635 -9.718377315112518 0  3.452232419686059 -9.620197140977854 0  3.514665932257877 -9.711499994109344 0  3.336298832547824 -7.95890123898657 0  29.0697235966995 -3.890564238744425 0  11.63507819448454 -4.751269924815283 0  23.07918098446002 -9.023483206210551 0  0.1004293874587088 -9.205120671470393 0  0.1187667631317808 -9.165574352393655 0  0.07362543977166958 -9.171264153270641 0  0.08997368367153591 -9.134188816282366 0  2.173249203032176 -6.586137027049704 0  0.3381662210160936 -9.931292136897278 0  4.68014468075177 -1.00379299396039 0  0.104135824745768 -2.399280710220808 0  0.1014294333195576 -2.446697900529638 0  0.1073755504004623 -2.357557262167199 0  0.679985455130069 -1.421001198727933 0  0.0793444303833386 -0.781879132520273 0  1.513457688362593 -6.360699761692604 0  2.205582464833782 -1.930185821601701 0  0.1009031614859577 -7.904646703782751 0  0.4029177960327246 -9.292916779693495 0  1.139115835772511 -7.784007720486951 0  1.175686994158728 -7.839383877106858 0  2.452907979124454 -7.374112516280931 0  3.188883855690378 -3.49028260952335 0  3.236620749391662 -3.381861801971151 0  0.536429400341035 -6.075632522445046 0  0.8550315498362089 -1.557603442838923 0  0.8099311368876396 -1.525585362918392 0  26.61130607248676 -8.751310498566937 0  2.174690485276042 -5.596153173039223 0  1.781256015341288 -1.09892935644537 0  1.638276820250944 -8.609898669331027 0  1.6016132301582 -8.55210693731615 0  1.530093751110705 -8.559304285191221 0  1.561560525631226 -8.500793380404527 0  1.592217352271572 -9.854829905062431 0  5.232724085710405 -1.679500289820329 0  0.4844696352775149 -0.307272189101174 0  0.7240143649509569 -2.639833343250725 0  0.6799215423663121 -2.609288056190381 0  5.442401444646041 -7.443611396115251 0  5.607305278480876 -7.425465663680849 0  5.705032169186548 -7.547694927760985 0  0.7585940356179002 -4.224480503194814 0  0.4314178017609542 -4.275573429171796 0  0.9772395718118023 -2.556801924744773 0  1.02068184169832 -2.593681094983153 0  1.789833225091881 -1.833587951786726 0  1.344521994419575 -5.890081833865531 0  0.08062942329481437 -9.436680289528796 0  0.09691461686691305 -9.39807210435105 0  26.98532348481871 -7.46913508130452 0  1.780822413908901 -6.739436233774142 0  1.729942622668384 -6.679974859674516 0  4.82034619194911 -0.9765503510751223 0  4.913040482175569 -1.085898562195196 0  3.279777067404826 -2.416917992658986 0  2.766684163092213 -0.518282067366421 0  1.699319120396103 -1.709245310637753 0  0.2882063921306095 -8.78444999905145 0  4.606409806448532 -6.219679399228538 0  0.6378761532014927 -9.725283759589807 0  0.4945526592233271 -5.718558922369532 0  14.67846720072518 -0.9257336704875128 0  14.91822561669979 -1.222625916962729 0  15.07080151749812 -0.8708905673275842 0  15.31662669158613 -1.173797682340147 0  14.76323319057543 -1.581642378467639 0  15.46599882995319 -0.78963980967485 0  15.72055803055967 -1.118471564488833 0  15.56117054249289 -1.499836015505278 0  22.81744170714371 -1.389763739546017 0  0.9916845695804035 -8.67309253693357 0  0.3327835005981434 -0.4498594518936709 0  0.2980942704598117 -0.4268821921774411 0  1.95645975026035 -4.24930730440687 0  1.114485952922148 -2.394811163138425 0  1.165034215534011 -2.433178947232658 0  9.588489417813619 -8.48645321797046 0  9.42516685827551 -8.259803954006806 0  5.79277204758327 -4.698259139172307 0  1.879510837141586 -1.219426271159005 0  5.46159505420729 -8.396329931000466 0  0.2274696372541953 -2.677126189675191 0  3.191441624000772 -8.254609118489238 0  10.84557242841292 -1.400315557346448 0  0.5587894326575693 -0.7696178379846499 0  0.5180542864344737 -0.7430388122692522 0  0.9517989722706997 -6.062970767772632 0  2.465390456797349 -6.7219216824619 0  2.374861892225965 -6.727093323499161 0  2.817695512427582 -2.710616922252046 0  3.909362803374872 -8.2097068109037 0  0.6679272170635357 -2.341037355986044 0  0.656922738741633 -2.393396892723068 0  0.719486475121343 -1.505070333986483 0  0.4264483113160402 -5.126977492695636 0  0.4174718579752756 -8.588500836981362 0  0.4371186296076139 -8.544999428419832 0  1.050491751881413 -4.572347413142475 0  2.509475185510276 -9.612623137098932 0  3.210142467022262 -7.180313559875947 0  0.669200273870949 -7.157300112151368 0  0.2704168397876909 -2.657708834386261 0  1.279630530940386 -3.31650535311821 0  1.222736090388372 -3.33107256661485 0  29.02850002587168 -2.344060092470563 0  28.81807785802471 -1.947528222883189 0  29.27707462490053 -1.919515481185421 0  29.04258444420996 -1.522879086067603 0  25.05049778456853 -2.549913677446932 0  25.2854623179758 -1.985123084584982 0  24.86537648483036 -1.550793911594988 0  25.42094735272249 -1.470257054113314 0  0.8479253329853762 -5.882058280757298 0  2.918962143637405 -2.08577091666093 0  1.363820585833707 -3.128581777582272 0  0.9309857937801613 -2.19455405329871 0  0.8756358324608975 -2.213040316689105 0  3.990320067795457 -1.509109243360193 0  0.08941813810300481 -2.168369196136158 0  4.46753654124619 -6.22810928987493 0  13.6542031065704 -4.840965271464511 0  0.4568824938124081 -4.526615352966697 0  1.024617217454409 -7.90325473991415 0  0.5002947815267991 -4.308307401444118 0  1.307542028093129 -5.27952984890053 0  0.1347062786550488 -6.920233396736117 0  0.09107318876010595 -6.929406199334538 0  1.574921418023644 -0.9154605374026357 0  0.4692439133804314 -5.827157626426811 0  0.1332567590590017 -0.2274951718167344 0  0.09794036962791708 -0.2046265934884204 0  4.919477635891921 -2.772540538714356 0  1.991364421718945 -4.388841368768233 0  1.962513091080579 -4.463148996867415 0  3.26764725135541 -6.567588322456997 0  0.2169648241477837 -0.3297355417482422 0  2.429416547849867 -4.914076421958847 0  3.596428911211792 -0.5027493083733647 0  3.556436055533862 -0.6049726576389975 0  5.72948004446889 -8.790440376139204 0  2.12923162870605 -7.767850811501983 0  2.094388995466062 -7.842792248474028 0  1.196499771200987 -0.8380266259847771 0  0.2222852462432847 -8.012385461487968 0  0.2412179729215502 -7.970693134632754 0  2.780420457197767 -5.342360719803336 0  2.816062170514597 -5.244819238745017 0  1.733587899101629 -5.808116827326434 0  1.703198849259106 -5.880958837135525 0  3.799783417149772 -5.953289162680911 0  3.852386467852217 -5.840331124502161 0  0.63508134310492 -7.826697937047092 0  0.684155269337186 -7.820394281542896 0  1.62635645133642 -2.583623184983388 0  1.675586277206584 -2.642031413703928 0  4.955899746641556 -8.838808493375859 0  3.776322022822333 -3.932206678966101 0  3.898681228348142 -3.930850526231134 0  4.062239229425336 -3.255994525518049 0  4.10364165440968 -3.132744758821592 0  1.501309150948655 -6.915008719614372 0  1.452897787964048 -6.857785054408079 0  1.544029650895201 -6.975502273057199 0  9.208058674736659 -0.497816381609721 0  1.695096706663705 -7.413559059017226 0  1.771413595907989 -7.407249313110341 0  0.6914319380004965 -1.056738719110439 0  3.000585383796608 -1.058920503084776 0  2.929004388571167 -0.9823988825920544 0  4.350446541393556 -6.49880472002193 0  4.304091813101358 -6.629249655933238 0  0.8891831254273477 -1.086957438265787 0  0.2620489349517907 -0.09491145684845925 0  6.25179294103881 -4.778853783207105 0  1.398643871779328 -3.910065262984058 0  1.46466023054596 -3.896464202854424 0  0.08901574959015157 -2.538269852171648 0  1.091319206443719 -9.393021512791645 0  6.926983760064116 -0.378830157959972 0  1.014852517254022 -6.373828330968953 0  3.448009523966451 -7.348411229642397 0  3.489042708188247 -7.2383755375208 0  3.564423963887679 -7.336044162758165 0  3.611012532551708 -7.226907488796648 0  3.524995468766816 -7.125366125679579 0  1.67974827330405 -6.961141712132599 0  8.957870923391948 -0.5464084258995889 0  2.9060477243722 -5.044646158571745 0  2.06240086932505 -7.111782638619156 0  0.4337225944794252 -1.549710804831802 0  0.1564294457908701 -0.04955536825758866 0  12.38682356821095 -1.692201862540069 0  15.60530260355877 -4.703269404695823 0  0.09545736596559884 -5.091676923685695 0  1.095385086822359 -0.7706176323455463 0  0.7221493033305162 -9.788672186517836 0  0.07083629222371002 -6.034565432428227 0  3.564833721348299 -9.612013896283486 0  3.628844783535421 -9.705494026896655 0  3.68447970913029 -9.606949652504129 0  3.745419915679649 -9.701111006784904 0  1.130905497772252 -2.552543075536712 0  6.129615769617017 -2.497074940414756 0  9.1965452288158 -8.312989908552233 0  0.238228571101029 -0.3595618102663343 0  0.2805771369122283 -0.3568442786446617 0  1.295893885438154 -5.841322660145039 0  0.6555601310015557 -7.775468129517856 0  0.9681930301781172 -6.012320110683692 0  12.09039051604254 -4.491100594275045 0  2.716397560658802 -4.038711005235075 0  2.750151882965499 -3.941898473686016 0  4.289257204834641 -8.068137766523684 0  0.6480985530073919 -2.480763393855079 0  0.08399911986306563 -8.174421718527423 0  2.301390711400103 -5.497803472935867 0  1.070084758900796 -9.781783277781681 0  1.046030434610849 -9.828284172745443 0  0.08435905264292742 -7.75401911273646 0  0.09940129092448302 -7.711964868110453 0  12.30501503099622 -4.016587577171939 0  12.46022457554925 -3.750497131043963 0  1.068186698947926 -1.469787348494735 0  1.063572225963698 -1.527035241576505 0  1.117949790492892 -1.505033288550459 0  2.049299374547541 -4.450750502684468 0  2.180416908815154 -9.645415135713478 0  0.2032291676349001 -4.735838394932118 0  0.2556750739026974 -6.912650019237586 0  0.0917138282704677 -1.686957673450418 0  0.07607326499437583 -3.259361753168609 0  0.8986926783964861 -5.864268308808365 0  0.07410703361210125 -4.773845620388308 0  0.4302793079168872 -4.090190684194027 0  0.3933624918317147 -4.056578257221897 0  9.892871259283265 -7.028687830073354 0  6.076749915683656 -0.3844619566503118 0  3.729651758114718 -0.3773517412960015 0  3.767619888899034 -0.2883489548786153 0  0.4494783125785808 -5.382270356079965 0  0.4374576733834026 -5.434057645721817 0  0.3832758188672276 -9.334655897097541 0  0.3370849330853343 -9.33790319782451 0  0.3616836475453873 -9.374845509980933 0  12.76789281178462 -0.7658239381521357 0  3.465073216639359 -3.865490620124863 0  3.537432302562863 -3.952916170477428 0  1.154216929331323 -4.600330776140795 0  0.4707114087591915 -4.121293051502048 0  0.4610530473359429 -4.171216754218682 0  0.7770919874401034 -4.369125616286278 0  7.448848981945274 -0.469310323794315 0  7.59008353121965 -0.6244707412804145 0  0.1903649748697109 -1.1814291317243 0  14.39550093490498 -4.790042151225808 0  0.4833779534352782 -4.882685640958782 0  3.561502092329148 -7.928839738123704 0  10.23542685958375 -3.382722045512023 0  9.98534462256314 -3.42369835268826 0  2.75165098686711 -6.743342321392861 0  0.2255477056681325 -4.211467809883494 0  4.37331750278727 -6.733062616414307 0  0.4306980045249116 -4.629050806483418 0  8.040628107896298 -3.178365985162253 0  0.4472839953702668 -4.400625064087699 0  0.7219637262885001 -8.909331809536628 0  3.016338661939113 -0.3148369079732118 0  3.056030212083424 -0.2174928535879488 0  3.387300253882596 -6.575870509991535 0  0.5633133754443378 -7.177246189035231 0  2.60811985685554 -1.638996282931397 0  2.553948885179164 -1.56146138442874 0  2.583650550217069 -1.476942416601337 0  0.08388988367783945 -5.992088591632223 0  10.51461303089665 -3.284146311215296 0  6.249063610246953 -8.460744960539166 0  6.348196133113884 -8.593812144766915 0  6.432203143706712 -8.436312848610884 0  6.531414116692675 -8.58584280255106 0  6.612732687142394 -8.425013145948155 0  6.720360990419019 -8.571354739116025 0  3.105725331042686 -6.653746833144878 0  2.877482121980483 -1.897732493296435 0  6.282431349514511 -8.764358764391378 0  2.350760991291763 -3.228443235015162 0  2.309469965825974 -3.161687340618141 0  2.217980571368772 -3.163055797792723 0  2.258736945505266 -3.089325464666671 0  0.5225564875241808 -7.277188241649418 0  9.864365548616476 -0.6010775499776102 0  0.1421809526801479 -8.725914024319623 0  0.1169387860784781 -8.691096616812594 0  1.167593693750334 -7.076787506808494 0  9.454823377220496 -0.4568149519101006 0  0.9723802218329674 -5.915371270321216 0  0.7711735703954599 -0.09963536500806391 0  0.726932795198584 -0.1058090221665511 0  5.764662810615363 -1.77428196507458 0  5.596634532761525 -1.834973808339408 0  0.06543854439082608 -2.054729274203001 0  1.525602148924751 -3.766758359549708 0  29.17567694306809 -8.031179904167312 0  29.06910376523418 -8.484603365150013 0  1.768484499341341 -4.567630769987917 0  1.848063488650876 -4.554379046951142 0  0.5342933341907958 -7.369982109097345 0  1.924521673331174 -9.854933361574725 0  0.9860822878472106 -5.45189936583311 0  1.221335766757953 -7.42306094050503 0  1.01177033475312 -3.761804604781618 0  0.9962977090003697 -3.822011421426249 0  1.217482822104257 -9.388866876662105 0  0.6396092219351175 -1.061726424862905 0  0.1658763574710704 -5.975402852194968 0  0.202531400585384 -5.963843930872363 0  1.841996082905039 -6.801385825846958 0  0.5590445444369241 -2.056243581016933 0  0.5650765652841159 -2.006807999311779 0  0.5210104953524528 -1.973930059704425 0  4.904181577725728 -6.178787836756501 0  1.310479674458501 -3.797106876735672 0  0.765121497110524 -3.146896784726728 0  0.8084136725929003 -3.113752141120811 0  0.8588403909774094 -3.160032596668092 0  1.609753420047317 -4.582377093179768 0  1.533680985525109 -4.589033099788438 0  1.504053774000067 -4.656045616294037 0  13.62144052454499 -6.898549688502116 0  1.695386185689401 -4.16395036940799 0  1.770975659766362 -4.159410431570441 0  9.397783362948214 -1.81417397747249 0  9.141754326682413 -1.846781230982937 0  0.1528450627231166 -2.259334168230128 0  0.1114697608123176 -2.279498972457394 0  0.07666386034360073 -2.257543481147279 0  1.141527949854037 -7.316629507612087 0  4.895114376556911 -7.368387861694108 0  4.741875573004526 -7.411639269012589 0  13.71794363164941 -0.6576374558347284 0  13.34208047953189 -0.8252694019607922 0  0.8456988795098042 -3.64513557669686 0  0.9369593032194015 -0.105979787837212 0  0.9848490456670973 -0.08769020925713722 0  1.022491820292 -0.1309951069093058 0  3.421698653229804 -8.264976054920481 0  26.75901835074101 -0.7317592252140086 0  2.721900366263439 -1.796533084693931 0  3.680586029779626 -2.885444713850366 0  3.612530268932474 -2.783466268457635 0  14.04607350549064 -6.822077343981768 0  0.3070479391331098 -0.05725971205310021 0  2.684786212400063 -9.594381374727032 0  0.9093203455747663 -7.993534172013869 0  0.07513673267087206 -2.626439868777612 0  1.763885793400934 -0.5830418284164143 0  1.81219779737369 -0.6352423397223479 0  0.07737023504200025 -1.084730728230125 0  0.1210376393688275 -1.108652588904595 0  0.8290298280751323 -1.809551612392096 0  7.650802892130354 -0.3929615958948958 0  7.80095274351213 -0.584344525882317 0  7.899098119691337 -0.3826052267557873 0  8.036225469119232 -0.5488793871736508 0  0.07460587496755799 -0.4086138405742554 0  11.93413717169621 -0.5741277282131207 0  0.1250952604977638 -5.655630494484771 0  0.09118196816014823 -4.121356783613684 0  0.08035421991035818 -4.163124860491574 0  9.131895342315335 -3.222199646272183 0  9.28661798207693 -3.411743578552416 0  9.387347783765865 -3.197012203992235 0  28.1294172550105 -2.357046560516352 0  9.557122112122961 -3.339434675702613 0  9.638120225838481 -3.109885592009606 0  0.7329276096816937 -8.540265438886991 0  1.271299410918626 -3.081642604939254 0  5.258166707572569 -8.822302974448379 0  7.330755195916033 -0.8497905756403901 0  0.8600969133727006 -4.902468343085048 0  0.8437083640908583 -4.959854401701238 0  4.582780065762236 -2.214864985896481 0  4.660177660079029 -2.331614788774877 0  2.466740652426763 -7.488700374665296 0  5.339419726011451 -1.00531365740448 0  5.466331375184332 -1.071373203100497 0  1.114961400861432 -2.611983368919478 0  2.194809272381626 -0.3005292276187825 0  0.4381648696144165 -4.446700070839513 0  0.07782042137463208 -1.766020030232442 0  5.974413028553835 -8.348945354124147 0  0.1584872875913419 -6.311055850240102 0  0.1148833167465746 -6.319380937659522 0  0.20237080013327 -6.298372906741824 0  3.074415874895914 -4.349786233041741 0  0.3703015154443534 -9.927076518598192 0  2.358381868979299 -4.093952164341987 0  2.280086221201419 -4.024585755159022 0  2.411569592896495 -4.172101754651222 0  0.4591528749634772 -5.523428716385789 0  6.326543197302247 -2.487851914924497 0  0.09263430641086146 -1.398089149430909 0  0.05271144615506351 -9.404625479293124 0  0.5097913706942858 -8.434093770838862 0  0.4755667292612795 -8.477043891616171 0  0.3929708822615385 -1.486133148249936 0  9.189965974011322 -3.61150357338375 0  0.07637919862668063 -1.531318411318079 0  0.7737789837540099 -2.674749832093191 0  0.7595195590666606 -2.729966722562401 0  0.08231279670868297 -8.023835060287869 0  3.800460844655936 -9.59356555043126 0  3.866189876404915 -9.693028957157809 0  5.772369753997221 -7.395065670801338 0  5.875098172310544 -7.528708890195355 0  5.943057224709799 -7.372955032850021 0  6.048187381245398 -7.507664666848926 0  5.978779001766418 -7.652604609791913 0  2.86205992545114 -0.5111994381168223 0  0.9180346848979184 -0.7430178541374612 0  0.07626946965432779 -6.825695509779922 0  0.09020424734968735 -6.785696231873697 0  0.07194424884470685 -6.751274263848094 0  6.014132414013359 -6.469325336549986 0  6.09296335746132 -6.321257781971035 0  6.191314996065511 -6.449198596571959 0  6.272378192672175 -6.301212815069679 0  0.9943178876285614 -6.426766937923958 0  1.734426920503495 -5.077396193533009 0  2.083439442232054 -6.271549077374647 0  2.046261436917188 -6.348444269628594 0  0.6456139523873272 -0.9209148258671078 0  1.354909828616641 -4.022976404110079 0  5.336719386886671 -1.775608983126662 0  8.730863758509518 -3.079721690815644 0  0.09403814466695692 -8.530562658637971 0  0.1196638900064766 -8.570332256431094 0  12.67369527054933 -9.321620985931334 0  13.02461938988126 -9.291027271275205 0  13.17524094884237 -8.955696735083368 0  13.37255151164946 -9.252733709660387 0  13.52973303324029 -8.925372955464608 0  13.79129969480147 -9.283030724187601 0  13.8989763684289 -8.907048858485616 0  13.69032418232213 -8.583898052502988 0  14.16658193693136 -9.169104293351046 0  2.187552081316865 -2.864129997831262 0  2.080585897869788 -9.856458127731365 0  2.234438059968392 -9.849588101080951 0  3.924907555126214 -9.581555269474517 0  3.989898803031078 -9.685492930078519 0  0.2330059193522089 -9.942054256724962 0  0.2592565156754318 -9.932837211095613 0  0.1971836458490728 -9.942558022927393 0  2.549566478301418 -6.719568391461497 0  0.4439503041520894 -4.050101205296887 0  0.4080097854242677 -4.015097600231385 0  3.684547971703839 -7.312282807092185 0  3.726185780539124 -7.212619838400174 0  1.353317896832616 -1.852929792935778 0  0.3664872896635814 -0.4725454416950852 0  0.08990915484892881 -8.846575054759686 0  1.337475751418546 -8.797496626535045 0  0.07659047603104874 -0.09004474926957151 0  0.67375383257402 -7.962974747960451 0  0.7351016519437046 -0.4164177384140082 0  0.7826223078817449 -0.406268790291028 0  1.299897456597289 -2.945129693398953 0  25.98308590136745 -0.6936849459449972 0  1.193452664831133 -9.437433217682798 0  0.6881562681287541 -9.594542496761637 0  10.90650834438664 -0.6599842601700017 0  1.005450546124843 -1.560091179727036 0  1.068001356228109 -1.590520619815148 0  0.3999566233127894 -0.07492130748168435 0  0.435429453841536 -0.06816615675500337 0  0.8161251102019662 -9.320149146375861 0  10.04964712745265 -3.197655856716891 0  1.243073859256455 -1.186002326479679 0  0.154645934450933 -5.174719513630196 0  0.1100314129388291 -5.188630630052179 0  1.335187570507014 -0.4236867981357566 0  1.394769956484851 -0.4126595303981615 0  2.31965824230978 -8.454988210103952 0  0.6679564640277924 -3.541254460105132 0  0.6823125540351143 -3.485626220007699 0  0.6666237106100148 -3.597142265607816 0  12.98190737445661 -1.034060604867597 0  4.518152721820259 -6.09962479174462 0  11.57561066347348 -6.769572651859304 0  4.201565668377484 -0.2818235340143502 0  2.000665004405761 -1.272038900278796 0  2.059457399473523 -1.332036503391505 0  1.533448065039627 -4.848915371335486 0  1.148542470855173 -0.8004241456446373 0  0.3130127378716452 -4.216103257292665 0  1.091456865279925 -3.011231377923831 0  1.102846356600352 -3.068189721285049 0  0.5360555753609741 -0.3841989946420528 0  11.17988795718971 -1.041603955353752 0  0.2718116063227445 -1.1760675394206 0  28.10576235268024 -9.300998427022778 0  27.57479004234006 -8.849385824574455 0  0.6186622657138905 -3.078054565594357 0  1.44996408767639 -0.08232649487726107 0  1.467274247354741 -4.605600682430145 0  0.07676102625680059 -1.860433823501302 0  1.451275803990251 -1.465551452118665 0  0.2238624291717102 -6.625155792829391 0  22.8242128502553 -3.761466763091187 0  2.758435192558073 -5.437526954944604 0  8.267835930769309 -5.107528255200551 0  8.504323721797816 -5.083639822929488 0  8.611663677219092 -4.885652217767812 0  0.5136069200644293 -0.05462258564844902 0  3.688443284851951 -5.419052841976067 0  2.89375918704464 -5.528076589749887 0  1.73006763425481 -6.888747867276348 0  0.7387106160631944 -9.595710019694515 0  0.7874364330516137 -9.593878235365114 0  0.9338569877690119 -3.621854467134181 0  5.505578801440539 -7.289458006964215 0  4.806285855622621 -8.850339162215104 0  3.804135500678965 -7.902806733200265 0  1.406941809330457 -3.183236532951515 0  1.47674637743018 -3.175949268172764 0  0.4812833730228725 -5.773964076650513 0  28.62916071451057 -5.959807901397308 0  29.04513066939869 -5.848323842275812 0  29.17637291207792 -5.407537330008818 0  7.747410932407393 -0.7876305396543266 0  1.425989572060065 -6.9282792995173 0  1.007076769585815 -4.5251030150706 0  0.6689071108192195 -6.993683775997038 0  1.646070382857539 -4.966301253547742 0  1.118161715126289 -7.022250512574089 0  1.128976042955895 -6.955566277921543 0  3.877308608492287 -2.962369310686178 0  28.51879990844404 -8.943978408369984 0  0.1903384850297236 -1.568143179049556 0  0.4227444100753797 -9.251049849633935 0  16.71843387422776 -3.792338102006628 0  17.04229923757291 -4.123876634367063 0  16.80488649707921 -4.544956228591394 0  4.339236207187223 -0.2411967303208788 0  4.426291739474612 -0.353915600106518 0  0.08918554321448902 -7.622973537736132 0  0.1166669441887844 -7.661649095782474 0  0.07446993245473976 -7.664705794014656 0  2.659282493496939 -9.836310170537898 0  1.393203931938528 -5.941651322323543 0  0.8029739104991904 -1.574793451984401 0  13.5346263065436 -9.564166964891854 0  0.07546738561524968 -0.8246408789211204 0  0.5064329432061534 -7.184871915164885 0  0.09169308292037925 -0.05337556331930049 0  2.235804380708387 -5.818735205559189 0  2.329002354215545 -5.817507051676953 0  28.98194231654394 -7.072556208422171 0  1.490817654903536 -6.423748454590278 0  1.563208464900301 -6.416308030355738 0  1.837128080918998 -1.894664616209896 0  1.385336535059615 -3.28830501293135 0  13.54622973371875 -7.299610703303895 0  12.73019618198487 -4.601031590276679 0  0.407522840309019 -0.5327530944319392 0  0.4432766072105139 -0.5649160154276611 0  0.6304694595058447 -8.052086348734601 0  0.3565304517920129 -7.510019905521307 0  0.3212760156555774 -7.471018971726414 0  0.1244617517367974 -7.341524247287783 0  0.07761766942194903 -7.34900739237311 0  2.866368431208993 -9.580105956714977 0  0.09012550871200631 -7.42499099813937 0  0.5118299762227618 -4.16008057552571 0  0.7121139736174094 -0.1482059821078483 0  0.6788693842263136 -0.1083426382511981 0  0.7030949042935148 -0.07528345087548693 0  0.6361841028147186 -0.1255318891354271 0  0.6021498555392721 -0.09990180401700677 0  0.6386004256975752 -0.08617030722589369 0  0.3072329720303184 -9.935616576940268 0  1.052723007592544 -2.748100936879369 0  3.654306607589852 -8.234086050071483 0  12.3907164643471 -6.327846672511349 0  0.9758290842910817 -9.268702448689965 0  0.9966423661543935 -9.224140090359757 0  0.06768892744343269 -1.240080130234294 0  5.21844156333823 -6.120850451397905 0  4.049795729747336 -9.573052923872973 0  4.116286508503929 -9.678951958982417 0  2.842964663151079 -9.830813319580242 0  0.5891444256932186 -6.654174698895615 0  3.986014784128859 -0.8717253299555612 0  4.110937997636604 -0.8523390618439191 0  3.945566880140671 -1.003630507640281 0  13.45000607654296 -0.4414256832595651 0  8.743442520361375 -5.05550899200048 0  8.85270518021485 -4.855733857669557 0  9.00870074347657 -5.070868414771688 0  9.087738177161782 -4.844334803857889 0  2.156688099992492 -1.26080500261939 0  2.091030255037486 -7.02938151452617 0  1.057908827385351 -2.687313310951355 0  0.6861853949772634 -7.09370559018363 0  1.081682863286797 -0.1000044793066266 0  0.8185156511774849 -7.439875003478955 0  3.852928391675549 -4.039669171442281 0  1.002713100336749 -0.7791410972424817 0  15.1688391217217 -0.4408087156508209 0  0.6390383791900192 -9.597438027581214 0  0.7226131078713216 -7.145108111400679 0  0.8236133834025559 -1.865849911552186 0  0.7740094482901849 -1.884865308504745 0  0.9432606208941827 -4.349896407711182 0  0.1148607433341873 -4.390273787483792 0  0.07374298380672428 -4.410270788078674 0  15.97553849162897 -1.44736640514129 0  16.12796115520574 -1.065886218552693 0  16.39973724841303 -1.39581658714301 0  16.52206628612081 -1.054562110751434 0  2.384341951814246 -5.902611707208975 0  3.865403364515023 -1.538664415184696 0  3.902236532737025 -1.426264634825439 0  3.048183347994637 -9.824048753938737 0  0.0480948417050886 -1.053055162240188 0  18.6008397857648 -4.075953156326005 0  18.79866533649342 -3.607211511123915 0  19.08823631371261 -4.014367333072083 0  0.1338242501556781 -6.271405390400065 0  0.07813152699597303 -6.289585304809294 0  0.0969091930375825 -6.242977364128239 0  0.05141971000351475 -6.254300562928079 0  0.1689207329258124 -5.637276348125258 0  0.09191597884226255 -5.623045659316382 0  0.1023649205913912 -5.575448854111142 0  1.281877990854522 -0.2693640139125586 0  0.05823015996999281 -4.897198283515896 0  1.280444292952479 -5.49077257259608 0  1.302098044635574 -5.426055181620272 0  3.758592477779315 -5.509820178390409 0  0.1730573786459431 -1.648199584239616 0  0.06653919367584571 -2.373935854412806 0  0.06937328169723678 -2.67000798176621 0  1.164858309333848 -2.369556944394809 0  0.6681183435611917 -2.82791632634227 0  0.5392609698469109 -5.356111607857872 0  9.423662786892031 -2.914068817561738 0  1.429281751199554 -0.8120002239477158 0  0.07405593606090832 -5.67026874862115 0  28.38762577606818 -1.120709529596112 0  1.120020131094918 -8.486832726981753 0  1.096146446983788 -8.545357669150278 0  1.149081118074781 -8.430069944195365 0  1.043986062049127 -5.493232476569607 0  3.2554401415381 -9.816917945824128 0  0.2150647691461103 -9.968474556092477 0  0.1824100799517634 -5.415189086210101 0  0.1492468057844292 -5.381957142444909 0  0.1403938654605064 -5.425184534382544 0  0.1054792795167625 -5.394626000586491 0  0.09490570149152511 -5.439856901821788 0  1.674840111184034 -8.546915298751884 0  0.1574972913671324 -4.374345487150958 0  1.001621873136907 -5.752749772438566 0  0.6879534076184335 -9.101413245838669 0  0.6368553017867207 -9.10854979496983 0  0.7202570674583324 -9.145894154709964 0  1.373453473383073 -0.4752447093273986 0  2.722490132361353 -5.255403416842366 0  1.325820805755173 -3.917837240631809 0  5.266229938267891 -0.8703673738740578 0  0.9626407173120608 -5.568582887546315 0  0.2055585840938825 -1.718245904746141 0  10.62272689381965 -5.065741445672061 0  0.04891735460037161 -5.634022089739279 0  0.7134644163600861 -7.869655590319448 0  0.4824574810159064 -6.534193756091305 0  1.652772523361879 -1.650986969441806 0  1.679920804161377 -1.582264649138142 0  1.612845344954172 -1.585751095790019 0  1.569234011967062 -1.518313423658583 0  0.2289898134741364 -5.880910111148475 0  0.9543897020544314 -2.021349791919508 0  6.502084430747304 -8.262687771263741 0  2.141410092210759 -7.917302778728807 0  2.052494725241276 -7.92281991263202 0  2.016953945054237 -8.013594097975339 0  1.934004340746668 -8.028842746796652 0  1.967511146674223 -7.952983015263099 0  1.560883527994067 -7.733686474910935 0  1.586343510124314 -7.67086068508881 0  0.03808272571661497 -0.09986853578991362 0  0.1278104555810486 -2.852593460748464 0  0.08506335049420954 -2.868426901021457 0  3.473580650828055 -9.809168877519383 0  2.262071090702825 -4.109342095520847 0  0.1981502011659746 -4.570450269709359 0  1.654523717553097 -5.494140933670694 0  1.620363456081332 -5.562662909532852 0  0.8301202115822299 -9.803101955080219 0  7.468992338533794 -6.297856183681121 0  7.351031871254211 -6.118758337239688 0  0.2810202620465461 -7.889567475276133 0  11.70462364519863 -0.3806628057579653 0  0.09599689317256832 -2.493543266148069 0  2.52727318081878 -7.193761514927584 0  2.431249248798753 -7.198364169306524 0  1.266589981139457 -0.4370657746159914 0  1.897804025585856 -9.927558976814423 0  1.282321124667732 -9.392395231079947 0  1.312913342798637 -9.338442969237796 0  0.1770032095904988 -6.916136388575429 0  4.391019103917452 -6.129639183737515 0  3.066169344930888 -1.678409830004872 0  2.967803378627483 -0.8847230126358721 0  6.808711101429218 -8.378094933059646 0  6.921739592349985 -8.545906461891496 0  7.006295998240862 -8.374138954484589 0  7.120386273705016 -8.543736307976616 0  3.658778244039139 -2.273188177061303 0  0.392520790694892 -3.839149630135802 0  3.702856930583454 -9.801269047451257 0  0.09265188991506967 -2.825684124461789 0  0.09979187739115325 -2.77860704395995 0  0.05625110855046778 -2.834636711744135 0  2.192396384154856 -7.991541902658963 0  1.805384401868336 -1.030475487138573 0  4.606876305976677 -2.532486038927701 0  4.547176583552147 -2.677669151249237 0  0.1324567677241042 -8.250805424608956 0  0.08934985009915763 -8.252896363489288 0  1.198914831058822 -9.906246527386001 0  2.931528467125421 -4.935376868019433 0  3.048430818609837 -4.922176612049496 0  0.03422715275837618 -9.895819560228883 0  0.06926152985635525 -9.91506482339876 0  12.72279509482551 -1.616590074516981 0  0.4108802852689237 -3.745364880322871 0  0.4171750634235583 -3.696242684651914 0  0.3781142602464076 -3.664477852709847 0  0.4283978736520364 -3.643726583642353 0  0.3857328841999514 -3.603660723771383 0  0.404741323208917 -3.551489941772608 0  0.3381754740856984 -3.634218862333109 0  3.944360021915703 -9.792354241741105 0  1.204296172491294 -4.68394226778241 0  0.1380446439457259 -9.123349226952833 0  0.1079701565281361 -9.094092871710959 0  1.780583880527523 -9.86936146731118 0  0.1698916474323404 -2.833467240051291 0  0.6922444533446246 -6.941915959814426 0  1.057744837527373 -6.565044402933895 0  0.4662903866039869 -4.668481745442422 0  0.4204791280814568 -4.682111623040054 0  0.4118164498625276 -4.725219862295408 0  0.4241868446199053 -4.776012229416371 0  19.381208289318 -4.453313972862621 0  19.58626452283369 -3.979861365532327 0  0.06930842756536748 -3.302906602335351 0  0.1342852624400912 -2.474238930016612 0  0.5799961995302425 -2.21713803960597 0  1.179658079398296 -8.974677486066213 0  6.113034542840252 -7.337572739379865 0  6.225147103392732 -7.49275975510081 0  6.286265340033754 -7.315744263034107 0  6.403666430321474 -7.445391727328064 0  0.07807341253201017 -3.743957675251041 0  0.1199838550428343 -3.727099370282308 0  0.08454091657253926 -3.699605959573843 0  0.04508505396345797 -3.670486448658503 0  0.08780848531586116 -3.655450902592496 0  0.5171074461245819 -4.654134788797212 0  0.1772183684925253 -8.246428145222646 0  2.337439463740081 -0.3552917104202473 0  1.222919188889474 -1.244941366713769 0  1.198357688416483 -1.139774571536067 0  1.263734120206735 -1.125174185665882 0  1.222494690819325 -1.07862612206888 0  1.240189998714564 -1.00998266358433 0  1.213362851438765 -0.958845010159334 0  0.7581838427797347 -9.550807116817071 0  0.1708862758808678 -7.738264276118178 0  12.51411340924663 -0.5049553474638593 0  0.2804139325314008 -9.911955843598784 0  0.6352918102477929 -6.947528949164958 0  0.5750080223826011 -6.95620128772974 0  0.5338591168772435 -6.915026706449733 0  0.7132086637278654 -6.885114928814128 0  2.522060283328265 -7.569328405985502 0  2.482605265236502 -7.650385944432481 0  1.763949907864905 -5.734995287391918 0  9.29465787549309 -8.075742699534288 0  2.392029082007868 -5.000457846012865 0  4.174979219604666 -9.565874957087114 0  4.245289777055234 -9.672261901754281 0  4.198127374531708 -9.782828705729468 0  4.307946697501151 -9.556433309174997 0  4.390788580560017 -9.659617018640777 0  13.29707184959702 -4.838521033162322 0  2.326857996026995 -5.281249864660941 0  2.267378369441094 -5.21286187759847 0  2.380270258610341 -5.352177569668173 0  0.5785762584616059 -5.742547623442803 0  0.357871633180828 -1.456156661901322 0  0.3098670302643356 -1.476633182093829 0  0.08112816159533054 -1.126418740746722 0  0.063790078281448 -7.584192598853305 0  0.08164972654822122 -7.546502632477842 0  0.5100144991840363 -5.106602240861096 0  0.06851446498263059 -9.874581417287899 0  0.07203827902186077 -9.837401261314664 0  0.1005642344287878 -9.860474472900234 0  0.03832374037240527 -9.814643441164449 0  0.076365582042909 -9.79833966031336 0  0.04206329076112958 -9.767329198045552 0  0.08153958638425962 -9.759106269256918 0  0.1183300905997839 -9.783605976785143 0  0.1178663771600625 -9.743776935247654 0  0.08735574038897198 -9.719821682924273 0  0.1247329306990537 -9.702672886592319 0  0.09406656383156786 -9.680724877923742 0  0.1290228417562709 -9.663184593569266 0  0.1645565163716221 -9.643099507198432 0  2.590745409391673 -6.63525347973315 0  1.788418122020481 -5.190300666602042 0  0.5529382383958019 -7.319600595902731 0  10.30471446314211 -7.160856191644315 0  0.5179052859187561 -5.610126299045686 0  0.8549600582252541 -0.4697081888181946 0  0.1406570916262631 -2.008717961865071 0  0.1047369904719133 -1.980334278949646 0  0.177313744771773 -2.037723059665876 0  0.3182467703497949 -9.379470511571581 0  0.3427102371374868 -9.415612032746669 0  0.3838579933424704 -9.408317768197101 0  0.364168153045167 -9.451149227452216 0  0.319477687494631 -9.453430928336296 0  0.07377641286555914 -4.001875065024411 0  0.06796360418491787 -4.045351326814025 0  28.13971481753415 -5.984912999253418 0  0.4303366388119763 -1.623558948520162 0  0.4169339707050561 -1.668771796833819 0  0.453800284017575 -1.712046623731897 0  0.3997151872415898 -1.713866397345601 0  0.5021160447891617 -1.701058157525482 0  29.36074718104008 -7.623682599400263 0  2.420571389103351 -3.525109375067109 0  1.032058560932377 -7.099768223357119 0  1.003758272403827 -7.158976773734844 0  0.555479787311036 -6.453559505413011 0  0.507231351966615 -6.457635953440489 0  22.89963257983821 -6.043527209309216 0  1.082120249511526 -2.299788787414179 0  0.444945712893789 -1.86870583107113 0  0.4056493850519942 -1.838405853321314 0  0.2191232817623039 -2.017481578867553 0  0.7094289239827205 -8.585756636708762 0  1.672772607281438 -5.279563535000041 0  1.646659979697397 -5.354139236861899 0  0.8729966028918916 -3.096722156152019 0  1.780414355040218 -6.073796310088099 0  0.1254371592960393 -0.05140923238825934 0  1.080359340552439 -1.418838122824723 0  2.888624827372084 -0.1605315841883037 0  4.232356863648866 -6.752518415899132 0  4.312513786906305 -6.864941541206053 0  3.081883068143169 -9.554506264652375 0  0.8580643322295263 -1.139894867647659 0  0.1755453267819966 -3.087803312109386 0  0.1307283698150634 -3.105097934248604 0  0.09609490832816014 -3.076321327149195 0  0.08759436713676472 -3.119347339968045 0  0.1244912038359729 -3.148879558211598 0  0.07760046221953942 -3.158680238935009 0  0.1120089943373657 -3.193921843728707 0  0.4262223350797143 -3.922606045738889 0  0.08445693937783538 -5.315389319043384 0  0.5199420353092012 -8.291922036479917 0  0.8730630641712729 -4.84820726517424 0  0.08161990565035104 -5.131588574516029 0  1.30611936386245 -0.8239320625848512 0  6.387375478180612 -6.465242725071359 0  6.45666663983468 -6.282829475308593 0  6.560352864178709 -6.411744369004843 0  6.650838094977372 -6.280396767477733 0  1.320319863638325 -3.599991135493328 0  1.257190554076024 -3.613373520607285 0  0.7694530513024276 -9.926855300307277 0  5.631785561182557 -1.673144640371415 0  0.1005574836353738 -1.310553307817497 0  0.06251133372562734 -1.327827004469289 0  0.124859383804818 -3.680902031132255 0  0.1297915586817737 -3.635680981108087 0  0.09101534355704821 -3.61131738015297 0  0.1316139321149574 -3.590800881464271 0  0.09464261479597802 -3.567103716313229 0  0.1297861871227965 -3.546313015697229 0  0.09375588213547559 -3.523197271526819 0  0.1301191262629953 -3.501990441952455 0  0.09581637922580555 -3.477273208211146 0  0.132045858206606 -3.457415883808227 0  0.09741801112657456 -3.432088702182489 0  0.1661542206736382 -3.561744866663836 0  0.05684152013943233 -3.547339018676162 0  0.1350177763500398 -3.412087005746752 0  0.09819873833114023 -3.389575028367257 0  0.06313222790373629 -3.407237892190897 0  0.0985677339580544 -3.338208295772487 0  10.32639812144139 -5.093249707230587 0  0.06199732971191452 -9.954841842330138 0  0.09277751581740645 -9.942247754789534 0  0.1080416521963024 -9.912642284040304 0  0.1230613533002511 -9.933642395113743 0  0.1146915712806127 -9.961172266163203 0  9.433723401029866 -6.225497720654854 0  0.8862457072737655 -0.5141917910747811 0  0.275323067620004 -2.272940149124375 0  0.2311903834462949 -2.24327703273115 0  1.315905644753776 -5.605224981703929 0  7.264875081163007 -6.314035662295214 0  7.137791173232069 -6.52250153713024 0  7.046721395400425 -6.309292588891648 0  0.1730669494800985 -4.86533900935397 0  1.002575180842154 -9.351706467497468 0  1.032964883302418 -9.39423673106333 0  0.08110652808783847 -3.959299957359185 0  0.04752595195946441 -3.92934318787701 0  0.1238302947032786 -3.939572987420125 0  3.902501109525588 -1.744202777174729 0  0.08031472272701379 -4.361369568404892 0  0.07957026210767104 -4.31500971873297 0  0.05456095725429577 -4.279628297890678 0  0.3989179183597926 -9.808960680578714 0  1.573558154423278 -7.866478552033801 0  2.78820288139125 -0.9246267260808585 0  2.26213036247273 -0.1401720066191912 0  3.32057848232855 -6.669846463258171 0  3.512011544078826 -6.585322501614909 0  28.89988913270818 -4.260906882390718 0  29.11896503774875 -4.644853770083036 0  28.94688437012306 -5.052999917145605 0  0.1763886086068673 -9.91332602728075 0  3.39391871240697 -3.765603409182928 0  0.2380736640831351 -6.025876232330457 0  0.8911418175427812 -4.309395254011952 0  14.4272576513282 -8.545092281953128 0  0.1996755152703198 -0.1000099565521237 0  0.211015898947096 -0.07097151369249755 0  1.523146149807371 -3.239275134188069 0  0.2683125001827733 -8.0081418098667 0  3.149604339515033 -3.597911866388279 0  3.081968235974777 -3.49948187759277 0  0.2468058822848 -6.280851096643761 0  0.1282021166234113 -8.452255759851109 0  0.08529948375711172 -8.456042998251691 0  1.380848141986139 -4.142735751035142 0  1.424416630671754 -4.200660761416977 0  1.497177330177969 -4.194233052089476 0  0.2203202098413826 -3.07055900347969 0  0.9905801089548998 -3.600993852925529 0  0.943284258980805 -3.560257775960431 0  3.064184271260606 -6.742648588296841 0  2.370240714672105 -5.734568700345947 0  0.5140791548541728 -0.342858829404431 0  14.3259687779902 -7.164838631696581 0  14.52679817336818 -6.773206441205653 0  14.94291276313586 -6.847850279671006 0  14.84893078046249 -6.46992454886828 0  15.22992525113717 -6.562750311560215 0  15.57055050615633 -6.302744828284978 0  15.61169883730379 -6.700040067510297 0  15.92917252125596 -6.443930171204356 0  15.98628224263567 -6.846761883610876 0  16.31771090066314 -6.605966544565788 0  15.68687395933197 -7.107895064603145 0  6.923802453090461 -6.468009881215817 0  6.848645167471442 -6.294675760444037 0  0.5309090978988191 -0.2996513436720916 0  1.502919275769191 -1.332300136744743 0  1.435942979206883 -1.340473447625961 0  14.4935397874947 -0.637680963400391 0  3.756064755442656 -2.437755121808569 0  0.3044787423998212 -1.255510501325712 0  0.3127365051258195 -2.680886778699518 0  1.07285538294621 -6.984830409780866 0  0.07434612922652306 -9.618813160882443 0  0.1976604246951794 -1.80774594253626 0  0.07333824660105037 -2.302385340510073 0  0.4854196383201632 -1.897671505942504 0  2.694846999351139 -0.9415578841828518 0  0.1165090081638152 -5.349700145306339 0  0.07342700010613434 -5.356065678350869 0  1.430511662542511 -8.628682209706568 0  1.400980491674105 -8.689078326310714 0  0.2160082174024573 -5.449989044067426 0  2.739556717345842 -8.373792190359847 0  0.1961729391486582 -5.149855464661304 0  0.2369963935846364 -5.185238982626754 0  0.06212696153623298 -5.39790858088594 0  0.06741480817009737 -5.477149496751745 0  2.05927531994331 -8.438419100831002 0  2.136601661662617 -8.441758368119981 0  2.175590394302127 -8.367690152885855 0  0.07067683431644056 -6.972256070392556 0  0.0476660053862652 -6.933905795228652 0  12.39349741216066 -4.697686796330561 0  2.869815343408415 -5.147514393472655 0  0.9568565674737108 -8.138243153454368 0  0.8975884308069162 -8.148622687284298 0  0.7931549534852547 -7.494550272955595 0  0.7333001837566933 -7.501540942761464 0  0.823172596176553 -7.552912513099514 0  0.6957772498151797 -0.1926850053166271 0  0.8002941247503585 -8.631094421019647 0  1.816845394757566 -6.000778387125622 0  1.736454045781358 -6.007462406842653 0  1.770999622573905 -5.933901571060762 0  3.85778127025265 -0.8948815514753168 0  3.792574597280938 -0.7814940290625056 0  0.2498875977788941 -7.389907741619041 0  0.8761524897123589 -8.755382023971434 0  0.8520102729860337 -8.807163203893845 0  0.891678171638592 -8.708736726588999 0  0.2525983807393946 -0.1520287704751064 0  2.986139466338656 -0.4045624614928949 0  0.06296252547868519 -2.754890312817209 0  27.30866847644828 -3.13195240409954 0  1.392083302129162 -2.868215421661298 0  1.346492675300317 -2.813271589195706 0  0.1677323717034831 -9.945772055714071 0  0.269537693991488 -4.201806146562137 0  0.3081409723044661 -4.27109853682948 0  9.337763564394255 -7.104797738440481 0  0.6433649318044274 -6.638821663652305 0  0.0725979760193205 -5.544980490205468 0  0.2010526471803562 -4.356745737409964 0  0.07677140906411495 -7.942835975412464 0  12.51785136946783 -9.683253756351036 0  12.2843008024995 -9.384159984989518 0  0.3097930329832295 -1.205598081522671 0  0.3874155697530171 -9.900167188838413 0  0.7068350032052599 -3.366836927370215 0  0.6524645392296691 -3.38947261722008 0  7.307939352031283 -0.3156130704701603 0  0.3920913907382868 -3.364369994416285 0  2.194933096625546 -5.940777394242788 0  2.475352622055926 -7.107900891392598 0  0.1614699099883694 -0.7013221923210997 0  0.1259619026718521 -0.6763547271669195 0  0.08913554483790698 -0.6957585377306019 0  0.09131787793444168 -0.6532637709597227 0  0.05179582483749634 -0.6724864074412613 0  0.08972437666146149 -0.6080129556453899 0  0.6432191373919487 -3.218302396592077 0  0.5219899196012143 -9.93658110847354 0  0.03376432170705179 -0.1887042859032757 0  0.06969629821410095 -0.1692417432897537 0  2.982005386249325 -4.848316269628323 0  3.160346455029504 -4.896642074969376 0  0.6696281994378346 -0.8796830526302584 0  1.654438204693509 -4.885347874289129 0  1.853929274124678 -6.71737127392826 0  1.074929943380905 -7.253801231470451 0  0.2997275470522407 -0.2138857144145891 0  0.3157222872504555 -0.1749600744378732 0  16.46765495152361 -3.474054717071536 0  0.5926838623382533 -5.336577213903524 0  0.4633420906194647 -3.724881492578061 0  0.669513796618233 -8.611464149467336 0  0.1976453697168701 -0.7259589180742099 0  1.262624404002018 -5.199561010692162 0  1.28657480702422 -5.134965944787522 0  0.1095992956990184 -5.485622612598425 0  0.7938812992399669 -3.666454411405921 0  7.765256441659662 -4.750082114788992 0  7.649735423666142 -4.570818956643039 0  0.1622916425482384 -3.708518994713417 0  0.5613258427748118 -0.7214047210571222 0  1.233134541649322 -0.8782230743580532 0  1.690297916672723 -5.422009693139795 0  0.6274020394557098 -2.253086018687964 0  0.1436063808390031 -7.700021730110072 0  4.031238366318771 -3.038104596664197 0  0.4680283193044197 -5.622280450199757 0  3.08050794227224 -2.153522573347791 0  1.707665594577914 -1.505758408452671 0  11.37546617115751 -1.276699919665986 0  1.540191615357251 -7.936976323111098 0  1.511375023350503 -8.007817621802648 0  1.555586757277236 -8.06434176675995 0  1.482643222476046 -8.077874641573828 0  1.527029468050433 -8.135197483820477 0  0.5446934939812902 -5.146213512115813 0  0.471157767057619 -0.8106656712618578 0  5.931555568299661 -1.778483020880971 0  6.034145331474749 -1.917949969323919 0  6.11163635890896 -1.752924917666715 0  0.7797985227347901 -7.136516502131924 0  0.116829021008602 -8.884017955441836 0  0.07241864892097993 -8.885816064358751 0  0.05789804359022455 -8.926425024178966 0  2.582100580382768 -8.279590853121416 0  2.541568834129812 -8.364383412462715 0  0.2112839307033667 -4.925084008603362 0  1.234544476570555 -7.051941509440727 0  0.1527888372370381 -8.995781486754662 0  0.110330537199264 -9.004830418907517 0  1.807979351980434 -5.849675707653443 0  0.2402633831365648 -9.84779935747634 0  0.5692730738521412 -4.636836371954968 0  0.04015487001498563 -5.992870554578541 0  2.045024464886625 -7.771731678966577 0  0.3643199689693191 -0.08169044300491102 0  27.02925950810763 -5.164011058957163 0  27.28429787797787 -4.726490634572767 0  26.71061716755085 -4.614448250105303 0  27.1410510415505 -4.246023237322433 0  27.5178429447953 -4.00534627403055 0  0.7067577785696493 -3.988789195579477 0  0.8999181540507308 -1.187030677059947 0  2.633947591048116 -0.8640444997123389 0  2.538500779285862 -0.8689932412135111 0  2.489304536959224 -0.7903093919906716 0  2.447381995289877 -0.8674001456010831 0  2.401823564637066 -0.7928206904149908 0  2.363519144555841 -0.8641429397168023 0  2.317859729079847 -0.7976426998930535 0  2.292999143893544 -0.8729604614286961 0  2.485924332897516 -0.9439802534763668 0  3.39997145501313 -1.335033293300378 0  3.327712481968911 -1.255669805030783 0  0.6799917034357605 -6.684884504798868 0  0.2130554710521686 -2.814460987219424 0  1.572242012489788 -3.301648591759175 0  0.0646606894559465 -4.816934159072559 0  3.142918136452471 -6.379486980986508 0  4.72488067926067 -8.727652235828252 0  4.660255443107816 -8.852460713801019 0  4.579604168541149 -8.739510296498233 0  4.517304104867783 -8.862713866783757 0  4.439171582124793 -8.747363193961426 0  4.377361429195352 -8.873769131025199 0  4.60695772093843 -8.983060614705641 0  4.302577927122996 -8.756443324854992 0  4.241750039793558 -8.882108309248801 0  4.167093131213957 -8.773498438124046 0  4.10880254159216 -8.893619148921587 0  4.0353255083118 -8.796148585079298 0  3.978927651340339 -8.904726335431493 0  4.193937794831688 -8.992592356784181 0  3.906208335652245 -8.805878456091909 0  3.852292980167006 -8.916329175275203 0  3.782142012577856 -8.82086359196863 0  3.728116876340547 -8.92574135289048 0  3.65985111333962 -8.827092918841313 0  3.608184299268338 -8.933633857816856 0  3.797240030664343 -9.027304911305716 0  3.541356267640349 -8.840428140995629 0  3.490075771146559 -8.9423004234395 0  3.425368257185639 -8.851015388063917 0  3.375417482413537 -8.950267700938568 0  3.311299545636217 -8.856587025268023 0  3.264313723752274 -8.95815149241591 0  3.200170312495066 -8.868345881386647 0  3.155090510077917 -8.965639282186107 0  3.093615831159743 -8.877547989521158 0  3.04798208321297 -8.973021315406527 0  2.98869831519729 -8.886994809655796 0  2.944758491110022 -8.980082162860686 0  2.886400248349215 -8.89624946840498 0  2.842767726448999 -8.987282690649545 0  2.786371476915461 -8.905351067271869 0  2.744348317510944 -8.993745480568919 0  2.688946520672545 -8.914130446217118 0  2.6477474215847 -9.000239477044506 0  2.593803709718305 -8.922721829655986 0  2.553676920908398 -9.0072183917726 0  2.501002756843391 -8.931197866168773 0  2.462243786105736 -9.01452347807902 0  2.410496879719991 -8.93957343629021 0  2.372606589171651 -9.020604287117154 0  2.322125082729709 -8.947563176732775 0  2.284850578667889 -9.025486693118978 0  2.235785728586801 -8.955161355850169 0  2.199264151015969 -9.031422629631015 0  2.332943662219861 -9.098670532880952 0  2.60642289598219 -9.084241704225423 0  2.151221198786109 -8.962639258043922 0  2.115562772268484 -9.037769548939327 0  2.162586093309827 -9.105902883028854 0  2.080726744847428 -9.111990370450698 0  2.034289168568199 -9.045784730261957 0  2.899670847379815 -9.070173938585651 0  3.108251823739023 -9.059642331648959 0  2.126146612311389 -9.179529508319924 0  2.04539177844682 -9.184508071305995 0  2.207720235785457 -9.174201023964624 0  2.189729297908077 -8.887146049919638 0  3.442876412115975 -9.043297905519303 0  2.358944143045974 -8.870354285545984 0  2.115116270609837 -8.896210676776628 0  2.539869702749328 -8.85169969159443 0  3.721106412135804 -8.716429382586472 0  2.72973721972709 -8.825255381351099 0  4.086279710909162 -8.66881466392973 0  2.925121277249513 -8.80140845610112 0  2.165279927467827 -9.247882837856162 0  3.131394412964205 -8.780923051065098 0  4.497883662784167 -8.622879165872133 0  0.3152492616207692 -2.301054639422034 0  0.1750281643616898 -2.455232511026752 0  7.438405490416337 -5.922313504707946 0  1.361501696754198 -5.141496289972784 0  1.438686034357291 -8.747383941286333 0  0.3327781316950009 -8.784313092221794 0  0.0488079986859109 -1.155380160275867 0  2.043079772982983 -0.569545600097209 0  1.964949426424536 -0.5806192514970832 0  1.938667229571349 -0.654319729545481 0  1.985707024371436 -0.7164529981319951 0  1.913474253852758 -0.7325161281443222 0  1.882932212539625 -0.5939828472221995 0  3.731027319606783 -6.343040319583379 0  1.459710885936001 -8.567293292481255 0  0.8790714023320589 -7.438369848146558 0  0.247794280847959 -5.662143809147373 0  2.608783996675058 -4.756980291741099 0  0.7169944073122849 -6.729257492373817 0  2.419993780449822 -8.439266547036219 0  0.5719373708177322 -5.594874000450352 0  1.124743560044342 -8.976844803806578 0  0.7537869942222919 -4.477017102381149 0  8.988419317865322 -1.647785005089228 0  8.891051174266666 -1.879219341663356 0  9.046086978580416 -2.062923205523982 0  8.740980034904361 -1.685369239729147 0  8.64589094095801 -1.909707964872092 0  8.501055840086368 -1.712240159465766 0  8.405703990035478 -1.945975409525936 0  8.262643438341241 -1.738356872792616 0  8.173645034363922 -1.971169565378585 0  8.031028799314404 -1.787725694838064 0  7.946000982165568 -2.00104054554793 0  7.810202628487291 -1.834272332294177 0  7.723165638105597 -2.030013359643084 0  8.319655841643096 -2.162495690931074 0  7.58358967223123 -1.874474554873428 0  7.50524391604388 -2.047284094772786 0  7.361058389516052 -1.899290904634606 0  7.292359036903264 -2.070717986656811 0  7.154314155129539 -1.926172892800531 0  7.089955925266397 -2.107998239252036 0  7.237254962025073 -2.259978359546233 0  7.015799127030831 -2.286248889759233 0  7.618880699237264 -2.244125163755729 0  7.872010906160542 -1.646626017636579 0  6.956006196813073 -1.958647292893056 0  8.599045750934071 -1.47346689426036 0  3.832677401189157 -0.6730961368457624 0  3.72420402556652 -0.6801151613745038 0  4.076344469178629 -0.3070707238928447 0  0.1666027524986848 -3.920262839197345 0  0.08250521237505204 -3.90509093451227 0  0.09825722965216244 -3.857393362331595 0  1.005316412288185 -6.205046781002116 0  14.83068569109111 -9.2546034119064 0  0.216897647504501 -7.732635687021011 0  0.36927148924166 -0.4239294142718233 0  0.2718625288404795 -0.06404920986252005 0  0.2471300476312983 -0.04174920576565722 0  29.297623345094 -3.519354907283989 0  0.2948081858062004 -6.266042738717593 0  3.708410588803531 -6.672058782957108 0  0.797798275459078 -1.668911341462651 0  0.8661881516716115 -8.65775102108913 0  1.841348234849871 -5.261222930867763 0  3.558706778923177 -2.889417506490168 0  3.954300537981434 -7.212958334167991 0  0.1389590041412205 -9.392738155790529 0  3.867293589651984 -2.40886460888833 0  0.2989143856616643 -6.395057279458541 0  0.9332227716657364 -1.257833707237639 0  0.9805921046538977 -1.287635790559861 0  0.6039017652883327 -7.31487529822227 0  0.1413322697728798 -1.290505696077584 0  1.548424185191879 -3.931816753553589 0  1.572376265484804 -1.322575869643803 0  2.506041516125848 -4.757229975965167 0  0.6648511846298248 -6.431912444731514 0  1.17254427993009 -9.85945453366161 0  1.117883324534658 -9.863449106079241 0  0.5023767706862543 -6.6167868919461 0  0.143073209784264 -0.4990810023415229 0  0.1074757140362266 -0.4754670511407211 0  0.0714216290501426 -0.4971635781293227 0  2.390836878439483 -3.372797222321251 0  3.912786244279673 -6.195255004376525 0  3.834438056150878 -6.082768415964888 0  0.06483135435930443 -8.805540656714356 0  0.2228545550367063 -8.239632897651482 0  1.438262194911903 -2.924853267582994 0  24.57509732721736 -9.473041896023506 0  0.5287046054203905 -8.378117470276809 0  0.5639104520841691 -8.423504708431384 0  0.587839646471835 -8.375570742388671 0  1.332681305629247 -7.471652290062822 0  0.4402014695541876 -3.34434321742739 0  2.523221891781381 -4.939589329463876 0  0.23534915125075 -1.505955330206085 0  2.454789823170881 -5.131254372548465 0  2.373362078967137 -5.137129749177273 0  0.1603446780567133 -5.33622375974392 0  10.9050827834229 -3.786700406136171 0  0.8142977118780514 -0.2120395622044482 0  0.7676750063183064 -0.2190978037594213 0  0.9599415905149122 -0.3161435983059704 0  1.993367072911948 -6.832719684304251 0  29.59975173752126 -7.973466542796061 0  1.620111657367888 -3.361270685346303 0  1.152045619899067 -2.657550463876327 0  1.563986031778484 -5.367415228783621 0  1.337105241685242 -3.729615744088814 0  1.269224378806207 -3.738960910729171 0  1.297345099735557 -3.669085390406815 0  0.2040291879415719 -3.470835939500523 0  1.861520516669341 -5.03692972767855 0  0.3467837921025385 -7.378676417950538 0  0.7556671905497439 -8.489442858370545 0  0.7778996205262274 -8.437968793901129 0  0.8351143238596581 -8.429350159820412 0  0.7912142298656857 -8.380287401803567 0  1.281231688829001 -7.606775949770269 0  2.56415472414764 -5.717052056100929 0  2.002795444205521 -9.119571898102157 0  1.969210205035708 -9.191436499140261 0  2.0081293068055 -9.257958955551215 0  1.95507593315444 -9.05306634386438 0  1.931339331644558 -9.266507804400424 0  1.889489364853205 -9.194242001294736 0  1.998444766245367 -8.973816970948411 0  2.075859211501152 -8.971345435778531 0  13.07329170252177 -6.566026291001958 0  12.88231611583473 -6.282583433999832 0  8.012356091226511 -0.1920260889187961 0  1.157404803396762 -1.093927269598368 0  2.610242487515649 -6.237106654510709 0  2.510110463438437 -6.239239104028782 0  2.553679919040032 -6.151829603882267 0  0.841314328334942 -7.38542386194904 0  3.654390045561637 -2.667651552262307 0  3.547794700075084 -2.693922732659226 0  3.584689010859604 -2.567430282858872 0  3.351540029893172 -8.762072822429378 0  2.042473335307907 -7.305629079438896 0  1.956698950721565 -7.316425870840501 0  1.79046256625708 -6.555913919149665 0  1.708729424495573 -6.559520117335411 0  1.661413295192466 -6.501107117862967 0  1.695468202373176 -6.427246452079794 0  0.1041064358907668 -3.032105073927998 0  0.06560165617815095 -3.042520321374354 0  11.77790987107083 -6.319840183334393 0  2.781110225449398 -1.861508051808008 0  2.688005605810805 -1.895565552450108 0  2.656478972001564 -1.722702650082221 0  0.1699385136402469 -7.533492547526117 0  1.638169486640972 -6.367176955048322 0  1.184604028607882 -9.611453199350334 0  0.08200455486996105 -2.581902035951925 0  1.555905395150731 -6.229875668621746 0  1.655824362261743 -9.120562936698915 0  1.616660056169207 -9.06275705280779 0  1.645390426698354 -8.997256932826192 0  1.585233108491625 -9.130103852136175 0  1.544385893886087 -9.066381711020071 0  1.716098772970668 -8.986872596932153 0  1.670565507550988 -8.929786079453613 0  1.603345524379353 -8.938796717227577 0  1.746711439861368 -8.917426665802221 0  1.709833493674839 -8.859954105085297 0  1.730365940691696 -8.781496610692573 0  1.809205361721487 -8.775637740652648 0  1.765973292070964 -8.712266116429255 0  2.489263021606519 -4.589987549688233 0  1.479484879180538 -6.787172232070303 0  1.404717481119441 -6.796581177044319 0  0.6172537242866323 -9.160939636704377 0  3.566218072162378 -2.017337736556713 0  3.516774504133306 -2.116306441129048 0  1.54613875830881 -4.716657720027371 0  1.470524559316722 -4.716591031375938 0  26.77452079587943 -9.387941904971306 0  2.59464280430478 -1.212885238839785 0  3.612177454618431 -5.174019349796543 0  3.533606836205641 -5.0719865073029 0  2.329704358379713 -3.937565082140668 0  2.234921553477619 -3.938401540547369 0  2.274782945886304 -3.860056215229692 0  2.184040561880142 -3.862486007284309 0  2.132307335161931 -3.790920113083697 0  1.925576707395098 -7.394391045633215 0  1.876358201721073 -7.330693137002781 0  3.389409398596573 -4.876884545944822 0  3.318883158916185 -4.779282552415114 0  1.757989989565948 -9.48768871587448 0  1.686809377266936 -9.491642477935949 0  1.65833732148252 -9.558584840393937 0  1.618025845284308 -9.497266764490167 0  1.595638426829048 -9.568995099258823 0  1.550244725801591 -9.506486275981063 0  1.509434391649439 -9.44117848304322 0  1.47725038033499 -9.495447797587277 0  4.33782450555837 -7.721088580228389 0  1.128896475217402 -9.614195460647132 0  1.16002120838287 -9.662638851425628 0  1.216492556177482 -9.659103891083584 0  1.191999174264287 -9.712011282784244 0  1.129135134527841 -9.714556125084162 0  2.210346824806299 -6.087995287428539 0  0.9686823122049049 -8.248932171729827 0  0.9080936831222246 -8.257567021614301 0  0.8842720016527945 -8.312683532873617 0  0.8505104992219028 -8.264928851465319 0  0.8248462486843415 -8.321634774743107 0  0.8745814706629673 -8.207100344940468 0  0.8581738184617063 -8.371071949478143 0  0.7684047381860815 -8.324947145651672 0  0.932880078506912 -8.19702905382966 0  3.131183710003631 -4.183878180170228 0  1.874354979227281 -4.034468245607428 0  1.823598875999485 -3.968291959275959 0  0.6319647849545103 -5.37673267696854 0  0.09871698624541381 -4.482237646075527 0  0.07281602081163641 -8.695688024475873 0  0.09418040083492052 -8.654008170641889 0  0.1332245413193185 -8.649553908720469 0  0.1060969836268377 -8.610635388457849 0  0.1060444043444075 -5.047695730759264 0  0.0736923016789639 -5.015118766101708 0  0.08087239798847712 -4.973158190916279 0  0.1058129625703401 -7.982422878904362 0  0.07812627072907752 -2.21365422475566 0  3.003720274169098 -4.00791126314026 0  1.22819809661155 -2.399676546859298 0  1.062064699771014 -9.34589293469355 0  1.42064253996358 -6.056971983635635 0  0.1021616702810189 -8.413854054214937 0  0.1210028799609013 -8.370708811030713 0  0.06038685511903452 -8.418888585276871 0  0.1037025317879934 -7.005682016182672 0  0.09176963823604822 -7.049235005378693 0  0.1159684262207961 -7.083859160538497 0  2.870928034028571 -3.837221832548874 0  24.60631042988744 -0.530727135817135 0  24.27126545782055 -1.110860747514085 0  4.194059693148331 -0.9566627479996548 0  10.01556037151598 -5.917519703683483 0  9.90894536602865 -6.162634514709619 0  1.742030383956829 -0.1185329836448261 0  1.672758723570148 -0.1299158331711663 0  1.649587298983297 -0.1964597714062641 0  1.605633687850077 -0.1416338018598777 0  1.638781072283077 -0.07204768864226629 0  2.740951045876159 -3.671610041130665 0  2.643863109834331 -3.679799518335827 0  2.705328975166523 -3.762726858113458 0  2.581938154235761 -3.595772339043386 0  2.542314345849256 -3.679125898640221 0  0.1154191578662775 -7.460391584052657 0  0.07075369112562768 -7.467811353746109 0  0.1001694734200242 -7.504290509486015 0  1.016283076499588 -9.618960081472595 0  0.9641826541642384 -9.621594013192819 0  0.4985183207579205 -9.219127628980885 0  3.553713773279291 -1.197291065489425 0  3.437304011337615 -1.225335130110849 0  3.350930564679995 -1.143706116756446 0  3.477732589289598 -1.111354599130566 0  0.1065924030150214 -5.229406032440555 0  0.07069824019117377 -5.207030242727611 0  1.365183610456508 -5.659685143957309 0  4.396502082303584 -6.350882073571065 0  0.1158886762004041 -2.942060158439104 0  0.07194789435312288 -2.96075438016848 0  1.472649668284348 -0.6926610226310199 0  0.03378124741067623 -9.681521284286211 0  3.293913019369338 -1.030806094564336 0  3.23651650863045 -1.123172376755283 0  0.6572866492184595 -2.884044165758706 0  0.6039195625738323 -2.901901431396423 0  0.5924097224473073 -2.953452121172105 0  0.6328566596311695 -2.988497573656941 0  3.455175639047296 -3.34254741483012 0  0.2184461219848313 -8.442244696112496 0  0.4097629640946714 -7.707221213374332 0  0.3785702548391523 -7.668214893940052 0  5.614177783144964 -5.920713025989217 0  5.546470560157106 -6.0807894451388 0  11.14994243097757 -3.21911819353078 0  10.84317042225307 -3.265292346218527 0  0.2054262515098042 -8.564439440546927 0  2.714477420437539 -1.365027274842686 0  2.618824049860134 -1.379276617348916 0  2.367556947764006 -3.02480481517041 0  0.9078748912934547 -5.142988238949414 0  0.8794650892217497 -5.089030056608997 0  0.9037170051940286 -5.037392571367675 0  0.9636423660336355 -5.024146962358607 0  0.9254837182761229 -4.978163392577443 0  1.008673392443241 -5.971299701846957 0  5.034126619084514 -8.036320848649488 0  4.88137313135255 -8.050325706182992 0  4.79256888319097 -7.924076891256103 0  4.734261414936256 -8.059108974863495 0  0.2493970603685938 -4.732076683212023 0  0.09396103877469386 -6.104703736104316 0  0.04560803343419728 -6.110704089720429 0  26.89160641040219 -6.581326446538318 0  1.360293087543425 -5.335786275352722 0  1.286235208438027 -5.349402995164048 0  0.9869564508199247 -4.962983801916347 0  6.325521847037304 -1.732838949715769 0  5.326358883727565 -0.1396670284036201 0  5.404607081836492 -0.2724924923983094 0  5.563169730278197 -0.2659938944931506 0  5.246037462977805 -0.2736008098380935 0  0.2333088372144374 -8.115472331696225 0  0.2066708828750379 -8.076734390937224 0  2.535090903993648 -3.261056119517828 0  2.481120892576289 -3.179567260834473 0  1.42778691207748 -5.837572402851645 0  1.341711409158739 -5.018605290084245 0  1.984981351448097 -2.531926835897097 0  1.953878741327292 -2.609092305976487 0  2.006213480461275 -2.674380566263578 0  1.905632212390207 -2.540239931648356 0  1.879856404637106 -2.612747003270024 0  1.934498454037129 -2.463709928653208 0  1.861259098980046 -2.472596029183344 0  0.644714390233311 -6.182714511652867 0  0.5915308550935929 -6.197241749403206 0  4.209066896278527 -3.440109814854208 0  0.1021659822198 -6.362573895250264 0  0.06133009490978658 -6.374588089713265 0  4.30659185063814 -3.180551798698536 0  1.626522784709465 -9.1860089854904 0  0.1351649150219139 -6.21772918840651 0  0.1331015810838636 -5.780681002947791 0  0.09153864149399382 -5.791474431349783 0  0.06511340127184084 -5.761807152719439 0  0.1212079863934914 -5.825456691059843 0  0.07325230373981029 -5.835463827085905 0  0.06781042024614337 -5.884334426177717 0  0.1886283116326091 -7.113387740724058 0  0.1435681529636383 -7.120448003810747 0  0.1272328730525167 -7.164024669112685 0  0.09932494510867684 -7.128379865154333 0  0.07675583359707616 -7.175556077788826 0  0.05276291283994183 -7.136948940735019 0  1.268515246704741 -0.6096575752211866 0  1.208623359818317 -0.6146119194508621 0  0.9385546760334105 -0.5061630726756601 0  0.831950492652151 -0.3843624744382161 0  0.302800810954551 -6.786302497642632 0  4.799061820399803 -2.380344184182716 0  4.86591768489817 -2.235723743264701 0  1.34779696521008 -3.344762506057462 0  5.166398694331612 -0.1350898467296684 0  5.087550283962877 -0.2685247177472583 0  4.935052758911572 -0.2562222003411874 0  5.009065185131041 -0.4118545051540865 0  0.09434014846111438 -2.124138677723043 0  1.901236155585295 -5.992215089317845 0  0.5631637579733244 -0.1112364139054183 0  3.225798198369437 -4.487022179753714 0  3.267670221486291 -4.380285314309475 0  0.1187755969311208 -6.560466379650868 0  0.1033744550466107 -6.604148159115144 0  0.1331824425832213 -6.637026424271085 0  0.08759966538337061 -6.526056335739268 0  0.08724418746478868 -6.646768547198587 0  0.1180104564269868 -6.683179419897552 0  0.07518197078471189 -6.687290353535561 0  0.06023435478385863 -6.612004216870268 0  0.1020495350437951 -6.484477821964751 0  0.05952144576683693 -6.492930802461426 0  0.1001419397667433 -6.720516195433916 0  0.1467383627136343 -6.473092104854933 0  0.1639711299602382 -6.688078977934266 0  4.077336731580237 -5.81697244095416 0  4.005589291371226 -5.702030817655072 0  4.02478501673755 -5.94278212074399 0  6.206817483733619 -2.643444641737613 0  6.497481332492187 -2.516931949814941 0  0.7407827137236875 -0.06438206699692994 0  1.737957624830846 -2.206524709030225 0  1.709462113885049 -2.279347070439774 0  1.76403079770707 -2.347433217892525 0  1.690647557423134 -2.144363617624419 0  1.619036797138399 -2.150485195150035 0  1.572449564357475 -2.094016931519141 0  1.5581987673767 -2.160003044096351 0  1.658822845690278 -2.214069088196439 0  4.104588165139296 -3.687352538153397 0  14.99541684181568 -8.175916694684364 0  0.7659918231125307 -1.030673168687238 0  0.8135773322747948 -1.001563998350439 0  0.497428118766944 -0.3823847348258989 0  0.6098518470590513 -6.442821462456031 0  1.879859835840966 -5.699166922710653 0  0.1096581091765465 -1.934907379976778 0  0.06780827720639593 -1.954300418437496 0  2.244484874314235 -6.414829295358611 0  2.157363825051165 -6.424565911597703 0  0.09614282689180875 -1.728935837387516 0  0.1571378990075996 -3.224453747062542 0  0.3109054344781939 -9.638297649169715 0  0.3331221196958563 -9.67329221241458 0  0.3756152371369605 -9.671474208558568 0  0.356584810678001 -9.713704861661906 0  0.3960702673117122 -9.633177466539852 0  0.3285580174378318 -7.885853031595627 0  2.193295367835933 -4.462186309435767 0  2.129575165939723 -4.395087606939952 0  0.3425603123189713 -7.174491979311258 0  17.30398379639367 -2.942605799096434 0  0.8160728413547265 -7.184212783610066 0  1.507926476067166 -1.910094570699677 0  1.47071880299448 -1.845110315494324 0  0.07314365957714664 -4.571154688143633 0  0.04641191167815606 -4.538359571313625 0  0.4811167362430062 -7.650298577236876 0  0.4287829543214983 -7.659202989424796 0  0.4001868817961771 -7.619511932993321 0  0.449390960063349 -7.60930869871964 0  0.9207404556631751 -1.787278555102996 0  1.06669365911522 -2.913099688272396 0  0.4167413699174052 -0.3005424143207192 0  0.1932373331901829 -3.999649680280045 0  3.341995815240459 -3.359975721539308 0  3.277659209109244 -3.269471514992755 0  13.09284918388994 -3.019543084534816 0  0.8234739106906215 -7.711768898433863 0  0.07858273884942335 -2.912148909148483 0  1.360371934110852 -6.733981596194955 0  0.2902873652413405 -5.827722089009825 0  4.593415222273258 -7.421344609831609 0  0.5322191088305104 -6.811671989576678 0  0.4987540097224787 -6.768453875953963 0  0.4814622437916682 -6.816542355646467 0  6.359498385622556 -9.839574575562722 0  6.449928127619541 -9.677764999882898 0  6.638660223795917 -9.669170633951882 0  6.264600658402417 -9.681538755624164 0  6.352942707543651 -9.517679044285703 0  6.169863068554085 -9.523737267645714 0  6.074744392657788 -9.365584332910931 0  5.990745690621036 -9.530841460911585 0  1.298940100666867 -1.631443473773126 0  1.250128349857828 -1.587566782616496 0  1.183881777019462 -1.580271857220356 0  1.961918483469336 -0.7919585422928455 0  15.58195568435087 -9.630868632180377 0  15.77875157334219 -9.259686514483107 0  16.22136481127384 -9.254925447200961 0  5.672779488012672 -5.007645828420369 0  5.504568563653846 -5.033011481627326 0  5.440959547204715 -5.189965054534034 0  5.338635245495395 -5.057261968767516 0  5.277852513706899 -5.212925175965626 0  5.177671458373919 -5.080335614905493 0  5.117319998454615 -5.230026026708281 0  5.020553268773007 -5.102861712509153 0  4.962757877592708 -5.254232161773019 0  4.867040679553863 -5.124870897836488 0  4.809936829695793 -5.270342568544658 0  4.717954933757122 -5.148177817978502 0  4.660365782818699 -5.278594744612148 0  4.570515432238546 -5.167381453417852 0  4.77394937306828 -5.007097983467991 0  5.077230380501195 -4.955702628464535 0  4.51481146764251 -5.29446832727492 0  4.42733978664646 -5.187902931915052 0  4.48195677423338 -5.055459659583679 0  4.341385097799126 -5.075438494922344 0  5.400337870523824 -4.904122305112117 0  4.394390211423554 -4.94635932712034 0  4.256175124891994 -4.967284502377988 0  4.207321424070194 -5.091545099680547 0  4.533508990432262 -4.923661664663769 0  4.376447301612528 -5.317993431313308 0  4.12447272665316 -4.981536850815621 0  4.170053446578024 -4.858023403706492 0  4.033583991137281 -4.875312884324316 0  4.719964797430164 -5.393540228992595 0  4.089043245436283 -5.106290797497893 0  4.481520938547462 -5.410961044139102 0  5.057839429430533 -5.388483773792852 0  4.44760475094318 -4.809817753841311 0  5.376916407238598 -5.345707932234868 0  4.294448046620943 -5.203008247616426 0  2.576791793172397 -7.701543888020494 0  2.54196717324467 -7.798152900182897 0  0.3012917959019656 -6.52509493398693 0  1.41929354734436 -0.1931717029735882 0  1.380080464663349 -0.1497121214369708 0  1.115878077751731 -9.954219119439806 0  3.135488147692694 -5.692766130355044 0  3.024206115510108 -5.70157372929737 0  3.087959544108017 -5.794093219876979 0  2.982071824285054 -5.803324802240486 0  3.038832423495883 -5.891080135717878 0  2.940036792694213 -5.913528494513232 0  2.965248872407095 -5.613954869214849 0  3.102634236652326 -5.988091389209494 0  3.201534310193919 -5.786281281899336 0  1.64702134827191 -9.430264754724011 0  0.2817227308278465 -5.697864417053441 0  0.5121715160553677 -6.861672626382775 0  0.4795534906183576 -6.902517708518499 0  0.4290043689285028 -4.823387803526565 0  10.31365427510462 -0.2490196870911099 0  0.2723091474572286 -5.568296104952318 0  0.8157524649865771 -0.08987534150822274 0  0.8599278713424106 -0.07842796509930583 0  0.8907437903828388 -0.1146856551591426 0  8.715917986558107 -0.2067780869349258 0  0.2543121236307968 -4.513636917769546 0  0.6455890551950425 -7.044459108707268 0  0.5723915792750756 -4.836064492521832 0  3.583548277255211 -6.688085691080593 0  6.548415245731457 -0.1634313135168606 0  6.644486546459891 -0.306191290338619 0  0.08724857855109747 -4.726484876296018 0  0.06537962936022446 -4.696765838649354 0  1.70705144665607 -7.720688483792522 0  0.4432249435292377 -9.13843675594598 0  0.4218301897376673 -9.178616461293469 0  1.270107849553799 -7.782414410762155 0  0.2605575769115802 -5.086474674245615 0  0.2466076473600474 -4.958714553330965 0  0.155622398165745 -7.200657698822289 0  0.7358234912716028 -3.467568900680195 0  0.6940532677414417 -3.427703907609675 0  0.6360031386116294 -3.447967046528378 0  0.6064284663450437 -3.406855755091841 0  0.2442733694841124 -5.972629037128095 0  2.678808580690124 -1.457153728798586 0  2.524329067998513 -1.400613119267756 0  0.5535760879632932 -4.489736229624455 0  0.5056963146933651 -4.507349914678818 0  2.178349467523237 -1.427972405704565 0  1.3846288791874 -1.737758623605506 0  8.479592243220118 -9.79336252976721 0  8.588767136943087 -9.585508326322799 0  8.841633484245833 -9.58201594933681 0  8.341114423765514 -9.601710678048846 0  8.681928892741707 -9.396263055333264 0  2.514159390934413 -9.091000887579964 0  2.558031076956093 -9.182089463699356 0  2.658566443333179 -9.163683167373339 0  2.464689928106473 -9.17216892081221 0  0.1659872327299965 -0.6557900994766035 0  0.5361713074957937 -4.345280670863264 0  0.4871231356998447 -4.366082317896371 0  10.04271512346436 -9.773429945199355 0  3.55566298538673 -3.644270881694204 0  8.479069029377442 -0.2056674836031398 0  8.355414617320761 -0.3892976346569483 0  8.588461043700033 -0.4067799810339014 0  8.448565895616211 -0.6152906379955994 0  1.086553173363249 -4.4611807338878 0  5.567645322921265 -4.876816775614833 0  5.62105481645586 -4.723112101388519 0  2.522310996521304 -6.406308292934227 0  11.85991073674958 -9.729920236140194 0  0.5116330044100916 -4.001883478525782 0  0.599613292540722 -9.868816132393476 0  0.5796882283165736 -9.903280213467992 0  0.4635957826904882 -3.481279411154353 0  0.4152244864172854 -3.499775384420877 0  0.7447827707627646 -2.418407351378041 0  0.8367123450815974 -2.769600656153201 0  0.4868550316176226 -3.861560894204536 0  2.89125125249808 -4.539528854728085 0  2.924680996495798 -5.230196547540928 0  0.9679245397427785 -3.402020830901825 0  7.786448508881518 -9.808769203924328 0  7.89511480785354 -9.614217215124819 0  7.670702488937989 -9.622391316585116 0  2.799682238161431 -9.077565464740474 0  0.5254244812725855 -6.259742143943381 0  9.22975932789296 -9.777068324687692 0  9.347283249355145 -9.567611706896402 0  9.640099008905118 -9.544254597242997 0  9.095997412783632 -9.577295044900652 0  0.1788427290091512 -6.642249154495596 0  0.2556780171721904 -6.660795123965011 0  12.11907256693367 -4.844778398203198 0  0.2173861708069289 -3.37788534099663 0  10.04418679556216 -0.2462274443354326 0  1.742048734073617 -1.774710284058123 0  4.768592874453997 -2.771896939069264 0  0.4844478554687406 -1.554347535379772 0  0.4566769615531587 -1.420705321170219 0  0.1271022169595675 -1.424793037460488 0  0.08571893804828434 -1.441530897455605 0  0.08041058889194908 -1.485384771940447 0  0.2332607470346861 -4.831919243142862 0  10.87594003669254 -9.726386589809941 0  1.329667286541945 -8.282532421586566 0  1.301528978493675 -8.346189855364868 0  1.234543827559115 -8.355094206154401 0  1.26218115999076 -8.290688916379867 0  1.195105745066197 -8.296228746818521 0  1.163890556837277 -8.361141430101123 0  1.156187731434407 -8.236647943372438 0  0.07758701384643629 -1.814612548725054 0  1.877063946635623 -1.616034782807874 0  1.828044011949228 -1.555533369925745 0  0.951150233937831 -3.236998389996122 0  1.913026807592194 -4.734328997755705 0  1.862062902823014 -4.674648253081962 0  2.272274830591257 -0.9495880680347986 0  1.171790918130075 -1.473190375159321 0  1.814811980480115 -7.624533477124549 0  1.980997872885943 -4.587855571890029 0  0.4362042913111051 -9.807206561553802 0  0.8543013957848533 -2.927125946011826 0  0.8421889042221764 -2.986662646895217 0  0.8874641226373168 -3.031974294218979 0  0.8303996625746173 -3.051775656837335 0  2.273455758413579 -1.174909823608244 0  18.32197272254727 -4.594864552692141 0  17.85909392822053 -4.467106636895804 0  2.464673668796262 -9.926293874957178 0  1.259359079947323 -2.521286474619258 0  1.688896124594898 -3.554860332050342 0  1.737852777942784 -3.618672947170039 0  1.707381062411871 -3.693441854008327 0  1.905002115952643 -8.106577413160231 0  1.978863385231463 -0.06510167461471905 0  0.8074332441538203 -9.547449294617149 0  3.329329386378976 -9.065872686608742 0  0.2704917096380477 -6.616708310143034 0  0.5864557521908971 -4.986643954726325 0  0.701330389270856 -9.965454236531013 0  0.722159110477417 -9.930006922296219 0  1.28803029289605 -9.119472089081006 0  0.8497629785328478 -9.757336045799196 0  1.083571007818838 -9.192054819167776 0  1.051706370679808 -9.137825622900904 0  11.06316690614055 -9.47539841501667 0  10.60120420984024 -9.600917022096436 0  10.37046339769495 -9.467462164123173 0  11.40096095863909 -9.464894053467471 0  0.3792697332705295 -2.837805475190768 0  0.5491709148500199 -1.772614451963356 0  6.357886122233909 -0.1595313028713825 0  6.256428950322938 -0.3198253804807223 0  6.000058952629161 -0.217494918612096 0  5.881196921974457 -0.3204942624823577 0  1.618743841924168 -7.928404992632733 0  0.2999100410187836 -6.909062649518903 0  0.2843788760622328 -6.952536709580253 0  0.5409109772692133 -2.190390262529581 0  11.15600656733132 -1.861971510827464 0  1.332452763362099 -4.088646361044425 0  4.544579342769195 -5.635071148684627 0  4.605353565123254 -5.498928401497983 0  1.957624818077559 -1.003671676051295 0  1.880463592333481 -1.014576684322805 0  23.63930183197665 -1.041899407973202 0  23.36032014671483 -0.5122317405071994 0  0.7350587894934968 -0.5426221081457099 0  0.6913448944192737 -0.5551975985674025 0  0.1165124220561129 -7.866840672054434 0  0.7705750435371357 -2.570263181991447 0  2.55527644159713 -0.08007365605768513 0  0.891657938449864 -3.255751780629885 0  7.0281115866256 -4.645120024311277 0  7.235295166793001 -4.613860130347806 0  5.166816599420955 -9.866279963133401 0  5.241302038402571 -9.729115090476505 0  5.400802701945279 -9.725365634168128 0  5.085257591011512 -9.733551316377099 0  5.317479835144882 -9.594349023673951 0  5.482703278187085 -9.576490154919917 0  0.7843362115582835 -3.84509818190373 0  0.7727849244406713 -3.901883554359168 0  0.7279770127811744 -3.868976831181228 0  0.7171485300755016 -3.928421573427023 0  2.420686860404246 -9.095192128094764 0  2.379922774180192 -9.173146731905849 0  2.41581126548224 -9.243381836568417 0  8.114645999968516 -9.610251405699245 0  7.98243814283863 -9.423957928397861 0  0.3379261122393196 -2.476456585123681 0  0.3320042545955388 -2.524731418327745 0  0.3717108876752384 -2.556576434348509 0  0.3655626071615909 -2.607508188062382 0  0.3119817668833296 -2.626552492708455 0  1.450219086908337 -9.948392883824534 0  1.479907456128359 -9.896164476889151 0  1.420066563342035 -9.899049624452729 0  0.1019187687766898 -4.076506501417906 0  0.6485753401055092 -2.088822039952693 0  1.810251987180582 -9.674401185753435 0  12.80518788297208 -3.695177125864861 0  12.59414545799324 -3.413415743765648 0  12.27182581857465 -3.447972196760191 0  1.334562518560286 -1.113282539433309 0  1.06338762964814 -2.034085989927114 0  0.6641397404724163 -6.58506573102555 0  1.273284599879581 -4.844178883849966 0  1.236849950957172 -3.491361768445771 0  1.190629436894234 -3.445245602711671 0  0.5050068528262663 -6.001829392527514 0  7.567393874567275 -9.811136681771345 0  7.452308767841743 -9.629888612410243 0  7.244309153451616 -9.63658521969654 0  7.331666465655736 -9.454861929378698 0  0.2909945556502489 -6.136110091381567 0  0.2669307110530887 -1.951742615271882 0  0.4162275078435727 -3.208669694928969 0  0.3766559247029413 -3.177503302079947 0  0.38260347917997 -3.125170969065233 0  0.3390520895617595 -3.102073922557635 0  0.3357874560194105 -3.150561817599601 0  1.841377666762908 -8.704621011323891 0  1.795074331251643 -8.64221053436216 0  1.731944632396523 -8.652865404733619 0  0.1536787110531392 -9.07360068453848 0  0.1138704317013755 -9.051142237075066 0  0.07654405556924004 -9.035219562165443 0  0.1653634886445445 -9.157413391757984 0  0.4671417602243331 -5.264174971777836 0  0.4349190143521326 -5.225012866955882 0  0.444859218531839 -5.173473286729427 0  0.5896011437186317 -0.2526241359068404 0  2.899241365292013 -7.8483944885753 0  0.4192543052269286 -9.668771881547842 0  1.756869675603003 -3.75892516904215 0  1.628689060363987 -3.709619448599667 0  28.62418529989735 -7.276773986721926 0  0.6420022822881357 -6.031608209669465 0  0.5809975196732182 -6.04631268476794 0  0.2307932971522817 -1.201009778749767 0  0.22747487247835 -1.151144497704506 0  0.1555752446444334 -1.14561159639447 0  0.8017598160054131 -7.079869103699078 0  2.506407636493512 -4.333234148417638 0  0.6270423625424932 -9.014989559682324 0  0.5990301257878894 -8.973978437588702 0  0.6175601160450501 -8.925782162187133 0  0.570992233487047 -9.028345772540531 0  0.5462102564815794 -8.978177153764882 0  9.766300685753123 -9.78308162773736 0  1.042329016407821 -6.078036956258949 0  0.9442537814508665 -4.743042525455424 0  0.8840873200770698 -4.7536265771287 0  0.9054110124540014 -4.695553266811059 0  4.111184867430264 -1.465775575116949 0  1.600337005629694 -3.782731765774589 0  0.3225936980015671 -3.24814257333858 0  1.839444114566671 -0.7508002744277817 0  0.8011052354738126 -7.766669243146964 0  0.7477767619842588 -7.768881407441194 0  3.064623812173419 -0.8659431959159525 0  0.3970295413666118 -3.01995699666905 0  16.46326331603229 -0.3616551723607833 0  0.3306969153677919 -6.952089933466606 0  0.3052603767845508 -6.997636146336792 0  0.3437249110505629 -7.04288973784762 0  1.208328478431731 -8.417947290640363 0  7.360435012511637 -5.18169936930742 0  0.9088890066547002 -1.034882671084854 0  3.288921647086402 -9.543370995992904 0  0.5765299360288161 -1.907913393040161 0  1.627391928461218 -0.6081495996029158 0  1.241388578508904 -7.839433026359283 0  1.272904426250882 -7.895117637418876 0  1.345117774878865 -7.909776261863026 0  1.129879654837328 -8.596501227910071 0  1.072797687322746 -8.606331235361846 0  0.7550292740765698 -3.617054030535011 0  1.832359301454179 -4.117589559015265 0  1.891960124756965 -4.177832442920185 0  9.201001455815092 -5.99071284414266 0  8.961425060172902 -6.108988471665025 0  0.134395792763419 -6.774958626219791 0  0.6646371988627671 -6.280661955765585 0  0.6282335495439977 -6.237361281733236 0  2.159398963484406 -4.548412814287301 0  1.601980869253351 -2.025269196292148 0  8.238752689709202 -9.80174756313901 0  0.6635207545226471 -7.578505485205987 0  0.6815301861198986 -7.528540468758639 0  0.6288257599836378 -7.537867934585234 0  3.114555389252038 -0.4894978384231221 0  11.53355832118011 -9.733780961946678 0  5.181103312919062 -6.553201866799434 0  0.09462297587957202 -0.996550875111752 0  0.09955881097571506 -0.9523611295383541 0  0.1362204677666856 -0.9235677351083531 0  0.09637015176997643 -0.9147758219429614 0  0.06502087715731975 -0.9290420721854638 0  1.879467789510436 -4.813485318374565 0  0.1617948270142762 -7.656486416654022 0  0.6146671274455979 -2.847757146951714 0  0.5526833661420731 -2.918475235953339 0  0.1730228238813467 -8.4467464158234 0  0.7080130303024426 -9.290851516984507 0  0.6842643512530238 -9.335836472025967 0  0.6337764944539082 -9.338663247467178 0  0.6607686395270349 -9.381204569325213 0  0.6121684935084417 -9.382688021321908 0  0.7328567671643711 -9.334511768485687 0  1.376743073427331 -5.466117396131545 0  3.132912337966001 -1.768713420948083 0  2.964616569913035 -1.704421784617158 0  5.380713286418318 -6.099184620068064 0  5.095573174017977 -5.986586268722075 0  5.055044193864436 -6.156214394094435 0  4.054509532473929 -2.834657544146861 0  1.332715736724417 -8.692348009747448 0  7.273377531509182 -5.37913947821186 0  7.138156000730757 -5.193449523571973 0  1.323904722025418 -1.287842541499431 0  0.09949813858158407 -8.135159067402659 0  1.336809502955274 -9.279732324749549 0  0.1909513033468695 -3.783071497032137 0  8.092103285959951 -2.18927236311643 0  1.627476522052218 -8.382517542119594 0  1.583319810210744 -8.322364763563304 0  1.552803213531766 -8.385029109153685 0  4.86323649929553 -0.1254784271679688 0  10.14922549433664 -4.852125600497145 0  9.845384815520005 -4.918140134164644 0  9.705103414768383 -4.655410672740021 0  9.565229748304686 -4.871050068252207 0  9.434902847598909 -4.645980597637541 0  9.78714050570489 -0.8488070596890642 0  0.7981715025625089 -0.6223727668507246 0  0.7524489856541603 -0.6323235804558927 0  2.98286913658438 -7.057447443796288 0  7.14462983649585 -9.819629519471711 0  7.03613322262632 -9.646431439719167 0  6.831777036228461 -9.658054562287113 0  0.6104126757936417 -6.291223870017514 0  4.574866028236267 -0.1196629788699264 0  4.642571120902307 -0.2416141821052538 0  4.784576994423649 -0.2458368965570132 0  4.708227853673066 -0.3659939738788198 0  4.568249686700261 -0.3541504387256911 0  4.497221584772451 -0.2385669555862426 0  4.303448535546613 -0.1205973467120645 0  22.66255848225623 -6.559626213096436 0  0.181744621988603 -4.236198733539699 0  0.2518415665273874 -6.407525835517578 0  0.968378946630736 -8.829883546382035 0  0.9061581890718386 -8.835139532680399 0  17.31597999864335 -5.971129386326285 0  17.5845467970854 -6.350322723814193 0  17.15161250770736 -6.364025982888943 0  18.04975373887233 -6.310563243974746 0  17.82973859086356 -6.739772181643597 0  1.019174873367652 -8.13443937515553 0  0.2616462398219674 -5.264837870513502 0  17.29307963957701 -0.9615328840416186 0  17.36585037175956 -0.478882876223043 0  0.1838716190861334 -2.696297931976666 0  2.015368865057125 -1.457528012745562 0  3.72601547777637 -9.481249502602777 0  4.042920272644775 -0.1069815243794574 0  4.217563273309406 -3.061991980729471 0  1.220787745560974 -4.419507102940543 0  0.1458466568888124 -2.340010249714537 0  3.800244821981565 -0.1038142739690553 0  0.6015678079731153 -7.459858714390831 0  0.1309882822823383 -9.316815691399469 0  0.09088273556627868 -9.322142561854996 0  0.06741322204445765 -9.291401955080488 0  0.1141848300516664 -9.357418749162617 0  3.561307739161405 -0.0979754595995459 0  3.489769104300304 -0.2066438249322902 0  3.614726177668983 -0.1966113735372712 0  0.2769327990058041 -5.873638035725024 0  3.847961383804037 -7.461268775628255 0  7.738155684235627 -3.429817469227249 0  7.521672045139496 -3.45733974606609 0  7.635223701917308 -3.252926123148053 0  7.387958661407196 -3.286559553201267 0  7.308530754567574 -3.484646074805148 0  7.442270281470584 -3.657736301941707 0  7.230315681889665 -3.683414089917456 0  7.103123180204622 -3.514846455027263 0  7.026247653471469 -3.707056334580901 0  6.901726620997991 -3.543402629387813 0  6.977407915617697 -3.360793016837516 0  6.828624519713243 -3.733734392806785 0  6.705278886163994 -3.571587525806457 0  6.602534106507072 -3.760930440588775 0  6.506344881291374 -3.587064120850716 0  6.583534517208061 -3.419250334224216 0  6.394563230870951 -3.445747809372083 0  6.321281963567554 -3.602018173164622 0  6.209948085425546 -3.472395304898673 0  6.140053387093884 -3.634160227568323 0  6.031307746639396 -3.503569920202631 0  5.962655620704002 -3.664185364716082 0  6.080844301310512 -3.795864998559979 0  5.855434905735173 -3.528984856799728 0  5.788382448518135 -3.686489310490753 0  5.683541201874924 -3.553627488938095 0  5.617042842778908 -3.707653806271875 0  5.515182933334922 -3.575684137373335 0  5.451285410806676 -3.728311014412705 0  5.552261865024175 -3.860471691275262 0  5.350307703872128 -3.597674856734826 0  5.288919692076579 -3.747651857933315 0  5.190360581741537 -3.62109322322137 0  5.129885895467272 -3.767215490384149 0  5.034368847437339 -3.643230944917055 0  4.974561677339249 -3.786960887559506 0  5.069145245132979 -3.910135664189712 0  4.915961088826339 -3.928666783183832 0  4.881598379022662 -3.663741659303957 0  5.097931262576219 -3.499789820977929 0  5.01381803023482 -4.04852046719519 0  5.163027319913082 -4.028477930996244 0  4.862276551576272 -4.059876786838328 0  4.76674288732006 -3.947185505654715 0  4.70772070136602 -4.07876777288339 0  4.620839660725402 -3.967690282160698 0  4.676515359252562 -3.831911257444438 0  4.566671928341986 -4.09074688672205 0  4.536162442047276 -3.860201281314713 0  5.11113480162796 -4.173374346313505 0  5.591629872459999 -3.420871248770294 0  7.156770697408053 -3.882078680482527 0  6.557601881803201 -3.978031889827013 0  6.408201150426086 -3.857209406167927 0  6.224584272386068 -3.9139917429366 0  4.940557534635541 -3.504115053027428 0  4.789126131797826 -3.548528868238697 0  4.733187242068539 -3.691592396147615 0  4.824761105638236 -3.808343081549011 0  4.641647472328778 -3.587418216672631 0  4.695560483669995 -3.437052425027943 0  5.893085379847195 -3.825121149337762 0  6.00134910685312 -3.969880932037397 0  0.6164198076472012 -5.78530883405006 0  3.337780163935246 -0.08778823128366131 0  3.300919804289386 -0.1757724727023051 0  3.169539941491861 -0.197982239506314 0  3.127027918917516 -0.09124917107221364 0  0.1876094298123459 -8.1225996930118 0  0.2612707780938415 -5.436990511441614 0  0.07598116735500149 -9.243829487372427 0  0.174575564943428 -0.9560446147648829 0  0.2157677286915458 -0.9372731473704121 0  0.251541315970286 -0.9649554946328287 0  0.257990345636717 -0.9199083939095285 0  0.2930868319041657 -0.9456161169530599 0  0.2889000299399953 -0.9909255122198406 0  0.180291202455539 -0.9072384823837849 0  0.2645817098998844 -0.8730774008051112 0  0.3320439361551983 -0.9697220606993895 0  5.387919702358813 -3.879397051515184 0  5.482004396733284 -4.014044166606656 0  5.643360738839654 -3.99580329780432 0  0.4601994730134891 -9.313493720961239 0  2.401894924322157 -0.9437460300626679 0  9.241829058857409 -5.023252806761477 0  9.008489540998156 -5.315628867245237 0  0.5235968003711626 -9.546641930876381 0  1.788924377652236 -4.037644190250209 0  18.74950924976489 -5.864245935616445 0  19.03578018504431 -6.278694945199231 0  19.53510445806252 -6.222693011765953 0  19.34158978424257 -6.693150469637445 0  18.76828767663807 -6.699793516775966 0  0.5879702365596398 -0.5006003866274442 0  0.04918478349203426 -5.103162508432031 0  20.41161380131297 -9.52993934594606 0  20.6830062869868 -9.069308228100127 0  21.2736915519559 -9.041557761264869 0  20.13083900325744 -9.090262307638252 0  19.59667277469745 -9.111532496067566 0  19.83389585413497 -8.620674181122936 0  21.03796046115489 -8.592724477232121 0  0.03609549162536574 -0.2726032590328442 0  0.03372806891271196 -0.3148108791487942 0  0.06849095763133484 -0.3392730637387995 0  0.1252991360346591 -7.539303328976684 0  1.172616652620047 -0.5691698533240634 0  1.115577800487081 -0.5768148735250627 0  0.7214712458870007 -0.8709006240607877 0  0.08327469936588017 -8.964001943316072 0  5.478637073246063 -5.486121638787681 0  5.215891749447758 -5.368751127573119 0  5.153919061451735 -5.526785533439165 0  4.87599231574883 -5.41910486869821 0  4.837163941984702 -5.586292995049272 0  5.543634933782375 -5.328413167552041 0  0.9031394870962153 -9.920261392923585 0  0.8174882262527703 -9.046440890376108 0  0.762711500787054 -9.049891687342326 0  3.809622556273673 -6.993904745090711 0  1.693677936253703 -0.2474575437073572 0  0.2441597694094284 -6.147303387152294 0  5.483795590745967 -9.86106336745722 0  9.083860966204467 -8.546840761267745 0  8.946819403075509 -8.3155688405907 0  0.5977314498506328 -6.902326125509266 0  3.111457481665926 -4.507015402407117 0  0.7758040002511262 -2.78166504129987 0  0.6214653940499311 -8.189595603338889 0  21.4785373249338 -4.237522641701696 0  21.73387150811111 -3.795462623751331 0  21.15689630341659 -3.829454864123797 0  0.5213398573156169 -0.6951992918907504 0  0.5189866793364981 -0.6484844676767674 0  1.391034976876686 -8.883187518066094 0  16.95098383651787 -1.7974269839725 0  1.367682660104208 -7.21412100337042 0  1.323101693034246 -7.156537718748407 0  1.252583910238041 -7.173135692025215 0  1.199466653978126 -5.570826306608121 0  4.401604429584905 -2.020462544389036 0  2.492532454431268 -1.487863918512484 0  2.462207652366153 -1.569263228367215 0  0.5165432882996193 -7.979325383819362 0  0.4856681464327277 -7.945546217566431 0  0.5046997309358403 -7.889024897522361 0  0.5594939256934062 -7.882804579477236 0  0.5827816893753148 -7.82918893148144 0  0.4958057529090407 -8.027577444860842 0  0.4425340349759708 -8.028602595049898 0  0.4219172796429671 -8.084841341914073 0  0.4521268860162646 -8.12373465328653 0  0.4316589946086395 -8.170352340648519 0  0.3821837202649938 -8.17779254819887 0  0.08670480560613392 -0.73871692936613 0  0.7663812867683291 -7.716736204207872 0  7.226558001785031 -8.370249018433443 0  7.33062185459276 -8.529375420706643 0  7.495387701012275 -8.706107566031559 0  7.529291565184833 -8.499516557518801 0  7.38918416658377 -8.235388364889555 0  7.685546492985136 -8.604017693793946 0  7.850695180542447 -8.470983994607199 0  8.062960183283842 -8.517898263466689 0  8.003782849748331 -8.308676382431626 0  8.219135464111911 -8.359185085632287 0  8.261051890186501 -8.579169602287312 0  7.790120172045822 -8.258019619801484 0  8.441526032287069 -8.431285594130117 0  8.690770176599194 -8.389606338106308 0  8.563893562619388 -8.211271702571732 0  2.428766710590518 -3.266218954606735 0  4.923535305944588 -4.981893837942389 0  4.82822153248495 -4.873207488638545 0  4.979429941826176 -4.846225560927888 0  5.13086030681721 -4.808134220678951 0  5.237255678710744 -4.930322048878376 0  5.291826823470121 -4.777376891778278 0  4.679614162112468 -4.900372821296636 0  4.732663055163266 -4.759112558770601 0  5.0080991514711 -4.68093689727627 0  13.21340896452069 -6.841722157302562 0  1.321869307190894 -0.1599660476437874 0  1.346447216451731 -0.1015921902304742 0  6.177072643204127 -9.841472621360465 0  6.082565485175166 -9.686727726904316 0  5.906573650349928 -9.685778884371707 0  5.817995247517624 -9.531749559941 0  5.731838223810039 -9.686070967141681 0  5.648294978187602 -9.539663375501087 0  5.822984413828181 -9.84090536215713 0  0.4567997001547166 -0.1980215803096339 0  1.826826143858986 -8.110987531065907 0  0.5074453115336333 -6.312671719967548 0  1.135804299702894 -4.874244081562374 0  1.290129369126221 -8.226403797723158 0  0.3105232286414292 -9.300197232158549 0  0.2854460792556726 -9.263331022462008 0  0.2903989853605538 -9.341015034387114 0  7.182246858195704 -3.325528687055018 0  6.780201462735697 -3.392613747963595 0  3.978559339709218 -1.844117241096872 0  3.776000325106391 -1.769503342103762 0  9.547956616401455 -5.260641980341433 0  0.2595551854097433 -0.4433170147515799 0  0.2610500699249947 -0.3973266480881996 0  1.831716415787193 -5.62063035973204 0  2.787741665262393 -4.554270192380955 0  24.80820330062154 -3.103448023880254 0  2.377340666459887 -9.930035063153127 0  0.2334054032773523 -9.188436727889817 0  1.556714874379047 -9.197792085135671 0  1.396509848538241 -7.966407131977147 0  2.109185748771425 -7.524528381087999 0  0.5329883087975844 -8.525010456752554 0  0.5105307220902056 -8.572303610988408 0  8.524913959452064 -5.39945559158087 0  12.40271365150483 -5.059818986368978 0  4.013910311064718 -4.514338753773457 0  3.960991442087575 -4.636309533293125 0  3.883306891546361 -4.531152509743863 0  3.828813643023818 -4.638012925780682 0  3.903699629610401 -4.760821964589559 0  3.755560639863033 -4.539841792325921 0  3.685663606211223 -4.440280772282924 0  3.63531852236258 -4.540928924433156 0  1.91222910824408 -0.06108732778904358 0  0.4593624270390571 -0.0962881320583886 0  10.52725052706969 -5.346034519527295 0  11.13099097175139 -5.267630524143587 0  11.21623114603286 -5.00838808305723 0  10.93832854681179 -5.034086333462839 0  11.73888416942306 -5.206637393899261 0  1.047290292460479 -8.665337272465495 0  13.0955272916256 -4.570920158696984 0  15.13546789358055 -9.633391912692385 0  14.44202036997243 -9.389324781759587 0  0.03420445930628624 -9.600376648494761 0  2.256677704260651 -8.223347504512631 0  2.915951673781379 -5.72295074103792 0  13.6943117892163 -5.245187513569573 0  4.428974811352973 -8.094696918549053 0  4.58503677476055 -8.065342173453111 0  4.53576267036841 -8.208543312902897 0  0.6189282238438913 -7.168558656468042 0  2.41037124643791 -4.349049408059152 0  3.446031398982234 -2.022966004175802 0  1.610737812707008 -7.108077554398628 0  22.16676874380907 -2.884308922496481 0  1.091757843911994 -4.623800093853869 0  4.512695831243059 -6.719440208335586 0  4.656898473730267 -6.717841464511956 0  4.586503090575611 -6.856536586229454 0  4.809264833751143 -6.720317383750936 0  3.214685234506618 -9.054832836714152 0  3.165525069272752 -9.136491343642863 0  0.4297074815815378 -9.478400644294437 0  22.12001183326799 -0.4824428522355735 0  21.86726321453968 -0.9665833228917551 0  21.24494497692739 -1.026214404631563 0  20.97013420665808 -0.4958487923872141 0  20.64861641504055 -0.9279757502040509 0  20.10247162595575 -0.9016307404825188 0  12.08283889763308 -3.139092614012005 0  1.032112590883756 -7.973305711059647 0  0.607420877257999 -5.280566123293118 0  1.929417954020302 -2.682979317563178 0  10.90814814106792 -0.23788465828751 0  19.86273291509706 -0.4510993620472021 0  9.234154803655924 -0.2503751595438279 0  5.259383621315074 -3.443701141756494 0  5.133645133683162 -3.348709702290705 0  2.92306084591778 -1.79957967523937 0  7.785049181586329 -0.1897583790988744 0  1.33957803614951 -8.999234015365356 0  1.302180921019733 -8.953907347444089 0  0.4568249651077139 -8.796611257625134 0  0.4354633912897992 -8.840920822617861 0  3.181132562126773 -2.972504061738572 0  6.854106768290618 -5.412219193765361 0  1.390849917319276 -9.950105414628229 0  0.6592025246764983 -0.7878530571233844 0  0.6044658179978519 -0.7938266017974893 0  4.616229465289845 -1.507888613691003 0  6.465476778869034 -5.50755743997687 0  18.83383154305316 -0.4322971335700618 0  19.07564288695797 -0.8760022253844495 0  19.58385294176873 -0.8877896853296621 0  19.25401054963883 -1.388332681864815 0  18.78160274950493 -1.291235946941491 0  18.57453178327116 -0.8604549790008544 0  0.5036373197461241 -9.586044152666656 0  0.0352785963715867 -0.398283249327406 0  2.518900082354753 -8.0470676561429 0  6.945562578468007 -0.1861643851683876 0  1.551722582169161 -3.166386187438182 0  3.045250451236662 -2.798844139139199 0  2.938279113725077 -2.812727103364353 0  3.012181509219344 -2.902908915802799 0  0.1113590318078934 -0.8495338689631522 0  2.796317462269384 -2.468502526624097 0  2.760666543966394 -2.563767888960653 0  2.72730373109996 -2.397077755327026 0  3.489659198719668 -5.196631035660078 0  2.507522454523125 -5.636074395315187 0  1.371105388595375 -2.744749204063542 0  2.315464993410497 -2.44533056606423 0  2.268477666717187 -2.366382372331628 0  2.177597066235606 -2.377608500517281 0  2.258984189005808 -0.3690295195633109 0  2.124221821760884 -0.3404540846909727 0  2.232353033257436 -0.454865997651269 0  0.09879753895725685 -5.912806067833177 0  0.1782880412346586 -0.5231653563576781 0  20.27764274465769 -5.754638259609087 0  20.58830198629988 -6.190062187618077 0  21.13686322047689 -6.160872068226171 0  20.92484545161874 -6.663347735487795 0  21.70230293957899 -6.135773231100481 0  22.08241994243864 -6.609339507839193 0  2.923351275342455 -2.625396209335592 0  2.61479788041798 -2.225542929942852 0  2.579977495839088 -2.307877372099614 0  2.556856365628596 -2.148461270121514 0  2.458512292872534 -2.16302977075436 0  2.403055947208482 -2.075226215249927 0  2.438296628261245 -2.002014062287528 0  3.654810188163342 -3.944524488458688 0  15.31124543806529 -5.049458201426384 0  2.264203596350569 -5.586653665212402 0  0.7058312050870796 -7.448758419106657 0  1.065065209442395 -9.955014098070386 0  1.042774668494733 -9.911599420776431 0  2.062768200107731 -2.087395093605234 0  2.040494188432739 -2.160731698997215 0  2.312135511599465 -6.879078477589367 0  2.503355034437217 -6.856246546836726 0  0.5129422079083916 -1.299982552748531 0  2.167900421658118 -2.226276969480112 0  1.16840188682831 -0.0451983968664571 0  2.314323377596228 -6.651396459206429 0  18.52160703369236 -6.285237559943988 0  0.6063377256802518 -1.255900314688918 0  0.562641569130383 -1.228639312618424 0  0.9190102691840476 -8.36292094366533 0  3.002648444281832 -9.064040202460738 0  0.23069443809813 -8.320642479878369 0  0.2871146332290806 -2.173409914921357 0  0.413874114703173 -1.786497752323017 0  0.2372324883856471 -4.388082610831512 0  0.2343245231126332 -7.893618232281973 0  1.014006361759003 -0.04331237043058245 0  4.689970498026842 -1.995787047849256 0  17.36972960576108 -9.592886230107307 0  17.12083833220041 -9.205518727292704 0  17.58668929483211 -9.186101750508611 0  18.06525014948493 -9.163962974972392 0  17.81489412025968 -8.756873641161917 0  18.33022536522317 -9.575626805866015 0  18.57836621675446 -9.139509748769207 0  16.64588636729476 -9.223028451350739 0  16.85920148576758 -8.819625697603572 0  0.6051545393411395 -9.296941955546576 0  0.5575442336157863 -0.4639945856785737 0  0.6029571426219302 -0.4577506457937597 0  1.829904283518941 -2.994353226751309 0  2.213801334467739 -9.933427480928763 0  0.6082164503191301 -7.586791795161626 0  0.6317083504737209 -0.4861425433751885 0  4.754074763911472 -6.201999662759023 0  4.812524494294145 -6.06035138956069 0  2.386042413156485 -1.926117994563462 0  0.603457518766465 -5.988031474208084 0  0.9975504261554455 -3.50494487549004 0  5.321427102767137 -4.027913120656342 0  2.796919237288446 -7.85639651850415 0  22.7521018868141 -9.517841784622563 0  1.090589372830463 -3.843409182547495 0  1.071840462281056 -3.906693347584302 0  1.115754832923553 -3.952688108697646 0  1.096620824184548 -4.015878981037238 0  1.0519301953709 -3.968845064931799 0  1.033088889678904 -4.030986532174293 0  1.07748056445028 -4.078322389878049 0  0.9948022623184638 -3.983982460180469 0  0.961619132555505 -4.045710475370845 0  1.016460225176862 -3.923224132083713 0  1.010589723193814 -4.094930446861776 0  1.056072370838315 -4.139446358136961 0  1.122457899640194 -4.126797009149392 0  1.77279752416564 -0.05769139727163797 0  0.6314782172334752 -0.9755543535657356 0  0.6089076205868054 -0.8961064105234895 0  3.595686184118525 -7.496834312006793 0  0.8922326890024035 -5.20563439680206 0  1.004122569599167 -0.9220849698901352 0  1.169239097195927 -4.17829900143532 0  1.147740488245097 -4.238103467919947 0  1.184383985785074 -4.301487862999646 0  1.659780559710729 -3.62869473556115 0  0.1947105851532616 -8.994603980596361 0  0.4696982834837335 -8.665968911974408 0  11.444175451457 -7.051686027360859 0  1.143185763751084 -9.907745993807046 0  1.091570106983324 -9.910339098210549 0  2.190040679994848 -4.854895847070196 0  0.5116251198866983 -9.73308687356776 0  17.47352267463951 -4.283886795535512 0  1.93406867678447 -8.390877699599002 0  10.72246529735105 -3.547105731457536 0  3.566557320995239 -9.060648646728358 0  3.490699326979485 -9.148439123401547 0  3.6808978587576 -9.035493512962704 0  2.130581975377812 -0.07952789842642449 0  3.006497331055979 -5.510276886576595 0  1.088881456947632 -2.139681418139306 0  1.066840760576161 -2.200068685656381 0  3.361532416917283 -7.524845459046499 0  1.945475539281622 -1.813901499598181 0  7.023425278480983 -8.743764058830049 0  2.484123581568806 -9.842250123924799 0  2.46566555430341 -0.07342486539335091 0  3.138714582428516 -7.551840106229659 0  3.932019339527976 -9.016583866652608 0  2.733917290206916 -0.07900503793251978 0  2.784026485636664 -0.175696968945287 0  0.391624660877298 -8.261819817724643 0  20.92655162146058 -4.300884680279868 0  20.61913172324417 -3.888938893764072 0  19.3453549022702 -9.556892620536914 0  0.3864161131562973 -9.058555225206785 0  0.3661641123001793 -9.100098576995155 0  1.323213759597527 -2.878331636100382 0  0.6688997097531075 -8.919691316817628 0  1.339366114135164 -9.753976004401713 0  1.36842877710988 -9.802236855771183 0  1.425404357481156 -9.801352892669303 0  0.5187507421306901 -9.871135731925136 0  1.510490103316286 -8.326510644662848 0  5.44702251752979 -5.941389127531171 0  0.5263015585925093 -9.023413495463494 0  1.076984097114819 -6.481761906416735 0  0.1611201724877347 -8.879506975531733 0  0.3877272215427929 -8.850515171065659 0  3.11034642714861 -7.829379093936035 0  0.03783151623174774 -3.887388254567697 0  29.33719367626609 -6.120893239603791 0  0.1773305393619715 -9.575568200596823 0  1.101083505421819 -0.1946183162256752 0  3.342695927821149 -7.838217149854136 0  3.384983921388454 -5.364420275620763 0  1.578319634514855 -2.527720501658663 0  1.507346188086245 -2.537295065616637 0  1.460500851547149 -1.274012936969866 0  0.6252594894391521 -5.5808668667507 0  3.576658652779928 -7.805052554896875 0  1.573899281558649 -9.948876715149973 0  1.50126745949288 -8.622609471974544 0  0.5408398950498974 -0.02915281704620298 0  0.2141450074873319 -5.626023333060679 0  13.03638901036 -5.944052019532354 0  2.87994270725294 -7.068468548204596 0  2.830932560619821 -7.161311698104838 0  2.736127026344354 -7.172268580955711 0  1.178767074014992 -7.367044235840821 0  0.8869359042362106 -8.894755086975335 0  0.3985902429243193 -8.932962152750346 0  0.3536355238528426 -7.257682886769174 0  0.1599218496712211 -7.076375334812026 0  1.391061804465021 -3.590523660357976 0  4.461247972952521 -0.5725196696970469 0  2.055862568952225 -9.93099387638792 0  5.025170442070467 -6.566590307010452 0  10.10035616341394 -1.995200141391341 0  9.818131299185783 -2.036000883796475 0  10.25828531290101 -2.228821471297431 0  1.999456382267837 -9.86659460094257 0  2.466244716622292 -5.725692541748783 0  5.012695024183056 -9.868449641414285 0  4.933222089627035 -9.740087736771695 0  4.785244958667521 -9.746333203601573 0  4.852675843013992 -9.61529697455131 0  4.70246997276201 -9.626515132161515 0  5.002392800882788 -9.612376065553031 0  4.907474876314975 -9.496138958750405 0  5.156887873261809 -9.608456981405791 0  4.639788655136437 -9.752812493402464 0  4.551368380706904 -9.640191665372665 0  4.494918110139938 -9.759193058609043 0  4.458454264343523 -9.539870362122649 0  0.6322871660670941 -5.730711620952308 0  0.2197121139267928 -9.572796358358492 0  1.215882098314678 -4.611480837778538 0  5.503141580685856 -6.523971625077259 0  5.429553039886594 -6.664630336306073 0  5.667161758009762 -6.504474962563823 0  0.1685865584483786 -3.133145526219729 0  5.062469985577991 -1.05282411465121 0  0.2038337650067028 -4.173364048318828 0  1.001552882981333 -5.241879803852931 0  2.272142196111755 -1.778930967478221 0  7.577308675803858 -6.48336115066042 0  3.567690514964267 -7.015585251334835 0  6.065309129204064 -6.024362664762513 0  0.2237188070993987 -4.65120045647533 0  0.1611147422221375 -8.56777118955829 0  2.013497935806139 -2.019939374094751 0  2.824325997854864 -8.808493571382069 0  6.432931539563221 -5.988908004484736 0  0.2448024404166631 -4.561162017405112 0  7.874028493796802 -4.92485768262235 0  0.9777768542098642 -5.298588492232739 0  1.017354105519896 -5.346759666932079 0  0.3782589199638711 -7.430325908710933 0  0.1081137037687974 -9.823203312070312 0  0.1613011309103936 -9.786985612039505 0  3.208232422852287 -7.058345091379165 0  0.6583270177471867 -7.307648823914105 0  3.211404553761721 -2.331193427416986 0  6.826533634343404 -5.960197853371347 0  3.445311270168331 -7.02465263035386 0  3.395647124224393 -7.144573511315055 0  9.753653773414822 -5.928497950261284 0  0.9556425203915246 -1.176224523344991 0  2.675204217154036 -7.089484648918666 0  4.238654588775669 -1.812581253687197 0  4.185056682401928 -1.92719383552978 0  2.619951598635252 -3.504952165666307 0  0.870659702693068 -8.474104228309944 0  10.75658619406533 -6.09340958063796 0  2.29658440398136 -0.0700208166257168 0  7.996350994102307 -6.054017170592783 0  11.34646674017847 -6.044256871790307 0  7.227549686965522 -5.93027917636642 0  7.141113487999669 -6.119712325916108 0  8.457446701992581 -6.013180334853034 0  0.5968262931909631 -5.130883742284007 0  0.2061105516392061 -0.6355715065995531 0  2.634271802182973 -8.843210933182602 0  2.187016788407499 -3.24992636193866 0  2.136764881008546 -3.177200629449629 0  2.045258702915763 -3.196414040804299 0  20.05524244109245 -6.187921043788075 0  0.3043861741308671 -8.94351886792415 0  0.7794684185315433 -8.906935181072246 0  0.8034997503396646 -8.852291926855715 0  3.343525082151245 -4.98452658070795 0  1.103982872714923 -2.787635620987388 0  16.86355038245726 -5.989500356212646 0  2.704153987933996 -3.062741502534565 0  3.420558163229906 -1.826724824180659 0  3.467508816841757 -4.148384516347038 0  0.4498362671521328 -1.050470400388626 0  2.448777682465318 -8.862883458139365 0  2.394766918293964 -8.788519697171273 0  0.08734767794751797 -9.510642820226579 0  2.681154918314292 -4.134186760324708 0  2.294303742652614 -1.926403802249362 0  1.094525437659518 -5.461927730562708 0  8.560360971776721 -2.128924373141735 0  4.042656309697989 -4.743959016319515 0  3.902532108343337 -4.893278495519785 0  3.770708129261882 -4.835045210844318 0  3.172973297880432 -1.665204978139403 0  1.875882424858608 -3.458014369415139 0  1.7032150927953 -9.943419814986941 0  1.661546413590564 -9.88845126607902 0  2.561866077585599 -1.300673098225995 0  1.372693536339124 -6.380564773494266 0  1.299630605994821 -6.389514180498482 0  7.857351135766587 -2.205326025745296 0  7.803786990811694 -2.426870288336616 0  7.42627225518821 -2.348698165029179 0  0.2623400862622596 -1.999102668643228 0  4.716244597565755 -9.875051035244079 0  3.31593661324937 -3.156751017668264 0  3.201208834801328 -3.183885950830057 0  2.089177726102349 -2.665345106240637 0  2.061707144059735 -2.739904720438343 0  0.6347374986225738 -9.425864782393885 0  0.6606648246361573 -9.966557328097098 0  2.270784848943688 -8.877873405749913 0  2.234122285579113 -8.811580693632841 0  4.423837017500118 -9.883072285722603 0  2.937154208702328 -1.508455622200115 0  3.119070409574297 -2.056767737803392 0  2.160692853054714 -7.686185018173259 0  3.339472112479381 -0.924488666091845 0  0.04180568523906736 -9.515125382877176 0  3.349343807616744 -2.506103369637469 0  3.393069167265478 -2.625767924123387 0  2.428011317234825 -2.589462788103028 0  2.393156220824256 -4.598053701173833 0  0.2940265067012504 -7.180622797980876 0  2.420553419534475 -0.3434004327135227 0  1.646308054450271 -0.9059031414734777 0  0.5839095809414445 -9.341398360355706 0  2.084960636289315 -9.253223022398075 0  1.257192195595529 -6.15251428688561 0  0.6061419559705108 -9.069701019633886 0  1.921573001911012 -6.274864383397719 0  3.101016382203145 -0.7664311424931345 0  3.438686372891429 -3.658171303916514 0  3.287263561472699 -3.778022905348658 0  1.735355750327123 -1.430699542822139 0  5.139119498433477 -1.559387112254826 0  2.156870265548219 -9.85756019700271 0  1.83805078364399 -2.332234367459166 0  13.21222407530886 -9.533979427333072 0  3.202656809220361 -4.78785195669108 0  2.167763049005229 -3.713186768224297 0  2.081455421526483 -3.719434344481597 0  0.6541598140153724 -1.678159198909964 0  25.42281772714819 -6.283509877685558 0  0.3049599426022382 -1.525438980759237 0  0.585593624845691 -1.460945171308003 0  1.938575790185091 -2.030521437168484 0  1.434547123406842 -0.4633963207196548 0  10.95527548434355 -4.293245234185098 0  1.271280721260606 -5.028234097955176 0  1.13409954824818 -5.049789765904273 0  1.342236850070268 -5.72607629687584 0  1.931144744801045 -3.122146283042595 0  0.844872201872569 -0.8050525856676405 0  0.7633852212383285 -3.350000324502186 0  2.315967512647573 -9.850378324797479 0  0.835166409478461 -6.55165333348879 0  3.411826736271959 -5.563618629033238 0  1.364654673951666 -9.899814927870741 0  2.242057540710912 -1.256167585175374 0  0.03629725988528776 -0.5634563748710475 0  1.278752220534528 -6.270178129480268 0  4.530120548418678 -1.393193432307065 0  4.386743174159196 -1.424633149433974 0  4.288994939658044 -1.312294538149011 0  6.437717307883689 -9.3478862777026 0  0.7725954668620627 -0.7212343225959295 0  25.39504441304181 -2.994923619075951 0  0.9139836376462309 -2.302259000500461 0  1.952433173649016 -1.210173494158013 0  0.5278390629560477 -2.727816506526573 0  12.00049271206605 -6.006624784321364 0  0.4731810057301455 -0.7658660523990299 0  0.2148766138368572 -5.098118238319947 0  0.9808698809508716 -1.937722566432219 0  0.2252170168063845 -3.330135673468721 0  1.275470617675841 -9.012833532455252 0  7.124856469978641 -9.466216968570365 0  0.4304081728392131 -8.469543768030448 0  0.6644224917828403 -2.77263681889831 0  29.32060670259357 -4.274360817333671 0  1.833476311638318 -0.953977466832554 0  0.6003791237983531 -8.237721689723704 0  0.2127806016547549 -4.124397429936741 0  0.2919695723328992 -2.124495693214763 0  3.442289614853895 -7.932932407271785 0  0.210940553415309 -3.904507860706531 0  0.4041905072765317 -9.973102557859765 0  2.686874138687132 -0.1566866047984181 0  2.482666480317198 -5.899396668429265 0  1.336785391510125 -3.191108498938883 0  0.8181831264073036 -1.468993242662841 0  1.484636952740066 -2.418020194435458 0  6.739766321472004 -9.831838025402208 0  6.72490849703494 -9.49497223761098 0  1.082842942061568 -0.3868694074612087 0  23.61762327007563 -3.206576976952151 0  0.2347489956079745 -0.7502835201036717 0  2.281273429084484 -7.986564294169522 0  1.170829222780466 -3.516542311987556 0  24.30302384782938 -3.948662764192786 0  1.224462618874568 -1.884374612334088 0  0.7124860106838113 -1.104671787877384 0  1.276619745926059 -0.04497494893534348 0  1.251157818800007 -0.09541382606803328 0  0.2165599061754637 -8.722516400452918 0  0.2480329613011563 -8.756595623843229 0  0.8770356224479237 -9.798100224853144 0  24.95654830309799 -7.346876923905221 0  1.446043289968582 -1.54047728483414 0  0.7846782257083103 -9.801367206440062 0  16.44801713677838 -9.62030915070811 0  0.2299346184198594 -2.982230830200022 0  1.431334928287226 -0.6403631835744799 0  0.9257759677798969 -0.2783648214521861 0  2.456468254675652 -6.15705163732799 0  1.272345540729532 -3.85089596489578 0  1.065649418642224 -1.64857963197593 0  1.121561870977407 -1.560809365911314 0  0.797091124557479 -2.942690440257139 0  1.411373818950599 -2.24832854235374 0  0.1940089642761116 -2.619581872857625 0  1.294937631853379 -2.041122720097909 0  0.1886995130704854 -9.463012729822506 0  0.344562060006167 -3.375802477162914 0  0.2889479338946117 -0.5535386234828596 0  1.168663801760477 -3.286888462685989 0  1.114471764018457 -0.0473171769262315 0  0.4749349325203305 -1.994365759594323 0  0.303442261493263 -6.656520347764406 0  0.9612470901836758 -9.08325740777298 0  0.9919530859873102 -9.130167812771505 0  2.476921250962583 -0.4117119137111134 0  0.4160507687229007 -1.38974394167157 0  0.4083055691405093 -1.438715603107573 0  0.9666622872530972 -0.04052657852969599 0  3.633855979426789 -6.57083639179567 0  3.68381203941159 -6.455430869662901 0  4.897650747079634 -6.853538974636178 0  4.960963996173437 -6.71416065785906 0  0.3589362649128311 -1.862298113697715 0  0.8247559599688685 -0.04401236731525948 0  0.03638762200764667 -0.7773109243697647 0  0.4414104276140343 -0.2325666600322576 0  5.108504425819856 -8.828608887105343 0  0.1618738858896336 -1.091699793909525 0  25.466680586788 -3.832932003007878 0  8.973083220556488 -9.787646255493041 0  1.080413639312326 -0.5328175024173651 0  0.3329368641544477 -2.855086949237574 0  3.577281686210865 -4.135157029514632 0  1.529481321700194 -7.316669597139958 0  0.7483404995474157 -5.856107333606497 0  0.2925003000195456 -2.493001734662947 0  1.448157287523092 -4.306083552996222 0  0.3581050216901751 -1.137113273808893 0  0.7839997249468169 -1.325884667828689 0  0.9514008825553386 -3.459266898781292 0  0.7707135433935335 -6.87596795933202 0  3.026197582073852 -8.790713863037581 0  0.8395674962828501 -0.9473951945412562 0  1.264805677644965 -7.48329292533226 0  0.2478714208148567 -1.010226798040359 0  2.781853901531854 -5.864677244177247 0  0.2241120183011631 -1.970559748709016 0  0.9330541850938356 -0.6491782363034675 0  29.24278152534663 -2.720649410804446 0  0.1776195768696169 -1.317220891953784 0  0.03647294198791684 -9.05464643946979 0  0.04295222133883669 -9.138215981468548 0  1.209979249972639 -5.920714309934959 0  0.4670181801178011 -0.8600336790680441 0  0.1471497565924746 -0.4564450416587595 0  3.858883094825536 -0.2255316405046495 0  19.89032247772926 -4.408393315066302 0  0.9577576603423346 -0.4557055902190745 0  0.7724954286819106 -9.14544271027194 0  0.03638762200766088 -9.012605042016808 0  0.6211975999663863 -0.03120945130423802 0  0.1692866193358391 -2.502145354188291 0  2.520763038571332 -2.838333360570782 0  0.196106006500937 -7.32172847986804 0  1.121905592820568 -8.869120501516447 0  0.535124113540796 -6.656949731736658 0  24.73664088457348 -5.363320935884865 0  0.9420071368798517 -2.45749106137729 0  0.2067435220038849 -2.862216936731849 0  1.545231692373861 -9.900988078130849 0  0.5951654103192467 -9.727904797901296 0  2.22909332342253 -7.910853315921687 0  2.854998840856849 -3.386730214530049 0  0.0337831250610261 -8.676149966869557 0  0.03993645691504177 -8.765417607225791 0  0.9406640427346105 -9.666330986871706 0  17.39024534547852 -6.770426015901187 0  1.13526076472427 -1.152067809465456 0  0.9294127007204445 -9.490244836568971 0  0.77170300444131 -9.416667358127871 0  6.067368449835724 -1.130158090262414 0  6.146456654662632 -0.9738462521859379 0  0.5815523353740968 -9.967488124159715 0  4.465892656891551 -4.336120415163433 0  4.294346872701091 -2.582234068375422 0  0.6171210151673634 -8.87308154609471 0  0.3431913953266257 -1.284673351053165 0  6.925076498564174 -1.136387703424218 0  6.983291468730455 -0.9462176587630484 0  6.453669846588477 -0.3171940620620308 0  1.322706406113991 -6.495964268218594 0  0.181867096244634 -9.38799778995006 0  4.521229908753078 -9.416273685129372 0  1.691075647934881 -0.4259937373156095 0  1.654022242346304 -6.014905208901193 0  0.8398248366409078 -2.119392284855877 0  8.391436834785884 -0.8627256113706254 0  8.235319364033828 -0.6892944939922128 0  0.7586121308185607 -1.992870093317792 0  1.491519627432226 -1.029833734140384 0  1.521849508849463 -0.9652483318061824 0  0.03214519155873319 -1.359880047325801 0  0.04342380664965617 -1.448483127533716 0  0.3194889612648915 -0.666692701503858 0  0.03407665371289426 -8.508525225139888 0  0.03518991196073351 -8.592436974789916 0  1.563047481586409 -0.2762026619151827 0  0.3894348480373946 -0.2699626175548184 0  0.3389818581565827 -9.973328664189161 0  2.140940067050456 -0.9047550785299379 0  1.034838877869216 -9.481060578830489 0  1.29535713785056 -8.637682549292961 0  0.03478421742259385 -8.343189968900321 0  25.3103401481771 -5.307225227687032 0  0.3848541657820554 -2.036325984796822 0  0.03638762200765733 -1.617647058823528 0  0.07139088076110767 -1.64295859273209 0  19.08078272063441 -9.133716281506263 0  18.81299577307816 -8.688073855808742 0  0.859507865244602 -2.323267263482671 0  0.9919092823676579 -4.389077906092882 0  20.52133328533069 -3.033775458379494 0  8.767862025225487 -7.403040040088103 0  8.851019040592931 -7.175649374568613 0  8.618020560212479 -7.210525160545231 0  8.418343719725771 -7.094327338084002 0  10.78193438855299 -7.368100561958469 0  14.4749270248776 -3.79933229830346 0  0.4103179931144041 -2.21066047813694 0  7.632496683916872 -7.556223008859096 0  7.714880823340961 -7.355777533371199 0  7.498746457609338 -7.39223978228946 0  7.935612617965985 -7.350789320736475 0  0.03870215124779008 -8.173642616843203 0  0.04103845561612474 -8.255733209968117 0  6.634036749563275 -7.696393786152171 0  6.708214082642749 -7.516960351728377 0  6.891593178270096 -7.492087384918278 0  6.773886474055246 -7.307484380785359 0  6.987812353245733 -7.315892636112675 0  7.134174430798652 -7.168850364156994 0  7.169878081709108 -7.357926984228191 0  7.345573300012692 -7.224999142118127 0  6.582808028310851 -7.38832004764149 0  6.719917250153735 -7.131734378725676 0  1.008788505771022 -1.664024253425784 0  1.738540226388 -1.235202263909827 0  0.1771510361726154 -3.608490764892377 0  0.5635132523162678 -2.427335650223514 0  2.040419819041302 -3.429337307162223 0  0.2368826288124133 -1.831574196525053 0  0.03756516842962832 -1.787175604352977 0  0.03392403227991281 -1.701837657500099 0  11.79026824831526 -8.507887717886076 0  0.5570669018366168 -4.691602049164953 0  1.337780367855435 -1.400255518365698 0  1.162551296598123 -1.898755918075642 0  0.6308895703554889 -2.633788666790166 0  0.05594586845575122 -3.085931392594293 0  0.3238475925695639 -9.52653911268207 0  0.03638762200765733 -8.004201680672271 0  0.03619646973893786 -8.087388877379592 0  10.87056700127122 -8.59935144236943 0  10.96409415514217 -8.335736186734565 0  11.30528384881289 -8.275001521556398 0  3.346054715554313 -0.6335840622969551 0  2.944122250974363 -1.242466496390562 0  1.455398668659244 -8.146836585547728 0  0.1927021549952403 -4.404895583690821 0  2.961894256565714 -8.703326124442096 0  3.182409826817162 -1.380318099307834 0  2.3385575060923 -9.517688716592687 0  3.99140169420474 -9.459540952384318 0  10.01850184092536 -8.681922430520244 0  10.12941602531405 -8.423578411162024 0  10.37867550388029 -8.398936025605135 0  0.4699556255265342 -2.467804596875122 0  13.3327160422703 -8.612687245772291 0  1.457288453184042 -9.749128449606705 0  1.401565599927469 -0.9317080509627056 0  0.03525341064126764 -2.163875419758463 0  0.03564612085104635 -7.920913988964537 0  0.04346094315625493 -7.834344113223683 0  3.43187665710151 -1.528156953302676 0  3.99758411117122 -8.307606692593348 0  0.03909363818382161 -7.754620599445529 0  5.539032275211358 -1.995943949328726 0  0.2942356340761307 -9.416195180957114 0  1.212630474959926 -9.286700173341373 0  0.03527326854170454 -2.450818313821351 0  0.03361889024010267 -2.539353786021668 0  0.4402985829242958 -0.03445292336669237 0  0.03927309949057722 -7.54461331456606 0  1.327203957460778 -9.551794518779834 0  1.385205081939018 -9.548588168641942 0  0.6169256429537775 -5.432398266347715 0  0.4799480179658744 -2.749293821988589 0  0.2015106120505834 -4.975237642773934 0  1.15289873006051 -8.920871310166619 0  0.03598783356993707 -7.37267122301425 0  0.63800018215154 -1.389938213181363 0  0.886265159577782 -8.046309005679921 0  0.03563010178203285 -7.245680961026189 0  0.03646044360045764 -7.332525396607389 0  1.537419813983874 -1.652774525782846 0  1.632401361853095 -1.763286406479104 0  0.9573539430931142 -2.670003571468754 0  1.745909094046628 -2.623780391735658 0  0.03298267922387588 -7.037417894249732 0  0.8112016748358233 -0.3412467270831616 0  0.4543059363599262 -3.533973927827973 0  0.3678348583665763 -3.511635095608564 0  0.2916482257738497 -9.064674410003503 0  1.345152436291968 -2.262007275563072 0  0.03627717413912457 -3.172664885086195 0  5.307365364588749 -8.969932635744716 0  0.3101748788847818 -2.350233475137555 0  1.852287387829829 -0.1557699780249457 0  0.03911857988148704 -6.532633821857129 0  0.5200405213710582 -3.118795535782623 0  1.726884713183784 -1.874910098616914 0  0.1553989909440059 -3.754396532712456 0  1.255029033918927 -2.163227459761493 0  0.1674968293292363 -8.761648788342754 0  0.03838791489027926 -6.15766448456085 0  1.448814651404742 -2.127904130729021 0  2.125412371179198 -1.321223793110152 0  11.88471649686726 -8.24684513883113 0  12.22695118099849 -8.161701889900289 0  12.45332706492125 -8.405934479481665 0  0.0375523945740337 -3.762083459433686 0  0.2356891634163034 -5.710607919980627 0  0.03487517802475359 -4.640112669391796 0  0.03474509623036681 -4.432640624110237 0  0.03679390684997053 -4.180866881011676 0  0.04368826690502736 -4.133234170786631 0  0.8190550481936434 -8.215050852203316 0  0.03561434425168919 -5.270295445549115 0  4.038653117106586 -0.4225828981432 0  4.562750916208319 -1.64396937535828 0  0.0382116781302031 -4.936513860241413 0  0.4233100099784792 -0.881189913112248 0  7.75977603297722 -9.434577506074316 0  0.4106849178744589 -9.518564892621264 0  1.702778711586772 -2.748296587552816 0  1.087185855231544 -3.136831814200653 0  0.5756897530174392 -3.637435508669471 0  1.559074773224861 -2.774669725806771 0  0.4784987624683019 -0.6298391639577599 0  0.3532032888093202 -2.709564032434161 0  2.292916695631847 -2.560954597353152 0  0.3498799994975439 -0.7823053389247523 0  1.593970667508859 -4.258211969190973 0  1.545030492129891 -3.375806855989608 0  1.815711878242073 -7.977110422213475 0  4.431809075034222 -7.278438532751678 0  5.563959581022555 -8.803792743683097 0  0.2378871372456253 -9.268095640207783 0  16.5693374582359 -4.906540497279276 0  0.3301224064134409 -7.676496829744874 0  0.6885785700350766 -0.3165444064786138 0  0.9997902573658308 -9.832315256055352 0  8.871620063246477 -0.7836052907700051 0  1.961190255587388 -1.40078895150563 0  2.813808806466092 -1.093218701788317 0  16.3603761085408 -8.837849682490464 0  6.077789167257235 -8.765357901248574 0  1.677578384066155 -9.366190777937213 0  0.9817292004367495 -5.509643179597845 0  0.8987766640650054 -5.585201920887714 0  21.92820463867734 -5.630197094363223 0  5.620915621357927 -7.169371194471669 0  2.720170546235774 -9.254981890550411 0  2.758327902377713 -9.163287432320438 0  2.626282591040557 -9.254104284178453 0  2.854974028578214 -9.158493781726232 0  6.923656178924304 -9.478828925322084 0  1.449788530879914 -0.7520752468658092 0  1.752010054103064 -3.202682003918839 0  0.3674953555769545 -0.02796429905397257 0  0.4973268787197611 -0.9837560668397414 0  0.5113015344515954 -7.108232560798223 0  8.063348744356821 -7.508422007192314 0  6.351076008648368 -7.140442111198558 0  2.630075616204515 -7.181712941070098 0  1.055003295687746 -6.718050423022319 0  1.013005946760334 -6.6719806119514 0  23.88426085297106 -7.459376890165282 0  2.640568527561816 -2.986457246101187 0  0.6520085260172692 -4.257607034961148 0  6.886122437141513 -2.140925935203778 0  6.813173054158026 -2.319653701935195 0  6.914715541853953 -2.461212162718668 0  22.49687259453138 -8.093125440750907 0  22.21579021115146 -8.556725090318908 0  3.674911989363919 -0.8677979532399442 0  0.3494515428064311 -3.02614124820423 0  1.479020934332175 -8.3890367198349 0  1.132799569958603 -5.585284984347312 0  0.1985280055408083 -7.776257566197985 0  7.014568233077359 -7.644196309252873 0  4.086603929160345 -2.156468855628441 0  2.681471948745809 -0.2944778805804118 0  15.99934062615631 -3.056020454124344 0  4.740845089577444 -0.496649217627362 0  11.04333051782469 -2.153708184197484 0  0.982054540028841 -2.170981531309078 0  4.0802308345767 -6.633747707307306 0  2.292761515971348 -9.172604314122641 0  0.2127222117189387 -9.231402794838148 0  1.311339784318704 -9.803586764600588 0  1.457661875477724 -4.872107860708391 0  7.575789015528873 -3.833952816850413 0  0.3498983533958828 -4.88095465911608 0  4.82645446888035 -8.187737688772499 0  0.6604939780226484 -6.741456864419646 0  11.47743003335093 -8.543011204321946 0  4.626249944307011 -5.033691900068072 0  3.929889512767311 -1.96129499202059 0  13.85123325455288 -8.240044567639881 0  4.401304629080101 -5.657984491608755 0  10.57360663132112 -8.633179522106406 0  5.06546317454915 -7.629123975994696 0  5.123795134513905 -7.487763698941293 0  5.2815078392046 -7.468627693695026 0  5.184701614833285 -7.335161756034156 0  0.4400221010663472 -7.747875545698907 0  1.505816455053269 -4.77396505065307 0  9.883250726860194 -3.679272862282792 0  1.890432610869686 -5.329708755926095 0  6.730306506127267 -4.504120599182116 0  0.6908466497831256 -4.750349031806259 0  1.250336322781166 -9.33871829143899 0  0.3470324322527105 -4.073875984355984 0  6.232730777531645 -5.244133183631249 0  3.393581263595486 -4.059758515391334 0  1.377488391510919 -6.857896278578593 0  2.188621311387973 -4.075092478027065 0  1.967812398000138 -3.8025755733942 0  2.07195143346441 -3.934612358175404 0  8.897315458111169 -2.892796642525896 0  0.275479410152407 -9.974969231943071 0  0.8151668123074245 -6.607938189618941 0  14.37797582024681 -1.613299871569568 0  2.006450824388443 -8.829584993836686 0  0.7582035284160611 -7.192716043883413 0  2.351601716891803 -4.257454096148358 0  1.960192685084104 -9.792842067340233 0  2.246673455491678 -9.101108398295727 0  0.1940284795143405 -0.7700196261593586 0  4.466393763119578 -2.79097666365855 0  2.724324211767053 -4.475399465649959 0  0.8323328829610777 -6.09448342419634 0  8.195254444760392 -2.985065733017196 0  1.341752054791488 -7.281975054146046 0  0.2065790751858074 -6.948996636912215 0  9.256031627122805 -7.343308667059237 0  8.83964557437737 -8.573374310318492 0  2.890944390501925 -3.030215657110188 0  4.934687744416456 -2.934624366759896 0  4.220984235100214 -5.444005155812987 0  12.01803847283837 -7.204714101243185 0  0.3788839913373874 -5.494813820940905 0  1.561036710332125 -5.6986436817833 0  0.9044935399923801 -6.958980223409521 0  0.3320860038415283 -7.425884150327281 0  1.369029482655282 -1.339234548833687 0  0.7571740611705788 -5.292011225322105 0  5.232496330026978 -2.899593542426045 0  5.29726957156905 -2.753414201006987 0  5.446835791528661 -2.72334801286841 0  5.343449440963596 -2.598526499760032 0  5.143179257240797 -2.771852418799146 0  5.550182127658783 -2.846274522213303 0  0.9608132457064791 -1.514953931647401 0  0.679536261336807 -9.793037300908802 0  1.378470361821211 -4.321182756262758 0  0.3314011893371536 -8.392213831072624 0  1.019841511036795 -8.508594118733217 0  0.5064101254293192 -7.464433033837144 0  5.541186816066082 -9.399876789530868 0  8.53637946370284 -7.433862076888234 0  3.117731329875806 -5.010533107452634 0  0.3078708340363558 -0.02259861483741954 0  21.61403567186585 -2.920842628379616 0  0.7506424446725433 -5.498615992887902 0  0.5180532185648499 -1.250335023449553 0  0.9754087229537429 -7.215469193510396 0  0.9637300431162785 -7.110005860701309 0  0.40425755891658 -2.968544163788483 0  0.7497974635639366 -6.931632139209685 0  1.739966762663826 -6.142014053206156 0  1.075025370614311 -8.400628326603398 0  14.21211401274443 -6.474467105098849 0  5.886367843419279 -2.789922016332859 0  5.777014559792836 -2.663658241075889 0  5.608079456008117 -2.693049444807121 0  5.678496165304162 -2.524122404660051 0  5.937477293962122 -2.645808419966284 0  2.045910783472905 -9.327226442644715 0  0.4008407074956537 -6.064927568323101 0  6.957053508285121 -3.909573947383613 0  0.6124814336940965 -9.550765341388791 0  10.68755825970649 -3.010262270092164 0  4.74780116084553 -4.298806923813803 0  2.071220117688439 -7.597898942502238 0  1.986512580138577 -6.466753952848925 0  5.896398346282375 -1.161913576252821 0  5.802135730029727 -1.02975273778618 0  2.254336078577289 -6.809803881002011 0  0.3531664665569352 -1.184659320249079 0  3.827663237180397 -1.045933267252679 0  7.425782876238659 -7.582352601351282 0  5.932128049083673 -3.37630882718678 0  2.269297508243822 -7.357026113246934 0  2.354976757839763 -7.356294171232046 0  4.678612140358414 -7.547308681796376 0  2.017211799231054 -2.895545005291773 0  1.757872637436392 -7.777946924701125 0  0.3347233934446319 -8.185465957562627 0  2.701238383456195 -9.078095594202228 0  0.3205159242209135 -7.803530861886644 0  6.431786896658325 -4.71042341101781 0  0.7712181967956848 -5.952742851836122 0  3.342044841870807 -5.470841196663351 0  2.082616440388028 -8.233180482860188 0  7.305510623116692 -1.056366717029896 0  0.6030369757681253 -7.737811499917555 0  12.65137966013676 -6.521932325294465 0  2.304685255624829 -0.6683152877701311 0  6.82879582747629 -4.679151577334873 0  6.544028564647945 -4.528945235362142 0  0.163989096377831 -9.427850541139469 0  1.189215433607227 -5.985755920211833 0  1.246851341839427 -8.471505053913686 0  0.3278884917810014 -0.5346063390191258 0  2.450602870080161 -8.362562107842686 0  0.4805146198842802 -1.17459553570553 0  0.7958622325386422 -6.203272820759135 0  2.096167059822772 -9.528980233139141 0  0.2144330020570671 -7.934553994846405 0  1.031441806878121 -1.372600765049121 0  2.742015774977181 -7.340477809934366 0  16.59951560515479 -7.28386706586438 0  16.68340912840709 -6.853242352616119 0  0.4721436399358616 -1.271583673227006 0  1.412959160745087 -8.090368992855391 0  4.638205063271041 -3.008496946904885 0  0.5456708255716762 -2.578608443256375 0  0.192985266070604 -1.520917685137674 0  0.6623566156128149 -3.110433999592546 0  2.447767721714474 -7.811523627725126 0  0.4662901938018145 -6.981049029486105 0  1.490776870388316 -7.572557750482122 0  0.2852363431640885 -1.036437255077586 0  1.078555692674549 -8.713915108660219 0  2.64054425168057 -9.923020686525636 0  0.8606125029841891 -3.696179477419784 0  1.399562943751137 -1.901494714410557 0  0.2765099234927231 -7.47672640103348 0  0.9200800218538383 -8.939878174144869 0  8.234564983620377 -6.401123193634255 0  12.81657705885431 -2.151004849242752 0  2.254866376134293 -9.519355273823708 0  1.436055684842051 -7.702986438840806 0  8.608649580308654 -3.883229622999191 0  0.7451519402803566 -1.242592509415872 0  1.006058914072334 -0.1779547716823178 0  1.171859318712084 -8.06276501313422 0  1.944408783618647 -9.537941507922319 0  6.580108160027251 -6.59284114559618 0  1.254356689831159 -6.508079029363854 0  6.434666337039676 -1.086202506662178 0  2.078984938276326 -6.127444790521309 0  6.958286573763143 -8.182164026837883 0  3.440705069103394 -6.473356375021551 0  2.827172878831099 -6.39326096028017 0  0.5393608108700452 -9.903407178518341 0  14.85281328399715 -2.152437300613023 0  16.07672991691958 -3.562669139191025 0  15.25740722341383 -3.695490112899921 0  4.190899673276554 -6.402625722741636 0  20.00145284200901 -3.076697765413472 0  6.207630751351294 -6.674757077267726 0  1.501786069715102 -7.383356175629427 0  1.868074370942646 -5.547500745009285 0  2.062710976769253 -5.831553047108788 0  10.4856036445427 -7.398887078352266 0  15.65596912428999 -2.026027717432422 0  7.388388005055611 -2.539610887852837 0  5.856766153433469 -6.723016626210869 0  8.148347994958613 -0.9098408330072028 0  4.718894070207355 -6.584816258127762 0  2.424786384942461 -5.813879592496724 0  0.9832447900292109 -4.624711606179477 0  0.586413164782396 -9.424815915761059 0  6.449281911635143 -7.729073230037386 0  6.681308032072915 -2.179375043967517 0  6.623729023763019 -2.367728302630579 0  8.250249213292207 -2.382996283656704 0  2.073568601720334 -5.458713982978884 0  2.574928074776802 -8.77054029467137 0  2.9127309934577 -9.23820227251764 0  5.581367311144795 -0.4871785394234349 0  0.2001076769954757 -0.2646258093052554 0  4.260190407520575 -7.618926984232978 0  0.2761234995817894 -7.224050381668794 0  0.2729734522990945 -5.390376738386435 0  4.644353753940294 -7.931897061727621 0  2.044980138127888 -5.164030469320607 0  3.095207226582927 -7.207508948748948 0  5.345630707715166 -4.621780744125277 0  6.734200330068179 -1.147782292992098 0  2.737120134496465 -5.96117938153432 0  2.414336364477824 -6.241692165728882 0  2.823101094265629 -7.590553872058594 0  0.5780187598366915 -8.74070472473284 0  2.54908301427349 -1.7240811961194 0  2.044205881458751 -8.754226517766549 0  1.52984830583606 -4.128601567495095 0  1.301514109428185 -0.2139505509010764 0  2.137801219528368 -4.782819176720115 0  0.2962567764688018 -0.3191020739146451 0  0.8067092265477438 -7.339423278064574 0  21.3633631403175 -5.672011090827007 0  0.7316073715509646 -8.409799568110005 0  5.215660992011919 -2.057309059966918 0  3.585213723437239 -8.738716924358638 0  1.418132233604601 -3.523061170001768 0  1.945945003456984 -0.4496888745094818 0  0.2554557286713628 -6.793872903907573 0  8.697873554241827 -6.345841859371035 0  0.6815195416842101 -8.729373569940279 0  4.268746675483916 -8.276016474712995 0  4.184741414198443 -8.164687199466663 0  6.080391587153164 -4.810150840792206 0  6.537857126691073 -9.506713122830764 0  2.51577851146747 -9.524806949668211 0  2.889196600377755 -4.818220183857325 0  0.2439499402648604 -2.193044589194769 0  1.915625685167077 -1.886764678848868 0  0.5399861854313315 -9.426510275930893 0  2.789323177833422 -5.001200127264222 0  4.99336334228987 -8.982832287989197 0  0.3438164506391725 -8.267739308044106 0  1.743190947229715 -3.972483566047968 0  16.49898231299445 -1.82097466716442 0  2.064493236466218 -4.939315899692224 0  1.505128582314736 -3.107071140532994 0  0.9809007654589976 -2.827946929563416 0  0.2538620991585336 -6.533241882544719 0  1.620658008521781 -7.426792223088761 0  0.663291797841481 -3.651024503329253 0  4.032951137606467 -6.74461904313377 0  4.332791153765065 -4.354596297487068 0  4.38096745188974 -4.226907590950685 0  6.593533620714226 -2.675647911247507 0  1.497172822715033 -3.833586004075651 0  1.61106359969458 -3.562276377610603 0  1.231027029720426 -2.937661407095998 0  3.679398718763203 -7.915668987803949 0  12.11000225105742 -0.8712779225085772 0  2.74795532719382 -8.726315101134226 0  0.6210846468782201 -5.934319813864401 0  1.552998383034446 -3.698956162694222 0  5.990470082385652 -6.183103470393968 0  6.699018410349247 -8.833089534166238 0  0.549939368542125 -0.1489080957227484 0  1.32486702524769 -2.687774837992437 0  4.245594954102852 -9.439603456814963 0  1.277118969337144 -2.813464094616527 0  0.5087442127756212 -2.883625160351632 0  2.354231138945941 -4.68179095419897 0  0.3303503489161148 -9.810407961936512 0  0.6170888463254709 -1.594717570100077 0  0.4552192748367219 -0.5230295930939617 0  0.2773367736474164 -8.906863099374212 0  0.245503067662991 -1.415752006236768 0  19.09464493412635 -1.902876128535753 0  3.227301234648703 -7.972100008435048 0  19.75734442820287 -5.780291262017434 0  1.110886896157963 -5.110587465302534 0  3.412281779551556 -8.374711026513371 0  3.538686562519203 -8.245542996293302 0  3.014185318281532 -7.997555899173538 0  2.103211265214114 -9.654128039713104 0  5.650901320865261 -0.1381042379027217 0  26.76610919649635 -8.010597143325906 0  1.683240694815263 -0.9733356625168517 0  0.2994978992189754 -1.304437584204695 0  12.99525319882267 -8.651776161232048 0  13.98276771106632 -6.181651495058102 0  0.5452062376960836 -3.254682993410601 0  3.082352239745266 -8.261288280572609 0  3.192609304413271 -8.405572018237624 0  2.152543066240513 -8.524429113102077 0  1.800493130636195 -4.286059096208958 0  5.225338077541084 -3.891188820804858 0  1.142770803199333 -4.064484984485359 0  1.451468156615057 -9.155781133040506 0  5.71983891300097 -3.840037692605248 0  2.982810731236974 -8.430053286150368 0  0.215550878650447 -5.924561091612961 0  2.985412265210805 -2.168511038071109 0  0.2425904461752193 -5.836570411655522 0  9.295291116580408 -4.434489287792371 0  2.580298517600223 -8.462680969664168 0  20.10287789098137 -1.735746613613474 0  2.698138651530893 -9.503748199851943 0  18.2572476837408 -5.891983708704685 0  0.600349222164386 -3.77617505566677 0  0.6216008735414587 -3.916749224563749 0  3.981171187870864 -3.70510019911175 0  4.798795859544043 -7.293185129846128 0  0.2263461274675471 -5.579482148624315 0  3.97706687270205 -2.732604233539271 0  3.300011421554576 -8.248533901315568 0  0.6432646401604512 -4.060287918109698 0  1.226330951662069 -9.127449399114674 0  0.07309858113185896 -8.571428571428683 0  0.9532365456482523 -7.80271211218218 0  5.53273546772547 -4.165935557799012 0  0.8838218073783999 -3.537688421154669 0  0.6841628022113326 -1.81665779070542 0  2.267562101162842 -3.468233472112895 0  1.754762134838874 -7.285702248037838 0  0.3595939941278665 -0.6473830459660617 0  0.3276914994261801 -3.95081094656337 0  2.45303111182799 -4.251313279108468 0  0.2719725394849242 -9.712915685885761 0  0.7839729942867262 -2.998045760836079 0  13.73276760514056 -3.893790567260565 0  0.3082136319159545 -3.826040821937757 0  0.6703319748309617 -4.403013200641812 0  0.3029572324995851 -8.637342848962723 0  0.2601813112117064 -9.878038812822808 0  0.3558256638935742 -4.43625254269389 0  3.52780209785495 -9.457893254337421 0  21.5402151457872 -9.516448742744984 0  0.6877325105961418 -4.5493211238863 0  0.9077678165027798 -3.41710394016251 0  0.2187985338757841 -0.02426475953748941 0  0.3336854612814228 -1.647872073756596 0  0.5001245386650197 -8.337172283440193 0  2.572398256333372 -9.839779445932905 0  0.3494719305144383 -4.660658179178951 0  5.206802029350168 -2.492691974412052 0  0.9452024445282241 -4.115017520271505 0  21.87299473172859 -9.028510784374696 0  4.789681516215426 -8.59208890997154 0  0.9309179669431948 -5.969358460392021 0  0.1925821898908584 -4.77714089856434 0  3.193935522463937 -6.283748045698557 0  11.70409639469245 -3.969062064380858 0  10.63093240921082 -6.352560467114052 0  1.225898654760602 -0.7177683381240332 0  0.3644649451364383 -5.010399834600235 0  2.369251842456725 -1.552333636411062 0  0.7057353672181677 -4.898754219132439 0  0.3781789361885082 -5.137755009565936 0  5.27197378533428 -9.371405349210733 0  0.285695445198062 -2.539035176889416 0  0.1890854490378917 -4.616506078786832 0  0.3761247807969124 -5.316539711081021 0  1.485458205147337 -1.209574224679531 0  0.7187094139141941 -5.047486235746795 0  0.2046053993257431 -2.158992468679613 0  1.37343084755959 -6.004908442617706 0  0.4164832793242947 -6.591150683733495 0  0.4124613304197933 -6.461837878315185 0  2.435810629898567 -1.382306898151079 0  0.399042561612303 -5.755409499094499 0  0.387426056400292 -5.6232907842899 0  0.4604479154257675 -7.114037111977227 0  0.3192191981501331 -3.516784113139535 0  0.4100592293337755 -6.328548888598565 0  4.936105221215302 -1.71248774059961 0  4.057566306010497 -1.942672676178581 0  0.4067079842471397 -6.195983445819325 0  1.380829430323841 -4.505543961738898 0  0.3253287810327929 -2.902631854303067 0  0.2878262655416073 -3.702016996835407 0  0.3354755263754328 -3.42279967220661 0  0.1583313953533896 -3.969186365431218 0  0.2082164522274645 -4.525970111313471 0  0.4171479818218629 -6.727649432135404 0  0.7591201884558458 -5.649981894156617 0  1.532187164862961 -5.051837690295869 0  1.701623054091156 -9.619104748630072 0  1.571059321566645 -4.187469020205846 0  0.3173811411335095 -8.515295877840305 0  1.366723268908865 -0.8159356756540586 0  0.7312030819404551 -5.197094322403597 0  1.948584164965395 -3.661714045946743 0  2.592332109497107 -9.599477112795284 0  0.4399149169645291 -2.338658057977462 0  0.3784126577774316 -5.981292448297375 0  21.15300219992104 -1.570637781901897 0  1.11744697057129 -6.887411372847159 0  1.534602747385399 -5.247436476410313 0  2.136973730052381 -1.116890635376235 0  0.7969570912727342 -6.356858709497006 0  2.941309046729799 -4.185728988024399 0  2.087190402867883 -5.605927308065658 0  29.36663673597611 -5.024485032087675 0  10.85641862453377 -7.086003416449176 0  0.1947337729295171 -1.851936275544629 0  0.7867699694798809 -2.137976048787526 0  0.3760060279233279 -3.462219434327356 0  0.7750479897451186 -6.105651669476265 0  3.809694494917064 -6.439186844853798 0  1.529695688396933 -9.260112947491724 0  1.839579081270669 -8.243534543078464 0  0.9683873244196519 -0.8795489673231449 0  1.542855429635612 -5.571494587981441 0  4.5426456862302 -1.028953007082859 0  1.631158614814552 -5.888448585060564 0  5.974695112385078 -7.195300781462609 0  0.5177571142649011 -6.713059794330531 0  0.739837899534221 -1.295519770647625 0  1.388496075659944 -6.667881367491452 0  1.291239380903487 -6.739704865092398 0  0.9116260847203144 -9.182021785445926 0  0.1745530661757808 -3.392090760806071 0  3.469745671824025 -6.161644232811241 0  2.086457603896925 -1.654665376591836 0  2.877809091341323 -8.276543805365026 0  1.084920223719479 -7.898148113445395 0  4.155738255178678 -0.7328098437719355 0  29.4563525247177 -3.070417429352257 0  29.6687504359557 -3.743644335364376 0  1.056370987898665 -1.063403041029431 0  1.076993179538688 -1.808122959330671 0  4.295520419789181 -7.285967613291122 0  3.274079197848646 -4.886934710963948 0  0.3892065116185091 -1.987961550147073 0  0.8862163298020018 -2.475508548134076 0  1.155063389185171 -0.9470336221497826 0  1.026083503931593 -7.369031119733156 0  0.9001854702603467 -9.448716909339399 0  21.92625713284263 -8.093925465293346 0  0.9655172080848011 -7.643015458211567 0  2.502767941591589 -1.21936960282697 0  0.9266033114865984 -1.366281696133003 0  0.4982682635196909 -2.598571554481299 0  6.814073705894188 -9.313522402303924 0  2.810676131467451 -8.022595282537404 0  0.790515405256464 -1.721274683607995 0  0.4150734613282676 -2.161628872578879 0  2.317561187134869 -5.657362070325847 0  1.81462702146732 -7.144014410899782 0  5.410601807102479 -7.86115078106238 0  6.604496322088616 -5.19894924753359 0  2.114873880935315 -3.640388300919615 0  1.780764564961594 -2.933502964087912 0  1.623753063599974 -0.7884702439526787 0  0.2659233391940514 -2.370313162025139 0  1.603114097497651 -7.306044104043271 0  2.903448754069087 -6.651412048132416 0  6.181831746787854 -4.524212905113735 0  0.8806158065659719 -5.777611996057431 0  8.530621132715883 -9.206165337635561 0  1.951943634269147 -6.984862475604194 0  9.281206766513051 -9.181045133308663 0  5.973178576614297 -2.074806025281771 0  3.414610601886558 -5.083002841526888 0  15.58414646035916 -3.082864311021384 0  4.279347604574028 -9.095083420032466 0  1.231101353805363 -2.053714036240471 0  1.675353907752969 -4.45089283371199 0  3.936750089700489 -4.406456416769656 0  0.3174017051756675 -9.101949086155354 0  27.80579142301874 -3.076563682211431 0  1.100675143573461 -7.73435503365676 0  1.523704683983054 -4.475330399057896 0  5.408362155013961 -1.246523209686508 0  1.861326997222527 -7.204398214158232 0  7.128002823363177 -4.439358542294899 0  7.711437253462453 -7.024927373552536 0  6.193087769510942 -3.201520761702626 0  14.78568371651344 -3.148593452912782 0  3.364342183215872 -2.752931654848438 0  0.307397101238676 -2.729299341818432 0  1.166197429800322 -7.461313267025045 0  1.536293860149142 -7.121993525027763 0  1.560594636196651 -7.047403869322116 0  1.173205352175115 -5.272950438165029 0  13.48974102300394 -8.271578314579408 0  0.453919557485662 -1.003129091105799 0  2.753350815090416 -9.833053621135264 0  6.563127710509654 -3.156683041832553 0  1.052067502555257 -7.583682344241177 0  8.804223210784786 -4.47644139053423 0  6.950763191633362 -3.10718088209236 0  8.198325556167728 -6.999736774308749 0  8.250637107419664 -7.221561286553167 0  7.358115363203827 -3.081339846827589 0  0.8359427298532491 -9.588045939667319 0  9.820916176463596 -4.397495747658634 0  3.71497000859476 -5.629707385196371 0  0.3913956245671724 -0.7626883834303415 0  1.004279571803131 -2.054770347426905 0  2.349064671473089 -2.629183506438825 0  11.27502011683695 -2.924766790967914 0  15.16213826120762 -1.540118792118346 0  0.2841045722679389 -3.219263632077098 0  1.611905836215428 -9.686923074733485 0  0.6425233819621816 -2.533138925657641 0  1.25030008636667 -6.686297011552627 0  9.528899871984329 -0.8955319427920063 0  1.104960494857329 -3.305147888200771 0  8.145223958262083 -3.951564262658983 0  1.238177318269368 -8.752393428624252 0  0.8155614948526857 -9.633302295838314 0  0.4853999124009771 -2.699343373854372 0  1.066743244496349 -2.357124015636133 0  23.16285415418967 -1.807183557762987 0  0.537235054787228 -2.244856561027851 0  1.812147141808587 -9.223919539864303 0  1.416341319164918 -2.428260386707873 0  0.564548695044909 -8.87222657502284 0  0.2720327086700589 -7.602402240231671 0  1.150178749436126 -9.466381542520978 0  0.9188184506549497 -3.961032957438175 0  0.8459834132612496 -3.217943908665907 0  18.12816996106824 -2.032861387146171 0  11.82480742732966 -2.306825654775295 0  9.088031029282142 -1.409048470385599 0  1.27883186217483 -1.709169812707352 0  0.5748327590452895 -7.547536965336535 0  7.290284732483364 -1.589913200255247 0  13.7285195565296 -2.314375728569938 0  9.657889310435428 -1.787838510777025 0  0.5431682267391693 -8.245263635413583 0  0.326546016233042 -2.575521830358823 0  12.87730416189352 -7.403886580320698 0  1.416065406104638 -0.3558191458480024 0  29.69070521293415 -4.464285714285714 0  8.333726942839382 -4.521550772706822 0  0.9410687460622817 -3.841134123317728 0  1.630474104373496 -2.956977831169994 0  1.62588215263057 -0.4358323276768008 0  1.880206657025161 -4.479828537286231 0  6.401754463324474 -1.551552976250457 0  7.537952513475187 -0.8217991898962813 0  6.047047815764007 -1.585928744890807 0  9.940696261604764 -7.486559592368122 0  0.2040473920474266 -8.283181336763768 0  0.5838953466346979 -8.153235410173666 0  14.02638364392873 -3.227956679896857 0  2.472819850845809 -0.6423123743979771 0  1.419434940178007 -8.512258313334485 0  0.5264255038689285 -3.067840720152022 0  6.228126425217118 -0.8148246824270906 0  18.5157218153296 -3.217664885543095 0  1.558850538525451 -6.579231747501805 0  1.587185980774787 -6.51361920623417 0  1.824886591544569 -3.396791998963775 0  0.0710917070766186 -5.717958010778633 0  1.649494140754925 -2.32121832753763 0  25.79446914323852 -9.386220529790325 0  1.582447556011095 -0.5584823939567958 0  9.749180700197932 -8.708298733283794 0  0.2271619775317433 -5.232733565108334 0  16.07075384510417 -8.465487897494661 0  1.961545278555837 -2.830594803415015 0  2.096798974594506 -3.100599357574596 0  0.3716586731826261 -4.56363362373621 0  2.15516774111738 -1.860557117089152 0  0.2105063484518013 -6.115944703541961 0  0.6850792879205496 -8.506885916582041 0  2.424081901380678 -9.623087809571459 0  1.646738709202115 -1.123441927390896 0  3.767127897846713 -3.403149960146637 0  5.150702550485919 -8.427935034458594 0  0.8711984027320749 -6.754544958628303 0  0.03643246367715847 -2.246831869410471 0  1.091793640860896 -4.825975981031469 0  1.718235494510374 -8.182103066402941 0  5.563754443823086 -9.721625065094141 0  0.8972375084723687 -5.361526152673999 0  12.12313497350287 -3.719594300262806 0  0.896332150061447 -4.077002749068842 0  9.75898892546088 -1.545854381178299 0  26.37449750803675 -1.189255481558197 0  0.03094909692184089 -6.405189068470679 0  0.5908147721400887 -1.41025424272089 0  0.5819307585944742 -3.584747058474613 0  0.3279255051423604 -1.016456188776138 0  0.412545005178103 -4.187307996155111 0  0.455226032387781 -4.228718847519506 0  0.826604727391496 -4.811714605900546 0  2.793453819729532 -3.307970488070469 0  2.259879680957448 -9.640835247786653 0  1.493678408590229 -2.000004264085527 0  3.781039164121001 -5.727203919070646 0  1.584647868844865 -0.2121846314895155 0  1.190599408997171 -6.163897309952757 0  14.02535523726644 -4.818560938576871 0  0.08016798478169918 -7.290438076622975 0  0.07373434689574587 -0.4540024472870039 0  0.8089031802606765 -8.115230942728489 0  0.4053379406585336 -5.886560927689631 0  1.791570932915263 -0.6970373272638124 0  1.528182040673036 -7.809353277345202 0  0.3298075351974425 -3.199250821355726 0  0.9415154531321175 -0.2314657694330426 0  0.5268889953473241 -9.621765531654283 0  0.663000711051124 -4.203351573232974 0  2.246821418073445 -7.676832051732223 0  2.4762275100978 -8.12952864851802 0  0.5478483194241726 -0.2587364106937429 0  1.204210093979061 -5.748585318795223 0  1.579516209783417 -2.708622989996507 0  4.991768581126165 -1.577240052348624 0  3.205058081089746 -5.293100254252628 0  25.65032784312444 -5.767112521488237 0  2.678572218461646 -0.5335469642284068 0  0.03447170468739813 -6.701103494949529 0  2.893326488594345 -0.4145032804220872 0  0.3587312685861317 -4.834452219930209 0  1.038093935819182 -4.200751769460656 0  0.7035853635331932 -4.695733415302305 0  6.893963281370006 -1.648996935711606 0  20.09732430689287 -3.940605308143844 0  1.014830129596062 -7.532680160880338 0  5.923847546027254 -5.579855074730338 0  1.648156983541138 -0.5464594304300681 0  1.77574961407332 -3.132133846523256 0  4.205367563207059 -2.47679126201949 0  0.3660329739924038 -0.515226017811468 0  10.48451716239154 -4.079349104478631 0  6.098576283537367 -5.556835164099137 0  0.3908448982643673 -5.447222282346992 0  1.225030027960921 -0.2675272121210606 0  0.368880992964769 -9.871006589977895 0  2.384294288347057 -3.609073921797959 0  10.64213304962994 -1.938308244642991 0  3.567922289168269 -5.956158886706822 0  4.859216908896608 -1.218324484517158 0  10.40858644679219 -1.227423319978958 0  0.7662543181463164 -5.443817714176601 0  4.375554254523211 -0.4731407832479455 0  0.9673658910876473 -9.707001825700754 0  6.155319644507244 -2.051317704742236 0  2.599564335090527 -3.907355879900974 0  1.654386572187672 -6.694191457245991 0  0.7647317475373825 -5.801459311078766 0  2.222716165730123 -0.6788237631228382 0  1.618756011366745 -8.803613041181039 0  6.055436952726099 -5.262265771185468 0  14.05411912951624 -8.56424570192668 0  7.83039851781724 -5.496313165735673 0  0.9634541166978199 -7.90525158922792 0  5.900895769672012 -9.376103713168325 0  0.5335653203591804 -9.7668893094888 0  1.895900664074478 -9.344340667196569 0  3.501324421790939 -5.861341286110322 0  2.762353883601186 -4.383875690707142 0  3.023467046235041 -2.343450886867334 0  6.941039435026102 -6.126452562065674 0  1.024095515515956 -0.8702969428354743 0  3.297350332122049 -2.668752946809904 0  1.753616830462731 -1.567487814649855 0  3.157858387397539 -2.505662344999354 0  3.637379743737078 -8.348584172496828 0  16.87652133130244 -2.96673614119525 0  0.9261727676353431 -6.902799717790823 0  27.16575988857425 -8.465832696012814 0  3.661190134741828 -3.100080277387956 0  1.850281110525302 -0.3397783627467845 0  15.61925762265557 -0.3896581653695836 0  1.278068923876189 -9.95254483236435 0  0.4002924038434301 -0.6279039025928945 0  1.98691874391195 -8.554126705498728 0  4.203276258068737 -6.951339029064918 0  27.7699191228055 -4.734145911265601 0  14.00051073287375 -1.648985486158146 0  12.05893691575204 -1.726645038625463 0  0.1593831551710529 -0.1972814015139486 0  2.794347424931471 -6.043518550162585 0  5.117239624838552 -1.943476132801617 0  0.2023404811329872 -1.761772570893481 0  5.367033340995556 -2.44911504490906 0  1.373835298027265 -9.332908199146607 0  0.3098985685194044 -4.044164004450969 0  8.053489118943478 -5.469585327599495 0  7.793450662325668 -6.459685032374433 0  14.60260458090499 -8.199817970586803 0  25.08470225017139 -5.815576421525709 0  1.237814686868031 -8.05505244741552 0  0.5704563959643174 -0.4191998532055266 0  1.921159946726348 -0.5180102531891695 0  0.8954563172628749 -6.391418990094437 0  0.2997523716811354 -9.491872132312974 0  2.556412723631981 -0.1646816945643588 0  0.3530068123673686 -4.253017748885916 0  12.74626070853207 -3.060343233717115 0  0.02965642797570212 -3.632769087661549 0  0.6222098826904467 -1.110633593921817 0  0.5989512080632089 -1.03993087494241 0  3.221078275491919 -1.283650437804488 0  29.6871296343523 -5.905911194556719 0  29.7026799958582 -6.622074441717787 0  29.70419992022727 -6.970644210477453 0  3.472542872306029 -1.420482123366521 0  4.754956939670613 -9.505870303061506 0  2.926837877257633 -7.578710031304775 0  1.829586002122381 -4.749538264023998 0  1.332169169567324 -0.04719804504229952 0  3.401899981206807 -6.068579282391059 0  0.3493402025958332 -8.635130064814767 0  0.969021208491359 -8.619536414335631 0  0.03762866161184419 -1.875997040302121 0  0.865970751467465 -7.332203267067735 0  2.753958240269608 -7.944807686192522 0  0.2539222816385696 -9.748643264054943 0  8.008032344247292 -5.104031398895388 0  1.773526418503289 -1.932111286690053 0  1.224429383153204 -9.952754120331502 0  3.377939225612115 -1.931167655643049 0  3.649628233323329 -7.116218384589571 0  2.142398469262494 -6.66736204510075 0  14.13011210171499 -0.6471905053420191 0  2.896297680055849 -1.597838489525675 0  2.775399601375593 -3.846138308673058 0  1.07483117873864 -9.0887209480493 0  0.9310694748787061 -6.744086435590694 0  1.750586638378261 -8.114099435402657 0  1.060186873036358 -0.5837805459783425 0  8.481503167590796 -2.350989529602921 0  3.250942669021068 -3.883782533589254 0  0.3506580830733625 -7.629842791205103 0  5.111842795987005 -6.69238191763244 0  0.7875904684734873 -5.897686604535826 0  4.248214476699399 -4.251038989171203 0  0.2728792068845749 -5.218104915749572 0  1.025506595750626 -3.702722603188923 0  0.7875286389438099 -4.978025266472137 0  0.7280785534351875 -1.850523235924467 0  5.455949715783925 -4.749774026886695 0  0.1195795591330775 -0.1409676086763625 0  5.427496392589026 -3.439749451196221 0  0.3790320580314575 -8.388071249762723 0  9.717187127604312 -6.816652726708448 0  0.71651461873609 -2.754565462542449 0  0.7565499767899233 -9.760592658869484 0  4.183605246468561 -4.729383820942077 0  0.339339246390896 -4.306734204131756 0  1.211850214343801 -6.278761067555645 0  0.7177681114715107 -8.856831949273495 0  0.4116512860986656 -6.017725121628149 0  3.821739833888572 -7.783723369821818 0  3.6959714025311 -1.681846863667205 0  0.4344740347532543 -2.388702176246462 0  0.3493574937656412 -7.84327867267403 0  29.69070521293416 -8.75 0  29.28920241899086 -8.928571428571395 0  3.567892142336134 -4.443257562032355 0  2.068643589358118 -6.432554240957511 0  4.240093438580121 -0.8359299097365636 0  0.6597016161791984 -1.625731099925851 0  3.781787475888054 -9.143361927582749 0  0.4951202924966722 -4.203264697262107 0  0.9059787914432889 -3.196419940756374 0  1.408871673842683 -0.699269544533716 0  1.265027942172722 -5.556678861629148 0  2.483278065826454 -3.598886591871775 0  1.232053622012037 -6.395080236935954 0  6.823540713401897 -1.820618930601922 0  1.066817034285258 -0.1549634616535851 0  0.03644708339192348 -1.537575567885219 0  0.7968195523237895 -6.508787559011679 0  1.099928961406821 -0.3370175674254776 0  0.2853106746536582 -6.829911194090613 0  1.979433965662308 -4.169953162891202 0  1.25132782848252 -9.070077050204098 0  0.4519372694505481 -5.31551429361804 0  0.8613933083164973 -0.7550392739051635 0  0.5996644172564043 -8.693487074405748 0  0.2457077246042285 -1.73817351834686 0  0.3639511391869554 -8.511780288317697 0  0.8187260193441102 -0.4367689460030357 0  2.189299347532792 -1.184481720767621 0  1.16477585829991 -5.873292981749183 0  8.001290061501411 -8.096116578041887 0  0.07778914898395151 -8.070523474777101 0  1.262455144486628 -0.3309889271554418 0  0.7396051740812819 -0.1839775783966022 0  1.971017972159986 -0.3815473020552957 0  1.986129556018298 -9.599179239143519 0  0.3109808170317905 -9.709972841009389 0  0.3219952333086358 -0.3506287243179056 0  4.364266539140065 -8.621504017925998 0  0.3518647594531217 -8.716096156911787 0  2.168788417457895 -1.643020805530461 0  0.4305778190140188 -0.7872660537808818 0  2.318223949220027 -7.431109425659456 0  0.7124675245820029 -3.140485728191465 0  2.128612034662641 -8.301425396699729 0  0.03636350989450676 -0.8172508444753337 0  2.331715690233791 -9.243118651709299 0  0.8568877635403815 -9.922130652317071 0  8.879324663798881 -6.940046988102382 0  1.097290128191293 -7.355604223287374 0  0.5934524151376124 -3.235511342969449 0  2.149205935340254 -5.821016761558054 0  0.6716653247964217 -0.3561078333197205 0  0.507678824121113 -9.969375423600088 0  1.733874395142937 -1.030435219818143 0  0.6341561583901534 -9.509467872013865 0  3.993640066369613 -0.2124430496558434 0  0.1361559427608743 -0.02265408422464965 0  8.689613628322142 -8.023219474088917 0  2.096325031255722 -5.233221365268263 0  0.4393169802757892 -0.6083440067510315 0  0.6915670330590942 -2.44091541285225 0  2.167314839748725 -0.8275645605382742 0  0.7212679280808345 -1.904715715826627 0  0.4713815873848155 -9.970215791476631 0  1.17043482876657 -4.374946432375491 0  2.827858268831877 -9.921302699378568 0  1.145317262255043 -5.509569558643738 0  0.8411829087534812 -8.160416822903121 0  4.626310737708557 -2.783904068216791 0  0.7877033965958766 -9.963081039082297 0  3.38255051520126 -0.5348024021505733 0  1.462713462266789 -2.48377500445501 0  0.97707361574885 -1.342463168364551 0  5.412897877830925 -8.808710683630572 0  3.823706369648246 -1.653062461846937 0  0.6966000990075383 -4.041934639061085 0  0.5751249310408149 -3.048188500932463 0  3.964735474070508 -8.619643334842337 0  1.101919614319733 -9.661626497120659 0  5.049742522946969 -6.835892694554943 0  1.04919201374509 -0.8139889915188148 0  0.03560668720529492 -3.260661073009805 0  0.08083958490994014 -3.21889899911243 0  0.831205341277311 -9.962280849157928 0  0.3957585453665722 -8.632255687332155 0  0.4185930265633253 -9.943927135145566 0  0.4484013123930986 -6.769774249576969 0  2.124561514487347 -5.52827372846659 0  0.7230323942175509 -4.385614297104969 0  0.9688662254004452 -9.181320182706461 0  5.572389204823535 -7.843081511468069 0  0.3325423084848858 -3.683386247745827 0  0.5740612207446638 -0.2935651805171737 0  16.67088467079502 -6.399814770497638 0  1.668165147897719 -0.8428647265677007 0  0.7424560308959922 -4.531916652353162 0  0.6414212050760213 -3.811095081232365 0  0.7512865269562603 -4.022610706550598 0  29.6656582281333 -2.696529424911069 0  29.68853438214804 -1.98214198347477 0  29.66997519333847 -1.632419101252891 0  1.13711292193867 -1.795322215523624 0  5.273987701381351 -6.677937355213793 0  0.257217971407087 -6.103507442391309 0  4.591680968928413 -0.9010707766121158 0  1.156400435313277 -3.347987309317826 0  26.16873750598428 -2.299366458572723 0  0.4114179517918686 -4.995921866250648 0  0.2183269229704923 -6.375047778843115 0  0.4680084245748688 -6.579283767185967 0  0.3908556121827687 -4.467125858549327 0  3.699941235912915 -3.002088967325548 0  23.01530617854934 -5.508399450647397 0  2.572204551978633 -8.123313030518169 0  0.6573303418639362 -7.724653526232721 0  0.4558623409882383 -6.184615060025301 0  0.7469488157286133 -4.938765438117129 0  7.432224230121729 -4.592289142289781 0  1.11383787285278 -1.053358142174912 0  0.8146409045826779 -5.637593686054378 0  2.870399307098179 -6.30018409255679 0  10.12402853966687 -6.89681455861547 0  0.260685802462497 -7.930746664082068 0  1.359286471398901 -9.600578804510391 0  0.406015225745108 -8.428454786414843 0  1.607670919387116 -5.038407983907247 0  0.8554035744549786 -6.346726398346568 0  0.8738827338767141 -0.03756718287620675 0  0.7095734862280167 -9.377708639687642 0  0.4464299329245183 -5.743276613768811 0  0.924278835096187 -4.637058383808801 0  0.7979013147748404 -4.513275193907229 0  1.907157274079326 -6.840781228194913 0  1.507624507179884 -0.05784116004140483 0  1.998582038539544 -3.727739816285509 0  1.214181569192508 -2.47446471258379 0  0.3566413409529865 -3.809650772909233 0  0.771771905902451 -5.237123215721791 0  0.6978760583394941 -9.753540245239023 0  0.8316223833821574 -2.175116030920889 0  0.9320464530520542 -2.515583327970323 0  1.489607139082921 -7.068828014409736 0  0.5232969597650357 -4.855232787766971 0  1.58935298659377 -5.629838365688986 0  0.4089645161675683 -3.793912880827899 0  18.99527324272785 -3.162557890765473 0  14.45513105290972 -5.190947035214716 0  1.238965030177432 -0.3762562002989753 0  1.266077055399467 -7.998265627551004 0  1.678609807063602 -3.014563634899968 0  0.07149032214452689 -0.8908540578822057 0  0.6416621369326503 -0.8341936202570199 0  1.238142727177147 -5.260880530312273 0  2.997561167343516 -5.997430104612164 0  0.5336001129687045 -2.677717663330395 0  0.321619964808626 -7.593351937288249 0  2.776011621335801 -9.589113751642529 0  15.93897038173426 -6.046550423997519 0  0.8140602262245658 -6.1484245725441 0  5.568895984255599 -1.215258881462646 0  11.80699434499773 -6.960733407775197 0  2.574528903450254 -2.403617014783167 0  2.52577929885587 -0.7112129451787954 0  14.72176686332556 -6.123241213435906 0  8.232595872276782 -3.743471355543006 0  10.78168886771806 -4.054647155080695 0  18.36998351767945 -1.584664614749392 0  1.040251880022451 -4.426138595283701 0  0.3698080405182687 -8.894826043747187 0  1.455800736395819 -0.4041643213631509 0  12.34983547621987 -6.029881214815274 0  7.560311170886969 -3.056478783003936 0  0.2104805895326152 -1.668475861292661 0  0.4926830304922376 -1.030978975001457 0  1.904913353149446 -3.383539453859217 0  0.8137228117521751 -4.210132899009851 0  1.125793718391176 -7.678991060291448 0  12.1437187592853 -2.262598593904568 0  0.03541778753536207 -6.829804031703723 0  1.33864606731936 -9.851260434439025 0  1.486368988519507 -8.506690034577744 0  0.07306835497906405 -8.369732849974968 0  14.09476892827116 -2.265285028934476 0  0.3457321106812863 -9.14059534296371 0  8.471001448334812 -4.705412318081327 0  0.3241443545358216 -7.218931879302229 0  5.007255668625042 -1.192529126288376 0  3.888077007307174 -3.385006783108414 0  2.360407102408399 -3.455118349895996 0  10.04780203136929 -5.123924767294841 0  1.30050392827358 -8.747476779853264 0  0.04134320848392115 -5.5186873357416 0  29.71010704994595 -5.183495548983487 0  0.06810197055301259 -9.362582422159656 0  0.1549482793241097 -9.725891964886676 0  6.267946466686332 -2.196668615474168 0  2.342057882642965 -7.194600484769038 0  1.822077436957606 -4.211130645875399 0  0.2860407805531011 -6.570723296999564 0  0.9284177055698137 -7.856345840234767 0  2.893158818359858 -3.29500786090329 0  0.5403998266068619 -6.209978137788921 0  5.636175532673317 -1.056434890238752 0  0.3232857623436356 -8.901190913786904 0  5.305702565457675 -8.413858828907774 0  2.981251891015889 -3.542805764495478 0  0.03753173746197547 -4.38908884690569 0  1.466048574267765 -6.112079143779219 0  13.08370297739478 -0.6074972852763434 0  27.2107320202772 -6.992501230676478 0  4.07541332344463 -7.763673030574074 0  0.3632884894562771 -8.222980265437844 0  0.03861763411606312 -2.876788765498051 0  0.4003228703540938 -4.237722846592091 0  23.59326608700472 -5.459920533162103 0  1.144842495493895 -7.894461171108846 0  0.06063110697555452 -3.494940062251144 0  4.401029334313666 -3.880781866766192 0  2.94586756699081 -9.826084554529951 0  1.173953070095541 -1.037065999771848 0  2.734197216588392 -0.602771032026391 0  0.03530468878151716 -9.181821962166778 0  1.225549198455333 -6.748776980326364 0  0.9376721691847294 -5.249405108804987 0  8.358228977770079 -1.504160583991097 0  10.45791505610779 -0.4906371963810763 0  0.7020565217536863 -0.03772837589469891 0  2.793677794990229 -0.6689372247689835 0  0.9191200591302362 -3.135816490395293 0  20.31700717876582 -6.706263412945912 0  17.52252148202587 -7.182319239381764 0  2.636422984623302 -8.371755971383109 0  1.099139465409525 -9.034554244767868 0  0.03518259808123148 -2.629888043883096 0  0.5209921327977582 -1.201722994395198 0  15.86561633919609 -0.7424607371701546 0  0.9681894619531946 -9.960231009697694 0  1.439036349744885 -2.548281526566722 0  4.346231877534441 -2.462118684282472 0  0.4251038679186987 -1.513747986728261 0  0.9512400236972454 -6.687093668786446 0  14.09912685085031 -3.851770993450586 0  0.03392296244234672 -0.02019838992261835 0  0.8412107987055144 -1.703988736482639 0  7.212959336006242 -9.28692089709245 0  1.176442792340907 -5.09942889199876 0  0.3951835003811315 -0.1699681536698279 0  19.823694889484 -1.339370110296021 0  2.331126497918213 -7.665715015611271 0  0.06321561597778746 -0.1237806055651722 0  0.07725891606443547 -1.193230007186844 0  1.353416771153956 -4.206913656525685 0  9.848604388724507 -8.4518175131746 0  16.95849352996872 -8.409953919089435 0  2.646629528259989 -6.757281839834221 0  2.967165412372744 -7.485362516923188 0  3.170353777080592 -8.684082111264068 0  10.67899807367555 -1.18647605338108 0  4.485205748571289 -3.984472963947401 0  0.07445224006925599 -6.568645024613115 0  4.452535061411432 -2.57340277291559 0  0.6472963917827421 -0.5733166523046389 0  6.352452383935862 -2.325676853418271 0  2.489160646181507 -2.667228449451717 0  0.74120082378845 -9.098787945170445 0  0.3743640608405379 -8.675553408437903 0  0.921587573200183 -2.573773494753874 0  0.822683072978073 -2.231174111538671 0  0.6156269362227071 -1.998631812601736 0  1.2745883464701 -2.102635063763047 0  17.88377574277212 -0.4340930824817244 0  5.701955803578477 -4.142768089080429 0  2.205897705060073 -9.316318020825108 0  0.06928885132677465 -7.092697710740361 0  0.3989379171946581 -9.705064043455586 0  2.928720429919045 -0.08008147472886051 0  0.650693220224758 -8.688942454413271 0  3.016457709169629 -9.914844897476215 0  24.53788501361907 -5.882970437344012 0  1.231265660491472 -4.791602662835319 0  0.6328144473147894 -1.440932001557526 0  0.2951768500719716 -3.127153433207781 0  0.2336715410964683 -6.328572689730745 0  0.5461220875547745 -9.582816230393348 0  0.8543735371630312 -6.49754326614044 0  0.7700748590309328 -7.540473104569219 0  2.22077745796874 -1.710342959165151 0  1.898131728872514 -0.394061945818196 0  19.78842977936772 -3.526039739168681 0  0.9231320490344395 -9.960008062435826 0  1.574477910476919 -7.372669162449478 0  0.5410306805165632 -2.967551134781184 0  2.2042093485463 -3.01736659981162 0  1.747623238793839 -9.7974118250945 0  0.03570605353048961 -3.803697869140281 0  0.6099009445730754 -8.101039252809427 0  0.07291791283111948 -9.073196136311793 0  1.859263558591538 -8.042295303639179 0  3.775533378256492 -1.463951375345035 0  0.2651450036838483 -7.019245685628236 0  1.037806060698021 -2.808356952429662 0  2.95474772912684 -9.150547046199501 0  1.732088899545642 -4.633519452757541 0  0.2086283807485927 -9.151837171292694 0  7.714917629638222 -0.9948386631034918 0  2.786118259603361 -8.454943061496326 0  9.504316992807892 -0.2169718630373074 0  1.254970848897379 -1.29657056336523 0  0.08449254426035502 -0.02152137842088209 0  0.951645709725252 -9.444239132384022 0  6.16938777829048 -6.164635916500739 0  3.047341020049601 -3.619638119824509 0  0.3564009556263112 -4.028155861916987 0  1.229731482186416 -5.857706222227368 0  0.8070042939172577 -5.485752489228592 0  0.4247775290009344 -5.483035749246103 0  5.332803314605338 -0.4034671513035226 0  1.448760138909467 -5.982782869885568 0  1.534002668482838 -7.626495375881467 0  1.2349780736936 -6.2164871239699 0  0.6001215842818652 -9.935132105121102 0  1.033278416502508 -0.08155545434480516 0  5.638587958376799 -7.694534973518468 0  21.66829794403841 -1.484309512819878 0  22.33938302354018 -6.102865788720158 0  0.03481056126770987 -5.187332674752116 0  2.38186634861917 -7.113994600321086 0  0.03492892705767048 -4.015640662791212 0  0.03459651350151915 -4.775472688081317 0  0.573947437813322 -0.07615910461182906 0  1.506591863227403 -7.691993999623566 0  1.993631403277501 -0.3131456931384902 0  0.3948540489732153 -9.139481960123931 0  0.5290786290284668 -5.75775694667588 0  0.7169774312027677 -8.320927617572311 0  3.922955658336098 -7.894538095161975 0  0.4338951143835708 -1.967189925690212 0  2.084093263285588 -8.82297716238393 0  0.02901756475423412 -2.96230611895563 0  0.2710510708860348 -6.057018524582771 0  1.633047981970213 -6.569622360776201 0  9.61489787991411 -0.6571737461815239 0  0.7643039384409853 -8.220328171393671 0  10.9257049543272 -6.325087957881666 0  4.051423084116418 -5.231168910411767 0  7.898010095921017 -6.248412679660396 0  0.8053731594447484 -5.842327199622909 0  0.4595540740394881 -2.140725136002451 0  1.440767557506998 -6.180795827538741 0  0.78899945048917 -1.272803391468126 0  1.370737479117187 -8.74458523301803 0  2.217008245884262 -8.298601738137123 0  0.6765820271850895 -2.232199872560084 0  1.321010357160382 -1.755135639765491 0  0.4333270974224792 -3.874133098867435 0  0.6875528787348966 -0.4274407430098259 0  11.154876003093 -7.06182902105044 0  19.2916255992779 -3.568655143108019 0  2.975483855050376 -6.29169124693308 0  4.299953888658306 -4.126662998164045 0  0.575621762481358 -6.24968631824978 0  3.81934980133669 -1.349150413650029 0  0.5052847513774648 -6.173578338377705 0  0.7959350342916753 -8.272118721690699 0  2.343337408798948 -0.1370069615152829 0  0.07750584466687194 -6.451436016355194 0  13.21957520449724 -7.371591803807082 0  2.627184897286014 -8.202136690312846 0  0.5533683147160797 -9.730190431896261 0  0.4905574659549252 -5.357124843385689 0  1.753327988324495 -3.003320214363549 0  0.7071034670483609 -1.606332282909897 0  0.4750759796252488 -2.418236773707283 0  1.888998704291332 -1.963965829813307 0  0.1024020187334038 -4.846207704062449 0  0.4456280743650431 -5.029785149595755 0  2.183430442970232 -5.224724537059611 0  7.721616516648825 -1.520801170129976 0  2.841250415385662 -5.938826237809051 0  3.15372495105721 -9.822390013336021 0  0.2802626172562306 -1.443338308188676 0  1.786520749847348 -6.207290450097936 0  10.17277198477577 -8.168613316263688 0  0.4519926911413528 -5.875463367626763 0  5.516596510978864 -3.277031852486668 0  0.07567088383906118 -7.866976510577441 0  1.780901153030221 -9.738595847295905 0  0.5603206163763854 -9.935341249024873 0  1.135344396648327 -0.3797014083237853 0  1.179258132965785 -1.84021575669065 0  0.1326549016790288 -9.978942079075821 0  2.153038743243368 -4.931092147338559 0  0.5331909049077908 -1.059835609959475 0  1.142176407730977 -3.40789191855548 0  0.3173385952121119 -6.867653997095874 0  5.720845749889659 -0.8854852738635524 0  1.021175679783372 -9.871510718633417 0  1.026101448893531 -7.63682900581898 0  6.165056327406658 -4.070293865496145 0  0.2248061962261243 -3.027084627139033 0  5.372045588369023 -8.272196335747536 0  1.159091341199787 -4.81137929750382 0  0.03770004225883916 -2.286774762785423 0  0.7685303294441024 -1.938778762629723 0  0.1946129920228206 -2.274444878077776 0  0.716212099204693 -4.186172545422033 0  4.134566812069975 -2.040466849550261 0  2.450095790383463 -4.676812278527243 0  0.4724593870667348 -0.06328852608757174 0  0.757850882620728 -4.679967926079792 0  0.9863183279841987 -6.893078757565344 0  3.521246062588066 -4.551085041355467 0  0.6769242162192484 -9.637955537423547 0  1.094924562843294 -0.6263252642947101 0  1.695876617435427 -2.374520070733537 0  2.85368780798825 -0.7361244020111517 0  3.217676329280749 -3.688804079517779 0  0.7022418310672105 -9.681033852902909 0  1.847088744417446 -7.401931811151177 0  3.218227574004748 -9.910244449627834 0  3.784444420499609 -6.219652484295196 0  0.5054092522905425 -1.746754813946075 0  0.3683370398212809 -3.981941068764426 0  0.3012013754889651 -3.607757469755323 0  1.250231335805129 -4.728728448998977 0  17.30841156874613 -8.814385707973369 0  4.012424468919775 -3.36666866424749 0  3.451248098386495 -0.6179318400186666 0  2.534887344275317 -4.071660863654617 0  0.03266474414045462 -8.891356239468877 0  2.061329064071208 -9.594513704581392 0  9.70125409247818 -2.845068856785025 0  0.4426683291048192 -8.626877084227939 0  5.494360406386644 -2.576397091462823 0  25.41287050443567 -8.871561211548746 0  1.848067258550277 -2.690438712618888 0  0.6947426587746293 -3.200047419634782 0  0.8559470450024591 -1.041846175806154 0  11.99536190134444 -9.269489338799374 0  1.985411551811168 -3.369807202100412 0  5.363326788088893 -6.803360085933877 0  8.707508223787755 -4.679400074450651 0  20.30467017427277 -3.483285099053989 0  4.299980653831074 -4.839905969590536 0  10.04073709909368 -7.242186501163444 0  0.5243000267014573 -6.561097006395627 0  0.0755976241436116 -1.907707004521003 0  0.03672789747871619 -9.439814035687242 0  1.41367441830487 -9.496310298989682 0  3.787287476884487 -8.225069751495873 0  0.3630848658499257 -3.566641078361324 0  12.23961697949163 -0.6159690215466087 0  14.25082132607616 -3.515330740456677 0  1.04852785110679 -2.095273698461859 0  8.127856111786389 -0.3713835955619356 0  2.438970441096142 -0.7193744347705007 0  3.282974001015642 -0.2808272870201138 0  0.6098139063275294 -2.05472702915632 0  1.418222686183663 -9.597637673531548 0  24.33837223146961 -1.721335123956626 0  4.205641986229216 -7.74358227973583 0  0.03525175298338823 -7.671293998239626 0  3.89616671730143 -9.132465532448325 0  1.521962799012119 -8.446275605976378 0  12.25910678843073 -1.972023472156796 0  2.211387839249262 -5.517796016107916 0  0.9127770853592914 -0.6894258310182968 0  1.742704787335125 -9.676999348289222 0  0.3071659012301406 -0.3870297386637604 0  3.153338132023112 -4.406023703584884 0  14.22840205303298 -1.932606119408825 0  1.646863840137701 -6.893054967141637 0  7.528725267434397 -4.395303865234746 0  0.0326990158899001 -5.903606730929014 0  0.9459477802688738 -1.572464941121795 0  6.529942044218274 -0.9392101943301174 0  6.165672271790246 -5.397822290279098 0  7.42018011460638 -9.275217447954592 0  0.7747438105679691 -5.033480172591791 0  8.797954900444536 -2.094550559003071 0  27.70943356558439 -8.317560226149638 0  1.117630931486278 -9.769645859949996 0  3.316276928051272 -5.27893083496789 0  0.6746337493305035 -1.472265135923695 0  1.066957447182212 -8.977012147000433 0  2.214218089453253 -5.145374435763972 0  2.954024220116285 -3.374786105455526 0  3.366577077288184 -9.815340815624111 0  0.06456249791066071 -3.365887952115925 0  0.8254254071428306 -1.918696758069653 0  8.152410591586227 -5.282950241361602 0  0.06714335521877501 -8.619737511950841 0  5.082217030383012 -1.69450379808723 0  1.265573306863702 -6.802113770097111 0  3.034353451953042 -6.38011129457033 0  2.731912152789619 -5.526263511625672 0  2.03840697164898 -2.815721407074701 0  14.7798640759408 -4.678977166472102 0  1.646229000313351 -4.52001636121371 0  0.8305890557506146 -5.2221150835733 0  0.5394777779655939 -2.627525138462921 0  2.825914205877364 -4.462162244819632 0  9.205464939464626 -2.244765611195717 0  1.295969080088049 -3.97309404722919 0  2.461177144670728 -2.764011534099468 0  8.464618394908737 -3.710839916894009 0  0.3976678428872908 -9.216524331005159 0  8.716556727276615 -0.5965022087021961 0  0.6687306581254973 -8.087543142176882 0  5.631967945661552 -8.94507252598615 0  17.98913551290678 -7.14559391967307 0  0.1875224077330504 -9.973378831584586 0  0.8509107254775579 -5.531708420851203 0  4.727845658798238 -0.8766423020976148 0  0.7213229262618448 -0.5951496409041042 0  5.039292995164388 -7.390230705276538 0  1.794678042681355 -8.178939237723498 0  0.1359578853147134 -9.858460304313397 0  1.108089992134754 -2.246585012291037 0  3.24049208278764 -8.770625316810282 0  14.33126286805956 -9.69920844753535 0  1.863328072788946 -7.550294973456259 0  4.451057577367902 -3.754373166675154 0  1.243077323382696 -5.088597926356525 0  2.121550847213413 -6.512447500238988 0  2.184850933368303 -0.1440476067135954 0  3.434624952338211 -9.906681277745037 0  2.898472528809741 -9.493285888485865 0  1.209571982039719 -7.121757738055699 0  0.1630030109551655 -0.0217923725764253 0  3.967076592878801 -4.059380187307053 0  0.03355283088135685 -5.362070957127592 0  0.07350893258351476 -4.615695192311061 0  0.451865499067452 -9.219532523969789 0  0.837848476278527 -1.250928953152999 0  0.4842996968102629 -0.5556611270069265 0  1.005506415836676 -9.439669671872474 0  0.5176768466020665 -4.917042799391628 0  0.7709184132516533 -1.49261229745432 0  24.25182338115705 -8.957190650464195 0  0.03608907699206831 -0.4800830688520987 0  0.8675755962450218 -4.650914267907616 0  0.4181198630579157 -0.2009674251846096 0  0.3646723133256682 -2.934553837917965 0  17.82428220716074 -8.276918746642201 0  1.026723198988305 -6.939884998449613 0  1.049360989700091 -7.039363071780426 0  0.2954541037647367 -7.051988171188842 0  7.831131488851199 -3.260657960390986 0  4.172380539498738 -1.371992025895787 0  0.1397509338858143 -1.62671590602386 0  1.170558889864164 -0.4226426675199937 0  1.319038629995706 -2.152393471105646 0  0.2995809860661591 -0.900942559982675 0  1.249926347755483 -5.795664670416507 0  0.1909691910716589 -0.3581155013035024 0  7.747372014959352 -4.376875097881348 0  0.06338348800765736 -6.899771415956776 0  3.060711406526428 -9.143232223627388 0  0.9899562727504829 -9.663526897567859 0  0.8302530628542257 -4.352822847000819 0  0.3759920524881295 -7.579037312995281 0  18.31454211563122 -8.819120542423681 0  5.804491308380841 -7.671416508005557 0  0.7566796139339047 -3.719490272164711 0  0.1223029748737723 -9.886857270499899 0  0.797308475017374 -4.718257097596164 0  2.015772256665768 -3.28833707892329 0  10.82863270253718 -4.545898159061497 0  2.626170908383086 -4.057160614362283 0  0.07485475394501151 -8.288765577021428 0  0.867529403120443 -2.267070301544748 0  0.07177138646094505 -1.569910871472977 0  0.9729359093861856 -6.629365314023028 0  9.087105947934909 -7.150788870428999 0  0.8715406962186698 -6.136554039483346 0  2.853146262330846 -7.935880178576712 0  1.712036810617176 -1.111333451097432 0  4.084250276627071 -3.462067173140059 0  1.745603148540175 -7.595610004282689 0  0.7709500030874921 -4.170494367402222 0  1.830759698402529 -9.933280224270911 0  0.7984105811050188 -8.801236692027071 0  2.970796588120026 -1.152473336569412 0  2.468988824533064 -6.323986358992599 0  7.109099708018223 -0.3460541838392199 0  2.781115235186011 -7.253845566883699 0  3.519498862055737 -6.058462813588205 0  2.831424478699928 -8.362921669815606 0  0.5979708181114347 -3.484684256757987 0  0.2411786925078498 -0.06915230660787941 0  2.243685366200934 -4.923192159383479 0  0.3545561452262085 -8.141213752098801 0  1.151006255208692 -0.6190532257325971 0  1.129211663927427 -8.295792554876734 0  0.4100017648512448 -8.509121801336816 0  0.4838331200435828 -8.52850944560916 0  0.3656011182822763 -1.811965499164006 0  0.671325146518825 -3.897477892518589 0  0.4797268182619501 -1.946012823198727 0  0.03437596384951291 -0.9052997026174499 0  0.8764448325110958 -6.444719982514089 0  0.07879679678959661 -6.334148628969588 0  0.03259070114717488 -5.861344537815126 0  3.590566975421989 -9.807467743270925 0  2.248677660885885 -9.244759074504465 0  1.194831641933412 -0.08800346582478014 0  5.532071779074693 -8.252846739445344 0  1.6750189776364 -5.030739948327668 0  0.0337931907156932 -5.023429759736356 0  7.544676925781981 -9.446029997180615 0  6.352111068449283 -6.146259162954161 0  0.7607608225902691 -1.540724857517342 0  15.31662918895059 -6.947699934043468 0  1.60519032250656 -4.851785685231912 0  2.087966526195103 -6.599633796232999 0  1.486824251285482 -6.238181117850496 0  0.965774271075194 -2.613504862439223 0  4.017378096039259 -3.940490759202735 0  0.744831184210863 -9.895209580451539 0  0.07195733447073493 -9.547683348369269 0  8.924184470013152 -6.320122432314351 0  0.03282666240917997 -7.456086810565163 0  2.712432385162506 -1.98110807436933 0  6.969113080018513 -5.262076869294694 0  0.1699567912860651 -3.438779184915579 0  10.46936187985986 -8.150706624567356 0  1.668633139515965 -0.4866152069361283 0  1.665155402768596 -5.620891044690904 0  0.7245542013203554 -1.454361158025678 0  28.33774311771096 -1.976694402505254 0  0.03365348554508074 -2.080384761705491 0  7.981276390283059 -0.7458827082222328 0  0.6431743471093689 -0.4398064121021958 0  2.019449332476976 -2.237768884457042 0  0.3344897030394129 -7.299983997792449 0  0.3420705494187715 -0.0580190242735954 0  3.519607058972191 -0.7022883715473505 0  0.7383605155038495 -3.771393229411032 0  5.762195878056147 -3.395958609509675 0  0.0753260168886225 -4.202785123490278 0  0.671537680264823 -2.287073078928952 0  16.34415862272203 -6.976019213525262 0  0.3566829263504765 -0.1740045203031926 0  6.567459577564446 -0.4616406647625864 0  1.649136092054595 -7.361444908037162 0  1.215226159622878 -7.619229656228427 0  1.102739982201168 -4.188438985686123 0  1.148572086052269 -2.494256139735703 0  0.5202828719331887 -2.397980862720751 0  3.666278866055336 -9.905290399373408 0  0.6816711684183439 -3.844199472228441 0  0.03217008063156968 -9.306804667822183 0  14.26749711252945 -8.859987712927389 0  4.590059415648934 -3.724424851113461 0  11.21225746148112 -6.300018097161499 0  2.732115576729232 -2.973531263824778 0  0.4996483558217122 -5.864753810180051 0  0.5495666660202492 -2.102505356226809 0  3.072681647721598 -7.472666510079817 0  0.7655473492022349 -4.421709361329337 0  1.555602823098363 -0.1102117308339423 0  1.869449909337551 -0.6696188729256498 0  3.865103463640361 -3.710955284051532 0  0.07276941637815071 -2.005922691825766 0  2.856475451110978 -2.01103939365639 0  0.6162741743827524 -9.762413904383624 0  8.111436293656872 -6.233276895684689 0  20.83709277641211 -3.430367341218179 0  0.5273209425605501 -1.926321380586096 0  27.77072702606779 -2.079266632583026 0  0.05916643655681497 -1.012733407714651 0  1.025237242631921 -2.869044738476276 0  1.811261958998214 -0.1105598437487307 0  4.59540275114642 -2.410170500742172 0  1.32235150056678 -5.081476359730953 0  0.4244242406276655 -9.400416216896069 0  11.35998721070615 -7.316986139129906 0  4.034376602529417 -3.582027561994248 0  5.911342801836664 -7.80099488667404 0  0.034885543181705 -9.264276091922881 0  0.9929125727716848 -0.2209448379520103 0  1.24138113708147 -1.825702127268943 0  0.5880715921206523 -9.12032365396723 0  1.440673263663582 -8.021826289723005 0  1.196951630795274 -3.627803326252049 0  2.607536156007679 -2.816396505511783 0  1.042015766903752 -7.206570870072822 0  0.4587324256381962 -6.322079527159297 0  0.02850336649506602 -1.240528599247851 0  2.035688509311282 -4.240440108890611 0  0.4767348904917093 -0.7197530206298675 0  1.089309864492083 -7.631243508481573 0  1.485192271188726 -2.601132676947347 0  29.31689129251919 -9.406973628317424 0  4.720645414475818 -9.051139800818286 0  3.766148963768572 -7.105780177872828 0  1.309394962101525 -9.901677681783031 0  0.06277552222043248 -5.5964121155096 0  0.5555907701569307 -6.160543674681891 0  3.826095461815083 -9.79978952364606 0  1.256124376881607 -6.333722209064153 0  4.848120002720279 -0.3651911505769538 0  0.5157482966332232 -5.813185152170984 0  5.631516840164561 -8.378260809568914 0  5.803809302042257 -3.969352914357116 0  0.3839565778069627 -9.840483147752195 0  3.290388276132198 -7.125573308784399 0  2.227540904532827 -6.657887430323381 0  0.2628529484727871 -3.055646356005218 0  0.08650444726001183 -0.3726588890667069 0  2.240321657357233 -1.855886400604879 0  15.14588022842937 -4.702910819477562 0  4.866079186315627 -0.8522233881455028 0  7.849719641782879 -9.247981500050118 0  7.33840647909809 -4.800234348934258 0  1.152548855852286 -7.625134448674046 0  8.955454543256318 -2.281131970406526 0  0.1998260682833024 -0.3017300525732738 0  2.00663778588928 -0.1272488516247119 0  7.250848518453626 -5.012414601554124 0  0.9300658645646607 -6.120438759886238 0  0.03318127368895318 -7.1692236927804 0  1.746593400630745 -6.961823060513443 0  1.032421707691167 -1.273062285588503 0  2.909203388766084 -0.8053627154092764 0  1.163499433586107 -7.730068800194576 0  0.07190757299247075 -8.110812332433635 0  2.048151648475276 -3.794524478956668 0  2.289169754680643 -4.992090554497875 0  0.32284645919718 -1.426539703373117 0  0.4028520734943069 -0.4558722997494407 0  29.65938339765303 -0.8638290691773172 0  29.30765667093672 -1.07142857142857 0  24.8150982553379 -8.917323061657159 0  12.81370451020872 -8.365280138189924 0  3.922019133804227 -3.055764048343546 0  0.03340486001506804 -6.2863051990474 0  3.901956375410617 -9.898914588563137 0  2.267820657498923 -2.885409852233421 0  0.4918470659466134 -6.368727003727168 0  5.720117288757084 -0.2824189545800344 0  0.6417354471854324 -8.006095611765961 0  5.975190596747273 -0.9969044646638583 0  4.065135132957996 -9.007796314661656 0  0.1425032604932319 -9.917204964175962 0  0.812258250757127 -9.272420516523528 0  2.311716731455203 -0.4401924429373008 0  18.78161449790189 -8.212609129649277 0  0.6407791556625071 -9.93447154987054 0  1.362418094571517 -2.201205343594793 0  1.808124490453322 -8.309563384442168 0  0.7075784875409479 -0.6448862260158466 0  1.759177570206962 -1.168607365992255 0  3.401590598573847 -2.121723751873715 0  3.783663124502757 -7.291486459244261 0  0.4223369137969968 -3.967428573924301 0  1.81365937271401 -2.412062077719161 0  3.181851281849561 -3.794795565887068 0  5.174706481163488 -1.807200971456804 0  2.927429678454565 -4.447918384855898 0  0.0309508177424096 -6.031514906614421 0  0.03277125769320577 -3.302421701847523 0  1.865930588393777 -2.045617699373197 0  5.808392264147985 -8.924214891752271 0  9.299891580489689 -2.024519993318643 0  1.105368936295907 -6.597614755526077 0  0.0281887003572443 -2.669222902608853 0  0.5710008308307941 -6.10688870681455 0  0.1597116905033644 -9.606456488147012 0  1.39371512524429 -9.85124590724565 0  3.872239172618221 -8.321617170530999 0  1.010875256636734 -2.651749931999408 0  1.279264248244679 -3.011721169757153 0  1.517498694423406 -9.141785906345552 0  8.946356935524914 -4.657506377702451 0  0.5685535155871548 -2.378056607960727 0  11.39374144021021 -0.4695566108744131 0  6.744631540688168 -6.128112802383646 0  29.70150791945036 -9.577149634077593 0  2.503456845524358 -3.759458868596262 0  5.670331638646484 -4.570205882848298 0  1.723730094233087 -9.896745501855083 0  23.9847342048558 -5.951761761107823 0  6.08471902113649 -7.780137936459973 0  1.163012763811965 -1.528779840922032 0  1.414588153893073 -1.403388282088885 0  4.443733595411295 -4.674330778472254 0  1.725281807772996 -7.350752157774104 0  1.203006035987812 -7.783709581691804 0  0.8615693992400857 -5.827955099453618 0  23.66321847622526 -9.007760094144205 0  1.536503515314557 -9.585806427087965 0  1.87260900769974 -6.206847958116956 0  0.9201402341914076 -2.24648899528267 0  0.4024041122138495 -8.133229852460104 0  0.9530798009216177 -4.519208405252591 0  0.5650109877571907 -1.180084509953894 0  0.681201951207381 -9.932549768769993 0  1.403961545959319 -4.624568693024903 0  2.843900888783828 -0.9988732672978653 0  1.636071399929667 -9.624594457097526 0  0.8280426752405781 -5.017174004085143 0  4.185639224980816 -7.518713257721116 0  8.70018485489954 -3.678743540020187 0  4.432686364690877 -4.106489392813281 0  2.97155024138641 -9.576791765252608 0  4.074262852339826 -9.790648025601717 0  0.365560278027484 -7.340154252716635 0  0.9705304913713917 -0.7461000512630251 0  0.8556380307347933 -8.857286127362507 0  1.680744994850206 -6.625668735571303 0  1.801888590535746 -3.063506019759444 0  26.6682227633438 -7.07639815181464 0  2.173276345629915 -3.094835925210152 0  3.356652890994258 -3.870425519796578 0  2.477283007943868 -7.72684663834493 0  0.4635721725558284 -8.580194805134369 0  1.150765808562879 -3.116179931390828 0  0.1557671387114272 -7.316777269498239 0  0.4500340403483332 -9.939947144469414 0  3.842838142776323 -7.205806572058929 0  1.533414217993949 -6.296690360754667 0  2.495665406602221 -4.16127897557504 0  0.474246372017479 -6.413051513853608 0  1.061183824523326 -9.436712980890352 0  1.792371180064849 -5.034869384633631 0  2.20911671811564 -8.736225814480743 0  0.07079479028971747 -8.494444741137332 0  0.07161270558100696 -7.222160956641325 0  0.602518197005292 -0.7048014727019511 0  2.137762856469617 -9.589490826672797 0  1.216499131671078 -3.56034283618838 0  0.8661079370040952 -1.955106420927668 0  2.158168513296179 -0.2195922770129304 0  29.34923308703891 -7.145957480636307 0  4.505503584037427 -0.4564169121868478 0  25.81898646491342 -1.881871876441532 0  0.8500230647159892 -4.705965288019945 0  0.0671887470836019 -4.45667796768671 0  6.727192623689133 -6.444246328368897 0  1.680777670945808 -4.095098852434003 0  0.2871963356407647 -0.1561286685724959 0  0.2888346318174992 -7.971599319430584 0  10.98843044759796 -4.773407813769747 0  4.154102820523473 -9.894005694178878 0  1.982448224149406 -2.748057825329868 0  1.398402170433123 -4.258019300936752 0  11.95134138957637 -3.435942860584791 0  3.120172366200384 -9.221709896507413 0  28.21600914172283 -3.126297806265821 0  0.03384537908381979 -4.311125982984898 0  6.544338263587283 -6.133579864528197 0  1.451420426210131 -9.850853919776759 0  0.1722802133757533 -4.905469760389082 0  13.16962621080438 -0.2771836941945933 0  18.2745706292967 -6.715654600680372 0  3.39305984029242 -8.665412195523185 0  5.522190134905234 -6.786241300557296 0  2.067546369587234 -0.2956250070147988 0  0.02762055308942735 -1.954230201127953 0  19.32143257269876 -8.766851288375344 0  9.872736917293118 -3.021672381551106 0  2.927430259881717 -8.357104767760184 0  0.7133702841081551 -2.320951027004682 0  14.62939363071898 -3.467074304195711 0  0.3429802752005351 -9.489620710738432 0  1.044302710716293 -9.6600279526055 0  0.7026257196270276 -9.897631160243236 0  8.067217352819188 -9.232515687134462 0  2.353084978658035 -0.7282796768077837 0  9.663304965553605 -6.162321427950169 0  2.667958765330331 -2.893040163774428 0  1.817696495622057 -7.474379409701791 0  0.07054069017420694 -0.53914519636447 0  5.79852866036153 -8.362466216415777 0  1.554963345865183 -2.591380054153214 0  2.708232824786066 -6.829964029573561 0  0.4040759684361177 -9.872538065456801 0  5.842588023339065 -3.240861889826837 0  0.4744968087094268 -0.35419856659313 0  1.617155593335848 -6.446897318805717 0  24.87936011891207 -6.33100022265191 0  0.9488196946237473 -6.22170301338079 0  0.1071163060521698 -0.1708361796092053 0  2.954904716869024 -7.926948818563849 0  1.110077873939973 -1.365861175033307 0  3.472682596477426 -2.20995080893266 0  0.03416340557203057 -5.738006387202706 0  21.4006482134215 -3.387435342423741 0  0.07767428337310989 -3.005351591426093 0  2.82965972114259 -2.112980856119405 0  2.902249750125176 -1.073430641936533 0  1.334655842477716 -6.798304234845921 0  3.590876186017503 -4.646217043961895 0  3.937200932593917 -3.816790201564512 0  0.06765981319932735 -7.983193277310901 0  1.692013314139171 -5.949277310456003 0  1.831190113585135 -7.273442171040674 0  18.15600467915822 -0.835616356701995 0  24.65228817177454 -6.85059896782437 0  7.994002562332903 -2.969541891679885 0  0.06534037728664899 -6.218978763902604 0  1.718651952743606 -5.683023770560379 0  0.7215085280252254 -7.984838848708727 0  4.339673654693478 -9.77478829702177 0  4.968677723950037 -0.9485142419985788 0  0.2996267473882099 -3.080550779508805 0  1.046700092762476 -6.252889277440926 0  23.3440181764712 -9.525450832830725 0  21.61325145055675 -8.570450020495329 0  0.07467101912531504 -1.284539394656036 0  1.199438662198526 -0.7736759736935763 0  1.036972534677691 -6.615969170587898 0  0.1464839824611239 -8.607613603868634 0  0.03028531314092575 -5.482235360700769 0  2.215572755337567 -8.442930871597351 0  2.467972151850045 -4.842934409133749 0  1.890528914227954 -7.965927525638964 0  2.480806164149406 -6.485609439029087 0  2.661941012346414 -3.965428204902165 0  1.238283324529455 -8.966814647545824 0  0.7248644832160949 -8.634201199079587 0  0.2141360915030344 -4.695292218067244 0  0.8012650323564099 -4.26436939489269 0  0.06338291787829675 -0.209065700053527 0  0.5379366573083058 -5.00267686964195 0  24.41567511852569 -7.385926071239484 0  0.5013669248146826 -2.166728187464611 0  8.2027111343446 -9.418179359711402 0  3.078899914094297 -1.13443860101699 0  1.304691880137479 -1.810910564488718 0  12.97313365531908 -1.823226882323737 0  16.27089425802716 -0.7048427257707726 0  20.45877161587568 -8.610622011966548 0  0.03252051872829753 -0.9469598890474789 0  1.809538065113955 -1.227782390936103 0  1.544299866270549 -2.220495214730671 0  1.188590002546185 -0.6660353977081277 0  1.011070242972213 -2.930843174878645 0  0.8643227565158735 -8.103685691336796 0  4.516132429888149 -4.21171887314341 0  14.35232456662725 -0.3094464058943922 0  2.885044170854394 -7.238670660102913 0  0.06820283892549739 -3.828739066921035 0  0.2314258025555986 -7.348182199774606 0  4.262582793020128 -2.02572450813588 0  2.153222035521322 -7.070166904945685 0  0.7845340948672916 -0.6691422105490723 0  29.73086555211435 -7.673681946089449 0  2.270040012043552 -0.7375856623459214 0  0.6310887451685829 -3.274303344620649 0  0.6131464027382592 -1.158223351809461 0  12.60448144102257 -1.910915458690519 0  3.628864058515276 -0.3970175944637457 0  1.597372656270196 -8.442973448413362 0  0.766190556417774 -9.852908058665479 0  1.293776742818451 -0.120310713514284 0  0.3941659484562638 -7.529788906027711 0  2.842392548358189 -3.931441361572613 0  19.77266068510441 -8.133152104169103 0  1.241707496132673 -7.554346778212103 0  28.59244960926176 -1.552313985729426 0  3.637017911292968 -6.049147979983598 0  0.8663535760431262 -9.329181331020923 0  0.3590131732048842 -8.813688166002263 0  29.40666327854068 -5.695482714177388 0  2.818286006222939 -2.956622685440118 0  20.78099371955822 -8.148772355720702 0  5.113228299762586 -0.9157543466960085 0  15.68318488120959 -5.07504462528987 0  1.801270250830125 -7.34096296327988 0  3.694986007292428 -0.4837944646827506 0  2.892739460389944 -2.185377838206986 0  10.66790436698069 -8.371733450862102 0  0.6103866929795103 -2.408787962971764 0  0.1162540388699576 -8.099790174824438 0  3.178820041695719 -7.458104319440298 0  9.344437846370889 -3.78506982950414 0  2.286836848306207 -6.73173458989211 0  0.02870032007692558 -2.373250786055753 0  0.6094103088571412 -0.0642681063728352 0  0.6581153638098041 -9.758441934617261 0  0.9756767340817483 -2.225591167671277 0  4.036597873164439 -7.880986658934435 0  1.093914731604837 -9.822243962886276 0  5.168103734026936 -7.194412390162046 0  1.800459133895966 -6.860952272152893 0  6.267300470361214 -3.751266346775216 0  2.617062777473864 -3.762608066341974 0  0.02925750586657649 -8.803825979406938 0  0.160111831057387 -0.2556229360426405 0  0.1736133996503355 -1.608890031522211 0  1.365855788528552 -1.79761534649453 0  1.401649168975332 -1.505018381881145 0  1.248683946598112 -0.824903599612794 0  26.43826904221657 -7.614463604190062 0  1.716727966829515 -5.223726387695743 0  10.93427561896804 -1.124454726254018 0  1.988335337636347 -2.093826775211463 0  0.83160249210502 -1.756422442535961 0  0.5709808280544451 -1.959492054907993 0  0.09908195832953126 -4.685154870606286 0  5.23206052342517 -4.227099550077462 0  2.132483090573228 -7.147750363293763 0  0.1031518584763127 -2.691201140367713 0  2.540378575107942 -6.564973343968092 0  0.9547817541139487 -5.351337924509062 0  0.3864282909902528 -9.485418463693655 0  0.3697549050130498 -1.679811881776497 0  5.58598404521058 -6.647130707066399 0  0.9960263695786011 -9.915699046297917 0  10.75155222260587 -0.4718865207007124 0  1.829698143104752 -9.159804576086906 0  3.562854515610157 -2.463668274716794 0  2.100344039681062 -3.863363154382464 0  14.60975030976022 -1.882217261494973 0  2.876955680556247 -0.904595178458429 0  6.342981071801836 -5.374087539698679 0  2.395590913459049 -7.280116537414642 0  24.7461324479367 -7.870182414786187 0  3.092145560758674 -6.468168164741201 0  24.50843113407529 -8.411071140610169 0  3.038951244730006 -4.432936208549168 0  8.935838879317313 -3.640576993363093 0  1.030271799227682 -6.313432777618846 0  2.119950643898562 -2.803463556109338 0  6.152667769546662 -7.630336618077949 0  24.93199526344226 -1.003437855479899 0  0.3641375343271047 -9.809778850998804 0  2.906820165640568 -4.015741286977438 0  3.656910014935232 -0.5875893523699425 0  3.082964066303171 -9.461174731661835 0  5.901044451494636 -8.776267093452653 0  4.132533364106235 -3.344694857902514 0  1.938792886752196 -9.132105439169198 0  0.8872359798767828 -1.591030598932436 0  22.4787673940954 -9.032075984845616 0  1.427763638458551 -2.186008069944442 0  0.582379178496776 -3.001461652926524 0  15.74079256263446 -7.463158291735912 0  2.217004168385442 -9.583656283006579 0  3.72636593980609 -2.197267034639183 0  22.49058915755394 -0.9565511585806519 0  0.2148507174510357 -7.413282706098903 0  7.140522566693464 -0.8755187754648359 0  0.03339671744288353 -4.060035905517327 0  5.669827176410612 -2.373029997659667 0  25.61211188898929 -2.425160946139389 0  4.148834084750607 -9.1075729245395 0  4.173333635015233 -5.215941517781278 0  1.602232667352787 -2.646102767516431 0  1.069350503494245 -6.360907491190209 0  0.9184669713885967 -5.814759448099672 0  0.393166266950395 -8.048824172629971 0  0.8635620304782492 -5.629719599688239 0  7.59055542113355 -7.213861908612315 0  2.703693062418155 -5.163882284078821 0  0.06686391211885834 -4.241853473833465 0  1.206734863994631 -7.891885536340783 0  1.275326565985498 -6.447616608145469 0  1.891958301352359 -8.31164811988455 0  9.494789016164408 -7.985330408640237 0  3.407135021700293 -9.131746940458218 0  0.241640937101236 -8.797454862050376 0  2.262769607197438 -2.000262138791228 0  4.04112907005759 -8.192652026301914 0  0.4814863197907222 -5.418031789638184 0  0.06768591395408308 -7.39552101403853 0  0.7047393569714266 -2.379175087536725 0  5.875013126605213 -8.22443054673453 0  6.052055959471978 -0.8400185952430901 0  0.1717422585307489 -8.643728482278995 0  9.424963138530698 -6.873083447897272 0  9.561872920268996 -6.424963755065905 0  27.56789114180579 -3.554345039381162 0  0.5860316258961831 -2.606336793319682 0  2.011601383090087 -4.316585553748062 0  2.246460472975338 -5.437658257242105 0  0.6111501895289706 -9.466577576497395 0  6.104505618508984 -3.360492033090098 0  3.426807623895268 -3.961593372151479 0  0.06851247348337708 -0.5771961916363093 0  2.009095041094664 -7.178859141889383 0  1.858555406224585 -1.283522008712839 0  1.540097268044228 -2.04043946406657 0  0.6036754730993152 -9.620125492438218 0  2.987902568596601 -0.1539076514929949 0  4.555037662139094 -3.488184345166584 0  6.754657701149791 -2.464986824299819 0  0.229281322606953 -1.571557596129334 0  0.2878164637216827 -7.427139116815678 0  8.336799739998181 -6.210862656970621 0  2.767735094574412 -2.647684918612894 0  2.311780075279096 -8.817611898447495 0  5.442086743301052 -1.877757077021972 0  0.8204702541267181 -0.712955521238742 0  0.9561041918271389 -5.620700761495963 0  0.9107007003559424 -9.319051556213008 0  4.11357543745876 -7.980348773167983 0  4.343740046897612 -2.124222824465553 0  1.598437318879052 -5.302488452849952 0  3.466914165071753 -8.751546546660059 0  22.0091903715967 -3.359803001004031 0  0.6847366304772038 -7.909662576596736 0  5.84821581305143 -4.556452465744953 0  0.426194935275479 -0.266816645497328 0  2.33352953072724 -5.063886342141578 0  0.0694154516133878 -5.247448191819057 0  9.084187201757381 -3.822485112716902 0  0.2312036626862088 -0.09716305897925359 0  1.402249802901908 -0.1042423868890836 0  1.089840370209398 -2.513213577431002 0  2.645978970975811 -6.572291062535687 0  12.78332452685366 -1.313575786601128 0  0.4902881058208397 -5.016735402873124 0  1.446570354479402 -9.545068584417482 0  0.4360629082719054 -5.923969047258046 0  23.39160613193289 -3.671201160320943 0  2.80956126003267 -6.818292056350382 0  5.276956296188239 -1.914744227690932 0  1.497749142978877 -9.545111715129647 0  3.660407245744203 -0.2968759826838605 0  7.326767268069006 -7.432449708563709 0  1.714188265425532 -0.5356992973593142 0  0.1650787672341991 -3.486451851232378 0  1.467258564048102 -0.9250164752177437 0  6.462356023737685 -7.273731792421913 0  4.375644039426662 -6.015758590017326 0  1.033163008222498 -2.154596182832771 0  1.993341471968677 -7.888749799692697 0  0.1399754999545912 -9.95202614179737 0  3.291046327991108 -7.446675705214865 0  0.02801375881673351 -4.812532910004807 0  0.886330589750365 -1.231042336885781 0  5.487795949539336 -0.389284371453396 0  0.05991177437473993 -9.981445131466678 0  7.011691617661223 -1.783613369307244 0  1.0487890555527 -6.420834872653693 0  0.03116466714125288 -3.38440592452518 0  3.227731346144168 -9.210623665194806 0  0.833987101930088 -4.299639567635146 0  2.433136470523413 -1.011684601958686 0  3.06115035711923 -7.914969362114089 0  7.009850664547564 -2.609034338001858 0  0.7415123699974586 -0.02760699281205969 0  1.080451519497029 -6.930690717415938 0  1.316012699871321 -5.783675348871187 0  4.316267646261412 -7.495718446948873 0  8.300001095812537 -3.164382568550851 0  0.5523829507895304 -4.951089361270578 0  7.279678490714026 -7.029937764118581 0  1.493203045685874 -9.034339336537226 0  13.27929388958127 -1.160689583976079 0  1.039278545187004 -3.624830566018453 0  1.888799054168054 -6.342219918163018 0  4.179766163635588 -3.214958872451247 0  0.4590030082113685 -6.857852034439492 0  9.660424603812961 -8.215856416881284 0  6.525695518582836 -7.561358576934253 0  4.006042322543744 -4.989917301096219 0  0.06572253513481918 -8.739495798319503 0  10.16937598626997 -9.353828472395488 0  3.152610464236012 -6.560067857355424 0  2.99812339021612 -3.451328451436823 0  8.439977040805136 -9.405705438207837 0  1.505387583655526 -1.522932044733512 0  3.592973487559945 -2.19979081838403 0  1.031652668616609 -9.190277401592654 0  0.06620114884191253 -7.018581429343106 0  0.9757538658443998 -5.807899074856936 0  12.93097446026225 -4.845090512778271 0  4.609022020738845 -9.521535156948641 0  1.71982813843981 -8.500377450144349 0  0.1364801092205603 -4.875230507769565 0  4.114955548403065 -0.198308530712537 0  0.09740289851674788 -9.647920345240351 0  1.908524484764705 -7.263904552233419 0  4.595006128718193 -4.816430737192841 0  0.03226632680242858 -5.780239801340962 0  3.993135925963443 -2.935682184096887 0  0.06970720190886581 -8.998719365238747 0  2.11227083565017 -4.483657654862197 0  4.32064794868116 -8.97840782470619 0  8.125274209023324 -8.699299071538947 0  6.04603769149827 -8.209543509030375 0  0.1440912920501773 -2.673870619850836 0  1.922929646012161 -7.892437959993464 0  4.653069373803666 -4.194627361020473 0  3.05085260084288 -2.251373443122469 0  0.8217980791503248 -4.401206896373989 0  0.5869410922491749 -9.58456146670478 0  0.4048293747932874 -8.006621391745799 0  1.852159792214342 -3.125097026932232 0  0.9392105337928456 -3.513801503595136 0  9.68536856801715 -0.4350957546518694 0  0.4675770769279364 -5.469556808503153 0  2.970432941520606 -4.098580033436789 0  0.06030682477934235 -0.6381066599265734 0  1.964203925507515 -2.170484083124573 0  0.06353426697593179 -0.9713014772136042 0  15.01597371089738 -3.420600614453917 0  4.697772790348335 -2.889131082223019 0  6.327009106969873 -0.9537587762638706 0  0.6805065024224284 -9.720584831956613 0  22.30191446051318 -3.793951488282078 0  0.7630538430714555 -7.875418038998802 0  6.288632609802505 -3.333565741025798 0  5.504141706901718 -1.726537370697188 0  0.06935332214045431 -7.794840692904295 0  0.8530662393609525 -8.007107586990154 0  0.05894479659504626 -4.50119142327441 0  11.06799903180657 -0.4684089375279257 0  4.58573352185239 -3.370642978018775 0  25.72558676002907 -3.349740138649028 0  3.705055647175952 -4.63630616284574 0  8.818362131953386 -0.3974807472344857 0  6.336752663206621 -7.602294039786495 0  0.02858609670233392 -7.584529975460505 0  0.9015384241201403 -0.07364028709465131 0  3.80745990954621 -4.948707182129689 0  1.973648773990952 -6.91019592468539 0  3.11753941102794 -2.334971461415007 0  1.812442713732773 -5.686469658618623 0  0.6133763130330223 -3.317464237032473 0  16.0016584905271 -4.546784362239308 0  0.6818707024882436 -9.423863159212203 0  2.189972528658066 -2.785786618698796 0  1.891210249949648 -9.02457595907244 0  2.443161444382984 -5.396790466128309 0  7.786018466222603 -8.057725451758248 0  7.559140243163066 -8.323913575825198 0  4.807025140406074 -9.384392330556377 0  5.914487567669125 -0.4584021969493524 0  7.05475108455962 -7.478451487578527 0  2.214532472260007 -0.8944675236538409 0  3.027440661557193 -8.349148705606179 0  3.624109896849296 -0.6897293844385706 0  1.103949347986266 -4.401324306660995 0  1.068624074563939 -3.735143460512892 0  15.05363495484438 -7.165506307922456 0  10.50030308955071 -2.244950385914416 0  6.323558272322352 -8.308658766818876 0  0.03250822051614222 -2.031095805564159 0  2.927291450088592 -7.148869982208129 0  0.8118456529741724 -8.678866821976513 0  1.989599914127435 -7.247784706663057 0  0.9349600215859493 -6.435617459947936 0  0.988933905978298 -5.678775657559826 0  1.57225633341389 -6.348897591211488 0  0.02910863863424318 -0.7019886797666723 0  0.4658365755559046 -7.207561304574652 0  0.1547734035140316 -8.68394749777103 0  1.689176420746378 -4.575617725489635 0  3.966503470799651 -5.135426094484915 0  2.964767666529706 -6.733190400261325 0  0.9796043202388205 -3.881927751569455 0  2.66711524172892 -3.85952318870885 0  28.84930145868977 -1.17544935333015 0  29.30900469802764 -0.6234339844980159 0  1.513176825278192 -2.109808792600901 0  0.9691147881311277 -9.316450148196234 0  11.48166011438841 -0.2222511285918962 0  0.4012055463606412 -4.595087348185337 0  1.791988934757448 -2.485746037278406 0  0.4214233992824585 -5.969680871202231 0  0.03300828054228688 -6.741351439277384 0  0.03178094107171603 -4.683392184341066 0  0.07639677214327101 -2.337230475207236 0  0.1918676868261713 -0.04382107284004189 0  20.34057368461112 -1.318725274907297 0  9.72897558612117 -3.48964095434155 0  0.07171239832174869 -6.184533204392143 0  1.085868763071097 -9.741218727012456 0  1.779626839893941 -0.5267787974587987 0  3.182394337850194 -9.571759907820736 0  1.880432830660842 -8.435797214507298 0  0.3593317984445008 -1.718080195563603 0  0.02655763174974091 -2.752925564854142 0  0.4930718410109449 -5.571276545279877 0  9.183145142511135 -4.640897115493168 0  4.35129707853784 -5.433713683987572 0  11.09961608268805 -1.33666775170625 0  3.623973190846957 -8.639290656628074 0  0.07477878719567599 -2.711906566280498 0  6.155937987902201 -8.905160308849835 0  27.08743974100155 -8.962456443565141 0  2.032881127908379 -6.974699471233225 0  4.511803768878821 -5.974744292938677 0  11.04967682915604 -8.079188882823797 0  2.427731121171885 -0.1314059579381075 0  4.259067754665443 -5.3249470258959 0  0.06891345590910092 -4.659318070902094 0  1.637782253016145 -8.497339977128862 0  1.51815305702041 -9.850743623218889 0  0.09103932073997889 -5.949933992207716 0  0.4060617803003979 -9.443908842461102 0  3.412301182485287 -5.271763976269442 0  0.1583084968502035 -8.092852725664045 0  1.33231245944139 -3.078521291226738 0  1.217011035190648 -0.1303440768830049 0  9.550641809818424 -2.008002006844782 0  0.4752222328093865 -7.989938161337879 0  6.7611072931773 -0.4315758430819718 0  5.026496181924138 -3.395630332486495 0  0.06998781386597663 -8.217289560453388 0  3.192070367928061 -3.303311075894635 0  2.349393059722466 -2.000334515330827 0  25.56328473635284 -0.9952024598674001 0  7.819530623635024 -7.191323094362939 0  8.057786378012903 -7.180154579831057 0  1.588940132309423 -9.009442601167329 0  0.6359225126630328 -2.584557396902097 0  0.09140609974821778 -0.143808332388879 0  0.2730022309388698 -1.498027518617903 0  2.139215010899761 -2.301575166072769 0  0.6616659246431809 -0.5210067622116021 0  15.00417863245215 -1.834671290625872 0  0.4309780934005047 -6.815399231976822 0  29.38140444107749 -1.4417630725259 0  1.647865419664274 -2.698074124293483 0  7.215815549042455 -1.757180915439742 0  2.183481738349444 -6.009589996210201 0  1.349212019870837 -6.438756511819765 0  8.766475864189434 -9.180160332820883 0  0.02894307881317637 -5.603365508221197 0  0.8777452960457239 -7.955461882630755 0  5.348358540231313 -7.349475926347888 0  2.342789578995575 -5.420899581610596 0  0.2868758656061452 -8.744473038330622 0  0.06686528310299877 -9.658942953878125 0  0.3452980597661348 -9.778553987696249 0  8.580884591008747 -6.184674780473266 0  6.529980429346793 -5.349757708759658 0  11.00062335035691 -1.628466764637443 0  1.837232713593854 -2.544905771953448 0  0.1615249051495713 -6.014678996543349 0  0.0711283271721328 -2.419362747350036 0  2.326889347871926 -8.534123168426179 0  12.52980139531783 -0.2231025865135461 0  1.020221151043405 -8.615881772577538 0  0.9744469483268183 -6.477396141117667 0  3.498826380333359 -4.04939216585309 0  3.390520339207937 -0.1627562971336012 0  7.36567548683913 -0.1526155479330331 0  0.5646741132969471 -3.388511196448443 0  0.8356599722405491 -4.758144474950221 0  1.634158431897106 -4.194113175678737 0  2.091563109543468 -2.23154824307175 0  10.89326652055141 -1.924601788732677 0  1.040924968648063 -5.716975768162609 0  1.051362470825428 -3.80084917835039 0  1.928639335128386 -8.970727710706395 0  0.1157757496828946 -4.188725531617493 0  1.903265621006312 -3.183157988973988 0  1.758465801259682 -6.621221017114367 0  4.453276194085062 -5.540416989270301 0  1.566927112952747 -4.528211712464399 0  0.0300929967179755 -3.425273597764356 0  0.3786398354126881 -0.05518212161225211 0  2.242850118422266 -0.8135842991130344 0  2.056531582975882 -4.375150820785158 0  0.1801092365809289 -8.720332768699038 0  4.785313736908634 -3.345900440737511 0  3.585332853998771 -5.26996161228939 0  0.1245025009436098 -5.983127545649602 0  1.375802812109399 -3.963692558349711 0  5.961170658115652 -4.681414135601582 0  18.39669509295253 -1.192117336768887 0  0.06536698500178417 -9.476344449933762 0  0.06209465244582546 -0.2520297879015079 0  0.1865473664910056 -2.656601603851478 0  2.370381555235578 -9.311639880168517 0  2.159368133012251 -8.816946449128638 0  0.5057563225547437 -7.325405583646759 0  1.116649203152905 -2.34451998691083 0  0.4591633882234518 -6.009859820659875 0  0.07199632482064366 -5.063100749068844 0  0.5068211431145606 -5.515284163562437 0  16.36975904935881 -4.568021221356135 0  8.510524437283671 -3.168705917122646 0  0.4492736728746571 -0.296760681213831 0  0.4387213107062049 -6.89212462723707 0  3.087176510752542 -2.978869347347845 0  0.07170523929998396 -6.075254511935949 0  1.928521526677951 -1.275460464453093 0  0.5102612428718203 -0.02241957008444384 0  5.838449281523177 -2.545617308940383 0  2.393073270110298 -7.4302690944288 0  22.59841881594613 -4.1948930635291 0  8.460359407488586 -8.038524491757606 0  8.425866254936217 -7.276467094952249 0  1.286920843008357 -3.3722283633685 0  6.147817674058722 -8.331948840800658 0  2.150272742262279 -3.932666127533614 0  2.041009640798162 -8.899247775639532 0  0.1087302935239229 -2.31940639374631 0  0.9683793756524732 -6.160824228884564 0  27.54832063993958 -4.394420046215563 0  3.462111537460505 -2.734810915938592 0  3.142496542231402 -3.393597677943514 0  2.386110074956141 -8.711197317117598 0  0.4123604850453599 -4.546257217233172 0  0.06554893927162198 -2.099360422195714 0  1.418821242554571 -6.430381510642068 0  0.725108640165363 -2.58930310836998 0  8.952720859540072 -9.403825740383706 0  0.4664642545904485 -5.122935849578061 0  5.758777040807376 -6.623967446092252 0  2.296033017134828 -9.579424874098461 0  2.351430893465327 -6.808356173677416 0  0.4926657038117082 -7.142535927561958 0  2.857254238395104 -6.73589133337023 0  4.808260635550393 -4.180973674955556 0  1.062665357630582 -2.63056092893931 0  0.4609057503329872 -5.680977895465515 0  0.4719280922041431 -0.5913146834828664 0  0.5946131271087154 -7.507164011130436 0  1.051244231794406 -2.971317946846981 0  11.93145203159527 -0.2472382836282536 0  4.493905677659328 -2.116453139753522 0  1.068891491001963 -9.867904413221893 0  3.404540000335064 -7.433866550041335 0  2.156111157989614 -6.258451427879052 0  4.369622846087232 -7.380643396354775 0  1.235890905482419 -3.679811682330602 0  0.06377488010558174 -5.927646508725871 0  3.914498484272062 -5.96596097775482 0  0.9074510997037564 -1.991261039658841 0  6.017505081185679 -4.123390782090622 0  0.4783481554301936 -5.068294795987268 0  0.02936714198705204 -3.050505956344807 0  0.8426395228745491 -1.089640831991257 0  0.5003956372688343 -8.997495385695929 0  2.713950032500099 -0.2273094910608533 0  0.02639191881050884 -1.32334113571211 0  15.41456053349869 -3.369518079547703 0  0.06895327125685924 -2.467962963040092 0  7.122495163061248 -2.421143086336294 0  1.993035996435927 -8.437921935762631 0  0.6378685160505242 -3.506077842255567 0  23.15812839982239 -4.122088212765931 0  24.55201923285446 -3.51409678610998 0  0.3598610305438683 -9.751464271081986 0  6.476763170590107 -3.307492314967406 0  18.99298924098287 -7.078639131569415 0  1.174473444704814 -3.055813971532615 0  1.410985281233899 -1.84794730848714 0  3.184055678312367 -2.418854945013477 0  0.8566554500390851 -8.611802536272704 0  4.651385163774631 -2.11207543928763 0  16.75323548319247 -1.467491547599085 0  25.12884949824888 -3.459095011760657 0  1.928630122949533 -4.535753444823087 0  2.531572031146929 -7.436263331317614 0  0.4956331632626441 -7.236880801390507 0  3.782158536861228 -5.37317560664984 0  0.1503930238777738 -2.298655588935458 0  0.02693789916835598 -5.399779849858543 0  1.270263933510495 -8.906527166027535 0  0.2516408264461241 -0.1219363132083684 0  2.126714639175193 -0.2774085801676147 0  0.3908469620791148 -4.646178106698528 0  0.4546822866985192 -7.913593115835407 0  1.034359093392167 -3.863019168926934 0  3.292759995649314 -9.451401358817362 0  0.2818233327863577 -9.947135243532955 0  3.034942482274403 -4.183191862886179 0  0.2040547395921308 -6.001900517604737 0  11.30884207019706 -8.019470985057984 0  4.460403823504066 -8.975663124100727 0  3.168736771084738 -7.903898820529642 0  0.1082007236968163 -6.896570354108684 0  0.06462768016135456 -7.899922437117578 0  1.352824746248015 -6.916719730235952 0  29.42231965331893 -8.560718810856486 0  0.4200566319072614 -4.49861017089644 0  11.32416566562954 -4.74708642527002 0  1.432132984113679 -4.763164409552532 0  1.076182419901299 -2.570948203713152 0  3.858459729793642 -5.47356566468911 0  1.471066494594062 -4.246459665410583 0  2.915534595785175 -2.928146279438638 0  2.572648596807912 -7.512293925461435 0  2.118278019504784 -6.345177339702403 0  0.6216216280874445 -3.617524720952563 0  9.454439770689278 -3.561059016081109 0  0.07079747705930117 -4.862030605108282 0  16.91023741842124 -1.037490671652157 0  0.08136534574427934 -5.510304364341114 0  2.185209906783296 -2.449609362514874 0  6.312514797546422 -8.911629700300947 0  1.120348602683185 -4.287108499251421 0  1.434246414635956 -3.945572694470431 0  0.4448414160973755 -4.857646189153644 0  0.0626593617558342 -3.450923409661616 0  1.74824930990362 -4.096591599249321 0  11.49907220530089 -6.296144012488062 0  0.4983664929550464 -6.045966529771444 0  3.731160923588284 -0.1932657417829544 0  0.6984938315096407 -7.766269293127314 0  1.021840086865286 -1.616008667444339 0  1.820554692709784 -0.5756160999759263 0  0.4247659445837559 -5.609129221781752 0  1.60219256891088 -9.90801584527502 0  3.149627890125485 -3.074424536750838 0  4.95041177034339 -9.36924305264538 0  0.9982158370921859 -5.399948659213099 0  29.76392733094366 -3.035714285714286 0  0.06041444333928325 -0.06457200994297985 0  8.353923990384082 -8.22948154636283 0  3.608554416049699 -4.034202489291964 0  23.96715962880564 -3.58966347215739 0  0.3306603957237204 -0.4145204023983151 0  2.017294942431567 -4.514273604028124 0  1.648145385003776 -8.872539948124032 0  1.608167306076949 -7.609945527987797 0  1.414995766143306 -0.871835081471648 0  0.06470877121756047 -9.204002201279657 0  0.7314161367427019 -7.820218557196419 0  3.133527009906027 -8.339319333036872 0  0.7003205980259466 -0.3869117026714157 0  4.670375481283202 -6.115388878311189 0  1.018551350731721 -1.318761752788228 0  3.034880898669332 -7.135582338436524 0  2.070141715648642 -0.1233095695428812 0  1.606381818290645 -6.979923087694974 0  0.5114825012814084 -8.957006294184676 0  16.6816548990824 -0.7072519653658844 0  1.981535487658704 -3.172210845952883 0  9.805324431898587 -3.263664635501672 0  29.39106014310943 -6.488926084821983 0  1.876019329613792 -0.1035868749835309 0  0.4779076725058733 -7.284873025417461 0  1.793514109174634 -6.67783735733695 0  1.982340485930813 -7.741369007278856 0  12.6062747152413 -4.860637083820022 0  0.7534579188720656 -1.58957289968077 0  1.812714610355073 -2.617059759575984 0  1.070854701291918 -8.499400542303139 0  2.409112245132039 -7.655560548874334 0  0.06559622161199918 -7.51333984168253 0  1.58304678658863 -0.9725831634805591 0  0.6427056084437535 -2.436184398133221 0  0.02616083056535778 -8.424369747899165 0  0.06978848185699071 -6.86127330626055 0  23.09518400881011 -0.9710863659598488 0  0.6268410722155782 -3.563060327528964 0  3.892295656514069 -5.719027524684247 0  4.961839673189749 -4.170206019654327 0  1.654642376279813 -7.666661200221609 0  1.972844900986697 -6.343375463357694 0  6.622384169685333 -8.164634445418887 0  0.4473856833205865 -8.505843667002486 0  10.13920338489881 -9.566206924924504 0  3.261718514186391 -9.129377847530581 0  3.96623809813066 -5.838517478864657 0  2.890210830125447 -5.827907948803437 0  0.1469872632996143 -6.887429796496657 0  17.01283925503247 -4.860676481476265 0  0.1476001315369366 -4.21335353638413 0  3.150781578271477 -6.765188339246681 0  3.209252590199432 -6.662518725039661 0  0.4670579376671071 -7.86986293564452 0  2.397669123723253 -8.51393438152007 0  9.188135230057332 -9.380753604896611 0  0.4896264953636393 -7.373464098652459 0  0.8393776949513008 -1.598693393437576 0  0.02883219545616633 -6.905855804250469 0  3.52040862722848 -7.420244502910382 0  0.5401887874991811 -7.138882231530153 0  2.364798578074279 -2.143417868611707 0  1.5492744848274 -8.913452386519497 0  1.329792420153563 -8.900880339547802 0  0.4004457000216739 -9.366924554940439 0  0.06083545514376176 -7.69748818570211 0  0.4613669364737198 -6.457940521641268 0  0.3630801629317197 -7.469135716042282 0  0.1884410791352771 -2.239299708382843 0  3.111961061333494 -3.161520315554093 0  0.06289639345791542 -2.143782331005985 0  1.045634662453576 -8.556628488704391 0  0.03056872486614459 -0.6443175142448423 0  8.769788659783369 -8.202106792206722 0  28.02477826250102 -2.763199591152441 0  1.493038976023106 -4.54018283260955 0  3.725934687729598 -8.617407386637931 0  0.7517845555014446 -9.378191669161748 0  11.49858380056647 -4.992294986475103 0  11.85005897948307 -4.939666215102411 0  6.667880866159562 -3.281923393655134 0  0.06391586342618893 -8.322639767088337 0  0.2077963842746957 -8.758667772589813 0  1.102812754399599 -0.8193107431715614 0  1.699856973851434 -8.603249972416265 0  1.464035981286775 -6.479033124627152 0  9.453178315309493 -5.053067876560567 0  3.733846304524338 -6.033554632555902 0  9.320091377044026 -4.842153762751374 0  1.014364850200835 -9.260357757752418 0  3.103395564674825 -0.2955661302565709 0  0.08541495330176296 -1.158857070715562 0  28.8746333974803 -8.847529663868171 0  0.02698993302175268 -1.024799588351758 0  0.5516646573454747 -2.143996953238713 0  1.724354577036712 -2.685307433604861 0  1.245869861730792 -5.3860590206442 0  19.43217195605143 -7.092135158005265 0  6.596251334971047 -1.06739312903361 0  7.439023991545976 -1.734210591105639 0  0.07173991366258292 -5.167545936894173 0  6.701183410880478 -5.323652227397657 0  6.121105759121415 -4.658752411519381 0  0.1572903693755503 -3.524182037811839 0  0.6742530361731944 -8.65222743945375 0  15.40534490230913 -1.782138348634024 0  0.02579949293045125 -6.49159663865546 0  1.358102632836456 -5.835307387475619 0  0.5534021843509702 -7.461581257794203 0  0.06748350250428636 -9.108895624392538 0  0.03118546402544631 -4.254257857947975 0  1.385086130429166 -6.969755640998046 0  0.1460211723527038 -9.75792060309506 0  4.521016491962474 -9.074233073890145 0  0.6919645191687689 -2.502134091953993 0  0.5790338870971112 -8.93998721014588 0  1.652888934986498 -9.83480794556079 0  0.1077317143261425 -1.645471334335776 0  2.290084693256038 -3.021448337764436 0  0.03148232424297248 -7.110447281396771 0  2.146246175269034 -6.119182343600448 0  2.099035266731383 -6.95815449644936 0  2.096584821899981 -7.710182903697025 0  0.871106817190741 -1.793878874736621 0  0.0311182192718622 -4.567950402675709 0  0.3254156531189452 -9.95301344798472 0  8.683358150018623 -2.879807137955227 0  0.1074274422873831 -6.753158849396675 0  2.379955559776985 -9.572762607082209 0  6.374118224828946 -8.169871013340554 0  29.44330971520075 -4.645185137301566 0  2.487225993111446 -8.798846762285885 0  0.5198235787970287 -7.416323937448025 0  1.493338125336619 -2.173145736457029 0  1.518014884351144 -0.9100266705791373 0  2.792228619122353 -1.948392638927069 0  2.935284814910062 -0.5402835112949242 0  3.06612015840814 -0.4089383701769735 0  0.9177818871301486 -4.870468620683983 0  0.2203948773371334 -0.3872210325845691 0  1.81452711166053 -4.621426899974024 0  2.883388895593264 -5.634496102965356 0  2.858902491996552 -2.778006607155803 0  0.6213212889876516 -3.034899579818072 0  1.337475657803068 -3.28477631075832 0  0.9014568613327114 -4.933722481903645 0  1.538994341954499 -6.467520137110796 0  5.23242205798387 -9.502764629665172 0  2.11249755894017 -6.191913245630237 0  1.347307483204496 -5.393394255772746 0  5.06855441917115 -9.50527117811718 0  4.684526037643117 -7.283932684791507 0  0.06356256209102895 -4.090227546757257 0  0.1957918895411197 -9.654048534275507 0  1.984604841621383 -1.336720368647935 0  2.296935341351164 -5.139854245287339 0  0.06203072297007139 -9.581596316589721 0  3.941078741808132 -1.330474006057444 0  0.1116589022117793 -1.141617065120444 0  1.195593004693958 -1.628385782583945 0  29.40939535025585 -2.368068266925933 0  14.83488562567626 -0.6452471645768592 0  4.596928351748938 -5.376420891849876 0  0.7646901082045829 -0.9890286629507656 0  0.3547351679802926 -9.952660622653712 0  0.397503301281386 -9.926359139893716 0  2.807585204347001 -0.5846036071508189 0  1.728510822172735 -7.658671619528458 0  3.3972004606323 -9.564204861713744 0  13.69896441593421 -0.2723199909366585 0  0.2285507307532484 -2.638214736165821 0  1.022282044009843 -6.464652541739914 0  15.55175542328665 -5.966529590671104 0  0.6094562923667866 -7.789459499517905 0  0.03091694463051908 -6.963257003774064 0  1.761940583091292 -5.133467741575937 0  11.98573149893071 -3.975010265401182 0  0.02530833320540893 -4.894957983193278 0  5.478934289713276 -7.155516704103455 0  4.328103167842418 -6.972158367012918 0  1.896921414169746 -4.605266969219818 0  0.5391793001944265 -7.847304737253978 0  0.4715943466955324 -4.278038599617389 0  0.5906141646318641 -0.7476151325000018 0  0.4105629936580382 -5.303624501668928 0  9.654003224858968 -9.32714823745307 0  1.707055442318138 -9.842599756772291 0  0.4657327387138253 -4.009474638588472 0  2.110039804441445 -2.367661425483665 0  0.8742784126037542 -4.799944257426671 0  2.403772765838671 -2.210840340693679 0  0.06144416162260491 -0.2939375491292999 0  0.7409342484570818 -8.360607211187634 0  0.109997247076187 -9.984091524529958 0  17.76606163715628 -4.055466300415252 0  3.614975134836396 -5.352194689590815 0  4.718435203389104 -4.637107183879482 0  0.2477430936432867 -0.01828020828434873 0  1.485581528495015 -6.969623886163679 0  0.4872719852614082 -4.420045028262852 0  8.784566481651794 -6.186365660681081 0  1.012479328054956 -0.7290221410276665 0  0.7540788225034127 -3.102607376790782 0  3.69516869962041 -0.7791345221957666 0  0.06654441339162531 -1.375120481594888 0  5.932402103865041 -6.601677233175297 0  0.06382265075892057 -9.699397390297925 0  1.111830587703739 -9.435930390145199 0  1.218871030644966 -3.388007177064529 0  4.496854481859916 -7.365592813368531 0  0.763412345877704 -2.617921052963998 0  0.6511214078065581 -7.118511903817985 0  3.268530894586453 -7.899394686973293 0  0.2037476909936728 -8.038386978571854 0  7.27913914102677 -2.425706429697753 0  0.9929803696094694 -4.573988125263398 0  0.02829268359368697 -3.513038827842212 0  1.55226655753702 -1.584063778659389 0  2.445181700215155 -6.799659493252539 0  6.455089388205362 -8.694213860598355 0  0.6840686353698828 -2.558927331817202 0  0.02501090425304042 -6.365546218487395 0  0.935313476187499 -7.945696331170202 0  0.1276414339801129 -0.1938696270738118 0  0.4053428634947842 -5.196386933040661 0  4.829619345221422 -2.874005765260334 0  1.675031117518952 -8.809329333583889 0  0.472554334991905 -4.474253757812809 0  0.03072682267219484 -9.379137778498702 0  2.405372532424543 -1.622380432590148 0  9.657413336833184 -2.193905041780853 0  4.736849277121646 -2.229931921667666 0  1.426029169519337 -4.556594088219019 0  0.7404162212305838 -3.819124010329267 0  0.6417298322788447 -7.495740745716655 0  0.3868324887657906 -9.950619954921798 0  3.155034666809314 -1.106021203392753 0  9.697056354625754 -6.603760605582169 0  0.9935925088869961 -6.096704317963344 0  4.890184689216825 -7.23129580057612 0  0.03073564725925593 -6.229706290891994 0  1.095584023195034 -8.443684691546071 0  2.784275675875813 -5.168750032230498 0  17.17350422515536 -4.506948916791739 0  0.06901908251952804 -2.797853998030174 0  15.82872313016697 -3.328280894249089 0  0.4199041837362696 -9.32465860705228 0  0.9638389266889291 -3.941196797165956 0  5.97052702258174 -2.50882484750852 0  2.454701210493266 -9.30011551259728 0  0.0658311601524062 -8.144492186359546 0  3.487486852912291 -2.945295110989385 0  3.818948756121783 -5.609302831593012 0  0.6128634884761865 -3.3616987291445 0  0.5940374433396389 -7.129844388616318 0  1.44760751544794 -4.663449302581605 0  0.4846385865647491 -6.943974945984008 0  1.023778832777747 -5.803690554383749 0  4.358416368562988 -6.222876853352732 0  1.018170865908809 -2.203023188645533 0  11.61462558372118 -8.32998134665743 0  8.386291428660407 -5.271835212052781 0  4.838202527745175 -3.44212923059604 0  3.769762202270357 -4.724702195656771 0  0.4605134222616094 -4.323677841574598 0  3.089211548221614 -4.261538278269012 0  0.06878406028612183 -0.04044815353958242 0  0.04199740787678508 -0.04246318655299852 0  1.2166460906589 -3.738247118038034 0  3.699153378667967 -2.359500852657771 0  2.228254791934745 -2.943548316285141 0  9.899118080790057 -9.611880756453164 0  0.0958520540000336 -7.319230524124137 0  3.35228028717003 -6.761382806704468 0  13.13020570829235 -5.082222932225633 0  0.08084480279967465 -0.8591900307210114 0  3.259125896469779 -1.205506905100189 0  0.6691393244241493 -0.06508347073201026 0  1.305278184411836 -3.138612501498963 0  1.909477418584329 -6.680465981983541 0  5.141555413297418 -0.7975757734713378 0  5.025059558064918 -4.272874350866198 0  2.196067526120828 -3.999063940389583 0  0.7579819390327138 -8.868484857760617 0  2.538055464571656 -2.223152796846957 0  1.034488581667469 -4.479719451573942 0  10.55290737728415 -9.339846918177496 0  0.7079851078997024 -3.629557253847155 0  3.843006208073 -8.74259499561912 0  1.144696030823896 -0.7547622269417786 0  3.011024332710207 -6.806424353880836 0  2.343568238143021 -5.212225472487042 0  1.2290515929176 -3.048868712186552 0  0.3933314154766556 -0.4959714928696508 0  2.021762157900309 -8.495187043007565 0  9.438393234315129 -9.363051968204029 0  3.656173130469892 -2.466216660718398 0  16.2548497013141 -6.29823300210268 0  0.06601661978277917 -5.287888931749514 0  2.408326144192788 -5.073751808128256 0  4.634713123752302 -0.4418284630342137 0  3.134917915792252 -7.126473877410758 0  9.010817625134521 -3.071407093068482 0  0.26773035726616 -2.620352425037393 0  4.006658617068794 -1.411615467673858 0  7.654891538343103 -1.696292792134986 0  0.05945014790290237 -0.7158300735046677 0  2.646268465226614 -5.29647555975838 0  25.92601682924935 -1.327248256252564 0  0.6706894907884493 -1.091631786316221 0  0.9402370012042987 -8.686081551875873 0  2.533006859172701 -1.633336949098084 0  0.7461423753691392 -0.3786667469473741 0  0.7991385826607811 -1.620259583448062 0  0.03043955742796634 -5.661562854260407 0  8.95211159491968 -5.914806698231639 0  3.072644119656918 -0.1437503791082353 0  4.800214741427604 -5.941275780666269 0  0.327899392202001 -8.74649277659754 0  1.011831524597747 -6.035461424499737 0  4.301568201934032 -6.403907001524633 0  3.251578855168329 -2.503810169416102 0  4.132018650033054 -6.722334760547044 0  2.645231427598228 -2.376868186334939 0  0.03104330700547564 -1.081158806766322 0  0.185236813155278 -6.881508743556093 0  1.047267806558903 -0.7692920509572962 0  15.81413233467465 -1.726598833237638 0  16.78504817569958 -3.34084909479673 0  0.380492600903878 -4.696684689863292 0  4.742698501413875 -8.939932877817821 0  6.272379819814276 -4.635671047182157 0  2.515854290964914 -1.008762693279963 0  0.4250668405937148 -1.747459770123837 0  0.2227217627608589 -0.04915243194341645 0  3.241430909863382 -8.329821921486579 0  6.964396186618005 -6.621499980347923 0  3.643747169032377 -7.406697469692769 0  6.844538955617368 -1.006379595209733 0  2.551215412882716 -7.630917334193458 0  0.06693471316528132 -1.606879549091955 0  6.864551592420121 -3.254522782488621 0  2.394562390087764 -5.283528437978622 0  0.5412632981084187 -6.035374749073764 0  4.24821226240346 -6.527130126493145 0  3.49606823054841 -9.547174033854253 0  12.14556224618815 -4.217185911580458 0  5.35514129549798 -0.7851366235438606 0  4.178892916811142 -8.053017288322025 0  4.318407190059204 -8.174609191112873 0  2.336891488367872 -0.9272556230151956 0  0.2441170124365577 -8.041044537031578 0  14.5334717001114 -6.399923521847867 0  5.642089007871682 -0.3760553779329605 0  0.819519050764427 -2.677421737156783 0  1.597248800850078 -1.648014055124801 0  6.109613177249873 -6.576804387975284 0  0.06357647713292991 -3.86478705672389 0  3.730857061692426 -4.030645904511277 0  0.7751304376872028 -9.334169171198884 0  3.777539624980209 -2.95426089425646 0  5.380746264807179 -9.474873644590009 0  5.737974645683908 -1.606507740234038 0  7.681741274592748 -8.451888305230147 0  0.02731352442350854 -4.510613984159852 0  0.060350399006456 -5.965963831742648 0  10.02606716862136 -2.214825849990106 0  1.169341655016396 -6.923018893163157 0  0.02414264481850559 -8.928558273569521 0  9.113400929223852 -8.134880097494833 0  3.523933325934429 -2.803015821353312 0  19.79434077041207 -6.521578744031068 0  1.034628804308014 -5.443710225279302 0  0.06035665530128398 -8.656007491090154 0  2.495829133202406 -8.425814939706125 0  3.572880068496334 -9.177051782393015 0  2.02711302215118 -7.836480331010161 0  2.809948825347131 -5.502899488406753 0  10.1320315982843 -2.988644847721625 0  8.234977136319994 -0.5212464401266832 0  5.025310992115157 -2.824461770686888 0  2.82512941681809 -5.071337238166108 0  1.043757275989261 -3.036378069279607 0  0.02365192977825892 -3.088235294117644 0  4.180541121901445 -1.275460240308307 0  1.031937174110922 -4.616615475814819 0  0.09509210844789351 -9.887224705795836 0  1.467579464294445 -4.8160613365892 0  3.957090781785354 -8.721708101992181 0  7.406959166261893 -8.391688587474729 0  17.02766778487274 -0.7111868735071898 0  3.434609362837801 -9.209048851627028 0  0.09331592033466407 -0.3143052379194344 0  0.8933636836937797 -8.794266852537106 0  1.709797754037123 -8.712720194633594 0  2.351970236187148 -3.096590165047375 0  7.367194548357888 -8.074937827712841 0  8.118870505542848 -7.339299892221816 0  1.290015144798716 -7.946892264247159 0  0.0580042592645178 -1.682821372971776 0  9.060092406783554 -0.3829110360820538 0  1.356155457061488 -8.84416135691669 0  6.62285000065047 -8.694822045712909 0  0.9421386775402318 -0.06871558087084395 0  8.630588751661744 -5.234357617268155 0  1.098226144423029 -4.675535702132532 0  0.3948672407105001 -4.816968535027462 0  0.7323780392208761 -1.055459822803354 0  1.64300779301915 -1.705894599825077 0  0.8596684555732317 -5.048955652459749 0  4.447584559221857 -6.8107474762754 0  0.02341802586173714 -3.550420168067227 0  2.563833932017573 -8.693396980293594 0  5.533127674582472 -1.604608071507975 0  0.1686236206834959 -7.349215723122369 0  6.670928140969052 -8.286337224523146 0  0.5319429678680585 -9.056928721517153 0  7.69674965940146 -8.771116774824211 0  0.6254891418098403 -1.012940094034339 0  0.06579590417099013 -2.512931638075435 0  2.046297554072915 -1.398827807600425 0  0.4906508358307899 -6.493619236756901 0  2.458164308992927 -9.569768414773858 0  0.2147752736962012 -6.914150055580672 0  2.697592667722329 -5.360936158700749 0  5.68426679738805 -7.302117791481018 0  1.302799177395643 -0.08067835880008367 0  3.494478354798414 -2.611249565524166 0  1.119856946645543 -8.388191043499011 0  2.938045575608484 -0.4743507252558574 0  2.72308021223656 -2.489892262498243 0  1.450694634599756 -0.03672761844030781 0  5.236223751088287 -3.2897077493707 0  2.512109101555223 -2.350904646364583 0  11.00637450386578 -0.8853277406614817 0  0.4145977108104759 -0.05252773550140244 0  7.064380894531165 -3.226271559501149 0  0.445299184610974 -1.586960369573316 0  2.671523359023842 -5.448815378265836 0  1.101256895622292 -2.661165904746869 0  1.662385499439935 -5.214074715047283 0  2.002079448917902 -6.399309508391351 0  5.421315205103056 -0.9055950758363442 0  1.398400008049002 -5.885527096053217 0  4.283295449300869 -6.131916555582248 0  0.1365988158231239 -5.461577159932286 0  0.8925149247445319 -3.64396667621843 0  1.21408199689354 -0.4170508037353651 0  11.97431119607537 -9.510638640070706 0  11.96630592319338 -7.993375825262613 0  20.84775861028066 -1.310800312167715 0  0.06447137369214673 -7.263020583944468 0  7.415437467603874 -2.186297470370511 0  6.240490190107632 -2.785161069557841 0  1.687836826988052 -1.764274953210327 0  1.114894602632841 -1.456851635252641 0  0.7876550222480958 -0.06823291070588056 0  0.4357453832343978 -9.286130332309348 0  6.813699242071301 -0.2910420030692054 0  0.87947209096086 -4.997353194624761 0  8.134621470697407 -8.205908334515952 0  3.770455927563869 -7.389747553287142 0  0.09796425873119574 -6.20954648439854 0  0.1124736930716406 -5.152189115180553 0  0.8504222806855655 -5.121320472769201 0  0.585720787920927 -8.904877613183203 0  1.782263259288467 -2.669026358163674 0  0.3742616518882578 -4.744581656887364 0  0.4705101340898707 -4.08681167794444 0  0.2015462728833413 -3.568979111030623 0  4.232109306616456 -0.1822700510629174 0  1.177594357474165 -0.9872571831345951 0  29.45981520051695 -6.801544013929066 0  4.191818080489895 -6.641510650034076 0  27.86221720786709 -3.865315321222234 0  1.202476952335182 -9.478465316610141 0  16.21559895473233 -1.651680715337309 0  0.9476412079206167 -5.868507118668614 0  0.3355073746645729 -3.062621976598054 0  13.48943873523003 -5.060109316555705 0  1.154499090040424 -4.655798058319542 0  16.23382702547635 -3.265407152013252 0  1.32481731974001 -5.47869287548825 0  0.4608129228844575 -1.52259528827391 0  0.06335173353531331 -6.718537147776669 0  0.06038674323568571 -8.530261003571258 0  0.2024163159180876 -4.848631665416733 0  0.9888207550212815 -3.555212503937406 0  4.217720810616814 -6.85201924313276 0  2.837861169302903 -5.687294989703818 0  0.7903013017123559 -0.3696775796069112 0  0.02524788587782112 -6.617045860159113 0  0.9160877196196555 -8.742481500253049 0  2.21488240729707 -4.154751656789356 0  4.745628308130975 -5.507028514027201 0  1.206765463800091 -2.337941958175603 0  6.071683294898191 -2.626539565285803 0  9.642294677901992 -5.062627884399185 0  6.475323353962583 -2.38109349841179 0  17.02737260325993 -6.712928605261791 0  0.06590090666917447 -1.415924856203486 0  11.21739412943917 -9.263838358536015 0  1.535950541728337 -4.231954434175359 0  4.887091039287295 -8.922402769218301 0  0.6577631504123644 -3.066335501427815 0  2.618794786984395 -0.1399531330831323 0  2.840857714619828 -2.6242099545318 0  2.135835258264228 -5.971711655129105 0  0.9565619503536915 -1.974054406219965 0  8.424182313544426 -8.659022444828128 0  0.5629090834796937 -1.038702196299735 0  3.790907122898227 -4.113545833150982 0  0.06734664059522544 -3.191272100012305 0  0.05952415207542572 -2.184873949579588 0  29.39462312423721 -3.924972131616856 0  0.8612409473433491 -1.84130111125756 0  10.26645588549396 -3.17160041055761 0  0.06913931288150366 -3.590042308353278 0  1.263018596647813 -5.304382049928298 0  1.601138042992471 -2.203985792418255 0  0.9972768292036207 -7.940432156427047 0  1.625927590532807 -0.9548850020620039 0  3.611101424526654 -9.534978796025218 0  2.504910425130928 -0.1237614876516044 0  7.47719661866866 -0.3103288543449256 0  2.400961116929373 -3.170994989592041 0  12.61927131816949 -6.216581566128276 0  0.5495326306518393 -0.6242108253200893 0  2.240257055903161 -2.427659817248991 0  9.899930426509787 -0.3894676710644616 0  9.235450113099056 -3.067158485200158 0  4.883786068142889 -4.768447887677517 0  1.449628491619048 -1.895994070151588 0  0.06174852335265335 -7.728388310835054 0  0.932574341937201 -1.213294163775065 0  0.1111903010077278 -0.8837500434626087 0  0.6344237524025811 -0.8699848707542159 0  2.10445312699216 -7.654484170052403 0  6.976124176904605 -5.120651381763919 0  1.705651826337 -4.917275362644511 0  0.06551869300222002 -7.317715550049046 0  0.8053317835015097 -2.728246414027053 0  29.40737740758138 -8.270730136992327 0  2.899080495934109 -2.710164164366894 0  1.099949785072468 -7.298053849795594 0  1.655059647485785 -2.270191012806335 0  14.1566438162018 -9.463542114153185 0  0.5119083220488498 -8.488392156845377 0  1.593531745033138 -0.09451849840577964 0  11.69137523556938 -9.561320645787298 0  10.6145417719275 -9.832144070753632 0  0.1426944577284921 -9.030675525905469 0  2.544283015037827 -6.789937814928257 0  13.6055958813003 -9.814346724669253 0  11.62585077126292 -6.520153146371811 0  0.7469162474367277 -3.66302986126382 0  14.46821335113436 -9.110214615174094 0  2.097406433613836 -8.489614376910316 0  2.486266083475487 -9.235135715368564 0  3.348936677966639 -8.323797619070648 0  0.0234245447312933 -2.836023222955376 0  6.284133458540632 -6.566565857610568 0  0.2932558674091439 -4.174465218403975 0  0.2440746727138343 -6.949432222409622 0  2.618352485028497 -6.69546999363811 0  0.05859016023363139 -0.7546583953984074 0  6.42683201202486 -3.706265278728129 0  6.868029202855533 -0.8635549351666008 0  0.2119080266152995 -4.804377101657255 0  1.674913887876471 -8.665713892247677 0  0.2718733659780685 -6.985882435221809 0  7.106065035499755 -7.014018033773199 0  29.05652680455148 -7.38779860229756 0  26.28692570188151 -9.219991332724902 0  3.310495729715271 -2.589462153523653 0  0.06030792075751279 -6.419756546380103 0  0.1887627252086155 -1.149440761697431 0  1.504441261150642 -7.014075466907359 0  11.89064985355829 -4.704140993117345 0  2.335185970348236 -4.166307216062266 0  0.5084667735320139 -4.116992669253486 0  0.4068702737182708 -5.162353992559903 0  2.86078444381141 -4.978130683853397 0  1.95067708084515 -9.913891806154552 0  17.05235793018616 -3.694924903053557 0  0.9053643741116275 -3.587535410943519 0  0.1530056810356086 -5.140203323192269 0  0.9456103773811275 -3.996620279624572 0  0.5507428757896022 -0.05773419876123143 0  9.14041710135724 -7.971531503823458 0  28.11837172305794 -8.656152928727174 0  23.31595057832832 -1.380963307430553 0  0.0586963046797262 -9.328285552356167 0  6.817007201582644 -8.684939940801012 0  1.370353445506208 -3.236306457384449 0  5.99638432513207 -0.08939959325129987 0  26.75108368561936 -1.345076896581933 0  2.194339522862398 -5.874696076084422 0  0.06295066204836175 -9.736160548487028 0  2.45761415909319 -4.973809296823874 0  0.6307605361187818 -8.595482279845822 0  3.314082452573416 -7.203262020328059 0  5.03592399419693 -3.292325259087911 0  0.1843366474330441 -4.2005459628653 0  13.30390252445887 -7.125060692804428 0  2.66911416867865 -8.776462573216181 0  0.5264309116180055 -1.672375537930452 0  0.7517821060128398 -9.793585134582962 0  4.698456489587134 -2.430368934859883 0  13.85693664192007 -5.023294648131492 0  2.684471337922155 -2.54417631955341 0  6.639323466969621 -2.537654300125873 0  4.961758701354714 -6.074556492681989 0  0.05945040560789572 -5.798935553054662 0  2.124688972244224 -1.384592158301613 0  18.81410962548375 -1.648436736375928 0  0.3936222171800274 -5.230237513740474 0  0.06216312715882211 -1.720646706843665 0  0.5737453783617514 -0.8931154011835662 0  0.4462862278745181 -4.360192806137815 0  0.06660305739962524 -3.333719482596288 0  1.787151157781718 -5.789325315814967 0  5.242850959234215 -4.115739303419494 0  0.5429422416769789 -4.135436610983061 0  8.856513558251043 -5.212334948599158 0  13.2561525208117 -9.799249012346516 0  0.1870591927796905 -0.3289055867679611 0  1.518301836427252 -3.884672396197211 0  0.06255186021390813 -2.556202395688775 0  0.05870449027837665 -7.058823529411688 0  1.173967289210426 -7.415436061300986 0  0.2591754133313877 -9.954006471153699 0  0.2220543258465995 -1.540380812510189 0  0.05972827335334152 -7.435998278881817 0  29.48296058859605 -5.35489160208175 0  28.59116871076758 -8.544263865522675 0  1.654618268870635 -4.825966607622549 0  6.112747850806972 -0.2640298814375983 0  0.06335265045243332 -3.628854530854785 0  1.055487723197512 -7.934525819765932 0  7.908831539848195 -1.461750646292817 0  0.1747587548655627 -6.276467182772029 0  0.5429436294458068 -7.813145365071886 0  6.617139603409488 -7.234547298572917 0  0.3387968741682634 -3.59331397343761 0  0.4257255639374726 -5.267443767292262 0  1.489998480944827 -3.947243577893349 0  0.7778495917443138 -7.582429430948944 0  12.24943433390101 -7.924331551728893 0  3.757711431157306 -0.8675129057679545 0  4.121404957189906 -3.044696966037611 0  1.262092373917822 -3.78959800552762 0  5.035211464560994 -2.720724028324997 0  8.403697746536382 -6.909798821238127 0  5.225843611651497 -2.646689262769435 0  1.857186878413573 -6.87372606204354 0  0.5032673091998454 -0.4111132635216332 0  0.6896742645584215 -7.487788246583561 0  0.5334469635396211 -4.20646182595209 0  7.269146838383751 -3.200416507742228 0  0.05691609526193275 -0.378097846527627 0  0.3101450817309477 -0.1440446219680123 0  5.839968976920176 -7.292037294427031 0  0.6393575610646725 -0.05552035271976408 0  1.241124273507262 -0.9210733244024869 0  17.91196543561228 -4.828404167985534 0  2.977758765483197 -4.769764622809912 0  26.74072334964008 -4.077823931771369 0  </DataArray>
</Points>
<Cells>
<DataArray  type="UInt32"  Name="connectivity"  format="ascii">420 421 9351  5842 8030 9682  6765 7836 9943  662 7796 11738  7516 8131 8132  9245 10000 12500  2736 2773 11399  5260 5687 8074  5090 8441 12821  7641 10136 11409  5283 9171 9333  6694 8606 10185  573 7627 8266  5164 8007 12948  7516 8132 10338  4078 9399 10602  4172 7765 9342  632 7517 8435  6015 7845 7846  6276 6277 8963  7619 8196 11512  7795 7797 8713  8172 8965 9474  5131 7494 7729  5164 6340 8007  705 7603 7604  928 930 9819  10042 10436 11633  9745 9840 11906  1190 10644 12102  605 7608 7718  3380 3384 9509  1914 1916 8371  9990 11379 12558  721 7517 10328  4131 9267 9269  620 7555 13128  6626 7915 11582  3383 3386 12662  4399 4467 8737  6957 7918 9698  6472 9937 11957  2012 7882 10419  2994 8116 12862  7028 7988 7989  8189 8441 12821  6212 9322 11457  5841 5842 9682  5249 7532 7800  6309 7639 9945  7322 9971 10488  622 7576 10105  605 7608 13057  4535 4537 11230  5138 10083 10089  669 7399 11329  3218 7513 8530  2029 7478 7635  4598 8048 10415  662 7796 11603  5426 5931 9252  583 8097 11852  8269 10551 11232  3324 7459 7701  5131 7494 7516  5426 7160 9252  7348 7351 9778  6230 6231 7799  5100 7953 9382  669 7399 8900  4078 9398 9399  4172 7765 9341  7315 8183 8274  5803 7489 8998  260 261 7875  8508 8509 10373  4750 7795 8713  4619 7983 9771  5138 10083 10084  3603 10371 12046  2992 2994 8116  7629 7858 12510  9958 11090 12169  3131 7435 8104  1337 7663 12893  6309 7639 9944  549 8038 8040  5365 8163 9900  10100 10311 11787  3131 7435 8103  748 7397 11082  6932 8180 11923  5283 9171 13046  6622 7690 7691  4576 7741 7742  5707 9149 9469  747 7586 7587  4374 7884 10419  6987 8465 10019  557 9245 10000  3278 7918 9698  657 7523 12835  718 10136 11409  6627 8826 12670  6727 10630 11087  759 7858 12510  7912 9749 12991  6859 7479 10944  3780 7427 8197  702 7411 7949  6400 8009 11422  150 151 10675  1307 9083 9926  3386 10558 12662  583 8096 8097  6435 8504 8505  4619 7983 9772  2892 10386 11887  7902 8076 8077  4887 7899 10483  3780 7427 9755  5867 6205 10174  675 8196 11512  9121 9690 10030  676 11100 12671  1804 7202 11881  6268 9149 9469  9642 10592 10827  6015 7846 7847  7461 8676 10595  679 762 763  4183 8408 8422  6404 8245 11996  6312 7461 12988  5604 7376 8172  2837 3953 8131  3436 7423 9712  6859 7479 10945  4086 7514 8443  2561 2595 7813  3436 7423 9912  2604 9732 12877  748 7397 11083  6404 6405 8047  7291 8237 11153  1554 1556 8470  5604 7376 12857  5311 8508 10373  1230 7912 9749  2561 2601 7813  115 116 7775  7165 9706 9912  5240 9618 10210  2407 2409 11154  4853 10672 11216  6619 8263 8688  2029 7478 7876  9278 9310 9318  5000 5799 7693  9054 10325 12872  930 1821 9819  4576 7742 7744  7964 9744 9745  4437 8968 10165  7533 7534 10180  7555 8781 13128  4374 7884 9413  3604 8643 8644  3158 3218 8530  8048 8050 10415  9321 9322 11457  1186 1187 8487  2990 2992 11844  6319 8008 8009  6312 7461 10595  8465 10019 11991  2852 4216 11173  260 7875 13094  6231 7799 9716  6293 8240 10402  8860 9479 9818  721 7517 11637  2638 2639 7874  5069 7291 8237  9617 9618 10210  4977 5427 11436  5862 9022 13012  1262 7598 11504  1773 8911 8912  5278 8950 11355  667 8201 11699  5803 7489 12713  305 756 760  582 7827 8166  3158 3160 8530  4250 6263 7952  7882 7884 10419  4980 8139 8141  5247 5777 7801  1476 9563 10195  6343 10989 12074  5305 9971 10488  6044 8976 9020  8879 11379 12558  3218 7513 8531  448 449 8093  136 7512 7634  613 7710 9222  9847 10726 12400  296 297 7822  582 7827 8165  5080 8748 8753  3109 7394 10596  8029 10386 11887  5862 6211 9022  7375 8676 10595  3521 3525 9891  7899 8224 10483  6156 7747 7950  657 7523 7972  1916 1990 8371  5006 9690 10030  6404 8047 11996  3989 7296 10924  8552 10281 11894  633 7617 7822  1773 8911 11590  5322 8474 11918  4853 5208 11216  5249 7532 7799  2739 2741 9308  1429 7421 11147  2604 2614 9732  6504 7551 12953  4923 7922 12978  6405 8047 10636  7964 9744 9746  4183 8406 8408  6980 9937 11957  3840 3847 9568  7265 10482 10639  5278 5929 8042  6487 7449 8529  2639 2654 7874  7433 12601 12648  1764 1786 7907  7386 7713 7714  562 10078 12306  601 7531 12420  5127 7944 7945  5311 8508 9438  5624 6585 8830  6627 8825 8826  7374 10372 12684  9132 10848 11663  8973 8974 10047  620 7555 10096  5045 9917 12789  7212 8968 10165  7273 11100 12671  7069 9008 9483  5802 10395 11043  7502 9721 11049  7381 10078 12306  6795 8081 9155  7596 11004 12485  3324 7459 8271  7622 11757 12698  7507 8240 10402  561 11016 11573  7180 9969 11045  569 7915 11582  115 692 7775  5080 8748 8755  4216 7807 11173  1277 7836 9943  1704 7569 13058  3109 7394 8681  4078 9398 10615  514 515 8382  7541 8494 10815  3551 7464 12873  4086 7514 11112  6435 8505 10763  7314 7315 8274  8744 8750 11260  5089 9721 11049  9354 9358 11911  6281 7792 9000  2596 8288 8295  5311 6436 9438  7860 8810 11213  6171 10767 12718  4677 5181 8034  8996 8998 10575  7581 7929 10662  1514 1524 11881  6578 7406 11022  746 8650 11339  7422 11143 11538  7563 10282 12793  7374 10372 11115  8511 11119 11220  1262 7598 9034  743 8724 11723  8915 9398 10615  5032 9076 9077  1337 7663 10190  8166 11192 12490  1804 7202 12382  8429 9702 12868  7533 10180 12663  7573 11016 11573  7801 8201 11699  724 11448 12370  8860 9479 9817  7351 9777 9778  1429 7421 11498  743 8724 11830  6287 10338 10536  7076 9563 10195  5929 8042 11757  7563 7862 10282  7180 7719 11045  702 7411 11209  6230 7532 7799  8009 8011 11422  5367 7770 8895  2638 7647 7874  6487 7449 9529  1959 9498 9500  5006 7432 9690  396 397 8683  2690 8729 11027  3972 7511 10527  9310 9318 11399  6309 8827 9945  683 8077 8080  10029 11239 11261  4908 8184 10356  7385 10130 12210  7147 10449 11992  601 7531 11452  310 635 7981  1990 8310 8312  683 8076 8077  7632 8729 11027  6486 9187 9529  5163 7628 11351  2899 7421 10843  4537 9574 11230  8711 9242 12157  9220 10249 11703  9620 9621 10936  9054 9446 10325  8172 9474 12537  4475 7910 11092  6891 8584 11079  7214 11448 12370  8093 8429 9702  6585 8829 8830  1793 8494 10815  632 7517 10328  7402 11122 11445  3931 4137 9772  7243 11253 12159  4091 10479 12067  5069 8237 8238  5309 10619 11451  6032 6033 7758  8780 11004 12485  4451 7577 7615  703 7613 9728  5687 7925 8074  746 8650 11891  7049 9655 11065  678 7667 7668  5127 7943 7944  3551 7464 8261  7662 7663 12893  5252 10087 12057  604 10968 11943  1807 8081 9155  4934 9988 11962  5213 7402 10989  680 7721 8028  6171 7635 10767  756 760 8076  6435 8504 10901  5973 12601 12648  6504 7551 11203  10076 10087 12057  4795 5932 11437  1990 8312 8371  1530 7792 9000  7602 8603 10564  4075 7541 8023  9847 10726 10907  3721 7722 7723  5339 8263 8688  3952 4559 8111  850 851 11190  8168 10540 11917  4653 8504 10901  5858 6044 9019  6536 11143 11538  7171 7172 9996  6577 7422 12495  6105 6107 11688  7406 11022 11370  541 11243 12778  8370 9764 10507  6319 8007 8008  6727 8815 11087  9259 10741 11172  135 631 7634  4537 4539 9574  5296 8815 10663  4539 5645 9574  8461 10845 11541  8840 8842 9370  4821 7970 9961  6181 7170 9102  1793 8494 8495  664 11217 12496  6971 7475 10728  3989 7296 11992  3708 9667 12886  5090 10957 12821  2001 7649 11917  3852 7553 9567  7747 7950 12467  4131 9269 9308  6013 8252 9861  6231 8392 9716  5153 8180 11923  2773 9310 11399  8573 8575 11802  3266 10281 11894  2001 10540 11917  726 10845 11541  1588 1590 8178  9182 11129 12227  1525 1806 8434  8166 11192 11916  736 8608 10821  3086 8681 11924  6727 8815 10663  4040 10367 10376  763 4547 7816  8613 8615 11182  565 7614 9623  2992 8116 11844  2899 7421 11147  3856 7559 13152  1704 7569 8470  9082 9083 9926  549 8040 10159  7423 9712 10505  4559 7780 8111  8404 8406 11225  7049 9655 12493  5069 8238 8379  1436 11262 12317  604 7505 12680  43 44 8629  5278 8042 11355  4187 9642 10827  3479 7467 10502  1440 8528 9898  2336 3716 9334  738 10130 12210  7608 7611 13057  1922 1924 9500  2936 2938 9140  2848 4210 8179  7028 7989 11770  8066 11217 12496  6103 6105 8229  7964 9745 11906  740 7712 7714  1432 7482 8228  6577 7422 11143  1190 8487 12102  6583 7636 7684  2957 8177 9164  1339 8026 8997  5045 5804 9917  6543 9833 12307  4075 7541 10815  2622 7441 10348  5213 7402 11122  5032 9077 9520  1406 8864 9369  3852 7553 9566  4011 11130 12416  672 8043 8158  3712 3821 9415  705 7603 8204  6014 6017 7847  5006 7432 10995  138 679 762  454 455 7936  6044 8976 9019  136 137 7512  8634 11781 11990  1793 8495 10470  9171 9172 13046  7906 7908 7910  4559 5066 7780  8059 8061 10092  7913 7914 9099  7058 7348 9778  7761 8184 10356  7613 9728 9733  7993 11122 11445  578 7771 9954  3955 8680 9499  7403 9027 9028  5799 7693 7694  3331 11023 12097  6971 7475 9988  6486 6487 9529  3856 7559 8119  8078 8079 11746  6551 6723 11966  6994 10989 12074  199 200 8204  6964 8794 10839  731 7573 8974  7555 8984 10096  744 8192 12755  4295 7913 9099  5354 11781 11990  11106 11394 12719  9258 9259 11172  741 7520 8535  7925 11082 11763  5339 8262 8263  2486 7566 8760  3479 7467 9130  9642 9644 10592  3708 9667 9669  1253 7644 7942  5340 11935 11969  726 7530 9549  751 11610 12378  6010 6011 8531  5868 7603 8205  6494 7693 7694  7303 8474 11918  3842 3844 11748  5175 7597 9648  8147 10968 11943  6563 9673 11519  400 581 8277  5858 9019 13012  10156 10619 11451  7529 10042 11633  633 7617 13142  5196 6156 7950  6202 7661 8198  7501 8608 10821  5381 10854 11249  4183 8406 11225  6494 7694 9703  120 701 9237  7506 7653 11209  2058 2251 11275  6103 8229 13055  6753 8084 10484  6810 8163 9900  3863 9113 11769  651 9728 9733  8603 10564 11492  6176 7666 8206  4073 8421 9828  8859 10992 11444  5645 9573 9574  7002 9843 10854  7159 8671 12975  5305 7543 9971  8540 8541 11775  7405 10000 12500  731 8974 10047  5288 9614 11545  7921 7922 12978  7034 10982 12155  673 8606 10185  1253 7644 7941  1156 10661 11898  7544 10371 12046  8493 9770 10310  7005 11562 11959  2391 9122 12927  9554 9555 12483  7093 10882 12242  7326 9242 12157  8745 8748 8755  2923 2924 11809  4399 5287 8737  3551 8261 10790  5164 7356 12948  583 8096 11207  4907 7831 7832  8981 8982 11595  3972 7511 10528  3502 5329 7945  7397 7925 11082  2923 8493 9770  4426 8010 12844  3604 8643 8653  5175 7597 9649  6622 7691 8115  8307 8310 11038  7914 9100 11297  7317 12549 12557  5577 7200 12295  8605 11610 12378  3881 7804 11011  7069 9008 11720  3966 10482 10639  6276 7674 8963  5866 5868 8205  741 7520 11234  5184 7636 7684  2757 9337 9631  6500 10600 11939  7618 7950 12467  2391 9122 9856  7599 12096 12121  7053 8528 9898  1554 1704 8470  4677 5524 8034  1763 1764 7907  1959 9498 12860  985 7612 12228  5802 11043 12713  9083 11394 12719  6784 7996 7997  4859 8239 12956  8695 8696 9428  309 310 7981  5817 12096 12121  7116 10504 11774  1990 8310 11038  6617 7770 8895  2795 2796 11736  9100 9101 11297  5675 11370 12068  7147 10449 11719  1432 7482 11133  7571 7970 9961  6543 9833 12580  7053 9898 11171  762 763 7816  3966 7518 10639  7434 9322 12601  3222 11515 11753  6668 7138 11148  4938 10156 10653  4574 5369 7744  10977 11156 11562  6668 11032 11148  5287 10249 11703  7414 9749 12991  3459 4349 8087  9358 11935 11969  9847 12400 12938  6539 9467 11304  8745 8755 8963  4087 10826 11849  7735 10404 12092  6045 6046 7812  296 633 7822  7077 11413 11418  6299 7571 9961  1020 11374 11764  6891 8584 12274  7159 8671 9651  9703 10947 11967  5994 8653 9844  7136 7137 10347  7782 8096 11207  2556 7430 11549  5381 7002 10854  985 7612 11740  5162 7885 9414  3463 9712 10505  5617 9328 9333  4826 7929 10662  8859 8860 9817  898 900 9189  7564 10291 13090  576 7526 9530  6543 6566 12401  7484 11269 11458  4451 7577 9240  2633 2635 7834  5288 9614 11563  7483 7484 11458  5507 7594 11609  6177 8915 9824  7832 9856 11684  2743 2745 10346  6263 7952 7953  170 678 7667  4549 5132 8198  2719 2721 9437  4280 7544 10371  747 7586 11179  2296 2300 11554  7898 8456 9660  4923 7922 12917  3955 9499 9500  5100 7953 8885  1028 8794 10839  1227 1238 7941  3436 9706 9912  7569 7570 13058  4104 8593 11364  9873 11374 11764  674 11530 12270  3552 7759 7760  3966 7518 10553  3514 3516 7761  8757 12549 12557  9110 9130 10509  5381 5382 11249  6703 9621 10936  7672 10958 11447  4128 10992 11444  3980 9764 10507  7357 11530 12270  420 542 9351  1181 10100 11787  7098 9554 12483  3896 7993 10432  627 10593 12038  10289 11338 12396  4434 7674 8964  7510 7771 11015  3384 3394 9509  6499 10275 10375  8050 10415 11841  1467 7359 11971  7906 7910 11092  5489 11472 12527  3380 4236 9509  559 10958 11447  2348 8084 10484  7036 11913 12800  2009 2011 8577  713 11808 11846  4073 8421 9829  7344 8091 8611  6990 10127 12210  2054 11079 11868  8261 8263 10790  3952 4644 8111  9077 10826 11849  2897 8965 9474  5617 9328 9330  6176 8149 8206  2643 2645 9520  1605 8015 10332  8495 8497 10470  6465 6791 10065  8301 11329 12134  8269 10551 12885  604 7505 10968  2638 7647 7834  6526 9195 11308  4640 7986 7988  2520 9527 12943  1238 1253 7941  7362 10991 11139  5521 7708 9664  663 7363 11762  6765 7487 9943  1530 7792 7794  7621 7622 12698  5305 7543 10160  2890 7355 12084  2520 9527 10987  7403 9028 12234  6169 8146 9710  4653 8502 8504  3127 7754 9188  260 651 13094  4859 5777 8239  6971 9988 11962  5777 7801 8201  7136 10347 11055  6793 9002 9466  9396 10243 11067  3132 9187 10969  735 8778 11665  5457 7122 7890  7212 10165 10963  5803 8998 10575  7564 10291 10573  9211 11515 11753  5645 9573 9575  5980 6819 9116  6563 8019 11519  7952 7953 9382  2486 7566 8759  731 7573 11016  120 121 9237  5427 9523 11436  6449 11423 11757  7386 7714 12576  2757 9337 10566  570 7753 11912  4152 11475 12037  3012 8110 8913  9575 10215 11325  726 7530 10845  4772 9798 11568  734 8984 10096  548 8747 8749  318 7568 11448  7467 9130 10509  4455 8982 11595  2055 8149 8206  4434 7674 8963  5811 8231 11644  8497 10470 12703  6108 7701 11547  6543 12307 12401  2362 10991 11139  5932 8220 11437  8078 11566 11746  2556 7430 11902  6524 11137 11145  4153 7638 11475  7510 7771 11322  5145 6443 9111  5460 7495 12348  7005 7734 11959  5098 8575 11802  318 7568 12739  7330 7460 9526  7738 11528 11807  7399 8301 11329  8026 8997 8998  2918 8800 8801  548 8747 8750  703 7613 9863  6239 6240 8241  1467 7359 12226  10237 12145 12439  8145 8146 9710  5625 8025 8246  4690 7699 7951  6899 9076 10942  6202 7661 8197  7000 10146 11941  8763 10804 11415  5262 11405 12458  2837 5131 8131  7035 10479 12067  749 8750 11260  7267 7770 7777  5367 7770 12722  8859 9817 10992  573 8266 11430  6516 8621 9039  5830 6784 7996  6990 10127 11386  1763 7905 7907  8873 9588 9661  2353 7900 8225  6776 11904 12224  7394 8681 11924  598 8810 11213  1406 8864 9370  2409 8881 11154  5507 7594 11827  3550 7599 12209  9042 11262 12317  5491 5677 10213  558 11701 11739  3464 7503 12750  4280 7544 10789  3645 8926 10219  663 7363 12385  4850 10415 11841  8696 9428 13036  5191 11129 12227  2957 8177 11286  7053 7750 11171  4139 8033 12033  8746 10163 11260  8497 8590 8593  5677 10214 11513  7195 11054 11578  8005 12047 12663  2230 2233 8610  7524 9116 9972  7906 7907 7908  4525 12007 12114  6520 8241 8242  9018 9958 12169  1588 1609 8178  421 751 9351  6350 8830 8831  5184 7684 7947  570 7753 11690  647 7898 9660  4911 10412 11015  7029 8186 11946  5460 7495 11842  1437 11269 12002  573 7627 8465  7275 9894 12049  7029 8186 12045  4467 5788 8737  8463 8464 11421  5575 7751 12262  565 7614 9882  7703 11737 12181  4152 4153 11475  629 12044 12547  1404 1422 8553  6170 7943 9078  7990 12007 12114  3519 3521 9891  6277 8745 8963  546 12047 12663  5558 7633 9689  10120 11627 11975  1520 8134 8135  8612 10612 11318  7962 11808 11846  2890 7355 12005  6025 8094 8428  2739 2773 9308  3284 8271 11529  7599 12096 12209  3980 8372 9764  4980 8141 12041  3394 9508 9510  9337 9338 10566  3672 8309 12624  6618 7770 7777  2747 9432 9434  7212 7727 10963  5162 7885 9676  7957 11904 12224  162 163 8484  2867 8574 8576  747 7587 7588  5677 7838 10213  7076 10195 10747  4407 9659 11161  4153 7638 12502  3654 3656 9240  725 8219 12083  7306 11765 12034  8209 8910 8911  6559 7483 11458  8110 8913 12469  672 8158 11532  7036 10600 11939  697 8030 9682  5420 9358 11911  4200 7642 11747  9171 9327 9333  1786 7907 7908  3034 9406 12193  5000 7693 8006  1498 7731 10520  5032 9076 10942  3464 7503 11516  5788 8692 8735  6105 8229 11688  622 7576 11031  5114 7585 11467  4426 9605 12844  7190 9113 11769  714 11605 11651  7523 7791 12835  5260 6629 8074  7236 12044 12547  8268 8269 11232  6312 7398 12988  12054 12171 12988  598 8650 8810  7518 10553 11157  1067 3488 8213  6550 7193 10532  1960 11450 11772  372 8725 12630  541 759 12778  372 8725 11723  5555 10342 12048  7576 10105 11897  7111 10214 11513  7277 8621 11460  2635 2638 7834  1556 8470 8471  5732 7683 11724  5130 7851 7852  665 7933 7935  8052 8053 8490  6014 6015 7847  546 10180 12663  3552 7759 7761  3881 8085 11011  2005 10086 12235  1380 1383 7833  5354 11990 12258  6520 8242 11118  6176 7666 9114  7082 7585 11023  7023 11526 11835  7520 7809 11234  7277 8621 12029  8021 9605 11598  5939 8041 8782  734 7672 8984  725 8219 12199  4139 8033 12276  5980 7420 9116  5907 8454 11408  8763 8764 11415  5867 6596 10174  7072 12408 12431  7129 7830 12249  7809 11234 11768  850 8075 11190  7510 10412 11015  6096 8104 10420  5768 11907 11970  740 7712 7973  7499 11405 12458  8196 11746 12132  3971 11528 11807  3870 3872 8964  5126 6532 11879  7193 10532 10913  5718 7823 7825  6220 9798 10811  680 7721 11309  8188 9802 11583  1649 11296 11509  6407 7856 10849  3953 5317 8131  6499 10275 10376  4608 5465 7853  2549 12145 12439  4761 9116 9972  625 9703 10947  6032 7758 8200  5270 7560 11470  6706 11716 11721  4658 8059 10092  4200 7642 11965  1187 1190 8487  7710 7711 9222  1514 8774 11881  3198 11666 11892  9814 12066 12308  7911 11701 11739  2633 7834 9874  3842 9568 11748  617 11488 11527  5575 8090 8611  756 7902 8076  7633 10504 11774  7779 11404 11490  5830 7996 7998  665 7935 7936  5088 8541 11775  6015 7845 8252  5772 6041 7864  6613 7993 10432  6268 9149 12909  6205 10173 10174  3034 9406 12303  4938 10156 10619  7386 7713 8248  3672 8309 11696  3188 9814 11712  2738 8865 11788  2799 2801 7729  4989 8041 8782  7200 10014 12295  1136 1140 10039  2632 2633 9874  9338 10566 11272  2353 7900 8224  7036 10600 11913  705 7604 9865  7726 8533 12250  9754 11907 11970  8904 11507 11534  7237 10957 12821  3154 3156 10462  6240 8241 9767  5093 6550 11997  5669 8541 12153  8249 11737 12181  5163 8380 11351  7172 9996 12620  1429 11498 11713  6551 8381 11966  6275 8941 11585  4280 10789 11305  5629 8052 8490  2323 11627 11975  6960 7948 8248  707 10734 11066  8826 8827 12670  2391 9856 11684  7726 8533 11882  3394 9508 9509  4401 5196 10580  5354 10890 12258  715 11380 11420  613 7710 9223  9797 9798 10811  397 663 8683  5558 7633 10504  6559 7483 11659  7706 11507 11534  5660 6603 9890  5692 5694 7995  3338 10003 11265  4059 12167 12728  4574 4576 7744  6033 7758 10010  7733 11296 11509  7378 11921 12258  5941 5978 9114  2303 2364 8983  7538 11631 11671  5196 7950 10580  7076 9848 10747  3721 7723 7787  135 136 7634  2771 11979 12110  6350 8831 10210  4250 4690 7952  4190 11765 12034  2556 9258 11172  5732 7683 11988  1259 1262 9034  5690 8547 12737  5622 7951 9382  3721 7722 13108  2951 10630 11087  5127 7943 9078  6897 8773 9987  1763 7905 8234  3803 8773 9987  2923 8493 11809  5660 6462 9890  6717 7820 9815  6443 9111 13083  7742 7744 7746  5624 6350 8830  454 665 7936  399 400 8277  4986 11119 11220  6627 8825 10773  6694 7803 10185  5555 10342 12388  5591 7776 11413  1824 9136 10241  5114 7585 11810  6281 9000 9001  5937 7781 7829  6583 7636 11413  563 11219 11278  729 8121 8615  7082 11023 12097  7888 11605 11651  6084 6830 8219  1520 8134 11164  5026 10325 12872  6025 8094 8429  850 8075 9485  2596 8287 8288  2587 8387 8828  3704 10553 11157  3525 9890 9891  7227 11130 12416  8188 9802 11811  5735 12066 12308  1605 8015 10333  8517 12400 12938  2005 10086 12124  7802 10879 11032  6546 7748 7769  3708 9669 11007  4679 12037 12568  7534 10179 10180  3840 3842 9568  4690 7699 8895  6116 9755 9910  6668 10879 11032  5961 7856 10849  8140 10389 11094  5959 8119 11283  6359 11476 12204  6127 9018 9958  5132 6202 8198  6793 9002 9677  7352 11472 12527  5329 7945 7946  7257 11450 11772  6299 7571 11240  8090 8091 8611  9054 9446 10824  1186 5625 8487  1530 7794 7923  3473 7849 10746  6013 6015 8252  9421 9424 11030  1515 1525 8434  2895 7840 9488  632 8435 8436  1824 10241 12989  7830 12249 12351  5306 9110 9656  7280 11666 11892  7411 7653 11209  8497 8590 8592  3502 5127 7945  4576 7741 8179  1528 1815 9108  7200 9823 12505  5976 8255 11685  8195 9689 10515  8842 8861 9370  7435 8104 10420  3332 7630 11743  10239 10593 12038  9857 12156 12552  4547 11631 11671  572 9440 10954  7696 10789 11305  448 671 8093  7273 11100 11101  6621 8115 8300  2936 3882 9140  5690 8547 12905  4451 7615 10117  6382 11228 11416  6516 8621 11460  4827 7893 9908  514 727 8382  6539 9102 11304  6102 6666 9395  7668 10913 12287  6638 8231 11644  8209 8911 8912  4907 7832 8553  5551 6577 7922  6931 8225 10327  7441 8666 10348  449 8093 9702  7861 11488 11527  7883 9676 13104  2583 9199 9827  7252 9389 11692  8905 9147 11790  5669 8541 12312  3488 7872 8213  10316 10591 13165  4131 9267 10346  8235 11923 12615  7109 9798 11568  7655 9659 11161  2738 8865 12179  515 657 8382  4210 4576 8179  8387 9132 11663  7973 7974 10137  1755 10835 11008  7092 9670 12526  1606 1610 10333  5481 6922 8097  1922 1959 9500  4757 4758 9115  2345 9097 9098  7890 8192 12755  7668 10913 11481  5616 10133 10277  1429 9585 11713  2741 4131 9308  7273 11101 12320  43 652 8629  8094 8428 10628  7344 8091 11826  7971 11381 11731  5439 8285 9058  3332 7630 11905  5799 7695 8107  5716 11168 12239  5288 10063 11563  5931 9252 9253  6488 8285 9058  4826 7929 7931  3598 12610 12816  9313 9315 11655  2411 2414 8881  5766 7659 10272  718 7680 11409  6519 7946 13175  2801 5131 7729  7614 9623 9863  440 8098 11852  7128 10214 12056  6622 7690 13105  5045 5943 12789  3881 7804 12993  7451 9428 13036  8576 8577 8578  7757 10734 11066  543 7815 10803  7543 10160 11074  3847 3852 9568  6242 7251 9539  2737 2740 10376  5622 7917 7951  3894 12156 12552  2941 9139 9140  7128 12098 12249  9424 11030 12231  150 634 10675  151 752 10675  3631 3633 10219  7146 9555 12483  8921 8924 12166  6010 7437 8531  5247 5249 7801  7406 11370 12068  7821 11380 11420  6841 7771 9954  7460 9526 11307  4152 4679 12037  4619 9771 11518  6024 6789 8430  8323 9669 11007  1982 8369 12587  440 8098 12621  5821 7429 7919  4445 8428 10628  5365 8163 13097  7082 7585 11467  6876 7927 8247  6640 8044 10588  1745 6640 8044  8023 8235 11923  5480 5937 7829  6702 8130 8144  4357 6382 11416  2795 10174 11736  5804 12655 13105  601 7949 11452  8458 11110 11446  6685 9136 10334  6270 11381 12315  3692 3694 10899  7355 11948 12005  7075 8464 11421  4966 11828 12374  163 682 8484  7023 8102 11526  9169 11672 12201  200 593 8204  4557 8496 8592  4137 4619 9772  6127 9018 10971  6717 9815 11067  8000 8003 10132  7202 8130 8144  7681 7806 12457  6045 7812 8233  3222 9042 11515  549 8038 10103  7790 11219 11278  2996 7869 8788  6784 7997 11665  5342 11565 11639  5937 7781 8096  8413 12610 12816  2867 8574 8883  8948 11061 12070  7128 10214 12098  7152 9536 11625  4891 8980 8981  4535 5474 11230  7742 7746 12788  6287 7516 10338  6763 7187 12020  7355 7768 11948  2556 9258 11549  139 757 762  7484 11269 12002  9445 9446 10824  6562 11239 11261  4989 8039 8041  5507 7700 13050  4426 9605 11598  1755 10835 12693  4419 9195 10311  2938 2941 9140  4632 7948 8248  8367 11338 12396  5130 7852 7853  3222 9042 11262  393 7798 11738  5788 8735 8737  5355 11055 12080  3120 8992 12678  5277 7003 7896  7128 7129 12249  5007 9802 11583  691 8432 9492  5342 6293 11565  7852 7853 7855  6486 9187 10969  7302 7371 11556  4090 9665 12277  2745 9307 10346  3127 7754 9189  8627 8628 10841  4862 8208 8910  2300 9334 11554  7345 9551 11586  4922 12171 12988  6085 8215 8217  7122 7890 8192  5710 6747 8287  4100 8003 10132  5007 9802 12794  6459 11065 12239  2218 2225 7787  590 8054 9014  6225 9032 10762  775 777 8282  658 7719 11045  7200 9823 12627  5257 7904 8234  734 7672 10958  5585 7403 9026  3856 4750 13152  7975 12408 12431  5707 5976 9469  3516 3552 7761  9383 11470 12024  3706 3710 9676  6585 8829 9492  5369 7744 7745  5575 7751 12600  1487 11677 12297  2345 9098 12595  2756 10275 10375  7572 11979 12110  7598 11504 12367  2787 7538 11671  4373 10436 11633  1496 7664 10936  5585 5587 9026  6751 11758 12265  8992 11580 12678  8180 8441 12246  4079 10146 11941  2987 2996 8788  1292 9205 11190  3712 5162 9415  2583 9827 9828  637 9002 9677  3518 3520 8622  7170 7913 9102  2669 10882 12242  309 7979 7981  1986 1997 10763  6600 6601 10533  6793 9466 9882  4981 10021 11231  2300 2336 9334  6546 7748 9804  393 7798 12751  6554 9389 9390  4981 10021 13010  7202 8130 11881  3972 10528 10910  2281 11253 12159  9269 9308 9309  1982 8369 12799  1781 9700 11169  6605 8268 11232  6368 8628 10841  5994 5996 8653  5692 7995 8082  1020 7727 10963  737 8203 10126  1163 8825 10773  7788 7789 11299  5268 9357 11862  7096 9560 12298  757 762 7816  8746 8752 10163  572 9440 12112  5677 7838 10214  6634 11817 12541  6011 7513 8531  1745 9909 10778  6642 11134 11662  7334 11584 11931  5270 7560 12776  7509 9608 9962  6619 8263 10790  4523 7755 7960  6212 9322 12601  6640 8469 8471  4040 10367 12842  9653 9654 11648  3707 10160 11074  4534 9644 10592  2521 2530 9828  1496 7664 13167  6891 11079 11868  2960 9011 9956  3716 5617 9334  5618 10068 10069  2011 2020 8577  621 8615 11182  5124 11716 11721  706 8626 8629  6177 8915 10615  7496 9153 11198  900 1394 9189  8208 8209 8910  6564 10457 12609  6111 7655 11161  6532 8207 11879  1067 1069 8213  3453 3456 10089  10316 10591 10928  1974 8505 12014  405 11889 12180  3463 7689 10505  9812 9845 12370  3065 8913 10547  8927 10217 10218  2631 7895 10295  5272 9614 11426  8581 8584 11079  4558 10338 10536  7897 10079 11571  6181 6539 9102  5558 9689 10515  4090 9665 12440  7978 9771 11518  5938 7920 7921  6603 9889 9890  4710 8035 8125  9233 10021 11231  6519 7946 10682  1295 10982 12155  707 7715 10401  199 705 8204  1974 8505 12036  2407 5581 11154  7152 9536 12612  7806 12457 12481  5581 8879 11379  2873 9503 10965  6922 8097 8098  2867 8576 8577  6174 8961 12696  4753 6698 8462  2331 8283 8284  2847 8481 11033  8890 8891 9968  9202 11464 11956  7789 11299 11362  11031 11728 11977  1811 10334 11544  8628 8629 13059  6583 11413 11418  598 8650 11339  6041 7864 7865  10076 10087 12124  8180 8441 12450  5131 7516 8131  6534 6815 8083  7096 9560 12365  9720 9781 10229  7550 7551 12953  8831 9617 10210  2386 9894 12049  6666 9394 9395  5564 12065 12593  6659 9467 10254  8840 8864 9370  4653 8502 10344  6908 7637 12213  3008 3012 11340  5507 7700 11609  5182 6369 9176  7622 11423 11757  169 758 7667  7534 11641 12354  2341 2382 11953  7654 7879 12129  8836 8838 9368  565 9466 9882  10134 12338 12438  9741 12507 12661  706 8625 8626  2719 4047 9437  3223 7767 9886  4104 8593 11335  2137 7682 12652  7501 10821 11403  2787 7538 12585  8469 8470 8471  3872 4434 8964  4503 4710 9753  7927 9032 10762  8586 8587 8594  9618 11254 11426  2847 2848 8179  7481 8913 10547  2015 9417 12232  7366 9240 13033  7092 9670 11526  8705 11758 12265  3930 3931 9772  2933 7720 12252  2603 2604 12877  570 8057 11912  3053 6810 8164  4933 9676 13104  3463 7689 10997  638 9008 11720  758 7667 7704  4419 9195 11308  7724 9111 13083  2319 2320 9967  4419 10100 10311  2994 3098 12862  2160 11020 11691  5821 7919 7938  634 8437 10674  1156 10039 11898  9407 9408 11796  6810 8163 8164  7897 10079 12306  4439 7450 12492  7629 7858 11250  744 8192 12279  8964 9011 9956  5288 10063 11749  6698 8013 11189  7371 11556 12650  4620 8145 9710  7970 7971 11731  1003 11635 12200  7085 11977 12299  1924 3955 9500  6621 6622 8115  1182 3881 8085  5465 7853 7854  7324 7773 11531  1914 8371 11078  7448 12562 12563  6685 9136 10241  6554 9390 10193  1020 7727 11374  6539 9467 10254  8496 8497 8592  5277 7896 7939  6629 8071 8072  2643 2656 9520  9839 11828 12374  2945 9030 9138  6805 7815 10803  5641 11334 11704  721 10224 11637  7565 12280 12379  2786 7866 9016  8572 8574 8883  6645 7840 9488  2945 2946 11395  7288 12477 12738  4907 7831 7833  4241 11745 12050  4331 8252 9861  2058 9108 11275  7749 10528 10910  637 9677 10589  544 8796 11533  7324 11531 11619  6544 8888 8967  7266 9773 11708  7025 8454 11408  6618 7777 8264  7434 9322 12827  5789 9510 10437  6419 7811 9176  6598 7881 9135  8503 12229 12353  7549 12455 12484  1424 11233 11485  8203 10126 12474  5272 11254 11426  4640 7986 11195  1297 11686 11833  2734 2736 11399  3645 8926 13069  4710 8035 9753  493 11632 12244  5621 9068 10779  577 11672 12201  637 10401 10589  4833 7772 8391  4343 5277 7939  557 10000 11056  2779 9315 11655  3602 4192 8424  5459 7859 7889  7267 7770 12722  10208 12665 12931  6369 8656 9176  5805 6399 8020  2449 9316 12214  2520 10987 11385  9139 9140 11548  9327 9328 9333  777 2060 8282  6502 8111 11561  694 9551 11586  5339 8262 10889  4833 7772 8176  9030 9031 9138  139 140 757  5459 7859 7916  1424 6127 10971  4373 7696 11305  6102 6104 9395  6567 7880 9186  7701 8151 11547  1590 4833 8178  6174 8961 12782  7900 8225 10327  2919 7734 12578  7549 7955 12484  7195 7893 11054  7501 8154 11403  2847 8179 11033  2933 7720 12412  5268 9357 11961  656 9326 11681  7667 7704 13101  1745 8044 10778  4495 12272 12487  7182 9814 11712  6845 8035 8125  4896 4911 11682  2919 7734 11959  3591 9129 12815  5756 11744 12072  7227 7692 11130  9933 12065 12593  7351 9759 9777  5968 7594 11827  4349 4725 8087  9588 9589 9661  4251 9144 12466  681 7901 7976  8273 9100 9101  5718 7823 8161  7298 10304 12736  7539 12272 12487  6361 11645 12304  6713 9439 10465  2947 12158 12319  8736 8737 11703  544 8796 12635  9306 10987 11385  8744 8747 8750  5252 10087 12152  6564 10457 12849  4661 5341 11196  10417 11476 12204  7245 12106 12368  8061 8069 10092  9253 12123 12500  7730 12172 12537  4781 8821 8822  5926 7455 7992  8136 8138 11158  396 8683 10169  1921 1923 8375  8158 8165 11532  8613 8614 11182  3012 8110 11340  2035 8150 9068  4043 8141 11614  3827 9761 10607  6242 6517 9539  7840 8075 9485  1867 1869 9097  9233 11231 11511  5968 7594 12686  8626 8628 8629  579 11237 12012  4725 7867 8086  8001 11677 12297  7654 12129 12289  6333 7677 10962  6710 7814 10222  4192 4478 8424  8079 11746 12132  1383 4907 7833  6585 8432 9492  703 9623 9863  7084 7085 12299  539 720 7858  7177 7871 7926  2631 10029 11261  7735 10310 12092  6640 8469 10588  8816 12158 12319  9246 12418 12745  3324 7701 7702  9450 11689 11741  4726 8296 8642  4203 7927 8247  6240 6333 9767  5575 8090 12262  1375 7574 12721  6566 8118 12165  9153 9154 11198  7227 7692 11334  6660 8941 11585  7080 9373 11290  2941 9138 9139  6204 7736 11820  1398 12172 12537  5099 9444 9446  7895 10295 11069  6601 10533 11054  9139 11300 11548  3968 7811 9906  6738 9761 10607  987 11264 11505  3552 7760 8622  4753 8462 9428  5092 5821 7938  4439 7450 12730  5221 12183 12515  658 7719 12786  8296 8297 8642  9516 10642 11324  8175 8591 8594  2348 8083 8084  6659 9454 10202  7136 11055 12080  4523 7755 10117  10224 11637 12360  6826 10941 10993  1292 9205 13008  3654 4358 9240  4608 5130 7853  2631 7895 11261  3801 10440 10486  5173 5799 8107  4621 12507 12661  8927 10217 10219  1496 9620 10936  5772 7864 8246  2743 4131 10346  4977 4978 11436  3644 11850 12141  7268 8150 9068  8111 11561 12142  3720 8397 10143  4151 10122 10535  44 706 8629  7856 7857 11331  674 10586 12270  1375 7574 12865  707 7715 10734  2398 11539 11630  4906 6031 8614  4789 4791 9576  6530 11356 11634  2449 9316 12364  7266 9773 12812  559 8778 11447  2229 2230 8610  7003 7896 7897  7752 11090 12169  7575 9384 10990  6960 7386 8248  7159 9651 11500  3464 10270 11516  10119 10120 11383  6613 10071 10432  5151 6704 8016  6669 10484 10611  5240 9618 11254  5480 7829 8202  2587 8387 9132  116 7775 10916  7726 11882 12657  5418 10573 11824  6465 7780 10065  1160 7716 11318  2596 8295 12843  1422 1449 8553  1424 10971 11233  6039 9113 9629  5737 9654 11648  4179 9903 11021  3980 8372 10114  8316 11745 12050  7570 11597 12554  8519 11858 12103  5860 5862 13012  10703 12256 12413  9812 9845 11621  5766 7659 11615  3821 9415 12928  5130 7851 7892  3678 9010 12556  8503 8506 12353  6573 11741 11825  10801 11882 12657  1258 1259 9034  5066 7780 10065  3819 10295 11069  8397 11233 11485  7914 9099 9100  168 169 758  9459 10998 11075  1391 7642 11747  898 3127 9189  1498 7731 12804  2409 2411 8881  7735 10310 12578  6573 11689 11741  1080 7768 11948  6550 10532 11997  698 9445 9447  4097 7940 9851  7453 9797 11815  4805 5459 7916  5163 7628 12912  6815 8083 8376  10124 12127 12518  3117 8866 9367  3591 9129 11550  7490 11009 11229  7973 10137 12219  7298 10304 12891  739 10134 12338  6774 9651 11500  137 679 7512  8198 10941 10993  6712 7802 10465  7658 12665 12931  5874 7706 11534  3459 8087 12847  4325 9875 11166  6566 8118 12401  4891 8981 8983  2009 2867 8577  677 8012 11836  4229 4255 7892  6892 8112 10933  7080 11237 11290  7559 8119 11283  3970 8648 12769  9595 12316 12349  6204 7736 12783  1181 7673 11787  4059 9936 12167  4758 4761 9115  4251 9144 12679  7259 11061 12070  11062 12236 12361  7144 7565 12280  601 7949 12340  5285 9095 10850  5675 7812 11370  6870 11280 11425  4310 8112 10933  4450 8786 11275  1001 12316 12349  5938 7919 7920  5625 8025 8487  5581 8879 11154  8618 8721 8723  5544 8014 10333  3127 9188 9696  1528 8787 9108  7547 12451 12742  581 8277 12876  4253 6573 11825  7429 7919 7920  5635 5791 9912  5268 10063 11749  2295 9331 9335  648 9373 11047  8694 12724 12862  6309 8827 12670  4167 7999 9455  7352 7683 11472  7506 7762 11209  3365 8675 8687  7074 8786 11036  2428 7773 11531  6614 8665 8666  7776 12087 12192  7560 11470 12024  7186 9147 11790  7649 12339 12565  5407 7177 7926  8671 8672 12975  6670 9909 10778  2756 9047 10375  6670 9385 9909  8136 11158 12683  2364 2777 8983  8924 12325 12407  9112 9113 9629  1998 9468 10656  4215 8089 11855  6617 7699 8895  2225 3721 7787  3968 9384 10990  574 10917 11698  7526 7528 9530  1248 12161 12255  7951 7952 9382  4859 5718 12956  3678 9010 12064  9770 10310 12578  739 7808 12338  6096 8104 9963  111 7762 11856  7199 11464 11956  8996 8997 8998  2721 2747 9437  5457 5459 7890  735 8778 11861  5307 8634 11012  727 7753 11251  8735 8736 8737  9094 9095 11282  3604 8653 9844  662 8710 11603  10586 12270 12845  7857 11319 11331  6272 11280 11402  7887 11137 11145  7278 12029 12309  3241 11774 12300  6630 8200 8298  7667 7668 13101  9508 9510 10437  7715 10401 10589  552 8636 12542  3694 8823 10899  5341 11196 11263  4640 7988 7989  4956 7653 12154  638 11720 12526  7051 11264 11505  7833 10003 11265  7522 10848 11663  5625 7864 8246  8576 8578 12122  739 7808 11981  673 8605 8606  631 7634 12309  10026 11744 12072  1913 9811 12095  6720 7240 9154  5030 7788 11075  2851 2852 11173  4413 4768 8380  10450 11804 12149  7083 12473 12559  7392 12183 12515  1923 2000 8375  6813 10627 10653  4180 5657 8006  2748 12106 12368  6196 7721 8028  6577 7922 8887  5976 9469 11685  7603 8204 8205  851 1292 11190  4523 7960 10514  7085 11031 11977  563 7757 11066  307 681 7901  1102 11522 11874  9739 10951 12173  6973 11705 11876  6419 7811 9906  7494 7729 13115  6333 9767 10962  8140 10389 11643  6630 7758 8200  659 8267 9366  6659 10202 10254  6216 9396 11067  3970 8648 12831  2389 4730 8022  1960 7749 10910  7068 8992 11522  738 10127 12210  9688 11184 11333  4839 5145 9111  6399 8020 8021  1622 7630 11905  7893 9038 9908  6554 9389 11692  7581 10662 13173  1239 12256 12413  5618 10068 11048  6700 8233 8598  8862 12161 12255  308 309 7979  7570 11597 13058  2033 9381 12584  7776 10347 12192  6998 11641 12354  4426 8010 12278  2895 7840 9485  4956 7653 12115  5629 8052 9726  7459 8271 11529  4331 8986 10908  3514 7761 10356  6403 9559 12941  5462 8958 9450  7634 10829 12819  1175 1176 8647  7049 11065 12239  7547 7548 12742  6084 6085 8219  3473 9079 10746  2862 9262 9307  7944 8511 11220  4200 11965 12099  5306 9110 10509  5641 7969 11334  4151 10122 10732  2388 4686 9009  8165 11532 12459  6791 7698 11797  8642 8643 8644  3704 7738 11157  3827 7863 9766  8590 8593 11364  1867 2345 9097  2645 5032 9520  4661 5339 10889  3223 7767 10171  5641 7969 9319  6116 7065 9755  4958 8020 8021  7352 7683 11724  9401 9402 12464  2090 2295 9335  718 7680 12387  5474 9348 12608  2862 9261 9262  570 8057 12436  7187 7549 12455  5978 7420 9114  7187 7549 12389  6603 9540 9889  1730 7740 13169  749 10163 11260  7540 7813 11432  6896 7649 11917  8669 8915 9824  1347 12419 12893  3698 3700 9892  9338 11272 11706  4826 7931 10228  9402 12464 12564  5296 5297 10663  4020 11499 12358  3136 9151 9490  8100 8254 9029  1404 4907 8553  5106 5629 9726  4658 8058 8059  1080 7768 12632  5946 9246 12745  6773 7898 10964  6795 9155 9156  4478 8402 8424  7047 8958 9450  10120 11383 11627  6473 9503 10965  2562 2596 8156  4609 7963 9746  2281 10119 11253  3098 8694 12862  3968 9906 10990  6521 8437 10674  1253 7942 10022  8575 8576 11793  616 9840 11906  10103 12432 12894  5710 5715 8287  3464 10270 11987  5268 10063 11862  2615 2617 10348  7956 11817 12541  7260 11539 11613  4730 7998 8022  4136 7989 11770  3452 10997 11336  6908 7637 12945  6085 8215 8929  987 9848 11264  4891 8980 9452  6403 9559 12834  2584 7600 12381  987 9848 10747  6934 9875 11166  5272 9614 11545  8938 11168 12239  2038 10215 11325  5343 11482 11986  6169 8146 10311  5331 6605 11368  7505 7762 12680  1391 7642 12870  2033 9381 12880  3135 3231 7954  4215 8270 11855  10657 11752 12062  6111 7655 13065  3689 10633 11468  6626 7875 11582  4358 9240 13033  4938 10627 10653  6834 10805 11435  111 7762 12680  1945 11680 11785  8429 8430 12868  8456 8457 9660  4753 8695 9428  1145 8612 11318  2769 11272 11706  2960 2961 11199  3707 10201 11074  9545 10523 13126  7689 10997 11336  7187 10360 12020  2583 9199 10444  5304 12325 12407  5312 7083 12559  7439 8669 8914  9298 12414 12550  8106 8107 10649  2023 2029 7876  7494 9438 13115  8979 8982 9141  7439 8669 8915  10938 11602 12248  572 7670 12112  8201 11192 12490  4450 8786 12444  7005 11156 11562  8576 11793 12122  7649 8395 12565  7956 8868 11817  6766 7470 12254  8988 8989 10953  6979 8109 9859  7189 8806 8807  5789 9510 9966  799 801 7923  1730 7740 13134  7073 7778 13026  3631 3645 10219  7004 8190 11843  7539 7540 12531  7728 12655 13105  6405 10636 12518  5491 7474 10213  455 7936 10943  6004 6896 11352  2918 8800 11562  7405 12123 12500  4373 7696 11633  6085 8217 8219  1815 2058 9108  5361 10928 11434  5392 9545 10523  1140 1156 10039  1307 9083 11394  6199 11404 11490  740 7714 11462  3154 4265 10462  2281 10119 11383  4534 9644 9645  7466 11665 12244  7677 10962 11491  7860 7891 11213  6698 8462 11189  6641 7896 7897  6031 6811 8614  4781 8822 8823  5030 10998 11075  8587 8591 8594  10057 11182 12592  7902 8078 12897  2737 4040 10376  3658 3661 10117  7464 8055 12873  6870 7912 11425  6499 10367 10376  526 8218 12251  5622 7917 7954  4686 7947 9009  543 7815 12825  9269 9309 13077  5873 7991 8442  8527 10103 12432  7883 7885 9676  1961 11858 12103  7105 9826 11702  10316 10928 11434  3518 3552 8622  5773 9134 9412  2722 9305 12004  3038 3108 9325  6773 10917 10964  563 7757 11219  4331 8252 10908  7372 9462 11469  4465 8069 12980  9065 10606 10779  1649 9385 10793  7634 12309 12819  6896 8169 11352  3656 4451 9240  6712 6713 10465  2233 8610 13006  6789 8430 11945  5789 9729 9966  4200 4201 12099  8864 9368 9369  3108 4339 8161  321 11653 11681  1181 7673 11995  5273 7752 12169  2996 7869 11123  2690 7995 11027  5462 9216 11361  6354 10644 12102  7306 10201 11510  3706 4933 9676  4295 7913 9102  901 903 9371  5932 7018 11952  2745 2750 9307  928 9819 12221  7619 7822 11512  7437 8531 10462  8092 8093 8429  6816 7703 11737  6531 6532 11821  5799 7694 7695  8437 10675 13025  8421 9827 9828  2622 7441 13027  6704 8016 8017  2595 7813 11432  1463 8011 11422  7351 9759 10966  6340 8007 8008  10810 11497 11847  1757 1759 8234  2985 2987 8788  2203 10291 13090  7819 8982 9141  2251 4450 11275  686 9251 9253  4725 7867 9758  6567 7880 9187  8800 10977 11562  7277 7278 12029  121 9237 11271  7474 7820 10213  7928 8397 10143  8543 8545 8546  671 8004 8092  4465 8069 12614  3065 7848 9254  7539 12272 12531  559 8778 11861  2511 8095 9458  1806 8434 12514  2521 4073 9828  526 8218 12583  8530 11624 12646  5753 7619 8108  7064 7260 11613  1160 7716 12954  6613 10071 10650  7646 8646 12611  8370 10507 13116  5902 8129 9734  8784 8786 11036  4730 4841 7998  2428 7773 13022  6062 7877 9197  7997 8778 11665  4805 7916 8299  6079 9361 11711  9448 9970 11543  578 7771 11322  6717 10243 11067  7244 7958 12063  4545 5079 8583  5929 11757 12698  652 11134 11662  6962 8722 8724  5804 9917 13105  9515 9516 11324  3224 9228 9722  7743 8761 11227  2022 2023 7876  6989 11356 11634  7018 11952 12225  5379 8105 8106  2303 4891 8983  600 8752 11366  7356 8970 12948  3332 7733 11509  9417 12232 12900  5616 7478 10277  3890 4068 11005  6685 10334 11544  7610 10122 10732  6601 11054 11578  5474 9348 12882  1974 8503 12036  8924 10706 12166  3259 3261 8271  8557 10272 12479  4948 11804 12149  8175 8591 11068  1622 7630 12105  4478 8399 8402  7847 12167 12728  3011 9407 11796  1597 8391 8515  4885 7382 9586  6170 7644 7943  6562 7894 11261  1138 1150 8258  8581 8583 8584  3893 8027 8182  7392 8790 12183  3065 7848 10547  5407 7926 8377  6666 9393 9394  5150 9480 9481  9667 9668 12886  2822 7991 8442  4958 8021 9967  5269 8183 8274  2722 9305 12792  5521 7708 13095  4660 8423 10235  2840 2842 8481  6700 7812 8233  708 8102 9787  7902 7976 12897  7554 12477 12738  7620 11255 13063  5975 8100 8254  4268 9453 9454  5930 8950 11355  7240 11020 11691  7506 7653 12154  5939 8041 11083  3108 8161 9325  5297 7758 10010  9575 9576 11325  4884 12230 12329  2584 7600 12637  7070 12127 12518  5150 9477 9480  2945 9030 11395  7716 10612 11318  7366 7577 9240  3453 4346 10089  4989 8039 9753  7646 12611 12974  2747 9432 9437  715 7790 11278  8264 8793 10290  5902 9561 9734  2000 8305 8375  5941 6176 9114  666 8718 11604  4475 7910 11424  1960 7749 11450  10752 12625 12731  8529 8530 12646  6895 8054 11070  8838 8864 9368  6530 9625 11634  6941 7991 11998  5092 7938 8276  8618 8721 9725  727 7753 11690  6524 7904 11145  2632 2663 9874  2663 2693 11170  5952 8016 8017  5182 6419 9176  10272 12479 12898  5805 8020 8155  6747 8156 8287  7945 7946 12982  746 8527 11891  8041 11083 13023  665 7933 10175  8716 11889 12180  8097 8098 11852  1142 9759 10966  2000 8303 8305  4401 8275 10580  679 763 764  8040 8041 13023  7942 8511 10022  4632 7948 8433  1913 9811 12402  6713 9931 12301  8570 9866 10679  4128 8865 11444  6605 8268 11368  6791 7698 12796  7762 11209 11856  5997 7334 11931  3694 3696 8823  10253 11046 11606  5718 7825 12956  2861 10927 11025  9797 10811 11815  6901 9148 12060  8412 9199 10444  6003 8989 10953  3979 10551 11232  1136 3893 10039  6712 7802 10879  648 11047 11084  9825 12324 12405  7969 9319 9747  3833 3835 8386  7737 10144 10148  4343 7939 8466  1605 1606 10333  6996 9700 11169  8899 11645 12304  6791 10065 11168  5276 8013 11189  4980 8139 11643  4880 8937 10041  7409 7999 9455  3721 8212 13108  7244 12063 12159  2756 9047 10722  4686 4688 7947  2769 9318 11706  4658 8058 8243  4366 5283 9333  3704 7738 11528  5369 7745 8740  3486 7654 12289  7826 8158 8165  7001 8113 8114  10235 10236 10442  6868 8388 10937  7636 7776 11413  8927 10218 10365  4747 9916 10438  6759 9857 11794  5394 7001 8113  6862 11652 12744  2328 10109 12470  7371 7372 9462  2749 12414 12550  5179 5947 8450  7488 11043 12713  8086 8088 9791  5591 7077 11413  2590 2605 11095  2851 7839 11025  801 1530 7923  8146 10311 11787  6710 7814 10636  4050 9048 11118  7901 7902 7976  7157 11909 12026  7542 11774 12300  6614 8665 10748  2786 7866 9937  7068 8992 11580  7617 7618 13142  6907 10657 11517  8999 9886 11028  6083 8929 9794  6673 11048 11575  2509 2512 9459  6018 8109 9859  9057 9058 11599  2883 8228 12790  7971 11381 12315  1380 7833 10003  957 11417 11759  5776 8043 8157  2931 9724 11186  2511 8095 9459  6762 9720 10229  2883 8228 12535  2001 7649 12339  4255 5130 7892  9581 9582 12572  2414 4904 8881  7662 12419 12893  2218 7787 9916  6816 7703 12871  4239 5031 8259  5657 7693 8006  9148 9149 12909  3156 3218 10462  3801 9183 10440  4055 4545 8583  5955 5957 8396  6293 8240 11565  6462 9890 9891  4791 9224 9576  8483 11133 12222  6534 8083 8084  7532 7800 7815  3870 8964 9956  4126 7687 12328  8579 10450 11461  5481 5937 8097  2024 11752 12062  1511 1528 8787  4216 7705 12091  1352 11673 11940  8873 9660 9661  662 8710 12732  7306 11510 11765  6753 8084 12579  3603 10033 12046  7564 10573 11824  226 227 9447  550 7809 11768  9251 9252 9253  7542 12300 12789  4841 5830 7998  4885 5902 10694  2842 2847 8481  4661 10889 11196  2137 7682 12888  7522 8388 11663  7682 8880 9671  7866 9016 9934  547 8070 13028  6498 9903 11021  3304 11909 12026  8117 8118 11312  6619 8688 10788  630 10805 11435  9006 9110 9656  6382 7584 12647  7160 9252 12344  3760 8243 10166  542 8046 9351  7632 8729 13001  3955 8680 10259  3942 11176 11581  8118 11206 11312  9101 9995 10004  4001 8665 10748  8597 9344 10490  3707 10201 11510  5551 5938 7922  8633 8634 11012  1511 1527 8787  4089 8373 9854  1182 8085 8647  720 8223 11250  6137 8572 8883  6504 11203 11396  5948 5950 8775  7297 8223 11926  10068 11048 11575  5246 11511 11857  6426 9468 10656  6136 7928 10143  4477 7621 12698  6669 9604 10484  6764 8195 9562  7080 11237 12012  4757 7666 9115  1610 5544 10333  7904 7905 8234  3151 9757 11287  3827 7863 10607  4688 5184 7947  6082 8661 8799  8092 8094 8429  4048 8688 10788  6895 11070 11084  5966 9006 9109  7772 8391 8515  4822 12174 12294  2874 4180 8006  5273 7752 12600  540 759 7858  5893 7975 8259  3385 8813 12662  7692 11334 11704  4413 5163 8380  5908 5910 8806  7707 12839 13095  8599 11840 12212  8710 10830 13086  4201 12099 12262  1134 1138 8258  4820 8627 10841  6932 8023 11923  572 7670 12942  698 9445 10824  10407 11933 11954  3053 8164 10981  647 7898 10964  2747 9434 10456  719 7747 12467  1062 11878 12120  4997 9206 9208  715 7790 11380  6629 8072 8074  2562 2570 8156  5297 10010 10663  4366 5617 9333  7479 10944 12820  4268 9454 10202  683 8080 12704  5926 7992 8450  137 138 679  2740 10275 10376  3117 8866 9368  5249 7800 7801  6944 12421 12451  7852 7855 12131  5462 8958 11361  3785 8509 9717  8957 10218 10365  6024 6025 8430  5966 9006 9110  6428 11294 11387  9092 9095 10850  6244 12377 12499  5030 7788 11299  7068 11522 11874  6979 8109 9860  6829 8056 8451  7868 8086 9791  4904 8876 8878  6803 8392 9716  517 7791 12835  1976 1986 10763  7441 8666 9666  7390 7639 9945  7839 10927 11025  5208 11216 12060  5742 5744 9190  540 541 759  4183 8422 13151  3488 7872 10229  5353 7994 8396  8307 8375 11038  3321 7830 12351  9233 11511 11857  6519 8245 13175  547 8070 12922  6369 8656 9177  9512 11850 12141  3633 10217 10219  5524 8034 8286  3520 3890 8622  2834 8776 9463  6064 6066 9863  7711 9221 9222  2382 10944 11953  11558 12473 12546  7548 8731 12742  9621 9625 11634  10890 11921 12258  2320 2373 9967  8404 8424 11225  9581 12572 12701  4854 5805 8155  9487 11845 12478  5208 6901 12060  6033 8458 11446  6046 7812 11370  8619 10970 11960  5989 6443 7468  6103 7502 13055  2795 10173 10174  7356 8970 12994  9591 11635 12200  8386 8387 8828  7805 9185 12660  2750 2862 9307  7615 7755 10117  5383 8544 12516  6034 8159 8160  7702 10643 12878  5802 10395 13015  7361 7660 12594  8225 9866 10679  723 8152 9494  6670 9385 10793  7922 8887 12917  6079 9361 12903  1649 10793 11296  7240 9154 11020  2605 9852 10533  1781 9534 9700  3692 5099 10899  3780 9755 9910  5888 5890 9038  3851 4320 9567  6628 8966 9902  6062 10133 10277  648 9373 11290  5145 5989 6443  6692 8270 10142  3200 3203 8986  7442 12243 12394  4690 7951 7952  6895 11047 11084  6443 7468 8012  2048 11215 11784  5287 8737 11703  6629 8071 10668  2546 12043 12168  9094 11282 11908  5621 10606 10779  588 8761 12146  6558 8099 8994  8561 9560 10710  3710 5162 9676  8812 9254 10549  6751 8764 11758  3801 9183 9853  5162 9414 9415  5379 5380 8105  4339 5718 8161  1230 7912 11425  9387 12104 12206  4126 10270 11987  2822 2823 8442  6034 8159 9714  3231 5622 7954  7945 11220 12982  5181 8034 12433  4960 5780 9362  5292 9344 10490  6505 11184 11333  172 8558 13084  4527 11767 11914  7880 9186 9820  6598 9135 9858  8661 8662 8799  6962 8724 11830  6211 12959 13060  2789 4077 8236  9057 11599 11652  2983 2985 11000  7480 12337 12469  6382 7584 12677  7968 12230 12329  9047 9048 10722  7481 8913 12469  562 10079 12306  8861 9370 13005  4077 8214 8236  4216 7705 11993  3735 3737 8211  1273 11779 11853  8890 9968 12967  617 7821 11420  5943 7542 12789  8008 8009 8010  8260 9899 11041  6958 11602 12248  7390 7391 9945  517 7791 12604  5635 7165 9912  7029 10008 11946  2530 2583 9828  3050 3053 10981  7826 7827 8165  6621 8300 10198  3132 7880 9187  5271 8979 9141  4259 4874 8190  8636 8637 12542  170 171 678  7545 12649 12656  7619 8108 8196  5729 11872 12075  2328 10109 12771  7495 11842 12497  3685 3690 10325  1913 9839 11828  6874 8018 11113  5716 10065 11168  7004 8190 12461  3228 11619 11896  6614 8666 10348  7073 7778 11490  6642 7670 11134  5699 12341 12582  5952 7843 11446  4136 7989 12664  4911 10412 11682  8762 8763 8769  3989 10449 11992  5621 9068 12814  8106 10649 12641  172 10805 13084  3823 4689 8728  4781 8821 9892  6526 7941 11308  769 2787 8193  7146 10303 12483  8807 9833 12307  4549 8198 10993  3696 4781 8823  7224 12330 12829  7814 10636 12518  576 7526 13035  1974 8503 12229  7466 11632 12244  4126 10270 12328  6648 10633 11468  6805 7532 7815  7707 8232 12839  10894 12516 12737  7209 12693 12775  4660 10235 10442  7684 7685 7947  7383 11482 11986  7489 8026 8998  7777 8264 10290  6231 8392 10176  5151 8016 8775  3486 7654 12523  4165 9925 10016  3203 4331 8986  2960 9011 11199  6172 7209 12775  7490 8026 11229  5610 9905 11125  1997 6435 10763  5580 6428 11294  1869 9096 9097  306 756 7901  4795 4796 11437  8300 8485 10198  2274 9123 12626  4904 8876 8882  7960 7963 10514  4201 7751 12262  6699 8633 9784  7673 9936 12167  756 7901 7902  4796 7488 11043  8937 10041 10042  1258 8122 9034  297 7822 11512  4789 5645 9576  7826 8157 8158  7781 7782 8096  5841 9682 12435  588 8761 12967  4726 8296 10950  724 9845 12370  6785 8710 13086  8827 9945 11786  7392 8790 12362  5874 7706 12968  6482 8518 12015  2570 8101 8156  4075 8023 8235  4652 8586 8594  5099 9446 10325  6753 10484 10611  7673 9936 11995  5979 6829 8451  10329 11890 12104  4268 9453 9455  8836 8866 9368  2770 2772 10550  3456 5138 10089  7010 9724 11186  3332 7733 11743  4229 7892 9925  8956 10187 11611  5355 9836 12080  7702 10643 12147  2055 8206 10355  621 10057 11182  3368 8254 9029  7778 7779 11490  903 3344 9371  8770 10557 11679  8257 10112 10391  305 306 756  635 7981 13109  7509 9962 12914  6390 10440 10486  6773 10917 11698  1757 5257 8234  2389 8022 9830  2509 2511 9459  7144 8250 12280  9993 10674 11099  10181 11343 11364  1260 9646 9653  3160 8530 11624  9532 11922 12460  9475 9477 10715  7999 8000 10132  2115 7835 12058  138 139 762  6062 7877 10277  5459 7889 7890  657 7972 8382  3507 4726 10950  8384 8388 10937  4689 8082 8728  2274 9123 12528  9181 9183 9853  5977 5979 8451  2584 10298 12150  3259 3324 8271  9354 10593 11911  7873 11197 11327  7495 7496 12497  589 9020 9021  5068 9418 9419  7873 8213 11327  1447 9390 10193  925 7681 12457  4503 4989 9753  1952 7850 12640  8257 8258 10112  3758 4658 8243  6930 9560 10710  1953 8374 9986  7382 9586 11466  1524 1804 11881  6178 8399 10772  8088 9791 10905  8270 8907 10142  4043 11614 12241  6713 9931 11958  8715 8717 8718  6033 8458 10010  799 7923 10001  6494 6523 12532  2596 8156 8287  8861 9036 12673  8761 11227 12146  3698 4781 9892  6874 11113 11215  4885 9586 10694  7171 9996 11222  2029 7635 12986  2344 4998 8280  7224 8381 12829  7166 8437 13025  4689 4703 8082  733 10079 11571  6216 9396 11011  5244 8572 8573  6931 8225 10679  9048 11118 11716  2319 4958 9967  6702 8144 11093  140 761 12260  8822 8824 9442  7491 11499 12358  4283 12324 12405  3271 7697 12709  729 8615 12545  3858 3860 9226  7165 9706 12723  261 7875 11582  6565 7996 7998  4768 6034 8380  5587 9026 10034  5341 10442 10443  8043 8157 8158  7682 8880 12652  1277 7836 11504  3557 3604 8644  5179 8450 9774  1858 2090 9335  4128 8865 11788  77 78 8734  6669 9604 9911  5784 6278 8717  5340 9357 11935  7357 8028 11057  2080 2258 8376  550 7809 12285  11722 12398 12749  2990 2996 11844  5545 6902 9484  7843 11110 11446  894 896 9696  2581 2582 8828  10441 12160 12218  8799 8800 8801  3284 9395 11529  7023 7553 11835  3788 9197 10929  2063 9387 12206  2654 7874 12958  8928 9060 9061  7908 7910 13155  10353 11203 11396  8008 8010 12010  8392 8884 10176  9876 11524 11676  4827 7893 11054  9573 9575 10469  3488 9781 10229  9860 11417 11759  6223 10591 13165  3833 8386 8828  6438 9899 11041  8537 8540 8712  5086 5753 8108  6107 8015 11688  696 9027 9028  5079 8583 8584  720 7858 11250  7742 7743 12788  7480 7481 12469  5617 9330 9334  140 757 12260  6017 7847 12167  2615 2622 10348  8651 10222 11010  7328 8552 10281  7787 9916 10438  3321 7830 12768  6173 9206 10743  7361 7660 12800  4698 10951 12173  6494 9703 12532  669 8900 8901  5031 5893 8259  5544 8014 11547  553 10127 11386  1759 1763 8234  6603 9540 10184  5091 5820 8917  999 2893 8704  7160 9321 11457  925 7681 12706  7396 10061 12628  673 8605 11610  7767 9886 11028  7233 10916 11236  5890 7893 9038  9084 12377 12499  2035 8150 10194  617 7821 11488  3658 4451 10117  5150 9477 10715  5604 7387 12857  5303 9921 10481  6505 8904 11333  5823 8384 8385  7902 8077 8078  4862 8208 9881  3426 10450 11461  6515 8751 8754  3070 8466 10792  8323 9680 11463  169 170 7667  6211 11439 12959  7359 9585 11971  6054 6056 9375  7694 9703 11967  9498 9499 9500  10070 10739 10740  4478 8399 10772  6544 8888 11226  6108 8014 11547  3851 3852 9567  6006 6020 9178  5824 9579 12795  3617 3619 10344  2900 2902 9412  2140 2217 8514  4199 8966 10668  106 7870 12420  2055 8149 10031  6802 11133 12222  6427 7957 12224  5961 8100 10849  6809 7867 9758  2788 10071 10650  7540 11432 11863  2874 3330 8006  9546 11167 12369  4547 7816 11963  7359 9585 11713  7547 12421 12451  9370 9371 13005  1227 7941 11308  6120 8460 9999  5344 10439 11131  7877 9197 10929  5947 7992 8450  1176 1182 8647  7150 11926 12371  7150 7297 11926  9057 11652 12744  2861 8153 10095  775 8282 13178  1339 8026 11229  8548 8549 9096  7243 7244 12159  8499 9561 9734  7084 8694 12299  4104 11343 11364  6751 8764 11415  7472 12375 12567  6665 8780 11525  5907 8393 8454  7685 7947 9009  5276 8013 10881  9545 9546 13126  5957 7994 8396  3135 7954 9985  6680 10717 12076  1926 1929 10259  8077 8079 8080  750 8646 12109  7974 8637 9362  4703 5692 8082  763 764 765  9302 9313 9314  8013 10881 11012  1520 8135 8136  4546 6502 12191  2851 7839 11173  4097 9851 9959  1656 9112 9629  8947 10156 10653  2269 2344 8280  6625 7995 8082  6260 7573 8974  6962 8722 8908  7671 12586 12743  227 698 9447  7260 11539 11630  3473 7849 13019  3854 3856 8119  9487 9488 11845  714 7861 11527  4212 5050 9324  6784 7466 11665  6034 8160 8380  8101 11801 12018  557 9241 11056  3898 8278 12633  3271 7697 12622  77 555 8734  9262 9264 9307  3965 10446 12642  4906 5227 8614  7848 9254 10549  4216 7807 11993  4239 8259 9793  6803 8889 10559  1952 7850 12553  5910 7189 8806  6630 8298 10260  6908 11778 12213  6083 6085 8929  4077 8214 8929  8702 8704 8705  1175 8647 9878  71 72 9223  2985 8788 11000  7143 12337 12366  567 9442 9443  6232 9410 11212  1964 8548 9096  6472 7866 9937  3895 12418 12619  7909 8947 10155  2347 2870 8230  7319 12501 12520  4609 7963 10514  4126 7687 12689  8053 11686 11833  5674 12197 12379  121 122 11271  4290 5583 8564  1989 11705 11876  8674 8675 8687  5729 8624 11872  6343 8199 12074  2641 9311 12305  8294 12236 12361  2192 8115 8300  4725 8086 8087  5948 8455 8775  6567 9187 9529  7837 12858 12953  7474 7820 12883  8542 8543 8545  6984 9970 11543  1128 1134 8256  5036 8445 9250  2914 2918 8801  7953 8885 8886  752 9907 10782  763 765 4547  1134 8256 8258  7270 12393 12719  9546 11167 13126  2115 7835 12818  4468 7837 12791  7759 7761 8184  7215 8445 9250  8977 8980 9452  3555 3557 8644  4873 5394 8113  2349 8019 11519  1970 8542 8545  7198 8390 9714  1536 1538 9534  750 8646 11326  7695 8107 10649  3669 3671 10037  4357 6598 11726  3261 3284 8271  7828 12174 12294  5873 7991 11998  8563 8564 8565  2871 8148 8446  6876 7927 10762  4468 7837 12858  3355 8674 8687  7361 11081 12594  5383 10894 12516  746 8527 12432  7009 8585 12323  1434 8389 10655  5361 10342 11434  9630 12195 12998  5175 5176 9648  6787 8251 9842  1468 8103 12563  4049 9306 11385  5039 10657 11517  8345 8347 9059  4620 8145 8453  897 899 9369  4997 9206 10743  2663 9874 11170  6710 10222 11010  1913 9839 12095  5930 7887 11145  5811 8230 8231  8323 11007 11463  1463 9024 11422  4241 9680 11463  6366 12586 12743  6402 11039 11266  7315 10661 11898  3890 8622 11005  4052 5106 9726  8014 8015 10333  106 7870 12263  7470 11303 12254  5744 7486 9190  2760 6239 11557  9249 9326 11681  4766 5784 8717  8679 8680 10453  7512 7634 10829  10354 11980 12411  554 7808 11981  8926 8927 10219  6239 8241 8242  5227 8120 8613  5776 8157 8478  5340 9357 11961  3758 3760 8243  7297 8223 11885  1607 8264 8793  5657 5658 6494  656 9326 12519  6195 7001 7357  7095 9707 10369  5138 10084 10085  4100 8003 10939  5227 8120 9178  5269 8181 8183  857 859 9342  7909 8947 10156  8372 9986 10114  2584 12150 12381  3038 3040 9325  7934 8058 8243  6482 8518 12938  4943 4944 8253  8706 8707 9159  4167 7999 10132  5605 7627 8265  9293 9299 9314  5257 7904 11145  6469 9373 11047  8680 9499 10453  3611 6137 8571  5591 7776 12087  5782 8427 10183  7437 10462 12822  4199 10668 11626  7420 9114 9115  2605 9852 11095  7269 7270 12393  5303 9892 10481  4960 8532 9362  2873 8554 9503  4485 6016 8453  2601 7813 13041  6870 11280 11402  3898 8278 12536  6705 6706 11721  3131 8104 8897  5791 7423 9912  4055 8582 8583  5291 8871 8872  2002 12243 12394  1168 9857 11794  7620 11255 13075  6764 8195 10515  4645 5872 8246  4567 8588 9601  5207 5715 11163  6401 6402 11039  4718 7824 8478  1830 2055 10355  7396 10061 12910  2423 2425 9481  10108 10109 12290  7378 10970 11960  8513 8514 9942  4660 8423 11014  8692 8734 8735  4594 9707 10369  1856 1858 10833  6299 8971 9961  1932 8677 8678  8354 8367 8507  797 799 10001  5950 8016 8775  567 9443 9447  194 691 11521  2870 8230 8231  3934 4401 8275  6175 8811 10665  2419 4259 8190  6967 9757 11287  8502 9854 10344  8718 8719 11604  4530 10015 11369  71 685 9223  1663 9319 9747  2603 9731 12877  727 8382 11251  2862 9261 10257  7448 8128 12562  3878 4055 8582  5858 5860 13012  5658 6494 6523  6319 8009 8011  9214 9904 10221  8297 8642 8643  701 9237 12901  8866 9367 9372  6562 7894 11675  7531 7870 12420  6226 6521 8437  5888 9037 9038  6237 9506 12916  175 695 8468  4796 11043 11437  5322 8454 11918  7737 10144 12069  8127 12195 12998  8820 8822 9442  8459 8460 9999  5902 8129 10694  5700 8284 12985  6407 7856 11331  6060 8266 8267  6064 7613 9863  7522 8388 12503  4612 5366 8754  8720 8721 9725  2038 8018 11113  8298 8394 10260  6565 7998 8022  3339 8244 9389  7827 8166 8239  10027 11321 11388  8432 9493 13067  537 655 8222  5820 7288 8917  6019 6021 9762  2295 2296 11554  7550 7837 12953  6349 6800 8279  5244 8571 8572  6137 8571 8572  3760 9198 10166  5303 9921 10690  2893 8704 8705  7583 11680 11785  2258 8083 8376  3330 5000 8006  5823 8383 8384  7892 9925 10016  1615 9985 10335  8928 9059 9060  9923 12119 12513  871 874 8378  1825 12481 12763  7610 10264 10732  7313 8173 8952  1139 1145 11208  6058 8194 8467  6666 9393 10299  6584 10557 11679  1024 1434 10655  6096 9963 9964  4652 8174 9234  7602 8603 11915  6501 12577 12932  2095 2388 9009  6673 8199 11575  4477 7621 12979  1536 1781 9534  901 1406 9371  714 7861 11605  8202 9606 10113  8328 8519 11520  6813 8211 9951  3850 4362 8383  8054 9014 11620  7496 9153 12497  3858 8447 9226  5439 8285 11098  3735 8211 8473  4180 4838 5657  8108 8196 11746  8623 8624 9779  1786 7908 7909  3225 9016 9934  2497 5918 8446  8010 12010 12278  4840 12282 12357  4557 8592 9601  6060 8267 9366  3434 3437 10228  945 5270 8742  3742 8966 9902  5966 9110 9130  6237 9506 12896  6177 9824 10687  6832 8260 9998  6833 9023 9976  5269 8181 8739  2582 2587 8828  1126 8100 9029  558 7888 11651  4838 5657 5658  9151 12341 12582  4120 4122 8732  7426 11878 12120  5694 7995 11027  7939 8466 10792  2344 2874 3330  9317 9318 11706  8513 9942 10459  6625 8082 8728  3368 8254 8255  2132 9990 12558  4120 4124 8732  7868 9790 9791  1163 8919 11354  2511 9458 10263  1958 1963 10419  6686 8479 9666  3844 4097 11748  4575 5369 10512  2425 5150 9481  7829 8202 10113  2107 5907 8393  8273 9100 13062  192 193 9492  8559 9824 10687  7376 8172 8965  5122 5972 8425  2912 2914 8801  3579 9540 10184  2823 8442 10274  7101 9888 11320  3113 9193 9194  5173 5379 8107  4652 8174 8594  1145 8612 11208  5369 8740 10512  7868 8378 9790  8077 8078 8079  4445 8428 9913  8824 9442 9443  4290 4292 8564  4089 9854 10344  929 1466 8561  308 681 7979  8159 8390 9714  133 688 8620  8193 10717 12076  7378 10970 12258  1623 3230 8394  4998 8280 8281  1434 8463 11421  916 1825 8757  1234 7818 9150  7617 7619 7822  997 999 8704  5445 8398 11132  7439 8915 9398  3860 4611 9226  5901 9875 11569  699 9215 9920  1776 5990 8473  6532 11086 11821  2140 2214 8514  3893 8027 10336  935 940 8570  5229 6702 11093  4850 8142 11841  3227 8226 9365  2796 4151 11736  6705 9194 11721  5281 7508 8892  5000 5173 5799  6216 7804 11011  5086 5087 8108  7627 8265 8266  2880 4218 9377  719 7747 12636  671 8092 8093  8088 8143 10905  744 7891 13071  2331 8283 13178  8617 8618 11274  2840 8480 8481  408 7841 12825  5872 8025 8246  9867 9868 10698  9069 9071 9537  3700 5303 9892  2789 8236 9924  1645 8706 9159  1956 10551 12885  7166 8105 9907  7644 7942 7943  1839 2088 9452  5866 8205 11439  1953 9986 10114  4820 8627 9377  7731 7732 10520  5835 6686 9666  6835 8482 9941  8347 8352 9059  6641 6811 11571  3868 4797 9216  10177 12268 12293  896 3127 9696  2902 5773 9412  2169 2216 8597  697 8030 11276  1394 9189 13123  5702 6226 7166  4089 8373 11273  8649 8650 8810  6986 9905 11125  4999 5000 5173  3383 3385 12662  7083 12473 12546  3685 5026 10325  9443 9445 9447  2603 9731 12741  6899 9075 9076  4994 5839 8952  4541 5595 8908  6056 6115 9375  605 7718 13064  1285 6123 9227  9248 9250 11194  590 8054 11070  3372 6061 8444  5930 7887 11355  4847 8834 9372  7208 11176 11581  6941 7991 12686  8185 8425 8426  6700 8598 10140  1163 10773 11354  7701 7702 8151  6893 8432 13067  976 2889 8696  1809 9177 10516  9479 9818 9819  7029 10008 12925  5408 8880 9671  4551 5912 9234  7551 11160 11203  3040 3042 10452  7324 11619 11896  7597 9649 13047  6229 9091 9092  996 9565 12491  7818 9150 9151  2269 2332 2344  2155 2162 8790  1674 3130 9711  9826 11013 11702  4534 9645 10866  8549 9096 9097  5835 7441 9666  5606 7598 12367  4627 8433 10244  9756 9768 11224  691 8432 9493  3852 9566 9568  859 1212 9342  4934 8472 9988  4532 5603 9075  899 1406 9369  5521 9664 12705  2382 10944 12820  5977 8451 9994  8894 9766 10629  2967 3858 8447  9893 11949 12097  5780 7974 9362  131 629 9040  9147 9148 12060  1998 8712 9468  6068 6070 9882  5050 5917 9324  6803 9716 10559  996 9565 12699  1397 9893 11949  2617 6614 10348  5394 6195 7001  5307 10881 11012  6886 8944 8945  7863 9766 10629  7294 10045 12543  4261 4877 8377  7796 7798 11738  2201 3239 8467  4362 8383 8384  5465 7854 9007  3729 4146 8299  6123 9227 9228  6082 8661 10271  7806 12481 12763  6285 8509 9717  4997 9208 10550  1634 5948 8455  6466 7782 11840  5700 8284 12399  3330 4999 5000  8861 9036 13005  3854 8119 8438  5756 10353 11396  5765 6990 9043  3661 4523 10117  8959 8962 9974  6042 8427 10183  3396 3405 9255  9153 9344 12497  8022 9830 9991  3276 9393 10299  3141 3223 9886  2277 2347 8230  7409 9453 9455  2000 8303 10594  2332 2344 2874  894 8663 9696  4212 8693 9324  1193 1195 8379  8412 10444 10975  5955 8396 9711  1041 1046 8439  3816 8302 10597  2035 9067 9068  4510 4557 9785  3963 5445 11132  4803 5729 8624  2770 4701 10550  9299 9302 9314  2900 8809 9412  6801 7517 8435  9349 9598 11857  5280 6606 8480  61 62 9323  6278 8717 8718  5091 8916 8917  7908 11451 13155  4049 9306 11640  8104 8897 9963  9181 9619 9853  5927 8930 8931  5366 8751 8754  2020 8577 8578  10956 11085 11266  3944 5439 11098  61 560 9323  5904 8783 8784  5186 7814 10222  7328 8551 8552  6060 8265 8266  678 7668 12287  5583 8564 8565  3760 3761 9198  3278 7918 11767  6400 8009 12844  4683 12207 12520  11293 12629 12781  6058 8194 9689  9228 9722 11811  6075 6077 10639  171 678 8558  4557 8496 9785  8573 10633 11802  3227 8226 11152  2493 9191 10560  584 7803 12688  7934 7935 8058  7472 7992 12375  7545 8045 12649  5972 8425 8426  7956 8868 12850  3120 8902 10363  4771 4772 11568  8460 8461 10845  4862 8909 8910  757 11734 12259  575 9086 9087  1846 2035 9067  2680 2688 8482  6016 8145 8453  2887 8633 9784  4817 10404 12092  8891 9968 11128  5908 8659 8806  3605 9135 9858  8630 8631 8632  680 8028 11057  2345 7828 12174  4046 8940 10985  2022 7876 7877  9432 9433 9434  1329 11009 11229  5959 6770 11283  9246 12418 12619  5582 8811 10665  8194 8195 9689  5605 8265 9699  8668 8669 8914  6723 9700 11966  3562 9754 11187  5291 8872 9439  6364 10033 12046  713 7911 11739  5246 9349 11857  6020 8120 9178  174 175 8468  2924 2927 11809  6195 6196 8028  593 8204 8205  6399 8021 9605  4550 5133 8202  7553 11835 12462  7954 9985 10335  9315 9316 12089  9297 9631 10542  8540 8712 9468  5133 5480 8202  1246 9655 11065  8822 8823 8824  9345 9598 10554  7948 8433 10244  6809 9758 10932  1944 12071 12186  1228 8557 12479  5270 8742 11470  193 691 9492  5918 8148 8446  1597 8515 10959  1106 3120 10363  1243 1246 9243  5643 12310 12311  7824 8157 8478  744 7891 12755  9232 9598 10554  3137 3823 8728  4904 8878 8881  9336 9631 10542  1926 3955 10259  8835 8852 9433  1018 2898 8765  2871 7886 12043  127 128 9517  6981 8027 10336  2788 10650 11357  5394 5395 6195  10109 12290 12470  2896 9186 9820  3862 7552 8486  9249 11653 11681  3136 9150 9151  7782 10178 11840  6813 9951 10627  9458 10263 10622  9004 9656 10503  6681 9191 10560  2467 2529 11880  1597 1598 10959  3835 5823 8386  4970 5738 8664  668 11840 12212  2872 8476 8477  5603 7388 9075  3465 7955 12484  4655 4960 8532  941 945 8742  7433 8191 12648  2973 2975 8438  699 9213 9214  9229 9231 9805  1017 1434 8463  9489 12589 12590  4286 6175 8551  1503 9001 9664  2045 2054 8580  7504 8813 10361  7478 7876 10277  1766 1786 10155  8635 8636 8637  2977 6082 10271  729 8121 11829  7805 9185 12993  4357 11416 11726  133 134 8620  3221 4620 10609  2799 7729 11367  1117 8524 8525  2773 9308 9309  1892 1894 10114  4077 8929 9794  4091 10129 12067  7934 8243 10166  2813 2817 9174  6137 8883 10212  7674 8964 9011  9050 9053 9742  558 7888 11701  3291 5963 8472  1623 1624 8394  5439 9056 9058  7034 8126 12155  8833 8852 8939  7515 8516 8517  9302 9313 11655  1037 5101 8795  7487 8488 8489  1467 12226 12380  1094 1432 8483  675 8196 12132  1193 5069 8379  7660 11913 12800  2190 8300 8485  5306 9656 10503  4918 8459 9999  2054 8580 11079  3810 4862 9881  3124 4517 8994  575 9085 9086  7160 9321 12344  8223 11250 12314  5742 7754 9190  7566 8760 13009  2060 8280 8282  5824 9579 12944  4645 5772 8246  7224 9933 12065  6054 9374 9375  2126 8499 9561  2261 9604 9911  5691 7898 8456  767 769 2787  2078 2080 8376  3194 3480 8659  4270 5280 8480  4525 8941 11920  671 8004 11328  3145 3149 8918  10085 10087 12152  4517 6558 8994  2112 2118 8474  3617 4653 10344  7903 11933 11954  1677 8598 10140  5885 7504 10361  6947 11053 11064  3224 9227 9228  1085 8520 8521  552 8636 11623  8601 8603 11492  5530 6671 10485  1760 10181 11068  2116 2872 8476  2815 3897 8492  7468 8012 8484  131 132 9040  1354 1369 9365  1977 8537 8712  1174 5271 10379  8037 8526 8527  7220 9754 11187  4956 7903 11933  2510 2873 8554  7031 7933 10175  1369 3227 9365  2084 2093 8639  1275 8448 8449  7744 7745 7746  4797 5462 9216  1792 11094 12808  2088 4891 9452  8643 8653 8654  2555 2564 8559  6196 7629 7721  3405 4415 9255  638 9670 12526  2119 7968 12230  1260 1261 10543  6259 6260 8974  6665 8779 8780  3200 8985 8986  688 8620 8621  1682 8233 8598  1117 8522 8523  5121 5122 8425  4487 5300 8779  4146 4805 8299  2145 2148 8550  1858 9335 10833  2032 7958 12063  95 96 8893  1523 9688 11333  1113 1117 8522  2487 8711 9242  7963 7964 9746  6239 8242 11557  3863 3864 11769  127 626 9517  1129 2884 8533  4877 5407 8377  1082 1085 8520  6201 9600 10331  5380 5702 8105  8345 8925 9059  6500 8726 8727  7301 12164 12563  6019 8667 9762  9527 9528 12943  6841 9596 11607  7853 7854 7855  4375 5179 9774  8832 8833 8939  1135 1141 8536  7977 7978 9771  4448 5897 8805  3299 3328 8498  5751 7493 8556  7663 10190 11819  1698 6536 12151  6259 8973 8974  3839 3850 8383  8819 9215 9920  1179 4330 8826  101 102 8888  4726 8641 8642  1953 8374 11257  957 8117 11417  3149 5891 8918  2254 4407 11678  5271 9141 10379  1046 8439 8897  1824 9093 9094  5975 8100 10849  5937 8096 8097  8591 10181 11068  1786 7909 10155  6810 8906 9900  1481 11255 13063  7317 12428 12557  6369 9177 10516  7493 8556 8557  5895 7487 8488  3239 6058 8467  5285 9095 11282  5990 8211 8473  7108 10898 11200  2975 3001 8438  9646 9653 11648  2894 5888 9037  7886 12043 12168  85 86 8898  8851 8855 8867  870 871 8378  694 8210 11586  949 1439 8595  7233 7775 10916  1622 7842 12207  5099 9444 10899  9202 9695 10242  8835 8837 9433  6358 9558 12094  5040 6546 9804  7454 12629 12906  692 7775 12672  7335 11801 12018  2943 8886 12383  849 852 8623  5952 7843 12932  3211 11937 12085  5645 9575 9576  5884 6561 8579  953 2886 8609  4596 8272 9657  3965 10446 12923  3774 4448 8805  1008 2885 8758  7938 8276 10099  4116 4597 8933  9612 9614 11426  958 961 8619  3339 9389 9390  3781 8949 9384  6021 7602 9762  8017 12577 12932  699 9214 9215  2637 2652 8726  4873 4874 8113  2898 8765 8766  4924 6050 10123  963 2887 8630  2015 9417 12907  1932 1933 8677  10358 11640 11880  1086 1102 8567  4567 8586 8587  2943 8886 12767  6423 6425 10990  7800 7815 7841  7646 8645 8646  6889 8649 8650  4188 8874 8882  9123 9697 12434  7253 12749 12830  2212 9562 10513  5877 5880 8679  1527 5904 8787  7935 7936 7937  6229 9092 10850  9575 10215 10469  5086 5752 5753  691 9493 11521  2378 2805 9160  7918 11767 11914  4519 5527 8944  2823 2825 10274  1236 3136 10400  3442 3445 8869  6517 9539 11152  5767 7651 8909  4479 5767 8909  3089 3827 9766  616 7962 11846  3368 8255 8256  5386 8655 8656  5797 8170 8616  4348 5086 5087  5922 7515 8516  3926 5971 9657  2581 3833 8828  3750 4465 8491  7183 8203 12474  2543 4876 8668  4347 4348 5086  7815 7841 12825  6775 9768 11224  5398 9904 10221  7597 8226 13047  2679 2680 8482  1708 8276 10099  224 225 9441  2105 2107 8393  4833 8176 8178  5904 8784 8785  4130 4567 8586  2817 4720 9174  225 567 9441  1150 8258 10112  6041 6776 11629  4902 6170 9078  6068 7614 9882  7050 10015 11369  9201 9202 9695  408 7841 12326  6153 7336 8648  2176 9006 9109  6195 7357 8028  8920 8923 9162  5818 7739 8635  7554 12710 12738  980 983 8670  9635 9636 9638  891 894 8663  2887 8630 8631  5364 7360 8604  10605 12658 12872  7018 8209 12764  6129 8203 8607  5650 6963 8599  6066 7614 9863  5753 7617 7619  720 8222 8223  2060 2269 8280  974 8695 8696  2043 2045 8580  5435 7533 9072  695 11792 11910  7074 8786 12444  771 2331 8193  8834 8866 9372  9189 9190 13123  7739 8635 8636  5271 8978 8979  7932 12160 12218  3236 4052 10473  4777 5291 8871  5145 5666 5989  6012 7439 8914  1159 5271 8978  6099 7475 9721  6175 8551 8552  3954 4042 8771  4579 4690 8895  8618 8723 11274  6846 8037 8526  6008 6012 8914  538 539 720  2401 4488 8585  3357 3365 8687  1656 1657 10508  9921 10221 10690  5152 5939 8782  974 976 8696  6188 9731 10777  8053 8490 12426  4292 8562 8564  5938 7921 7922  4606 8720 8721  6365 9868 10698  927 929 8561  4868 11938 12644  3330 4998 4999  8664 9188 9696  8922 8962 9974  311 635 8652  3640 11046 11606  4876 8668 8669  7269 8733 12393  538 720 8222  5173 5174 5379  5715 8287 8288  3477 3479 8452  5433 6806 8714  4151 10535 11736  548 8749 10863  6510 8210 11586  933 935 8570  745 8170 12170  1796 1824 9093  6032 8200 9080  7785 10491 12452  8439 8897 9963  5839 7313 8952  8588 8592 9601  5214 6827 8713  2284 12119 12513  4579 5367 8895  7574 12865 13052  2865 10574 10961  5715 8289 11163  6006 8660 9178  5595 6962 8908  6606 8480 8481  4310 8112 10896  5349 6889 8649  3669 4609 10037  6637 7823 8161  4943 4946 8253  4776 4777 8871  9571 9799 10525  544 10177 11533  7028 7988 12177  1844 2035 10194  6201 9599 9600  2704 2859 8792  5615 7344 8611  700 9617 9938  983 12629 12781  1444 5874 8640  55 56 9045  9093 9094 9095  4454 4567 9601  2805 5221 9160  78 8689 8734  9074 11387 11468  4568 5386 8655  9122 9697 12927  4847 8832 8833  3509 4726 8641  4901 6327 9157  2649 2651 8808  4050 9048 10722  8724 8725 11723  2167 2169 8597  7997 8777 8778  914 916 8757  4042 4296 8771  2831 2834 10430  711 9745 9840  2379 4457 8802  2192 8115 9552  9386 9388 9684  7271 7272 7273  6375 8511 10022  6764 9562 10513  5036 8445 10036  8856 9435 10262  1827 2055 10031  2050 2084 8639  6774 9651 11224  3888 4606 8720  7748 9804 11301  602 11330 11982  6806 8714 8715  3487 5096 8985  3988 8519 11520  3099 4394 8660  3016 4212 8693  9347 9799 10525  8240 11565 13066  8384 8385 8388  5096 6643 8985  2445 4648 8711  6449 8042 11757  2441 2602 8708  3611 3613 8571  1284 3224 10405  9134 12501 12520  3355 3359 8674  2880 4820 9377  2651 2670 8808  6598 7881 11726  2229 8610 11136  3110 6019 8667  6082 8798 8799  4671 5977 9994  1195 1198 8379  3730 8299 10013  9067 9068 10779  3659 4241 11463  3799 9192 10056  4873 4875 5394  757 11734 12260  4880 8937 11508  2636 2637 8726  3434 4826 10228  1686 4444 9522  4347 5752 8275  4610 4612 8754  6691 6694 8606  3131 8103 12784  2153 2155 8790  1121 1126 9029  4211 4577 9106  5854 9021 12163  2898 8767 9161  6596 10174 11736  1687 4239 9793  2678 8249 12181  8995 8996 9946  4330 8826 8827  3729 3730 8299  5834 7501 8608  4717 4718 8478  619 9356 9686  2176 9005 9006  5647 7646 8645  4259 4431 4873  8953 9984 10585  5379 8106 8107  3599 3600 9166  2214 8512 8514  6800 6801 7517  8214 8215 8929  221 699 9920  5606 12367 12494  5413 6795 11622  600 8752 12617  3214 4485 8453  3609 6137 10212  1958 2012 10419  2437 3228 8770  7431 8931 12710  2043 8534 8580  4261 4262 8377  4259 4873 4874  3338 9375 11265  226 567 9447  1629 8200 8298  5912 8174 9234  3136 9490 10400  765 766 767  2859 4157 8792  8540 9468 11775  7916 8299 10013  5753 5754 7617  3346 3862 8486  7379 9498 12860  8572 8573 8574  6327 7587 9157  3372 3374 8444  9348 9349 12446  9480 9481 9482  3946 5439 9056  5828 7285 8738  3024 4704 8812  6874 11215 11784  8846 9435 10262  1128 3368 8256  9388 9684 9685  6063 9733 10292  6226 7166 8437  6149 6349 8279  8981 8983 11595  3961 5344 11131  7224 9933 12330  2419 2870 8190  8412 9816 10975  1933 1936 8677  6641 7897 11571  927 8560 8561  2911 6082 8798  547 13028 13149  2050 8638 8639  5073 10187 11611  8051 11779 11853  2374 2861 10095  769 771 8193  2419 3608 4259  8762 8765 8769  520 11601 11936  3096 3116 8894  5761 5765 9043  554 7808 12269  1260 9646 10543  2289 2389 9830  5567 7142 8682  7196 12595 13080  933 8569 8570  9406 9407 12055  4347 5086 5752  211 8959 9974  8127 10567 12195  2973 5959 8438  4519 4566 8944  9291 9293 9314  2949 8730 11019  6699 8633 11012  970 974 8695  3097 3115 9606  2038 8018 11325  5517 7997 8777  5316 8666 9666  5582 8811 10666  2787 8193 10717  307 308 681  5702 5703 6226  3868 9158 9216  713 7911 11808  4262 8377 10006  1014 1018 8765  9516 9517 9518  1339 1340 8997  5663 7284 9129  2966 3859 8870  1143 1163 8919  8973 10047 13011  3083 3086 8681  7691 8115 9552  1142 9376 11697  7528 8510 11455  4387 4389 10207  5596 7558 8709  2349 7810 12376  2620 2626 10250  8807 9832 9833  5300 8779 8780  9133 9134 9412  1964 1966 8548  5738 8664 9188  1007 12129 12955  2031 2052 10301  4897 4899 9705  6050 9693 10123  7700 8227 13050  3130 8396 9711  6259 8972 8973  4105 4441 10273  8354 8355 8507  5939 7397 11083  4846 4847 8832  3806 3809 9046  1587 2900 8809  6647 11929 12605  7926 8377 10006  1046 1048 8897  2249 3878 8582  9260 9261 9262  4385 4528 10131  2186 2190 8485  3385 8813 12720  5740 7754 9188  875 3113 9193  1921 8375 11038  8563 8565 12395  2167 8596 8597  95 8893 8934  4920 9461 9462  1823 5904 8783  7915 11294 12697  3600 3973 9166  2256 2333 10306  4897 4911 9705  9090 9830 9991  1775 6187 8946  1633 5949 9080  4620 9710 10609  7255 12411 12729  1034 1037 8795  4011 7123 12416  8939 8940 10985  5685 7567 8972  4713 7728 8733  6947 8221 11053  4179 9531 9903  4136 9704 9748  1970 1972 8542  4116 4589 8933  914 8756 8757  8662 8799 8800  4182 8045 12649  3194 3205 8659  2752 2754 10257  185 710 9615  3040 9325 10452  6892 8771 10933  9065 9066 10779  6189 9984 10585  4445 8805 10628  8086 8087 8088  4218 5315 9377  5998 7881 9135  8678 8680 10259  2041 2043 8534  3345 6535 9003  5854 9021 12797  2353 8225 9866  6440 7223 8968  6801 7339 8435  6321 7343 8535  584 8301 12488  2652 8726 8727  3975 9662 10466  711 9743 9745  539 540 7858  555 8734 8735  7239 9462 11469  3933 3934 8275  4459 8671 8672  4221 4541 8908  3347 6272 9081  1538 9533 9534  2092 2095 10742  8946 8947 10155  3690 5099 10325  189 700 9938  1214 1234 9150  9434 10456 10985  9887 11875 12083  771 773 2331  1467 10203 12380  6187 8946 8947  2347 2400 2419  3689 5244 10633  7718 9865 13136  4858 5547 9448  2126 2128 8499  5695 6529 9041  101 8888 8967  6167 10230 10231  2208 8195 9562  8852 9433 9434  8015 10332 11688  6654 7555 8781  6475 8251 9842  2569 2573 8999  2786 9937 10991  6963 8796 8797  7473 9733 10292  1171 1179 8826  6835 9941 10851  9064 9065 9980  2927 9724 11636  1014 8762 8765  6897 8773 11438  1215 1226 8991  7211 12415 12480  3811 6001 9024  6165 6758 8739  6888 8792 10911  5408 8874 8875  174 630 8468  4096 9423 13020  873 875 9193  1783 3734 9091  7664 8774 13167  7144 8250 12504  3474 5966 9109  8874 8876 8882  5844 6659 9454  2214 2279 8512  2153 8789 8790  534 628 9360  8457 11986 12422  1807 8081 11872  6393 7453 9796  6156 7174 7747  5959 8119 8438  1812 6833 9023  3019 8812 9254  4073 9829 10434  4286 4367 8551  35 36 9596  1750 5278 8950  897 3117 9369  6899 8808 10942  1604 1607 8793  9179 9180 9184  5986 6567 9186  3688 3689 9074  2497 2498 8446  6147 7301 12164  1737 4477 8943  4487 5299 8779  2367 2379 8802  6018 8933 9859  7093 9732 12242  2619 8651 9940  1397 9211 11949  8358 8500 8503  6058 7633 9689  3077 4215 8975  1634 1636 8455  4500 5152 8782  4005 5316 8479  5713 7377 9813  7476 12240 12352  3480 8659 8806  2047 2050 8638  556 9736 9737  1721 5927 8930  3119 4211 9106  9737 9743 9831  5366 8743 8746  3738 3741 9131  8188 9228 11811  1932 8678 10259  3060 3722 8907  1531 3917 9687  1714 5091 8916  4230 4647 9495  6392 7451 9428  2967 2969 8447  2834 9463 10430  4994 4995 8952  9316 12089 12214  624 12438 12930  9263 9266 9456  3054 6810 8906  6826 7209 11214  1034 8794 8795  10085 12152 13082  4166 6559 9073  7431 7554 12710  1710 1713 8276  3734 6229 9091  2548 2555 8559  2074 8545 8546  1358 3781 8949  1388 3732 8948  3846 3849 9959  85 8898 9025  4228 4230 9495  7452 12906 13036  1699 6536 8896  2026 8537 8538  4292 4463 8562  2420 4551 9234  7720 12412 12571  569 7915 11783  7932 10088 12128  5383 8544 12573  9352 9353 9355  3329 9181 9619  1147 1148 9201  2641 9311 12773  1501 1523 8903  6406 9662 10466  1693 4369 9012  895 3117 9367  6173 9204 9205  7794 7923 7924  1321 3804 8987  7453 9796 9797  9519 9525 9544  6075 7265 10639  1892 3980 10114  2418 4188 8882  8596 8597 9344  6278 8719 9569  6367 9504 10730  3197 9582 9583  855 4172 9460  1171 8825 8826  7480 12337 12366  4600 5273 9017  6671 9873 11374  6442 7832 9856  764 765 766  3031 6803 8889  3192 3202 9239  3007 3008 11340  8819 9215 9921  1246 1247 9655  6522 7271 9993  3863 9112 9113  1217 3347 9081  5444 9782 9783  9486 9487 9488  6902 7680 11409  3640 11273 11606  2508 2510 8554  2347 2419 2870  863 4359 9473  5296 8814 8815  2410 2412 10597  1188 1189 8685  2610 2619 8651  1160 1161 8697  3025 3826 8884  3314 3315 8676  2682 2689 8729  1311 6897 9143  4182 9126 9127  847 850 9485  4682 6086 9570  1033 1041 8439  1270 1285 9227  1351 9156 12826  1417 4166 9073  843 2895 9486  835 2897 9474  5629 8488 8490  5527 8944 8945  3394 9510 9965  8102 9787 11365  6515 6785 11366  1300 1311 9143  6952 9883 10287  1925 1928 10594  2874 2875 4180  839 1346 9489  1656 9629 10508  5279 5281 8892  8824 9443 9444  1592 4833 8391  2172 3474 9109  1198 1199 8698  1713 5092 8276  5403 7095 9884  2834 2835 8776  9268 9271 9457  1645 1646 8706  5317 8131 8132  6574 8151 11546  820 1520 11164  7623 12848 12972  7976 7977 7978  857 4172 9342  2349 7810 13006  3893 8182 10039  4655 4657 8532  6505 8904 11507  1776 1778 8473  7009 8585 12631  6650 7672 8984  3246 3248 10230  1453 3811 9024  3263 3284 9394  4052 9726 10473  4630 4632 9175  5738 5740 9188  4031 4033 10094  4584 4587 9769  827 830 9497  1771 10898 11200  6819 9116 12669  8841 8846 9429  7528 8510 9530  2815 2816 8492  8331 8360 9511  4821 7970 11731  7430 10298 11902  4180 4181 4838  1627 1629 8298  3284 9394 9395  4550 8202 9606  848 849 8623  5949 6032 9080  677 8012 11950  3002 3853 9089  3770 4445 9913  2865 3928 3929  8343 8345 8925  9264 9307 10346  5661 5663 9129  4918 8459 9570  2098 4275 9383  2371 4732 9090  2949 2950 8730  6148 6149 7640  3480 8807 9832  2810 8988 8989  8977 8978 8980  4674 5685 8972  924 927 8560  2146 2147 9118  5126 6531 6532  2192 2193 9552  2176 2177 9005  4683 9133 9134  8127 10567 13096  9613 9615 9616  2541 2543 8668  6602 11400 11710  3291 3292 8472  6628 8966 10668  9123 12434 12528  3309 3504 9125  2222 3345 9003  2956 2960 9956  8337 8339 8957  1651 3863 9112  3804 3806 9046  765 4547 11671  1546 1746 9658  5233 6173 9204  1484 6318 8970  931 933 8569  9257 9260 9261  556 9737 9831  9635 9638 9643  3364 4182 9126  306 307 7901  606 9887 11875  1821 9819 12774  1543 4769 9533  5892 9103 9104  4271 4643 8905  6354 8024 12102  4122 4381 8732  2931 2932 8791  3855 4749 9378  4856 4858 9448  8849 8851 8867  2143 2145 8550  3555 8641 8644  7316 7317 12428  2773 9309 9310  997 8699 8704  4517 5125 5126  5223 8260 9998  4642 5707 9149  1333 3338 9374  4801 4803 8624  1505 6299 8971  1463 8011 13117  1397 9211 11753  947 949 8595  4858 5545 5546  1640 3868 9158  8095 9459 11075  7645 7646 12974  5676 6469 9373  7574 7575 13052  2251 2355 2356  2104 2142 9464  4385 5817 10131  9071 9537 9885  7261 9105 12408  5657 6494 7693  951 953 8609  7786 12452 12489  1468 12562 12563  7177 7871 12438  3351 3354 9451  6317 9407 9408  874 8378 9790  4839 5144 5145  1175 5070 9878  3224 9722 10405  6837 11584 11931  1085 1086 8567  1406 9370 9371  955 958 8619  5928 8916 8917  5548 6148 6149  1523 9687 9688  4415 12848 12972  1671 1674 9711  1556 1558 8471  8327 8329 9010  1345 3338 10003  1092 1094 8483  1583 1726 10565  2165 2167 8596  7018 12225 12764  6529 9041 9042  4625 4627 8433  134 631 8620  6544 8967 13040  960 963 8630  1183 3881 9185  5583 8565 8566  3115 9606 10113  2699 9475 10715  4387 4880 10207  2891 9834 9835  6091 9704 9748  1631 9883 10287  4926 5751 8556  6392 8462 9428  2772 4997 10550  7290 8930 8931  2201 2202 8467  911 914 8756  5996 8653 8654  5626 9082 9083  883 3343 9541  6833 9976 10625  879 1004 9536  5876 5877 8679  1124 1129 8533  1131 1135 8536  7915 11783 12697  5693 5695 9041  8935 8936 8937  6142 9192 10056  6223 10317 13165  1108 1113 8522  628 9360 9361  3361 4459 8671  547 10943 13149  681 7976 7977  7301 8103 12563  3446 3468 9550  6025 8429 8430  9410 10364 11212  5545 5546 9484  3846 4097 9959  4707 5433 8714  7509 9608 11322  660 8600 10018  2620 2669 10250  4167 4168 9455  978 980 8670  6811 11182 12592  6149 7640 8279  3671 4698 10037  2149 2152 9502  3804 8987 9046  5125 5126 6531  7718 13064 13136  4521 5408 8874  7651 8909 8910  5995 5998 9135  3982 6275 8941  2585 9037 9038  9260 9263 9456  8335 8359 9602  4769 6723 9533  5798 6963 8796  8357 8358 8500  1048 3131 8897  8573 8574 8575  5920 8516 8518  2217 8514 9942  5546 5548 6148  1580 4683 9133  890 891 8663  1384 3329 9179  1443 1444 8640  994 997 8699  2151 2153 8789  6826 10941 11214  5925 7436 9501  4105 4495 10273  2031 2326 10301  4748 5214 8713  5252 10723 12057  3353 3357 8687  3931 3932 3933  4265 9399 12822  2196 9552 10493  3761 3764 9198  4766 8714 8717  7567 8972 8973  1258 8122 11252  4798 4970 8664  4857 4858 5545  9501 12722 12765  4211 4574 4575  4628 4632 8433  5149 5366 8743  6521 6522 9993  5883 5884 8579  1466 8561 10710  616 7962 11906  8255 8257 11685  8923 9062 9162  8784 8785 8786  94 642 8934  2356 8099 8994  6639 6800 6801  5499 5797 8616  1968 2074 8545  4236 8032 12690  5982 5986 9186  6349 6639 6800  1708 1710 8276  1011 1014 8762  4516 5527 9694  6317 9405 9406  1975 2026 8537  3917 6238 9687  3737 8211 9951  7361 11081 12837  5766 8556 10272  3316 9997 10378  2752 2862 10257  1461 1512 9339  3736 3738 9131  10341 10342 11434  4403 4405 10302  2256 4407 10306  6795 9156 11622  8814 8816 8885  1117 8523 8524  100 641 8967  7254 12729 13063  3973 8191 12648  5756 10353 11744  9431 9432 9437  4632 8248 9175  1010 1017 8463  1165 1839 9452  853 855 9460  8549 9097 9098  688 8621 9039  1929 1932 10259  1079 1082 8520  4643 8905 9147  856 858 9155  3798 4532 9075  7471 12651 12691  556 9735 9736  6232 9409 9410  861 863 9473  8555 9503 11755  4241 9680 11745  6830 8219 12083  2689 8729 10154  5386 8657 8658  8199 10301 11575  72 613 9223  1115 1117 8525  8831 9617 9938  6607 7462 7463  6551 8381 12829  1622 7842 12105  2384 2864 2865  893 895 9367  5748 7225 9626  7016 9564 9565  6272 9081 11280  2399 4692 9918  5715 8288 8289  6152 6153 8648  5304 12407 12566  2568 2569 8999  4401 4402 5196  5901 11569 11845  711 9743 9831  9260 9262 9263  7810 8610 13006  6129 6130 8607  3197 9580 9581  1085 8521 8567  4635 5296 8814  833 835 9474  845 847 9485  2570 8101 11801  841 843 9486  1068 4883 9593  1072 1089 9592  5688 6556 8803  1027 1034 8794  5971 8272 9657  837 839 9489  2887 8631 8633  5189 5818 8635  5905 6987 8465  8352 9059 9060  2808 2810 8988  3187 3192 9239  4941 4944 9033  611 9845 11621  3424 3441 9632  2060 2067 2269  3409 3990 9650  6536 8896 11143  1274 1275 9780  612 9542 9547  5905 7627 8465  7388 9075 9076  8329 8331 9511  3420 3422 9107  2946 2949 11395  9265 9268 9457  4799 5269 8274  940 8570 9866  6439 6440 8968  4911 9705 11015  6173 9205 9206  3167 3206 9559  3440 3442 8869  2285 10161 10701  4856 4857 4858  6235 7731 10875  825 827 9497  2058 2250 2251  2898 8766 8767  7387 10826 12687  5541 7016 9564  1042 1143 8919  9659 11357 11678  3439 3465 8868  5443 5892 9103  5280 5633 5634  6770 9226 11109  4325 8479 11166  4207 4937 9391  6175 8552 8811  3933 4347 8275  8839 8841 9429  3725 10194 10727  2698 2839 2840  6643 8985 8986  6735 6736 9878  6222 6528 8969  1162 1171 8825  3114 10095 10651  3793 4179 9015  1155 1159 8978  6768 7598 9034  2855 4489 9871  5741 5743 9168  84 571 9025  2096 2098 9383  4144 6030 9603  7811 8655 9176  3297 3299 8498  4844 4847 9372  2110 2112 8474  2250 2251 2355  5380 5701 5702  3933 4137 4347  2114 2116 8476  2491 2678 9191  8266 8267 11430  21 22 9715  2778 4130 8586  3181 4274 9535  3030 8392 8884  3161 3197 9580  6507 6841 7771  8407 8409 9199  4625 4628 8433  6806 8715 8716  5838 7682 9671  3413 3461 9674  3391 3396 9255  3465 7955 12850  5344 11797 12726  4787 6173 10743  3037 3128 8889  8087 8088 8142  6314 6317 9405  8537 8538 8540  3119 4210 4211  555 8735 8736  4031 6335 10094  5196 5197 6156  6427 8776 12224  2070 9065 9066  5934 6278 9569  5788 8692 11317  3074 4144 9603  3177 3817 9553  3929 3930 3931  2269 2321 2332  3093 3096 8894  626 9519 9525  2907 2910 9624  4168 4268 9455  7524 9116 12669  3934 4355 4401  3892 4179 9531  3173 3219 9577  2642 4001 10748  5393 5626 9082  1203 1215 8991  1770 1775 8946  4772 9797 9798  4243 5342 9055  3853 3855 9378  3417 3455 9679  7932 10088 12160  6587 7629 11250  6226 6227 6521  3329 9179 9180  1705 3112 8896  6758 8181 8739  6894 8054 11620  832 3785 9717  5702 7166 8105  8373 11273 11606  7294 10045 12645  808 810 9229  6663 6664 9597  5724 6232 9409  5158 8784 11036  5408 8875 8880  4599 4600 9017  3059 3723 8906  3338 9374 9375  2980 9402 12692  4567 8587 8588  3444 3446 9550  6156 6157 7174  4574 4575 5369  9443 9444 9445  7021 7022 7023  7243 10807 11253  1279 9635 9636  5618 10069 10070  3349 3351 9451  3076 8270 8907  2678 9191 12181  912 1008 8758  2102 2104 9464  2182 2219 9004  2355 3124 8994  6821 9403 9404  6188 9730 9731  4847 8833 8834  1720 5928 8916  7271 7273 12671  7253 7375 12830  3922 3926 9657  3817 9553 9554  118 608 9137  3418 3425 9701  8988 9174 10953  6767 8034 8286  9218 9221 9222  1592 1594 8391  8105 8106 9907  6471 6472 6894  2580 2585 9037  626 9517 9518  1727 7290 8930  7565 12197 12379  1480 9720 9781  8282 8283 13178  5019 6178 10772  45 46 9647  5537 6711 9595  6469 6470 6471  2844 2847 2848  4210 4211 4574  3414 3462 9706  73 613 9217  8333 8335 9602  9207 12597 12599  3246 6167 10230  8875 8880 9496  3021 3024 8812  10474 11034 11288  2571 9340 12143  861 862 863  2855 2856 9871  3155 3188 9628  9012 11927 12151  5226 6165 8739  859 860 861  5417 5925 9501  4525 11920 12007  5158 8783 8784  857 858 859  863 864 865  6367 10730 12527  641 11307 12196  3619 4089 10344  6894 6895 8054  4520 5124 9142  2689 2697 2698  7019 7020 7021  855 856 857  2578 2894 9037  8140 11094 12808  865 866 867  3664 3666 10514  3340 10031 10534  8934 8935 8936  867 868 869  9206 9207 9208  853 854 855  877 879 9536  5752 5753 5754  881 883 9541  5745 5789 9729  1859 9200 9201  1153 1165 8977  8402 8403 8404  2606 6233 9146  6892 6893 8112  1749 5929 8943  847 848 849  8406 8407 8408  845 846 847  843 844 845  6792 10574 10961  8404 8405 8406  3099 3100 8660  9277 9280 9317  1057 1059 9212  8408 8409 8410  841 842 843  2905 2907 9624  8410 8411 8413  2314 2401 8585  5316 8479 9666  5291 9439 10465  839 840 841  6787 8251 10548  7463 7741 7742  9098 12595 13080  5078 5079 5343  837 838 839  3265 9393 9394  1534 1781 9723  1320 3805 8953  2147 2149 9502  8399 8400 8402  8413 8414 8415  3886 3888 8720  835 836 837  1846 1848 9067  8415 8416 8417  8109 9860 11816  8417 8418 8423  833 834 835  218 575 9085  5603 5604 7387  1756 5930 8950  2912 8798 8801  851 852 853  8846 9429 9430  827 828 829  9278 9310 11989  8290 8292 9340  4433 5080 8755  1683 1686 9522  6703 9621 11634  584 7803 12488  9481 9482 11003  2318 2371 9090  9284 9287 9336  9973 12215 12453  5155 5676 6469  2895 9486 9488  825 826 827  7388 9076 9077  1395 1402 9538  3197 9581 9582  3066 4343 8466  8255 8256 8257  9087 9213 9214  4203 8247 11353  823 824 825  3110 3111 8667  821 822 823  4606 8721 8722  5111 5121 5122  2811 2813 9174  9263 9264 9265  2339 2789 9924  1061 1480 9718  6476 6884 9775  1394 9627 12828  2011 2018 2019  1607 1608 9117  819 820 821  5531 6671 9763  9205 9206 9207  3565 4048 10788  5628 5895 8488  2009 2010 2011  831 832 833  5109 5110 5111  5362 5364 8604  2909 2911 8798  6038 6933 9084  1996 1998 1999  817 818 819  5634 6606 6607  8833 8834 8835  815 816 817  5790 5792 10528  8343 8344 8345  3500 5127 9078  2652 8727 9363  8574 8575 8576  7463 7742 7743  3422 3424 9632  3143 3145 8918  79 80 636  8337 8338 8339  8339 8340 8341  3988 11257 11520  1594 1597 8391  10315 10318 10341  2148 8550 9849  813 814 815  1800 9136 10334  8341 8342 8343  5662 6729 9782  642 8934 8935  9265 9267 9268  802 804 9345  4590 5408 9671  69 557 9241  10389 11094 13010  10236 10442 10443  606 8461 11541  8345 8346 8347  5898 8005 9072  2043 2044 2045  7288 8917 12738  7754 9189 9190  2045 2046 2047  1312 9630 9984  634 8437 10675  5746 5748 9626  6045 8233 9522  94 95 8934  5649 5650 8599  9268 9269 9270  3498 4902 9078  8335 8336 8337  8329 8330 8331  811 812 813  3480 8806 8807  4917 4920 9461  8322 8324 8325  2355 2356 8994  8331 8332 8333  1548 1746 9472  9247 9248 9250  8327 8328 8329  1070 1072 9592  1066 1068 9593  2963 2966 8870  8333 8334 8335  862 863 864  6506 6507 6841  8325 8326 8327  5663 6728 6812  10041 10042 10436  860 861 862  6622 7728 13105  8347 8348 8349  809 810 811  220 699 9213  3001 3854 8438  864 865 866  3362 4649 9756  5682 7198 9714  1794 6201 9599  6224 6528 7894  858 859 860  5919 5922 8516  4270 5279 5280  8320 8321 8322  869 870 871  3407 3409 9650  866 867 868  6254 9997 10378  1357 3782 8995  4235 4741 4742  626 9518 9519  856 857 858  8656 8657 9177  9274 9275 9276  2563 2564 2565  2041 2042 2043  5956 7969 9747  67 686 9245  767 768 769  854 855 856  6345 9708 9709  8321 8322 8324  9276 9277 9279  8318 8319 8320  3445 8869 10396  868 869 870  7274 11734 12320  183 619 9686  8317 8318 8319  6595 9400 9401  8315 8317 8318  1612 3337 9117  100 101 8967  957 8117 11312  3830 7414 9749  8324 8325 8326  5661 5662 5663  7741 8179 11033  8319 8320 8321  2273 8506 12396  846 847 848  844 845 846  2021 2022 2023  5434 5435 9072  9279 9280 9281  7436 7720 12571  8314 8315 8317  4592 5838 9671  5945 7125 9246  842 843 844  9272 9273 9274  4172 9341 12597  852 853 854  216 217 8954  5115 9622 10699  840 841 842  9281 9282 9283  2997 3016 8693  9262 9263 9264  807 808 809  3525 9889 9890  838 839 840  8328 8329 8330  2275 2277 8230  9283 9284 9286  8326 8327 8328  2358 2786 9016  204 205 8976  1045 1046 1047  4578 4856 4857  852 8623 9779  8310 8311 8312  2028 2029 2030  836 837 838  7095 9884 10369  2878 4820 10051  8313 8314 8315  8312 8313 8314  8349 8350 8351  797 1849 10001  834 835 836  9286 9287 9288  6027 6892 6893  2885 8463 8464  7977 7980 9771  8330 8331 8332  7148 7150 7296  4777 4778 4779  1624 1627 8394  9288 9289 9290  65 614 9251  8088 8142 8143  5918 5919 5920  8311 8312 8313  1033 2888 8439  8307 8308 8310  3582 3583 3584  9290 9291 9294  832 833 834  2392 6091 9748  1334 6054 9374  826 827 828  6134 6136 10143  3607 4357 6382  7651 8910 8911  7842 12207 12520  1021 2898 9161  8308 8310 8311  8332 8333 8334  4515 4517 5125  8351 8354 8355  9477 9478 9480  4284 6175 10665  8521 8567 8568  7691 9552 10493  8736 9203 9219  6018 7412 8109  805 806 807  8400 8402 8403  8305 8306 8307  8835 8836 8837  5664 8618 9725  2548 4876 8559  8403 8404 8405  9444 9445 9446  824 825 826  8841 8842 8843  5910 6978 7188  8849 8857 8867  8843 8844 8845  5021 5023 9209  2497 2559 5918  8839 8840 8841  8845 8848 8849  8037 8038 10103  8405 8406 8407  6182 9247 9248  4801 8623 8624  4741 5444 9397  8338 8339 8340  822 823 824  1794 2039 9599  6561 6852 7054  9299 9300 9301  8837 8838 8839  8334 8335 8336  8336 8337 8338  2738 9436 12179  7188 8117 8118  5583 8566 9867  8407 8408 8409  820 821 822  8303 8304 8305  2633 2634 2635  5998 7334 7335  8409 8410 8411  2047 2049 2050  8362 8500 8501  3600 3606 3607  5881 5882 5883  4047 9436 12707  818 819 820  5908 5909 5910  8289 8290 8291  9475 9476 9477  3853 9089 9378  2508 2546 8554  2343 2383 2384  816 817 818  63 687 9320  8411 8413 8414  3602 8424 11225  8306 8307 8308  3411 3413 9674  814 815 816  4634 5100 9382  8414 8415 8416  4916 4917 9461  829 832 9717  5988 6786 7449  1025 1028 9161  2565 2566 2567  5740 5741 5742  5343 8456 8457  2840 2841 2842  8416 8417 8418  8340 8341 8342  911 912 8756  848 4801 8623  2839 4270 8480  8854 8855 8858  5559 6280 6886  3794 3814 3815  2064 2065 2275  4444 6045 9522  5602 5603 5604  5742 5743 5744  5206 6027 6892  2410 3816 10597  3850 3851 4088  5738 5739 5740  8304 8305 8306  84 85 9025  1046 1047 1048  1841 3726 9023  5986 5987 5988  812 813 814  8342 8343 8344  4803 5213 5729  893 894 895  4545 5077 5078  1248 9818 12161  567 9441 9442  79 636 8689  3405 3406 3407  2541 2544 8668  8288 8289 8290  6114 9119 9120  3407 3408 3409  2268 2357 2358  6970 7990 12114  6012 7437 7438  9031 9138 9139  5386 8656 8657  4394 8660 9178  571 9025 9026  5744 5745 5746  8344 8345 8346  1387 3733 9044  8291 8292 8293  1925 2000 10594  1041 1045 1046  449 450 9702  1608 1612 9117  4003 4005 5316  4005 4325 8479  5879 5880 5881  2523 5981 9807  2668 2681 10002  810 811 812  2888 9964 10655  4155 4776 4777  2625 2632 2633  2682 2688 2689  7498 8399 8400  2344 3330 4998  1850 1851 2064  6178 7498 8399  4651 5876 5877  1319 1333 9374  3409 3410 3411  4532 5602 5603  9264 9265 9267  881 882 883  883 884 885  924 925 8560  5746 5747 5748  2519 2523 2524  895 896 897  8814 8815 8816  875 876 877  1047 1048 1049  8538 8540 8541  887 888 889  889 890 891  3415 3417 9679  877 878 879  879 880 881  885 886 887  6036 8265 9699  3406 3407 3408  6809 10932 11346  2668 2679 2680  903 904 905  6728 8095 9458  6611 8649 8810  2528 2532 2533  901 902 903  899 900 901  6285 8508 8509  803 804 805  3796 3798 6899  1051 3138 9777  873 874 875  897 898 899  1092 2882 8483  8360 9511 9512  2539 2540 2541  4779 5113 7802  3722 8907 10142  4482 8240 9152  5839 6609 7312  2861 8153 10927  3408 3409 3410  81 82 696  5634 6607 7462  808 809 810  3411 3412 3413  1306 1312 9630  9267 9268 9269  3967 4568 8655  5748 5749 6152  5882 5883 5884  2610 2623 8651  6909 12335 12350  8346 8347 8348  2096 2097 2098  6594 6821 9403  4178 4661 5339  3410 3411 3412  2098 2099 2100  7370 9380 9381  1331 6699 9784  2567 2568 2569  6755 8259 9793  931 1466 8569  902 903 904  55 9045 9678  2143 5907 8550  4405 4823 9380  2532 7880 9820  5455 7205 10269  3413 3414 3415  6940 8871 8872  3124 4515 4517  3412 3413 3414  7688 8303 8304  1147 1859 9201  5880 5881 5882  2588 2589 2590  5888 5889 5890  2275 2276 5811  1305 8126 12155  575 9087 9213  4422 6036 9699  6724 9210 9211  5890 6730 7195  8626 8627 8628  7133 7949 11452  4994 5838 5839  849 851 852  1450 1461 9339  5963 8472 9988  1280 1288 9634  900 901 902  4055 4544 4545  909 910 911  5741 5742 5743  619 9355 9356  3416 3418 9701  3414 3415 3416  5739 5740 5741  894 895 896  2100 2101 2102  3415 3416 3417  6556 9804 11301  3416 3417 3418  5195 6182 9247  907 908 909  1031 1033 2888  912 8756 8758  898 899 900  3404 3405 3406  5743 5744 5745  5146 6345 9708  5887 6561 6852  5348 5349 8649  896 897 898  905 906 907  8348 8349 8350  806 807 808  6774 6775 11224  5464 6908 7665  7280 11892 11974  4510 4512 9785  3412 3414 9706  2157 2378 9160  2102 2103 2104  2151 2157 8789  2476 10318 10341  3149 3186 3187  3418 3419 3420  4654 5644 9175  2697 2698 2839  888 889 890  3420 3421 3422  4165 4963 10016  2104 2105 2107  3583 5994 9844  829 831 832  2075 3470 9064  3417 3418 3419  3446 3448 3449  5745 5746 5747  937 940 2096  2619 2624 2625  2343 5158 8783  2576 2577 2578  886 887 888  5220 5662 9782  3422 3423 3424  2310 3473 9079  2582 2585 2586  4256 4608 4767  2544 6008 8914  2877 4154 4155  9060 10253 11046  6821 7318 9404  4230 4255 4256  3419 3420 3421  882 883 884  8721 8722 8723  3424 3439 3440  9743 9744 9745  8678 8679 8680  2216 8597 10490  9273 9274 9275  884 885 886  3440 8868 8869  1257 1260 9653  2572 2573 2574  1354 1355 9365  3421 3422 3423  1048 1049 1050  217 218 9085  5743 5745 9729  5924 8450 9774  5747 5748 5749  3187 3191 3192  2540 6007 9841  9275 9276 9277  3667 3689 5244  3423 3424 3439  4068 4072 11005  3439 3440 8868  9799 11230 12882  3034 9401 12303  3815 4411 4412  2149 2150 2151  6423 9906 10990  880 881 882  6633 7307 7308  2607 2609 2610  555 8736 9203  801 802 803  2147 2148 2149  6553 8625 8626  7658 12931 13125  1447 9390 13038  2839 2840 8480  689 9515 9516  3217 9832 9833  4767 5465 5501  4798 8663 8664  5695 6124 6125  9264 9267 10346  2807 2808 2810  947 5270 8595  9277 9279 9280  876 877 878  878 879 880  2416 4904 8882  6263 7953 12767  874 875 876  3448 3449 4165  7307 7308 8278  5279 5280 5633  6086 8459 9570  3192 3199 3200  6467 9126 9128  182 619 9352  1010 2885 8463  2805 2806 2807  5749 6152 6153  4147 7248 9238  1668 5956 9747  78 79 8689  7020 7940 9851  2050 2083 2084  951 1439 8609  9280 9281 9282  3445 3446 3448  5705 5738 5739  2047 2054 8638  8350 8351 8354  2842 2844 2847  4255 4256 4608  4884 4885 7382  2225 2314 2315  2703 2858 9392  2030 2040 2041  904 905 906  5987 6787 9842  3444 3445 3446  7022 7023 7553  4890 5521 6888  3353 3355 8687  9282 9283 9284  2023 2027 2028  5957 5958 6035  3351 3352 3353  3349 3350 3351  2817 3897 4616  4878 5262 9244  5031 5443 5892  2218 2224 2225  3347 3348 3349  6491 8184 8185  4859 5247 5777  4228 4229 4230  4339 4340 4859  1240 3830 9749  4229 4230 4255  2358 2359 2360  210 211 8959  3212 3213 3214  1079 2890 8520  4742 5444 9782  955 2886 8619  9284 9286 9287  2961 8870 11199  5096 6439 6440  4705 4706 4707  5611 7264 7698  4707 4766 8714  9200 9201 9202  4608 4767 5465  2848 3119 4210  1627 8298 8394  1108 2883 8522  6758 6981 8027  6182 9249 9326  3831 4311 5611  7020 7021 7022  4572 4573 5362  804 805 806  5204 6222 6224  9287 9288 9289  8820 9441 9442  4353 4479 8909  8834 8835 8836  5820 5821 7017  2135 4747 9916  3594 4234 4235  6644 7223 7844  6528 7894 7895  1072 1073 1080  1068 1069 1070  1070 1071 1072  1066 1067 1068  1064 1065 1066  1062 1063 1064  6016 6017 6754  1060 1061 1062  1124 8525 8533  960 961 8630  9289 9290 9291  1058 1059 1060  8290 8291 8292  4662 4663 5649  7824 7825 7826  6168 6526 9195  1056 1057 1058  185 186 9615  2513 2873 9807  1740 3130 4691  4172 9460 12597  7436 12571 12765  9300 9301 9303  3496 3497 3498  3230 8394 10260  1054 1055 1056  7105 9825 9826  3382 3391 5840  5955 5956 5957  99 100 641  2866 3909 4645  8803 11673 11940  2165 2187 8596  6155 7336 7337  4239 4444 5031  4926 5766 8556  7713 8248 9175  4369 6755 6778  3108 3128 4339  93 642 8510  3107 4716 4717  2555 2562 2563  4179 9015 11021  1049 1050 1051  8292 8293 8294  2635 2636 2637  3606 6598 9858  2019 2020 2021  4797 5151 5461  5646 5776 7026  93 94 642  4748 4750 8713  9005 9006 9656  6690 8604 8605  9476 9477 9478  1987 1996 1998  1733 3112 5551  969 1331 4753  3855 3856 4748  3772 3774 8805  8699 8700 8702  3826 4704 4705  1052 1053 1054  5395 6195 6196  9852 10533 13032  9638 9639 9641  3722 3723 4572  1381 1384 9179  1217 3334 3347  3829 3830 3831  3474 3475 3476  8631 8633 8634  1741 3335 5640  9257 9259 9260  118 119 9137  675 11391 12132  6331 9257 9261  5091 5092 5820  6632 6633 7307  1402 9538 9539  6609 7312 7676  1131 2884 8536  5884 5887 6561  7245 8940 11782  2360 2361 2362  9207 9208 12599  3115 3116 4662  1629 8200 9080  1050 1051 1052  7492 7493 7671  2041 2249 8534  3476 3477 3479  906 907 908  6815 8376 10161  5606 6768 7598  9636 9637 9638  8842 8843 8844  2666 2667 2668  5110 5111 5121  8840 8841 8842  5838 5839 6609  890 4798 8663  9406 12055 12193  2658 2659 2660  8329 9010 9511  8844 8845 8848  8838 8839 8840  8848 8849 8857  8836 8837 8838  5950 5951 5952  5479 5480 5481  4741 4742 5444  2586 2587 2588  3396 3404 3405  5676 7080 9373  2590 2591 2592  3860 3861 4610  5876 8678 8679  6170 6526 7644  2792 4213 9794  3868 3869 4797  3715 9924 10294  6728 6812 8095  3559 3604 9844  4582 5320 5606  8780 11004 11525  8587 8588 8589  2610 2618 2619  3853 3854 3855  6251 7688 8303  1803 1805 1850  2172 2216 3474  2848 3118 3119  5769 7867 7868  222 223 640  908 909 910  8855 8858 8862  217 8954 9085  3232 4634 4635  4378 5154 5155  4448 4449 5434  5122 5265 5266  6978 7188 8117  3932 3933 3934  3230 3231 3232  5662 5663 6728  828 6285 9717  7450 10211 12286  4635 5100 8814  75 684 9203  9293 9298 9299  4604 5273 5575  1987 1995 1996  2682 2690 8729  2094 2267 2268  5442 6000 6018  2598 2606 2607  2592 2597 2598  4970 5705 5738  4322 8720 9725  7942 7944 8511  5909 5910 6978  910 911 912  1645 9158 9159  3199 3487 8985  119 120 701  2277 2346 2347  8875 8877 9496  978 2889 8670  5566 6827 6828  3302 5963 6099  7867 7868 8086  5266 5781 7404  5922 7514 7515  4115 4597 5908  109 110 702  1524 1525 1803  5285 10750 10850  3929 3931 3932  4433 4570 5080  2139 2218 9916  2056 2058 2250  4751 6023 6024  3872 3873 4433  1999 2008 2009  4393 5108 5109  190 191 607  117 118 608  6664 7173 11709  5060 6188 10828  3858 3859 3860  2356 6991 8099  2147 9118 9502  2092 2093 2094  5919 5920 8516  3233 3234 3235  5948 5949 5950  5391 7636 7776  9298 9299 9300  9270 9272 9273  5883 6943 8579  891 893 894  107 108 601  1623 3135 3230  5592 7719 9556  9836 10440 12080  3235 3236 3238  4412 4599 4600  1849 9684 9685  6222 6224 6528  6506 6841 11607  2559 5918 5919  5546 5547 5548  3584 3588 3589  5078 5691 8456  5787 6617 7699  5877 5879 5880  3806 3807 3808  5328 6515 6785  7039 8832 8939  1510 1511 1528  994 995 8699  5023 5665 9209  1155 8977 8978  1051 1052 1053  5767 5832 7650  2637 2638 2639  4715 5393 5626  4881 5664 9725  1514 1515 1524  802 803 804  2010 2011 2018  7387 12687 12857  4311 7264 9506  1999 2009 2010  6327 7083 7586  1584 1587 8809  2680 2681 2682  3738 3739 3740  83 84 571  799 800 801  2842 2843 2844  9055 9056 9057  1008 1010 2885  5995 5997 5998  5048 6506 6507  2314 2315 8585  2185 2219 3233  5152 5260 5687  3736 3737 3738  272 273 647  4570 4901 9157  7254 7255 12729  6000 6018 7412  3279 3285 9698  5990 6187 6813  4234 4235 4741  3804 3805 3806  6278 8718 8719  3870 3871 3872  3489 4651 5876  965 2887 9784  1017 1024 1434  2864 2865 3928  2224 2225 2314  5982 5984 5986  5478 7427 9225  6145 6147 8302  2515 2523 9807  1692 6755 9793  8689 8692 8734  4646 9475 9476  3328 3997 6514  3531 3579 9540  2660 2665 2666  4545 5078 5079  4500 4724 5152  2639 2652 2653  1053 1054 1055  6153 6155 7336  619 9352 9355  3734 3735 3736  3484 3485 4076  4795 5911 5932  4712 4714 4715  5925 5926 7007  6475 6884 8251  1614 3337 5787  3482 3483 3484  4597 5908 5909  3909 4645 5772  1848 9066 9067  4072 4392 4393  871 873 874  4894 4896 6835  6149 6348 6349  3469 4229 9925  1059 1061 9718  2546 8554 8555  3884 3885 3886  6008 6010 6012  6049 6851 7019  3263 3265 9394  3329 9180 9181  3086 9761 11924  6757 6758 6981  1055 1056 1057  1011 1012 8762  3746 3750 8491  2445 2447 8711  3589 3599 3600  2486 8760 10501  4393 5109 5110  3572 3581 3582  2103 2104 2105  3239 3240 3241  3370 6061 9376  7514 7515 8443  995 8701 9834  5693 5694 5695  6167 10231 11241  2099 2100 2101  2283 2306 9672  8355 8357 8358  1057 1058 1059  3790 3792 3794  5947 7125 7472  2097 2098 2099  1059 1060 1061  3897 4616 5507  6792 10574 11036  5963 6099 7475  7022 7553 9566  2101 2102 2103  5499 5664 8616  1061 1062 1063  2088 2302 2303  3783 3784 3967  2217 2218 2224  1063 1064 1065  2084 2091 2092  1049 1051 9777  1065 1066 1067  2110 5322 8474  1067 1068 1069  1069 1070 1071  4630 4654 9175  1071 1072 1073  3559 3571 3572  5417 5924 5925  8357 8362 8500  1228 8557 12766  4799 6427 8274  3572 3583 9844  1603 3341 3482  5179 5945 5947  2201 2266 3239  48 49 9008  6618 8264 9117  1795 9091 9092  2806 2807 2808  220 221 699  940 2096 2097  2150 2151 2157  3781 3782 3783  5009 5156 8658  3213 6013 9861  1607 8264 9117  2489 2491 2678  6664 6665 7173  2148 2149 2150  3442 3444 3445  2548 2554 2555  2526 2532 9820  6812 7284 7788  5595 6204 6961  9294 9312 9313  2416 2418 8882  2655 2657 2658  2524 2896 9820  9381 9426 10302  3557 3558 3559  219 220 9213  6152 7286 8648  2568 3139 8999  4742 5219 5220  2295 9331 11554  5691 6773 7898  5987 5988 6786  5220 5661 5662  8153 10095 10651  3882 3883 3884  2441 2443 8708  2578 2579 2580  6125 6529 6530  3727 3728 3729  5593 10736 10870  1090 1092 2882  3469 4228 4229  1084 1085 1086  3188 9757 11712  2894 5274 5888  5122 5266 5972  5754 7617 7618  4963 6632 6633  1869 1871 9096  4810 4811 5348  2302 2303 2363  5827 5828 8738  8700 8703 9523  2114 2118 8476  6049 7020 9851  2130 4884 4885  5952 8017 12932  2708 4646 9475  2086 2088 2302  2303 2363 2364  7942 7943 7944  4188 4521 8874  2574 2575 2576  967 1331 9784  2653 2654 2655  1452 4854 9145  2580 2581 2582  2208 8194 8195  2108 2110 5322  2523 2524 2896  4935 5184 5391  310 311 635  2830 2866 3909  4521 4590 5408  6902 6903 7680  2398 2399 9918  3725 3726 3727  916 918 1825  2535 2540 9841  8723 8724 8725  4804 4805 5457  7327 7328 7697  2363 2364 2420  3291 3302 5963  3583 3584 3605  5220 5660 5661  3145 3147 3149  8851 8854 8855  8501 8504 8505  5421 6763 7187  1815 2056 2058  2275 5811 8230  2544 8668 8914  4592 4994 5838  1094 1098 1432  2822 5968 7991  8588 8589 8590  3584 3605 9858  2533 2534 2535  7845 8252 10908  3141 3143 3223  2532 2533 3132  2378 2804 2805  2808 2811 8988  3297 4934 8498  5501 6904 6907  7360 8046 9351  3345 3346 3862  7293 8170 8171  6113 6114 9119  5186 7070 7814  2364 2420 2421  8901 12268 12293  2533 3132 9841  2901 2902 2903  9348 12446 12608  2815 2817 3897  3589 3606 9858  5315 6552 6553  198 199 705  3688 4245 9074  171 172 8558  2804 2805 2806  2903 2904 2905  3839 3847 3850  797 798 799  5545 5913 6902  5057 7139 10477  1027 1028 8794  3301 3328 3997  8766 8767 8768  2112 2114 2118  2133 2135 4747  2139 2217 2218  6055 7432 9801  2116 2119 2872  3606 3607 4357  800 801 802  3502 3503 5329  2222 2327 3345  6815 10161 10701  2123 2130 4884  2813 2815 2817  1609 2900 2901  2535 2538 2539  3555 3556 3557  4245 5143 9074  3509 3511 8641  6049 7019 7020  2778 4652 8586  3427 10978 11080  2907 2908 2909  5912 6143 7000  6197 7354 8173  1077 1079 2890  2524 2525 2526  5984 5986 5987  2541 2542 2543  3814 3815 4411  2401 4486 4488  2905 2906 2907  1120 1121 1126  6165 6757 6758  2495 2497 2559  6546 7769 12950  5071 5072 6321  5984 5987 9842  2868 4799 6427  591 8888 11226  5189 5964 8635  2437 2439 8770  5620 5692 5693  4566 5559 8944  2569 2571 2572  1966 1968 2074  5488 7327 7328  2820 2822 5968  2019 2021 2022  3471 3472 4261  3724 7002 9470  3352 3353 3355  3171 3219 9557  3231 3232 4634  3350 3351 3352  3664 4523 10514  5717 7180 9411  73 74 9217  3135 3230 3231  5613 7562 7563  4634 4635 5100  5100 8814 8885  3342 3982 6275  3348 3349 3350  5665 7456 9209  2095 9009 10742  2828 2830 2866  5620 6724 9210  9532 9903 11922  5416 5912 6143  961 8630 8632  5320 5606 6768  4800 5226 8739  1968 1970 8545  6662 6664 6665  9099 9100 13062  3667 3688 3689  4689 4702 4703  1165 8977 9452  7209 10835 12693  3341 3482 3483  4823 5477 9380  3982 4525 8941  2555 2563 2564  6439 7212 8968  1972 1975 2026  2526 2527 2528  1495 1497 1514  3361 4649 8671  3359 3361 4459  3337 5787 6617  5515 5517 8777  4876 8669 9824  796 798 9571  3219 9557 9558  5151 5461 6704  5642 6038 6920  1042 5101 8919  3208 4331 9861  2540 2541 2544  4485 6014 6016  2543 2547 2548  5447 6846 8526  1103 1108 2883  2285 3470 3471  3825 10263 10622  5406 5407 7176  3334 3347 3348  3483 3484 3485  212 213 580  3869 4797 5151  4999 5173 5174  5443 6046 9103  5316 8665 8666  5464 6624 6908  218 219 575  2513 2514 2515  3449 4165 9925  3475 3476 3477  3792 3794 3814  849 850 851  6120 8460 10845  5997 5998 7334  3487 5095 5096  1975 1977 8537  4960 5644 5780  2510 2512 2513  5926 7007 7455  3165 3206 9578  2439 2602 8770  5949 5950 5951  3498 3499 3500  3494 3495 3496  1331 4753 6698  2502 2504 2871  2515 2518 2519  2489 2490 2491  2504 2505 2506  5945 5947 7125  2447 2487 8711  2564 2565 2566  9025 9026 10034  4718 7823 7824  2506 2507 2508  1119 1120 1121  6010 6012 7437  5880 8679 10453  6792 7074 11036  2216 3474 3475  5780 7712 7973  2900 2901 2902  687 9322 9323  5924 5925 5926  2493 2494 2495  4046 10456 10985  2443 4648 8708  2107 2143 5907  2508 2509 2510  3557 3559 3604  4703 5619 5620  2506 2508 2546  10723 12057 12310  2491 2492 2493  9131 10750 10850  6768 8122 9034  1977 1986 1987  4102 10036 10377  4800 5269 8739  3288 3323 9504  8722 8723 8724  4575 4577 4578  2902 2903 2904  6269 6388 6932  5293 7039 8832  2495 2496 2497  7785 7786 12452  181 182 9352  1871 1964 9096  3500 3501 3502  3572 3582 3583  5364 5822 7360  3850 4088 4362  3206 9578 9579  2510 2513 2873  1162 1163 8825  5784 5934 6278  7189 8807 12307  3282 3291 3302  3491 4581 4582  1115 1124 8525  5721 7076 9563  206 207 589  990 2891 9834  3046 3048 9235  1126 5961 8100  4433 4434 8755  9639 9642 9644  3335 5640 5642  2688 2689 2697  829 830 831  5958 6035 7227  173 174 630  2982 2983 2989  2145 2147 2148  6275 8513 11585  4600 4603 4604  2487 2488 2489  5650 5798 6963  4612 5149 5366  4311 5611 7264  6592 6595 9400  4076 5924 9774  4902 6168 6170  5956 5957 5958  2858 5027 9392  8979 8981 8982  4623 4624 4625  3186 3187 3191  9270 9271 9272  5649 5770 6466  6024 6026 6789  2573 8999 11028  1012 8764 9864  5434 5897 5898  5760 5761 5765  3830 3831 4311  3210 3211 3212  5872 8024 8025  278 279 648  2044 2045 2046  2502 2503 2504  5481 5482 6922  7562 7563 7862  8150 10194 10727  6047 6048 6049  10707 12222 12288  8566 9867 9868  5535 6711 9590  3214 3215 3216  4581 4582 5320  2030 2041 2042  922 924 925  4846 5293 8832  3299 3301 3328  1465 1473 1495  6107 8014 8015  6742 6744 7399  4514 5330 6269  2515 2519 2523  5798 6568 8796  9257 9258 9259  3861 4610 4612  3130 4691 5353  1839 2086 2088  1152 1153 1165  5178 5179 5945  4740 7927 9032  3295 3297 4934  3740 3741 3747  3873 4433 4570  1129 1131 2884  3856 4748 4750  1113 1115 1117  9092 9093 9095  3589 3600 3606  3859 3860 3861  3199 3200 8985  6111 7053 8528  5895 6765 7487  2023 2028 2029  3885 3886 3888  69 70 9241  4723 4926 5766  3826 8884 10176  5149 6277 8743  1371 1395 9538  3871 3872 3873  6101 6103 7502  5664 8616 8617  3854 3855 3856  182 183 619  3191 3192 3199  2904 2905 2906  5133 5478 5479  200 201 593  8149 10031 10534  5898 5899 8004  3200 3202 3203  4730 4731 4841  1135 1139 1141  5143 5563 6468  3221 3493 3494  4841 4842 5827  5435 6117 7533  3883 3884 3885  4166 4203 4740  4686 4687 4688  5687 5939 7397  5892 5893 9105  5719 9563 9564  4987 5123 9767  929 931 1466  1566 1649 9385  2042 2043 2044  6161 6642 6940  5106 5628 5629  4706 4707 4766  1169 1175 5070  5362 5363 6690  2526 2528 2532  6466 7781 7782  5693 6724 9041  2928 2931 9724  6711 9590 9591  8501 8502 8504  2566 2567 2568  5751 7492 7493  180 181 704  4704 4705 4706  2535 2539 2540  3747 3748 4500  1448 1460 1465  5889 5890 6730  1493 1494 1510  3971 8033 11807  3147 3149 3186  6932 7541 8023  3169 9557 9559  3208 3209 3210  5393 6636 9082  3216 3220 3221  9294 9311 9312  1150 1151 1152  5551 5815 5938  8418 8423 10235  8858 8859 8860  6789 6790 7031  6331 9256 9257  4550 5132 5133  4901 5312 6327  706 8625 9647  6038 6920 6933  312 723 8652  3234 3235 3236  1082 1084 1085  1203 4330 8991  1148 1150 1151  1086 1088 1102  3729 3731 4146  1192 5069 7291  6754 8145 8146  8700 8702 8703  5348 6610 6611  178 179 627  8849 8850 8851  5796 6317 9408  4444 5031 5443  9142 9193 9194  3203 3207 3208  1474 1501 8903  7917 7954 10335  4340 4859 5247  2219 3233 3234  2543 2548 4876  935 937 940  67 68 9245  2906 2907 2908  2577 2578 2894  6109 6110 6111  1151 1152 1153  3774 3776 4448  6468 6626 7915  8343 8353 8925  4599 5655 9017  5457 5458 7122  3128 4339 4340  3835 3837 5823  3096 3097 3115  8355 8356 8357  3308 3504 8431  795 796 797  2155 2158 2162  5790 7511 10528  7825 7826 7827  3143 3223 8918  798 799 800  1775 1776 5990  5330 6269 6388  1782 1783 3734  5964 8635 8637  2389 4729 4730  4717 4770 4913  2908 2909 2911  4714 4715 5393  4924 5577 6050  1620 3135 9985  3888 4221 4606  9301 9302 9304  1756 1757 5257  3770 3772 4445  995 8699 8700  6755 6778 7975  4562 6766 10714  1749 1750 5278  3511 3555 8641  3210 3213 9861  3810 4353 4862  6194 7597 9648  4146 4147 4804  8357 8361 8362  4716 4717 4718  223 640 8817  6440 6643 6644  3076 3077 4215  6694 7124 7803  1736 1737 4477  4688 4754 4935  5477 7370 9380  65 66 9251  9639 9641 9642  9637 9638 9639  4479 4481 5767  3764 3766 4751  1727 1728 1755  3808 3809 4435  2163 2165 2187  1811 1812 6833  8954 8955 8956  5776 7026 8043  5155 6469 6470  3268 3276 9393  3967 3968 7811  4375 5178 5179  5644 5780 7712  3067 3070 8466  3213 3214 4485  7002 9470 10350  7380 10752 12625  1841 1842 3725  4261 4263 4877  1720 1721 5927  6321 6323 7343  4624 4625 4627  6277 8743 8744  7844 7845 7846  3318 4922 7461  5312 6327 7083  5628 5629 8488  1795 1796 9093  6611 7859 7860  6185 7959 11730  8851 8853 8854  4913 4914 5646  4774 4879 6500  4411 4412 4599  1861 4822 9200  3059 3060 3722  3878 4053 4055  945 947 5270  992 995 9834  3357 3363 3365  7167 12589 12590  5274 5888 5889  6017 6754 7673  1713 1714 5091  7280 10548 11974  4231 4596 9099  3816 8302 11495  3098 8693 8694  1620 1623 3135  3756 3758 4658  4405 9380 10302  6388 6932 7541  4886 5595 6204  4541 4886 5595  3112 5551 6577  5095 5096 6439  4213 6083 9794  63 64 9320  2421 2778 4652  8641 8642 8644  777 1852 2060  6470 6471 6472  8925 8926 8928  1705 1706 1733  1639 3868 3869  1210 1217 3334  949 951 1439  3053 3054 6810  1234 7817 7818  5942 8075 9204  4076 5417 5924  4733 4734 5515  4877 4878 5406  4776 6161 8871  4551 5416 5912  3750 3752 4465  4707 4708 5433  2169 2172 2216  3744 3746 4199  4573 5362 5364  4435 4436 4795  2693 2876 2877  7176 7178 7808  4691 4780 5674  1612 1614 3337  5821 7017 7429  1601 1603 3341  1002 2893 9864  5117 6982 9622  8655 8656 9176  7860 7889 7891  1698 1699 6536  3723 4572 4573  7150 7296 7297  3896 7993 11445  3798 6899 9075  1650 3863 3864  1633 5948 5949  3045 3046 3107  5092 5820 5821  684 9217 9218  5911 8208 9881  8746 8751 8752  2366 4872 5967  3114 4732 4733  6331 9261 10257  5027 6339 9392  5889 7246 9896  953 955 2886  1240 3829 3830  5227 8613 8614  1660 1741 3335  9119 9120 9122  1668 5955 5956  1692 1693 4369  1357 1358 3781  1859 1861 9200  2920 2923 9770  1207 1213 1214  8959 8960 8962  7823 7824 7825  3811 4854 5805  6035 7994 8250  2075 2076 2285  2981 2982 2983  4155 4777 4778  8236 9924 10294  958 960 961  8569 8570 10679  1101 1106 3120  3422 9107 9632  7944 7945 11220  9737 9738 9739  911 913 914  8516 8517 8518  8337 8359 8957  5433 6230 6805  5350 11649 12113  3037 3038 3108  1587 1609 2900  1320 1321 3804  1674 1740 3130  4568 5009 5386  3163 9578 9580  1686 1687 4239  2569 2572 2573  7723 7787 10438  5050 5277 5916  5916 7003 7381  9050 9052 9742  9387 11890 12104  5349 5447 6889  1305 1306 9630  6054 6055 6056  5134 5328 6515  5214 5566 6827  6440 6644 7223  1271 9636 9637  6014 6016 6017  1491 7137 9343  4663 5649 5650  5907 8550 11408  5139 5688 6556  1153 1155 8977  963 965 2887  2972 5959 6770  3001 3853 3854  1111 1119 1120  2578 2580 9037  6538 10932 11346  2966 3858 3859  5433 6805 6806  3030 3031 6803  8817 8818 8820  3024 3826 4704  1387 1388 3732  3203 3208 4331  6112 7432 9690  3599 4471 9166  4212 4343 5050  4604 5615 8611  2266 3239 3240  5844 5846 9454  3116 4662 4663  5688 7114 8803  1185 1188 9185  5797 7293 8170  2953 3870 3871  891 892 893  9543 9546 9547  3030 6803 8392  7645 12974 13097  188 700 9610  967 969 1331  3886 4322 8720  2107 2142 2143  9181 9182 9183  1480 9719 9720  2679 4894 8482  5759 5760 5761  3497 3498 4902  2258 2259 2348  4881 5499 5664  1686 4239 4444  2625 2633 2634  2667 2668 2679  6124 6125 7631  1285 6122 6123  6846 8036 8037  1012 8762 8763  1279 1280 9634  938 941 8742  119 701 9137  3037 3108 3128  4784 5040 6546  613 9217 9222  3024 3025 3826  5827 5830 6783  2911 2977 6082  2064 2275 2276  918 919 920  914 915 916  2146 2783 9118  1226 8029 11887  2151 2152 2153  2783 5418 9118  4748 4749 5214  6735 8647 9878  5822 7360 8046  1674 1675 1740  5251 5684 7838  4807 4809 4810  924 926 927  2046 2047 2049  916 917 918  2589 2590 2605  1692 4369 6755  8925 8928 9059  920 921 922  4130 4454 4567  3311 3314 9125  188 189 700  4791 4793 9224  1972 1973 1975  922 923 924  5480 5481 5937  4913 5646 5776  931 932 933  3045 3107 4716  2574 2576 2577  2935 3882 3883  927 928 929  3574 11160 11203  1123 1128 3368  6052 6055 9801  1581 1583 10565  2580 2582 2585  5642 6920 11658  7563 8562 8563  929 930 931  3309 3311 9125  3210 3212 3213  3238 4712 4714  947 948 949  4779 7802 10465  949 950 951  6828 8682 8683  933 934 935  2182 2185 2219  2180 2182 9004  3353 3354 3357  1677 1679 8598  1564 9385 9909  4697 5605 9699  935 936 937  5832 7650 7652  2589 4827 9908  2187 8596 9153  2788 11357 11678  6042 7656 8427  951 952 953  6129 7183 8203  1668 1669 5955  1183 1185 9185  1256 1257 9653  796 797 798  2699 2708 9475  5214 5215 5566  2914 2916 2918  5014 5097 5251  5233 5942 9204  5155 6470 9934  6072 6793 9677  1705 1733 3112  953 954 955  5362 6690 8604  2143 2144 2145  6394 10883 10902  5818 6503 7739  3066 3067 8466  2909 2912 8798  3529 3531 9540  2288 2289 2389  6702 7664 8130  1642 1645 9158  4573 5365 9900  955 956 958  2145 2146 2147  6526 7644 7941  871 872 873  4471 5372 5973  1435 1446 1448  5515 5516 6649  793 794 795  5655 9017 9018  7312 7313 7835  3031 3033 8889  3216 3221 4620  6744 7399 8301  1241 1243 9243  997 998 999  958 959 960  3485 4375 9774  4449 5434 5435  3025 3027 8884  1240 1241 3829  2979 2981 2982  5805 6001 6399  1651 1653 9112  3059 3722 3723  7451 7452 13036  603 8221 11388  2153 2154 2155  3823 4202 4689  1640 1642 9158  3807 3808 3810  945 946 947  999 1000 1002  8327 8365 9010  1693 1695 9012  2997 3098 8693  960 962 963  3054 3056 8906  1582 8809 9133  5322 8393 8454  976 978 2889  4815 5189 5964  1267 1269 1270  1213 1214 1234  3060 3062 8907  1713 5091 5092  3077 3079 8975  3364 5013 9126  4508 4510 4557  1699 1701 8896  963 964 965  3318 3319 4922  1660 1661 1741  5242 5759 5760  1416 1417 4166  988 989 990  1653 1656 9112  6322 6949 7520  3076 4215 8270  1970 1971 1972  3805 3806 3807  6649 6650 7672  4610 4611 5134  2680 2682 2688  1552 1704 9471  3002 3004 9089  965 966 967  2190 2192 8300  2155 2156 2158  980 981 982  5013 6467 9126  3592 4373 11305  990 991 992  96 587 8893  1279 9634 9635  3357 3358 3363  982 984 985  1002 1003 1005  8374 11257 11520  6318 6319 8007  7142 7143 7363  6070 6793 9882  980 982 983  8339 8957 10365  1975 1976 1977  3363 3364 4182  9312 9313 9315  3437 4346 10228  7363 7440 8277  4654 4960 5644  4628 4630 4632  5831 5834 8608  6785 8709 8710  2586 2588 2589  4338 4623 4624  985 986 988  252 253 637  1966 1967 1968  4343 5050 5277  9350 9620 9621  5649 6466 8599  967 968 969  2160 2161 2163  1714 1716 8916  2158 2159 2160  1968 1969 1970  992 993 994  1720 5927 5928  5911 5932 7018  5883 6128 6943  710 9615 9616  1005 1006 1011  10590 12463 12840  6023 6024 6025  8937 10042 12890  6059 6060 9366  976 977 978  2163 2164 2165  994 996 997  3218 8531 10462  1381 1391 9179  1319 1334 9374  3001 3002 3853  1005 1012 9864  8920 8921 8923  1138 1148 1150  9214 9215 10221  4214 4682 9570  978 979 980  9056 9057 9058  2165 2166 2167  1011 1013 1014  282 283 9013  687 9321 9322  2371 2372 3114  1721 1723 8930  5277 5916 7003  3096 3115 3116  5134 5135 5328  4512 4514 5330  4342 4666 5071  3494 3496 3497  6642 6940 7670  2167 2168 2169  4778 4779 5113  2358 2360 2786  5282 5592 9556  5877 5878 5879  1727 1755 7290  5763 6129 7183  536 537 655  3946 3950 9056  4521 4522 4590  1018 1019 1021  988 990 2891  3004 3007 9089  49 50 638  2585 9038 9908  2049 2050 2083  3308 3309 3504  3241 6058 7633  2198 2199 2201  4590 4591 4592  1679 1682 8598  6168 6170 6526  974 975 976  1210 1211 1217  1014 1015 1018  2220 2221 2222  5063 5901 9875  5133 5479 5480  3013 3065 8913  4381 8731 8732  3498 3500 9078  1432 8483 11133  3238 4711 4712  2987 2990 2996  2169 2170 2172  5123 8241 9767  1650 1651 3863  4592 4593 4994  3808 3810 9881  3027 3030 8884  3066 4212 4343  1737 1739 8943  2972 2973 5959  5438 6188 9730  4481 5767 5832  6117 7533 7534  4435 5911 9881  1021 1022 1025  8996 9946 10575  2327 3345 3346  8051 8143 11779  2212 2213 2220  2196 2197 2198  6056 6112 6113  7558 7795 7796  4616 4720 4721  6783 6784 7466  2198 2201 2266  5121 6491 8425  2182 2183 2185  5765 6959 6990  3033 3037 8889  2235 2236 2264  6723 9533 9534  1452 1453 3811  1159 1174 5271  4184 9867 10698  7566 11263 13009  8488 8489 8490  1750 1752 8950  6197 6198 7354  7796 7797 7798  2609 2610 2623  1192 1193 5069  3323 4063 9504  4353 4862 8909  4188 4189 4521  2180 2181 2182  5434 5898 9072  1964 1965 1966  6317 9406 9407  3265 3268 9393  1661 1663 9319  2688 8482 9941  3862 6535 7368  3500 3502 5127  7984 7986 11195  5898 8004 8005  4068 4070 4072  2636 4774 8726  5615 6171 7344  2264 2265 2282  1299 6767 7338  3525 3526 9889  2357 2358 9016  3776 4448 4449  184 185 710  2634 2635 2636  1025 1026 1027  1695 1698 9012  2966 2967 3858  2006 2061 10326  1749 5278 5929  1461 1462 1469  1034 1035 1037  4144 4394 4906  3772 4445 8805  992 994 995  2233 2234 2235  7661 8198 10941  4721 4722 4723  3739 3740 3742  2400 2419 3608  5368 6552 10162  1027 1029 1034  1462 1469 1470  8062 8064 8070  2206 2207 2208  3169 3171 9557  1037 1038 1042  3737 3738 3739  2273 10289 12396  1320 3804 3805  1701 1705 8896  5694 5695 6124  1480 9718 9719  6133 7085 7576  1580 1582 9133  4738 5217 9505  5274 5889 9896  3534 3536 9862  1041 1044 1045  7504 8813 12662  4723 4831 4926  2190 2191 2192  6553 8626 8627  4600 4604 5273  3920 3923 9800  4724 5152 5260  4926 5750 5751  1639 1640 3868  3056 3059 8906  2157 8789 9160  5828 5831 7285  2310 2311 2312  3735 3736 3737  2598 2607 2609  700 9610 9611  1756 5257 5930  5751 7491 7492  1162 1164 1171  8068 8072 8073  2206 2208 8194  4435 4795 5911  2282 2283 9672  3766 4751 6023  3278 3279 9698  2312 2313 2329  6152 7225 7286  4635 4719 5296  2994 2997 3098  1042 1043 1143  3062 3076 8907  49 638 9008  256 565 9623  1450 1451 1461  3163 3165 9578  7924 11289 11358  3784 3967 4568  2315 3721 8212  3511 3522 3555  3794 6062 9197  1451 1461 1462  6214 7965 9491  1349 8995 8996  2085 2342 2343  7430 10298 12150  5496 7464 7465  999 1002 2893  187 188 9610  1171 1172 1179  3507 3509 4726  1179 1180 1203  1182 1183 3881  5719 5721 9563  1272 1279 9636  3079 3109 8975  5527 8945 10422  1143 1144 1162  1321 1323 8987  3782 3783 3784  102 591 8888  4724 6628 9902  6055 6056 6112  1783 1785 9091  794 795 796  4673 4674 5685  4645 5871 5872  5834 7500 7501  4578 4855 4856  1421 1433 1435  6470 7866 9934  1033 1040 1041  2329 2330 2366  5665 6544 7456  3489 4650 4651  4048 4178 8688  938 8741 8742  1080 1089 1090  4296 5206 8771  1483 1484 6318  1716 1720 8916  1225 1227 1237  1299 1300 9143  2670 3796 8808  4670 4672 4673  1633 1634 5948  3736 6229 9131  2953 2954 3870  1412 1420 1421  7436 9501 12765  1169 1170 1175  3016 3066 4212  4570 5080 9157  602 11330 13099  50 638 9670  1237 1238 1251  1129 1130 1131  1131 1132 1135  1135 1136 1139  1124 1125 1129  1139 1140 1145  1274 1276 1290  3042 3045 10452  9739 9743 9744  9542 9543 9547  1115 1116 1124  6500 8727 11939  1203 1204 1215  1405 3329 9619  1723 1727 8930  8820 8821 8822  4381 5204 8731  1775 5990 6187  4345 4667 4668  3139 3141 9886  2980 9402 12564  6690 6691 8606  4394 4906 5227  1218 1223 9081  2220 2222 2327  6671 9763 9873  6006 6019 6020  6020 6021 6788  1521 1531 9687  8846 9430 9435  1334 6052 6054  5427 10810 11847  3723 4573 9900  2660 2666 2667  3979 8162 11306  3862 7368 7552  1627 1628 1629  8361 8373 9854  5687 7397 7925  5517 7996 7997  6316 9400 9405  3746 4199 8491  3121 8903 8904  1215 1216 1225  2634 4773 9940  3747 4500 4724  5872 5873 8024  1561 1745 6640  1113 1114 1115  3605 5995 9135  1108 1109 1113  1103 1104 1108  4376 5325 6047  3205 4115 8659  1098 1099 1103  4811 5348 5349  5533 5535 9590  1090 1091 1092  1094 1095 1098  1092 1093 1094  7699 7917 7951  1782 3734 3735  2342 2343 2383  1423 1445 9619  8027 8181 8182  2267 2268 2357  1357 3781 3782  1269 1270 1285  1812 1814 9023  3340 4344 4345  2846 4152 4679  3886 3887 4322  5009 5386 8658  4589 5442 8933  1494 1510 1511  3740 3742 9902  4001 4003 8665  5797 7292 7293  6052 6054 6055  1963 4374 10419  2498 2500 2502  2203 7862 13090  1031 1032 1033  1005 1011 1012  3099 4144 4394  6107 6108 8014  4063 6367 9504  4236 8032 12921  9120 9122 9123  2443 2445 4648  2625 2634 9940  134 135 631  4449 6116 9910  1504 1505 6299  2379 2380 2846  2447 2451 2487  7286 7654 7879  1739 1749 8943  5499 5785 5797  6275 8512 8513  1620 1621 1623  3728 3729 3730  1764 1766 1786  10834 10835 11214  6080 7330 7353  2093 2094 2267  5154 5155 5676  4881 4882 5499  6159 7147 7148  4501 4503 4989  1796 1798 1824  2811 8988 9174  5184 5391 7636  3931 3933 4137  3967 7811 8655  1251 1252 1264  6105 6106 6107  2586 2589 9908  1202 1207 1213  4805 5457 5459  2388 4685 4686  9729 9966 10978  7805 8686 12660  4322 4323 4881  3950 9055 9056  4769 5467 6551  3726 3727 3728  5522 7505 7506  5501 5502 6904  554 8154 11403  6019 6020 6021  5280 5634 6606  3087 3089 3827  1313 1320 8953  2383 2384 2864  1290 1291 1299  1018 1021 2898  2356 4450 6991  4668 4669 4670  7575 9384 13052  6099 6100 6101  1527 1823 5904  5726 9408 9409  1752 1756 8950  7007 7436 7720  3449 3468 3469  5977 5978 5979  3110 6006 6019  5646 5647 8645  1358 1360 8949  1826 1828 3340  2439 2441 2602  1980 2005 10357  5348 6611 8649  3747 4724 9902  4221 4606 8908  1785 1788 1795  6021 6788 7601  5846 9453 9454  7308 7851 7852  8036 8037 8038  3106 4549 4550  4946 5463 5464  1778 1780 1782  1768 1770 8946  3907 4769 5467  3609 3611 6137  1848 2037 9066  6103 6104 6105  3859 8870 10495  5823 8385 8386  1759 1762 1763  1802 1810 1811  2173 2176 9109  4941 4943 4944  4076 4676 5417  1403 1411 1412  6607 7463 7741  1770 1774 1775  1333 1344 1345  1264 1265 1274  6611 7860 8810  266 267 645  3159 3197 9583  1814 1820 1841  1317 1318 1319  1336 1341 1342  2873 9807 10965  791 792 793  1752 1754 1756  6691 6693 6694  5447 6889 8526  86 639 8898  1470 1487 1488  3910 4941 9033  3012 3013 8913  1369 1370 1371  614 9251 9252  3950 4243 9055  3091 3093 8894  6004 6005 6896  4243 5326 5342  1739 1748 1749  3093 3095 3096  3944 3946 5439  1021 1025 9161  6023 8428 9913  1323 1329 8987  50 51 9670  3420 3425 9107  1222 1236 3136  2637 2639 2652  8534 8580 8581  3079 3081 3109  1612 1613 1614  2071 2073 2075  3083 3085 3086  1844 1846 2035  1354 1356 1369  5072 6321 6322  1284 1303 1304  6101 6102 6103  1732 1735 1736  5229 6701 6702  3613 3663 3667  6471 6894 6895  3440 3441 3442  1444 1445 1450  4146 4804 4805  4209 5163 9391  3439 3447 3465  1723 1725 1727  3469 4227 4228  3331 9893 12097  230 231 9049  6112 6113 6114  4809 4810 4811  54 55 9678  2935 2936 3882  3062 3064 3076  3963 4546 5445  9086 9087 9088  1550 9471 9472  1841 3725 3726  2235 2264 2349  2070 9064 9065  1716 1718 1720  1516 1517 1790  1790 1791 1826  856 1807 9155  2037 2069 2070  1025 1027 1028  8238 11524 11676  6740 6742 8900  6552 6553 8625  1282 1283 1284  4777 4779 5291  1388 1390 8948  6818 6829 7753  4952 4954 4956  4157 4890 8792  5647 7645 7646  4207 4209 9391  1387 3732 3733  1469 1470 1487  8979 8980 8981  5500 7424 7425  3472 4261 4262  3074 3099 4144  5115 5117 9622  129 689 9514  1350 1353 1357  1396 1401 1403  3608 4259 4431  1330 1338 1339  3056 3058 3059  2624 2625 2632  1250 1266 1267  1340 1348 1349  1710 1712 1713  2045 2047 2054  3442 3443 3444  1445 1450 1451  848 1413 4801  3119 4328 9106  1368 1374 1375  1372 1395 1396  6031 6641 6811  2084 2092 2093  4501 4989 8782  2435 2437 3228  3742 3744 8966  1271 1272 9636  3470 3471 3472  1630 1633 9080  5407 7176 7177  8898 8899 10034  3914 6343 8199  4154 4155 4776  5979 5980 6818  5692 5693 5694  6251 8303 10594  8875 8876 8877  7021 7023 8102  1701 1703 1705  532 726 9549  5685 5686 6203  9163 9164 9165  2896 5982 9186  2655 2658 2659  1236 1249 1250  2282 9672 9673  8954 8956 9085  1313 1315 1320  3788 3790 9197  2083 2084 2091  4838 4839 9111  1371 1372 1395  9543 9545 9546  2653 2655 2657  3050 3052 3053  1376 1386 1387  2080 2082 2258  8689 8690 8692  1306 1308 1312  1214 1221 1222  4165 4294 4963  5661 6462 9129  1296 1298 1305  2942 2945 9138  6314 6316 9405  2223 2229 9003  4431 4873 4875  1350 1357 8995  10074 10075 10076  828 1513 6285  6503 7736 7737  4266 5036 10036  1202 1206 1207  6147 8302 12022  1395 1396 1401  1370 1371 1372  4872 7120 9901  1450 5874 9339  1390 1393 1399  2635 2637 2638  1695 1697 1698  4641 6329 6331  1400 1408 1409  6949 7520 7809  1037 1042 5101  5884 5886 5887  7337 7428 8031  1323 1328 1329  1785 1795 9091  9158 9159 9216  4471 5973 9166  5697 9169 9170  3985 4638 9683  2927 2928 9724  687 9320 9321  688 9039 9040  1345 1362 1363  1360 1366 1367  1153 1154 1155  1289 1294 1295  2078 8376 10161  2263 2287 2288  3042 3044 3045  1683 1685 1686  4463 5613 8562  2723 2725 10456  5818 5836 6503  2312 3473 9901  792 793 794  5604 7730 8172  314 611 9494  5743 9168 9729  3396 3403 3404  3851 4088 4320  1410 1415 1416  2343 2384 5158  6119 8177 9587  1312 1313 8953  5189 5190 5818  1689 1691 1692  3776 4449 9910  5461 5462 9450  3391 3395 3396  1086 1087 1088  4688 4935 5184  606 8461 11875  1311 1324 1325  1356 1369 1370  219 575 9213  191 607 8829  1304 1316 1317  5876 8677 8678  5206 5624 6027  6203 8056 8057  4877 5406 5407  1280 1287 1288  4372 5310 6109  4758 4759 4760  3033 3036 3037  62 687 9323  6347 10736 10870  1272 1278 1279  1024 1030 1031  4500 4501 8782  2366 2367 8802  1217 1218 9081  3837 3839 8383  597 11763 13131  2660 2667 9922  3382 3390 3391  6161 6940 8871  1428 1431 1437  1460 1465 1473  2291 2318 9090  1261 1263 1271  4937 9531 9532  4666 5071 5072  2075 2285 3470  35 9596 9954  5741 6324 9168  1075 1076 1077  3374 3382 8444  5773 11115 12501  4872 5967 7073  3103 3110 6006  5724 5726 9409  1601 1602 1603  1077 1078 1079  75 76 9203  2919 2920 9770  1270 1281 1282  2916 2917 2919  2667 3786 9922  6143 7000 10146  1446 1448 1460  3391 5840 9255  1155 1158 1159  7039 7245 8940  2357 3225 9016  3027 3029 3030  2318 2320 2371  4203 4740 7927  5970 6194 7597  890 1205 4798  6260 6545 7573  1419 1426 1427  1363 1377 1379  870 5769 8378  6559 9073 11458  4039 4739 9855  5477 7244 7370  4654 4655 4960  1679 1681 1682  1222 1235 1236  1543 3907 4769  4815 4816 5189  1073 1074 1075  3013 3015 3065  4899 5048 9705  2491 2493 9191  4801 4802 4803  4963 6631 6632  1121 1122 1123  6145 8302 10597  1257 1259 1260  1411 1412 1420  5874 8640 11534  5078 5343 8456  1079 1081 1082  1420 1421 1433  1250 1267 1269  1174 1201 1202  3766 6023 9913  1325 1335 1336  1438 1442 1452  1159 1173 1174  8956 9085 9086  8847 9431 9432  1082 1083 1084  5421 6761 6763  4803 5211 5213  1268 9142 9193  2607 2610 2618  4625 4626 4628  941 943 945  2618 2619 2624  5541 5719 9564  6251 7322 7688  689 9514 9515  1247 1255 1256  6153 6154 6155  2668 2680 2681  1458 1474 3121  1088 1096 1097  2268 2358 2359  4630 4631 4654  3008 3010 3012  4245 5141 5143  2588 2590 2591  3021 3023 3024  2591 2592 2597  6285 6286 8508  1349 1350 8995  3019 3021 8812  6637 8161 9325  186 187 615  4355 4401 4402  3138 9777 9778  6763 7872 7873  1143 1162 1163  2909 2910 2912  4842 5827 5828  1671 1673 1674  81 696 10531  1814 1841 9023  1548 1550 9472  1319 1332 1333  1101 1105 1106  4756 4757 4758  8751 8752 11366  5567 5569 7142  5290 6258 6259  2597 2598 2606  103 591 9524  3167 3169 9559  4731 4841 4842  1417 1419 9073  5293 7038 7039  7198 7199 11181  2172 2173 9109  4844 4846 4847  1059 9212 9718  2374 2376 2861  2639 2653 2654  1097 1100 1101  1360 1367 8949  870 1326 5769  4628 4629 4630  4866 5385 5421  3918 3920 9800  2310 2312 3473  6652 6654 7555  2914 2915 2916  2698 2840 2841  2258 2348 8083  1106 1110 1111  5765 5816 6959  970 972 974  6243 8260 9899  9049 9050 9052  2665 2666 3137  1830 1832 10355  5565 5605 5905  6145 6146 6147  9180 9181 9182  2658 2660 2665  4325 5063 9875  4894 6835 8482  1231 1233 1240  1123 1127 1128  1474 3121 8903  6650 6652 8984  6393 7452 7453  10081 10083 10088  1490 1492 1493  1243 1245 1246  6349 6638 6639  4703 5620 5692  937 938 8741  1376 1387 9044  5027 6338 6339  1665 1667 1668  4729 4730 4731  1657 1659 1660  1416 4166 4203  129 130 9514  2989 4337 4338  5713 7087 7377  3326 4484 5014  2912 2913 2914  7084 8694 12724  1057 1107 9212  2852 2854 4216  2209 2211 2212  3315 3317 3318  6959 6960 7385  3097 3106 9606  2421 2777 2778  1111 1118 1119  2006 2013 10326  6350 10210 10809  2329 2366 4872  7697 10281 12475  969 970 8695  1540 1543 9533  5961 5962 7856  4520 5123 5124  1224 1229 1230  1401 1403 1411  231 232 9735  2783 4248 5418  1300 1309 1311  4532 5200 5602  2781 2850 2851  1128 1133 1134  689 9516 9517  6656 6658 7396  5566 5567 8682  1455 1457 1463  1268 4520 9142  4606 8722 8908  3004 3006 3007  4005 4324 4325  6238 9687 9688  3798 4425 4532  1448 9350 9620  2223 2228 2229  4003 4004 4005  2230 2232 2233  1587 1588 1609  1528 1529 1815  1134 1137 1138  2202 2205 2206  6654 6656 8781  2329 4872 9901  5559 6886 8944  7251 9539 12694  1218 1220 1223  873 1268 9193  4036 4171 4771  2222 2223 9003  1464 1472 1483  7500 7501 8154  5827 6783 8738  2193 2195 2196  8877 8878 8879  3919 6238 10157  2177 2179 2180  4109 4111 4533  4970 5704 5705  8332 8374 9986  8693 8694 9324  8560 8561 9560  5596 7557 7558  2876 2877 4154  1179 1203 4330  1342 1343 1354  2070 2071 9064  4186 10044 10045  123 612 9542  1138 1147 1148  6143 7037 7519  1379 1380 1381  4760 4762 4763  1199 1209 1210  9082 9926 11833  630 8468 11735  4798 4969 4970  8385 8386 8387  6565 8022 9991  4202 4689 4702  1375 1376 9044  2071 2075 9064  5605 5905 7627  1318 1319 1334  4338 4622 4623  7257 10129 11772  1282 1284 3224  2975 3000 3001  3796 3797 3798  2283 2305 2306  2288 4729 9911  3928 3929 3930  2420 2422 4551  5619 5620 9210  5013 6237 6467  1646 1648 1650  5831 7285 8608  4001 4002 4003  2037 2070 9066  3305 3307 3308  1653 1655 1656  2173 2175 2176  3733 12625 12731  6663 6824 9597  3311 3313 3314  1855 1856 2066  2941 2942 9138  2816 2820 8492  2186 2189 2190  8418 8419 8420  5727 7970 7971  2367 2369 2379  1126 5960 5961  4729 6669 9911  1515 1524 1525  6907 9007 9449  2346 2347 2400  2582 2586 2587  2307 2309 2310  4367 5488 8551  2307 2310 9079  2105 2108 8393  4734 5515 5517  4508 4509 4510  4512 4513 4514  1356 3331 9880  2128 2133 8499  5077 5078 5691  2778 4129 4130  8445 10036 10377  4422 5971 6036  1497 1514 1515  4649 8671 9651  3892 4205 9531  1390 1399 8948  7102 7105 9888  103 104 9524  3847 3850 3851  2066 4755 4756  1148 9201 9695  2288 2389 4729  912 1007 1008  4510 4511 4512  4607 10695 10721  2969 2971 2972  4890 5520 5521  123 124 9542  4713 6622 7728  6113 6442 9119  3286 3290 3304  9259 9260 9456  3161 3163 9580  4702 4703 5619  4704 8812 10549  5358 9599 9600  87 639 9551  4995 5187 6197  1980 1984 10357  1195 1197 1198  4732 4733 4734  1486 1500 1504  789 790 791  2961 2963 8870  4454 4507 4508  8407 8412 9199  4130 4453 4454  5485 7191 7192  3920 3921 3922  5515 6649 8777  6351 10695 10721  4049 11640 11880  2355 3123 3124  7000 8174 8175  5026 10605 12872  6801 7004 7339  3477 3491 8452  1189 1191 1192  4551 4552 5416  1642 1644 1645  5403 7094 7095  1492 1493 1494  2091 2092 2095  4274 9553 9555  87 88 9551  1433 1435 1446  3279 3281 3285  3181 3183 9535  1440 8528 12498  537 538 8222  3918 3919 3920  2021 2023 2027  5620 5693 6724  2963 2965 2966  5328 5596 8709  1839 1840 2086  7519 10146 12211  4671 5941 5977  5893 9105 12408  5217 5347 9505  3346 4784 8486  5892 9104 9105  250 251 707  1453 1455 9024  1871 1902 1964  1355 4458 5970  2379 2846 4457  2983 2989 11000  2028 2030 2040  1507 1509 1516  5971 6036 6059  8971 9960 9961  2681 2682 2690  1008 1009 1010  1488 1490 1492  2185 2186 8485  2193 2196 9552  2835 2868 8776  4517 5126 6558  1010 1016 1017  6178 7497 7498  51 52 708  4544 4545 5077  4875 5394 5395  1017 1023 1024  5232 7079 9955  47 568 9483  4288 5583 9867  2314 2316 2401  5533 9590 9763  5696 5697 9169  5696 5698 6608  3187 5891 9239  2371 3114 4732  2279 3342 8512  2418 4058 4188  8354 8364 8367  1452 3811 4854  4459 8672 8673  1165 1838 1839  3177 3179 9553  4137 4347 4348  4774 6500 8726  2956 2959 2960  208 209 9124  1176 1178 1182  1381 1383 1384  2950 2952 2953  6533 9694 10422  3190 3480 9832  1215 1225 1226  4763 4764 5696  1636 1638 1639  8596 9153 9344  6321 6322 8535  1185 1187 1188  181 704 9352  3831 6459 8938  5299 6662 8779  2335 2341 5358  1630 1632 1633  6832 8260 11041  5885 7503 7504  2306 2307 9079  3919 3920 3921  4712 4713 8733  4097 7940 11748  1335 1336 1341  6533 8221 10422  3921 3922 3924  4205 4937 9531  1056 8128 12562  4772 9796 9797  5772 6040 6041  1391 9179 9184  9594 10331 10390  5769 6809 7867  4811 5446 9939  1803 1850 8804  1827 1830 2055  4060 10883 10902  3270 3273 3278  3917 3918 3919  3183 3217 9535  1161 1167 1169  5658 6523 7724  790 791 792  1473 1495 1497  1865 1867 2345  3173 3175 9577  32 33 9608  3252 3254 4527  4586 4587 9815  3600 3607 3973  9907 10782 12641  5967 7073 13026  6442 7831 7832  2946 2948 2949  6824 7255 9597  4697 5565 5605  6036 6059 6060  3299 3300 3301  1624 1626 1627  4407 9659 11678  1146 1157 1160  2359 2360 2361  3982 4524 4525  7104 7105 9825  5695 6125 6529  4799 4800 5269  5366 8746 8751  9126 9127 9128  8290 8295 9340  2414 2416 4904  2931 8791 11186  1466 8569 9803  2576 2578 2579  1342 1356 9880  7409 7410 7999  9229 9230 9231  3503 5329 6404  3185 3217 9832  6165 6166 6757  2401 2402 4486  3297 3298 3299  6767 7338 8034  6776 11629 11904  3282 3283 3291  2040 2041 2249  1384 1404 1405  1419 1427 9073  3117 9368 9369  4486 4487 5300  8809 9133 9412  9291 9292 9293  8336 8372 9764  3582 3584 3588  6662 6663 6664  536 655 9359  5988 6567 9529  793 9386 9684  3342 3981 3982  2942 2944 2945  7438 9398 9399  3179 4274 9553  8817 8820 9441  2139 2140 2217  2135 2136 2139  1936 1949 3489  1276 1290 1291  5528 7275 9465  2022 7877 10929  5111 5122 5265  2681 6625 10002  1518 6201 9594  4178 4659 4661  6136 11922 12460  2868 2869 4799  6194 6993 9648  3916 3917 3918  3295 3296 3297  8554 8555 9503  2579 2580 2581  9069 9070 9071  3926 4422 5971  1484 1486 8970  3276 3277 3282  4063 4258 6367  6113 6115 6442  4048 4177 4178  4809 4811 9939  5243 9425 9426  9290 9295 9311  1304 1317 1318  2133 2134 2135  3501 3502 3503  1405 1422 1423  5652 10938 11127  2572 2574 2575  2276 5811 6983  1437 1438 9145  3837 5823 8383  4674 5290 8972  3292 3295 8472  1802 1811 10334  4879 6500 10600  2562 2563 2596  7072 7261 12408  5934 5936 9569  1936 3489 8677  5945 5946 9246  1617 1619 1620  2229 9003 11136  214 215 9162  1423 1443 1444  5537 5539 9595  9737 9739 9743  5619 6885 9210  808 1817 9229  4604 5575 8611  4638 5709 9683  202 203 9167  1237 1251 2892  3485 4240 4375  6480 7221 9846  4679 8440 12824  3496 3498 3499  5223 6243 8260  6652 7555 8984  2808 2809 2811  1483 6318 6319  6729 9782 9783  2938 2940 2941  3175 3817 9577  1834 1836 1855  1438 1452 9145  2105 2106 2108  2100 4275 8951  1344 1345 1362  4946 5464 8253  7666 9114 9115  2932 2934 2935  1291 1299 1300  1422 1423 1443  5327 6779 10402  2857 9928 10101  2844 2848 3118  7239 9461 9462  3727 3729 3731  8798 8799 8801  1795 9092 9093  6180 6182 9326  1608 1611 1612  8409 9199 9827  2114 2115 2116  2112 2113 2114  627 9633 12038  2110 2111 2112  2911 2976 2977  2108 2109 2110  4672 4673 4674  3471 4261 4263  9277 9278 9317  5072 6948 9948  4434 8755 8963  3738 3740 3741  283 284 9837  7329 10730 12527  9293 9296 9298  3734 3736 6229  4804 5457 5458  2567 2569 2571  2116 2117 2119  2665 3822 9975  2011 2019 2020  1265 1274 1276  251 707 10401  2828 2829 2830  4687 4688 4754  3924 4231 4596  5488 5489 7327  5927 8931 12710  2123 2124 2130  5998 7335 7881  5990 6813 8211  5347 7030 9505  125 693 9525  1798 1800 9136  5152 5687 5939  1604 1606 1607  1404 1405 1422  2983 2984 2985  3588 3589 3599  1342 1354 1356  2157 2377 2378  6059 8273 9366  4810 5348 6610  2564 8559 10687  5071 6321 6323  232 233 556  6617 6618 7770  6656 7396 8781  4553 5607 6004  1505 1507 8971  1264 1274 1275  2928 2930 2931  6608 7523 7791  1501 1521 1523  5774 7076 9848  4751 6024 6026  5406 7176 7178  5890 7195 7893  6522 6866 7271  1803 1804 8804  5781 7404 7405  2841 2842 2843  810 9229 9805  6258 6259 6260  3155 3157 9628  4211 4575 4577  1324 1325 1335  3499 3500 3501  3811 5805 6001  4375 5081 5178  1333 1345 3338  4841 5827 5830  4448 5434 5897  4603 4604 5615  9218 9220 9221  1234 5993 7817  1492 9513 10188  1598 1600 1601  1561 1562 1745  1362 1363 1377  6841 9596 9954  9284 9285 9336  5685 6203 7567  4906 6030 6031  4685 4686 4687  2924 2926 2927  450 585 9702  264 265 709  2259 2348 9604  2811 2812 2813  6031 6590 6641  4263 4877 4878  2820 2821 2822  4668 4670 4672  2813 2814 2815  6767 8286 9780  1383 1384 1404  5919 5921 5922  4666 5072 9948  1663 1665 9747  766 767 768  2977 2978 2979  2528 2533 2534  3783 3967 3968  3731 4146 4147  4166 4740 6559  1861 1863 4822  2554 2555 2562  5479 5481 5482  1238 1251 1252  5331 6604 6605  4662 5649 5770  234 235 711  5539 7016 9595  2979 2980 2981  4733 5515 5516  2539 2541 2542  9506 12916 12991  3089 3091 9766  6610 6611 7859  7291 8685 8686  6323 7343 7871  1227 1237 1238  2296 2298 2300  5265 5266 5781  3741 3747 3748  1379 1381 1391  3212 3214 3215  8847 9429 9431  2920 2922 2923  3344 9035 9036  6001 6399 6400  710 9616 10062  3225 4378 9934  3476 5966 9130  9204 9205 11190  213 580 8920  4627 5241 5242  6491 8185 8425  5663 6812 7284  3748 4500 4501  650 9681 9915  4053 4055 4544  2378 2803 2804  2064 2276 10052  2985 2986 2987  125 126 9525  1309 1311 1324  6768 6769 8122  3493 3494 3495  3571 3572 3581  1455 1463 9024  2519 2524 2525  3794 3815 6062  5108 5109 6042  4344 4345 4667  3137 8728 10002  9835 11497 11847  6093 6675 9704  1216 1225 1227  7859 7860 7889  7645 8163 13097  3723 8906 9900  4173 6213 9952  57 58 9681  8121 8613 8615  6531 6533 6947  7101 7102 9888  3370 3372 6061  4634 5622 9382  5372 5973 6212  5761 5762 5763  45 706 9647  2987 2988 2990  6845 8125 11400  5830 6783 6784  2090 2294 2295  1996 1999 2008  3558 3559 3571  7438 7439 9398  6026 6789 6790  5951 6032 6033  5516 6649 6650  4754 4935 5355  4750 7795 13152  2534 2535 2538  2658 2665 9975  6012 7438 7439  4235 4742 5219  4392 4393 5108  7563 8563 12793  5442 5999 6000  1252 1264 1265  4657 4814 4815  693 9542 9543  207 589 8932  1594 1596 1597  236 237 616  9888 10994 11320  1828 3340 4344  4228 4553 9495  3744 4199 8966  4412 4600 4603  3888 3889 4221  6422 6847 10102  2085 2343 8783  7712 7713 7714  2096 8741 9383  6788 8120 8121  5820 7017 7288  1299 7338 9143  47 48 9483  5897 5898 5899  3337 6618 9117  6790 7031 7933  3132 9841 10969  3613 3667 8571  4572 5362 5363  4265 9399 12740  1687 1689 9793  3806 3808 3809  6690 8605 8606  5899 8004 8092  6322 7520 8535  1531 3916 3917  2990 2991 2992  5922 5923 7514  2300 2301 2336  8340 8370 9795  1332 1333 1344  3999 4327 9919  1894 1953 10114  1798 1824 9136  2420 2421 9234  5204 6221 6222  4830 5323 9467  1380 1381 1383  6222 7298 8969  2039 2335 9599  3477 3478 3491  233 556 9831  5482 6922 6998  3556 3557 3558  4699 4725 9758  2208 2209 9562  48 9008 9483  4402 5196 5197  1790 1826 1828  2542 2543 2547  2994 2995 2997  5132 5133 5478  5528 6999 9465  6016 6754 8145  1733 5551 5815  3466 4864 4866  2073 2075 2076  5242 5758 5759  1180 1203 1204  4115 4116 4597  8723 8725 11274  1172 1179 1180  3724 5381 7002  2547 2548 2554  2992 2993 2994  3355 3356 3359  3192 3200 3202  5986 5988 6567  1820 1841 1842  5770 6466 7781  3374 3381 3382  6047 9851 9959  8087 8142 12847  1164 1171 1172  5531 5533 9763  9380 9381 10302  2997 2998 3016  4296 5205 5206  1371 3227 9538  1810 1811 1812  4381 5203 5204  1682 8233 9522  2807 5221 8993  5767 7650 7651  6048 6049 6851  3536 3540 9862  238 239 713  2069 2070 2071  1590 1592 4833  2018 3787 3788  2082 2258 2259  5763 5764 6129  8000 8002 8003  4410 5195 9247  3016 3017 3066  6130 6133 8607  1856 2066 10833  4231 4295 9099  3220 3221 3493  5282 5284 5592  3149 3187 5891  2525 2526 2527  7980 7982 7983  1144 1162 1164  5918 5920 8148  8457 9660 9661  3071 3074 9603  2287 2288 2289  1290 1299 6767  1204 1215 1216  1788 1795 1796  3153 3188 9757  2320 2371 2372  3157 9583 9628  5121 6490 6491  1444 1450 5874  1431 1437 1438  5979 6818 6829  2512 9459 10998  5644 7713 9175  4233 5107 6145  5646 7026 8645  6667 9236 9237  588 9968 12967  3491 3492 4581  6786 6787 7280  893 1036 9367  91 576 9530  3215 3216 3220  3594 3595 4234  3107 4717 4770  6675 7027 7028  1805 1850 1851  802 1837 9345  1442 1452 1453  7505 7506 7762  1457 1463 1464  1780 1782 1783  3864 8706 8707  2666 3137 10002  4043 8141 12041  4570 4571 4901  5978 5979 5980  534 535 9360  6698 6699 8013  4221 4222 4541  4995 6197 8952  4621 12658 12661  3362 3367 9756  201 593 8942  5846 5848 9453  4345 4668 4669  3529 9540 9889  2785 9944 10090  3209 3210 3211  2094 10742 10758  6742 7399 8900  6644 7844 7845  2336 2337 3715  4759 4760 4762  1303 1304 1316  5761 5763 9043  7380 11061 12625  4339 4859 5718  1486 1504 8970  7824 7826 8157  1977 1987 8712  1582 1584 8809  1393 1399 1400  3809 4435 4436  6133 7084 7085  1774 1775 1776  6460 10983 11117  4432 6249 6251  1472 1483 1484  4541 4542 4886  1408 1409 1410  1415 1416 1417  905 3344 9035  1584 1586 1587  5031 5892 5893  8978 8979 8980  5096 6440 6643  3361 3362 4649  4118 4124 9609  2896 5981 5982  1525 1803 1805  2514 2515 2518  3579 3580 3594  3790 3794 9197  1038 1042 1043  1283 1284 1303  5709 6232 9683  7284 7788 7789  2512 2513 2514  3715 3716 4365  4047 9436 13042  240 241 558  3359 3360 3361  3651 9668 12886  1035 1037 1038  2850 2851 2852  5991 6613 7993  8744 8745 8747  10067 10068 10069  4612 5148 5149  1426 1427 1428  1762 1763 1764  4553 6004 9495  887 10871 10877  5363 6690 6691  1029 1034 1035  1019 1021 1022  6476 6478 9775  3924 3925 4231  1851 2064 2065  4436 4795 4796  4365 4366 5282  97 587 9526  1578 1580 4683  2509 2510 2512  3349 6272 9451  7252 9899 11692  4756 4758 4759  8839 8847 9429  5465 5501 9007  5642 6037 6038  8497 8593 12703  788 789 790  3118 3119 4328  1384 1405 3329  5941 5977 5978  1043 1143 1144  7610 10264 10896  3526 3529 9889  3207 3208 3209  1015 1018 1019  1524 1803 1804  1516 8971 9960  2294 2295 2296  2065 2275 2277  1003 1005 1006  1022 1025 1026  1013 1014 1015  4273 4916 4917  1000 1002 1003  1374 1375 1376  3202 3203 3207  1386 1387 1388  5326 5342 6293  1006 1011 1013  9638 9641 9643  5323 6659 9467  5219 5220 5660  1754 1756 1757  8725 11274 12630  5063 5825 5901  5815 5938 7919  2505 2506 2507  998 999 1000  5204 6224 8731  242 243 714  5660 5661 6462  2507 2508 2509  7209 10835 11214  312 313 723  4407 10306 11161  5393 6635 6636  767 2787 11671  5325 6047 6048  1285 6029 6122  91 92 9530  1682 1683 9522  1026 1027 1029  3188 9628 9814  9736 9737 9738  1500 1504 1505  4705 4707 4708  9386 9387 9388  1603 1604 8793  8408 8410 8422  4549 4550 5132  5418 9118 10573  4403 5243 10302  639 8898 8899  5970 7597 8226  3236 3237 4052  1366 1367 1368  5905 5906 6987  787 788 789  1748 1749 1750  8402 8404 8424  4669 4670 4671  3074 3075 3099  6765 7341 7836  2503 2504 2505  2879 2881 10038  235 711 9840  4901 4929 5312  2760 2784 6239  8731 8732 12742  1353 1357 1358  4458 5970 6194  1509 1516 1517  8699 8702 8704  4673 5685 5686  996 997 998  5895 5896 6765  5040 5139 9804  1740 4691 4780  6475 6476 6884  244 245 617  6491 7759 8184  5563 6468 6626  1338 1339 1340  5942 7840 8075  3081 3083 8681  4787 5233 6173  3994 4224 9953  6214 7287 7965  1574 1576 1622  4070 4072 4392  5910 7188 7189  7191 7192 7717  2102 8951 9464  1507 1516 8971  1543 1544 3907  2311 2312 2313  1348 1349 1350  1558 1561 8471  4770 4913 4914  273 647 8873  5613 6512 7562  5982 5983 5984  1161 1169 8697  1735 1736 1737  1423 1444 1445  3095 3096 3097  1815 1816 2056  1836 1855 1856  1517 1790 1791  4157 4746 4890  4178 5339 8688  3103 3104 3110  9346 9349 9598  8701 9834 9835  4914 5646 5647  311 312 8652  5771 7238 7239  2494 2495 2496  5628 5894 5895  74 684 9217  2544 6007 6008  1363 1379 1380  5957 6035 7994  8747 8748 8749  1343 1354 1355  9265 9266 9457  5149 6276 6277  2496 2497 2498  5106 5627 5628  2670 2691 3796  2492 2493 2494  2366 5967 8802  232 556 9735  5119 6982 9879  3788 3789 3790  97 98 9526  961 8619 10970  4053 4544 9691  2313 2329 2330  246 247 715  8344 8368 9810  684 9203 9219  6832 9998 10186  8833 8835 8852  3081 3109 8681  4052 5105 5106  2490 2491 2492  4231 4232 4295  1725 1727 1728  3605 5994 5995  3085 3086 3087  6038 6039 9084  2642 2656 4001  5686 6203 8056  1570 1572 3332  6142 8160 9192  3522 3555 3556  1791 1826 1827  5290 6259 8972  4758 4760 4761  3831 5611 8938  2330 2366 2367  8362 8501 8502  2488 2489 2490  3984 4504 9949  8949 9384 13052  4762 4763 4764  937 2096 8741  535 9359 9360  3829 3831 6459  4739 5915 9855  2008 2009 2867  6636 8052 8053  6981 10336 11382  4271 4642 4643  969 4753 8695  9281 9283 9306  2723 2747 10456  6693 6694 7124  9288 9290 9295  9263 9265 9266  3086 3087 9761  991 992 993  5698 6608 7523  3106 4550 9606  8854 8858 8859  1097 1101 8992  5848 7409 9453  3790 3791 3792  8845 8849 8850  989 990 991  6158 6159 7147  9290 9294 9311  4766 5783 5784  3849 4376 9959  2236 2264 2265  1281 1282 1283  1718 1720 1721  208 8932 9124  3064 3076 3077  702 7949 12340  993 994 996  9217 9218 9222  6495 10193 11060  5980 6818 6819  5136 6540 7108  8841 8843 8846  4111 4112 4456  2298 2300 2301  53 54 564  248 249 563  1328 1329 1330  859 861 1212  2380 2846 4152  3345 3862 6535  9268 9270 9271  1741 5640 5641  3855 4748 4749  986 988 989  8837 8839 8847  5510 6875 9923  7513 8529 8530  1315 1320 1321  6439 6441 7212  7462 7463 8761  6008 6009 6010  2234 2235 2236  3124 3125 4515  6182 9248 9249  4109 4110 4111  853 1292 9460  2289 2291 9830  3199 3201 3487  3292 3294 3295  1566 1568 1649  1311 1325 6897  268 9069 9537  2360 2362 10991  4697 5564 5565  4115 5908 8659  855 857 4172  1308 1312 1313  5566 6828 8682  5174 5379 5380  5239 6969 6970  3504 12398 12749  1230 1231 9749  1340 1349 8997  1069 8213 11327  5060 5438 6188  1189 1192 8685  4916 5771 9461  1712 1713 1714  4741 6944 9397  2098 2100 4275  2265 2282 2283  5603 7387 7388  5443 6045 6046  1850 8804 10052  867 10897 10931  2839 2845 4270  3058 3059 3060  5282 5283 9556  4702 6144 9992  9299 9301 9302  8347 8349 8352  4755 4756 4757  5124 6520 11716  8539 8543 8544  6592 6594 6595  6824 7254 7255  851 853 1292  3239 3241 6058  8351 8355 8356  843 845 2895  6316 6592 9400  847 849 850  984 985 986  1564 1566 9385  175 176 695  3240 5112 7281  5848 7408 7409  1298 1305 1306  179 627 10583  981 982 984  5442 6018 8933  2322 9947 10158  5019 5736 6178  3926 3927 4422  5247 5248 5249  6596 10535 11736  4708 5433 6230  839 841 1346  2279 2776 3342  5226 6164 6165  2789 2790 4077  2259 2261 9604  861 1212 9473  4599 4912 5655  835 837 2897  2309 2310 2311  5995 5996 5997  5592 5717 7180  863 865 4359  2932 2935 8791  2835 2860 2868  6230 6805 7532  1703 1705 1706  8957 10218 10220  1636 1639 8455  4657 4815 8532  3347 3349 6272  4764 5696 5697  4454 4508 9601  2221 2222 2223  1249 1250 1266  3351 3353 3354  2100 2102 8951  2213 2220 2221  8837 8847 9433  5146 5160 9708  3052 3053 3054  4780 5674 5675  2128 2131 2133  5071 6323 10006  6507 7771 11015  3268 3275 3276  5299 6661 6662  4919 4920 4921  979 980 981  1121 1123 9029  1986 1987 1995  7464 7465 8055  845 2895 9485  5796 6314 6317  5726 5796 9408  1045 1142 9376  841 1346 9486  5530 5531 6671  9355 9356 9357  3860 4610 4611  2831 2833 2834  7452 7454 12906  2487 2489 9242  4718 6637 7823  837 2897 9489  831 833 1398  2104 2107 2142  833 1398 9474  827 829 830  1294 1295 1296  228 229 9379  3116 8894 10629  5784 5933 5934  5197 6156 6157  2369 2379 2380  1697 1698 1699  2185 3233 8485  2500 2502 2503  803 1530 9000  4202 4702 9992  2149 2151 2152  1790 1828 9960  9291 9294 9314  5934 5935 5936  5328 6785 8709  823 825 2899  4489 5727 9871  1317 1319 1332  700 9611 9617  3235 3238 4711  1336 1342 1343  2568 2683 3139  640 8817 8818  6099 6101 9721  3922 3923 3926  7879 12129 12955  2120 2122 2123  2894 4681 5274  977 978 979  4003 5316 8665  3044 3045 3046  909 911 913  313 723 9494  1558 1560 1561  3143 3144 3145  3145 3146 3147  4712 4715 8733  4763 5696 5698  3487 3915 5095  950 951 952  4485 6013 6014  4810 6610 10013  1287 1288 1289  948 949 950  6399 6400 9605  975 976 977  952 953 954  2498 2502 8446  3474 3476 5966  3754 3756 10092  956 958 959  954 955 956  959 960 962  1691 1692 1693  4784 6546 8486  819 821 1429  2950 2953 8730  8341 8343 8353  964 965 966  962 963 964  54 564 9678  1084 1087 9470  2207 2208 2209  3261 3263 3284  1278 1279 1280  5696 6608 9169  5458 7122 12006  5682 7197 7198  3315 3318 8676  966 967 968  2232 2233 2234  6770 8447 9226  1646 1650 8706  968 969 970  4149 4752 10249  2209 2212 9562  5709 5724 6232  6728 6729 9458  946 947 948  6428 11387 11468  1256 9653 9654  2197 2198 2199  1824 9094 12989  5613 7563 8562  3796 6899 8808  4797 5461 5462  825 2899 9497  3476 3479 9130  4214 4272 4273  1199 1210 8698  9163 9165 9624  8860 9818 12161  3036 3037 3038  3565 3587 4048  6701 6702 7664  7410 7999 8000  1263 1271 1272  2199 2201 2202  1685 1686 1687  4768 4836 6034  9065 9980 10606  8663 8664 9696  3257 3259 3324  6119 8176 8177  3864 8707 11700  936 937 938  5633 5634 8890  1488 1489 1490  1267 1270 1281  813 815 1467  2825 2827 2828  4367 5198 5488  7143 7363 7440  1235 1236 1249  1855 2066 4755  2305 2306 2307  4749 5214 5215  3141 3142 3143  5215 5566 5567  3872 4433 4434  3070 9603 10792  932 933 934  9419 9421 9424  4096 9423 12185  2816 2819 2820  1369 1371 3227  5364 5365 5822  930 931 932  934 935 936  5097 5251 5684  2211 2212 2213  41 42 11134  2451 2487 2488  70 685 9241  926 927 928  1521 1522 1531  6209 6495 10918  895 897 3117  2969 2972 8447  3100 3103 8660  5559 5560 6280  5474 11230 12882  8543 8544 12516  928 929 930  923 924 926  8348 8366 9838  2805 2807 5221  3029 3030 3031  9616 10062 10063  2576 2579 10054  6327 7586 7587  214 8920 9162  1443 1458 8640  1681 1682 1683  2807 2810 8993  4284 4286 6175  5206 6892 8771  8850 8851 8853  4760 4761 9972  3496 3499 10044  919 920 921  921 922 923  5950 5952 8016  917 918 919  3128 8889 10559  4270 4321 5279  6059 8272 8273  4917 4918 4919  9170 9172 9173  8872 9439 9440  2339 2352 2789  4747 9734 10438  2228 2229 2230  6148 7640 7641  1259 1260 1261  913 914 915  6077 7518 10639  915 916 917  1461 1469 1512  9691 9692 10255  889 891 892  3367 4583 9756  3139 3140 3141  4136 9704 11770  4209 4413 5163  5417 7267 9501  1310 4888 9652  2191 2192 2193  1552 1554 1704  1550 1552 9471  643 8959 8960  869 871 872  7114 7115 7662  5323 5844 6659  875 877 3113  8356 8357 8361  3023 3024 3025  879 881 1004  877 3113 9536  1501 1502 1521  807 809 1503  646 8976 9019  5688 5689 7114  2698 2841 10154  8562 8563 8564  3015 3065 9254  899 901 1406  1255 1256 1257  3782 8995 9946  881 1004 9541  905 907 9035  1828 4821 9960  883 885 3343  2181 2182 2183  267 645 9069  3346 4783 4784  262 263 569  3067 3069 3070  265 709 9713  192 8829 9492  7795 7796 7797  3111 4109 8667  1221 1222 1235  1673 1674 1675  2142 2143 2144  2152 2153 2154  2183 2185 2186  3071 3073 3074  9256 9257 9258  2261 2263 9911  3354 3357 3358  5839 7312 7313  4311 7414 9506  202 8942 9167  2177 2180 9005  3979 8162 11232  2708 2710 4646  2817 4616 4720  1334 6051 6052  4611 5134 5135  2144 2145 2146  3010 3012 3013  254 9002 9466  5135 5328 5596  2154 2155 2156  972 974 975  4711 4712 4713  5771 7239 9461  4133 6192 9869  3358 3363 3364  903 905 3344  1245 1246 1247  5139 5140 5688  3486 9627 12523  1531 1532 3916  7452 7453 7454  2164 2165 2166  5036 9247 9250  1474 1475 1501  5650 5793 5798  2159 2160 2161  2205 2206 2207  4858 5546 5547  1341 6057 9880  2161 2163 2164  4670 4671 9994  2195 2196 2197  5569 7142 7143  2166 2167 2168  5109 6042 10183  2156 2158 2159  4902 6028 6168  3232 4635 4719  2028 2040 10138  6988 7458 8600  2168 2169 2170  1211 1217 1218  6674 6675 7027  68 557 9245  1667 1668 1669  803 805 9000  3582 3588 10110  1207 1214 1221  3048 3050 10981  9346 9348 9349  5769 7868 8378  8389 9964 10655  892 893 1036  3491 4582 8452  5160 7320 9708  4692 5485 9918  4682 6084 6086  4610 5134 8754  1317 1332 9957  3100 3102 3103  2108 5322 8393  9122 9123 9697  4890 6888 8792  8868 8869 11817  1973 1975 1976  2170 2172 2173  828 829 9717  5040 5041 5139  2590 2592 11095  3006 3007 3008  253 637 9002  6130 6132 6133  4784 4785 5040  8335 8337 8359  1233 1240 1241  4171 4771 4772  8365 9667 9668  6323 7926 10006  2301 2336 2337  4484 5014 5097  4893 5530 9675  4856 5267 9448  1201 1202 1206  3810 3812 4353  6709 9982 10355  7018 8208 8209  4590 4592 9671  6478 7221 9775  1325 6897 9987  7039 8939 8940  6110 6111 7053  4589 5441 5442  7087 7377 7378  943 945 946  6187 6813 10653  1659 1660 1661  4764 4765 9327  3884 3886 3887  4528 5496 10131  8874 8875 8876  5347 6875 7030  3540 3550 7201  1546 1548 1746  5195 6180 6182  1971 1972 1973  4205 4207 4937  2421 4652 9234  4917 4919 4920  4584 4586 4587  1229 1230 1231  644 8954 8955  3663 3667 3688  6734 8215 8216  7851 7892 10016  2335 5358 9599  1487 1488 9513  7102 7104 7105  3111 4108 4109  2219 9004 10503  66 686 9251  3574 10352 10353  5595 6961 6962  3000 3001 3002  5740 5742 7754  1068 1070 4883  4793 5757 9224  8331 8333 8360  5435 6116 6117  1072 1080 1089  2179 2180 2181  1064 1066 1481  6742 6743 6744  5881 5883 6128  7027 7028 8152  8700 8701 9523  1969 1970 1971  1967 1968 1969  7183 9043 11386  3317 3318 3319  2462 10313 10317  7557 7558 7795  1511 1526 1527  5787 7699 7917  7046 10938 11127  4365 5282 5284  2225 2315 3721  4018 4351 10197  5757 6874 8018  4248 5418 6997  2189 2190 2191  5444 9397 11947  2790 2792 9794  8036 8039 9753  1220 1223 1224  3205 4114 4115  5463 5464 6624  1965 1966 1967  5744 5746 7486  1655 1656 1657  1976 1977 1986  5798 6002 6568  6200 6921 8186  7252 8244 9389  6157 7174 7561  2866 4645 5871  1343 3803 9987  6168 6169 9195  6084 6086 6830  7408 7409 7410  4973 6279 10189  1332 3490 9957  1826 1827 10031  801 803 1530  6568 6569 6570  6740 6741 6742  57 650 9681  3015 3019 9254  4651 5877 5878  4122 4380 4381  5141 5143 5563  4552 4853 9521  1058 1060 1239  607 8829 8830  2175 2176 2177  5057 5153 7139  2971 2972 2973  4479 4480 4481  2693 2877 11170  2820 5968 8492  6610 7916 10013  4118 4120 4124  8353 8925 8926  533 628 9549  1209 1210 1211  5392 9545 11248  3976 4254 10012  3190 3194 3480  615 9612 9613  3367 4417 4583  8256 8257 8258  2395 2397 9983  7424 7425 7643  3183 3185 3217  8765 8766 8769  4112 4456 9932  1855 4755 9982  2957 9163 9164  4353 4354 4479  3313 3314 3315  1648 1650 1651  4673 5686 9994  1070 4883 9592  2352 2789 2790  3212 3215 10091  786 787 788  64 614 9320  1066 1481 9593  2792 4174 4213  3730 4807 10013  3405 3407 4415  6180 7169 9326  5925 7007 7436  6329 6331 9256  4857 5545 5913  5915 7100 7101  7001 7357 12270  5748 6152 7225  1615 1617 9985  4262 4342 10006  8325 8327 8365  2905 9163 9624  2528 2534 10115  1197 1198 1199  1540 1542 1543  3179 3181 4274  872 873 1268  5488 7328 8551  8768 11938 12644  2074 8546 8547  5307 8634 11781  4763 5698 9972  785 786 787  1336 1343 9987  2539 2542 10111  7038 7039 7245  2965 2966 2967  6478 6480 7221  6338 6339 9236  5284 5592 5717  2133 4747 8499  1173 1174 1201  3307 3308 3309  7460 11307 12196  1628 1629 1630  4266 4410 5036  9182 9183 9836  3579 3594 10184  132 688 9040  3484 4076 4676  4720 4721 4722  4174 4213 4214  1154 1155 1158  2336 3715 3716  3716 4365 4366  6357 6397 7051  4423 4695 4697  2202 2206 8467  1158 1159 1173  3793 3892 4179  4722 4723 4831  3531 3537 3579  1644 1645 1646  5750 5751 7491  8305 8307 8375  6198 7354 7899  4831 4926 5750  4410 5036 9247  4213 4214 4682  9356 9686 10062  3175 3177 3817  6758 8027 8181  5947 7472 7992  7894 7895 11261  4717 4913 8478  6723 9534 9700  7664 8130 8774  6338 6667 9236  6086 6830 6831  3382 5840 8444  8004 8005 11328  1603 3482 8793  4719 5296 5297  5887 7379 9498  5985 6474 6475  2903 2957 9163  6155 7428 9507  1247 1256 9655  4389 6080 10207  3815 6062 10133  5780 7973 7974  3171 3173 3219  4522 4590 4591  5916 5917 9196  5698 7524 9972  2959 2960 2961  1170 1175 1176  4591 4592 4593  5717 6734 9411  128 689 9517  2249 8534 8582  5988 7449 9529  5310 6109 6110  4593 4994 4995  2476 10339 10340  2657 9364 9975  132 133 688  5721 5774 7076  3302 6099 6100  2623 4782 5186  3290 3304 3305  5785 5797 7292  1733 5815 10099  4568 4569 5009  4189 4521 4522  1621 1623 1624  2519 2525 10128  3409 3411 3990  1395 1401 1402  4463 5103 5613  1521 1523 9687  4882 5499 5785  3774 3775 3776  1191 1192 1193  284 285 717  3444 3450 9550  5260 6628 6629  8312 8314 8371  4323 4881 4882  3499 4186 10044  8318 8320 8323  3772 3773 3774  258 703 9728  1151 1153 1154  4288 4290 5583  4765 9327 9328  1638 1639 1640  2251 2356 4450  4366 5282 5283  3742 3743 3744  6302 7928 8397  3887 4322 4323  2952 2953 2954  6419 6420 9906  2868 6427 8776  6595 9401 9402  4272 4273 4916  533 534 628  4033 4036 10094  2679 3786 4894  1267 1281 10009  1405 1423 9619  5186 5573 7070  8358 8503 8506  3281 3285 3286  2560 11503 11718  3301 4271 8905  56 650 9045  1130 1131 1132  5686 8451 9994  1132 1135 1136  1136 1139 1140  5539 5541 7016  2927 11636 11809  1125 1129 1130  1140 1145 1146  3165 3167 3206  2026 8538 8539  2841 4818 10154  9639 9640 9644  2453 6262 10304  2666 2668 10002  1116 1124 1125  8319 8321 8369  3770 3771 3772  3342 6275 8512  1823 2085 8783  4230 4256 4647  796 2034 9571  4888 5778 10906  6011 6487 7513  5592 7180 7719  228 698 9379  4767 5501 5502  2296 2297 2298  6243 7251 7252  5535 5537 6711  8714 8715 8717  39 40 572  8038 8039 8040  1187 1188 1189  6093 6674 6675  8333 8360 9602  1632 1633 1634  9230 9231 10021  6662 6665 8779  2948 2949 2950  3546 3574 10352  5746 7486 9626  1114 1115 1116  3413 3415 3461  3726 9023 9976  1151 1154 9695  697 9681 9682  6238 9688 10716  1445 9619 9853  5048 6507 9705  3214 3216 8453  7244 7370 7958  5009 5010 5156  6056 6113 6115  1613 1614 1615  1214 1222 9150  7086 12384 12506  5760 5765 5816  3446 3449 3468  2626 3910 10250  2324 2392 9748  1458 1459 1474  5871 5872 5873  1119 1121 1122  4921 5193 5194  3764 3765 3766  10177 11533 12293  2457 2462 10313  1534 1536 1781  1089 1090 1091  3159 3161 3197  9744 9746 12173  2907 2909 2910  1109 1113 1114  5123 5124 6520  4662 5770 10113  1178 1182 1183  4623 4625 4626  3540 7201 9862  1104 1108 1109  8012 11836 13083  1099 1103 1104  603 8221 11053  5187 6197 6198  1084 1086 1087  3417 3419 3455  580 8920 8921  3758 3759 3760  1095 1098 1099  1093 1094 1095  3157 3159 9583  6633 7308 7851  1091 1092 1093  7794 7924 11358  3969 4595 10040  3802 6279 10192  3756 3757 3758  8311 8313 8316  4327 4870 9919  4422 4423 9699  3273 3278 3279  4687 5191 10024  3754 3755 3756  1465 1495 1496  5349 5446 5447  3485 4076 9774  5915 7101 9855  1626 1627 1628  3153 3155 3188  3922 3924 9657  6115 6442 7831  2944 2945 2946  3752 3753 3754  2790 2791 2792  1527 1822 1823  7094 7095 7096  608 10916 11236  7658 10171 13125  4984 6826 10993  2982 2989 4337  4322 4881 9725  9032 11929 12605  3750 3751 3752  8326 8328 8519  3746 3749 3750  3744 3745 3746  6128 6943 6965  8216 8217 8218  5985 6475 9842  5757 8018 9224  4577 4578 4855  3418 3420 3425  2903 2905 9163  1167 1169 1170  4562 5360 6766  6269 6932 8180  6683 8297 10946  5878 5879 5885  6106 6107 6108  8215 8216 8217  3424 3440 3441  3295 4934 8472  4441 5500 10273  1443 1449 1458  3423 3439 3447  4893 5319 5530  2579 3832 10054  5016 5018 10303  1045 1047 1142  7316 8464 12428  5223 6242 6243  3407 4415 9650  2754 4641 10257  2940 2941 2942  3730 4806 4807  4755 6709 9982  4676 5417 7267  1052 1054 1468  2404 5180 9870  2901 2903 2957  4685 4687 10024  1458 3121 8640  5836 6503 7736  4058 4188 4189  1157 1160 1161  1902 1964 1965  4273 4917 4918  6104 6105 6106  4423 4697 9699  1766 1768 10155  187 615 9610  5190 5818 5836  4099 6199 10043  6027 6585 8432  1122 1123 1127  5117 5119 6982  1510 1528 1529  5602 7730 9491  1619 1620 1621  6091 6093 9704  1996 2008 10212  8330 8332 8374  3414 3416 3462  1127 1128 1133  3228 8770 10557  3505 3507 10950  4816 5189 5190  7225 7286 7654  1137 1138 1147  5916 7381 9196  3410 3412 3436  2088 2303 4891  5111 5265 10183  7275 9465 9894  1133 1134 1137  2792 4173 4174  6322 6948 6949  5050 5916 5917  2052 3914 10301  3805 8953 10585  3070 3071 9603  6442 9119 9856  2934 2935 2936  5490 7226 10015  2501 6732 10246  6102 6103 6104  5447 6845 6846  5763 7183 9043  6846 8035 8036  8512 8513 8514  7980 7983 9771  6800 7517 11637  2364 2421 2777  7148 7149 7150  1047 1142 9759  8304 8306 8309  6100 6101 6102  2466 2476 10339  8035 8036 9753  4631 4654 4655  3575 3603 10371  3448 4165 4294  1105 1106 1110  6632 7307 9843  1602 1603 1604  1740 4780 10140  8181 8182 8183  2917 2919 2920  5207 5710 5715  4682 6083 6084  9414 9415 9416  1110 1111 1118  5042 7117 10640  4258 6367 7352  3406 3408 3463  4572 5363 10142  4742 5220 9782  1100 1101 1105  5656 5678 8772  1087 1088 1096  6747 8101 8156  6867 10474 10937  3470 9064 9980  76 555 9203  8588 8590 8592  5701 5702 5703  2844 3118 10205  4412 4603 10133  5018 10303 11968  4255 4608 5130  1096 1097 1100  4855 4856 5267  4629 4630 4631  2333 4372 10306  2930 2931 2932  8142 8143 11841  1047 1049 9759  4300 4980 10388  5178 5946 9587  5428 6265 7657  1665 1668 9747  8707 9159 11361  2392 3992 6091  6960 7385 7386  6171 7344 12718  4807 4808 4809  4516 4519 5527  1078 1079 1081  6091 6092 6093  1823 2059 2085  4542 4886 10008  8587 8589 8591  3588 3865 10110  4262 4341 4342  1076 1077 1078  46 568 9647  4626 4628 4629  1081 1082 1083  2915 2916 2917  2363 2420 2422  1611 1612 1613  7022 7940 9566  5416 6143 7037  3331 9880 11023  2623 5186 10222  6133 7576 8607  8325 8365 9667  1231 1240 9749  1778 1782 8473  8334 8336 8372  6329 6797 9256  4235 5219 10184  5194 6079 6158  1411 1420 3339  795 797 1849  5816 6959 6960  8363 10253 10293  2926 2927 2928  7267 9501 12722  8863 12282 12357  5188 9396 10243  1606 1607 1608  735 11665 12244  4466 5656 9929  9312 9315 9316  1351 9156 12711  4879 5253 5254  8935 8937 12890  6005 6896 7649  1071 1073 1074  4362 8384 10937  8320 8323 9669  5548 6149 6348  2384 5158 10574  2323 10108 11975  8651 9940 11010  3411 3990 9674  6831 8459 8460  4513 4514 5090  9430 9435 9436  8567 8568 11419  5502 6904 6905  315 611 9845  4774 4775 4879  6875 7030 7675  5510 5512 9923  5912 7000 8174  1074 1075 1076  5887 6852 7379  1048 1050 3131  1949 3489 4650  6831 8460 8461  6155 7337 7428  4896 4897 4911  1538 1540 9533  1061 1063 1480  5759 5762 9607  2657 9363 9364  2825 2828 10274  1281 3720 10009  4511 4512 4513  2913 2914 2915  2910 2912 2913  2636 4773 4774  900 902 1394  168 758 11695  4814 4815 4816  4566 5405 5559  5882 5884 5886  2922 2923 2924  2130 5902 9561  5745 5747 5789  4337 4338 4622  1207 1221 10056  4876 8559 9824  3215 3866 10091  4962 7079 10059  4504 5809 9949  5113 5632 6352  6515 8751 11366  2090 2293 2294  5749 6153 6154  888 890 1205  1120 1126 5960  5828 5829 5831  2716 5102 10349  8352 10253 10293  6027 6893 8432  4509 4510 4511  965 967 9784  4342 4665 4666  4227 4228 4553  5739 5741 6324  3468 3469 4227  4894 4895 4896  3248 3252 10230  4224 5514 9953  8338 8340 8370  5490 7077 7226  1544 1546 9658  896 898 3127  3925 4231 4232  1055 1057 1107  5501 6907 9007  3087 3827 9761  1270 1282 9227  5160 5733 7320  1083 1084 9470  1065 1067 3488  4507 4508 4509  3415 3461 9679  4482 7507 8240  2332 2874 2875  3818 6284 10223  6571 6739 6740  6109 6111 11161  3091 8894 9766  6079 6158 6159  9280 9317 10545  884 886 3129  6121 10044 10045  692 8147 11943  2341 2381 2382  1600 1601 1602  1152 1165 1838  4144 4906 6030  1596 1597 1598  6358 9558 13121  6709 8206 10355  231 9049 9735  2513 2515 9807  7095 7096 9707  3443 3444 3450  3489 5876 8677  6829 7753 11912  6734 8216 9411  2777 2778 4129  8318 8323 9680  2085 2324 2342  6161 6368 6642  10118 10807 11253  4870 5146 6345  283 9013 9837  5752 8275 10580  4967 7081 10073  5517 6565 7996  9052 9735 9736  904 906 3486  854 856 1807  3301 3997 8905  3622 3677 10408  3447 3465 3466  1044 1045 9376  4129 4130 4453  4453 4454 4507  5834 7499 7500  3921 3924 3925  5815 7938 10099  2542 3813 10111  5831 5833 5834  3441 3442 3443  6180 6181 7169  1435 1448 9350  6093 6094 6674  6020 6788 8120  860 862 1351  9287 9336 10542  846 848 1413  1832 1834 9982  1689 1692 9793  880 882 1273  2276 6984 10052  5281 6696 7508  6812 7788 11075  826 828 1513  4769 6551 6723  5429 7340 10367  842 844 4169  5168 6538 10406  868 870 1326  864 866 3126  1051 1053 3138  2902 2904 5773  3618 7141 10384  832 834 3785  838 840 1440  2534 4356 10115  5607 6004 6005  8288 8290 8295  2524 2526 9820  6324 9750 9751  2463 4049 11385  6384 6385 7210  8818 8820 8821  7169 7170 7171  8342 8344 8368  4919 4921 5193  822 824 4558  1493 1510 9548  818 820 1520  5705 9750 9752  1561 6640 8471  6074 9677 10589  6352 7647 7874  9472 11597 11818  3977 9895 10064  8638 8639 11560  5195 5202 6180  910 912 1007  3359 4459 8674  3137 3822 3823  9415 9418 12928  1101 3120 8992  9087 9088 9904  3713 9998 10186  5679 6499 10375  2040 3877 10138  5770 7829 10113  2648 2692 10407  4732 9090 9991  3777 3779 3780  5315 6553 9377  5962 7856 7857  5602 5604 7730  5619 6144 6885  6761 6763 7872  876 878 3133  10233 11657 11873  2764 4244 10410  1586 1587 1588  1856 1857 1858  4294 4963 6631  2087 6268 11149  3948 3952 4644  3559 3572 9844  5385 5421 6761  2224 2314 2316  4427 5223 9998  4427 5222 5223  1040 1041 1044  4705 4708 10176  2422 4551 4552  6094 7059 9812  804 9345 10554  6114 9120 9121  1032 1033 1040  6604 6605 8162  51 708 9670  1123 3368 9029  4747 8499 9734  2533 2535 9841  3276 3282 10299  1510 1529 9548  791 793 9386  4334 4618 7661  2981 2983 2984  2525 6682 10128  8037 8527 10103  4143 5180 9935  3909 5772 6040  2357 2370 3225  5838 6609 7682  7374 11115 12501  5824 9581 12795  3767 3769 3770  3103 6006 8660  1030 1031 1032  6260 6261 6545  3823 3824 4202  7872 7873 8213  5960 5961 5962  5142 6063 10292  5565 5905 5906  6388 6389 8494  5330 6388 6389  2908 2911 2976  6388 7541 8494  3917 3919 6238  6590 6641 7896  8346 8348 8366  3584 3589 9858  8051 8143 11841  4905 10331 10390  2337 2338 2339  5048 5436 6506  9345 9346 9598  1858 2089 2090  5178 5945 5946  3233 8485 10198  3416 3462 9701  7450 12286 12492  3785 11171 13037  812 814 1792  7092 11526 11835  2790 4077 9794  3761 3763 3764  3483 3485 4240  1840 2086 2087  6030 6031 6590  8174 8175 8594  33 34 578  7428 8031 8032  2243 3896 10432  1629 1630 9080  4410 4498 5195  9746 10037 12173  76 77 555  784 785 786  6213 6235 10380  3229 7659 10256  2676 2707 10423  5809 6088 6586  6036 6060 8265  1827 1829 1830  6545 6781 6782  8405 8407 8412  990 992 9834  5514 7269 7270  4109 4533 8667  2339 2351 2352  6547 9028 11742  3412 3436 9706  6905 7061 9665  5428 7657 9896  7498 8400 8401  2337 2339 9924  2881 4743 10038  4624 4627 5241  6389 8494 8495  274 8873 9588  6146 6147 7301  1838 1839 1840  4674 5289 5290  2130 4885 5902  5300 12424 12485  8120 8121 8613  27 28 588  3208 3210 9861  9336 9337 9631  2019 2022 10929  8411 8414 8421  1491 7136 7137  3403 3404 3452  2335 2340 2341  8000 8001 8002  3395 3396 3403  8555 11755 11888  2686 3912 10433  6364 10033 13078  531 532 726  6000 7413 9584  5759 5761 5762  3408 3463 9712  4174 4214 4272  3390 3391 3395  4194 6616 10121  3920 3922 3923  5924 5926 8450  74 75 684  4627 5242 10244  8416 8418 8419  6047 6049 9851  5464 7665 8253  8350 8354 8364  168 11695 11780  5451 12101 12421  1830 1831 1832  1433 1446 1447  4394 5227 9178  1488 1492 9513  4864 4866 5385  4466 5181 5656  6456 6836 10425  6386 7282 7283  4564 5668 9895  6092 6151 9950  3907 5467 6126  5240 10210 10809  6021 7601 7602  1792 9805 11094  3410 3436 9712  8843 8846 10262  1562 1745 9909  710 9686 10062  2095 2387 2388  1505 1506 1507  284 717 9837  3337 6617 6618  5363 6692 10142  6092 6093 6094  6854 6890 10424  1213 1234 5993  7273 7274 12320  6094 6674 9812  3628 3687 10482  5294 7038 10480  5886 5887 9498  6154 6155 9507  5906 6987 6988  5290 6257 6258  1834 1835 1836  4071 4752 9727  2977 2979 10271  6197 8173 8952  8125 11400 11710  1300 1301 1309  5913 6902 6903  72 73 613  4642 4643 9149  1063 1480 9781  5193 6120 9999  1560 1561 1562  3992 6091 6092  4508 4557 9601  9004 9005 9656  2806 2808 2809  8876 8877 8878  9275 9277 9278  1832 1833 1834  5183 6421 9897  224 8817 9441  2298 3717 10196  3562 6777 9754  6095 6096 9964  2397 4446 9983  2291 9090 9830  1036 9367 9372  5512 5528 6999  5644 7712 7713  806 808 1817  6867 6868 10937  9286 9527 10987  7458 8600 8601  3300 3301 4271  1789 1853 10145  5029 7384 10206  4596 9099 13062  4603 5616 10133  9476 9478 9479  4583 4584 9769  5964 8637 9362  7602 9762 11915  5315 5368 6552  1355 3803 4458  8144 10856 11093  2652 2653 9363  6083 6084 6085  2103 2105 2106  1421 1435 1436  9282 9284 9285  2063 9386 9387  5107 6145 6146  3231 4634 5622  5265 5782 10183  4776 6160 6161  5098 8575 11793  2690 6625 7995  3298 3299 3300  1016 1017 1023  1009 1010 1016  4812 6267 6602  1205 4798 4969  1023 1024 1030  1007 1008 1009  4533 8667 9762  3118 4329 10205  1484 1485 1486  2632 2640 2663  4780 6700 10140  8322 9667 9669  9289 9291 9292  3916 3918 6273  8834 8836 8866  2150 2157 2377  5577 6050 12295  3381 3382 3390  1464 1471 1472  2984 2985 2986  70 71 685  1169 5070 8697  1002 1005 9864  5676 6283 7080  2791 2792 4173  4643 9147 9148  3104 3110 3111  3778 4156 10278  3296 3297 3298  8349 8352 10293  4743 5371 6883  1507 1508 1509  5704 5705 9752  1341 1342 9880  6540 7108 7289  3438 4598 10415  4983 9897 10141  4969 4970 5704  8842 8844 8861  2976 2977 2978  172 173 10805  8838 8840 8864  4815 5964 8532  3885 3888 3889  2978 2979 2980  5971 6059 8272  8848 8857 8863  1261 1271 10543  1288 12240 12352  3283 3291 3292  3924 4596 9657  6194 6992 6993  2385 2404 9870  1221 3799 10056  7523 7524 7972  3808 4435 9881  6993 7333 7479  6166 6757 6759  2132 9496 12558  3277 3282 3283  5964 8532 9362  6249 6251 7322  4009 10983 11117  2986 2987 2988  3923 3926 3927  6063 7613 9733  2988 2990 2991  3225 3226 4378  1669 5955 9711  3133 9790 9791  4999 5174 10921  216 644 8954  3235 4711 10198  5445 8398 11661  3927 4422 4423  4919 5193 9999  5320 6768 6769  5438 7093 9730  2993 2994 2995  5664 8617 8618  1951 1988 10441  2995 2997 2998  783 784 785  3139 8999 9886  7490 10769 11009  5194 6078 6079  791 2063 9386  529 606 9887  3981 3982 4524  2094 2268 10758  5993 7817 7819  68 69 557  2998 3016 3017  3667 5244 8571  1513 6285 6286  1024 1031 10655  2097 2099 2353  1065 3488 9781  5949 5951 6032  789 791 2063  5139 6556 9804  6057 7585 11023  9294 9313 9314  4110 4111 4112  9170 9171 9172  2935 3883 8791  1341 1479 6057  4210 4574 4576  2316 2401 2402  7391 8991 11786  9531 9532 9903  2852 2853 2854  1413 4801 4802  3421 10460 10952  3971 8033 12033  8893 8934 8936  1822 1823 2059  1522 1531 1532  3992 6092 9950  1455 1456 1457  2991 2992 2993  5727 7971 9871  6000 7412 7413  6286 8508 9438  1438 1441 1442  1148 1151 9695  1486 1499 1500  2869 4799 4800  2402 4486 4487  3433 4418 10428  1453 1454 1455  1428 1430 1431  66 67 686  3869 5151 8775  5909 6978 6979  2388 4684 4685  7414 9506 12991  907 9035 10265  2136 2139 2140  4802 4803 5211  3069 3070 3071  4446 5351 7153  3075 3099 3100  1614 1615 10335  6089 12086 12261  6040 6041 6776  4240 4375 5081  8066 8067 8068  8064 8065 8066  2372 2373 2374  2134 2135 2136  6158 7147 13137  8068 8071 8072  8062 8063 8064  8322 8325 9667  3792 3793 9015  1192 7291 8685  5219 6603 10184  3429 3467 10435  4266 4267 4410  2663 2664 2693  9553 9554 9555  4671 5940 5941  4254 5236 10012  5081 5178 9587  2693 2694 2876  64 65 614  3777 3780 9910  204 646 8976  8060 8061 8062  8170 8616 12170  3475 3477 3478  8320 8322 9669  4609 9746 10037  3294 3295 3296  3102 3103 3104  1055 1107 9773  5739 6324 9750  1532 1534 9723  3918 6273 9800  116 117 10916  7528 7529 11455  3073 3074 3075  6086 6831 8459  3017 3066 3067  6734 8214 8215  1639 3869 8455  4695 4697 5564  6625 8728 10002  5717 6733 6734  2361 5639 6583  800 802 1837  3873 4570 4571  4234 6944 9609  5762 5763 5764  4332 4490 5114  6072 6074 9677  6969 6970 7426  5241 5242 5758  886 3129 9760  1049 9759 9777  8845 8850 10262  7697 12475 12622  5582 10666 10753  5200 5602 9491  4108 4109 4110  7508 8892 12220  5727 7571 7970  4425 4532 5200  62 63 687  1502 1521 1522  3348 3350 5038  2289 2290 2291  4870 6345 9919  3352 3355 3356  5758 5759 9607  2854 2855 2856  3797 3798 4425  693 9525 9544  6041 7865 11629  5764 6129 6130  6055 6112 7432  888 1205 9760  5840 8444 11822  8903 8904 11333  8135 8136 8137  9538 9539 11152  2259 2260 2261  4324 4325 5063  2829 2830 2831  4004 4005 4324  1222 3136 9150  4575 4578 10512  3275 3276 3277  6650 6651 6652  6164 6165 6166  5205 5206 5624  1526 1527 1822  3767 3770 9913  1269 1285 6029  4002 4003 4004  1494 1511 1526  11151 12786 13046  2585 2586 9908  5232 5574 9955  2953 3871 8730  5489 7327 7329  2776 3342 3981  6661 6662 6663  1053 3138 9773  1542 1543 1544  60 61 560  2559 5919 5921  2489 2678 9242  649 9049 9050  2989 4338 10366  1852 2060 2067  4213 4682 6083  2113 2114 2115  2039 2292 2335  532 533 9549  2111 2112 2113  3861 4612 5148  1475 1501 1502  1417 1418 1419  2059 2085 2324  2606 2608 6233  6472 6894 11957  1410 1414 1415  2374 2375 2376  1119 1122 10199  2076 2077 2078  2302 10413 10935  2109 2110 2111  4746 4890 5520  2115 2116 2117  4651 5878 10267  5624 6027 6585  8315 8318 9680  574 9537 9885  6277 8744 8745  4757 6709 7666  1400 1407 1408  1331 6698 6699  5236 5238 6384  4714 5393 6635  1106 1111 10363  1326 5769 6809  882 1273 9765  5879 5885 10361  1403 1412 3222  2860 2868 2869  2376 2780 2781  2117 2119 2120  6101 7502 9721  4184 4288 9867  2781 2849 2850  2124 2130 9561  636 8689 8690  2821 2822 2823  1650 3864 8706  3740 3747 9902  6375 8511 11119  7456 9209 11342  2318 2319 2320  1370 3331 9893  2606 2607 9146  1210 3334 8698  4956 7903 12115  2250 2355 3123  3234 3236 3237  909 913 10265  2071 2072 2073  2106 2108 2109  1377 1378 4200  4878 5261 5262  2784 6239 6240  1470 1488 1489  1316 6127 9957  884 3129 9765  1518 1794 6201  3195 10548 12190  3318 7461 8676  1435 1436 9350  3701 4439 10511  8176 8178 11286  5042 5589 7117  2008 8883 10212  7548 8731 13119  3869 8455 8775  3335 5642 6037  4988 7088 10164  2291 2317 2318  2131 2133 2134  2833 2834 2835  4234 4741 6944  5662 6728 6729  4378 4379 5154  2372 2374 10095  2888 8439 9963  4623 4626 10204  1329 8987 11009  9425 9426 9427  4198 4924 10123  5049 6393 9796  6132 6133 7084  314 315 611  6626 7473 7875  1842 1843 1844  2809 2811 2812  2261 2262 2263  2312 2329 9901  4251 12679 12856  8351 8356 10293  2093 8639 10020  4708 6231 10176  603 10027 11388  4138 10372 12684  2972 6770 8447  3830 4311 7414  1419 1425 1426  9165 9624 10774  6656 6657 6658  6420 6423 9906  6652 6653 6654  3975 4633 9662  5134 6515 8754  2321 2403 8684  2018 3788 10929  6654 6655 6656  2814 2815 2816  2587 2588 9132  6029 6122 7237  2263 2286 2287  4836 6034 9714  5987 6786 6787  2812 2813 2814  5956 5958 7969  1812 1813 1814  7197 7198 7199  3333 6952 10287  2203 7862 13004  6243 7252 9899  4147 5954 7248  4595 5671 10040  316 724 9845  2691 3796 3797  3792 3814 9015  7745 8740 11330  3336 6557 10308  2180 9004 9005  313 314 9494  2078 2079 2080  798 9571 10525  3889 4221 4222  647 8873 9660  2502 2871 8446  1388 1389 1390  1390 1392 1393  5387 6931 10327  2827 2828 2829  2080 2081 2082  5198 5488 5489  2122 2123 2124  1987 1998 8712  8176 8177 11286  2523 2896 5981  2412 4233 10597  3934 4249 4355  1917 4091 10478  4512 5330 9785  878 3133 9776  2656 4001 4002  1376 1385 1386  5193 5194 6078  4899 5047 5048  3130 5353 8396  4103 4168 4266  3449 3469 9925  9630 9984 12195  2377 2378 2803  3543 8055 12873  2135 2139 9916  4214 4273 9570  1368 1373 1374  5485 6977 7191  6057 6599 7585  7375 8676 12830  4279 5807 9928  1796 1797 1798  2010 2018 3787  2352 2790 2791  880 1273 9776  2803 2804 3975  2532 3132 7880  7226 10015 11667  3906 8759 12964  5757 6380 6874  4222 4541 4542  5671 5673 6386  9292 9293 9296  1669 1671 9711  6348 6349 6638  4583 9756 9768  8113 8114 12111  9052 9736 9740  844 4169 9786  6421 6422 6847  1358 1359 1360  995 8700 8701  1274 1290 9780  7214 7215 7568  2266 3240 5112  1346 9486 9487  3676 5055 10488  3993 4101 4102  1355 5970 9365  6769 8122 8123  2819 2820 2821  862 1351 9792  4601 5331 11368  4706 4766 5783  1848 2036 2037  840 1440 9789  1783 1784 1785  1036 4844 9372  2037 2068 2069  866 3126 9788  1451 1462 3801  1657 1660 10508  5095 6441 9675  1844 1845 1846  4878 5406 9244  5258 6923 6924  4527 10230 10231  2187 9153 9154  1928 4432 10594  3232 4719 10260  1846 1847 1848  9106 10856 11093  2404 4143 5180  2227 10764 11072  3408 3410 9712  9681 9682 9915  4411 4599 4912  5110 5121 6490  4586 5012 9815  3993 4102 9950  6094 6151 7059  4378 5155 9934  5655 9018 10971  3482 8793 10290  2581 3832 3833  5735 9582 12308  4501 4502 4503  854 1807 9779  5427 9523 11847  7014 12079 12329  1814 1819 1820  7268 9068 12814  92 93 8510  4177 4178 4659  535 536 9359  4888 4889 5778  6052 6053 9801  3191 3199 3201  5809 6586 9949  1776 1777 1778  6915 6916 10455  8420 10235 10236  4793 4950 5757  2659 2660 9922  4659 4661 5341  3365 8675 12656  263 569 9822  2493 2495 10560  1966 2074 8548  7937 8059 8060  2866 5871 10274  876 3133 9790  5116 5118 10362  210 643 8959  4147 4804 9238  1459 1474 1475  4444 5443 6045  2294 2296 2297  5095 6439 6441  1422 1443 1449  9612 9613 9614  1282 3224 9227  5113 7802 11032  9637 9639 9640  9278 9317 9318  3492 4581 5460  3478 3491 3492  5736 6178 7497  8355 8358 8507  5691 6183 6773  2540 2544 6007  4161 4961 10523  846 1413 9786  4340 5247 5248  9119 9122 9856  8785 8787 9108  7104 7107 9825  1802 1809 1810  7170 7171 7172  1318 1334 6051  5903 7423 10505  3495 6121 10044  1350 1352 1353  1817 9229 9230  842 4169 9789  9046 10769 11009  4133 5969 6192  1764 1765 1766  5514 7270 9953  1798 1799 1800  4812 6602 9939  7463 7743 8761  1888 1927 10507  868 1326 9788  2076 2078 10161  1490 1493 9343  1360 1365 1366  1800 1801 1802  10313 10314 10317  7251 7252 8244  6755 7975 8259  529 530 606  9285 9336 9337  3452 11211 11985  4072 4393 10673  256 257 9623  3997 8905 11790  864 3126 9792  5529 7275 7276  1340 1347 1348  1356 1370 3331  2184 6335 9821  1012 8763 8764  4571 4901 4929  4716 4718 6637  2367 2368 2369  7933 7934 7935  2206 8194 8467  3387 3394 9965  794 796 2034  2263 2288 9911  1901 1950 10527  1785 1787 1788  1174 1202 10379  1757 1758 1759  4489 5572 5727  4164 4932 10427  769 770 771  5999 6000 9584  5527 9694 10422  1726 5136 10565  1330 1337 1338  6850 7778 7779  1473 1497 1498  1972 2026 8542  221 222 9920  3356 3359 3360  4694 5713 9813  3583 3605 5994  7059 7060 7214  3360 3361 3362  4710 5075 8125  582 8166 11916  4916 4949 5771  3495 5378 6121  5633 8890 8891  4326 4868 9947  5356 5357 10448  2619 2625 9940  4503 4709 4710  4597 8933 9859  973 5018 9806  1778 1779 1780  1750 1751 1752  4913 5776 8478  2327 3346 4783  5896 6765 7341  5068 9419 9420  8745 8747 8748  1850 2064 10052  3764 4751 9198  3938 11076 11098  3213 4485 6013  1383 1404 4907  5760 5816 10244  5485 7192 9918  316 317 724  3587 4048 4177  5921 5922 5923  5565 5906 10168  8556 8557 10272  7238 7626 8434  37 38 9930  5148 5149 6276  3606 4357 6598  6459 9243 11065  6051 6052 6053  5634 7462 8890  8581 8582 8583  5894 5895 5896  5478 6202 7427  3650 4251 10582  4218 4614 5315  5528 5529 7275  4121 4123 10471  1998 1999 10656  5279 5633 8892  2299 3714 10225  6635 6636 8052  315 316 9845  528 725 9887  4573 5364 5365  3236 3238 10473  2843 4818 6271  2349 8019 12376  130 629 9514  2878 2880 4820  1770 1773 1774  1766 1767 1768  5615 5616 6171  8748 8749 8753  9276 9279 10358  886 888 9760  3781 3783 9384  5627 5628 5894  624 10134 12438  2577 2894 4681  5705 5739 9750  3883 8791 9850  9087 9214 9904  5889 6730 7246  1737 1738 1739  2307 2308 2309  5105 5106 5627  286 287 603  2196 2198 10493  3237 4052 5105  1768 1769 1770  5543 7121 10309  5771 5953 7238  5787 7917 10335  4711 6621 10198  1837 9345 9346  9041 9042 11515  3185 3190 9832  8341 8353 10365  4099 5653 6199  3302 6100 10299  10084 10085 10086  7519 12211 12327  9860 10976 11816  6306 6309 9944  1842 1844 10194  1321 1322 1323  4821 9960 9961  3791 3792 3793  1372 1396 1397  5450 6842 10524  5574 7484 7485  6512 7562 7564  1436 9350 9625  4417 4583 4584  3837 3838 3839  3097 3105 3106  4796 5245 7488  5478 5479 9225  1759 1761 1762  3839 3840 3847  6037 6038 6039  7020 7022 7940  6221 6222 7298  1728 1729 1730  7686 8126 8127  9180 9182 11129  255 256 565  33 578 9608  6558 8099 11707  1063 1065 9781  1313 1314 1315  7925 8074 13131  3216 4620 8453  2056 2250 9663  2342 2383 4136  2352 2791 10048  5203 5204 6221  5425 6446 7069  2566 2568 2683  5368 5425 10162  882 884 9765  3484 4676 10290  3835 3836 3837  5125 6531 6533  189 190 9938  1897 3978 10539  2297 2298 3717  2283 2304 2305  3599 3865 4471  1053 1055 9773  7100 7101 7102  4355 4402 10518  5512 6999 9923  3787 3788 3789  3789 3790 3791  3087 3088 3089  4481 5832 9152  5774 6355 9848  5441 5442 5999  4962 5232 7079  1752 1753 1754  2982 4337 10271  5335 6497 10529  6779 7034 7686  6181 7169 7170  1306 1307 1308  6594 6595 9403  6770 11109 11283  1721 1722 1723  6422 6424 10102  6480 6482 9846  782 783 784  8056 8057 11912  6561 8579 11461  812 1792 9805  4243 4505 5326  4481 4482 9152  3807 3810 3812  4663 5650 5793  46 47 568  5911 7018 8208  9571 9572 9799  9146 10806 10872  5336 6942 10538  7401 7621 7622  1296 1297 1298  3950 4242 4243  3497 4902 6028  4430 10216 12936  3077 3078 3079  3946 3949 3950  8568 11419 11972  3833 3834 3835  2376 2861 11025  1739 1747 1748  2781 2851 11025  3580 3594 3595  528 529 9887  4967 6225 7081  6242 6243 7251  2571 2572 8990  8405 8412 9816  2337 3715 9924  4376 6047 9959  1893 1918 10546  6171 7478 7635  3595 4234 9609  9476 9479 9817  6691 6692 6693  1529 1815 1816  1493 9343 9548  4114 4115 4116  5221 9160 12183  1714 1715 1716  2888 9963 9964  4112 5654 9932  3885 3889 9850  1323 1327 1328  878 880 9776  5112 7281 7690  225 226 567  3944 3945 3946  2338 2339 2351  2212 2220 10513  7281 7690 9917  3106 4092 4549  3060 3061 3062  8411 8421 9827  4912 5655 6300  124 693 9542  7576 8607 11897  7486 9626 9627  1730 1731 1732  4332 5114 9992  2230 2231 2232  4256 4647 10370  5983 5984 5985  6424 7203 7204  6869 10871 10877  3563 3564 10457  1449 1458 1459  874 876 9790  1732 1734 1735  4564 5667 5668  6434 7390 7638  5981 5982 5983  645 9069 9070  2250 3123 9663  6402 10956 11266  5881 6128 10361  2301 2337 2338  3977 4564 9895  2657 2658 9975  5103 5613 6512  4692 5483 5485  5549 7249 10561  4790 4792 10238  4449 5435 6116  3756 4658 10092  5783 5784 5933  4194 5034 6616  8821 9892 10481  7146 9555 12384  6721 10709 10889  5202 6180 6181  1706 1707 1708  4446 7153 9983  1289 1293 1294  6434 7638 10319  6441 7212 7727  6952 6954 9883  104 690 9524  527 528 725  8262 10709 10889  2223 2227 2228  4498 5195 5202  2249 3877 3878  3054 3055 3056  6521 9993 10674  3089 3090 3091  4088 4320 11034  80 636 10531  3550 7201 7599  6528 8969 11069  3091 3092 3093  3221 3494 10609  1723 1724 1725  1516 1790 9960  1312 8953 9984  92 8510 9530  3093 3094 3095  4380 4381 5203  5933 5934 5935  5935 5936 7480  1266 6134 10009  4471 4472 5372  636 8691 10531  7115 7662 7663  5347 5510 6875  5779 7309 7660  3046 3107 9235  8926 8928 13069  9611 9617 9618  1280 1286 1287  4173 4174 9952  6023 6025 8428  1699 1700 1701  615 9610 9612  5183 6420 6421  2394 2396 7179  2150 2377 9849  3201 3487 3915  5647 6022 7645  4872 7073 7120  211 212 9974  781 782 783  1349 8996 8997  1316 1424 6127  2538 4356 6837  5689 7114 7115  7546 12656 12970  9524 12013 12213  2589 2605 4827  88 694 9551  2700 2709 10499  6007 6008 6009  5984 5985 9842  3079 3080 3081  4376 4377 5325  2476 10340 10341  4983 5183 9897  3083 3084 3085  4546 6465 6502  9600 10331 11235  8850 8856 10262  5140 5688 5689  6502 7780 8111  3081 3082 3083  6009 6010 6011  1716 1717 1718  5848 7184 7408  3046 3047 3048  1272 1277 1278  5222 5223 6242  5332 6604 10671  2209 2210 2211  7338 9143 11438  1316 1317 9957  852 854 9779  5248 5249 7799  6474 6475 6476  5904 8785 8787  6490 6491 7759  3784 4568 4569  4699 4860 9758  2795 10173 13159  2865 3929 10961  9231 9805 11094  1236 1250 10400  2573 2574 10645  1693 1694 1695  844 846 9786  1617 1620 9985  3963 3964 4546  130 131 629  5574 7485 9955  1875 6383 10540  6042 6043 7656  8420 10236 10237  3062 3063 3064  128 129 689  840 842 9789  1853 2394 10145  3537 3579 3580  6639 6801 7004  3915 5095 9675  866 868 9788  126 127 626  1261 1262 1263  1706 1708 10099  3146 3147 3148  5846 5847 5848  7750 11171 13037  6759 7113 9857  862 864 9792  1310 4081 4888  2527 6682 6683  10172 10173 12960  8694 9324 12299  1708 1709 1710  3038 3039 3040  3144 3145 3146  3007 9089 11104  5041 5139 5140  1710 1711 1712  19 20 718  1836 1856 1857  7248 9238 12372  7698 11797 12726  4783 4784 4785  4724 5260 6628  1687 1688 1689  10238 10239 10685  4785 5040 5041  3739 3742 3743  223 224 8817  5360 6766 7470  7066 11392 11592  3056 3057 3058  268 269 9537  4016 4351 9981  5994 5995 5996  2097 2353 9866  6112 6114 9690  2424 2705 9977  6004 9495 11352  2538 6837 10111  4988 6150 7088  3142 3143 3144  102 103 591  6013 6014 6015  4515 5125 9694  6487 7513 8529  124 125 693  5697 9170 9171  913 4840 10265  4817 8186 12092  9052 9740 9742  3031 3032 3033  6253 7279 10979  7060 7214 7215  96 97 587  3151 3153 9757  1701 1702 1703  1490 1491 9343  9049 9052 9735  1683 1684 1685  7086 7146 12384  2202 2204 2205  7556 12071 12186  3341 10468 10959  5119 6220 9879  90 91 576  7797 8713 12973  1782 3735 8473  4760 4763 9972  9966 10978 11080  58 59 697  2697 2839 2845  2518 2593 3505  5229 5230 6701  5029 7383 7384  1257 1258 1259  6306 6308 6309  8036 8038 8039  6078 6120 7530  5319 5530 5531  3334 8698 9876  3048 3049 3050  4103 4266 10036  258 259 9728  3050 3051 3052  6805 6806 10803  781 783 9927  1241 3829 9243  5675 6700 7812  810 812 9805  269 270 574  104 105 690  5684 7820 10213  3025 3026 3027  88 89 694  4267 4410 4498  4928 5841 10247  788 790 2038  4811 5349 5446  319 320 594  53 564 9787  1695 1696 1697  1247 1254 1255  7982 7983 7984  3350 5038 9877  195 196 605  112 113 604  122 123 612  4626 5210 10204  5909 6979 9859  2193 2194 2195  4066 5002 10030  6124 7631 7632  4987 9767 10962  2527 6683 10115  6159 7148 7149  193 194 691  114 115 692  4767 5502 10370  1675 1676 1677  2089 2090 2293  86 87 639  3040 3041 3042  2056 2057 9663  3624 3626 10116  6782 10061 12628  1345 1363 10003  3042 3043 3044  4328 4329 5229  1122 3876 10199  1562 1564 9909  3728 3730 4806  3013 3014 3015  2683 3139 3140  1661 1741 9319  1689 1690 1691  1857 1858 2089  7832 8553 11684  5989 7468 7469  4681 5274 5428  254 255 9466  3878 3879 4053  5072 6322 6948  1241 1242 1243  8356 8363 10293  3140 3141 3142  3883 3885 9850  7085 7576 11031  5678 8772 8773  629 9040 12547  970 971 972  6683 8296 8297  6525 7905 7906  6074 6076 10589  8602 11915 12073  2498 2499 2500  1445 1451 9853  1669 1670 1671  3507 3508 3509  5567 5568 5569  4279 5806 5807  126 626 9525  4743 6883 10038  5878 6411 10267  2392 2393 3992  2667 2679 3786  3033 3035 3036  3008 3009 3010  3509 3510 3511  3348 5038 9876  6644 7845 10908  4646 9476 9817  2857 4279 9928  3511 3512 3522  1083 3724 9470  31 32 9962  6092 6094 6151  2277 2278 2346  3352 3356 9877  8403 8405 9816  2830 2831 10430  6028 6168 6169  5051 7112 10234  4857 5913 10512  5044 5943 5944  5236 6384 10012  3876 10199 11298  1284 1304 10405  5327 6496 6779  3505 3506 3507  2518 3505 10128  2294 2297 10186  4719 6630 10260  3472 4262 4341  3958 11096 11132  5684 6717 7820  2044 2046 2062  5842 6919 8030  4336 4421 10066  2186 2188 2189  1314 10755 11106  5471 5756 11396  4713 6621 6622  7876 7877 10277  1231 1232 1233  5844 5845 5846  1834 1855 9982  8409 8411 9827  2552 2611 10975  3812 4353 4354  4480 4481 4482  2609 2623 4782  4670 4673 9994  3027 3028 3029  186 615 9615  6678 6679 7495  2066 4756 10399  5608 8269 10381  3002 3003 3004  6743 6744 6745  4354 4479 4480  2034 9571 9572  8673 8674 8675  1661 1662 1663  4836 5682 9714  6502 11561 12191  5793 5798 6002  2148 2150 9849  2592 2598 10700  5258 6924 10024  7229 7232 10749  6741 6742 6743  4068 4069 4070  1679 1680 1681  4762 4764 4765  1677 1678 1679  2877 4155 10781  6265 7657 7658  5503 7400 7401  4842 5828 5829  5684 7838 10213  4539 4789 5645  4101 4102 4103  771 772 773  4971 5610 11125  8137 8139 8141  3890 4067 4068  1243 1244 1245  1224 1228 1229  6002 6568 6569  1266 1302 6134  5284 5717 6733  5703 6226 6227  3715 4365 10294  58 697 9681  6569 6570 6571  2177 2178 2179  1335 1341 1479  5733 7320 7321  5596 5597 7557  3015 3018 3019  5610 7570 9905  1489 1490 1491  2973 2974 2975  4928 5801 5841  1657 1658 1659  4648 8711 12157  3019 3020 3021  3780 8197 13073  3021 3022 3023  3940 3943 3944  6213 6234 6235  3319 3320 3321  6151 7059 7060  5181 5656 5678  4984 6172 6826  1218 1219 1220  3666 4609 10514  3590 10025 10026  8743 8744 11260  275 276 579  3364 4408 5013  4729 4731 6669  5871 8442 10274  4734 5517 6565  7925 11763 13131  5792 7749 10528  2843 6271 10205  6596 6597 10535  1671 1672 1673  938 939 941  1675 1677 10140  5244 8573 10633  2346 2400 10449  6116 6117 7065  2173 2174 2175  1995 1997 3609  8361 8362 9854  1451 3801 9853  2967 2968 2969  1325 1336 9987  781 4959 9927  9502 10291 10573  7534 10179 11641  1120 5960 10363  7275 7276 12049  4342 5071 10006  4326 4867 4868  3315 3316 3317  1651 1652 1653  5698 7523 7524  3682 5305 10160  5217 5346 5347  8321 8369 10472  1199 1208 1209  9640 9644 9645  5051 6274 7112  6393 7451 7452  1206 6142 10056  2322 4326 9947  3490 9957 9958  2146 2782 2783  5216 6796 11324  1509 1518 9594  704 9352 9353  5906 7457 10168  5323 5324 5844  940 2097 9866  4672 4674 5289  2791 4175 10048  1448 1465 9620  5665 6252 6544  2324 2342 9748  6235 6236 7731  6258 6260 6261  6169 9195 10311  7157 8431 11909  1791 1827 1829  2340 2341 2381  524 525 592  5973 6212 12601  4429 5176 7145  4764 5697 9327  5453 6969 10703  3004 3005 3006  5021 9209 10754  6796 9515 11324  1663 1664 1665  6127 9957 9958  227 228 698  1266 1267 10009  1665 1666 1667  5002 5006 10030  1509 1517 9594  4950 5757 6380  7214 7568 11448  6739 6740 6741  2961 2962 2963  4402 5612 10518  2529 10358 11880  1646 1647 1648  1343 1355 3803  1517 9594 10390  1193 1194 1195  4168 4266 4267  274 275 9588  6871 10897 10931  4569 5009 5010  4036 4170 4171  5816 7948 10244  3775 3776 3777  3849 4141 4376  1829 1830 1831  3626 3687 10116  4173 4175 6213  3309 3310 3311  7410 8000 8001  3773 3774 3775  5010 5156 5802  3603 10032 10033  6686 8479 11166  8457 9661 12422  6733 6734 8214  5126 6558 11879  3123 3124 3125  885 3343 10877  4807 4810 10013  2653 2657 9363  8777 8778 11447  5747 5789 10437  3326 4483 4484  1332 1344 3490  2975 2999 3000  3771 3772 3773  5671 6386 10040  1290 6767 9780  4667 4668 10522  4597 5909 9859  3448 4294 10396  3321 3325 3326  2954 2955 2956  3960 3962 3963  4156 5503 10278  4497 7118 10258  2954 2956 9956  4497 5377 7118  4918 4919 9999  9295 9527 9528  8251 10548 12190  3328 8498 11647  3562 4936 6777  8853 8856 8865  322 323 656  6777 7550 7837  17 18 609  5373 5426 7160  659 8267 12879  3350 3352 9877  780 781 782  1831 1832 1833  599 11179 12546  215 216 644  5013 5399 6237  3305 3306 3307  1500 1505 1506  3334 3348 9876  1206 1364 6142  1640 1641 1642  5274 5428 9896  3765 3766 3767  5159 6707 6708  3148 3151 11287  4273 4918 9570  4721 8227 13050  4702 5619 6144  2950 2951 2952  2804 3975 10466  2969 2970 2971  6467 10439 11131  6253 6312 7279  6088 6586 6612  10314 10315 10316  209 210 643  4396 5403 9884  1833 1834 1835  941 942 943  1653 1654 1655  2324 2325 2392  9286 9288 9527  4458 6194 6992  4778 5113 5632  6444 7213 7373  257 258 703  5054 6575 7119  4973 4975 10189  3743 3744 3745  2783 4247 4248  3844 3846 4097  3759 3760 3761  779 781 4959  1828 4344 4821  5713 6672 7087  2447 2448 2451  8602 8603 11915  1816 2056 2057  4865 6912 10387  3757 3758 3759  2634 2636 4773  5067 10806 10872  3755 3756 3757  2443 2444 2445  3753 3754 3755  2445 2446 2447  2441 2442 2443  7980 7981 7982  8039 8040 8041  9353 9354 9358  4830 4915 5323  5654 9932 9933  3745 3746 3749  3751 3752 3753  3749 3750 3751  4018 4021 10197  177 178 9633  8238 8379 11676  2963 2964 2965  1195 1196 1197  3688 3857 4245  6254 6255 6444  3286 3289 3290  1826 3340 10031  2946 2947 2948  6828 8683 10169  10086 10087 12124  4232 4829 4830  2665 3137 3822  1472 1484 1485  2464 2476 10318  1634 1635 1636  8601 11492 12884  5125 6533 9694  203 204 646  8361 8363 8373  5978 5980 7420  1457 1464 1471  2439 2440 2441  1189 1190 1191  3311 3312 3313  6553 8627 9377  6380 6718 6807  3992 3993 9950  4782 5186 5573  2864 3928 4640  4676 7777 10290  5492 5493 10496  5297 6630 7758  3553 3590 10025  6432 10201 11074  6134 6135 6136  1036 4843 4844  3769 3770 3771  6523 7724 11836  6100 6666 10299  2956 2958 2959  1630 1631 1632  1508 1509 1518  5446 5447 6845  7093 9730 9732  4515 4516 9694  4581 5460 10464  8122 8123 11252  6063 6064 7613  3495 3496 10044  2942 2943 2944  1291 1300 1301  1811 6833 11544  3279 3280 3281  279 648 11084  5496 5810 7464  521 522 658  4143 5094 9935  1183 1184 1185  6845 6846 8035  4337 8661 10271  1642 1643 1644  3340 4345 10534  4924 4925 5577  4975 4977 4978  3763 3764 3765  3802 4973 6279  1927 10507 13116  3718 4438 10669  4624 5241 10366  4149 4312 10249  9283 9306 10987  4245 4246 5141  783 785 2284  1598 1601 10959  2575 2576 10054  1624 1625 1626  6345 9709 11072  2936 2937 2938  6425 7575 10990  865 4359 10931  4806 4807 4808  1362 1377 1378  1176 1177 1178  8620 8621 12029  2437 2438 2439  3569 3603 10032  2091 2095 2387  5351 7153 7154  2908 2976 10372  44 45 706  4191 4880 10041  5054 7119 10276  2714 5102 10028  2435 2436 2437  1044 3370 9376  6143 7519 10146  5157 6615 6873  4808 4809 4812  7899 7900 8224  6338 6576 6667  3716 4366 5617  4036 4771 10094  8589 8591 10181  1506 1507 1508  5970 8226 9365  5193 6078 6120  5577 5578 7200  5405 5559 5560  2932 2933 2934  1835 5508 9809  6894 11620 11957  590 9013 9014  2433 2434 2435  3114 4733 10651  4021 4560 6678  793 795 9684  1636 1637 1638  3609 3610 3611  1097 8992 11522  4016 4018 4351  5129 6719 6720  3874 5419 6241  9543 9544 9545  1161 1166 1167  3714 4429 10225  2954 3870 9956  4669 4671 5940  1442 1453 1454  3133 9791 10905  282 590 9013  3776 3777 9910  4014 4016 9981  3613 3614 3663  5686 8056 8451  2850 2852 2853  8418 8420 10235  5313 6096 10420  2928 2929 2930  2049 2083 3719  4341 4342 4665  10340 10341 10342  5496 7465 10131  4469 9691 9692  5749 6154 10437  1431 1438 1441  2393 3992 3993  4071 4149 4752  191 192 8829  779 780 781  4054 4196 4469  1146 1156 1157  3611 3612 3613  6249 7322 9971  4687 4754 5191  4655 4656 4657  3339 8244 11831  4755 4757 6709  4665 4666 5388  8353 8927 10365  3516 3518 3552  2292 2335 2340  4738 9505 10329  4995 4996 5187  6607 7741 11033  6385 7210 7211  3112 6577 11143  1615 1616 1617  1185 1186 1187  4321 5279 5281  5829 5831 5833  2267 2357 2370  6254 6444 9997  1525 1805 1806  1213 5993 10379  8601 8602 8603  5882 5886 10453  23 24 10005  4272 4916 4949  3766 3767 9913  5833 5834 7499  2381 2382 9929  780 782 10011  6267 6602 6972  3901 4283 10035  6954 6955 6958  2845 4270 4321  4844 4845 4846  2924 2925 2926  5253 5254 8047  2938 2939 2940  3818 5376 6284  3520 3523 3890  6988 7457 7458  5049 6392 6393  2320 2372 2373  4775 4879 5253  1426 1428 1430  4846 4848 5293  2875 4180 4181  6708 10238 10239  6261 6545 6781  5293 5294 7038  817 819 9585  811 813 10203  281 282 590  3275 3277 9978  6952 6953 6954  1256 9654 9655  5080 8753 12638  1265 1276 6375  325 326 586  1206 1207 10056  4312 4399 5287  4935 5355 11055  6992 6993 7333  2920 2921 2922  6108 7459 7701  6128 8813 10361  6080 6081 7330  2285 3471 10701  4474 5449 6244  2372 3114 10095  824 4558 10536  518 519 577  3270 3272 3273  1608 1610 1611  8359 8957 10220  3254 3269 3270  1309 1324 9652  2501 5255 6732  3451 4602 10691  5188 6537 9396  3211 3212 10091  3824 4202 4332  4542 5302 10008  5991 7993 11122  5522 6140 7505  523 524 9969  1604 1605 1606  1485 1486 1499  1238 1252 1253  3115 4662 10113  3125 4515 4516  2184 4031 6335  4467 5084 5788  4421 5076 10066  6144 6885 7082  4981 10389 13010  5289 5290 6257  5516 6650 6651  2681 2690 6625  3527 5128 7175  7609 7610 10896  6215 7287 10843  3252 3253 3254  4102 9950 10377  4033 4035 4036  5758 7869 9607  377 8171 12685  4317 4535 5474  6066 6068 7614  4622 8661 8662  3725 3727 10727  2013 10067 10326  2689 2698 10154  2326 10067 10068  3909 6040 10430  267 268 9069  9719 9720 11587  4657 4813 4814  704 9354 10583  1268 4074 4520  1617 1618 1619  4552 5416 9521  2287 2289 2290  4773 4774 4775  1544 3907 9658  3822 3823 3824  328 329 659  4941 4942 4943  2398 9918 11539  6207 6209 10571  4943 4945 4946  5081 6119 9587  8352 9060 10253  1147 1149 1859  6053 9801 9802  6142 8159 8160  6329 6330 6797  1532 3916 9723  1706 1733 10099  6797 6798 7430  3910 4940 4941  4946 4947 5463  1598 1599 1600  1415 1417 1418  2538 2539 10111  4277 5218 6253  4423 4424 4695  7133 7411 7949  4694 5711 5713  2082 2259 2260  4443 5263 6816  3229 6518 7659  4641 6328 6329  5238 6384 6385  6412 7326 8249  2051 10797 11077  1408 1410 1414  3581 3582 10110  4443 6816 10914  2387 2388 4684  7000 8175 11941  2027 2028 10138  973 5016 5018  708 8102 11526  5016 5552 10303  6957 9698 12682  3223 8918 13125  6707 6708 7168  1557 1793 10470  4952 4953 4954  5129 6720 10541  6424 7204 10102  1393 1400 1407  4054 4469 9691  56 57 650  2527 2528 10115  4319 5177 6254  4954 4955 5522  7172 7913 7914  5552 7086 7146  4065 10074 10075  3535 3538 3562  1454 1455 1456  3722 4572 10142  6470 6472 7866  6188 10777 10828  5118 5157 10362  5500 5835 7424  3741 9131 10750  1984 10074 10357  3911 4951 4952  3815 4412 10133  6867 10474 11288  331 332 573  515 516 657  1768 8946 10155  4198 4361 4924  774 776 9973  4112 4496 5654  229 230 649  2450 2453 6262  2073 2076 2077  5963 7475 9988  1281 1283 3720  2785 6306 9944  5940 5941 6176  4154 4776 6160  4383 4385 5817  3111 4107 4108  5425 7069 10162  2131 2134 9990  5143 9074 11387  2624 2632 2640  1557 1559 10470  2067 2269 2321  5885 6411 7503  5172 6808 6814  2453 2455 10304  6902 9484 11409  4263 4878 5261  4636 5570 6572  5093 6548 6550  10081 10082 10083  327 328 10004  6125 6530 11356  10832 12486 12548  5632 6352 7647  5704 7140 9752  2455 2457 2462  5406 7178 9244  1588 1589 1590  2016 2326 10067  324 325 9996  3327 6245 10398  207 208 8932  2607 2618 9146  4063 4257 4258  2069 2071 2072  5267 5352 7024  2518 2519 10128  5403 5728 7094  213 214 8920  5142 5498 6063  3914 6342 6343  1867 1868 1869  4809 4812 9939  4066 10030 10765  2418 4057 4058  2853 2854 2855  6432 6677 10201  4053 4054 9691  4684 4685 5258  3223 10171 13125  6209 6210 6495  2247 2788 10071  2351 6206 6207  1869 1870 1871  1995 3609 10212  4372 4452 5310  5673 6386 7282  6696 7508 7509  9478 9480 12216  1436 9625 12317  4650 4931 5454  2459 2461 3905  1871 1872 1902  7685 10742 10758  4528 4678 5496  3803 8773 12674  5969 6192 6193  6454 6836 10072  6290 8672 12975  1865 1866 1867  2457 2459 10313  6923 6924 7642  4963 6633 10016  782 784 2048  513 514 727  2856 8475 12315  6323 7871 7926  201 202 8942  7641 9484 11409  1562 1563 1564  4520 4987 5123  2351 2352 10048  2380 4152 4153  6976 7033 10211  3100 3101 3102  1386 1388 1389  4825 10080 10081  7328 7697 10281  4308 4313 5246  3071 3072 3073  3377 3379 10200  5470 5472 6547  3527 7175 10660  4804 5458 9238  1991 4065 10074  3786 4894 4895  2416 2417 2418  2424 2426 2705  1820 1842 1843  524 592 9969  7257 10129 12067  2464 2466 2476  6207 6208 6209  9230 9233 10021  5502 6906 10370  5059 8187 8188  4583 9768 9769  6905 6906 7061  5002 5004 5006  5027 6337 6338  6201 9594 10331  8898 9025 10034  9738 9740 9741  2430 2432 2433  4666 5388 9948  3871 8730 10475  3546 3548 10352  1374 1376 1385  2394 7179 10145  3731 4147 5954  4896 6835 11682  1594 1595 1596  3544 3546 3574  1675 1740 10140  2588 2591 9132  667 8201 11192  4356 10115 10946  826 1513 10536  2086 2087 10935  5870 10107 10108  6080 7353 10207  326 327 9995  1810 1812 1813  1366 1368 1373  6213 9952 10380  1172 1180 1181  1083 1382 3724  4374 9413 9417  2076 2285 10161  2032 7958 13100  5897 8805 10628  2124 2126 9561  6363 6508 7345  334 335 660  6510 7418 8210  3548 3553 10025  1269 6029 10400  2414 2415 2416  6482 9846 9847  3874 6241 10312  4102 4103 10036  2712 2714 10028  2714 2716 5102  5486 5585 7403  1592 1593 1594  4028 4250 6263  2092 2094 10742  1590 1591 1592  5869 10118 10119  5572 5727 7571  2718 2720 2749  6610 7859 7916  2806 2809 10466  3333 6951 6952  1303 1316 1424  1150 1152 10112  2373 2374 2375  511 512 570  6709 7666 8206  4553 4554 5607  2597 2606 2608  2466 2468 10339  4552 4852 4853  3553 3560 3590  6404 8245 13175  5109 5111 10183  2297 6832 10186  2468 2470 3906  180 704 10583  5865 6205 10098  2716 2718 10349  3287 9978 10702  1353 1358 1359  2724 2726 2757  7205 7206 7687  5477 7243 7244  1859 1860 1861  1204 1216 4419  5610 7569 7570  3899 3901 10035  3901 4281 4283  3401 3428 10216  3336 4832 6557  2472 2474 2486  7588 8753 12638  1957 4825 10080  3720 10009 10143  2780 2781 2849  3202 9239 10208  3616 3618 7141  99 641 11307  1570 1571 1572  3567 3569 10032  5726 5795 5796  15 16 721  3601 4191 10041  1544 1545 1546  2311 2313 3913  335 336 10018  3826 4705 10176  8921 8922 8924  1861 1862 1863  4950 6380 6718  1572 1573 1574  3569 3575 3603  2375 2376 2780  5796 6313 6314  1788 1796 1797  5724 5725 5726  3809 9046 10769  1574 1575 1576  1576 1577 1578  1532 1533 1534  3783 3968 9384  8129 9734 10438  8114 11591 12111  1568 1569 1570  2730 2732 2769  2160 2163 11020  1863 1864 1865  3577 3585 4280  2087 4837 6268  5422 5429 7340  1584 1585 1586  5709 5723 5724  1580 1581 1582  1578 1579 1580  3450 3451 4601  1582 1583 1584  8495 8496 8497  1441 10568 10984  4971 5609 5610  2330 2367 2368  2351 6207 10048  2119 7968 12853  3067 3068 3069  3575 3577 10371  6314 6315 6316  6316 6591 6592  3592 3596 4373  776 779 9973  230 649 9049  1566 1567 1568  1564 1565 1566  6594 6820 6821  3503 6404 6405  7318 7319 7374  4191 4387 4880  2477 2479 3908  5431 5679 6499  3248 3250 3252  2481 2483 2549  6592 6593 6594  6378 7734 7735  2736 2739 2773  1142 10966 11697  1780 1783 1784  5859 5870 10107  6821 6822 7318  3244 3246 6167  3748 4501 4502  2359 2361 5639  4949 5771 5953  7061 7062 8167  4389 4727 6080  5320 6769 10464  776 778 779  8552 8811 11894  2516 2521 4073  336 337 728  2103 2106 10483  4302 4304 4981  4300 4302 10388  7607 7610 10122  6533 6947 8221  5387 6929 6931  2530 2536 2583  2623 8651 10222  1936 1937 1949  2477 3908 10501  5458 12006 12187  5853 5869 10118  2317 2318 2319  3713 4427 9998  4014 9981 10321  3566 3587 10868  2290 2291 2317  5023 5025 5665  253 254 9002  5391 7776 10347  2552 2557 2611  6286 7494 9438  3466 4863 4864  1348 1350 1352  5267 7024 9970  1144 1164 9936  1774 1776 1777  1418 1419 1425  6219 7738 11157  4895 4896 4897  6657 6658 7807  6651 6652 6653  3620 3622 3677  1338 1340 1347  2594 2599 2630  6655 6656 6657  1556 1557 1558  5429 5431 10367  5543 6574 7121  5755 7217 7218  1558 1559 1560  6653 6654 6655  3499 3501 4186  3594 4235 10184  183 184 9686  337 338 10050  2741 2743 4131  5794 6706 9047  7254 7620 13063  508 509 661  783 2284 9927  4298 4300 4980  1554 1555 1556  790 2038 10215  7060 7215 8445  7953 8886 12767  259 260 651  2003 2061 10227  6624 7531 7870  5546 6148 9484  2305 2307 2308  1781 9723 11169  6701 7664 10936  4751 6026 9198  5953 7238 7626  2260 2261 2262  2750 2752 2862  9088 9904 11245  7042 7044 7600  1552 1553 1554  7537 7540 7813  3910 9033 10250  4696 5390 7224  6179 7966 7967  5357 5470 10448  3252 4527 10230  1842 3725 10194  5679 5794 10375  5397 7132 7133  6790 7933 7934  1762 1764 1765  2616 2620 2669  779 4959 9973  4744 5730 5732  2754 2758 4641  9330 9334 11554  4964 5168 6538  9429 9430 9431  2626 2628 3910  5174 5700 10921  3233 3235 10198  778 779 780  5346 5347 5510  1550 1551 1552  1546 1547 1548  2262 2263 2286  1328 1330 1337  6421 6847 11155  507 508 10047  1548 1549 1550  6682 10128 10950  338 339 566  3919 3921 10157  1044 1200 3370  6134 10009 10143  4641 6331 10257  8065 8066 8067  3404 3452 10997  8067 8068 8071  333 334 10019  2791 4173 4175  8063 8064 8065  1043 1144 4059  4127 6256 10445  1874 1876 4966  2517 2556 11172  4123 4383 10471  2762 2764 4244  5200 6214 9491  8061 8062 8063  2687 2696 10248  4349 4699 4725  3618 3620 10384  4441 4788 5500  3782 3784 9946  1754 1757 1758  2646 2648 2692  2766 2768 4269  2774 4105 4495  4396 5401 5403  339 340 10049  6130 6131 6132  5899 8092 8094  2650 2661 3911  6291 7228 8147  4792 5159 10238  1301 1309 1310  5960 8902 10363  5170 5409 6887  1538 1539 1540  3784 4569 9946  4622 8662 10204  1370 1372 9893  1534 1535 1536  1035 1038 1039  1540 1541 1542  5154 5676 6283  4271 4556 4642  3873 4571 10475  4027 4029 10226  4174 4272 9952  1479 6057 6599  6070 6072 6793  2059 2324 2325  1918 11306 11589  1389 1390 1392  506 507 731  6095 8389 9964  2265 2283 2304  5267 9448 9970  9652 10658 10906  6384 7210 11141  7935 7937 8058  2077 2078 2079  4601 4602 5331  5479 5482 9225  9050 9051 9053  778 780 10058  5338 6749 7194  5483 5485 6977  1878 1880 1913  5758 6731 7869  340 341 729  5500 7425 10273  5331 5332 6604  6291 8147 10968  3323 4062 4063  8332 8334 9986  5047 5048 5436  2003 2006 2061  4714 6635 10473  3475 3478 10490  5361 10342 12048  1748 1750 1751  4091 10478 10479  3454 3457 4850  4202 4332 9992  9282 9285 10545  3724 4395 5381  5413 6794 6795  1536 1537 1538  4436 4796 5245  7301 7435 8103  4934 8498 11962  2079 2080 2081  4793 4794 4950  2234 2236 3800  2400 3989 10449  9289 9292 10542  4421 4736 5076  5132 5478 6202  1315 1321 1322  5136 5137 6540  1526 1822 4930  2016 2031 2326  7348 7350 7351  2013 2016 10067  1915 4091 10129  4294 6634 10396  1221 1235 3799  2674 2676 2707  2684 2686 3912  2052 2237 3914  3993 4100 4101  790 792 10215  6452 6454 10072  2254 2256 4407  2800 2802 10264  806 1817 10554  3953 4041 5317  3419 3455 10952  2247 2252 2788  3493 3495 5378  2333 2793 4372  6454 6456 6836  8059 8060 8061  2241 2243 3896  2245 2247 10071  3393 3427 11080  2801 2837 5131  4295 9102 11304  5564 5565 10168  6458 6854 6890  1984 1991 10074  7558 7796 11603  1308 1313 1314  1246 9243 11065  4949 5953 10380  1991 1993 4065  1318 6051 10405  2648 2650 10407  2764 2766 10410  2579 2581 3832  5168 5170 10406  6856 7707 8232  3435 3438 4598  3564 3567 10457  509 510 10046  3292 3293 3294  342 343 621  2217 2224 9942  5770 7781 7829  1735 1737 1738  7390 7638 7639  4603 5615 5616  1015 1019 1020  6233 9146 10872  3737 3739 9951  1309 1310 9652  1026 1029 4437  1957 1962 4825  1978 1980 2005  2572 2575 8990  2695 2701 4499  9218 9219 9220  5847 5848 7184  3847 3851 3852  6160 6161 6368  5261 5262 6534  3431 3433 4418  1954 1957 10080  504 505 561  5081 6118 6119  5976 8254 8255  1298 1306 1307  343 344 10057  6759 7052 7113  4217 4639 4971  743 10147 11830  5707 5975 5976  1947 1951 1988  8955 9062 9063  2411 2413 2414  3402 3429 3467  768 769 770  1835 1836 9809  5667 5668 6563  4638 5708 5709  1725 1728 1729  4820 10051 10841  9507 9508 9509  1249 1266 1302  3622 3624 10408  3861 5148 10495  3739 3743 9951  2325 2392 2393  3095 3097 3105  5455 7012 7205  2405 2407 5581  2046 2062 10055  2640 2663 2664  2876 2878 10051  2036 2037 2068  42 43 652  2843 2844 10205  503 504 10060  3914 8199 10301  215 644 9162  5865 5867 6205  3626 3628 3687  344 345 733  4642 5286 5707  5863 5865 10098  209 643 9124  1843 1844 1845  4474 6244 10345  1847 1848 2036  6663 6823 6824  6818 7753 11251  2694 2876 2878  4524 4526 5239  8336 8338 9764  1359 1360 1365  2664 2693 2694  5639 6583 7684  7230 7233 7775  3335 6037 10508  3393 3398 3427  3814 9015 10563  1294 1296 1297  3925 4232 4829  1995 1996 10212  2858 4134 5027  2228 2230 2231  2976 4138 10372  2740 2742 10275  679 764 7512  1006 1013 3795  5294 5422 10480  3384 3387 3394  3438 3454 10415  2676 2684 10423  3215 3220 3866  998 1000 1001  4372 6109 10306  1718 1721 1722  10268 10269 10270  3085 3087 3088  9419 9420 9421  5518 6560 7135  8547 8548 8549  2243 2245 10432  273 274 8873  6141 6292 10288  345 346 10079  5913 8740 10512  5454 5455 10269  7605 7607 10122  1118 1119 10199  1845 1846 1847  502 503 730  5901 11845 12478  6495 6554 10193  1941 1943 1983  1832 9982 10355  4278 7127 10454  3234 3237 10503  6918 7056 7266  1813 1814 1819  6677 7306 10201  1462 3801 10486  6456 6458 10425  6913 6915 6916  2221 2223 2227  7607 7609 7610  6854 6856 10424  800 1837 10525  1882 1884 3965  5859 5861 5870  5034 6616 10093  4800 5225 5226  6745 11375 12175  5857 5859 10107  5593 5594 6588  2709 2712 10499  4823 5475 5477  5363 6691 6692  203 646 9167  4103 4167 4168  8534 8581 8582  5241 6731 10366  8032 10920 12690  4487 5298 5299  4225 4403 5243  346 347 562  5851 5853 10118  5853 5855 5869  7805 8686 12607  501 502 10097  5954 7248 7268  4650 5454 10267  3064 3077 3078  6946 7448 8128  2686 2695 10433  9182 9836 12227  4084 4094 5068  6247 6485 7331  5325 6048 6752  1951 1954 10441  4384 5361 10928  4618 7661 10941  1712 1714 1715  5295 5423 10279  4164 4336 10427  5815 7919 7938  3378 3380 4236  9364 9975 10974  3726 3728 9976  2140 2141 2214  3379 3385 10200  5057 5058 5153  3433 3435 10428  6863 11888 12168  780 10011 10058  6119 7772 8176  5284 6733 10294  8843 8845 10262  1287 1289 1293  2370 3225 3226  3630 3632 3966  347 348 10078  9215 9921 10221  1499 5525 9872  5845 5846 5847  3710 3712 5162  7170 7172 7913  2266 5112 10493  1378 4200 4201  2207 2209 2210  3207 3209 4260  500 501 620  5314 6489 6746  1933 1935 1936  7033 7450 10211  2368 2369 2785  4830 9467 11304  7113 7595 7596  7444 7446 7850  991 993 1476  3107 4770 9235  2559 5921 10560  1978 2005 10245  3058 3060 3061  2835 2836 2860  2342 4136 9748  5068 9418 12928  5608 8268 8269  1924 1926 3955  782 2048 10011  3230 3232 10260  4622 4623 10204  1929 1931 1932  1278 1280 1286  2531 2537 10298  6420 6421 6422  3470 3472 9980  3429 3431 10435  5159 6708 10238  34 35 9954  2293 2299 3713  6386 7283 11140  1920 1922 1959  348 349 732  8340 8342 9795  6431 6676 7247  4865 6911 6912  1915 1917 4091  4233 4438 5107  1470 1489 10486  3703 3706 4933  1912 1915 10129  6076 6090 7715  1797 1798 1799  1703 1706 1707  5512 5513 5528  499 500 10096  8796 8797 12635  6824 6825 7254  1801 1802 1809  4914 5647 6022  325 586 9996  9479 9819 12774  2831 2832 2833  5704 5706 7140  1263 1272 1277  3052 3054 3055  1886 1888 1927  3674 3676 5055  5239 5453 6969  1908 1910 1960  10674 11099 12509  3680 3682 5305  5863 10098 10261  6975 7032 7556  4889 5778 5779  4159 4161 4961  6469 6471 11047  3370 3371 3372  1519 12051 12292  349 350 10106  1799 1800 1801  3728 4806 9976  3713 3714 4427  4251 10582 12856  4427 4428 5222  4975 4978 10189  498 499 734  1697 1699 1700  3684 3686 3707  1492 1494 10188  2542 2547 3813  5242 5760 10244  3588 3599 3865  1784 1785 1787  3634 3636 3704  6414 6416 7689  3268 3274 3275  4175 6213 6234  5999 7323 9584  2554 2562 2570  1363 1380 10003  5782 8427 11056  5226 6163 6164  350 351 622  229 649 9379  4465 8491 12126  6258 6261 10394  2823 2824 2825  3699 3701 4439  8525 8533 11882  6931 9803 10679  3044 3046 3047  8539 8542 8543  5299 6660 6661  6238 10157 10716  4542 5301 5302  5791 5903 7423  2293 2294 10186  1259 1261 1262  6186 7955 7956  3428 4430 10216  1726 4990 5136  5755 7218 10891  5920 8518 12807  1691 1693 1694  233 234 9831  1330 1339 11229  984 986 987  4007 8443 12762  4732 4734 9991  3265 3267 3268  2534 2538 4356  328 659 10004  907 909 10265  3372 3373 3374  2199 2202 2204  4949 9952 10380  3720 8397 11485  8349 8351 10293  8344 8346 9810  2214 2215 2279  1904 1906 3972  4685 5258 10024  2279 2280 2776  794 2034 10469  351 352 10105  6136 7928 11922  3693 3695 4190  6910 10460 10952  836 838 9898  1777 1778 1779  5520 5659 6281  663 8683 12385  5530 9675 10485  2308 2309 2857  3374 3375 3381  7923 7924 10001  1385 10681 11141  3472 4341 9980  1201 1206 1364  8132 8133 8134  4502 4503 4709  8285 11076 11098  496 497 559  2298 2301 10196  5001 5003 7089  5550 5635 7165  4459 8673 8674  5856 5858 6044  4429 7145 10225  3668 3670 4494  3036 3038 3039  5857 10107 10266  2762 4244 10756  4432 4543 6249  2338 2351 6206  1899 1901 1950  10074 10076 10357  4709 4710 5075  1685 1687 1688  4021 6678 10197  326 586 9995  352 353 737  178 627 9633  7123 8250 12416  494 495 735  4614 5315 5368  1890 1892 3980  3263 3264 3265  5337 5450 6842  4708 6230 6231  5333 5335 6497  3482 3484 10290  2124 2125 2126  2525 2527 6682  8348 8350 9838  6411 10267 10268  6550 6834 7193  6915 6918 10455  2828 2866 10274  2120 2121 2122  36 653 9596  5993 9141 10379  2816 2818 2819  1255 1257 1258  2450 6262 10392  235 236 9840  2191 2193 2194  5334 5336 6942  6227 6521 6522  3261 3262 3263  2065 2277 2278  6351 6935 6936  979 981 10007  8945 11321 11388  6154 9508 10437  6150 7088 7669  2725 4046 10456  6900 10413 10935  5682 7196 7197  3829 6459 9243  491 492 595  6939 10855 11114  353 354 10126  3029 3031 3032  3638 3641 3971  6880 6882 7821  4162 4164 4932  4780 5675 6700  4276 4900 10297  4277 6253 10368  1681 1683 1684  4163 4335 5392  8366 9810 9811  6580 6582 7790  2979 2982 10271  1765 1766 1767  4081 4888 4889  490 491 10125  6811 11571 12592  1719 4150 5593  9616 10063 11563  6234 6235 6236  489 490 736  3628 3630 10482  3558 3571 3573  4706 5783 10549  7147 11719 13137  1245 1247 1254  1891 1893 1918  5005 5008 5057  1917 1920 10478  5077 5691 6183  977 979 1477  1769 1770 1773  7162 7164 7861  4836 5681 5682  1894 1896 1953  1895 1897 3978  6631 10854 11249  354 355 553  1877 1879 2001  2841 2843 4818  5415 5549 7249  1767 1768 1769  3023 3025 3026  2327 4783 10513  355 356 10127  1456 4133 9869  486 487 554  5330 6389 9785  1887 1889 3979  2278 2346 2350  3643 3646 4139  9637 9640 10543  356 357 738  2128 2129 2131  5781 7405 10000  2608 6233 7521  7606 7608 7718  5302 6190 6200  3659 3662 4241  6200 6688 6921  6246 6248 7134  2825 2826 2827  5886 9499 10453  1873 1875 6383  290 291 9914  1741 5641 9319  1758 1759 1761  292 293 10053  1883 1885 1956  8364 9838 9839  2126 2127 2128  5324 5844 5845  357 358 10130  4711 4713 6621  6218 6228 7757  3259 3260 3261  3257 3258 3259  4734 6565 9991  358 359 623  2241 3896 10791  5215 5567 5568  7365 7367 7888  6409 8189 8441  7838 10214 12098  288 289 11064  484 485 739  968 970 971  6811 8614 11182  3701 3703 10511  3010 3013 3014  6943 8579 10450  1233 1241 1242  1673 1675 1676  3975 4460 4633  6270 8475 12315  6286 6287 7494  5265 5781 5782  2514 2518 2593  360 361 740  3648 3650 4251  3327 5493 6245  483 484 10134  9328 9329 9330  2183 2186 2188  4175 10048 10571  3255 3256 3257  867 869 10897  6240 6332 6333  1019 1020 10963  4768 4835 4836  4577 9106 10856  1322 1323 1327  482 483 624  3676 3680 10488  6597 7605 10535  5806 5807 7625  4411 4912 10563  4367 4368 5198  3282 3302 10299  1751 1752 1753  1158 1173 3828  363 364 552  7578 7616 7911  4171 4772 9796  481 482 10135  6236 7731 7732  5313 6095 6096  5601 5790 7511  3006 3008 3009  4157 4158 4746  3652 3654 4358  7782 10178 11207  4929 6138 6139  962 964 1818  7034 7686 8126  5544 6574 11547  4286 4287 4367  4950 6718 10232  821 1429 11147  1667 1669 1670  3916 6273 9723  480 481 741  6720 9154 11198  5097 5684 6717  1898 1900 3988  365 366 742  4088 4362 10474  5503 7401 10278  4650 4651 10267  3653 3655 3708  13 14 632  7458 8601 8602  5906 6988 7457  6394 6395 6396  2507 2509 2511  2040 2249 3877  5211 5212 5991  4340 5248 10559  6040 9463 10430  964 966 10017  1903 1905 1961  1229 1231 1232  5135 5596 5597  4319 6254 10378  3522 3556 4908  5108 6042 6043  7756 7961 7962  2179 2181 9821  4284 4285 4286  1614 5787 10335  3656 3658 4451  5903 6414 10505  3000 3002 3003  4915 5323 5324  2083 3719 10023  3927 4423 4424  368 369 596  6495 10918 11060  1738 1739 1747  5519 6945 6946  5493 6247 10496  5943 5944 7542  4413 4414 4768  5200 5201 6214  4505 5326 5327  477 478 550  954 956 957  1499 1500 9872  5245 7488 7489  7606 7718 9865  5792 6413 7749  2152 9502 10291  3647 3649 3678  369 370 10147  2393 3993 4100  2893 8705 11758  4029 4580 10226  52 53 9787  1659 1661 1662  2423 9481 11003  7051 10007 11687  972 975 9806  4242 4243 4505  9151 9490 12341  9550 10855 11114  4584 4585 4586  3226 4378 4379  370 371 743  1220 1224 1228  6187 8947 10653  2503 2505 3825  327 9995 10004  1909 1911 1982  7905 7906 7907  4749 9378 10814  475 476 744  6202 7427 8197  3683 3685 5026  3949 3950 4242  2405 5581 10925  1211 1218 1219  4209 4352 4413  2142 9464 10296  3358 3364 4408  6415 6417 7257  2971 2973 2974  3945 3946 3949  3661 3664 4523  887 889 10871  367 368 10148  3322 4061 4098  5063 5064 5825  3690 3692 5099  1901 1904 10527  2175 2177 2178  9329 9332 9989  3679 3681 4621  6276 6697 7674  5172 6814 10232  1835 4548 5508  373 374 551  2161 2164 2171  2010 3787 10656  1655 1657 1658  2231 2232 2322  3362 3366 3367  4070 4392 9727  1729 1730 1731  472 473 598  2170 2173 2174  1916 1919 1990  374 375 10153  3387 3389 9965  6185 7303 7959  2166 2168 3867  3882 9140 11548  2369 2785 10090  3317 3319 3320  4633 6184 6185  375 376 745  3105 3106 4092  2965 2967 2968  362 363 10137  4356 6838 10946  2154 2156 2203  1923 1925 2000  470 471 746  5219 5660 6603  4312 5287 10249  5598 6750 7722  3671 3673 4698  4759 4762 9989  1731 1732 1734  7102 7103 7104  6496 6779 7034  6250 6430 7543  1928 1930 4432  5202 6181 6539  9296 9297 9305  6151 9950 10377  366 367 10144  5450 5550 10524  2496 2498 2499  2302 2363 10413  2696 2863 10248  7628 11191 11351  1197 1199 1208  2408 2410 3816  3379 3383 3385  2412 3718 4233  3666 3669 4609  2611 9816 10975  2492 2494 10029  1648 1651 1652  6139 6646 7395  378 379 599  7395 9030 9031  5851 10118 10807  6677 6974 7306  2144 2146 2782  1722 1723 1724  6333 6334 7677  2959 2961 2962  4207 4208 4209  467 468 549  2490 2492 2631  4248 6997 9813  1897 1899 10539  380 381 747  3313 3315 3316  4765 9328 9329  8281 8282 8283  3639 3642 3995  5378 6121 6600  3088 3089 3090  2703 9392 10491  4161 4163 10523  1888 1890 10507  2802 4310 10264  6211 9022 13060  466 467 10159  1456 1457 9869  936 938 939  4745 5731 6351  3388 3392 3464  5335 5337 10529  8339 8341 10365  4420 4735 5875  7400 7401 7621  9353 9358 11935  2952 2954 2955  5110 6490 10673  383 384 548  465 466 748  1644 1646 1647  1893 1895 10546  3397 3399 4126  930 932 1821  4759 9989 10399  4636 6572 10383  5412 6673 11048  5785 7292 7878  948 950 1478  3090 3091 3092  3092 3093 3094  5317 8132 8133  8160 8380 11351  385 386 749  5879 5881 10361  3118 4328 4329  1715 1716 1717  776 777 778  4586 5011 5012  4127 5631 6256  1191 1193 1194  3595 4118 9609  5991 5992 6613  4110 4112 4496  3696 3698 4781  4323 4882 5275  285 717 10027  2381 3481 4466  5012 5819 6216  2948 2950 2951  3943 3944 3945  6881 7161 9144  3078 3079 3080  6214 6215 7287  7033 7443 7450  6577 8887 12495  923 926 1248  2061 10740 12392  4029 4579 4580  4365 5284 10294  698 9379 10824  9230 9232 9233  3307 3309 3310  1252 1253 10022  388 389 600  1822 2059 10104  6733 8214 8236  9346 9347 9348  5199 6725 7683  2760 2761 2784  6172 6826 7209  462 463 597  3428 3430 4430  8368 9795 10446  6465 6502 7780  4159 4961 10770  6300 6301 6302  5336 5415 10538  391 392 662  4829 4830 4915  1638 1640 1641  917 919 1519  3700 3702 5303  4854 9145 11670  3964 4546 6465  3367 4416 4417  2239 2240 2281  3082 3083 3084  3080 3081 3082  6772 7346 7593  2381 4466 9929  6147 12022 12164  8900 8901 12003  39 572 10954  2944 2946 2947  3061 3062 3063  1522 1532 1533  4719 5297 6630  6590 7896 7939  3354 9451 10822  5066 5716 10065  2210 2211 2226  913 915 4840  3186 10670 11040  1908 1960 10910  1414 10652 11140  4278 5506 7127  394 395 545  3104 3111 4107  5825 5826 7167  8955 8956 10187  3915 4893 9675  4296 4297 5205  7104 7106 7107  3421 3423 10460  1707 1708 1709  3290 3305 3306  5652 6771 6772  10067 10069 10326  386 387 10163  1940 1942 1989  1875 1877 10540  7107 7181 7725  6274 7112 7208  3245 3247 4851  335 660 10018  5816 6960 7948  5999 6684 7323  3249 3251 3255  1800 1802 10334  5190 5836 7029  4794 4950 10232  1628 1630 1631  6581 6879 8033  397 398 663  2940 2942 2943  459 460 664  3432 3434 4826  6302 6498 7928  5942 6645 7840  5233 5234 5942  4256 4767 10370  1460 1473 10520  8362 8502 9854  1709 1710 1711  9288 9295 9527  8398 11096 11132  4631 4655 4656  5616 6171 7478  2451 2488 3819  2670 2671 2691  5968 8492 11827  5801 5841 5842  1632 1634 1635  4530 5490 10015  5211 5213 11122  5509 6858 6859  3635 3637 3660  3055 3056 3057  4787 4910 5233  400 401 581  3905 10313 10314  6898 10814 11104  4779 5291 10465  943 946 9808  2934 2936 2937  6595 9402 9403  3705 3709 5398  3907 6126 9658  4101 4103 4167  2293 3713 10186  3437 3453 4346  6488 9058 11599  5563 6626 7473  3633 3635 10217  4391 7314 7315  6206 6207 6208  395 396 10169  2577 4681 10645  6631 6632 10854  2859 4135 4157  8850 8853 8856  1700 1701 1702  403 404 666  7580 7582 7583  7488 7489 12713  3281 3286 3289  1621 1624 1625  3807 3812 10585  4205 4206 4207  3650 3652 10582  4116 4588 4589  1187 1189 1190  4814 4816 4817  456 457 547  4397 5402 6394  1946 1948 2002  3629 3631 3645  4626 4629 5210  6022 7645 8163  1428 1437 11269  4511 4513 5699  406 407 543  8064 8066 11217  5915 7099 7100  2642 2643 2656  5923 6681 7703  5510 5511 5512  2930 2932 2933  3902 4282 4284  2309 2857 10101  5549 5601 10561  7231 7234 7235  453 454 665  1971 1973 1974  3303 3900 5582  3497 6028 10609  2710 2711 4128  2708 2709 2710  1425 4099 10043  3047 3048 3049  6029 9490 10400  3832 3833 3834  4722 4831 6003  6292 7232 10288  2742 2756 10275  4466 4677 5181  2350 5494 7302  6682 8296 10950  450 451 585  892 1036 4843  1170 1176 1177  1986 1995 1997  2276 6983 6984  432 433 544  1694 1695 1696  1122 1127 3876  6864 10658 10906  3962 3963 3964  2926 2928 2929  409 410 667  3456 3458 5138  1178 1183 1184  3406 3463 10997  435 436 668  3820 4083 5073  2093 2267 10020  4544 9691 10255  1028 9161 12086  9566 9568 11748  4664 7864 7865  447 448 671  1518 1789 1794  3635 3660 10217  6126 11085 11266  438 439 583  7552 12415 12480  6050 9693 11854  3793 3891 3892  3049 3050 3051  3273 3279 3280  2917 2920 2921  441 442 670  9572 9573 9574  1275 8449 11725  4676 7267 7777  452 453 10175  4267 4498 10202  2699 2700 2708  444 445 546  429 430 669  1154 9695 10242  336 728 10018  4288 4289 4290  2913 2915 3895  1459 1475 2391  5423 6804 10279  4765 9329 9989  2204 2205 3802  1849 9685 10869  4095 4219 5185  431 432 10177  4272 4949 9952  4290 4291 4292  3660 10217 10218  1955 1958 2012  4292 4293 4463  4663 5793 10629  4337 4622 8661  443 444 10180  795 1849 9684  10339 10340 10343  412 413 582  4184 4185 4288  2809 6406 10466  6857 7708 7709  3039 3040 3041  7323 7324 7773  1613 1615 1616  1425 1426 10043  2922 2924 2925  436 437 10178  6219 6579 7738  4338 4624 10366  5230 6701 6703  1965 1967 2273  4463 4464 5103  1137 1147 1149  4404 4406 5304  5868 6597 7603  6114 9121 9690  442 443 10179  4438 5314 10669  2297 3717 6832  1111 1120 10363  5438 6097 7093  1688 1689 1690  426 427 584  2906 2908 10372  1030 1032 10252  5531 5532 5533  1132 1136 3893  4141 4376 4377  2384 2865 10574  1140 1146 1156  4824 5476 5849  8356 8361 8363  6476 6477 6478  4026 6726 6727  5494 7371 7372  6850 7779 10984  415 416 672  5060 5061 5438  3041 3042 3043  2537 2584 10298  5332 5334 10671  7276 7277 7278  6208 6209 6210  6839 6840 7097  615 9613 9615  423 424 673  1157 1161 1166  3932 3934 4249  1963 1979 4374  416 417 10182  2455 2462 10304  2696 2702 2863  6963 8599 12212  424 425 10185  1091 1093 2272  1513 6287 10536  7685 9009 10742  6457 6853 7359  4507 4509 5965  1099 1104 1361  3032 3033 3035  6357 6358 6397  4329 5229 5230  3864 11700 11769  417 418 750  7986 7987 7988  1109 1114 3894  6198 7899 7900  2194 2195 2200  3892 4204 4205  5552 7146 10303  5871 5873 8442  5019 5020 5736  6397 6398 6839  421 422 751  334 660 10019  6355 6356 6357  6151 7060 10377  3075 3100 3101  4168 4267 4268  6542 6543 6566  3865 4471 4472  9350 9621 9625  5985 6473 6474  3069 3071 3072  1981 1985 2015  5094 6548 6549  3915 4892 4893  1116 1125 1168  4589 5440 5441  7154 7155 8448  419 420 542  9033 12335 12350  249 563 11066  5432 5680 7152  2796 2798 4151  1242 1243 1244  5774 5775 6355  6210 6495 6554  6769 8124 10464  4680 5651 5652  5721 5722 5774  6451 6453 7421  3026 3027 3028  2802 2838 4310  3341 3483 10468  9378 10814 11104  9051 9054 10824  2106 4887 10483  1836 1857 9809  6733 8236 10294  6715 7655 9659  7154 8448 12135  1606 1608 1610  2735 2737 4040  3616 7141 10414  7503 7504 10558  2039 2270 2292  5719 5720 5721  2677 2685 2706  1794 1853 2039  1602 1604 1605  1994 2004 2025  3623 3625 3640  5773 9134 12501  3624 10116 10408  6106 6108 7459  4129 4453 4455  2334 2794 2795  2348 9604 10484  3445 3448 10396  6679 7495 7496  6886 8945 11321  337 728 10050  5850 5852 6174  2746 2751 4050  2571 9340 12861  2755 2759 2760  3841 3843 10374  7984 7985 7986  6174 12555 12782  5423 5430 6804  2253 2255 2328  4350 4700 5252  7369 7566 8759  28 29 9968  2014 2017 2033  5541 5542 5719  5539 5540 5541  4024 4909 6354  7604 7606 9865  1676 1677 1678  6011 6486 6487  1096 1100 3898  5697 9171 9327  5119 5120 6220  2286 2287 10059  5117 5118 5119  4593 4995 4996  5537 5538 5539  4424 4695 4696  1392 1393 10064  1542 1544 1545  3185 3189 3190  3190 3193 3194  3014 3015 3018  5012 9815 11067  2053 2238 2239  2244 2246 2323  2763 2765 4506  2731 2733 2748  1678 1679 1680  1465 1496 9620  2673 2675 6344  3663 3688 3857  2089 2293 2299  3565 3566 3587  2742 2744 2756  3183 3184 3185  2725 2727 4046  7983 9772 12623  3205 4113 4114  3181 3182 3183  4472 5372 5373  4175 6234 10571  1105 1110 1112  3595 4117 4118  4602 5333 10691  3314 8676 12830  3194 3204 3205  5115 5116 5117  4861 4965 5643  8863 9036 12357  6100 6102 6666  4356 6837 6838  3179 3180 3181  693 9543 9544  5533 5534 5535  836 9898 11171  4739 5914 5915  2566 2683 10687  2459 3905 10313  4138 9404 12684  5166 5491 5677  6866 7271 7272  1560 1562 1563  5535 5536 5537  3177 3178 3179  5568 5569 5974  7088 10797 11077  2721 2723 2747  6480 6481 6482  2767 2770 4701  5171 5410 5618  5052 5165 5166  3615 3617 4653  5412 5414 6673  2188 2189 3818  3018 3019 3020  1081 1083 1382  2713 2715 2738  2717 2719 4047  3020 3021 3022  3175 3176 3177  5416 7037 9521  3148 3150 3151  3171 3172 3173  4900 5599 5600  272 647 10964  6478 6479 6480  6615 6873 7612  2772 2775 4997  2651 2662 2670  1670 1671 1672  5273 9017 12169  4106 4786 4787  3173 3174 3175  2467 2469 2529  4562 4563 5360  4522 4591 4594  2645 2647 5032  6292 7229 7232  2458 2460 2520  4042 4044 4296  2008 2867 8883  3169 3170 3171  1596 1598 1599  5074 5712 6379  773 774 775  6682 6683 8296  2286 4962 10059  4030 4032 6365  2993 2995 3011  3167 3168 3169  5222 6242 6517  2081 2082 10073  4482 4982 7507  6218 7757 10734  3834 3835 3836  2463 2465 4049  2517 2522 2556  7977 7979 7980  3836 3837 3838  2480 2482 4371  3003 3004 3005  2452 2454 2641  1202 1213 10379  3165 3166 3167  4034 4037 4184  2429 2431 2699  2425 2427 5150  1252 1265 10022  4560 6678 6679  2613 2615 2622  2475 2478 2545  5733 7321 10152  2627 2629 2642  7045 7536 7572  5321 6735 6736  2986 2988 3034  6719 6720 7240  5419 6241 6774  1586 1588 1589  338 566 10050  508 661 10047  2537 2551 2584  1499 4176 5525  4646 9817 10992  2471 2473 4051  6077 6217 7518  5157 6873 10362  7419 7527 7696  5597 7557 7559  2617 2621 6614  3163 3164 3165  3601 10041 10436  2178 2179 2184  4893 5318 5319  4900 5600 10297  5396 7131 7358  1662 1663 1664  4170 4171 5049  3017 3067 3068  3161 3162 3163  3923 9800 10521  2558 2561 2601  8515 10468 10959  4446 4461 5351  2600 2604 2612  4571 6138 10475  1076 1078 3904  1744 4363 5053  1874 4966 10463  2974 2975 2999  3619 3621 4089  777 778 1852  872 1268 4074  6745 7151 8089  3159 3160 3161  4058 4189 9884  9510 9965 9966  5428 6264 6265  1852 2067 10861  5224 7129 7130  1664 1665 1666  3157 3158 3159  7391 8991 12966  4972 4974 7078  4122 4123 4380  813 1467 10203  4496 5654 6401  778 1852 10058  1392 3977 10064  971 972 973  4028 6263 10397  5146 5147 5160  4408 5013 5399  5494 7302 7371  4672 5289 10522  3155 3156 3157  4731 6669 10611  9235 10808 10981  5160 5161 5733  3320 3321 3325  4118 4119 4120  5017 5553 6542  819 1429 9585  4120 4121 4122  4870 4871 5146  6389 8495 8496  2968 2969 2970  3838 3839 3840  6571 6738 6739  5579 6428 6648  3288 9504 10729  3540 3541 3550  5453 5519 10703  6235 10380 10875  1152 1838 10112  2593 3505 3506  251 252 10401  3153 3154 3155  684 9218 9219  2976 2978 4138  2422 4552 4852  5747 5749 10437  9173 11601 11936  7263 11597 11818  5022 5024 5060  6635 9726 10473  4483 4484 5188  2068 2069 10121  10197 10634 12348  3325 3326 4483  4792 4793 4794  1089 9592 10354  7416 10835 11008  339 566 10049  3478 5292 10490  2081 4967 10073  52 708 9787  4013 4015 6366  6392 6393 7451  4976 4979 5115  6043 7656 7710  3151 3152 3153  4390 4728 5019  2516 4073 10434  4143 5093 5094  1462 1470 10486  2962 2963 2964  507 731 10047  4192 4388 4478  9736 9738 9740  1652 1653 1654  4017 4019 4020  792 10215 10469  9332 9989 10399  5547 9448 11543  1194 1195 1196  2830 3909 10430  5840 9255 12972  6110 7053 7750  5463 6624 7531  1365 1366 10151  1742 3875 5052  3506 3507 3508  6257 6270 8475  3593 3597 4183  1208 1209 3229  3576 3578 3598  6312 7279 7398  6460 7545 7546  5764 6130 6131  4100 4101 10132  1302 6134 6135  2301 2338 10196  6370 6371 6460  3899 10035 10416  1810 1813 10516  775 776 777  3531 3532 3537  2397 2399 4446  3287 3322 10702  2955 2956 2958  509 661 10046  3508 3509 3510  580 8921 8922  2278 2350 5494  5384 7299 7300  1353 1359 10494  3548 10025 10352  2468 3906 10339  2688 2697 9941  6302 8397 11233  4855 5267 5352  5809 6087 6088  6051 9722 10405  6904 6907 10657  3568 3570 4064  1087 9470 10350  5390 7224 8381  4336 10066 10427  4022 4561 4562  4035 4036 4170  4299 4301 5240  5556 6722 7369  3529 3530 3531  5951 5952 11446  1840 2087 4837  6357 7051 11264  5862 5864 6211  3777 3778 3779  9610 9611 9612  823 2899 11147  2718 2749 10349  2782 2783 4247  6128 6965 8813  5502 6905 6906  5878 5885 6411  340 729 10049  3921 3925 10157  5123 6520 8241  6633 7851 10016  1477 11687 11873  6326 6433 10386  6255 6444 7213  3510 3511 3512  5880 5882 10453  1491 6390 7136  7229 7231 10749  1819 1820 10141  7198 8390 11181  4107 4108 4555  9285 9338 10545  3310 3311 3312  9292 9297 10542  5241 5758 6731  6073 6075 7265  5148 6697 10495  4247 4248 4694  4307 4309 5288  3997 6514 11727  3767 3768 3769  3561 3564 3565  1250 1269 10400  4220 6289 7158  4529 4819 5555  7168 11792 11910  37 653 9930  6237 6467 10439  6005 7649 8395  6509 6511 7544  4067 4068 4069  4145 7406 7407  3549 3554 6619  1829 1831 4905  6360 6362 6564  6606 8481 11033  4762 4765 9989  8005 9072 12663  6265 7658 10171  4069 4070 4071  4842 5829 10611  5385 6761 6762  1641 1642 1643  8951 11502 11761  6649 7672 11447  4384 4386 5361  2499 2500 2501  4756 4759 10399  4314 4316 5268  6208 6210 6438  3761 3762 3763  4791 4792 4793  4643 9148 9149  5526 7064 7260  5218 6253 6312  5468 5469 6504  4693 5484 6326  1833 1835 4548  2271 10759 11155  4142 5093 11997  4327 4869 4870  6069 6071 6817  8353 8926 8927  5960 5962 8902  3101 3102 3134  8764 9864 11758  4171 5049 9796  6065 6067 7393  6088 6612 10170  222 640 9920  7937 8058 8059  9329 9331 9332  1304 1318 10405  7836 11504 12367  5586 5588 6359  6761 7872 10229  5258 5259 6923  4227 4553 4554  190 607 9938  3545 3547 3551  270 271 10917  5993 7819 9141  4442 5437 6370  1456 4132 4133  2232 2322 10158  4578 4857 10512  6037 9629 10508  5514 5804 7269  3447 3466 4863  4303 4305 5272  2067 2385 10861  3237 5306 10503  1817 9232 10554  792 794 10469  6030 9603 10792  1949 4650 4931  2937 2938 2939  4656 4657 4813  5711 5713 6672  5177 6254 6255  1344 3490 10667  1787 1788 10164  4504 5808 5809  265 266 9713  6433 7389 8029  2855 4409 4489  3952 4447 4559  4006 7072 7261  184 710 9686  3443 3450 3451  9504 10729 10730  2267 2370 10020  5256 5452 6562  7985 7986 7987  3242 10820 10972  4559 5065 5066  3045 4716 10452  4538 4540 5420  3942 3947 3948  1635 1636 1637  1780 1784 10537  6374 7431 7554  3577 4280 10371  3948 3951 3952  3682 3684 10160  5066 5359 5716  4812 6266 6267  3523 3890 4067  3536 3539 3540  5207 5614 5710  3779 4156 4334  1471 1472 10519  4318 4536 5340  3957 3959 5083  5431 6499 10367  6307 6310 6493  3300 4271 4556  4792 4794 5159  4476 4939 5207  8955 9063 10187  6671 10485 11374  4581 5320 10464  1822 4930 10104  4981 10388 10389  5570 6572 6687  1144 4059 9936  4334 4617 4618  4548 5509 6336  939 941 942  4675 5637 5638  6893 8112 11654  1327 1328 10190  3296 3298 4125  8526 8527 11891  4736 5076 10329  1364 6142 8159  9183 9836 10440  4679 8440 11244  4193 5033 10393  1180 1204 10100  2804 2806 10466  1023 1030 1482  1997 3609 3610  4294 6631 6634  3877 3878 3879  2179 2184 9821  1184 1185 1186  343 621 10057  5112 7691 10493  2068 4194 10121  5458 9238 12187  7982 7984 7985  4240 5081 6118  3526 3528 3529  4432 6251 10594  5136 7108 10565  5710 6376 6747  4224 5045 5514  6979 9860 11417  709 9822 9823  5228 7006 7417  2042 2044 10767  2369 2380 10090  3871 3873 10475  6373 6860 6862  5609 5610 7569  607 8830 8831  3515 3517 3591  4489 5164 5572  1625 1626 3333  4133 5623 5969  6378 7735 10404  6787 7280 10548  3072 3073 3880  3521 3524 3525  1517 1791 10390  2904 5773 11115  3876 9449 10973  2404 4142 4143  1180 1181 10100  2057 2390 4530  4233 6145 10597  4246 5141 5142  3620 3677 10384  2299 3713 3714  5958 7227 11334  653 9930 9931  5794 9047 10375  3857 4245 4246  6029 7237 9490  2101 2103 10483  6953 6954 6955  5573 6756 7294  1761 1762 10191  2059 2325 10104  1837 9347 10525  212 580 9974  3939 3941 3942  504 561 10060  1146 1160 11318  4264 4985 6374  3283 3292 3293  4669 5940 10534  1361 11525 11616  5471 5473 5756  6747 6748 8101  3238 4714 10473  344 733 10057  6934 9875 11569  6051 6053 9722  1166 1167 3336  6527 7304 7305  2216 3475 10490  4197 4360 5636  2224 2316 9942  5128 7175 7219  5648 7476 7477  4070 4071 9727  1719 5593 10870  3843 3845 3935  1009 1016 3970  5992 6613 10650  942 943 944  9192 11191 11351  4409 5164 6340  2074 8547 8548  32 9608 9962  3612 3613 3614  5504 7415 7416  4132 5623 6341  4176 5526 7063  281 590 11070  6341 6849 6850  4440 6448 6449  294 295 10286  2609 4782 10700  5498 6063 6064  3269 3270 3272  3991 4993 6373  1297 1298 9926  1533 1534 1535  1616 1617 1618  4332 4333 4490  3253 3254 3269  5723 5724 5725  2340 2381 3481  1500 1506 9872  5725 5726 5795  972 973 9806  6166 6759 7052  3859 3861 10495  5795 5796 6313  5921 6681 10560  740 7973 12219  5397 7133 10506  5236 5237 5238  5085 5357 5468  5490 5591 7077  6146 7301 7435  3714 4427 4428  6261 7705 10394  5671 5672 5673  6257 6258 10394  2309 2311 10101  1618 1619 3242  4398 4400 5768  345 733 10079  503 730 10060  4248 4694 9813  4302 4981 10388  2219 3234 10503  5042 5043 5589  8657 9177 11292  4639 4971 5609  1508 1518 1789  3848 4140 4476  6850 7525 7778  3610 3611 3612  8702 8703 12336  1441 1442 10568  3981 4524 4526  1754 1758 10555  4843 4844 4845  2354 4968 5042  1335 1479 10658  4254 5235 5236  1425 3969 4099  6951 6952 6953  4595 5670 5671  2440 2441 2442  4936 6777 7550  7215 9250 11194  4987 6871 10962  6313 6314 6315  4222 4542 5301  798 800 10525  3501 4186 10124  3714 4428 4429  6782 10061 12851  5708 5709 5723  2402 4487 5298  6661 6663 6823  2026 8539 8542  291 292 618  1819 4983 10141  5810 7464 8261  5326 5327 10402  2434 2435 2436  2436 2437 2438  2438 2439 2440  2869 4800 5225  6315 6316 6591  2083 2091 10023  2198 2266 10493  1610 1611 5543  5466 6872 8220  1724 1725 10234  4439 12730 12913  5033 5812 5813  4879 5254 10600  4470 5182 6369  1873 6383 10919  704 9353 9354  824 826 10536  2910 9624 10774  346 562 10079  6591 6592 6593  6040 6776 9463  2442 2443 2444  1748 1751 10556  1365 4903 10151  3985 9683 10489  649 9050 9051  2136 2140 2141  5231 5456 6647  3879 4053 4054  6593 6594 6820  4845 4846 4848  502 730 10097  8334 8372 9986  1372 1397 9893  270 574 10917  1660 3335 10508  1535 1536 1537  6154 9507 9508  6878 7258 7259  5590 6877 6878  2319 3122 4958  3250 3252 3253  636 8690 8691  7137 9343 11284  2849 2850 10587  2394 2395 2396  6820 6821 6822  1853 2270 2394  4848 5293 5294  5216 5345 6796  1539 1540 1541  6907 9449 11517  3538 3562 4936  4996 5187 5387  2444 2445 2446  6822 7318 7319  9894 12215 12453  10028 10499 10500  1277 1278 9943  1038 1043 10149  9329 9330 9331  9051 9379 10824  1537 1538 1539  2446 2447 2448  4530 4531 5490  4429 5175 5176  6425 7574 7575  1545 1546 1547  5398 10221 10690  804 806 10554  8358 8506 8507  2833 2835 2836  2432 2433 2434  4469 9692 9693  2829 2831 2832  1735 1738 10562  3063 3064 10258  1040 1044 1200  6574 8151 11547  1563 1564 1565  2034 9573 10469  347 562 10078  1416 4203 11353  4477 8943 12698  4099 4595 5653  4783 6764 10513  2220 2327 10513  4927 5800 7222  2396 2397 2398  5783 7848 10549  1962 4825 10245  9287 9289 10542  1599 1600 3369  4492 4493 7361  5374 5630 6527  501 620 10097  9280 9282 10545  4257 4258 4744  1702 1703 10276  4692 4693 5483  4678 5496 5810  4498 5202 10254  6643 8986 10908  2399 4461 4692  6929 6931 9803  7270 11106 12719  1029 1035 10150  9919 10764 11072  2821 2823 2824  3147 3148 11040  1547 1548 1549  640 8818 8819  4490 4491 4492  1993 4065 10227  1324 9652 10658  5470 6547 10448  5170 6887 10406  5670 5672 7849  3381 3390 4948  1569 1570 1571  2650 3911 10407  1571 1572 1573  1567 1568 1569  1088 1102 11522  2286 2365 4962  1553 1554 1555  1555 1556 1557  2766 4269 10410  1551 1552 1553  2046 2049 10055  3395 3403 3426  1549 1550 1551  1565 1566 1567  9066 9067 10779  7168 9633 11910  834 3785 11171  1573 1574 1575  4402 5197 5612  4249 4355 5786  4548 5508 5509  5886 9498 9499  4958 5900 8020  9640 9646 10543  1489 6390 10486  6131 6132 7310  348 732 10078  1589 1590 1591  6215 6451 10843  1575 1576 1577  3468 9550 10855  1557 1558 1559  3095 3105 10581  6769 8123 8124  6250 7543 9971  1577 1578 1579  8338 8370 9764  1485 1499 4176  1244 1245 10321  643 8960 8961  3034 9401 12464  5484 6433 6434  4571 4929 6138  1457 1471 9869  7994 8250 12280  4668 4672 10522  3186 3191 10670  7420 9116 13087  3035 3036 10307  3481 4677 5523  500 620 10096  2106 2109 4887  4704 4706 10549  1593 1594 1595  1591 1592 1593  1022 1026 10165  4377 5325 10247  2236 2265 10167  5730 5732 6802  1392 3976 3977  1579 1580 1581  8321 8324 10472  3275 3287 9978  1581 1582 1583  2321 2385 2403  2809 2812 6406  1718 1722 10578  4383 5817 10471  5056 8031 12833  4969 5704 5706  1680 1681 10312  1271 9637 10543  4424 4696 5389  2814 2816 2818  627 10583 10593  5324 5845 6505  2111 2113 2138  5762 9607 10385  2232 2234 10158  4852 4853 5208  4912 6301 10563  3085 3088 10590  1583 1584 1585  1414 1415 10652  4794 5159 5172  5861 5870 10261  3454 4850 10415  8847 9432 9433  4813 4814 10404  6749 7194 9586  7060 8445 10377  3905 10314 10315  1149 1859 1860  5843 7433 8191  6434 7389 7390  4430 12936 13173  5728 7094 7681  5574 7483 7484  5352 7024 7202  5351 7154 7155  349 732 10106  263 264 9822  2876 4154 10051  4761 9116 13087  5232 5456 5574  4062 4063 4257  6635 8052 9726  6081 7330 7460  2684 3912 10423  5855 5869 10266  1787 4988 10164  2081 2354 4967  36 37 653  3478 3492 5292  6731 7869 8788  1672 1673 10330  3005 3006 10345  1494 1526 10188  3567 10032 10457  3560 3590 10417  1712 1715 10584  4649 9756 11224  5248 9716 10559  1276 6375 10676  8342 8368 9795  2117 2120 2121  5148 6276 6697  4837 6268 9469  4962 5231 5232  499 734 10096  4057 4058 4396  6673 8199 12074  5896 7341 7342  5940 6176 8149  3128 4340 10559  943 944 9808  6458 6890 10425  2803 3975 4460  2385 2403 2404  5513 5528 5529  5560 5561 5562  2483 2549 10434  4789 4790 4791  7245 11782 12106  6551 11039 12829  2122 2124 2125  5627 5894 7467  3237 5105 5306  2918 11562 11959  1291 1301 10676  3501 3503 10124  6982 9879 12194  6856 8232 10424  5028 5308 6191  2245 10071 10432  2417 2418 4057  5144 5145 5666  2495 2559 10560  5689 7115 7116  4345 4669 10534  5034 5814 10093  6328 6329 6330  3435 4598 10428  4065 10075 10077  6330 6797 6798  1362 1378 10667  5289 6257 6270  4196 4469 10123  6249 6250 9971  6706 9047 9048  2939 2940 10397  8350 8364 9838  7979 7980 7981  8346 8366 9810  5669 8544 12312  3843 3935 10374  350 622 10106  10082 10083 10084  3942 3948 11176  5112 7690 7691  2695 4499 10433  4476 5207 11163  6906 7061 7062  257 703 9623  3814 4411 10563  3058 3061 10601  2205 3802 10192  5041 5140 5558  1654 1655 10368  6568 8796 11533  3596 4373 10436  1473 1498 10520  2415 2416 2417  2385 9870 10861  4746 5520 5659  1658 1659 9979  1541 1542 10461  271 10917 10964  5401 5403 5728  3925 4829 10157  5043 5590 6876  4940 4941 4942  6232 9683 11212  5008 5057 5058  2536 2583 10444  2785 6305 6306  4566 5404 5405  41 11134 12942  7388 9077 10826  3360 3362 3366  4783 4785 6764  4794 5172 10232  5516 6651 10651  7062 8167 8168  4720 9174 10953  4519 4565 4566  4417 4584 4585  4942 4943 4945  3431 4418 10435  1454 1456 4132  5137 6540 6541  2338 6206 10196  3312 3313 10378  4967 4968 6225  4727 6080 6081  3923 3927 10521  6261 6781 7705  1643 1644 10383  6026 9198 10166  3052 3055 10604  4945 4946 4947  5237 5350 7241  7647 7648 7834  5835 7424 7441  4074 4520 4987  6273 11169 11204  4825 10081 10082  6876 6877 8247  4516 4518 4519  1324 1335 10658  6026 6790 10166  1954 10080 10441  4951 4952 4953  3977 4254 4564  5286 5975 10849  3805 3807 10585  6267 6972 10241  4953 4954 4955  1426 1430 10043  351 622 10105  5422 7340 10480  1697 1700 10603  4564 5235 5667  4361 4924 4925  5025 5665 6252  8071 10668 11626  6978 8117 11417  6037 6039 9629  4955 5522 6140  2758 4641 6328  4196 4198 10123  7241 7242 7810  5346 5510 5511  5897 5899 10628  4931 5454 5455  2068 4193 4194  1860 1861 1862  1385 1386 10681  3787 6426 10656  5847 7184 7706  3044 3047 10608  1382 3724 4395  2187 9154 11020  4101 4167 10132  5975 5976 8254  5969 6193 8440  7100 7102 7103  9063 10187 11715  4554 5607 5608  2704 8792 10911  6485 7331 7332  6422 6423 6424  4452 5310 5311  4912 6300 6301  4181 4838 4839  6921 8493 10310  4990 5136 5137  1691 1694 10610  1031 2888 10655  1526 4930 10188  7255 11980 12411  6911 6912 6913  4778 5632 10781  9180 9184 11129  2413 2414 2415  4556 4642 5286  5391 10347 11055  1365 3974 4903  2853 2855 4409  5286 5707 5975  2712 10028 10499  7132 7133 7411  2628 3910 4940  2034 9572 9573  1862 1863 1864  838 1440 9898  5754 7618 7950  6342 6343 7402  6118 6119 7772  1866 1867 1868  7199 11181 11464  1038 1039 10149  352 737 10105  2205 2207 10192  3272 3273 10416  6536 11538 12151  1344 1362 10667  8818 8821 10481  1477 10007 11687  3717 10196 10745  5594 6588 6589  989 991 10195  4496 6401 6402  5286 6407 10849  4863 4864 4865  5783 5933 7848  6196 6587 7629  1864 1865 1866  5935 7480 7481  455 456 10943  2236 3800 10167  6104 9395 11529  4788 5500 5835  5870 10108 10109  59 697 11276  5389 5390 6996  3116 4663 10629  2661 3911 4951  1982 12799 12899  6693 11855 12175  4925 5577 5578  6306 6307 6308  9331 9332 9335  3451 4601 4602  4696 5389 5390  6599 6864 7774  9292 9296 9297  5034 5812 5814  5217 5345 5346  4684 5258 5259  255 565 9466  6918 7266 10455  2131 2132 9990  9719 11587 11944  4194 5033 5034  1513 6286 6287  814 1792 11158  2461 3905 10318  7012 7205 7206  4395 5381 5382  5409 6887 10476  4731 4842 10611  3566 3568 10868  4379 5154 10206  1819 4470 4983  3494 3497 10609  1394 9627 13123  1327 4223 10190  5869 10119 10120  8295 9340 12143  3029 3032 10617  353 737 10126  8698 9876 11676  772 773 774  6337 6338 6576  6424 6425 7203  1168 11382 11794  8164 10808 10981  4428 4429 5175  2793 4372 4452  9285 9337 9338  979 1477 10007  5259 6925 6926  6489 6746 7075  5248 7799 9716  3481 4466 4677  5454 10267 10268  1276 1291 10676  6794 6795 8081  4150 5593 5594  3614 3663 10414  1868 1869 1870  3293 3294 3327  1837 9346 9347  4134 5027 6337  5326 6293 10402  1761 4992 10191  3637 3660 10447  10173 12960 13159  3023 3026 10616  1931 1932 1933  3973 9166 12648  2237 3914 6342  3791 3793 3891  5509 6336 6858  2784 6240 6332  2701 4499 10491  491 595 10125  1935 1936 1937  5172 6707 6808  1685 1688 10637  9168 10978 11103  5673 7282 10251  3630 3966 10482  1029 4437 10150  4602 5331 5332  3634 3704 10553  4425 5200 5201  5360 7470 7471  6341 10568 10984  3512 3522 10356  7052 7113 7595  2287 2290 10059  269 574 9537  490 736 10125  2380 4153 10090  5281 6695 6696  9482 11003 11412  7396 8781 13128  6490 7760 10673  4802 5211 5212  6308 6310 6627  6823 6824 6825  3201 3915 4892  646 9019 9022  3812 4354 6189  354 553 10126  1154 1158 10242  5301 5302 6190  5183 6419 6420  1393 1407 10064  3812 6189 10585  4897 4898 4899  9640 9645 9646  2375 2780 4426  4480 4482 4982  6873 7612 12027  4107 4555 6295  6655 6657 7839  1789 1794 1853  4903 7748 7769  5243 9426 10302  30 31 654  1870 1871 1872  1999 2010 10656  9118 9502 10573  2189 3818 10223  6688 6921 8493  4440 6449 10572  1535 1537 2274  6548 6550 6834  1418 1425 3969  2857 3984 4279  1352 1353 10494  2574 2577 10645  2691 3797 3903  5159 5172 6707  6433 8029 10386  8638 11560 11868  4002 4004 4087  6825 7254 7620  4324 5063 5064  6028 9710 10609  4681 6264 10645  5829 5833 6753  6190 6200 6688  31 654 9962  1233 1242 10624  289 290 712  4983 5182 5183  4526 5239 5453  3202 3207 10208  80 81 10531  1539 1541 4066  355 553 10127  5371 6867 6868  2304 2305 10713  5010 5802 5803  4491 4493 5576  6028 6169 9710  4201 6282 7751  1920 1959 10478  5319 5531 5532  944 9808 9977  1787 3986 4988  1310 4080 4081  5298 5299 6660  1667 1670 10631  5441 5999 6684  6651 6653 8153  5225 5226 6163  1489 1491 6390  2317 2319 3122  356 738 10127  2189 2191 10223  5921 5923 6681  5781 5782 10000  2082 2260 10073  6141 10288 10922  1853 2039 2270  1817 9230 9232  4393 5110 10673  5295 10279 10895  5493 6245 6246  986 989 10747  357 738 10130  3010 3014 10641  6247 7331 10496  9354 10583 10593  2605 4827 10533  2313 3913 10677  3000 3003 10623  5511 5513 6516  358 623 10130  4108 4110 10579  9051 9053 9054  3680 5305 10488  6743 6745 7151  5779 6519 7309  6163 6164 7009  5205 5624 6350  6513 6668 7138  774 775 776  1779 3987 6760  4114 4116 4588  5436 6712 6713  5475 5477 7243  644 8955 9062  4176 5525 5526  4397 6394 10902  2836 2860 5167  1809 1810 10516  8369 10472 12284  5808 6087 6964  3684 3707 10160  5793 6002 7863  2141 2214 2215  4328 5229 11093  2949 11019 11395  488 489 10821  4743 5370 5371  4733 5516 10651  3267 3268 3274  4058 4396 9884  2971 2974 10620  964 1818 10017  6569 6571 6738  5983 5985 6473  5793 7863 10629  4263 5261 10701  1327 3994 4223  3274 3275 3287  3068 3069 10489  3146 3148 3150  4665 5388 5621  1224 1230 11425  484 739 10134  1200 3370 3371  975 977 10233  6474 6476 6477  3262 3263 3264  6739 6741 7394  3264 3265 3267  1265 6375 10022  6009 6011 6486  4177 4659 4660  6204 6961 10844  1389 1392 3976  3787 3789 6426  4899 5046 5047  4484 5188 10243  7155 8448 8449  117 608 10916  4555 10579 10956  6645 9488 11845  7723 8129 10438  3771 3773 4056  2965 2968 10614  3775 3777 3778  2547 2554 10209  3101 3134 6985  3954 8771 10933  2215 2279 2280  483 624 10134  4279 4504 5806  3703 4933 10511  3745 3749 4938  4988 5466 6150  2448 2451 10392  8222 8223 11926  4808 4812 6266  3765 3767 3768  2262 2286 2365  2878 2879 2880  4066 5001 5002  4539 4540 4789  3751 3753 5309  3755 3757 4475  2311 3913 10101  3142 3144 4078  3824 4332 4333  4579 4580 5367  4555 6295 6296  1366 1373 10151  3759 3761 3762  6414 7689 10505  2614 9732 12242  5005 5057 10477  482 624 10135  5203 6221 6223  1197 1208 10632  2959 2962 10613  3260 3261 3262  4681 5428 6264  7196 7197 7828  2824 2825 2826  6945 6946 7448  2175 2178 10638  7605 10122 10535  6138 6139 6646  4898 5046 6513  285 286 10027  2881 4613 4743  7401 7622 11313  2069 2072 10121  4438 5107 5313  5681 5682 7196  7173 10967 11709  481 741 10135  1761 3991 4992  179 180 10583  1890 3980 10507  8709 8710 11603  6750 7722 7723  2399 4446 4461  1314 1315 10755  2826 2827 4127  2564 2566 10687  3102 3104 10635  3069 3072 10489  6646 7395 9030  1779 1780 10537  3258 3259 3260  7920 12463 12840  3256 3257 3258  4484 5097 10243  2330 2368 10677  4993 6860 6861  5511 5512 5513  4223 4224 5044  2368 2785 6305  4835 4836 5681  5002 5003 5004  3762 4462 6410  2270 2394 2395  2818 2819 4278  7489 7490 8026  4659 5341 10442  5033 5813 10393  2322 3999 4326  4267 4268 10202  2710 4128 10992  5044 5045 5943  2227 2228 10764  2079 2081 2354  6926 6927 6928  4368 5198 5199  8976 9020 13061  2264 2349 11519  6438 10745 11041  3668 4494 10712  5289 6270 10522  3072 3880 3985  5327 5648 6496  5001 7089 10461  5609 7569 8469  659 9366 12182  2313 2330 10677  5667 6563 8019  3768 4440 6381  4287 4367 4368  5731 6351 6935  2952 2955 10630  4285 4286 4287  1904 3972 10527  4817 8186 12045  3580 3595 4117  7416 10834 10835  8852 8939 10985  1648 1652 10654  234 711 9831  5338 7194 10648  5550 7165 10524  6697 7674 9011  580 8922 9974  3632 3966 10553  4414 4768 4835  1747 6298 6488  1993 2003 10227  3373 3374 3375  3371 3372 3373  5518 7135 10421  986 987 10747  1820 1843 10141  5526 7063 7064  9101 9995 11297  2618 9146 10806  1191 1194 10644  6296 6297 7262  399 8277 11762  3718 4233 4438  369 596 10147  2683 3140 6177  4163 5392 10523  2403 2404 4142  5708 5723 8044  4108 4555 10579  6928 8090 8091  3251 3255 3256  5736 7497 10777  5725 5795 6670  363 552 10137  4543 6249 6250  1638 1641 10646  1209 3229 10256  5659 6281 7792  1209 1211 10256  4992 4993 10497  5706 7140 7589  5008 5058 5059  5484 6326 6433  1547 1549 1854  6131 7310 7311  370 743 10147  5337 6842 10529  4156 4617 5503  6389 8496 9785  6806 8716 10803  2395 2396 2397  1359 1365 3974  1724 5051 10234  6044 9020 12797  4409 4489 5164  3731 5954 10727  1541 4066 5001  1551 1553 4075  2091 2387 10023  2492 2631 10029  6295 6296 6297  2265 2304 10167  368 596 10148  2125 2126 2127  6410 6524 6525  1734 1772 3936  7601 7602 10564  3951 4447 4534  6525 7904 7905  3556 3558 10240  5164 5572 7356  4132 4133 5623  3102 3134 10635  366 742 10144  4460 4633 6184  5065 5359 5737  1887 3979 10551  1328 1337 10190  3134 6985 6986  1753 1754 10555  566 10050 10564  4585 4586 5011  5261 6534 6815  1204 4419 10100  8921 8923 12166  2127 2128 2129  5147 5161 6751  4745 6351 10695  5623 6341 6849  9768 9769 12008  2362 11418 12205  3048 9235 10981  24 25 716  4352 4413 4414  8785 8786 11275  1555 1557 1793  5003 7089 10477  1899 1950 10539  9478 9479 12774  4092 4264 4984  3113 9536 11625  2036 2068 4193  2129 2131 2132  4947 5463 10506  1930 4432 4543  2598 2609 10700  4282 4284 4285  4677 5523 5524  9431 9437 13042  1378 4201 6282  1479 6599 6864  6184 6185 7303  5004 5005 5007  1747 1748 10556  3732 8948 11061  4326 4327 4867  3366 3367 4416  2683 6177 10687  1724 3996 5051  6381 6448 7887  2234 3800 10158  6525 7906 11092  5424 6445 6447  5819 6216 7804  5011 5012 5819  2934 2937 10618  8419 9829 12963  3073 3075 10322  745 8170 12685  4461 4692 4693  9953 10755 11106  6490 7759 7760  6301 6302 6498  3965 9811 12402  236 616 9840  4208 4209 4352  1962 1978 10245  2308 2857 3984  1845 1847 2271  2164 2166 10284  5415 7249 10538  6849 6850 7525  1788 1797 10164  2168 2170 10283  4867 4869 5264  1734 1735 10562  374 551 10153  2500 2503 10246  6447 11034 11288  2500 2501 10246  247 715 11278  8657 8658 12040  3471 4263 10701  2159 2161 10282  1717 6304 6492  2397 2398 2399  6771 6772 7346  367 10144 10148  8569 9803 10679  375 745 10153  5503 5504 7400  7103 7104 7106  6315 6591 7733  4738 5216 5217  2345 7828 12595  5202 6539 10254  2505 2507 10263  1877 2001 10540  2624 2640 10806  1831 1833 10382  3940 3941 3943  770 771 772  6257 8475 10394  3938 3939 3940  3639 3995 10447  382 383 10863  3936 3937 3938  2346 2350 10449  9415 9416 9418  6297 7262 7263  4882 5785 10300  9435 9436 12179  8280 8281 8282  8823 8824 10899  6420 6422 6423  5262 9244 12458  1895 3978 10546  1813 1819 4470  4135 4157 4158  4771 10094 11440  5001 5002 5003  6395 6396 7316  7569 8469 8470  4782 5573 6756  4379 5029 10206  946 948 10280  7106 7107 7181  2152 2154 10291  1711 1743 3956  1717 1718 10578  5954 7268 8150  7106 11617 11823  2558 2601 10285  3063 4000 4497  4693 5483 5484  2880 2881 4218  5651 5652 6771  1298 1307 9926  7181 7725 7726  3880 3985 4217  6729 9458 10622  2846 4457 11244  6593 6820 7630  3094 3095 10581  1127 3876 10973  4984 4985 6172  5483 6977 10319  6371 7545 8045  4814 4817 10404  6740 8900 12003  3969 4099 4595  1626 1628 10287  4775 5253 6710  1711 1712 10584  6310 6493 6848  2649 8808 10942  5051 5228 6274  4790 4791 4792  3802 4972 4973  7396 12910 13128  4185 4288 4289  3057 4006 7071  3084 3085 10590  6822 7319 7842  5259 6923 6925  1872 1902 10463  5118 5120 5157  1791 1829 10390  4289 4290 4291  3927 4424 10521  2142 2144 10296  2207 2210 10192  1702 4442 5054  1762 1765 10191  4377 4928 10247  4291 4292 4293  5670 5671 5672  3063 4497 10258  607 8831 9938  4293 4463 4464  5301 6190 7010  5059 6409 8187  6441 9675 10485  1178 1184 10659  8061 8063 8069  6433 6434 7389  1409 1410 11353  6148 7641 9484  1799 1801 2051  1043 4059 10149  5672 5673 6555  1515 8434 11732  3377 10200 10678  2390 4531 5495  3748 4502 10750  4142 4143 5093  1235 1249 10757  4464 5103 5104  467 549 10159  275 579 9588  4206 4207 4208  5402 6394 6395  1322 1327 3994  5599 5600 7253  5460 10464 10634  589 9020 13061  252 637 10401  9662 11392 11592  3057 3058 10601  4736 4737 4738  5601 7511 10561  3727 3731 10727  5842 5843 6919  5808 5809 6087  7246 11937 12085  4037 4184 4185  5914 5915 7099  5118 5119 5120  5861 5863 10261  6790 7934 10166  6087 6088 6089  2321 2332 8684  5116 5117 5118  1696 1697 10603  4498 10202 10254  3051 3052 10604  5829 6753 10611  2591 9132 10848  3122 4958 5900  4217 4638 4639  4595 5653 5670  4420 5875 10552  1784 1787 3986  1567 1569 1760  5141 5142 10292  3615 4653 10901  2915 2917 10324  6889 8650 11891  1278 1286 9943  5003 5004 5005  7387 7388 10826  3043 4145 6578  3940 3944 11098  466 748 10159  4927 7222 10862  3985 4217 4638  6441 7727 10485  2547 3813 10209  3683 5026 10605  3043 3044 10608  3956 3957 3958  4509 4511 10323  1690 1691 10610  2400 3608 3989  5074 6379 10903  3958 3959 3960  5900 8020 8155  4218 4613 4614  9738 9741 10951  1690 4220 6288  1035 1039 10150  4871 5146 5147  3960 3961 3962  4537 4538 4539  5913 6903 8740  5147 5160 5161  5712 6379 6938  4335 5392 10552  3652 4358 10582  3441 9632 10960  4497 4675 5377  5165 5491 6162  1359 3974 10494  1777 1779 3987  5899 8094 10628  1157 1166 10661  4979 5115 5116  22 23 602  1563 1565 4104  6030 6590 10792  5377 5637 7422  4502 4709 5285  7129 7130 7830  3035 4370 5250  5165 5166 5491  1232 1233 10624  915 917 10305  1596 1599 10683  2231 2322 3999  3660 10218 10220  4968 5042 5043  1301 1310 4080  4638 4639 5708  3028 3029 10617  4656 4813 6377  4869 4870 4871  5161 5733 5734  1725 1729 10234  10085 10086 10087  4544 5077 10255  7389 7390 7391  4232 4295 11304  3022 3023 10616  5141 5563 10292  1167 1170 10308  4561 4563 5129  9654 9655 12493  5235 5236 5237  1611 1613 10309  1244 4013 4014  5054 5437 6575  1813 4470 10516  4973 4974 4975  5237 5238 5350  3028 4011 7123  1026 4437 10165  2958 2959 10613  5855 5857 10266  1684 1685 10637  2933 2934 10618  3073 3880 10322  3244 6167 10972  5043 5589 5590  2709 2710 2711  640 8819 9920  4377 4927 4928  8951 9464 11502  1702 5054 10276  1626 3333 10287  2964 2965 10614  6205 10098 10172  2970 2971 10620  2999 3000 10623  5532 5533 5534  1542 1545 10461  5940 8149 10534  1816 2057 2390  1680 1742 3874  4975 4976 4977  2951 2952 10630  6356 6357 6358  3875 5052 5165  7468 7469 13053  1902 1965 10289  3818 5375 5376  1767 1769 1808  34 578 9954  6287 7494 7516  730 10060 10061  7234 7235 7783  5974 6898 8110  6118 7772 8515  2488 2490 10295  3022 4834 6294  5245 7489 7490  4892 5318 6966  4037 4185 5276  3375 3381 10678  3009 3010 10641  8162 11306 11589  6840 7097 7098  4977 4979 5427  5775 6355 6356  2174 2175 10638  2940 2943 10397  3880 10322 10988  6398 6839 6840  6358 6397 6398  5720 5721 5722  2700 2708 2709  5314 6746 10669  8136 8137 8138  1857 2089 10733  5722 5774 5775  4813 6377 6378  1666 1667 10631  1571 1573 4079  1196 1197 10632  4204 4205 4206  2461 2464 10318  5538 5539 5540  7310 7311 8116  1245 1254 10321  6332 6333 6334  4289 4291 5307  2365 4962 5231  7299 7300 7392  5639 7684 7685  4889 5779 6519  2998 3017 10364  9060 9061 11046  1471 10519 11006  4453 4507 10337  5542 5719 5720  1758 1761 3991  4561 4562 4563  5540 5541 5542  6877 6878 7258  4892 4893 5318  5005 5007 5008  1885 1956 10551  1672 6320 7110  3005 4473 4474  1235 3799 10757  5536 5537 5538  4293 4464 5354  3064 3078 10258  3741 3748 10750  1703 1707 10276  5045 5514 5804  6684 7323 7324  5534 5535 5536  386 749 10163  5456 5574 7483  2184 4030 4031  5201 6214 6215  4045 11017 11285  5231 5232 5456  696 9027 13106  6289 7158 7159  1751 1753 4637  4928 5800 5801  3503 6405 10124  2999 4012 6303  6288 6289 6290  3366 4416 6463  5157 5584 6615  6305 6306 6307  6597 7603 7604  3947 3951 10592  4155 4778 10781  5049 6391 6392  5599 7253 7375  3976 3977 4254  6371 6460 7545  5532 5534 7182  991 1476 10195  2044 2062 10767  2970 4253 6573  2687 10248 10711  5250 7144 7565  1586 1589 10686  1167 3336 10308  5632 7647 7648  1738 1747 6298  9897 10759 11155  5058 5059 6409  1577 1579 1771  2964 4023 6501  4154 6160 10051  6334 7677 7678  6355 9848 11264  2958 4026 6311  3306 3307 10842  4505 5327 5648  5843 8191 10864  1666 1744 3983  3036 3039 10307  1198 8379 11676  6266 6267 6685  3006 3009 10345  5212 5991 5992  4588 4589 5440  2354 4967 4968  1647 1648 10654  3949 4242 4849  1681 1684 10312  1595 1596 10683  5437 6370 6371  1190 1191 10644  5399 5400 5837  3778 3779 4156  6135 6353 7156  4852 5208 6900  4585 5011 5683  8133 8134 8135  1087 1096 10350  5651 6771 7157  1637 1638 10646  2431 2699 2700  3891 3892 4204  5914 7099 8612  5396 7358 10923  5137 6541 7185  2204 3802 4972  3768 3769 4440  6919 7433 7434  5553 6542 6543  1744 5053 10892  3874 3875 5419  8283 8284 12399  2049 3719 10055  4014 4015 4016  5064 5825 5826  1583 1585 1726  5536 5538 5735  5819 7804 7805  5376 6995 7109  4021 4022 4560  2191 2194 10223  1673 1676 10330  6378 7005 7734  3207 4260 10208  1731 1734 1772  4018 4019 4021  8662 8800 10977  4016 4017 4018  6294 7295 7692  3762 3763 4462  5712 6938 7013  5093 5094 6548  5188 5321 6537  5594 6589 6971  6477 6478 6479  2910 2913 10774  4447 4559 5065  4556 5286 6407  6409 8187 8189  4254 4564 5235  1302 6135 6353  1659 1662 9979  22 602 9715  5637 5638 6689  1722 1724 3996  2939 4027 4028  3947 3948 3951  1655 1658 10368  4436 5245 10769  3951 3952 4447  2870 8190 11843  2937 2939 4027  3809 4436 10769  3156 3158 3218  1644 1647 10383  3180 3181 3182  5065 5066 5359  3943 3945 4187  2800 10264 10732  5590 6876 6877  3178 3179 3180  1130 1132 10336  5542 5720 5824  3170 3171 3172  2697 2845 9941  3166 3167 3168  3152 3154 4265  3105 4092 4264  5476 5849 5850  5359 5716 7049  3168 3169 3170  1654 4276 4277  3184 3185 3189  4156 4334 4617  3941 3942 3947  3189 3190 3193  3182 3183 3184  4621 10605 12658  5129 5384 6719  3172 3173 3174  259 651 9728  3176 3177 3178  1715 1717 6304  4274 9555 12384  4474 5448 5449  2794 2795 2796  3313 3316 10378  3844 3845 3846  4993 6373 6860  5350 7241 7242  1177 1178 10659  3174 3175 3176  5449 7126 7190  3164 3165 3166  290 712 9914  395 545 10169  3193 3194 3204  3160 3161 3162  3162 3164 3198  3162 3163 3164  6479 6480 6481  2759 2760 2761  7139 10477 11277  6303 7047 7048  2072 2073 10999  3088 3090 3998  3849 4140 4141  5775 6356 6403  1196 4024 4615  4047 9437 13042  7242 7810 8610  3158 3159 3160  3204 3205 4113  6448 6449 8042  4985 6374 7431  1600 1602 10332  5234 5942 6645  2832 2833 10648  3092 3094 4237  6207 10048 10571  1156 1157 10661  3156 3157 3158  6264 6265 7767  4031 4032 4033  3842 3843 3844  4910 5233 5234  2955 2958 4026  3154 3155 3156  3229 6325 6518  3150 3151 3152  1589 1591 6347  7415 7416 7740  3262 3264 3271  6307 6308 6310  1709 1711 1743  4430 10662 13173  3168 3170 3195  3273 3280 10416  3964 6465 6791  1104 1109 10351  5334 6942 10671  3983 4363 4364  1089 1091 10354  1173 1201 10796  4364 5224 7128  3312 4039 4319  1611 5543 10309  2818 4278 5505  1593 1595 1719  6311 6726 8458  1784 3986 10537  4199 8491 11626  3080 3082 4923  3061 3063 4000  1242 1244 4013  8137 8138 8139  5345 6796 7236  5325 6752 10247  4033 4034 4035  3840 3841 3842  3846 3848 3849  1700 1702 4442  1643 4025 4636  5230 6703 6989  2188 3818 5375  2962 2964 4023  1585 1586 10686  6825 7620 7990  579 9588 9589  2597 2608 10848  3055 3057 4006  3152 3153 3154  2292 2340 10411  4379 5028 5029  5837 6870 7912  5187 6198 10327  3256 3258 3266  6022 8163 8164  4694 5074 5711  3889 9850 10451  1694 1696 4009  5568 5974 6898  3047 3049 4008  2662 2670 2671  5368 5424 5425  4285 4287 5554  2836 5167 5338  944 2424 9977  2968 2970 4253  3172 3174 4082  5225 6163 6372  2974 2999 4012  2826 4127 4957  4675 5638 11108  4460 6184 7025  6398 6840 7256  4416 4417 10731  6537 6735 8085  4368 5199 5755  3293 3327 5492  4250 4579 4690  1078 1081 10359  389 390 10830  3035 5250 10307  1688 1690 4220  4736 4738 10329  4028 4029 4250  2178 2184 4030  4629 4631 10766  2238 2239 2240  3041 3043 4145  2197 2199 10785  3032 3035 4370  3003 3005 4473  3026 3028 4011  4333 4490 4491  3014 3018 4238  4110 4496 10579  4193 4194 5033  1249 1302 10757  1364 8159 8390  5321 6736 10857  1637 4045 7046  4786 4787 4910  5033 5034 5812  11 12 10586  3176 3178 3196  4061 4098 10570  7827 8239 12956  4408 5399 5400  3020 3022 4834  2694 2878 2879  4277 4900 5218  5812 5814 7380  1194 1196 4024  3974 4903 7748  2618 2624 10806  1678 1680 1742  4170 5049 6391  1585 1726 4093  3249 3255 10643  1019 1022 10963  1186 4664 5625  2629 2642 2643  4535 4536 4537  5047 5436 6712  6750 7723 8129  1670 1672 6320  5529 7276 7277  686 9253 12500  3220 3866 10817  1599 3369 6346  5762 5764 10385  4998 8281 10921  5061 5438 6097  1205 9760 10510  3274 3287 3288  6463 6464 6620  6423 6424 6425  9420 9421 9422  5694 6124 11027  4835 5681 5690  6479 6481 6863  1664 1666 1744  5493 6246 6247  3432 4826 10662  5419 6774 6775  6518 7700 8227  6955 6956 6957  3320 3325 4038  5333 6497 10691  1158 3828 10242  5187 5387 10327  1652 1654 4276  4319 4739 5177  973 5015 5016  2604 2612 2613  5378 6600 6601  7131 7358 7903  975 9806 10233  4491 4492 4493  3556 4908 10240  5405 5560 5561  1139 1141 11208  1641 1643 4025  1208 3229 6325  1619 3242 10820  3681 4621 10605  6620 8237 8238  4615 4909 6737  3333 6950 6951  1680 3874 10312  1742 5052 10886  4483 5188 5321  1595 1719 4010  6425 7203 7574  4636 4680 5570  4540 4789 4790  6737 6941 7594  3182 3184 4007  1625 3333 6950  7318 9404 12684  1610 5543 5544  1618 3242 3243  3984 4279 4504  3336 4391 4832  2640 2664 5067  3189 3193 4086  1184 1186 4664  1635 1637 4045  5731 6935 6937  6722 7369 7566  4531 5490 5591  4123 4380 4382  4526 5453 5518  1166 3336 4391  6255 7213 7716  453 665 10175  3310 3312 4039  266 645 9713  6953 6955 6956  5561 6980 7362  5097 6717 10243  3960 3963 11132  4895 4897 4898  7940 9566 11748  3242 3243 3244  4352 4414 5383  3272 3303 3899  5208 6900 6901  4121 4122 4123  4117 4118 4119  6377 6378 7005  4206 4208 5669  2554 2570 10209  1244 4014 10321  2268 2359 10758  5304 10708 12566  1631 9883 11017  4470 4983 5182  2158 2160 11691  9519 9544 11248  4782 6756 10700  977 1477 10233  5024 5060 5061  1600 3369 10332  4888 9652 10906  3204 4113 4443  3269 3272 3303  432 544 10177  4504 5806 5808  1133 1137 10823  4819 5555 5556  5182 5183 6419  4728 5019 5020  5733 5734 10152  2181 2183 10802  4119 4120 4121  4421 4735 4736  4247 4694 5074  3705 5398 10690  3493 5378 10817  5511 6516 10761  6911 6913 6914  436 668 10178  3369 6346 8229  5543 5544 6574  2435 3228 11619  6229 9131 10850  4939 5207 5614  3530 3531 3532  4588 5440 6387  6541 7185 7186  2054 8638 11868  2215 2280 2405  3891 4204 5088  4770 4914 10808  5614 5710 6376  4863 4865 6910  3220 3493 10817  5373 5374 5426  3994 4223 4224  444 546 10180  4137 4348 4619  1851 2065 10467  5659 7792 7793  442 670 10179  4027 10226 10618  2709 2711 2712  4093 4990 4991  4257 4744 4745  1149 1860 5039  3564 3565 3566  4044 4296 4297  288 11053 11064  5811 6983 11644  9731 10777 12302  2127 2129 2137  4140 4476 4939  443 10179 10180  3717 10745 11041  3902 4284 10665  4832 7314 7957  4395 5382 5714  1726 4093 4990  3104 4107 10635  6282 7751 7752  4010 4150 5089  4317 4318 4535  7062 8168 8169  4749 5215 10814  971 973 5015  6192 9869 11006  1211 1219 10256  1838 1840 10391  1030 1482 10252  1949 4931 10696  2591 2597 10848  4039 9855 10842  3614 3615 3616  5352 7202 8144  3986 4988 5466  4770 9235 10808  2018 2019 10929  4189 4522 10369  6756 7294 9852  1758 3991 10555  3528 3529 3530  3524 3526 3527  5029 5308 7383  4224 5044 5045  7079 10059 10680  3663 3857 10414  3244 3245 3246  3524 3525 3526  6088 6089 10170  3512 3513 3514  966 968 10837  5466 6150 6872  489 736 10821  3899 3900 3901  3246 3247 3248  6376 6747 6748  3248 3249 3250  5801 5842 5843  1672 7110 10330  6864 7774 11081  1937 1949 10696  3121 8904 11534  3901 3902 4281  5588 6359 6360  6925 6926 6927  4141 4377 4927  4744 4745 5730  2390 4530 4531  5505 5506 7066  885 887 10877  4554 5608 6939  4563 5360 10787  1719 4010 4150  3999 4326 4327  5519 6946 10703  4281 4282 4828  1434 8389 11421  416 672 10182  5016 5017 5552  3539 3540 3541  2501 5035 5255  5142 5497 5498  5800 7222 7584  3354 3358 10822  2164 2171 10284  424 673 10185  2341 5358 11953  1479 6864 10658  5755 6725 7217  1399 8948 12070  4602 5332 5333  6064 6065 6066  7353 10207 11508  1751 4637 10556  8002 8003 11867  4964 6538 10932  4957 5631 6179  417 750 10182  6368 8628 11662  5706 7589 7590  6863 6968 7886  1862 1864 2024  5552 5553 7086  4217 4971 10988  4123 4382 4383  2168 3867 10283  5633 8891 8892  6223 10317 13163  4315 4316 4317  9420 9422 9423  3322 4098 10702  4117 4119 5557  5338 5598 6749  5228 7417 11089  6076 7715 10589  1619 1621 10820  6179 7014 7966  4518 4565 7050  298 299 675  8819 9921 10481  2363 2422 10413  7217 7482 8228  944 2423 2424  3612 3614 3615  2199 2204 10785  5593 6588 10736  3373 3375 3376  3005 4474 10345  4145 7407 10878  645 9070 10014  4027 4028 4029  2608 7521 7522  3530 3532 3533  5426 5630 5931  2761 2784 10783  3991 4992 4993  1570 3332 11509  4327 4867 4869  1216 1227 11308  4735 5875 10642  4914 6022 10808  293 294 719  4996 5387 6408  4493 5576 7036  3558 3573 10240  5425 6445 6446  4080 4081 4986  4029 4250 4579  6395 7316 7317  6913 6914 6915  3288 3322 3323  4321 5281 6695  6519 7309 8245  5387 6408 6929  4071 4148 4149  6651 8153 10651  2505 3825 10263  1738 6298 10562  3323 4061 4062  4462 6410 6524  6444 7373 11314  6351 6936 10721  4443 4605 5263  4336 4420 4421  1852 10058 10861  4972 4973 4974  5648 6496 7476  5294 5295 5422  1200 3371 5056  4882 5275 10300  6927 6928 8090  2161 2171 10282  3514 3515 3516  2395 9983 10664  6298 6488 8285  2448 2449 2450  3277 9978 10429  6761 6762 10229  23 602 10005  5263 5571 6412  2170 2174 10283  4440 6381 6448  6524 6525 7904  3516 3517 3518  5607 6005 10381  4164 4335 4336  2166 3867 10284  3247 4851 10643  1997 3610 6435  4824 5849 10708  2671 2691 10794  5981 9807 10965  1472 1485 10519  6412 7325 7326  4026 6311 6726  5318 5319 10813  4865 6910 6911  3518 3519 3520  3522 4908 10356  4864 5385 10387  3327 5492 5493  2503 3825 10246  3520 3521 3523  1866 1868 4090  4843 4845 6869  6353 7156 7628  2181 9821 10802  5255 5256 5451  4617 5503 5504  4543 6250 6429  522 658 11045  3430 4430 10662  1772 3936 3937  6966 10670 11040  4974 4975 4976  6950 10820 10972  4246 5142 5497  4023 6501 7843  6954 6958 11285  4850 8142 12847  5451 5452 7547  694 8210 12345  6246 6247 6248  2833 2836 10648  6387 6584 6623  2282 9673 11519  4848 5294 5295  4438 5313 5314  3298 3300 10409  6726 8458 10010  3294 3296 10398  4819 5556 6721  3996 5051 5228  5728 7681 7806  4313 4314 4315  2424 2425 2426  5380 5700 5701  6446 6780 7090  5120 5157 5584  4057 4396 4397  5504 7400 7415  2426 2427 2428  3616 3617 3618  3937 3938 3939  4135 4158 4159  8631 8634 11990  5630 6527 7304  3939 3940 3941  1412 3222 11262  1173 3828 10796  4264 4984 4985  1506 1508 10831  6304 6492 8398  6643 6644 10908  4976 4977 4979  2415 2417 4060  2507 2511 10263  6247 6248 6485  4737 4738 5216  2154 2203 10291  2712 2713 2714  4538 4539 4540  5375 5376 6995  6915 6917 6918  5785 7878 10300  7058 7347 7348  2714 2715 2716  3427 10978 11103  2593 3506 5030  5167 5338 5598  4012 6303 7047  2716 2717 2718  5228 6274 7006  4113 4114 10818  2450 2452 2453  2718 2719 2720  6729 9783 10622  4369 9012 11927  3105 4264 10581  2428 2429 2430  5310 6110 10373  5382 5714 6186  1743 3956 3957  6696 7509 7510  2453 2454 2455  6918 7055 7056  2720 2721 2722  7056 7057 7058  7322 10488 13014  1931 1933 1934  7081 10073 10693  3527 3528 5128  1872 1873 1874  4473 4474 5448  5357 5468 5469  2434 2436 2485  2451 3819 10392  4416 6463 6464  7348 7349 7350  4000 4497 4675  3287 3288 3322  1201 1364 10796  5216 5217 5345  942 944 2423  2722 2723 2724  4442 5054 5437  7047 7048 8958  4006 7071 7072  5518 5519 6560  5422 5423 5429  4030 4031 4032  3957 3958 3959  5608 6939 8268  8589 10181 11364  2430 2431 2432  2726 2727 2728  4396 4397 5401  5498 6064 6065  4931 5455 7011  2724 2725 2726  4149 4252 4312  5310 5311 10373  4834 6294 7295  4127 4957 5631  3959 3960 3961  1722 3996 10578  5432 7152 10697  4145 6578 7406  5400 5837 6870  3961 3962 5344  2377 9849 10517  6545 7573 11573  3075 3101 10322  60 560 11276  4370 5250 7144  4618 10834 11214  5491 6162 7474  2455 2456 2457  4278 5505 5506  5494 7372 10467  2144 2782 10296  5448 5449 7126  4297 5205 10809  2728 2729 2730  6540 7289 10672  4220 6288 6289  6007 9841 10969  4675 5377 5637  4013 4014 4015  6265 7767 10171  6320 7110 7111  1742 3874 3875  3125 4516 4518  7012 7206 7207  3564 3566 3567  4664 5625 7864  3702 5303 10690  2459 2460 2461  6391 6392 8462  5199 5755 6725  6937 7355 7768  1870 1872 1873  3088 3998 10590  1935 1937 1938  3834 3836 5062  4308 4309 4313  5429 5430 5431  1874 1875 1876  4391 4832 7314  5431 5432 5679  2457 2458 2459  2730 2731 2732  10499 10500 10980  1628 1631 10287  1744 3983 4363  1378 6282 10667  7792 7793 7794  6540 6541 10672  2499 2501 5035  3243 3244 3245  5679 5680 5794  2405 2406 2407  2299 10225 10733  5598 6749 6750  4563 5129 5384  5453 5518 5519  4025 4636 4680  4276 4277 4900  5588 6360 6361  7234 7783 7784  6208 6438 10745  4032 4033 4034  3539 3541 3542  2461 2463 2464  6956 6957 7918  6150 7669 10395  4061 4062 4607  1654 4277 10368  1873 1874 1875  6186 7549 7955  4015 4016 4017  4024 4615 4909  6797 7430 11549  6520 11118 11716  5321 6537 6735  4019 4021 4022  4017 4018 4019  9142 9194 11721  1857 9809 10733  3322 3323 4061  2732 2733 2734  2735 4040 10704  4034 4035 4037  2183 2188 10802  2440 2442 2779  6248 6485 7068  4363 4364 5224  6325 6518 7700  2746 4050 10722  5224 7128 7129  5201 6215 6450  6914 6915 6917  1715 6304 10584  9205 9207 13008  2736 2737 2739  2734 2735 2736  5077 6183 10255  5332 5333 5334  5714 6186 7549  2464 2465 2466  5631 6179 7014  4039 4319 4739  5824 9581 12701  4680 5570 5651  946 9808 10280  1876 1877 1878  6464 6620 8237  3226 4379 5028  4900 5218 5599  7014 7966 7968  4022 4560 4561  8261 8262 8263  3510 3512 3513  3303 5582 10753  5215 5568 10814  2759 2761 2762  6735 8085 8647  4909 6737 6941  3245 3246 3247  5020 5736 10828  1875 1876 1877  2407 2408 2409  1409 11353 11642  3900 5582 10665  2488 3819 10295  2466 2467 2468  4614 5368 5424  5384 6719 7299  3303 3899 3900  3277 3283 10429  4745 5730 5731  3247 3248 3249  3512 3514 10356  3249 3250 3251  5506 7066 7067  6938 7013 7560  2739 2740 2741  2677 2706 10725  4312 4398 4399  3889 4222 10451  2089 2299 10733  5064 5826 6461  1028 10839 12086  5794 6705 6706  7648 7834 9874  5308 6191 6891  2915 3895 10324  6164 6166 10418  4739 5177 5914  1877 1878 1879  4728 5020 5021  5061 6097 6098  4611 9226 11109  1878 1879 1880  6725 7217 7482  3289 3290 10994  2794 2796 2797  1016 1023 10426  4472 5373 5374  6917 6918 7055  6935 6937 7355  5074 5711 5712  4716 6637 10452  7590 7591 7592  2662 2671 2672  2604 2613 2614  7350 7623 7624  2468 2469 2470  173 630 10805  3376 3377 3378  6597 7604 7605  7206 7207 7579  966 10017 10837  2629 2643 2644  4910 5234 6934  4383 4384 4385  7090 7091 7092  3468 4227 10855  1879 1880 1881  5318 6966 6967  5455 7011 7012  4861 5643 10723  2446 2448 2449  7592 8048 8049  3900 3901 3902  5607 5608 10381  3378 3379 3380  8049 8050 8051  1432 8228 12790  3380 3383 3384  9582 9583 12308  4591 4593 10860  2280 2405 2406  3902 4281 4282  3618 3619 3620  6157 7561 8207  3384 3386 3387  4898 4899 5046  5046 6513 6668  6334 7678 7679  4825 10082 10245  4431 4875 5037  6324 9751 11103  2409 2410 2411  2411 2412 2413  3061 4000 10601  1880 1881 1882  4306 4307 4308  3483 4240 10468  292 618 10053  915 4840 10305  5333 5334 5335  4735 4736 4737  3312 4319 10378  1933 1934 1935  2470 2471 2472  7055 7056 7057  3387 3388 3389  5357 5469 5470  1881 1882 1883  5212 5992 6483  2741 2742 2743  4511 5699 10323  7057 7058 7347  4335 4336 4420  4509 5965 10323  4069 4071 4148  6043 7710 7711  5519 6560 6945  2776 3981 10421  2860 2869 10431  3459 3460 4349  2472 2473 2474  3533 3534 3535  5806 7625 10403  5463 7531 10506  4385 4386 4528  5778 10906 11081  3393 3397 3398  3389 3392 3393  2917 2921 10324  2767 4701 10737  3905 10315 10318  3454 3456 3457  3457 3458 3459  3356 9877 10526  1883 1884 1885  4528 4529 4678  1937 1938 1939  7347 7348 7349  3398 3399 3400  1170 1177 10308  1882 1883 1884  1442 1454 10568  4349 4350 4699  3433 3434 3435  3431 3432 3433  523 9969 11045  3402 3428 3429  3429 3430 3431  1887 1888 1889  968 971 10837  5334 5335 5336  1885 1886 1887  5673 6555 10251  948 1478 10280  5335 5336 5337  3055 4006 10604  3438 3453 3454  2494 2496 10874  194 195 11521  1889 1890 1891  4864 4865 10387  1929 1930 1931  7272 7273 7274  6726 6727 10663  2238 2240 2241  18 19 10136  3400 3401 3402  2490 2631 10295  7231 7235 10749  1301 4080 10676  1127 1133 10973  4629 5210 10766  1831 4905 10382  1926 1928 1929  5337 5415 5450  3435 3437 3438  3838 3840 3841  2474 2475 2477  4106 4787 10743  6120 7530 10845  1884 1885 1886  1924 1925 1926  4162 4163 4164  1891 1892 1893  4074 4987 6871  8421 9829 12963  1700 4442 10603  2743 2744 2745  2134 9990 10458  5450 5549 5550  4565 4566 5404  1922 1923 1924  5336 5337 5415  1643 4636 10383  4034 4184 10698  5810 8261 8262  2406 2407 2408  28 588 9968  889 892 10871  2827 2829 10445  6798 6799 7040  1920 1921 1922  3423 3447 10460  6066 6067 6068  2477 2478 2479  7349 7350 7623  1613 1616 10309  7929 7930 7931  3375 3376 3377  4577 4855 10856  2745 2746 2750  3535 3536 3538  1965 2273 10289  571 9027 13106  1849 10001 10869  377 8171 12569  2850 2853 10587  5107 6146 10420  2479 2480 2481  4065 10077 10227  3358 4408 10822  1886 1887 1888  5128 7219 7220  766 768 5209  917 1519 10305  4699 4700 4860  5550 5601 5635  4631 4656 10766  1893 1894 1895  7581 7582 7929  5476 5850 5851  7579 7580 7581  2429 2699 10715  3047 4008 10608  4399 4400 4467  5404 5405 10320  4163 4164 4335  1888 1889 1890  6330 6798 6799  1917 1919 1920  1833 4548 10382  2316 2402 10459  4420 4421 4735  2481 2482 2483  5154 6283 10206  3660 10220 10447  1829 4905 10390  5415 5450 5549  4993 6861 10497  2480 4371 10738  2027 10138 10139  5635 5790 5791  3999 9919 10764  4452 5311 6436  4304 4305 4306  4159 4160 4161  5563 7473 10292  3843 3844 3845  3682 3683 3684  1694 4009 10610  3680 3681 3682  1947 1948 1951  3684 3685 3686  5015 5016 5017  5313 5314 6095  2750 2751 2752  4158 4159 4160  3615 3616 3617  1890 1891 1892  3133 9776 10905  2471 4051 10724  6724 9211 11515  4219 5185 10706  6252 6437 6843  1951 1952 1954  4453 4455 10337  7589 7590 7591  3676 3679 3680  5791 5792 5903  2483 2484 2516  3532 3537 10859  6429 6430 6431  2475 2545 10735  1895 1896 1897  1915 1916 1917  1413 9786 10599  3450 4601 11114  3534 9862 10859  5549 5550 5601  5903 6413 6414  3294 3327 10398  4044 4297 4298  3674 3675 3676  1939 1940 1941  5632 7648 10781  2752 2753 2754  1954 1955 1957  5314 6095 6489  6361 6362 6363  6628 6629 10668  4927 4928 5800  3567 3568 3569  719 10286 12467  1945 1946 1947  6416 6417 6418  3841 3842 3843  3377 3378 3379  2819 2821 10454  4518 4519 4565  8854 8859 11444  4947 5396 5397  6637 9325 10452  1957 1958 1962  2627 2642 10748  6856 6857 7707  3180 3182 10726  6414 6415 6416  3379 3380 3383  6508 6509 6510  4951 4953 7015  6510 6511 7418  6363 6364 6508  4507 5965 10337  3620 3621 3622  4160 4161 4162  2754 2755 2758  3383 3384 3386  1892 1893 1894  4548 6336 10382  1912 1914 1915  2516 2517 2521  3560 3561 3563  5140 5689 10504  4955 6140 6141  6267 6685 10241  2521 2522 2530  5224 7130 10705  3548 3549 3553  3553 3554 3560  751 9351 12378  1805 1806 11037  3569 3570 3575  4406 5304 10708  820 822 11164  1941 1942 1943  3546 3547 3548  3845 3846 3848  2530 2531 2536  4467 4468 5084  2134 2136 10458  6140 6141 6291  7132 7411 7653  1897 1898 1899  7924 10001 10869  4940 4942 7008  2408 2409 2410  1962 1963 1978  9572 9799 11230  3386 3387 3388  5601 5635 5790  3672 3673 3674  4860 4861 4964  3686 3690 3691  5870 10109 10261  4054 4195 4196  6431 6432 6676  1943 1944 1945  3575 3576 3577  6250 6429 6430  6408 6929 6930  383 548 10863  3683 3684 3685  1928 1929 1930  1541 5001 10461  1910 1911 1912  3585 3586 3592  3984 9949 10713  4945 4947 5396  3577 3578 3585  2536 2537 2550  4788 5835 6686  2711 2712 2713  3592 3593 3596  4276 10297 10654  3841 10374 10893  5017 5552 5553  2015 9424 12231  788 2038 11113  6854 6855 6856  649 9051 9379  3542 3543 3544  2939 4028 10397  1925 1926 1928  4161 4162 4163  3544 3545 3546  5843 6919 7433  3681 3682 3683  1807 9779 11872  5084 5085 5356  6065 7393 10530  1894 1895 1896  6481 6863 6968  3388 3389 3392  4785 5041 10515  5585 5586 5587  1899 1900 1901  2550 2551 2552  1104 1361 10351  3596 3597 3601  4391 7315 10661  3822 9975 10974  2552 2553 2557  2067 2321 2385  5790 5791 5792  7040 7041 7042  5869 10120 10266  3848 3849 4140  6676 6677 6973  1923 1924 1925  7108 7289 10898  3601 3602 4191  5295 5422 5423  2879 2880 2881  1978 1979 1980  3392 3393 3397  4191 4192 4387  3685 3686 3690  2762 2763 2764  5484 6434 10319  4813 6378 10404  4392 5108 10887  2557 2558 2560  3032 4370 10617  4397 5401 5402  5025 6252 6437  8124 10464 10634  4387 4388 4389  1908 1909 1910  3679 3680 3681  7591 7592 8048  2065 2278 10467  1921 1922 1923  2410 2411 2412  1901 1903 1904  3316 9997 11029  4389 4390 4727  5261 6815 10701  3397 3398 3399  7042 7043 7044  3017 3068 10364  2560 2561 2594  5021 5022 5023  2423 2424 2425  5792 5903 6413  6458 6853 6854  6456 6457 6458  4392 9727 10887  2594 2595 2599  1919 1920 1921  2599 2600 2603  2412 2413 3718  8048 8049 8050  7784 7785 7786  7044 7045 7535  982 985 11740  6279 10192 10858  6450 6451 6452  1904 1905 1906  4976 5115 10699  7535 7536 7537  2715 2716 2717  6973 6974 6975  6454 6455 6456  4536 4537 4538  7537 7539 7540  2713 2714 2715  4964 4965 5168  4936 7550 7551  5423 5429 5430  2717 2718 2719  5432 5679 5680  3675 3676 3679  3670 3671 3672  1896 1897 1898  1980 1981 1984  2719 2720 2721  2703 2704 2858  3026 4011 10616  5023 5024 5025  6413 6414 6415  5430 5431 5432  4113 4443 4605  2614 2615 2616  5894 5896 10502  2427 2428 2429  1906 1907 1908  2721 2722 2723  6098 6909 7250  2425 2426 2427  6417 6418 7035  6452 6453 6454  2449 2450 2452  2701 2702 2703  6843 6844 7637  6901 9148 12909  3399 3400 3401  6164 7009 10418  5440 6387 6584  1421 1436 11262  5680 5794 6705  2725 2726 2727  2727 2728 2729  2764 2765 2766  3691 3692 3693  1132 3893 10336  5397 7131 7132  6415 6416 6417  2066 10399 10833  2723 2724 2725  2766 2767 2768  2644 2645 2646  5586 6359 10798  2768 2770 2771  1688 4220 10637  7117 10640 10999  4310 10264 10896  3428 3429 3430  3401 3402 3428  6048 6752 10940  1916 1917 1919  2797 2798 2799  2672 2673 2674  2771 2772 2774  2684 2685 2686  3673 3674 3675  6095 6489 8389  3622 3623 3624  1621 1625 10820  4302 4303 4304  2858 2859 4134  2020 8578 11449  5430 6804 10697  2695 2696 2701  2333 2334 2793  1984 1985 1991  865 867 10931  2729 2730 2731  2452 2453 2454  2646 2647 2648  2735 2736 2737  7605 7606 7607  2454 2455 2456  2799 2800 2801  2650 2651 2661  2648 2649 2650  2801 2802 2837  4720 4722 10953  7442 7443 7444  2256 2257 2333  4038 11029 11314  2774 2775 4105  2616 2617 2620  6975 6976 7032  6198 7900 10327  2737 2739 2740  2731 2732 2733  4105 4106 4441  1991 1992 1993  2686 2687 2695  4441 4786 4788  6689 11927 12151  3430 3431 3432  3617 3618 3619  1898 1899 1900  2109 2111 10487  3953 3954 4041  7444 7445 7446  5370 5371 6867  2429 2430 2431  4017 4020 10719  4613 4743 5370  3432 3433 3434  2620 2621 2626  2626 2627 2628  5105 5627 10509  2837 2838 3953  3072 3985 10489  6291 6292 7228  5168 5169 5170  3280 3281 11013  2685 2706 10711  3381 4948 10678  7446 7447 7882  7032 7033 7442  2733 2734 2735  1091 2272 10354  1993 1994 2003  2254 2255 2256  2676 2677 2684  2812 2814 10492  2460 2461 2463  1468 8103 12784  4424 5389 10521  4664 7865 10659  5486 5487 5585  7300 12454 12515  1914 1915 1916  869 872 10897  6816 10914 11112  1109 3894 10351  2674 2675 2676  6430 6431 6432  7882 7883 7884  7607 7608 7609  7207 7579 7580  2458 2459 2460  5867 5868 6596  2740 2741 2742  434 8797 12635  2368 6305 10677  8715 8718 13124  2913 3895 10774  2494 10029 10874  5470 5471 5472  5170 5171 5409  3690 3691 3692  4198 4360 4361  7884 7885 9413  2456 2457 2458  2252 2253 2254  4998 4999 10921  2003 2004 2006  5483 5484 10319  1900 1901 1903  7586 11179 12546  4605 5263 5571  3994 9953 10755  7679 7763 7764  5561 5562 6980  8662 10204 10977  4355 5786 10518  5409 5410 5411  8936 8937 11508  6483 6484 6714  5865 5866 5867  2733 2748 10704  4022 4562 10714  2006 2007 2013  3453 3454 3456  3434 3435 3437  3668 3669 3670  5786 6792 7074  1911 1912 1914  2463 2464 2465  6432 6676 6677  5571 6412 7325  5253 8047 10636  1415 1418 10652  7419 7696 10789  2013 2014 2016  2241 2242 2243  1602 1605 10332  4390 5019 10772  4041 4042 4043  2247 2248 2252  4298 4299 4300  5411 5412 5413  2016 2017 2031  6714 6715 6716  4026 6727 10630  5413 5414 6794  3665 3666 3668  1903 1904 1905  3437 3438 3453  2031 2032 2052  245 617 11420  7582 7929 7930  7711 9221 11837  3671 3672 3673  3693 3694 3695  2553 2558 10285  2465 2466 2467  1909 1910 1911  2052 2053 2237  1789 10145 10831  2243 2244 2245  1242 4013 10624  7764 7765 7766  7580 7581 7582  3695 3696 3697  3456 3457 3458  2245 2246 2247  1938 1939 1940  3662 3664 3665  6677 6973 6974  5472 5473 5486  4693 6326 10688  3458 3459 3460  4196 4197 4198  1905 1906 1907  5547 5548 11247  2467 2468 2469  1670 6320 10631  4316 4317 4318  2270 2292 10664  498 734 10958  1529 9548 10852  5863 5864 5865  7930 7931 7932  5107 5313 10420  3576 3598 10775  4300 4301 4302  5424 6447 10915  2798 4151 10732  7526 7527 7528  3003 4473 10623  3014 4238 10641  6590 7939 10792  2859 4134 4135  1907 1908 1909  725 9887 12083  3697 3698 3699  4318 4535 4536  5035 5255 5256  7983 7984 12623  4700 5252 10723  6402 10579 10956  2860 5167 10431  9159 9216 11361  1568 1649 11509  3460 4349 4350  2393 4100 10939  5497 5498 10530  2744 2756 10722  2742 2743 2744  3267 3274 10729  3821 4083 4084  1096 3898 10350  3712 3820 3821  4084 4085 4094  5861 5862 5863  3659 3661 3662  651 9733 13094  4475 10626 11092  5817 10131 12096  2675 6344 10725  3706 3709 3710  4094 4095 4096  3624 3625 3626  4096 4219 4225  3710 3711 3712  2974 4012 10620  2469 2470 2471  3699 3700 3701  4439 10511 12913  5857 5858 5859  6974 6975 6976  4225 4226 4403  5859 5860 5861  5851 5852 5853  2361 6583 11418  4314 4315 4316  1940 1941 1942  2377 2803 10517  3703 3705 3706  5578 5579 5580  3513 3514 3515  3657 3658 3659  1430 11063 11404  4405 4406 4823  4403 4404 4405  4032 6365 10698  3356 3360 10526  3619 3620 3621  8741 9383 11470  3701 3702 3703  4823 4824 5475  2077 2079 10640  2763 4506 10783  5648 7477 10784  5855 5856 5857  2471 2472 2473  3692 3693 3694  3272 3899 10416  7527 7528 7529  3669 3670 3671  3515 3516 3517  5256 5451 5452  6857 7707 7708  4350 4699 4700  3614 3616 10414  3655 3656 3657  5853 5854 5855  5452 7547 7548  6206 6208 10745  1946 1947 1948  5992 6484 10650  2765 4506 10737  2744 2745 2746  3526 3527 3528  2323 10108 12290  2968 4253 10614  2448 2450 10392  4265 10462 12822  7604 7605 7606  3517 3518 3519  1948 1951 1952  1430 1431 11063  3519 3520 3521  389 600 10830  7783 7784 7785  2726 2757 10566  1942 1943 1944  2881 4218 4613  4309 4313 4314  497 559 10958  6976 7032 7033  2827 4127 10445  5351 7155 10688  7231 7233 7234  2473 2474 2475  2387 4684 10684  6068 6069 6070  3535 3562 11187  4965 5643 10739  3544 3574 11160  7033 7442 7443  264 709 9822  3664 3665 3666  2673 6344 10794  3521 3523 3524  6855 6856 6857  3653 3654 3655  2962 4023 10613  4382 4383 4384  2702 2863 10911  2278 5494 10467  5108 6043 10887  5080 9157 12638  1952 1954 1955  2702 2703 2704  1944 1945 1946  7443 7444 7445  1137 1149 10823  2704 2858 2859  3651 3652 3653  2746 2750 2751  8824 9444 10899  1205 4969 10510  38 39 10954  3656 3657 3658  2496 2499 10874  3666 3668 3669  1955 1957 1958  3661 3662 3664  2427 5150 10715  3658 3659 3661  3641 3642 3643  7960 7961 7963  2469 2529 10724  7445 7446 7447  5764 6131 10385  3694 3695 3696  3649 3650 3651  3879 4054 4195  3654 3655 3656  4307 4308 4309  2475 2477 2478  3650 3651 3652  5556 6721 6722  2775 4997 10743  6215 6450 6451  4024 6354 10644  3652 3653 3654  4746 5659 10799  5954 8150 10727  1958 1962 1963  2178 4030 10638  6065 6066 6067  3626 3627 3628  3643 3644 3646  1779 6760 10537  287 603 11053  2478 2479 2480  4189 9884 10369  6853 6854 6855  3646 3647 3648  4700 4860 4861  3648 3649 3650  4363 5053 10705  5933 5935 10547  2761 2762 2763  5374 5426 5630  2751 2752 2753  4569 5010 10575  3647 3648 3649  29 9968 11128  4158 4746 10799  2696 2701 2702  7230 7231 7233  7447 7882 7883  2480 2481 2482  7606 7607 7608  3696 3697 3698  3561 3565 10788  3638 3639 3641  4341 4665 10606  2753 2754 2755  2796 2797 2798  3621 3622 3623  7756 7960 7961  1078 3904 10359  4790 10238 10685  3644 3646 3647  7578 7615 7616  3642 3643 3644  7755 7756 7960  1081 1382 10359  5028 5029 5308  7615 7616 7755  6457 6458 6853  2906 10372 11115  1208 6325 10632  6209 10571 10918  7616 7755 7756  1963 1978 1979  7365 7366 7367  7961 7963 7964  7367 7577 7578  2512 2514 10998  4354 4480 10567  2482 2483 2484  7883 7884 7885  3636 3637 3638  6455 6456 6457  3637 3639 10447  3969 10040 10652  2273 8506 12353  4974 7078 10699  2482 4371 10741  2478 2545 10738  3976 10012 10681  2671 2672 2673  3639 3641 3642  4898 6513 11018  250 707 11066  3532 3533 3534  7162 7163 7164  2755 2758 2759  7885 9413 9414  7164 7364 7365  3630 3631 3632  7608 7609 7611  2955 4026 10630  2687 2695 2696  6882 7161 7162  7577 7578 7615  4148 4149 4252  3634 3635 3636  1032 1040 10498  7678 7679 7763  5826 6461 7376  1386 1389 10681  3632 3633 3634  6073 7265 10816  3549 6619 10790  6880 6881 6882  6453 6454 6455  1979 1980 1981  2086 2302 10935  2473 4051 10735  2685 2686 2687  7366 7367 7577  3628 3629 3630  4384 4385 4386  6451 6452 6453  6451 7421 10843  4386 4528 4529  5868 6596 6597  3904 10359 10360  3698 3699 3700  2819 4278 10454  5992 6483 6484  2484 2516 2517  4925 5578 5579  2677 2684 2685  6799 7040 7041  2643 2644 2645  4861 4964 4965  3566 3567 3568  3623 3624 3625  5866 5867 5868  9322 9323 12827  4529 4678 4819  6582 6879 6880  3637 3638 3639  7315 8183 11898  4461 5351 10688  2517 2521 2522  2334 2793 2794  8138 8139 8140  7364 7365 7366  2522 2530 2531  2257 2333 2334  2613 2614 2615  5850 5851 5852  4305 4306 4307  1981 1984 1985  4193 10393 10689  2621 6614 10748  2798 2799 2800  7051 10007 11505  2531 2536 2537  2800 2801 2802  7163 7164 7364  630 11435 11735  9330 9331 11554  3700 3701 3702  2255 2256 2257  2240 2241 2242  2673 2674 2675  2763 2764 2765  1985 1991 1992  3769 3771 10572  2675 2676 2677  19 718 10136  5864 5865 5866  4252 4312 4398  3763 3765 10577  5020 5021 5022  3789 3791 10544  4030 6365 10638  1652 4276 10654  3951 4534 10592  3635 3636 3637  7041 7042 7043  2802 2837 2838  2537 2550 2551  6097 6098 6909  1992 1993 1994  7161 7162 7163  3534 3535 3536  4806 4808 10625  3705 3706 3709  2305 2308 10713  2340 3481 10411  3316 3317 11029  1194 4024 10644  9607 10385 11123  6192 6193 11372  2551 2552 2553  3820 3821 4083  4019 4020 10714  2651 2661 2662  2838 3953 3954  4965 5168 5169  497 498 10958  6070 6071 6072  3709 3710 3711  4176 7063 10519  6141 6291 6292  6580 6581 6582  6360 6361 6362  2765 2766 2767  3711 3712 3820  3702 3703 3705  2253 2254 2255  4083 4084 4085  2767 2768 2770  4015 6366 10719  2649 2650 2651  2553 2557 2558  2770 2771 2772  7043 7044 7045  1994 2003 2004  5579 6648 10751  2645 2646 2647  8301 11375 12488  2647 2648 2649  6715 6716 7655  1631 1632 11017  4085 4094 4095  7045 7535 7536  9422 9423 9425  4540 5420 10685  2558 2560 2561  3633 3634 3635  6881 6882 7161  3568 3569 3570  5396 5397 7131  7536 7537 7539  6484 6714 6715  4095 4096 4219  2772 2774 2775  3631 3632 3633  4972 7078 10785  1641 4025 10646  3570 3575 3576  2561 2594 2595  2248 2252 2253  2595 2599 2600  645 9713 10014  2937 4027 10618  4219 4225 4226  4522 4594 10369  2004 2006 2007  2775 4105 4106  2600 2603 2604  4106 4441 4786  6292 7228 7229  5384 7300 10787  3586 3592 3593  5169 5170 5171  3578 3585 3586  7763 7764 7765  5372 6212 11457  4226 4403 4404  3561 3563 3564  3576 3577 3578  2007 2013 2014  2615 2616 2617  1840 4837 10391  5862 5863 5864  3593 3596 3597  4404 4405 4406  3554 3560 3561  3541 3542 3543  2014 2016 2017  2627 2628 2629  7418 7419 7526  6879 6880 6881  5171 5409 5410  7765 7766 9341  3625 3626 3627  5858 5859 5860  4406 4823 4824  3549 3553 3554  5852 5853 5854  5856 5857 5858  3547 3548 3549  3749 3751 10619  3629 3630 3631  3597 3601 3602  3602 4191 4192  2017 2031 2032  4824 5475 5476  2246 2247 2248  2242 2243 2244  3743 3745 10627  6786 7280 11666  4192 4387 4388  2617 2620 2621  5410 5411 5412  6069 6817 10838  3536 3538 3539  2621 2626 2627  4388 4389 4390  5860 5861 5862  5854 5855 5856  2032 2052 2053  6509 6510 6511  6364 6508 6509  6362 6363 6364  2053 2237 2238  2244 2245 2246  6511 7418 7419  4390 4727 4728  6072 6073 6074  5412 5413 5414  5414 6794 6994  6741 6743 10596  5022 5023 5024  6437 6843 6844  506 731 11016  3545 3546 3547  3627 3628 3629  3954 4041 4042  3757 3759 10626  2020 2021 11449  3813 11584 11893  10012 10681 11141  1941 1983 11091  4469 9693 10123  5167 10431 11051  989 10195 10747  4591 4594 10860  4398 4399 4400  1503 9001 13176  6002 6569 10607  5586 5587 5588  6581 6582 6879  3486 9627 12828  4417 4585 10731  4303 4304 4305  3543 3544 3545  16 17 10224  892 4843 10871  6228 6579 6580  6695 6696 10412  3126 9788 11668  2290 2317 10680  6632 9843 10854  681 7977 7979  2890 8520 12247  4502 5285 10750  5022 5060 10828  7248 12372 12681  9283 9286 10987  4587 9769 12508  4593 4996 10860  4409 6340 10587  3481 5523 10411  9897 10141 10759  5158 10574 11036  9000 9001 13176  4773 9940 11010  4013 6366 10624  4042 4043 4044  1838 10112 10391  4388 4478 10772  5461 9450 11741  4297 4298 4299  5466 8220 11050  4299 5240 10809  1872 1874 10463  5385 6762 10387  4132 6341 10568  6579 6580 6581  1747 6488 10556  5579 5580 6428  5487 5585 5586  5969 8440 10692  6067 6068 6069  505 561 11016  4081 4889 10682  9645 10866 11648  1589 6347 10686  6074 6075 6076  6394 6396 10883  5469 5470 5471  3908 10237 12145  3144 3146 10602  2640 5067 10806  4496 6402 10579  7228 7229 7230  6541 10672 11216  4360 4361 5098  4400 4467 4468  6005 8395 10381  2422 4852 10413  3570 4064 10775  9879 12194 12355  6218 6219 6228  6864 10906 11081  643 8961 9124  1734 3936 10562  1184 4664 10659  4468 5084 5085  6076 6077 6090  5454 10268 10269  4569 9946 10575  5085 5356 5357  7021 8102 11365  6284 10223 10873  6206 10196 10745  2474 2486 10501  6001 9024 11422  5003 5005 10477  3928 4640 11195  7269 8733 12655  4301 4302 4303  6110 7750 10373  4299 4300 4301  1506 9872 10831  3253 3269 10753  6205 10172 10173  5473 5486 5487  1599 6346 10683  3140 3142 10615  4195 4196 4197  2260 2262 10693  3191 3201 10670  2292 10411 10664  3298 4125 10409  3419 3421 10952  5471 5472 5473  5424 5425 6445  644 9062 9162  1508 1789 10831  2228 2231 10764  6602 9939 11400  1994 2025 11030  6219 6228 6579  1466 9803 10710  3296 4125 10398  2354 5042 10640  5623 5969 10692  9688 10716 11184  9408 9409 11796  7831 7833 11265  276 579 11237  2838 4310 10933  6090 6217 6218  10426 12831 12855  8523 8524 11341  1166 4391 10661  646 9022 9167  3300 4556 10409  4197 4198 4360  7825 7827 12956  6511 7544 10789  1315 1322 10755  3554 6619 10788  5893 7975 12408  5353 7994 12280  4380 5203 10591  6763 7873 12020  3797 4425 10576  3568 4064 10868  961 8632 10970  4220 7158 10637  1717 6492 10578  6744 6745 11375  3848 4476 10795  6731 10366 11000  3560 3563 10417  6445 6446 6780  2646 2692 11178  4107 6295 10635  6900 6901 11149  3547 3551 10790  5245 7490 10769  7201 7599 11760  5737 10866 11648  6071 6072 6073  1032 10252 10498  1847 2036 10689  1711 3956 10584  473 474 11213  5358 9600 11798  2483 2516 10434  6217 6218 6219  574 9885 11698  1069 1071 11327  6069 6070 6071  4004 4324 10598  1023 1482 10426  1413 4802 10599  280 281 11070  5192 10532 10913  3537 3580 10621  2784 6332 10783  6780 7090 7091  5504 7416 10834  3743 9951 10627  4341 9980 10606  4442 6370 10603  6077 6090 6217  6073 6074 6075  5120 6220 10811  1016 3970 10426  7760 8622 11005  5598 7722 11051  6075 6076 6077  5683 8686 12607  3596 3601 10436  5360 7471 10787  7419 7526 7527  1485 4176 10519  6071 6817 10816  7229 7230 7231  4249 5786 6792  6754 7673 11787  10040 10652 11140  1902 10289 10463  4006 7261 10604  4806 9976 10625  2536 2550 10444  6985 10322 10988  642 8935 11455  3057 7071 10601  6166 7052 10418  2647 5032 10942  6653 6655 10927  10582 12856 13033  2674 2707 11183  3283 3293 10429  5808 6964 10403  2691 3903 10794  4860 9758 10932  3929 3932 10961  6636 9082 11833  2360 2786 10991  4222 5301 10451  6829 8056 11912  6352 11032 11148  6343 7402 10989  3981 4526 10421  4560 6679 10541  3043 6578 10608  278 648 11290  1302 6353 10757  2869 5225 10431  3773 3775 10930  1601 3341 10959  1690 6288 10610  4227 4554 10855  4240 6118 10468  6146 7435 10420  5659 7793 10799  4947 5397 10506  6067 7393 10838  5806 5808 10403  6057 9880 11023  5341 10443 13009  3906 10339 10343  323 656 11222  2359 5639 10758  6150 6872 10395  4829 4915 10716  10077 12310 12311  4264 6374 10581  5319 5532 10813  3447 4863 10460  8818 8819 10481  2057 4530 11369  6683 10115 10946  7088 10164 10797  2325 10104 10939  5205 6350 10809  3845 3935 10795  3307 3310 10842  10199 11298 11919  3991 6373 10555  5346 5511 10761  3404 3406 10997  3028 7123 10617  8069 10092 12980  3134 10635 11026  2730 2769 11272  2325 2393 10939  2829 2832 10445  6410 10626 11092  4470 6369 10516  5812 5813 10752  4114 4588 10818  3022 6294 10616  3822 3824 10974  872 4074 10897  3769 4440 10572  2402 5298 10459  3763 4462 10577  8645 8646 12109  7201 9862 11493  2883 8522 12356  5378 6601 10817  2608 7522 10848  5409 5411 10476  6858 6859 10944  6544 7456 13040  4855 5352 10856  5405 5561 10320  2701 2703 10491  2316 9942 10459  4659 4660 10442  4035 4170 10569  4513 5699 10957  5210 10204 10977  3101 6985 10322  9883 11017 11285  1809 9177 11292  2821 2824 10454  4920 9462 12650  4838 5658 9111  4639 5609 10588  2999 6303 10623  7371 9462 12650  2879 10038 10786  1666 3983 10631  2136 2141 10458  8509 10373 13037  2970 6573 10620  5028 6191 10888  5672 7849 10746  2964 6501 10614  3112 8896 11143  2958 6311 10613  8852 9434 10985  1843 1845 10759  5981 5983 10965  3343 10877 11477  2204 4972 10785  9738 9739 10951  29 30 11128  6271 10205 11052  6731 8788 11000  1454 4132 10568  7588 8753 12995  5140 5558 10504  5736 10777 10828  5689 7116 10504  2989 10366 11000  1188 9185 12660  3505 10128 10950  8872 9440 12112  10011 10058 10934  6007 6009 10969  6097 7093 10882  950 1478 10976  6022 8164 10808  5043 6876 10762  3754 10092 12980  9602 11302 11559  6705 9194 13049  5185 11870 11930  4380 4382 10591  4785 6764 10515  7931 7932 12128  5218 6312 10595  784 2048 11215  1196 4615 10632  2109 4887 10487  6326 10386 11073  5041 5558 10515  2853 4409 10587  38 9930 10954  5894 7467 10502  4617 4618 10834  2836 5338 10648  4416 6464 10731  2812 6406 10492  5259 6926 10684  5237 7241 10760  4162 4932 11146  5420 9358 11969  5105 5306 10509  1093 2272 10967  5896 7342 10502  271 272 10964  5708 8044 10588  4931 7011 10696  661 10046 12715  14 15 10328  2195 2200 11150  5752 5754 10580  5667 8019 10760  1851 10467 11037  243 714 11527  5177 6255 10612  5345 5346 10761  2814 2818 10492  5627 7467 10509  6452 10072 11242  1040 1200 10498  7265 10482 12933  1374 1385 11267  7372 10467 11037  4563 5384 10787  6039 9113 12854  2111 2138 10487  2710 4646 10992  295 296 633  6046 9103 11022  1637 7046 10646  1885 1887 10551  3270 3278 11767  149 150 634  151 152 752  152 153 10782  9590 9591 12000  153 154 610  6431 7247 11205  1364 8390 10796  4968 6225 10762  4639 5708 10588  6580 7790 11219  8401 11503 11718  3375 3377 10678  5235 5667 10760  8604 8605 12378  5711 6672 10647  2664 2694 10786  2270 2395 10664  5953 7626 10875  5568 6898 10814  7311 10385 11123  9301 9303 11259  4320 9567 11860  6535 9003 11136  6987 10019 12162  2188 5375 10802  4611 5135 11109  9591 12000 12200  2803 4460 10517  1797 1799 10797  9063 11715 11870  3360 3366 10526  4061 4607 10570  3441 3443 10960  4829 10157 10716  17 609 10224  1595 4010 10683  5052 5166 11315  8500 8503 12036  4684 5259 10684  1251 2892 11725  8400 8401 11480  8853 8865 11444  4656 6377 10766  8617 11274 13140  4647 10370 11044  6131 7311 10385  1585 4093 10686  4969 5706 10510  3182 4007 10726  8956 9086 11611  5318 6967 10813  6779 10402 12957  7063 10519 11006  2014 2033 11058  3832 10054 11062  1469 1487 11677  6090 7715 10734  1418 3969 10652  4828 10800 10801  7220 10884 11187  4335 4420 10552  8221 10422 11388  5652 6772 10938  7455 7992 12375  1118 11919 12188  5933 7848 10547  3945 3949 10768  8767 12086 12261  2726 2728 10566  8867 12051 12292  1437 9145 12002  5935 7481 10547  3778 10278 10930  4304 4981 11231  2317 3122 10680  6906 10370 11044  324 9996 11222  5257 5930 11145  4081 4986 10682  4242 4505 10784  4408 5400 10822  3632 3634 10553  177 9633 11910  2079 2354 10640  1539 4066 10765  4354 6189 10567  5609 8469 10588  5010 5803 10575  4480 4982 10567  971 5015 10837  4461 4693 10688  6310 6627 10773  5398 9904 11245  3523 4067 10660  3665 3668 10712  2753 11473 11557  6701 6703 10936  716 11227 12788  4665 5621 10606  3681 3683 10605  3443 3451 10960  9692 9693 11771  6655 7839 10927  6160 6368 10841  1906 3972 10910  6252 6544 11226  5498 6065 10530  5082 5192 7216  2654 2655 11552  6467 9128 11131  7079 9955 11337  6686 10876 11166  8506 8507 12396  5655 6300 10971  3865 10110 11071  2290 10059 10680  3771 4056 10572  3274 3288 10729  3138 9773 11708  3490 9958 11090  5623 6849 10692  3247 3249 10643  3765 3768 10577  4190 10211 12034  6720 10541 11198  2262 2365 10693  7508 7509 12914  551 11274 12630  4329 10205 11052  4773 4775 11010  6653 8153 10927  6741 7394 10596  6696 7510 10412  4561 5129 10541  1537 2274 10765  5967 8802 12634  4680 5652 11127  1765 1767 10832  4808 6266 10625  1389 3976 10681  6370 6460 11117  4113 4605 10818  5953 10380 10875  6048 6851 10940  3749 4938 10619  1625 6950 10820  6900 10935 11149  7142 7363 12385  7609 10896 11654  6726 10010 10663  4037 5276 10569  3768 6381 10577  6743 7151 10596  3762 6410 10626  3757 4475 10626  3751 5309 10619  8543 8546 12516  3745 4938 10627  3123 9663 10900  6002 7863 10607  456 547 10943  6569 6738 10607  3759 3762 10626  1529 1816 10852  3791 3891 10544  6684 11664 11896  3090 3092 10812  11540 11735 12023  7203 7204 12406  3900 3902 10665  2260 10073 10693  4560 4561 10541  5599 7375 10595  8489 8490 12426  4585 5683 10731  1537 1539 10765  747 7588 12267  7924 10869 11289  2474 2477 10501  5301 7010 10451  3797 3903 10576  1232 11800 12743  8057 10046 12715  6749 9586 10694  1073 1080 11948  5914 8612 10612  6920 6933 12118  3789 6426 10544  4062 4257 10695  4035 4037 10569  4735 4737 10642  505 506 11016  98 9526 11307  7210 11141 11267  2036 4193 10689  5153 8180 12246  1898 3988 11257  2761 2763 10783  3144 4078 10602  5723 5725 10778  1093 1095 10967  2671 2673 10794  3430 3432 10662  7357 11057 11530  2308 3984 10713  6280 6886 11750  3146 3150 10602  8789 8790 12183  4540 4790 10685  5532 7182 10813  5253 6710 10636  2024 9665 12062  1149 5039 10823  5730 6802 10707  1847 2271 10689  6608 9169 11672  5712 7013 10647  5194 6158 11556  5561 7362 10320  9332 10399 10833  8987 9046 11009  2601 10285 12813  6929 9803 10710  4513 5090 10957  5218 5599 10595  6318 8970 12948  3773 4056 10930  1937 1939 10696  3651 9668 12902  6365 9868 11135  4722 6003 10953  2845 4321 10851  3142 4078 10615  7148 7296 11992  4425 5201 10576  4952 4956 11933  5725 6670 10778  465 748 11082  9200 9202 11956  4004 4087 10598  3775 3778 10930  750 10182 12109  3254 4527 11767  5795 6313 10793  661 12715 13011  4990 5137 10718  2163 2187 11020  1729 1731 10853  6606 6607 11033  5203 6223 10591  6087 6964 10839  2387 10023 10684  5177 5914 10612  4869 5264 10804  3943 4187 10827  4889 6519 10682  9622 10699 11371  9397 12101 12421  3532 3534 10859  2916 2919 11959  3201 4892 10670  9332 9335 10833  10058 10861 10934  950 952 10976  2504 2871 12043  25 26 11227  5723 8044 10778  5467 6551 11039  287 288 11053  4974 4976 10699  5020 5022 10828  4032 4034 10698  9928 10101 11390  291 618 9914  5114 9992 11467  4678 5810 10709  9155 9156 12826  2499 5035 10874  3140 6177 10615  4324 5064 10598  4802 5212 10599  4852 6900 10413  3906 8759 13007  9870 10861 10934  6118 8515 10468  6043 7711 10887  1555 1793 10815  4556 6407 10409  3451 10691 10960  5056 8031 12999  6996 11169 11204  5672 6555 10746  6906 7062 11044  4363 5224 10705  6307 6493 11102  2210 2226 10858  4150 5594 10728  25 716 11227  5711 5712 10647  5795 6670 10793  4886 6204 11820  1845 2271 10759  712 9914 11086  6812 8095 11075  3538 4936 10720  3941 3943 10827  3267 10729 11142  3877 10138 11124  5430 5432 10697  4990 4991 10718  7215 7568 11194  4382 4384 10928  3269 3303 10753  6920 11384 11658  6750 8129 10694  3580 4117 10621  1553 4075 10815  4935 5391 11055  770 772 2386  5047 6712 10879  10138 10139 11124  4019 4022 10714  1322 3994 10755  5113 6352 11032  6272 9451 11402  4015 4017 10719  3018 3020 10847  2611 9816 11480  1553 1555 10815  9505 10329 12104  1297 9926 11833  5004 5007 10995  6374 7554 11111  2072 10999 11373  6788 7601 11829  3078 3080 10865  2733 2735 10704  3366 6463 10526  9088 11245 11478  6234 6236 10918  5401 5728 10744  2231 3999 10764  4150 5089 10728  4979 5427 10810  4843 6869 10871  5084 5788 11317  7105 9888 11702  3702 3705 10690  1446 1447 11536  5090 8441 12450  3324 7702 12878  1385 11141 11267  1707 1709 10867  5487 5586 10798  5419 6775 10825  5065 5737 10866  5225 6372 10431  9301 9304 11259  4996 6408 10860  5731 6937 10707  6228 7757 11219  3293 5492 10429  5079 5343 11482  4968 5043 10762  286 603 10027  4297 4299 10809  5812 7380 10752  9850 10451 11186  3932 4249 10961  9847 10907 13085  3947 10592 10827  5235 5237 10760  2376 2781 11025  5572 7571 11240  241 558 11651  4182 8045 12700  5046 5047 10879  7121 10309 10912  6371 8045 10836  1843 10141 10759  4062 4607 10695  2427 2429 10715  3533 10884 11187  6749 6750 10694  4588 6387 10818  4329 5230 11052  5116 10362 10810  3542 10720 11160  2702 2704 10911  5437 6575 10836  2863 8232 12839  7112 10234 10853  6310 6848 10773  4170 6391 10569  2777 8983 11595  3290 3306 10994  1255 1258 11252  7124 11375 12175  6934 10876 11166  2818 5505 10492  2744 2746 10722  7313 7835 12753  4219 4226 10706  2685 2687 10711  4495 10273 12272  5374 6527 11071  2370 3226 10888  2073 2077 10999  1799 2051 10797  1891 1918 11306  3875 5419 10825  4526 5518 10421  9997 11029 11314  1225 1226 11887  3936 3938 11076  3325 4483 10857  6354 8024 12951  7551 10720 11160  3524 3527 10660  1460 10520 11536  3799 9192 11191  4892 6966 10670  8289 8291 11456  4406 4824 10708  2194 2200 10873  2221 2227 11238  5137 7185 10718  4727 6081 10754  8152 9494 12667  5165 6162 10825  2413 2415 10955  4158 4160 10799  531 726 11541  3537 10621 10859  2758 6328 10756  2469 2471 10724  5730 5731 10707  4460 7025 10517  1736 4477 13091  3039 3041 10878  6373 6862 11097  4700 4861 10723  6273 9800 11204  2390 5495 10852  3308 8431 11909  4447 4534 10866  5639 7685 10758  5345 7236 10761  6496 7476 10982  2675 2677 10725  6255 7716 10612  10724 12081 12208  7101 9855 11320  2473 2475 10735  5166 5677 11513  1569 1571 10846  6537 8085 11011  1407 1408 11268  2798 2800 10732  5594 6971 10728  6179 7967 11377  9168 9729 10978  5754 7950 10580  3987 12346 12764  6496 7034 10982  9279 10358 11640  2478 2480 10738  5017 6542 11201  6372 10431 11051  2628 4940 10771  6436 10780 11367  4644 8111 12142  6513 11018 11389  4134 6337 10770  2769 9318 12430  24 716 10005  5801 5843 10864  8815 8816 11087  2482 2484 10741  3882 3884 11548  4141 4927 10862  1797 10164 10797  7350 7351 10966  773 2331 13178  3949 4849 10768  4863 6910 10460  4282 4828 10800  2765 2767 10737  7596 11004 12952  2661 4951 10776  3523 3524 10660  4965 5169 10739  8032 10920 12999  3945 4187 10768  4505 5648 10784  578 9608 11322  6922 8098 12059  10147 11830 12962  1571 4079 10846  1676 1678 10886  5373 7160 11457  4361 4925 10751  9613 9614 11563  5120 5584 10811  2775 4106 10743  2793 4452 10780  1569 1760 10846  6507 9705 11015  1767 1808 10832  4242 4849 10784  155 156 753  4554 6939 10855  8021 9967 11598  5197 6157 10880  6699 8013 11012  7153 9983 11350  3897 5507 11827  6675 7028 11770  4854 8155 11670  5800 5801 10864  3310 4039 10842  6929 6930 10710  122 612 11271  1906 1908 10910  7203 12406 12721  2621 2627 10748  2237 6342 10791  4679 12568 12824  4869 4871 10804  3587 4177 11014  4647 11044 11352  9281 9306 11640  5174 5380 5700  4140 4141 10862  1264 1275 11725  4282 4285 10800  3623 3640 11273  379 599 11179  7118 10258 10865  1896 1953 11257  7661 8197 13073  1200 5056 10498  6674 7027 11621  1658 9979 10979  380 747 11179  4285 5554 10800  4257 4745 10695  1662 1664 10892  4819 6721 10709  5972 8426 12032  962 1818 11206  6796 9515 12044  9355 9357 11935  5395 6196 6587  1854 11024 11277  591 11226 12013  939 942 11003  8730 10475 11019  5352 8144 10856  4979 5116 10810  4289 5307 10881  4555 6296 10956  1658 10368 10979  6087 6089 10839  6460 7546 10983  1022 10165 10963  5192 7216 10532  5701 5703 6680  2644 10771 11178  317 318 11448  2838 3954 10933  3092 4237 10812  8580 8581 11079  3997 11727 11790  2550 2552 10975  5706 7590 10510  4320 11034 11332  5401 5402 10744  3956 3958 11096  4388 4390 10772  4135 4159 10770  3891 5088 10544  4303 5272 11254  3570 3576 10775  1765 10191 10832  4617 5504 10834  4477 12979 13091  6295 10635 11026  7350 7624 10966  1591 1593 10870  3845 3848 10795  3090 3998 10812  2728 10566 11272  6880 7821 11380  8385 8388 11663  2694 2879 10786  2669 10250 12350  2413 3718 10955  6542 6566 11487  6234 10571 10918  2370 10020 10888  522 523 11045  1731 1772 10853  7155 10688 11073  5475 7243 10807  3865 4472 11071  3795 9873 12000  2514 2593 10998  2647 2649 10942  2672 10776 11183  1931 1934 10819  3875 5165 10825  1379 1391 11747  4092 4984 10993  3832 3834 11062  3147 3186 11040  2304 10713 11270  3123 3125 10900  3941 3947 10827  3539 3542 10720  3554 3561 10788  3718 10669 10955  8643 8654 12787  660 8600 12162  9172 11151 13046  5197 5612 10880  2664 5067 10786  6296 7262 11085  6721 6722 11196  2856 9871 12315  9548 10852 11284  3547 3549 10790  6511 7419 10789  4185 5276 10881  4678 4819 10709  2759 2762 10756  1930 4543 10819  3134 6986 11026  6124 7632 11027  8224 10483 13177  9405 9406 12303  5437 6371 10836  6397 7051 11687  176 695 11910  9238 12187 12372  6341 6850 10984  7119 10276 10867  3786 9922 11018  1593 1719 10870  4074 6871 10897  3836 3838 10893  6346 10683 11049  3020 4834 10847  1160 8697 12954  6503 7737 12069  7168 9633 12038  6990 9043 11386  7108 10565 11200  1930 1931 10819  2782 4247 10903  4728 5021 10754  4134 4135 10770  2210 10192 10858  9101 10004 12182  15 721 10328  1547 1854 11024  6721 10889 11196  1709 1743 10867  248 563 11278  1938 11401 11608  7008 10771 11178  3281 3289 11013  3080 4923 10865  8072 8074 11489  4117 5557 10621  2794 2797 10780  2629 2644 10771  8359 9602 11302  3587 10868 11014  2662 2672 10776  480 741 11234  3995 11302 11559  3018 4238 10847  4464 5354 10890  4177 4660 11014  293 719 10053  1729 10234 10853  6762 9720 11587  3538 3539 10720  1077 2890 12005  8081 11872 12075  249 250 11066  5983 6473 10965  8328 8330 11520  9224 9576 11325  5256 6562 11239  6160 10051 10841  1919 1990 11038  609 10224 12360  4483 5321 10857  1591 6347 10870  4614 5424 10915  2758 2759 10756  1956 8395 12565  7157 8431 11884  4368 5755 10891  1514 8774 13167  3041 4145 10878  5402 6395 10840  1133 10823 10973  1816 2390 10852  3172 4082 10904  7015 10776 11183  2238 2241 10791  9356 9357 11862  4056 10930 11313  6009 6486 10969  9079 10746 11454  10729 10730 11142  2306 9672 11454  464 465 11082  3610 3612 10901  584 8301 12134  4462 10577 11137  3325 4038 10857  4613 4614 10915  1746 9658 11433  8858 8862 12161  8313 8316 11745  7149 7150 12371  7665 8253 12283  6090 6218 10734  530 606 11541  5728 7806 10744  1678 1742 10886  239 713 11739  4727 4728 10754  410 667 11192  3176 3196 10909  7340 10367 12842  2700 10499 10980  4845 4848 10895  2431 2432 10980  3709 5398 11245  2353 8224 13177  2793 2794 10780  1574 1622 11905  4835 5690 10894  2661 2662 10776  5476 5851 10807  7226 11667 11983  2628 2629 10771  692 8147 12672  5467 11039 11266  3078 10258 10865  4447 5065 10866  1707 10276 10867  6557 10308 11144  1559 1560 11335  1377 4200 11747  6071 6073 10816  6253 10368 10979  4072 10673 11005  609 12360 12946  1616 1618 10912  4860 4964 10932  1664 1744 10892  6395 7317 10840  5562 11620 11869  2415 4060 10955  4287 5554 10891  4361 5098 10751  5128 7220 10884  2194 10223 10873  6067 6069 10838  10182 12109 12809  4086 10914 11112  5201 6450 10576  3965 9811 12642  156 157 10947  4010 10683 11049  9295 9311 12305  8756 8757 12557  2904 2906 11115  6280 11750 11799  2408 3816 11359  1076 3904 11197  5342 9055 12744  4543 6429 10819  7010 10451 11186  2237 2238 10791  821 823 11147  3170 3195 10904  3824 4333 10974  4185 4289 10881  5198 5489 11472  438 583 11207  3039 10307 10878  8703 12336 12539  6537 9396 11011  5064 6461 10598  3528 5128 10884  2431 2700 10980  437 10178 11207  9809 10733 11174  2417 4057 10902  1889 3979 11306  3204 4443 10914  6898 8110 11340  1618 3243 10912  956 957 11312  6140 7505 10968  3174 4082 10909  4287 4368 10891  5475 5476 10807  276 277 11237  7470 7471 12651  3490 10667 11090  4788 6686 10876  4247 5074 10903  5212 6483 10599  1449 8553 11684  6956 11574 11914  7637 12013 12213  3178 3196 10907  1676 10330 10886  4414 5383 10894  1361 10351 11004  3530 3533 10884  7432 9801 12794  4464 5104 10890  4140 4939 10862  5495 10852 11284  5810 8262 10709  5025 6437 10885  7507 10402 12957  6940 7670 12112  4308 5246 11511  5004 5006 10995  2845 9941 10851  6335 9821 11175  1934 10819 11205  4414 4835 10894  1919 1921 11038  1662 9979 10892  6294 7692 11130  5800 7584 10864  2871 7886 12780  6199 10043 11404  8169 11044 11352  3880 4217 10988  6715 9659 11357  7309 11913 11996  2776 10421 11121  5656 9929 12918  6290 8672 12920  6097 6909 10882  2885 8464 12428  4667 11381 11731  3193 4086 10914  2215 2405 10925  1000 1003 11635  4321 6695 10851  4301 5240 11254  1545 10461 11024  8005 11328 12047  4786 4788 10876  5046 6668 10879  942 2423 11003  3612 3615 10901  2797 10780 11367  3242 3244 10972  9741 10951 12233  3009 10345 10996  7727 10485 11374  3180 10726 10907  5324 6505 11184  5024 5025 10885  3988 8519 11858  10 11 674  279 280 11084  8430 11945 12868  3877 3879 11124  4046 8940 11782  1273 9776 11779  2077 10640 10999  2529 10724 12081  7003 7381 12306  7360 9351 12378  7333 9929 12918  4452 6436 10780  4936 7551 10720  8690 8692 11317  1226 8991 12966  4236 9509 12921  3226 5028 10888  4951 7015 10776  1632 1635 11017  9210 9211 11949  4940 7008 10771  10149 12728 12866  3373 3376 10920  4848 5295 10895  2087 10935 11149  8403 9816 11480  2197 10785 11150  4786 4910 10876  4382 10591 10928  6838 8654 12787  4057 4397 10902  289 712 11064  9035 9036 12357  158 159 10948  6910 6911 11256  5210 10766 11156  4121 10471 10926  834 836 11171  4910 6934 10876  1401 1402 11831  154 155 11193  7031 10175 11295  5061 6098 10885  2595 2600 11432  7854 9007 11298  1307 1308 11394  4092 4549 10993  3836 5062 10893  614 9252 12344  3621 4089 11273  1870 1873 10919  1805 1851 11037  11139 11983 12205  3528 3530 10884  2506 2546 12043  4957 11059 11377  4845 6869 10895  3610 6435 10901  6528 7895 11069  6522 6865 6866  1868 1870 10919  2403 4142 11814  6534 8084 11405  4831 6003 11303  2332 2875 8684  6757 6759 11794  3170 3172 10904  4518 7050 10900  7011 10696 11091  1326 9788 11346  5024 5061 10885  1399 1400 11865  7416 7740 11008  2428 2430 11531  2417 4060 10902  3838 3841 10893  9626 9627 12523  6847 11155 11501  622 10106 11031  7135 10421 11121  5522 7506 12154  5944 11819 12447  4953 4955 10922  4942 4945 10923  6244 10345 10996  1523 8903 11333  9877 10526 11246  7207 11323 11564  3317 3320 11029  4249 6792 10961  3903 10576 11242  3655 3657 11007  2141 2215 10925  331 573 11430  8501 8505 12036  1868 4090 10919  2594 2630 11503  3174 3176 10909  3655 3708 11007  3178 3180 10907  1471 9869 11006  4323 5275 11300  8855 8862 12051  3913 10677 11102  1635 4045 11017  2782 10296 10903  3371 3373 10920  157 158 625  8366 9811 12095  237 616 11846  4119 5557 10926  2826 4957 11059  6471 6895 11047  7175 10660 11105  3009 10641 10996  1275 8448 13045  7453 7454 11815  3126 9792 12093  10500 11360 11806  294 719 10286  1237 2892 11887  9015 10563 11021  3371 5056 10920  9800 10521 11204  3193 3204 10914  6415 7257 11450  786 788 11113  5389 10521 11204  3983 4364 11120  6582 7790 11380  7382 12079 12329  5840 11756 12972  3320 4038 11029  1226 8029 12966  2593 5030 10998  1911 1914 11078  757 7816 12259  6429 10819 11205  6326 10688 11073  6300 10971 11233  6657 7839 11173  7320 9708 11877  3245 4851 11411  6200 8186 11946  4362 10474 10937  7248 7268 12681  4395 5714 11042  7010 9724 11636  7732 10520 11536  1616 10309 10912  6303 7048 11116  10011 10934 11279  7153 7154 11535  7242 8610 11136  6605 8162 11232  7308 7852 12887  4925 5579 10751  6140 6291 10968  1911 1982 11078  111 112 12680  1939 10696 11091  6616 10121 11373  1060 1062 12120  6781 6782 11551  4007 8443 12881  814 816 11158  10081 10088 12160  1283 3720 11485  2573 10645 11028  1572 3332 11905  6959 7385 12210  3473 9901 13019  451 585 11295  4246 5497 11035  6324 9168 11103  18 609 10136  7162 7861 11488  7462 8761 12967  3857 4246 11035  6352 7874 11148  452 10175 11295  30 654 11128  1545 1547 11024  472 598 11339  3403 3426 11211  471 746 11339  7127 10454 11059  6939 8268 11368  3304 3305 11909  8267 11430 12879  3574 10353 11203  817 9585 11971  3799 10757 11191  5012 6216 11067  8002 11867 12009  5509 6859 11393  815 1467 11971  3828 10796 11181  4775 6710 11010  934 936 11412  6586 6612 11553  1248 9818 12221  1753 10555 11097  6981 11382 11794  4328 9106 11093  5070 9878 12148  6311 8458 11110  4955 6141 10922  8360 9512 11559  6375 10676 11119  7309 7660 11913  9400 9401 12303  5250 7565 11316  4945 5396 10923  4111 4456 12073  3543 8055 12924  9256 9258 11549  4119 4121 10926  4839 5082 5144  6837 10111 11584  3125 4518 10900  5576 11414 11594  2123 4884 12230  2406 11121 11359  3857 10414 11035  4953 7015 10922  4613 5370 10915  3285 9698 12139  8566 9868 11729  3717 6832 11041  4942 7008 10923  4615 6737 11126  7793 10799 11146  6236 7732 11060  7779 10984 11063  8682 8683 12385  5782 10000 11056  3689 9074 11468  4633 6185 11592  10070 10739 13164  6616 10093 11650  9172 9173 11151  8133 8135 11614  6046 11022 11370  2854 4216 12091  2315 8585 12323  3264 3267 11142  918 1825 12481  5402 10744 10840  447 671 11328  3638 3971 11528  3094 10581 11111  5059 8188 11583  6115 9375 11265  429 669 11329  10189 12321 12606  9821 10802 11175  9089 9378 11104  6157 8207 10880  4895 4898 11018  9692 10255 11180  2921 12567 12643  919 1519 11345  6359 6360 11476  5840 11756 11822  5073 11478 11611  9578 9579 12795  3608 4431 10924  632 8436 12708  418 750 11326  6295 6297 11026  708 9670 11526  277 11237 11290  3876 9449 11298  5392 10552 11248  246 715 11420  419 542 11326  6430 6432 11074  1382 4395 11042  9392 10491 12452  3217 9833 12506  1865 2345 12174  3608 3989 10924  4330 8991 11786  5231 6647 11348  1696 10603 11117  1801 1809 11292  3227 9538 11152  1992 1994 11030  2485 11360 11806  113 604 11943  59 60 11276  6942 10671 11864  696 9028 11742  8075 9204 11190  6236 10918 11060  6437 10885 11258  3786 4895 11018  8135 8137 11614  7089 11024 11277  7380 11061 12544  4691 5674 12379  6381 10577 11137  487 554 11403  3948 4644 11176  6777 9754 11970  2669 10882 12350  3306 10842 11320  2280 2406 11121  379 380 11179  6926 6928 11310  5199 7683 11472  7283 11140 11268  3820 5073 11478  9833 12506 12580  7025 8454 11918  2738 9436 12707  7100 7103 11349  1408 1414 11268  1125 1168 11382  6463 10526 11246  9752 12011 12409  6910 10952 11256  2141 10458 10925  5211 5991 11122  7089 10461 11024  6381 7887 11137  6586 9949 11270  7730 9491 12172  6345 9919 11072  5329 6404 13175  109 702 12340  9020 9021 12797  9760 10510 11311  3452 11336 11985  1771 12327 12733  550 8192 12279  6305 10677 11102  5239 6970 12114  3957 5083 11410  7344 11826 12718  8877 9496 12558  7656 8427 12176  3250 3251 11223  6035 8250 12416  4954 4956 12154  4244 10756 11165  8413 8415 12610  8870 10495 11199  6377 10766 11156  4618 10941 11214  7205 7687 12328  1382 10359 11042  8878 8881 11154  9360 9361 12702  4160 10799 11146  6281 9001 12705  1579 1581 11200  7176 7808 12338  10017 10837 11201  8555 11888 12168  5638 11108 11376  2550 10444 10975  6692 8270 11855  6241 10312 11138  4486 5300 12424  261 262 11582  696 10531 11742  3011 11593 11796  4069 4148 11105  5775 6403 11162  8064 8070 11217  280 11070 11084  934 11412 11895  2195 2197 11150  8295 12143 12843  7078 10785 11150  3455 10952 11256  1581 10565 11200  3240 3241 12300  1684 10637 11138  7141 10414 11035  9709 11072 11238  8401 11480 11718  8563 12395 12793  8294 8990 12861  10118 10119 11253  10268 10270 11516  9557 9559 12941  2240 2281 11383  410 411 11192  10225 10733 11174  6282 10667 11090  2592 10700 11095  1982 11078 12899  4023 10613 11110  4961 10770 11167  5410 5412 11048  4258 7352 11724  858 9155 12826  8776 9463 12224  7088 7669 11077  6413 7749 11450  6950 6951 11241  2174 10638 11135  1303 1424 11485  2118 7959 12810  8435 8436 11591  6078 6079 11711  587 8893 12217  6227 6522 6865  2824 2826 11059  2832 10648 11088  1431 1441 11063  320 321 11653  6872 10395 11043  295 633 10286  1296 1305 12155  1102 8567 11419  5082 5144 5192  3113 9194 11625  205 8976 13061  4915 10716 11184  3450 9550 11114  3068 10489 11212  9663 10900 11369  6450 10576 11242  610 10649 12641  8217 8219 12199  8417 8423 12138  147 148 11099  959 962 11206  1263 1277 11504  7062 8169 11044  5135 5597 11109  8743 8746 11260  7237 9490 12341  4190 10211 12286  6464 10731 11153  4025 10646 11127  2280 2776 11121  9786 10599 11344  1396 1397 11753  1098 1432 12790  7286 8648 12769  5180 11883 11901  4473 10623 11116  492 493 11632  2200 11150 11371  5230 6989 11052  521 658 11601  1177 10659 11144  6421 9897 11155  4431 5037 10924  786 11113 11215  7365 7888 11605  6325 10632 11126  2824 10454 11059  1074 1076 11197  7503 10558 12750  10836 12347 12700  7234 7784 11236  6315 7733 11296  981 10007 11505  7188 8118 12401  4010 5089 11049  1647 10654 11159  7317 10840 12549  7368 11649 12113  301 302 683  6225 9032 11929  9922 11018 11389  1411 3339 11831  4197 5636 11459  10278 10930 11313  5276 10569 11189  6430 7543 11074  2846 4679 11244  437 438 11207  5668 9895 11795  4067 4069 11105  6098 10885 11258  6412 8249 11737  1760 10181 11343  7779 11063 11404  6320 10631 11120  1578 4683 12207  3363 4182 12649  9397 11947 12101  3007 11104 11340  8791 9850 11186  6391 10569 11189  4456 12073 12253  6468 11294 11387  7270 9953 11106  6831 8461 11875  5044 5944 11819  7155 8449 11073  7050 10900 11369  16 721 10224  6882 7821 11488  1329 1330 11229  2602 8770 11679  8863 9036 12673  6334 7679 11185  582 8165 12459  5643 10723 12310  8727 9363 11594  359 623 11462  6982 9622 11813  8878 8879 11154  7111 10214 12056  6446 7069 11720  6997 9813 11570  360 740 11462  5167 5598 11051  1223 11280 11425  2601 12813 13041  6330 6799 11165  2705 9977 12512  5053 10892 11347  6473 9503 11755  7493 7671 12766  6256 10445 11088  1412 1421 11262  573 8465 11991  3686 3707 11510  4080 10676 11119  2213 2221 11238  8315 9680 11745  7670 11134 12942  321 322 11681  6783 7466 12404  1407 11268 11572  2373 9967 11598  10869 11289 11443  4616 4721 13050  6233 7521 12125  9763 9873 12000  10029 10874 11239  6224 7894 13119  4358 10582 13033  6311 10613 11110  5410 5618 11048  83 571 13106  7279 10979 11347  3834 5062 11062  1289 1295 12240  7312 7835 12935  3597 3602 11225  2436 2485 11218  6518 7659 11615  8390 10796 11181  6531 6947 11821  6552 8625 11674  6138 10475 11019  7103 7106 11617  1482 10426 12855  7127 11059 11377  683 8076 12137  114 692 11943  3264 3271 11142  4709 5285 11282  7485 11600 11670  5489 7329 12527  5508 9809 11174  7024 12107 12382  10025 10026 11744  3657 3659 11463  7679 11185 11442  7580 7583 11564  8272 8273 13062  3607 6382 12647  6217 6219 11157  3928 3930 11195  5375 10802 11175  8365 9010 12064  6410 6525 11092  1064 1481 11878  2227 11072 11238  6624 7870 11778  6547 9028 12234  3636 3704 11528  2484 2517 11172  1567 1760 11343  10511 12913 13104  10666 10753 11223  3253 10753 11223  2012 7882 12926  7046 10646 11127  6942 11864 12237  10359 10360 11042  9978 10429 11291  672 8043 12809  6353 10757 11191  479 480 11234  7384 10206 11397  1863 4822 12174  488 10821 11403  10231 11241 11574  8369 12284 12587  7274 11734 12259  3986 5466 11050  7760 10673 11005  9769 12008 12508  7515 8517 12881  6657 7807 11173  6335 11175 11440  7869 9607 11123  784 786 11215  3938 3940 11098  4615 10632 11126  2755 2760 11557  6303 10623 11116  163 164 682  10107 10108 11975  5683 10731 11153  4937 9391 12574  7370 9381 12880  2456 9528 12943  7024 9970 12107  9872 10831 11281  4067 10660 11105  3129 9760 11311  244 617 11527  323 324 11222  4344 4821 11731  6746 11588 11964  5526 7260 11484  9895 10064 11572  6138 6646 11019  7016 9595 12316  8945 10422 11388  6984 10052 12107  4472 5374 11071  4307 5288 11545  5421 7187 12455  3585 3592 11305  6667 9237 11271  4491 5576 11414  6679 10541 11198  7638 7639 12502  8 9 11057  5103 5104 11429  1940 1989 11608  6448 7887 11355  1563 4104 11335  8123 11252 11848  3672 3674 11696  6660 8941 11920  6301 10563 11021  6818 6819 11251  984 987 11505  1753 4637 11097  3389 3393 11080  4875 5037 10986  3983 10631 11120  8752 10163 12617  6305 6307 11102  7590 10510 11311  6776 9463 12224  3369 10332 11688  9364 10974 11414  6017 7673 12167  7785 10491 12987  9739 9744 12173  6288 6290 11479  6301 6498 11021  6282 7752 11090  5147 6751 11415  8247 11353 11642  1223 9081 11280  8359 10220 11302  4875 5395 10986  297 298 11512  7320 7321 12052  7222 10862 11221  6453 7421 11498  8729 10154 13001  4605 10818 11188  6905 9665 12062  6298 8285 11076  6387 6623 11188  7153 11350 11535  7112 7208 11406  1403 3222 11753  1565 4104 11343  1503 12560 12754  2244 2323 11627  7012 7207 11323  6445 6447 11332  6984 9970 12107  145 146 11100  7194 10648 11088  6104 6106 11529  6800 8279 11637  1760 10846 11068  5015 10837 11201  3094 4237 11111  7909 10156 11451  3752 4465 12980  6530 9625 12317  4648 8708 12035  401 581 11474  3996 5228 11089  6572 10383 11159  6898 11104 11340  985 988 12228  6304 8398 11096  822 4558 11164  5668 6563 11984  7638 10319 11475  1696 4009 11117  4647 9495 11352  6737 7594 11609  6970 7426 11255  6384 10012 11141  6264 10645 11028  6256 11088 11466  1130 10336 11382  1939 1941 11091  1427 1428 11269  1427 11269 11458  8368 10446 12642  5446 6845 11400  42 652 11134  2027 10139 11449  10352 10353 11744  7568 11194 12739  6416 6418 11336  8560 9560 12365  6386 10040 11140  2877 10781 11170  4000 4675 11108  1808 12441 12548  554 8154 12269  7578 7911 11701  1275 9780 13045  7745 7746 11982  2563 2596 12843  4023 7843 11110  1373 1374 11267  4093 4991 11398  9978 10702 11291  4932 11289 11358  3243 10912 11411  4744 5732 11724  6264 7767 11028  9947 10158 11751  4915 5324 11184  4582 5606 13157  659 10004 12182  3958 3960 11132  922 925 12457  4088 10474 11034  6697 10495 11199  5505 7066 11392  4080 4986 11119  6483 10599 11344  4473 5448 11116  9628 9814 12308  371 372 11723  6279 10189 12321  729 10049 11829  6115 7831 11265  2007 2014 11058  7819 8982 12939  6950 10972 11241  2810 8993 12691  4834 7295 11384  3403 3452 11211  6332 10783 11185  9219 9220 11703  695 8468 11540  6320 7111 11120  1576 1622 12207  3795 9873 11764  1684 10312 11138  2882 12222 12288  1912 10129 11772  6273 9723 11169  9580 9581 12795  6921 8186 12092  3343 11477 12019  8625 9647 11674  10220 10447 11302  2211 2226 11694  5358 11798 11953  6570 6571 12003  2125 2127 11496  2306 9079 11454  3506 5030 11299  6325 7700 11126  690 11778 12213  4025 4680 11127  7612 12027 12228  7511 10527 13070  4667 10522 11381  5166 11315 11513  6328 6330 11165  1945 1947 11785  6468 7915 11294  7194 11088 11466  3084 12840 12978  6983 6984 11543  7 8 680  159 160 10949  4752 9727 11837  758 11002 12603  6756 9852 11095  9145 11670 12002  4649 9651 11224  8062 8070 13028  1878 1913 11828  1495 1514 13167  6380 6807 11784  6679 7496 11198  2174 10283 11135  3693 4190 11765  392 393 11738  4737 5216 11324  2396 2398 11630  7820 9815 12883  7731 10875 12804  6373 10555 11097  3753 5309 11424  9949 10713 11270  6245 10398 11319  7485 9955 11600  3398 3427 11441  2832 10445 11088  9269 9270 13077  8707 11202 11361  4462 6524 11137  9589 9661 12422  2362 11139 12205  3597 4183 11225  7498 8401 11766  1504 6299 12994  5038 9877 11246  7149 12371 12702  6387 10818 11188  3879 4195 11124  3122 10680 11337  628 9361 13171  7164 7861 11605  7048 8958 11202  5018 9806 11657  5007 5008 11583  8018 9224 11325  623 11462 12576  7545 7546 12656  2777 4129 11595  3571 3573 11638  1054 1056 12562  6217 7518 11157  6337 6576 11167  3251 11223 11494  3755 4475 11424  3321 3326 12351  7237 10957 12341  4715 8733 12393  7145 10225 11174  21 9715 12387  3939 3942 11581  8624 9779 11872  1177 10308 11144  6457 7359 11713  6328 10756 11165  1647 10383 11159  6337 10770 11167  9611 9612 11426  6711 9591 12349  4991 11398 11693  8703 11436 12539  513 727 11690  5467 6126 11266  4524 4525 12114  6939 11114 11368  6374 10581 11111  5418 6997 11824  2025 12391 12511  10934 11279 11883  7908 7909 11451  7179 10145 11281  6377 7005 11156  621 8615 12545  2567 2571 12143  9513 10188 12009  6732 10246 11407  1294 1297 11686  6928 11310 11537  4160 4162 11146  5035 10874 11239  6370 10603 11117  6527 7305 11428  3148 11040 11287  6799 11165 11506  5070 8697 12618  473 598 11213  3986 10537 11050  14 632 10328  5932 8220 11952  4740 6559 12605  4723 5766 13147  5658 7724 9111  6493 11102 11390  2365 10693 11348  6599 7585 11810  512 570 11690  7166 9907 13025  6708 7168 12038  10314 10317 13165  6438 9899 11692  7740 11008 13169  6300 6302 11233  6546 8486 12950  5653 6199 11834  5497 11035 11431  6464 8237 11153  8518 12015 12807  5180 9870 11883  6144 7082 11467  1935 1938 11401  247 248 11278  10269 10270 12328  723 8152 12331  4275 8951 11761  415 672 11532  398 399 11762  9572 9574 11230  7135 11121 11359  8066 8068 12496  7631 12522 12823  110 111 11856  3911 10407 11933  6126 9658 11433  5355 9836 12227  5263 6816 11737  5302 10008 11946  9965 9966 11080  2436 2438 11218  7145 11174 11393  2434 2485 11360  6353 7628 11191  3250 3253 11223  7019 7021 11365  4494 10712 12184  8538 8541 12312  5678 8773 11438  242 714 11651  5492 10429 11291  7865 10659 11144  6365 10638 11135  3974 7748 11301  1112 8278 12536  6529 6530 12317  106 107 12420  9613 9616 11563  3510 3513 11362  1254 1255 11252  10315 10341 11434  805 9000 13176  6109 10306 11161  4181 4839 5082  6313 10793 11296  5845 6505 11507  5513 6516 11460  3578 3586 11378  451 452 11295  7874 11148 12958  5847 7706 11507  6756 10700 11095  8785 9108 11275  1103 2883 12790  364 552 11623  7362 10320 11139  610 10649 11193  9730 9731 12877  9231 11094 13010  365 742 11623  3426 11211 11461  4169 9786 11344  5807 9928 11683  7158 10637 11138  7307 8278 12633  7959 11730 12108  10500 10980 11360  7756 7962 11808  6117 7534 12354  5508 11174 11393  6896 8169 11917  3339 9390 13038  8539 8544 12312  6203 8057 12715  4305 5272 11545  3402 3467 11859  2005 10357 12124  7242 11136 11649  8410 8422 12816  2995 3011 11593  6985 6986 11125  548 8750 13002  9993 11099 12671  6541 7186 11216  749 8750 13002  2119 2120 12230  10297 10654 11159  6995 11175 11440  8701 9523 11847  2118 7959 13110  9544 9545 11248  5389 6996 11204  2460 2463 11385  6581 8033 11807  956 959 11312  3542 3544 11160  9514 9515 12044  8415 8417 12322  6332 6334 11185  4939 10862 11221  6406 9662 11392  7201 11493 11760  4359 10931 11491  7058 9778 13112  3887 4323 11300  6966 6967 11287  4905 10331 11235  6697 9011 11199  1609 8178 13158  2373 2375 11598  1579 1771 11200  5669 8544 12573  6604 10671 11589  6631 6634 11249  6865 6866 7538  10996 12266 12377  5735 9582 12572  7327 7697 12709  8292 8294 12861  1145 1146 11318  5375 6995 11175  3389 9965 11080  1743 10867 11410  809 1503 12560  7320 11877 12052  7648 9874 11170  9750 9752 12011  10139 11124 11459  9343 9548 11284  8057 10046 12436  6883 10038 11628  6447 10915 11288  7117 10999 11373  4514 5090 12450  8685 8686 12660  1449 1459 11684  6527 11071 11428  10050 10564 11492  7784 7786 11934  5614 6376 11228  906 3486 12289  6427 7957 13132  403 666 11604  5246 9349 12446  768 5209 11107  2656 9520 11849  7047 9450 11689  6973 6975 11876  277 278 11290  1013 3795 11764  5548 6348 11247  1772 10853 11406  5611 8938 12796  1441 10984 11063  6319 8011 13117  6489 8389 11421  6355 6357 11264  152 752 10782  2029 2030 12986  153 610 10782  3160 3162 11624  7432 10995 12794  7099 8612 11208  6766 10714 11499  423 673 11610  4139 9144 12276  7268 12681 12814  5052 10886 11315  1903 1961 11858  1728 1755 13169  422 751 11610  6484 10650 11357  7048 11116 11363  4991 10718 11177  11 674 10586  7527 7696 11633  9683 10489 11212  6125 7631 11356  5572 7356 11240  10145 10831 11281  6298 10562 11076  2644 2646 11178  1773 8912 12346  4827 10533 11054  1099 1361 11616  4314 5268 11749  6391 8462 11189  6411 7503 11516  439 440 11852  5864 5866 11439  6121 10045 12543  10093 11650 11777  6760 10537 11050  1497 1515 11732  4223 10190 11819  3533 3535 11187  6873 10362 11497  4903 7769 11773  7407 10878 11316  2672 2674 11183  10374 11871 11951  4831 5750 11303  4971 10988 11125  418 419 11326  4587 9815 12883  7652 10497 12798  446 447 11328  1368 1375 12865  428 429 11329  2891 9835 12027  7121 10912 11411  7079 10680 11337  6785 11366 13086  4605 5571 11188  4304 4306 11231  3257 3324 12878  4932 10427 11289  3455 9679 11660  2713 2738 11788  3219 9558 13017  7210 7211 11618  5079 8584 11482  4398 5768 11714  7562 7862 13090  6342 7402 11445  4232 4830 11304  6167 10972 11241  8306 8309 12471  5778 11081 12594  8448 12135 13045  768 770 11107  4887 7899 13093  5722 5775 11162  6050 11854 12295  959 11206 11312  6183 10255 11180  7367 7888 11701  9209 10754 11342  2996 11123 11844  8565 8566 12016  8513 10459 11585  7974 8637 12542  7680 9715 13099  519 520 11936  4506 10783 11185  6228 6580 11219  9979 10892 11347  471 472 11339  5506 7067 11486  405 406 11889  3256 3266 11494  5015 5017 11201  8326 8519 12103  8589 8590 11364  3996 10578 11089  2531 10298 11902  594 11194 12739  8302 11495 12022  4476 10795 11163  4966 10463 11338  2048 10011 11279  1769 1773 11590  9248 11194 13103  6296 10956 11085  7449 8529 12646  8989 12651 12691  1463 1464 13117  9275 9278 11989  9513 12009 12297  4148 11105 11514  98 99 11307  1071 1074 11327  9792 12093 12333  3209 3211 12085  6903 8740 11330  240 558 11739  6861 12798 13066  6861 10497 12798  6609 7676 12888  7081 10693 11348  6304 10584 11096  5400 10822 11402  6738 9761 11924  4020 10714 11499  4867 4868 11938  4125 10409 11331  5492 10496 11291  8289 11163 11456  6429 6431 11205  1410 1416 11353  3465 3466 12484  5180 9935 11901  542 8046 12611  6053 9802 11811  4939 5614 11221  4275 9383 12024  4709 5075 11282  7438 9399 12822  6897 9143 11438  6252 6843 11226  9451 10822 11402  4095 5185 11870  9855 10842 11320  1056 8128 12801  4587 12508 12883  1910 1960 11772  6523 11836 12983  6904 10657 12062  4849 12257 12758  6958 11285 11602  6944 9609 12451  7118 8887 12495  3068 10364 11212  7652 12486 12548  6992 8772 12674  4506 11185 11442  6297 7263 11596  5094 6549 12021  6447 11034 11332  8314 8371 12899  6943 10450 12149  8242 11473 11557  811 10203 12560  3206 9579 12834  6612 11553 11751  1961 10472 12103  6871 10931 11491  5243 9425 13020  9507 9509 12921  2350 10449 11719  5469 5471 11396  5637 7422 11538  4640 7989 12664  5073 10187 11715  6098 7250 11258  4298 4980 12041  2771 2774 11979  4000 10601 11108  2432 10980 11360  2061 10326 12392  7097 11657 11873  2751 2753 11473  5525 9872 11281  10110 11071 11428  9239 10208 12931  2529 10358 12081  8440 10692 11244  5210 10977 11156  1876 4966 11828  1477 10233 11873  89 694 12345  9007 9449 11298  9202 10242 11464  7169 9326 12519  5088 8541 12153  6241 6774 11500  6988 8600 12162  6976 10211 12034  2486 8759 12964  9276 10358 12081  3936 10562 11076  7377 9813 11570  5143 6468 11387  3492 5460 11842  3590 10026 12204  5958 7969 11334  2722 2724 12004  2235 2349 13006  1015 1020 11764  6993 7479 12929  6871 10962 11491  7179 11281 11484  8024 8025 12102  6913 6916 11944  5370 10915 11288  8257 10391 11685  27 588 12146  5597 7559 11283  1074 11197 11327  90 576 12345  7050 10015 11667  7238 8434 12514  6463 6620 11246  1229 1232 11800  4871 10804 11415  2728 2730 11272  7233 7234 11236  9478 12216 12774  9741 12233 12507  6408 6930 11483  4301 4303 11254  3319 4922 12768  6248 7068 11580  6081 10754 11342  6061 9376 11697  8281 8283 12399  4083 5073 11715  5395 6587 10986  6833 10625 11544  3289 10994 11702  3011 9407 12055  8489 12426 12779  7059 7214 12370  8703 9523 11436  5441 6684 11664  635 8652 12717  1956 8395 12885  6508 6510 11586  3719 10023 11310  2998 10364 11593  5452 6562 11675  154 610 11193  1414 11140 11268  4754 5355 12227  4359 11491 12772  6492 10578 11089  4334 7661 13073  6450 6452 11242  3785 8509 13037  5529 7277 11460  6210 6438 11692  6517 9649 13129  7247 11401 11608  7061 9665 12440  5035 5256 11239  6933 12118 12266  4011 10616 11130  196 605 13064  8311 8316 12184  4695 5564 12065  1896 1898 11257  1050 3131 12784  910 1007 12129  3956 10584 11096  5807 7625 11932  3506 3508 11299  1983 11323 11564  3913 11102 11390  6744 8301 11375  5446 9939 11400  9600 11235 11798  478 550 11768  1216 4419 11308  10411 10664 11350  6911 6914 11256  7648 10781 11170  6192 11006 11372  6313 6315 11296  10023 10684 11310  3959 3961 11542  8436 10586 12708  8297 8643 12787  2304 10167 11270  1420 3339 13038  7141 10384 11431  902 1394 12828  3709 3711 11245  3643 4139 12033  6996 9700 11966  146 147 676  6875 9923 12119  8923 9062 11930  2481 2549 12145  5156 8658 12654  2099 2353 13177  7743 11227 12788  3397 4126 11987  586 9995 11297  10307 10878 11316  7641 10136 12946  6752 9915 12435  238 713 11846  758 7704 12603  6954 9883 11285  463 597 11763  2797 2799 11367  3825 10622 11407  5590 6878 11777  1483 6319 13117  954 957 11759  2440 2779 11523  10330 10886 11315  737 8203 11897  6548 6834 11435  7071 10601 11108  4364 7128 12056  7616 7911 11808  6473 6474 11755  6570 12003 12293  653 9931 11607  7177 12338 12438  1348 1352 11940  8324 10472 12103  10062 10063 11862  8160 9192 11351  6985 10988 11125  5560 5562 11869  723 8652 12331  6926 10684 11310  6953 6956 11574  8364 8367 12374  5262 6534 11405  9 10 11530  1440 9789 12498  8993 12454 12515  7651 8911 12441  4494 12184 12471  7284 9129 12815  3621 3623 11273  6658 7396 12628  8294 8990 12236  9120 9123 12626  4982 12957 13096  7587 7588 12638  760 8076 12137  4348 4619 11518  8414 8421 12963  8363 10253 11606  5597 11109 11283  3343 9541 12019  7054 11985 12100  6372 8212 13108  9364 11414 11594  7141 11035 11431  8702 8705 12336  7373 11314 11555  7680 9715 12387  939 11003 11412  5411 5413 11622  8763 8769 13056  669 8901 12268  4309 5288 11749  5486 7403 12234  7173 11525 11616  1141 8536 11617  6579 7738 11807  9402 9403 12692  4771 11440 11568  6462 9891 11550  3825 10246 11407  5082 7216 11210  1164 9936 11995  6437 6844 11258  162 8484 11950  5614 11221 11228  496 559 11861  4333 10974 11414  4696 7224 12065  8491 11626 12126  495 735 11861  3908 10237 12090  5191 10024 12588  2057 9663 11369  9693 11771 11854  8089 11855 12175  6407 10409 11331  5832 7652 12798  6294 10616 11130  8844 8861 12673  7089 10477 11277  5448 11116 11363  7099 7100 11349  6966 11040 11287  7112 10853 11406  1560 1563 11335  160 161 677  105 106 12263  3255 10643 12878  6492 8398 11661  1801 2051 11292  5584 6615 11293  7119 10867 11410  7071 11108 11376  6868 8388 12503  1900 3988 11858  4318 5340 11961  932 1821 11895  6678 10197 12348  9955 11337 11600  7709 10203 12560  2727 4046 11782  1326 6809 11346  332 573 11991  6877 7258 11642  7846 7847 12728  919 921 11345  4465 12126 12614  6190 7010 11636  8498 11647 11962  9212 9718 12245  3585 4280 11305  9849 10517 11408  9944 10090 12502  10239 10593 11911  650 9045 13016  7479 10945 12929  9592 10354 12411  4905 10382 11235  7107 9825 12405  2361 2362 11418  7063 11006 11372  1565 1567 11343  8050 8051 11841  5456 7483 11659  1943 1945 11680  9391 12574 12912  569 9822 11783  2484 10741 11172  1095 10967 11616  2326 10301 11575  709 9823 12505  487 488 11403  7622 11313 11423  4086 8443 12762  1125 1130 11382  5266 5972 11973  9304 11218 11259  7123 8250 12504  5569 7143 12337  4538 5420 11969  1223 1224 11425  5370 6867 11288  4594 9707 11483  2711 4128 11788  9107 9632 11577  1889 1891 11306  6872 11043 11437  2252 2254 11678  5683 8686 13029  6623 11188 11427  5192 10913 11481  8853 8854 11444  6513 7138 11389  7558 8709 11603  6665 7173 11525  1107 9212 12525  8188 9228 12904  155 753 11193  7045 7572 12025  1352 10494 11673  10026 10798 12204  9296 9298 12550  8550 9849 11408  3390 4948 11804  4932 11146 11358  2557 2560 11718  333 10019 11991  9320 9321 12344  4186 10124 12127  10139 11449 12117  6416 7689 11336  2779 11523 11655  9309 9310 11989  6290 11479 11803  6687 11884 12398  9014 11799 11869  732 10106 11728  2485 11218 11259  5084 5356 11317  7961 7962 11906  5234 6934 11569  5520 5521 12705  6923 7642 11965  4244 11165 11506  1481 11255 11878  7078 11150 11371  9088 11478 11611  6852 7054 12100  1305 8126 12998  6660 6661 11920  6444 9997 11314  6676 6973 11705  1346 9489 12589  1520 8136 12683  7707 7708 13095  6572 6687 11576  5175 9649 13129  6593 7630 11743  655 8222 11926  3974 10494 11301  5951 6033 11446  5581 10925 11379  6225 7081 11929  7590 7592 11311  7011 7012 11323  6359 10798 12204  2032 2053 12063  770 2386 11107  8112 10896 11654  9361 12702 12903  6269 8180 12450  7835 12818 12935  3896 10791 11445  8547 8549 12905  717 10027 11321  4529 5555 12048  6336 10382 11235  6347 10736 11398  658 11151 11601  1295 10982 12240  642 8510 11455  5699 10957 12341  7172 7914 12620  6364 6509 12046  2779 9315 12089  3578 3598 11378  1755 11008 13169  525 526 12251  5525 11281 11484  3426 10450 11804  10388 10389 11643  5825 7167 12478  3644 3647 12141  2656 4002 11849  3427 11103 11441  6081 7460 11342  579 9589 12012  8524 10801 11882  4933 10511 13104  6649 8777 11447  8316 10712 12184  3904 11197 12020  4601 11114 11368  6847 10102 12077  6174 12163 12555  245 246 11420  6266 10625 11544  2731 2748 12106  4125 10398 11319  2614 2616 12242  7420 9115 13087  3508 3510 11362  7175 7219 11514  6646 11019 11395  2113 2115 12058  2602 8708 11579  3122 5900 11337  2328 10172 12771  2125 11496 12949  5353 12280 12379  7042 7600 12381  591 9524 12013  7113 9857 12552  587 12217 12911  6707 6808 11792  3995 10447 11302  6978 6979 11417  6361 6363 12304  6584 10557 11664  5668 11795 11984  5440 6584 11664  564 9787 11365  1983 11091 11323  4293 5354 11781  5779 7660 12594  2980 2981 12564  2522 2556 11902  1172 1181 11995  6942 10538 12237  4840 10265 12357  156 753 10947  8523 11341 11812  7687 10216 12689  4350 5252 12152  1168 9857 12156  9013 9014 11799  404 405 12180  6738 6739 11924  412 582 11916  831 1398 12785  2383 4136 12664  6664 9597 11709  486 554 11981  1427 9073 11458  5250 10307 11316  1746 9472 11818  7025 10517 11408  485 739 11981  6448 8042 11355  2021 2027 11449  7208 11406 11581  6762 10387 11587  7442 7444 12243  6591 7733 11743  4139 9144 12466  8417 12138 12322  7401 10278 11313  6126 11085 11433  299 300 11391  7099 11208 11349  6144 9992 11467  6241 11138 11500  474 11213 13071  6722 7566 11263  6881 9144 12276  330 331 11430  2432 2434 11360  2365 5231 11348  6340 8008 12010  7110 10330 11315  5038 11246 11524  807 1503 13176  8151 11546 12147  4816 4817 12045  6409 8441 12246  4565 7050 11667  3395 3426 11804  3129 9765 11612  8143 10905 11779  5298 10459 11585  7379 10479 12860  1944 1946 12186  108 601 12340  6379 11502 11761  7133 10506 11452  1854 8235 13111  8969 11069 12203  6888 12839 13095  2121 12935 12949  9410 10364 11593  8766 8768 13030  7241 7810 12376  8862 11345 12051  1862 2024 11752  8420 10237 12439  11436 12539 12977  7276 7278 11838  8741 8742 11470  6335 10094 11440  493 494 12244  1882 3965 12402  4317 5474 12608  7338 11438 12433  7521 12125 12275  7403 9026 13148  3719 11310 11537  3392 3464 11987  8536 11617 11823  5651 7157 11884  9317 10545 11706  7158 11138 11500  4306 11231 11511  4982 7507 12957  5571 11188 11427  3866 11578 11754  6483 6714 11344  4980 10388 11643  6725 7683 11988  7283 11268 11572  3962 5344 11797  9063 11870 11930  602 10005 11982  705 9865 13136  6001 6400 11422  4832 7957 11904  6445 6780 11332  7793 7794 11358  9208 10550 12281  5618 10070 13164  4012 7047 11689  5343 8457 11986  5923 7514 12871  993 996 12491  3662 4241 12050  6620 11246 11524  9937 10991 13118  6542 11201 11487  6561 7054 11461  785 2284 12442  6344 11453 11866  3641 3971 12033  7175 11105 11514  4874 8190 12461  7063 7064 11372  952 10976 11759  10231 11574 11914  317 724 11448  6484 6715 11357  10739 10740 12311  5102 10028 11942  5654 9933 12330  4195 11124 11459  6299 11240 12994  612 11271 11900  6376 11228 11416  5083 11410 11567  7469 12476 13053  9983 10664 11350  6928 8091 11537  7182 9814 12066  5750 7491 12254  8382 11251 12602  9077 9520 11849  6970 7990 13075  3753 3755 11424  2901 2957 13158  3964 6791 11797  6274 7208 11925  6808 11540 11792  6903 7680 13099  9935 11901 11928  6974 7306 12034  7316 8464 12598  5570 6687 11884  7652 10497 12486  936 939 11412  5039 10657 11752  6878 7259 11976  3126 11668 12093  1058 1239 12801  6967 9757 11712  3779 3780 13073  8316 10712 12050  9928 11390 11683  1003 1006 12200  2479 3908 12145  2460 2520 11385  7197 7199 12294  2575 8990 12236  2072 10121 11373  10702 11291 11646  7323 7773 12869  6808 11540 12023  7247 11205 11401  6796 7236 12044  6449 10572 11423  5371 6868 12275  4316 5268 11961  2705 12512 12869  10340 10342 12388  8170 8171 12685  359 360 11462  6946 10703 12256  1198 8698 11676  10883 11588 11964  8658 12040 12654  7677 11491 12772  6582 6880 11380  1730 1732 13134  4837 10391 11685  4291 5307 11781  5448 7126 11363  7334 11584 11893  8816 11087 12319  2406 2408 11359  3699 4439 12492  2240 2242 11383  560 11276 12088  2875 4181 11210  4404 5304 12325  5508 5509 11393  6983 11247 11543  4536 5340 11969  6835 10851 11682  7027 8152 12667  10289 10463 11338  2659 9922 11389  7800 7801 11699  4957 6179 11377  3648 4251 12466  6479 6863 11888  7226 11983 12205  4244 10410 11506  7305 11428 11638  2015 9424 12232  7071 7072 11376  6919 7434 12088  1860 5039 11752  8182 8183 11898  3285 3286 12053  7330 9526 12911  9423 9425 13020  2600 2612 11432  8578 11449 12117  3913 10101 11390  6347 10686 11398  9632 10960 11577  1502 9697 12434  6535 11136 11649  7786 11934 12529  7332 11419 11972  7721 11309 12777  1433 1447 13038  6417 7257 12067  8072 8073 11489  3398 3400 11441  576 12345 13035  2472 2486 12964  7048 11202 11363  4075 8235 13111  3280 11013 12061  8319 8369 12799  1052 1468 12784  299 675 11391  7054 11211 11461  5390 6996 11966  9981 10321 11848  4871 5147 11415  9399 10602 12740  157 625 10947  6646 9030 11395  7537 7813 13041  3306 10994 11320  6781 7705 11993  5469 6504 11396  7582 7583 12028  4490 5114 12712  7178 9244 12397  1502 9697 12927  4009 10610 11479  7109 12355 12530  6857 7709 12380  5573 7070 12645  8216 8218 12817  7595 12424 12485  445 546 12047  4851 11411 11546  5640 5642 11658  9818 9819 12221  1308 1314 11394  1283 1303 11485  4868 9947 12039  2061 10740 12908  8566 11729 12016  7894 11675 13119  7457 7458 12253  6376 6748 11416  9979 10979 11347  3508 11299 11362  5190 7029 12045  8400 8403 11480  7835 12058 12753  7038 7245 12368  4125 11319 11331  6868 12275 12503  5087 11566 11746  7557 7795 13152  9071 9885 11771  10080 10441 12160  926 1248 12221  6687 11576 11722  3129 11311 11612  10104 10939 11867  5472 6547 12234  5103 6512 11429  2264 2282 11519  1114 3894 12156  6270 10522 11381  6485 7332 11874  7509 7510 11322  6549 12021 12023  5523 10411 11350  6634 10396 11817  4360 5098 11793  5038 9876 11524  8304 8309 12841  1430 10043 11404  6459 8938 12239  2892 10386 12524  6746 10669 11588  1942 1989 12071  1818 11206 12165  7391 9945 11786  3711 11245 11478  3401 10216 12689  10098 10172 12771  1773 1774 12346  4737 10642 11324  401 402 11474  9045 10940 13016  5666 5989 13146  6798 7430 12150  8309 12471 12624  7230 7775 12672  1934 1935 11401  5931 11955 12123  3679 4621 12507  4009 10983 11479  2890 12084 12247  6724 9041 11515  4050 11118 11473  1883 1956 12565  158 625 10948  3378 4236 12690  6848 10773 11354  7078 10699 11371  7192 11539 11613  6548 6549 11435  3665 10712 12050  3168 3195 11974  5864 6211 11439  904 3486 12828  3828 11181 11464  818 1520 12683  8426 12032 12238  7639 9944 12502  7936 7937 13149  1351 9792 12333  6872 8220 11437  7793 11146 11358  4084 5068 12928  10120 10266 11975  7319 7374 12501  5588 6361 11645  2993 3011 12055  6481 6482 12015  7253 11722 12749  9990 10458 11379  1909 1982 12587  5372 5373 11457  2033 11058 12584  10691 10960 11577  7717 12538 12824  6489 7075 11421  82 696 13106  6466 8599 11840  7011 11091 11323  8070 12727 12922  5400 6870 11402  2253 2328 12470  2465 2467 11880  5414 6673 12074  462 597 12140  5460 10634 12348  10800 10801 11341  2433 11531 11619  6997 11429 11570  9611 9618 11426  12296 12427 12876  1110 1112 12188  1088 1097 11522  6814 10232 11928  4386 5361 12048  8899 10034 11645  3887 11300 11548  2024 9665 12277  2883 12356 12535  2988 3034 12193  3164 3198 11892  8848 8863 12673  7650 12441 12548  1886 1927 12923  6246 7134 12517  318 319 12739  860 1351 12826  7803 10185 12688  1772 3937 11406  7291 11153 13029  4142 11814 11997  10072 11242 11453  4333 4491 11414  10315 10316 11434  144 145 11101  4043 4044 12041  464 11082 11763  2692 11178 11465  6358 6398 12094  9838 9839 12095  981 984 11505  5255 5451 12101  361 740 12219  3425 9107 11886  7457 12253 12363  427 584 12134  2449 2452 12364  758 11002 11695  4169 9789 11656  7138 11389 11552  7007 7720 12456  7338 8034 12433  1743 3957 11410  5523 11350 11535  3243 3245 11411  1746 11433 11818  5377 7118 12495  6426 9468 11775  6667 11271 11900  8291 11456 11871  4880 10207 11508  5473 5756 12072  774 9973 12215  7914 11297 12620  362 10137 12219  9751 11103 11441  6360 6564 11476  1118 10199 11919  198 705 13136  10035 12061 12324  5967 12634 13026  8106 9907 12641  5382 6186 12541  7492 7671 12586  6308 6309 12670  10239 10685 11911  7339 8435 11591  10736 11398 11693  5587 10034 11645  6428 6648 11468  3386 10558 12750  9518 9519 12271  8416 8419 12963  10666 11223 11494  2930 2933 12252  7529 10042 12890  6079 6159 12903  2707 11183 11471  3732 11061 12625  7173 10967 11616  5144 5666 11481  5238 5350 12113  5436 6713 12301  7679 7764 11442  6825 7990 12007  6719 7240 12078  6283 10206 11397  511 570 12436  5766 11615 13147  712 11064 11821  6586 11270 11553  1286 12779 13162  6568 6570 11533  3817 9554 13054  9127 9128 11839  5536 5735 12066  7110 11315 11513  1568 1570 11509  6184 7025 11918  1402 9539 12694  477 550 12279  2659 11389 11552  6557 11144 11629  2213 11238 11694  476 744 12279  6245 11319 12517  1806 11037 11469  2334 2795 13159  3629 3645 12760  10288 10922 11471  1399 11865 12070  7309 8245 11996  3866 10817 11578  5058 5153 12246  206 589 13061  2226 11694 11877  1004 9536 12612  9579 11162 12834  5449 6244 12499  6616 11373 11650  4455 8982 12939  7967 11377 11486  7358 10923 11465  2462 10304 12891  6849 7525 12001  5445 11661 12191  10066 11443 11669  6838 8654 12747  4992 10497 12486  1967 2273 12353  3673 4698 12233  8961 9124 12782  6772 10938 12248  4348 5087 11518  5171 5618 13164  3695 4190 12286  6488 10556 11599  7109 9798 12530  7410 8001 12575  381 747 12267  6572 11159 11576  8578 12117 12122  7398 12054 12988  518 577 12604  4458 6992 12674  10904 12190 12223  6556 8803 11673  5630 5931 11955  2875 8684 11210  9001 9664 12705  1116 1168 12156  7296 10924 12734  5513 5529 11460  8419 9829 12725  5690 10894 12737  2438 11218 11523  5571 7325 11427  510 10046 12436  516 517 12835  4313 5246 12446  6822 7842 12105  10066 10427 11443  6695 10851 11682  6132 7084 12724  372 373 12630  8993 12454 12691  6344 10794 11453  5487 10798 12072  6807 11279 11784  2871 8148 12780  9022 9167 13060  6797 9256 11549  3581 10110 11428  9808 9977 12343  7260 11484 11630  6853 7359 12226  3455 11256 11660  2768 2771 12110  10297 11159 11576  1905 1961 12284  5737 9654 12493  2948 2951 12319  7476 10982 12240  1981 2015 12907  6413 6415 11450  6986 9905 11596  2717 4047 12707  1952 1955 12553  7855 11919 12188  440 441 12621  4169 11344 11656  10026 10798 12072  3593 4183 13151  7694 7695 11967  5807 11683 11932  1502 1522 12434  5191 11129 12588  8600 10018 12884  4096 4225 13020  430 669 12268  5850 6174 12696  5638 6689 12116  431 10177 12268  1880 1913 12402  7671 11800 12743  433 434 12635  7225 7654 12523  5102 10349 12189  10458 10925 11379  195 605 11521  3121 8640 11534  5198 5199 11472  6879 8033 12276  8631 8632 11990  243 244 11527  5631 7014 12079  5497 10530 11431  7186 9147 12060  1262 1263 11504  5053 11347 11791  5156 5802 13015  6878 11777 11976  376 377 12685  5836 7736 12925  1985 2015 12231  2751 4050 11473  6807 11279 11883  6089 10839 12086  8736 9219 11703  10072 11453 11866  10427 11289 11443  4079 10146 12211  625 9703 12532  1373 11267 11618  1971 1974 12229  1879 2001 12339  4834 10847 11384  414 415 11532  923 1248 12255  3973 8191 12940  6411 10268 11516  3828 10242 11464  10557 11664 11896  1559 11335 12703  4093 10686 11398  9482 11412 11895  10496 11291 11646  3961 11131 11542  9196 11728 11977  6704 8017 11825  2430 2433 11531  6111 8528 13065  341 729 12545  2611 11480 11718  1961 10472 12284  6771 7157 12026  6995 7109 11568  7846 12728 12866  8279 11637 12360  393 394 12751  7687 10216 12936  7709 10203 12380  7194 9586 11466  10017 11201 11487  7279 7398 11791  5506 7127 11486  5670 7849 12429  7098 9554 12653  342 621 12545  7663 11819 12447  329 659 12879  3386 3388 12750  7592 11311 11612  7353 11508 12217  3651 3653 12886  7262 11085 11433  3515 3591 12668  8938 11168 12796  5714 7549 12389  728 10050 11492  7631 11356 12522  2613 2622 12889  6778 7975 12431  8293 11871 11951  6935 7355 12084  434 8797 12875  1475 1502 12927  8697 12618 12954  409 667 12326  5 6 754  4648 12035 12157  4594 10860 11483  3642 3644 11850  6560 7135 11495  460 664 12359  6538 10406 11668  6680 10717 11851  4206 5669 12153  7293 8171 11558  6722 11196 11263  5376 7109 12355  5554 10800 11341  5854 5856 12797  479 11234 11768  407 408 12825  5640 11658 11704  5845 5847 11507  7773 12869 13022  6977 10319 11475  7428 8032 12921  4921 5194 11556  4094 5068 12185  2925 2926 12534  6937 10707 12288  5606 12494 13157  7295 11658 11704  2246 2323 12290  4547 11631 11963  7211 11618 11773  765 767 11671  2864 4640 12664  9740 9741 12661  4908 8184 13160  3461 9679 11978  7424 7441 13027  6820 7630 12105  1220 1228 12479  470 746 12432  2042 10767 12986  7132 7653 12115  8070 11217 12727  9635 9643 12465  8132 8134 12863  9014 11620 11869  10823 10973 11517  8371 11078 12899  6545 6782 11573  3884 3887 11548  9888 10994 11702  1286 1287 12779  10193 11060 12417  2921 2922 12567  9471 9472 11597  9860 10976 11759  4644 11176 11925  7258 11642 11865  4506 10737 11442  9169 9170 12201  5068 9420 12185  1446 1460 11536  9236 9237 12901  7800 7841 11699  4181 5082 11210  3461 9674 12133  10303 11968 12483  9430 9436 13042  2005 10245 12235  7659 10256 12898  8958 11202 11361  6914 11256 11660  8912 12346 12764  2331 8284 12076  7116 11774 12803  1100 3898 12536  3903 10794 11453  1934 11205 11401  6406 10492 11392  2156 2203 13004  1927 10446 12923  7193 8558 12287  5534 7182 12066  9410 11593 11796  5138 10085 13082  4195 4197 11459  7190 9113 12854  7865 11144 11629  6342 10791 11445  7631 7632 12823  1973 1974 12014  3897 8492 11827  6814 11928 12021  8003 10939 11867  5087 8108 11746  8330 8374 11520  9685 11443 11669  2127 2137 11496  8155 11600 11670  382 10863 12267  8524 8525 11882  9947 11751 12039  2386 9894 12215  2692 11465 11954  5104 11570 11921  9416 12232 12900  3400 11441 11859  530 531 11541  7981 7982 13109  6061 8444 11822  5525 5526 11484  4457 11244 12001  7103 11349 11617  9672 9673 12130  2655 2659 11552  3195 10548 11974  5817 10471 12121  3646 4139 12466  9783 10622 11407  7600 10285 12637  7656 12176 12981  6453 6455 11498  3816 11359 11495  7363 8277 11762  2048 11279 11784  6639 7004 13172  7218 10891 11812  3586 11378 13151  7192 7717 11613  413 582 12459  6336 11235 11798  6882 7162 11488  2780 4426 12278  2456 2458 12943  8524 10801 11341  4531 5591 12087  5007 10995 12794  1338 1347 12893  5852 5854 12163  9107 11577 11886  7192 9918 11539  6794 6994 12075  6199 11490 11834  159 10948 10949  9895 11572 11795  8132 10338 12863  1141 11208 11349  2004 2025 12391  6462 9129 11550  7852 12131 12887  7531 10506 11452  5962 8902 12551  3625 3640 12373  3813 10209 11893  303 304 760  2886 8619 11960  5900 11337 11600  5350 7242 11649  7570 9905 12554  6183 11180 11698  3711 3820 11478  3543 3545 12873  4306 4308 11511  7676 11496 12888  7208 11176 11925  9279 9281 11640  7262 11433 11818  10621 10859 11493  6714 11344 11656  10032 10457 12849  6 7 11309  7714 11462 12576  1818 10017 11487  789 2063 12390  7854 11298 11919  7514 11112 12871  9419 9424 12874  9353 9355 11935  8675 12656 12970  4644 11925 12142  612 9547 11900  7219 11514 11714  7200 10014 12505  6555 10746 11454  6573 10620 11689  3251 3256 11494  9232 9598 11857  9 11057 11530  7228 8147 12672  3513 11362 12668  6951 11241 11574  3686 3691 11510  10 674 11530  10863 12267 12995  2242 11383 11627  4468 5085 12858  8137 8141 11614  5342 11639 12744  2442 2779 12089  6912 10387 11587  2271 10689 11501  7334 7335 11893  3935 10795 11456  6379 10903 11502  388 600 12617  4698 10951 12233  5587 5588 11645  4275 11761 12024  5666 13101 13146  2553 10285 12637  5124 9142 11721  387 10163 12617  5640 5641 11704  7069 9483 12533  8401 11503 11766  6348 11247 11644  5163 9391 12912  2986 3034 12464  5399 6237 12916  4056 10572 11423  2732 2734 12430  7115 7116 12447  7131 7903 12115  1577 1771 12327  549 10103 12894  2470 3906 12964  2101 10483 13177  7008 10923 11465  5578 7200 12627  1573 4079 12211  1866 4090 12277  4187 9642 13098  7044 7600 12813  7158 7159 11500  5102 11942 12189  411 11192 11916  8902 12551 12678  9361 11711 13171  422 423 11610  7665 11999 12283  5547 11247 11543  7015 10922 11471  6106 7459 11529  8291 8293 11871  2446 2449 12214  10035 10416 12061  3365 12649 12656  7466 11632 12404  6552 10162 11674  6658 7807 11551  7412 8109 11816  9713 10014 12505  1314 11106 11394  6135 7156 12460  10279 10895 11477  402 403 11604  602 9715 13099  3457 4850 12847  1535 2274 12528  5161 6751 12265  475 744 13071  6786 7449 11666  4546 5445 12191  2331 8193 12076  2886 8609 12031  998 1001 12699  5144 5192 11481  2438 2440 11523  4204 5088 12153  3581 11428 11638  4752 11837 12811  5833 7499 12579  3959 5083 11542  7473 9733 13094  7335 7881 12018  7358 11465 11954  6674 9812 11621  391 662 12732  2433 2435 11619  6574 7121 11546  9682 9915 12435  520 521 11601  7600 10285 12813  7110 7111 11513  5222 6517 13129  459 664 12727  8422 11378 12816  3813 10111 11584  5505 10492 11392  8385 8387 11663  8922 8924 12407  9212 12245 12525  7217 8228 12535  3328 6514 11647  1095 1099 11616  2560 2594 11503  364 365 11623  7195 11578 11754  4721 8227 13147  7536 7572 12487  7857 11319 12517  426 584 12688  7279 11347 11791  6620 8238 11524  425 10185 12688  468 549 12894  8856 8865 12179  8360 9602 11559  402 11474 11604  384 548 13002  7056 7266 13112  10167 11270 11553  3636 3638 11528  385 749 13002  3937 11406 11581  10084 10086 12235  6575 7119 11567  7508 12220 12914  586 9996 12620  6799 7041 11506  7313 8173 12753  5637 6689 11538  2132 9496 13000  7936 10943 13149  1884 3965 12923  1107 9773 12812  1105 1112 12536  6385 7211 12480  7671 11800 12766  1004 9541 12334  9363 9364 11594  9810 9811 12642  6535 7368 11649  9516 10642 12961  4051 12208 12445  2893 9864 11758  6775 9768 12008  8969 12203 12736  4148 4252 11514  661 10047 13011  3266 10281 12475  9709 11238 11694  3399 4126 12689  457 547 12922  7006 7417 11561  5382 11249 12541  2995 2998 11593  7139 11923 12615  7161 9144 12679  9591 11635 12349  1777 3987 12346  3903 11242 11453  6248 7134 11580  7210 11267 11618  10082 10084 12235  8203 8607 11897  9622 11371 11813  6847 11501 12077  11177 11693 11717  2957 11286 13158  5786 7074 12332  1948 2002 12640  1107 12525 12812  568 9647 11674  1992 11030 12231  10538 12237 12521  10393 10689 11501  9885 11180 11771  9061 11046 12373  5703 6680 11851  6288 10610 11479  3657 11007 11463  7443 7450 12730  9086 9088 11611  6403 11162 12834  7024 7202 12382  6368 6642 11662  6498 9903 11922  9795 10446 13116  9751 11441 11859  6604 8162 11589  9302 9304 11655  5523 5524 11535  8367 11338 12374  2158 2162 11691  2121 2122 12949  7764 7766 11776  6860 6861 11565  3819 10392 12203  9103 11022 13156  7206 7687 12936  7456 11342 12196  5308 7383 12274  631 12029 12309  9388 9685 11669  7377 11570 11921  9765 11612 11853  2426 2428 13022  2115 2117 12818  1273 9765 11853  4060 10883 11588  3800 10167 11553  6869 10877 11477  7216 11210 11814  2551 2584 12637  13 632 12708  1864 2024 12277  7625 11932 11994  3640 11046 12373  6752 10247 12435  6912 11587 11944  5819 7805 12607  4305 4307 11545  8079 8080 12132  7431 8931 13130  9426 9427 12584  8652 12331 12717  7189 12307 12401  9128 11542 11839  6736 10857 11555  241 242 11651  3649 3678 12902  2951 11087 12319  7871 12438 12930  4633 9662 11592  2715 2738 12707  1469 1512 11677  4428 5175 13129  5008 5059 11583  6266 6685 11544  3571 3581 11638  2599 2603 12741  4320 11332 11860  4352 5383 12573  40 572 12942  2326 10068 11575  8242 11118 11473  6916 11944 12245  7222 7584 12677  2870 8231 11843  10795 11163 11456  1000 1001 11635  5542 5824 12701  3262 3271 12622  320 594 11653  10054 11062 12236  2328 10172 12960  3670 3672 12624  4038 10857 11555  7096 9707 12298  816 11158 12683  3152 4265 12740  6408 10860 11483  2396 7179 11630  8600 8601 12884  6967 10813 11712  9672 11454 12130  6951 6953 11574  6838 10946 12787  655 11926 12371  7119 11410 11567  4051 10724 12208  9685 10869 11443  634 10674 12509  678 8558 12287  3719 10055 11537  1551 4075 13111  2571 8990 12861  667 11699 12326  8960 8961 12806  1519 11345 12051  2863 10911 12839  9128 11131 11542  6730 7195 11754  2271 11155 11501  7372 11037 11469  6608 7791 11672  4761 9115 13087  7134 12517 12551  7891 11213 13071  1769 1808 11590  6508 7345 11586  3458 5138 13082  6732 11407 11947  10102 12077 12313  3677 11832 12042  7418 7526 13035  10868 11014 12138  8363 8373 11606  7599 11760 12121  492 595 11632  3189 4086 12762  7611 9493 13057  608 9137 11934  1979 4374 12907  5234 6645 11569  4129 4455 11595  7382 11466 12079  5680 7152 13049  5104 11429 11570  9837 11750 11799  1407 10064 11572  6493 11390 11683  5589 7117 11650  1497 1498 11732  7873 11197 12020  7167 12478 12589  3425 9701 12144  8067 8071 11626  9679 11660 11978  7862 10282 13004  5359 5737 12493  2454 2641 13113  7519 12327 12733  390 10830 12732  4944 8253 12283  2255 2328 12960  5643 10739 12311  6348 6638 11644  10279 11477 12019  9184 12588 12870  6888 10911 12839  6781 11551 11993  5972 11973 12032  5298 6660 11585  1254 11252 11848  6518 8227 11615  10478 10479 12860  1439 8595 12468  7294 9852 13032  10349 12189 12414  2200 11371 11813  262 569 11582  7207 7580 11564  666 8718 13124  2753 2755 11557  7389 8029 12966  8063 8069 12614  10283 11135 11729  7008 11178 11465  8273 9101 12182  7117 11373 11650  7400 7621 12979  8690 11317 12136  3376 10920 12690  2375 4426 11598  5554 11341 11812  3138 9778 11708  5584 11293 11815  20 718 12387  7204 10102 12313  7635 10767 12986  4374 9417 12907  5067 10786 11628  4215 8089 12997  4607 10721 11899  3162 3198 11624  6693 7124 12175  6843 11226 12013  6704 11741 11825  8177 9164 13168  6860 6862 11639  1009 3970 12955  6883 11628 12125  6922 6998 12059  5461 6704 11741  9304 11218 11523  7121 11411 11546  8012 8484 11950  982 983 11740  6191 11560 11868  3258 3266 12475  7984 11195 12623  5557 10621 11493  5300 8780 12485  4098 11646 11789  3937 3939 11581  1927 10446 13116  9826 11013 12061  4400 5768 12791  2707 11471 12017  561 10060 12851  9589 11397 12422  5900 8155 11600  7611 9493 13067  7583 11564 11680  3517 3591 12895  4493 7361 12800  2925 12375 12567  7015 11183 11471  4226 10706 12325  7164 7365 11605  5039 10823 11517  10109 10261 12771  7889 7891 12755  6455 11498 11713  3120 8902 12678  566 10564 12996  653 9596 11607  10721 11899 12178  3241 7633 11774  6877 8247 11642  6866 7538 11631  3285 12053 12139  772 2386 12215  9304 11523 11655  4330 8827 11786  9558 12094 13017  7203 7574 12721  1361 11004 11525  512 513 11690  4909 6941 12951  1251 1264 11725  8114 12270 12845  9061 12373 12760  9643 12257 12758  1373 10151 11618  5600 10297 11576  2159 10282 13004  3541 3550 12924  1293 1294 11686  6183 6773 11698  9427 11058 12391  8684 11210 11814  7592 8049 11612  5600 11576 11722  7066 7067 11730  5067 10872 11628  7497 7498 11766  8118 11206 12165  7094 7096 12706  5538 5735 12572  322 656 11681  7246 9896 12386  10983 11479 11803  5266 7404 11973  9541 12019 12334  6190 6688 11636  8639 10020 11560  3935 11456 11871  7527 7529 11633  9862 10859 11493  3461 11978 12133  3591 12668 12815  3674 5055 11696  3598 11378 12816  2863 8232 12992  9449 10973 11517  5553 6543 12580  6986 11026 11596  1377 1379 11747  2242 2244 11627  2403 8684 11814  4370 7144 12504  730 10061 12910  5011 5683 12607  9885 11180 11698  8924 10706 12325  6559 11659 12605  3082 3084 12978  3677 10384 11832  6869 10895 11477  4208 5669 12573  8313 8315 11745  1396 1403 11753  6909 10882 12350  3800 11553 11751  7381 10078 12761  7676 11496 12949  6675 9704 11770  1938 1940 11608  7303 8474 13110  8040 10159 13023  7659 10272 12898  7220 9754 11907  8869 10396 11817  1549 1854 13111  5456 6647 11659  9564 9565 13039  8719 9569 12427  5440 5441 11664  8139 8140 11643  446 11328 12047  8009 8010 12844  6615 7612 12781  2007 11058 12391  147 676 11099  6397 6839 11687  4637 10556 11599  6512 11429 11824  6003 11303 12651  7377 7378 11921  5083 11542 11839  3691 11510 11765  7427 9225 13114  717 11321 11750  9464 10296 11502  6601 10817 11578  6078 7530 11711  2211 2213 11694  9220 10249 12811  4344 4667 11731  3970 10426 12831  6648 10751 11802  9645 9646 11648  2884 8533 12250  4598 8048 13072  4944 9033 12335  6866 7272 11631  7073 7120 11834  6185 11592 11730  9783 11407 11947  10410 11506 11805  10288 11471 12017  7502 11049 13055  3866 10091 11754  6840 7098 12653  2734 11399 12430  6754 8146 11787  6575 10836 12347  7052 7595 12659  3563 10417 12609  10320 11139 11983  7298 8969 12736  7373 11555 12148  7331 11646 11789  717 9837 11750  8091 11537 11826  7457 10168 12363  9868 11135 11729  8632 11990 12258  298 675 11512  26 11227 12146  6289 6290 12975  143 144 722  5076 10066 11669  10296 10903 11502  3819 11069 12203  6860 11565 11639  7332 11419 11874  1487 9513 12297  5557 11493 11760  5768 11714 11907  3990 9650 12570  7127 11377 11486  9248 9249 13103  585 11295 11945  7032 7556 12394  4056 11313 11423  6634 11249 12541  6780 11332 11860  2622 12889 13027  10362 10810 11497  7417 11089 11661  6372 8212 13018  4045 7046 11602  3467 12011 12409  6588 11693 11717  5076 11669 11890  1943 1983 11680  6514 11177 11717  6340 10587 12010  3184 4007 12762  7340 10480 12613  5444 9783 11947  7601 10564 12996  7711 10887 11837  5674 5675 12068  6828 10169 12273  8415 12322 12610  6191 10888 11560  6839 11687 11873  6163 7009 13018  6498 7928 11922  8772 8773 12674  9516 9518 12961  10135 12930 13139  239 240 11739  7046 10938 11602  4252 11514 11714  7491 11499 12254  9127 12347 12700  8517 12400 12881  3425 11886 12144  428 11329 12134  7974 10137 12542  5720 5824 12944  9173 11151 11601  1989 11608 11705  6497 10691 11577  10168 12363 12593  10718 11177 11727  1013 1015 11764  146 676 11100  5156 12654 13015  6714 6716 11656  7609 7611 11654  6426 10544 11775  8185 8426 12714  952 954 11759  10641 10996 12266  8855 8867 12051  2252 2788 11678  6886 11321 11750  6947 11064 11821  2350 7302 11719  2943 10397 12767  1288 9634 12352  7384 11986 12422  5075 8125 11710  9388 11669 11890  7705 10394 13143  670 10179 11641  6703 6989 11634  1459 2391 11684  6914 6917 11660  8098 12059 12621  8423 11014 12138  113 114 11943  1854 8235 12615  3254 3270 11767  764 7512 13107  6624 6908 11778  6862 11097 11652  7626 8434 11732  9409 9410 11796  6210 6554 11692  4098 10702 11646  2129 2137 13000  10038 10786 11628  8719 11474 11604  463 464 11763  9806 10233 11657  9312 9316 12773  6807 11883 11901  6648 10633 11802  6830 11875 12083  8422 11378 13151  6584 6623 11679  7499 11405 12579  4961 11167 13126  3369 8229 11688  4874 8113 12111  6676 7247 11705  3504 8431 12398  635 12717 13109  9981 11848 12482  4038 11314 11555  5452 7548 11675  4020 10719 12358  4837 9469 11685  4565 5404 11667  7295 11384 11658  6446 7090 11720  6280 11799 11869  6636 8053 11833  6227 6865 11851  7135 11359 11495  478 479 11768  742 10144 12069  371 743 11723  6908 7665 12945  8691 10531 11742  10197 10634 13013  5636 12117 12122  664 12359 12496  2557 2611 11718  7001 8114 12270  7041 11506 11805  6493 6848 11683  3990 9674 12423  8030 11276 12088  176 177 11910  8367 8507 12396  4886 10008 11820  1698 9012 12151  1947 1988 11785  6757 6981 11794  8395 10381 12885  7321 12052 12321  6788 8121 11829  4527 10231 11914  4258 4744 11724  7417 11661 12191  5213 5729 12748  9244 12397 12458  10020 10888 11560  5589 11650 11777  8911 11590 12441  7331 10496 11646  545 10169 12273  3642 3995 11850  7311 11123 11844  676 11099 12671  6681 7703 12181  6602 6972 11710  5411 10476 11622  702 11209 11856  2692 10407 11954  160 677 10949  7295 7692 11704  6455 6457 11713  5209 10829 13107  6706 9048 11716  8 680 11057  9427 11058 12584  6961 6962 11830  9518 12271 12961  7854 7855 11919  7412 7413 12082  8710 10830 12732  10191 10832 12486  8546 12516 12737  543 10803 11889  7367 7578 11701  5931 9253 12123  392 662 11738  6380 6874 11784  921 11345 12255  6752 9915 13016  5562 11620 11957  6713 9439 11958  2272 10967 11709  377 378 12569  1476 9563 13039  8565 12016 12395  2630 11503 11766  2884 8536 11823  8657 11292 12040  6695 10412 11682  3344 9036 13005  6991 8099 12030  2707 10423 12017  6497 11577 11886  7530 9549 13171  7789 11362 12668  6588 6589 11717  2933 10618 12412  5263 6412 11737  5329 7946 13175  6977 11475 12037  1482 10252 12984  6514 11647 11717  6983 11247 11644  7487 9943 13162  9788 11346 11668  5270 8595 12776  654 11128 12220  10374 10893 11951  6995 11440 11568  3895 10774 12418  4637 11599 11652  3519 9891 12895  5169 10739 13164  7624 11697 11822  10236 10237 12090  7179 11484 11630  8701 9835 11847  6283 11397 12012  1401 1411 11831  8049 11612 11853  6889 8526 11891  3795 12000 12200  664 11217 12727  1400 1409 11865  682 8484 13053  2943 2944 12383  6591 6593 11743  5600 7253 11722  4991 11177 11693  3150 10602 12740  4083 4085 11715  7183 11386 12474  9338 10545 11706  8811 10666 11894  6297 11026 11596  7454 11293 11815  7282 7283 11795  1225 1237 11887  9387 9388 11890  7097 7098 11968  6827 6828 12273  8309 11696 12841  10091 11754 11937  10384 11431 11832  4012 10620 11689  7114 7662 12419  8767 8768 12261  2897 8965 12590  742 12069 13144  6775 10825 12008  7624 10966 11697  1228 1229 11800  550 8192 12285  7240 11691 12078  4252 4398 11714  4060 10955 11588  398 663 11762  10692 11244 12001  8768 11938 13030  4309 4314 11749  1512 9339 12757  1062 1064 11878  1391 9184 12870  5062 11062 12361  10846 11068 11941  8767 9161 12086  3677 10408 12042  5356 11317 12136  7404 7405 12123  7632 12823 13001  9439 9440 11958  7429 7920 12463  9835 11497 12027  7525 12001 12634  1075 11948 12005  3867 10283 11729  8130 8774 11881  1860 1862 11752  3390 3395 11804  7623 7624 11756  1910 1912 11772  164 165 11001  631 8620 12029  8727 11594 11939  237 238 11846  6737 11126 11609  2062 10055 11826  3800 10158 11751  7403 9027 13148  597 11489 12140  9070 9071 11854  6830 6831 11875  9708 9709 11877  3305 3308 11909  5700 5701 12985  5176 9648 12929  6474 6477 11755  8716 10803 11889  3286 3304 12053  4059 10149 12728  6707 7168 11792  6599 7774 11810  5612 10880 11707  4269 10410 11805  3691 3693 11765  4922 12171 12768  3195 10904 12190  6964 8794 13043  10393 11501 12077  6547 11742 12864  7019 11365 12291  6379 6938 11761  8593 11335 12703  3467 11859 12011  6688 11636 11809  2118 8476 12810  6512 7564 11824  9511 9512 12556  495 496 11861  6517 9649 13047  5681 7196 13080  7003 7897 12306  6975 7556 11876  7486 9627 13123  10151 11618 11773  9822 9823 11783  6638 8231 13172  2272 11709 11980  6997 11429 11824  6532 8207 12676  9208 12281 12599  7185 11727 11790  8002 12009 12297  9309 11989 13077  7126 7190 11769  149 634 12509  4360 5636 11793  7356 11240 12994  7137 11284 12192  6053 9722 11811  581 12427 12876  7448 12164 12563  6816 11112 12871  4929 5312 12836  3962 3964 11797  4822 9200 11956  4369 6778 11927  4637 11097 11652  7123 10617 12504  1351 12333 12711  766 5209 13107  8046 12611 12974  5114 11810 12712  4903 10151 11773  7300 10787 12454  1073 1075 11948  8220 11050 11952  6746 7075 11964  6736 11555 12148  2162 8790 12362  4223 5044 11819  6588 10736 11693  2570 10209 11801  7797 7798 11903  1918 10546 11864  5560 6280 11869  10324 12619 12643  5589 5590 11777  4291 4293 11781  10025 10352 11744  6789 7031 11945  6579 6581 11807  4098 10570 11789  9184 11129 12588  4596 8272 13062  2916 2918 11959  2711 2713 11788  8019 10760 12376  10669 10955 11588  7345 9551 12969  7412 11816 12082  7331 7332 11789  7256 13017 13054  6885 9210 11949  6336 6858 11798  4253 10614 12577  7283 11572 11795  6933 12266 12377  6560 11495 12022  145 11100 11101  9303 11259 11806  2882 8483 12222  2727 2729 11782  9013 9837 11799  6514 11177 11727  6839 7097 11873  7393 11832 12042  7678 12772 12915  6538 11346 11668  7249 10538 12521  7583 11785 12028  1572 1574 11905  3289 11013 11702  5176 7145 13021  110 702 11856  1090 2882 12632  10055 11537 11826  1973 1976 12014  6688 8493 11809  564 11365 12291  5874 9339 12968  7182 10813 11712  7750 10373 13037  1112 12131 12188  7185 7186 11790  3492 5292 11842  10106 11031 11728  6555 11454 12130  7616 7756 11808  7293 11558 12473  4041 4043 12241  5254 11913 11996  6865 11851 12585  1876 1878 11828  4085 11715 11870  5101 8919 11994  6497 10529 11886  7427 9755 13114  6578 10608 12695  4701 10737 11776  6982 11813 12194  6885 11949 12097  8862 11345 12255  6692 6693 11855  9930 9931 12937  7185 10718 11727  8885 8886 12158  6623 11579 11679  10417 11476 12609  5176 10945 13021  10530 11431 11832  7379 10479 12859  3911 4952 11933  2947 12158 12383  5153 7139 11923  2978 2980 13153  8816 8885 12158  7426 11255 11878  5777 8239 12490  6645 11569 11845  4051 10735 12445  439 583 11852  527 725 12583  7376 8965 13089  3266 11494 11894  8073 12140 12359  7262 7263 11818  7114 8803 12419  4533 11915 12073  571 9027 13148  6189 10567 12195  6418 11985 12100  7446 7850 12926  815 817 11971  4533 9762 11915  11022 12695 13156  932 934 11895  6576 6667 11900  9567 11860 12462  5070 12148 12618  7147 7148 11992  7383 11482 12274  2886 11960 12031  411 412 11916  1141 11349 11617  5722 11162 12944  7041 7043 11805  6557 11629 11904  9512 11559 11850  8001 11677 12575  10735 12445 12591  7126 11700 11769  1976 10763 12014  4849 10784 12257  6718 6807 11901  7764 11442 11776  6901 11149 12909  9776 10905 11779  6549 11435 11735  9674 12133 12423  6930 11483 12298  9121 10030 12976  5917 9196 11977  6730 11754 11937  7700 11126 11609  6917 11660 11978  9589 11397 12012  302 303 12137  6992 8772 12918  8857 8867 12292  658 11151 12786  4978 10189 12606  8962 12407 12566  7311 8116 11844  5053 10705 11791  7255 9597 11980  7106 7181 11823  3645 12760 13069  7186 11216 12060  7398 11791 12054  6039 9084 12854  5700 10921 12399  9597 11709 11980  732 10078 12761  6623 11427 11579  1402 11831 12694  8436 10586 12845  7091 7092 11835  9727 10887 11837  4415 9650 12848  1478 10976 11816  1398 12172 12785  6791 11168 12796  4930 10104 11867  3990 12423 12570  6936 12178 12247  9471 11597 13058  4921 11556 12650  4045 11285 11602  7553 9567 12462  9826 12061 12324  6777 7837 11970  9232 9233 11857  406 543 11889  8431 11884 12398  7004 11843 13172  1254 10321 11848  3228 10557 11896  6578 11022 12695  4002 4087 11849  7118 8887 12917  6003 8989 12651  8500 8501 12036  7736 11820 12925  1075 1077 12005  1989 11876 12071  9347 9348 12882  6836 10072 11866  6366 10624 12743  8049 8051 11853  7710 9223 12981  6969 7426 12413  1347 1348 11940  8856 9435 12179  1900 1903 11858  6061 11697 11822  10737 11442 11776  7266 11708 13112  7572 12025 12110  6718 11901 11928  8568 11899 12178  3400 3402 11859  4832 6557 11904  12 10586 12708  6344 10725 11866  7449 11666 12646  7054 11211 11985  6848 11683 11932  5302 6200 11946  4269 11805 12025  5076 10329 11890  7920 7921 12840  2226 11877 12052  6589 11647 11962  2925 12375 12534  8366 9838 12095  2504 2506 12043  577 11672 12604  2897 9489 12590  519 577 11936  9356 10062 11862  5557 10926 11760  6837 6838 11931  5075 11710 11908  7087 7378 11960  9273 9275 11989  6571 6740 12003  2465 4049 11880  6492 11089 11661  668 10178 11840  6884 12190 12223  4346 10228 12128  8182 10039 11898  9914 11086 12746  3867 11729 12016  7472 12567 12643  7470 11303 12651  330 11430 12879  10494 11301 11673  2774 4495 11979  9977 12343 12512  6730 7246 11937  5703 6227 11851  7512 10829 13107  7485 11670 12002  5570 5651 11884  6681 9191 12181  7199 11956 12294  5873 8024 11998  1439 8609 12198  4085 4095 11870  4 5 11243  3164 3166 11892  6191 6891 11868  5098 10751 11802  301 683 12704  9297 9305 13133  629 9514 12044  2749 10349 12414  7393 10530 11832  1825 8757 12549  11733 11734 12260  8804 10052 12107  8175 11068 11941  3462 9701 12472  5524 8286 12135  1409 11642 11865  6558 11707 11879  7465 12096 12209  7152 11625 13049  6485 7068 11874  7137 10347 12192  4948 10678 12425  7965 9491 12172  7497 11766 12302  10083 10088 13154  7075 8464 12598  7017 7288 12403  1478 11816 12082  9241 11056 12176  7122 8192 12285  6780 7091 11860  7321 12321 12606  5088 10544 11775  2522 2531 11902  6501 7843 12932  6477 6479 11888  9170 9173 12201  10500 11806 11942  10093 11777 11976  4041 5317 12241  6718 10232 11928  8067 11626 12126  6549 11735 12023  4867 5264 11938  6477 11755 11888  6503 7739 12069  6346 11049 13055  10386 11073 12524  4283 10035 12324  6836 10425 12202  8923 11930 12166  5674 12068 12197  9579 11162 12944  485 486 11981  2200 10873 11813  7961 7964 11906  4087 10826 12687  4982 10567 13096  5404 11667 11983  2892 11725 12524  414 11532 12459  6955 6957 12342  736 8608 13024  7643 11863 12889  4851 10643 12147  5584 10811 11815  6858 11798 11953  2724 2757 12004  9165 12418 12745  7282 11795 11984  1447 10193 12417  5554 10891 11812  7702 8151 12147  9577 13017 13054  2885 8758 12428  11202 11363 11700  8025 8487 12102  8602 12073 12253  7425 7643 12531  7360 8604 12378  1239 12256 12801  6684 7324 11896  6612 11751 12039  1164 1172 11995  148 11099 12509  4966 11338 12374  9062 9063 11930  9590 9763 12000  7249 12521 12846  10107 10266 11975  8226 11152 13047  737 10105 11897  568 11674 12533  6661 6823 11920  2545 12591 12852  8891 11128 12220  3573 12238 12714  4930 11867 12009  6827 8713 12973  5251 7838 12098  6949 7809 12006  7657 9896 12386  8168 8169 11917  5317 8133 12241  7070 12127 12645  3462 9706 12723  4111 4533 12073  7 680 11309  1821 11895 12216  6184 7303 11918  561 11573 12851  10744 10840 12763  7087 11960 12031  5420 10685 11911  332 333 11991  8365 9668 12064  10546 11864 12237  6739 7394 11924  3935 10374 11871  10075 10076 12057  685 9241 12176  10028 10500 11942  7249 10561 12846  9701 12144 12472  7434 12088 12827  6904 6905 12062  1102 11419 11874  8053 11686 12426  6956 7918 11914  4186 10045 12127  5087 11518 11566  7657 7658 12665  3591 11550 12895  6912 6913 11944  7219 7220 11907  593 8205 12959  695 11540 11792  6570 11533 12293  2061 10227 12908  9634 9635 12465  6283 7080 12012  3051 10604 13092  9274 9276 12081  2856 8475 13143  5101 8795 12448  6938 11761 12024  8324 8326 12103  5251 12098 12249  7130 12054 12171  6274 7006 11925  1004 12334 12612  9709 11694 11877  8690 8691 12136  4351 9981 12482  6884 9775 12223  6482 9847 12938  9519 11248 12271  5254 8047 11996  7030 9505 12104  6940 8872 12112  7142 8682 12385  6851 7019 12291  2485 11259 11806  8804 12107 12382  10425 12202 12437  2602 11579 11679  8189 12821 13003  7030 12104 12206  1983 11564 11680  7383 7384 11986  302 683 12137  9870 10934 11883  6923 6925 11965  142 143 11733  6372 11051 13108  10162 11674 12533  8961 12696 12806  5390 8381 11966  7026 8645 12109  5630 7304 11955  7031 11295 11945  7484 7485 12002  5576 7036 11939  2239 12063 12159  6220 9798 12530  6972 11710 11908  7043 11805 12025  4316 4318 11961  712 11086 11821  6936 10721 12178  7475 9721 13141  9935 11928 12021  10236 10443 12090  10671 11589 11864  7218 11812 12356  7554 11111 12477  2854 2856 12091  5814 7380 12544  8477 12108 12666  6748 11726 12018  8901 12003 12293  4536 4538 11969  7264 9506 12896  3211 10091 11937  2630 11766 12302  7601 11829 12996  7156 12460 12574  10083 10089 13154  7546 10983 11803  445 446 12047  6708 10239 12038  8218 12251 12817  6955 6958 12342  625 10948 12532  6977 7191 12037  8166 8239 12490  2729 11782 12106  8207 10880 11879  6509 7544 12046  6589 6971 11962  3084 10590 12840  5254 10600 11913  7358 7903 11954  7274 11963 12259  6736 9878 12148  1060 1239 12120  5612 11707 12030  9750 9751 12011  10847 11384 12118  8616 8617 12170  7849 12429 13019  6672 7087 12031  3166 3168 11974  10570 11789 11972  8426 12238 12714  2678 8249 13161  4816 5190 12045  10116 12410 12639  5213 10989 12748  2546 8555 12168  2118 8474 13110  587 9526 12911  9274 12081 12208  7385 10130 13044  8858 8860 12161  7625 11994 12448  745 10153 12170  2565 2567 12143  5678 11438 12433  5562 6980 11957  6556 11301 11673  9017 9018 12169  7066 11592 11730  5018 11657 11968  6725 7482 11988  8293 8294 12361  3166 11892 11974  10872 11628 12125  595 12404 12581  752 9907 13025  2053 2239 12063  161 162 11950  6405 10124 12518  1482 12855 12984  3109 10596 13079  6396 7316 12598  9053 9742 12658  3392 3397 11987  787 12390 12442  7385 7386 13044  9427 12391 12511  4607 10570 11899  4087 10598 12687  4281 4283 12596  10423 12017 12318  5101 11994 12448  5482 9225 12561  5309 11451 13155  8758 12428 12557  9698 12139 12682  2849 10587 12010  5037 10986 11885  6752 10940 13016  1512 12575 12757  6808 6814 12023  7282 10251 11984  624 10135 12930  8922 8962 12407  6917 7055 11978  5264 8769 13030  7140 9752 12409  6949 12006 12187  5176 10945 12929  6647 11348 11929  7675 12390 12442  6884 8251 12190  3908 10501 13122  908 910 12129  7967 12666 12802  1112 8278 12887  6859 10945 13021  6943 6965 12149  1295 1296 12155  2889 8696 13036  6193 12538 12824  2284 12119 12442  7314 8274 13132  5814 10093 11976  2991 2993 12055  5094 9935 12021  2456 9528 13113  5564 10168 12593  2272 10354 11980  8789 9160 12183  7717 11613 12538  7404 11955 12123  7111 11120 12056  7656 7710 12981  1988 10441 12218  3970 12769 12955  7332 11789 11972  9221 11837 12811  728 11492 12884  4851 11546 12147  6122 12821 13003  589 9021 12555  5917 9324 12299  7077 11418 12205  6963 8797 12212  4524 5239 12114  6766 11499 12254  6994 10989 12748  7090 11720 12526  7784 11236 11934  4488 8585 12631  105 690 12263  10070 10740 12392  5612 10518 12030  300 11391 12704  7818 9151 12582  9673 12130 12770  5404 10320 11983  3209 4260 12085  1080 1090 12632  6748 8101 12018  5482 6998 12561  6885 7082 12097  6843 7637 12013  6961 11830 12962  6858 10944 11953  9650 12570 12848  8114 11591 12845  5056 10498 12833  6959 6990 12210  8273 9366 12182  4090 10919 12805  6748 11416 11726  7978 11518 11566  6974 6976 12034  3898 10350 13048  7276 11838 12049  6189 9984 12195  6481 6968 12015  6612 10170 12039  6390 10440 12080  4930 10188 12009  6991 12030 12332  8476 8477 12810  161 677 11950  6823 6825 12007  7205 10269 12328  4695 4696 12065  7304 7305 12032  5555 5556 12759  6771 7346 12026  6987 6988 12162  5356 10448 12136  3662 3665 12050  5826 7376 13089  6930 9560 12298  608 11236 11934  6284 12194 12355  542 11326 12611  5209 11107 11838  6859 11393 13021  8521 8568 12178  7465 8055 12209  8308 8311 12184  4954 5522 12154  4079 10846 11941  2051 11292 12040  3647 3678 12141  8073 11489 12140  9480 9482 12216  6969 10703 12413  7728 8733 12655  4044 4298 12041  5104 10890 11921  10529 11886 12144  10080 10081 12160  7500 8154 12397  7677 7678 12772  6998 11641 12059  2113 2138 12058  6919 8030 12088  9137 11934 12529  3641 3643 12033  8520 8521 12247  6852 7379 12859  6689 11927 12116  7285 8738 12581  7709 12560 12754  7572 11979 12487  6875 7675 12119  8760 10443 13122  656 11222 12519  6823 11920 12007  5014 12249 12351  7921 12840 12978  6938 7560 12024  6566 11487 12165  7028 8152 12177  9272 9274 12208  9692 11180 11771  8715 8716 13124  1863 1865 12174  6873 11497 12027  7247 11608 11705  690 9524 12213  2120 2123 12230  7582 7930 12028  6418 11336 11985  6925 11965 12099  5055 12841 13014  5014 5251 12249  9554 12653 13054  6921 10310 12092  6560 6945 12022  6256 11466 12079  9300 9303 12189  7533 9072 12663  3049 3051 13127  3479 8452 13138  3867 10284 12016  552 10137 12542  7126 11363 11700  7406 7407 12068  10069 10070 12392  7976 7978 12897  5255 6732 12101  652 8629 13059  3678 12064 12902  427 428 12134  7043 7045 12025  3904 10360 12020  9634 12352 12465  89 90 12345  5631 6256 12079  6589 11647 11717  6804 10279 12019  4386 4529 12048  5576 11594 11939  7465 10131 12096  9303 11942 12189  461 462 12140  6933 9084 12377  2062 11826 12718  7612 11740 12781  7187 10360 12389  5777 8201 12490  10075 12057 12310  2239 2281 12159  8670 12629 12906  7258 7259 12070  6935 6936 12084  983 8670 12629  4683 9134 12520  1288 1289 12240  5473 5487 12072  6711 9595 12349  7232 10288 12017  7807 11551 11993  26 27 12146  7030 7675 12206  7154 11535 12135  7216 10532 11997  6814 12021 12023  10406 11668 12093  908 12129 12289  7766 11776 12281  6398 7256 12094  1946 2002 12186  8123 11848 12482  6268 11149 12909  6417 7035 12067  3462 12472 12723  8749 8753 12995  8707 11202 11700  10116 10408 12410  10153 12170 13140  7650 7652 12548  5062 10893 11951  4752 10249 12811  5666 11481 13101  7027 11621 12667  4274 9535 12384  7055 11978 12133  8217 8218 12199  9535 12384 12506  8936 11508 12217  7343 8535 13139  6760 11952 12225  7016 9565 12316  2849 12010 12278  6529 9042 12317  6719 7299 12078  7219 11714 11907  7178 7808 12269  7730 8172 12537  7804 7805 12993  4874 12111 12461  7565 11316 12197  7739 12069 13144  3280 10416 12061  6794 8081 12075  2921 10324 12643  2768 4269 12110  7640 8279 12360  596 10844 13051  7353 12217 12911  5414 6994 12074  9165 10774 12418  614 9320 12344  7870 11778 12263  5534 5536 12066  9070 11854 12295  9742 12658 12661  7007 7455 12456  1576 1578 12207  1942 1944 12071  6390 7136 12080  6396 10883 11964  7130 10705 12054  9425 9427 12511  7304 11973 12032  1988 12028 12218  9071 11771 11854  3995 11559 11850  8477 12666 12802  2919 9770 12578  5238 6385 12113  6925 6927 12099  7931 10228 12128  6948 6949 12187  7629 7721 12510  5768 11970 12791  3733 9044 12406  9010 9511 12556  7017 7429 12264  1188 8685 12660  9341 12597 12599  1001 12316 12699  6204 10844 12783  7521 12275 12503  7026 12109 12809  8427 11056 12176  6745 8089 12175  6849 10692 12001  4531 5495 12087  6820 6822 12105  1114 1116 12156  7074 12332 12444  2944 2947 12383  166 167 11780  7774 12712 12837  9879 12355 12530  7258 11865 12070  2720 2722 12792  7221 9846 12832  5264 8769 13056  2442 2444 12089  6221 6223 13163  9400 9405 12303  2706 12202 12437  7193 8558 13084  6893 11654 13067  7181 11823 12250  7552 8486 12950  988 2891 12228  7393 10838 12042  10880 11707 11879  672 10182 12809  2616 2669 12242  9731 12302 12741  741 8535 13139  5367 12722 12765  8505 10763 12014  6920 11384 12118  2138 12753 12892  7294 12543 13032  7881 11726 12018  8065 8067 12126  6162 10825 12008  7336 8648 12831  9249 11653 13103  6887 12093 12333  564 9678 12291  5946 9587 13168  6418 7035 12100  7444 7850 12243  3240 7281 12300  7264 7698 12726  2729 2731 12106  7006 11925 12142  4094 4096 12185  10552 11248 12271  5936 9569 12296  11221 11228 12677  2991 12055 12193  596 10148 13051  10561 12846 13070  2641 12305 13113  7346 7593 12139  7595 12424 12659  7077 7226 12205  7272 11631 11963  7272 7274 11963  9272 12208 12445  6262 10392 12203  7407 12068 12197  2315 8212 12323  7261 9105 13092  7440 12296 12366  164 682 11001  5292 9344 12497  1110 1118 12188  6362 6364 13078  10076 10357 12124  1478 10280 12082  361 362 12219  1498 11732 12804  906 908 12289  2988 2991 12193  926 928 12221  6804 12019 12334  6992 7333 12918  8595 12468 12776  6946 8128 12256  9424 12232 12874  2479 2481 12145  6772 7593 12248  925 8560 12365  8521 12178 12247  4124 8732 12742  5813 10393 12077  4754 5191 12227  7174 7561 12675  6798 7040 12150  6760 11050 11952  4138 9404 13153  9719 11944 12245  6861 11565 13066  435 668 12875  9035 10265 12357  10666 11494 11894  6339 12452 12489  7176 7177 12338  404 666 12180  7124 7803 12488  7131 7132 12115  7987 7988 12177  107 601 12420  5075 11282 11908  7140 12409 12716  660 10019 12162  4457 8802 12634  8522 8523 12356  6564 11476 12609  4124 9609 12451  7930 12028 12218  639 9551 12969  5852 6174 12163  9707 11483 12298  2226 10858 12052  9583 9628 12308  3912 10423 12318  787 789 12390  7413 12082 12343  7055 7057 12133  8538 8539 12312  6363 7345 12304  6516 9039 13102  7368 7552 12480  2274 10765 12976  7191 12037 12568  9339 12757 12968  4364 11120 12056  1969 1971 12229  6945 12022 12164  9295 9528 12305  2002 12243 12640  7130 7830 12171  10518 12030 12332  526 527 12583  609 10136 12946  8857 8863 12282  4691 5353 12379  8099 11707 12030  6887 10406 12093  7720 12252 12456  6863 7886 12168  9420 9423 12185  7588 12267 12995  3326 5014 12351  3465 8868 12850  8308 12184 12471  6262 12203 12736  3460 4350 12152  2051 11077 12040  7204 12313 12731  4866 12455 12484  8893 8936 12217  7705 12091 13143  7482 11133 13166  9718 9719 12245  921 923 12255  7346 12053 12139  7335 11801 11893  7584 10864 12940  7116 12447 12803  9300 12189 12414  1804 8804 12382  6271 12522 12823  525 592 12251  2549 10434 12725  3590 10417 12204  6672 12031 12198  8297 10946 12787  7889 7890 12755  655 9359 12371  7086 12506 12580  2787 10717 12585  4701 10550 12281  8210 12345 13035  7626 11732 12804  5636 11459 12117  920 12457 12481  10705 11791 12054  7097 11657 11968  3912 10433 12616  5055 10488 13014  9457 12591 12852  6844 11258 11999  4204 4206 12153  8084 11405 12579  8177 9587 13168  381 382 12267  6945 7448 12164  8691 12136 12864  430 431 12268  4884 7382 12329  9546 9547 12369  6035 7227 12416  686 9245 12500  1006 3795 12200  6555 10251 12130  7225 9626 12523  2757 9631 13133  6941 11998 12951  476 477 12279  5209 10829 12819  3550 12209 12924  7232 12017 12318  4281 4828 12596  7339 12111 12461  7454 11293 12629  5813 12077 12313  7325 7326 12157  2545 10735 12591  2063 12206 12390  5185 10706 12166  7174 7747 12636  6844 11999 12945  5371 6883 12275  2565 12143 12843  4486 4488 12424  4456 9932 12363  9825 9826 12324  4698 10037 12173  7971 9871 12315  9271 9457 12591  5996 5997 12747  7325 12035 12157  7343 12930 13139  9465 9894 12453  4064 12138 12322  4351 10197 13013  6783 8738 12404  6999 9465 12443  494 735 12244  2929 2930 12252  6927 12099 12262  6678 7495 12348  6563 9673 12770  9381 9426 12584  11354 11932 11994  6162 12008 12508  5037 10924 12734  7340 12613 12842  9413 9417 12900  7188 7189 12401  8468 11540 11735  8523 11812 12356  6848 11354 11932  1447 11536 12417  7216 11814 11997  9273 11989 13077  8184 8185 13160  8001 8002 12297  6948 9948 12372  7491 7492 12358  8719 11474 12427  6339 9392 12452  7263 11596 12554  2884 11823 12250  753 10947 11967  4715 5626 12393  3687 10482 12933  6356 6358 13121  5436 6506 12301  7067 12108 12666  1573 1575 12211  6851 12291 13034  5936 12296 12366  6853 6855 12226  10360 11042 12389  7640 12360 12946  6576 11900 12369  920 922 12457  4866 5421 12455  7156 12574 12912  8080 11391 12132  677 10949 11836  7281 12300 12789  10725 11866 12202  685 9223 12981  7288 12403 12477  4828 12596 12657  5472 5486 12234  1039 12866 12919  9473 12772 12915  7587 9157 12638  1305 9630 12998  7037 12733 13031  9044 12406 12721  7458 8602 12253  7337 8031 12984  2612 11863 12889  9422 9425 12511  6782 11551 12628  2706 10725 12202  3987 6760 12225  5058 6409 12246  4215 8975 12997  2444 2446 12214  461 12140 12359  7737 10148 13051  7650 7651 12441  7125 9246 12619  4238 10847 12118  5929 8943 12698  4437 8968 12965  303 760 12137  7038 10480 12368  6842 10529 12144  7059 9812 12370  571 9026 13148  7930 7932 12218  7259 11976 12544  2444 12089 12214  1286 9943 13162  560 9323 12827  5936 7480 12366  3673 3675 12233  8178 11286 13158  6117 7065 12354  7223 8968 12965  5626 12393 12719  918 920 12481  8891 8892 12220  9641 9642 13098  3504 9125 12749  1985 1992 12231  4253 11825 12577  6862 11639 12744  2137 11496 12888  7140 7589 12716  2575 10054 12236  2780 2849 12278  7250 11258 11999  7073 11490 11834  141 142 761  7040 12150 12381  7341 7836 12367  9413 9414 12900  3479 10502 13138  7081 11348 11929  10717 11851 12585  772 774 12215  3466 4866 12484  7232 10749 12318  7425 10273 12272  9948 12372 12681  6989 11052 12522  5716 7049 12239  5273 5575 12600  5917 11977 12299  8738 12404 12581  6937 7768 12288  6927 8090 12262  3573 11638 12238  6879 6881 12276  8794 8795 13043  144 722 11101  7221 9775 12449  596 10844 12962  108 109 12340  9418 9419 12874  2452 2641 12364  8364 9839 12374  408 409 12326  4514 6269 12450  5968 7991 12686  9643 12257 12465  9271 9272 12445  8756 8758 12557  5161 5734 12265  7091 11860 12462  4456 12253 12363  6443 8012 13083  639 8899 12969  5891 8918 13125  8223 11885 12314  9298 9300 12414  5841 10247 12435  8489 12779 13162  5875 10552 12271  6233 10872 12125  3687 10116 12639  10082 10245 12235  9125 12749 12830  7287 12990 13120  7395 9031 13074  5083 11567 11839  4868 12039 12644  6836 11866 12202  6339 9236 12489  7643 11863 12531  7809 12006 12285  7032 7442 12394  2017 2032 13100  7299 12078 12362  7477 10784 12257  3344 9371 13005  7972 8382 12602  7196 7828 12595  1969 12229 12353  7070 7814 12518  8068 8073 12496  10898 12733 13031  8368 9810 12642  3695 3697 12286  7181 7726 12250  4371 12947 13170  8609 12031 12198  10075 10077 12310  7118 10865 12917  4359 9473 12772  8880 9496 12652  4828 10801 12657  1905 1907 12284  8419 8420 12439  5556 7369 12759  761 11733 12260  4064 10868 12138  6842 12144 12472  460 461 12359  6672 10647 12198  8584 11482 12274  2947 2948 12319  5875 12271 12961  9031 13074 13081  7292 7293 12473  7197 7828 12294  5569 5974 12337  1967 1969 12353  7083 7586 12546  9593 12729 13063  8306 8308 12471  1212 9342 13135  2872 8477 12802  5221 8993 12515  6817 12410 12639  2612 11432 11863  7107 7725 12405  1864 1866 12277  7061 8167 12440  9497 12990 13120  8877 8879 12558  9846 9847 13085  3467 10435 12409  9641 9643 12758  6563 11984 12770  752 10675 13025  7057 12133 12423  8617 12170 13140  3912 12318 12616  7589 12716 12867  4082 12223 12449  6883 12125 12275  9039 9040 12547  8932 9124 12782  4124 12451 12742  2246 2248 12290  9456 12947 13170  785 787 12442  5654 6401 12330  434 435 12875  4883 9593 12729  6890 10424 12756  6193 11372 12538  6802 10707 12222  4883 9592 12411  4840 10305 12282  7817 7818 12540  7657 12386 12665  8760 10443 13009  6 754 11309  7300 7392 12515  7765 9342 13135  11077 12040 12654  8932 12555 12782  378 599 12569  6968 12780 12807  6855 12226 12380  3217 9535 12506  9303 11806 11942  5308 6891 12274  9053 12658 12872  8168 10540 13068  7708 9664 12754  709 9713 12505  7493 8557 12766  1808 11590 12441  20 21 12387  7143 7440 12366  9678 12291 13034  7369 8759 13007  7125 12619 12643  596 10147 12962  7271 9993 12671  7497 10777 12302  6989 11356 12522  2720 2749 12792  4238 12118 12266  4450 6991 12444  7477 12352 12465  1519 10305 12292  3206 9559 12834  7305 12032 12238  9070 10014 12295  8528 12498 13065  7413 9584 12512  5849 10708 12806  6944 9397 12421  4082 10904 12223  6089 10170 12261  6587 11250 12314  4944 12283 12335  7486 9190 13123  3881 9185 12993  7556 12186 12394  6887 10476 12333  5376 6284 12355  6367 7352 12527  8292 9340 12861  568 9483 12533  4985 6172 13130  7009 12323 13018  7745 11330 11982  10340 10343 12388  3978 10546 12237  9311 9312 12773  7354 7899 13093  685 12176 12981  10200 10678 12425  7336 12831 12855  6827 12273 12973  9932 12363 12593  5825 5901 12478  9266 9456 12947  732 11728 12761  1879 1881 12339  611 9494 12667  641 8967 13040  4351 12482 13013  7238 7239 12514  7014 7968 12329  165 166 755  6948 12187 12372  7704 13101 13146  8240 9152 13066  469 470 12432  6284 10873 12194  809 811 12560  4182 9127 12700  1575 12211 12327  3363 3365 12649  9033 10250 12350  4701 11776 12281  510 511 12436  10408 12042 12410  2748 10704 12613  5928 12710 12738  7138 11148 12958  3732 3733 12625  8173 12753 12892  4415 9255 12972  6123 9228 12904  10471 10926 12121  7169 7171 12519  8632 10970 12258  1774 1777 12346  1854 11277 12615  7125 7472 12643  5928 8917 12738  830 9497 12990  7290 12693 12775  4959 9927 12443  4226 4404 12325  1575 1577 12327  11427 11579 12035  6139 7395 12934  1054 1468 12562  7096 12365 12706  4740 9032 12605  7624 11756 11822  3978 12237 12521  5451 7547 12421  7499 7500 12458  7769 11773 12415  7296 7297 12734  8209 8912 12764  9565 12491 13039  7250 12283 12335  9547 11900 12369  3607 3973 12647  3219 9577 13017  4959 12443 12453  6842 10524 12472  4238 10641 12266  5973 9166 12648  2386 11107 12049  9931 11607 12301  589 8932 12555  300 301 12704  2137 12652 13000  8960 8962 12566  7290 8931 12775  7354 8173 12892  413 414 12459  7487 8489 13162  9556 12786 13046  10433 12616 12838  10448 12136 12864  3895 10324 12619  1755 7290 12693  7040 7042 12381  7004 7339 12461  7676 12935 12949  6382 11228 12677  748 11083 13023  3675 12233 12507  670 12059 12621  7476 7477 12352  7817 7819 12752  196 197 13064  6924 12588 12870  4959 9973 12453  5927 5928 12710  3697 12286 12492  7511 10561 13070  6855 6857 12380  5974 12337 12469  6999 9923 12513  9403 9404 12692  7035 10479 12859  5996 8654 12747  733 10057 12592  2162 12078 12362  8942 9167 13060  9359 12371 12702  4064 10775 12322  6517 11152 13047  594 11194 13103  8646 11326 12611  4978 12606 12977  7474 12508 12883  553 10126 12474  7037 7519 12733  6804 10697 12334  6186 7956 12541  5813 10752 12313  9931 11958 12937  7171 11222 12519  7739 8636 13144  10284 12016 12395  7786 12489 12529  7719 9556 12786  2119 2872 12853  7002 10350 13048  6909 7250 12335  5181 5678 12433  8065 12126 12614  7246 12085 12386  10226 12412 12571  3625 3627 12373  10069 10326 12392  7113 7596 12552  1880 1882 12402  9927 12443 12513  7341 12367 12494  2248 12290 12470  2004 2007 12391  6916 10455 12525  7180 9411 13076  10200 12425 12720  4008 13127 13156  9296 9305 12550  7307 9843 12633  7746 11982 13174  2984 2986 12464  7292 12473 12559  7285 8608 13024  9751 11859 12011  1955 2012 12553  9775 12223 12449  3978 10539 12521  9465 12443 12453  2810 8989 12691  4937 9532 12574  6732 11947 12101  3271 11142 13088  8919 11354 11994  1918 11589 11864  8370 9795 13116  7278 12309 12819  993 1476 12491  7404 11955 11973  1503 9664 12754  9808 10280 12343  5626 9083 12719  4457 12001 12634  3998 10812 12264  8672 8673 12920  10840 12549 12763  10280 12082 12343  6994 12075 12748  7299 7392 12362  5185 11930 12166  1375 9044 12721  7115 7663 12447  2891 12027 12228  7286 7879 12769  7665 11999 12945  9104 9105 12735  4313 4315 12446  6135 6136 12460  5974 8110 12469  1219 1220 12479  4929 6139 12836  9297 9631 13133  7026 8043 12809  2732 2769 12430  6957 12342 12682  9932 9933 12593  6203 7567 12715  7515 8443 12881  1522 1533 12434  1398 9474 12537  9120 9121 12626  6427 8274 13132  1098 1103 12790  8549 9098 12905  6890 10425 12437  10424 12756 12992  5341 11263 13009  7064 11372 12538  7437 7438 12822  3563 10457 12609  9359 9360 12702  1907 12284 12587  4920 4921 12650  7336 7337 12855  148 149 12509  701 9137 12529  4494 12471 12624  7057 7347 12423  1367 12865 13052  3314 9125 12830  3460 12152 13082  9055 9057 12744  9316 12364 12773  10209 11801 11893  7732 11060 12417  5653 5670 12429  1881 12339 12565  7134 12551 12678  5377 7422 12495  7191 7717 12568  11803 12920 12970  7325 11427 12035  5495 12087 12192  3930 9772 12623  341 342 12545  5449 7190 12499  7308 8278 12887  9271 12445 12591  816 818 12683  8436 11591 12845  6916 12245 12525  6924 10024 12588  7678 7763 12915  2171 10284 12395  7589 7591 12867  7180 9969 13076  7408 7410 12575  2889 12906 13036  8844 8848 12673  7844 12866 12919  2284 9927 12513  7595 7596 12485  5920 8148 12807  6121 6600 12543  1704 9471 13058  7312 7676 12935  581 11474 12427  722 11733 11734  9305 12004 13133  1100 1105 12536  10351 11004 12952  9103 9104 13156  6999 12443 12513  9347 9799 12882  10305 12282 12292  7241 10760 12376  8123 8124 12482  10926 11760 12121  8546 8547 12737  3646 3648 12466  9557 9558 12941  7327 7329 12709  6647 11659 12605  10226 10618 12412  7341 7342 12494  7291 8686 13029  5521 6888 13095  8942 12959 13060  6817 10838 12410  7090 7092 12526  4315 12446 12608  11086 12676 12746  2889 8670 12906  7844 7846 12866  8410 8413 12816  5611 7698 12796  2563 2565 12843  7567 8973 13011  6122 6123 13003  6220 9879 12530  7065 9755 13114  4883 12411 12729  2248 2253 12470  10873 11813 12194  6436 9438 13115  5778 5779 12594  6262 10304 12736  9563 9564 13039  3697 3699 12492  2706 10711 12437  7987 12331 12717  7223 7844 12919  8080 11391 12704  4616 5507 13050  7292 7878 12559  1512 11677 12575  7318 7374 12684  7381 9196 12761  8031 8032 12999  4922 7461 12988  6279 10858 12321  8517 8518 12938  10738 12852 12947  9164 9165 12745  5495 11284 12192  3109 8975 13079  517 518 12604  2981 2984 12564  8317 8319 12799  6980 9937 13118  5962 7857 12551  7326 9242 13161  197 13064 13136  4153 10090 12502  3319 3321 12768  2382 9929 12820  830 831 12785  1050 1052 12784  9578 9580 12795  1367 1368 12865  5520 6281 12705  5638 11376 12116  3894 10351 12952  6245 6246 12517  1439 12198 12468  6158 11556 13137  5786 10518 12332  7217 7218 12535  3258 3260 12475  4992 10191 12486  7347 12423 12570  2462 10317 12891  1056 1058 12801  650 9915 13016  7536 7539 12487  8060 13028 13149  2984 12464 12564  1792 11158 12808  387 388 12617  3675 3679 12507  112 604 12680  1001 11635 12349  4721 4723 13147  7333 9929 12820  7455 12456 12534  7625 10403 12448  7370 7958 12880  7736 7737 12783  9031 9139 13081  6965 12425 12720  5573 7294 12645  7069 10162 12533  2383 2864 12664  7561 12675 12746  7640 7641 12946  5359 7049 12493  7094 7681 12706  7343 7871 12930  4346 10089 13154  4853 9521 13150  1367 8949 13052  9104 13127 13156  9846 12832 13085  8317 12799 12899  8928 9061 13069  3998 12264 12463  8708 11579 12035  10032 10033 12849  7591 12867 13072  7686 12957 13096  755 11002 11695  7408 12575 12757  902 904 12828  10749 12318 12616  858 860 12826  8216 9411 12817  5856 6044 12797  3388 3464 12750  6224 8731 13119  10435 12409 12716  1346 9487 12589  7668 11481 13101  1533 1535 12528  7428 9507 12921  1039 10149 12866  9512 12141 12556  7688 8304 12841  3752 3754 12980  3385 10200 12720  7319 7842 12520  7460 11342 12196  3803 4458 12674  7193 10913 12287  7524 7972 12669  1881 1883 12565  2233 2235 13006  2926 2929 12534  9231 10021 13010  6834 7193 13084  4580 12571 12765  1732 1736 13134  7521 7522 12503  9740 9742 12661  7734 7735 12578  6162 7474 12508  1533 12434 12528  7064 11613 12538  8935 11455 12890  10030 10765 12976  7440 8277 12876  5734 12336 12539  10986 11885 12314  8148 12780 12807  6122 7237 12821  7688 12841 13014  551 11274 13140  9584 12512 12869  5656 8772 12918  996 998 12699  8314 8317 12899  7471 10787 12454  1504 8970 12994  10139 11459 12117  7321 10152 12606  9220 9221 12811  6318 8007 12948  7281 9917 12789  2545 10738 12852  5750 11303 12254  7725 12596 12657  5832 9152 12798  4315 4317 12608  6587 10986 12314  7407 11316 12197  7213 7373 12618  3817 9577 13054  10251 12130 12770  6609 7682 12888  4237 12403 12477  7567 12715 13011  10150 12919 12965  7330 7353 12911  4582 8452 13157  2171 12395 12793  5714 11042 12389  7329 10730 13088  4007 10726 12400  9152 12798 13066  9801 9802 12794  425 426 12688  6993 9648 12929  4580 10226 12571  4499 10491 12987  6308 6627 12670  670 11641 12059  7347 7349 12570  8060 8062 13028  2922 2925 12567  469 12432 12894  3627 12373 12760  741 10135 13139  6779 7686 12957  3998 10590 12463  6516 10761 13102  5833 6753 12579  4490 4492 12712  10838 12042 12410  7937 8060 13149  11107 11838 12049  7287 7965 12990  4948 12149 12425  4237 10812 12403  4492 12712 12837  9730 9732 12877  1907 1909 12587  5468 12858 12953  5578 5580 12627  8857 12282 12292  319 594 12739  7857 12517 12551  805 807 13176  6600 10533 13032  8281 10921 12399  2654 11552 12958  1728 1730 13169  7013 12468 12776  373 551 12630  6383 10919 12805  7120 9901 13019  6400 9605 12844  1464 1483 13117  441 670 12621  8269 10381 12885  7686 8127 13096  458 459 12727  585 11945 12868  10314 10316 13165  8673 8675 12970  8568 11899 11972  7002 9843 13048  390 391 12732  10524 12472 12723  7504 10558 12662  3653 3708 12886  5538 5540 12572  8063 8065 12614  4208 4352 12573  7251 8244 12694  8286 12135 13045  3670 4494 12624  2929 12456 12534  433 544 12635  2678 9242 13161  5891 9239 12931  618 10053 12675  4418 10428 12867  10248 12756 12992  5275 13074 13081  7013 10647 12468  8414 8416 12963  12 13 12708  5734 10152 12539  4499 10433 12838  593 8942 12959  8766 8769 13030  7763 7765 13135  6366 10719 12586  3255 3257 12878  2162 11691 12078  7235 12616 12838  7462 8890 12967  5085 5468 12858  5965 10323 12540  6271 11052 12522  595 10125 12581  2017 2033 13100  4225 5243 13020  1495 1496 13167  10647 12198 12468  1609 2901 13158  5553 7086 12580  5923 7703 12871  9318 11399 12430  4082 10909 12449  9266 9457 12852  4370 10617 12504  10098 10261 12771  3545 3551 12873  7774 11081 12837  773 775 13178  5011 5819 12607  7152 10697 12612  2551 2553 12637  7184 7408 12757  748 10159 13023  3260 12475 12622  7985 7987 12717  4260 12386 12665  628 9549 13171  5699 10323 12582  10455 12525 12812  7751 7752 12600  7426 12120 12413  7433 7434 12601  376 745 12685  3598 10775 12610  8477 12108 12810  5732 6802 13166  5283 9556 13046  1948 1952 12640  6263 10397 12767  5944 7542 12803  7482 11988 13166  6965 8813 12720  7333 7479 12820  3260 3262 12622  2705 12869 13022  7322 7688 13014  7725 7726 12657  4985 7431 13130  1818 11487 12165  4269 12025 12110  3376 3378 12690  6132 7310 12724  9270 9273 13077  7259 11061 12544  7562 7564 13090  9194 11625 13049  7161 7163 12679  7228 7230 12672  5804 7269 12655  7965 12785 12990  7236 10761 13102  9414 9416 12900  1988 11785 12028  5388 9948 12681  7006 11561 12142  2099 2101 13177  7373 12148 12618  5822 12974 13097  2458 2520 12943  3399 3401 12689  6924 7642 12870  1420 1433 13038  7766 9341 12599  4492 7361 12837  7009 10418 12631  5965 12540 12752  5822 8046 12974  7816 11963 12259  6689 11538 12151  9829 10434 12725  8045 10836 12700  600 10830 13086  1771 10898 12733  7384 11397 12422  6576 11167 12369  9482 11895 12216  5468 6504 12953  5849 5850 12696  7429 12264 12463  7284 7789 12815  9127 11839 12347  7475 10728 13141  10539 12521 12846  7591 8048 13072  7763 12915 13135  4499 12838 12987  4346 12128 13154  5344 10439 12726  10077 10227 12908  1212 9473 12915  7789 12668 12815  7264 12726 12896  1559 10470 12703  2980 12692 13153  3930 11195 12623  6244 10996 12377  585 9702 12868  7304 11955 11973  3513 3515 12668  7695 10649 13145  5089 9721 13141  3304 12026 12053  5524 11535 12135  8803 11940 12419  2599 2630 12741  2030 2042 12986  5802 5803 12713  7850 12553 12926  618 12675 12746  7561 8207 12676  4418 12716 12867  7349 12570 12848  2715 2717 12707  7120 11834 12429  7443 7445 12730  11903 12273 12973  10570 11899 11972  8244 11831 12694  8205 11439 12959  7548 11675 13119  7623 11756 12972  394 545 12751  6840 7256 12653  6383 10540 13068  4580 5367 12765  329 330 12879  4818 6271 12823  4260 10208 12665  983 11740 12781  516 657 12835  6817 10816 12639  9930 10954 12937  5 754 11243  10812 12264 12403  830 12785 12990  7139 11277 12615  1292 9460 13008  1293 12426 12779  7446 7882 12926  7417 11561 12191  10476 12333 12711  2062 10767 12718  725 12199 12583  9487 12478 12589  553 11386 12474  5540 12572 12701  4961 10523 13126  9259 9456 13170  1950 10527 13070  7966 7967 12802  468 469 12894  5540 5542 12701  10858 12052 12321  5055 11696 12841  755 11001 11002  7163 12679 12856  595 11632 12404  5388 12681 12814  458 12727 12922  1219 12479 12898  7067 11730 12108  5365 5822 13097  1337 1338 12893  6362 6564 13078  7223 12919 12965  599 11558 12546  8286 9780 13045  1481 9593 13063  1808 10832 12548  7708 7709 12754  8133 11614 12241  6941 7594 12686  6501 10614 12577  6221 7298 13163  742 11623 13144  4818 10154 13001  2899 9497 13120  9266 12852 12947  2882 12288 12632  5312 12559 12836  3627 3629 12760  7044 7535 12813  6782 11573 12851  8073 12359 12496  3779 4334 13073  457 458 12922  40 41 12942  1287 1293 12779  9173 11936 12201  1806 11469 12514  7310 12724 12862  6383 12805 13068  690 11778 12263  560 12088 12827  10248 10711 12756  7469 11002 12476  7468 8484 13053  7817 12540 12752  6638 6639 13172  8191 10864 12940  3150 3152 12740  7855 12131 12188  3457 3459 12847  6356 6403 13121  3573 10240 12714  7052 10418 12659  12489 12529 12901  205 206 13061  7369 12759 13007  6838 11931 12747  407 543 12825  7138 11552 12958  5636 11793 12122  8167 12805 13068  7985 12717 13109  5836 7029 12925  9094 11908 12989  623 10130 13044  1039 10150 12919  82 83 13106  197 198 13136  9905 11596 12554  7445 12730 12913  5309 11424 13155  7529 11455 12890  5388 5621 12814  9053 9054 12872  7310 8116 12862  4493 7036 12800  7235 10749 12616  7955 7956 12850  4237 11111 12477  6193 8440 12824  5399 5837 12916  3184 3189 12762  9430 9431 13042  4400 4468 12791  5580 11294 12697  7235 7783 12838  8187 8188 12904  384 385 13002  7339 11591 12111  7732 11536 12417  4418 10435 12716  7791 11672 12604  5826 7167 13089  1475 2391 12927  10323 12540 12582  7163 7364 12856  7349 7623 12848  5837 12916 12991  3687 12639 12933  10697 12334 12612  6532 11086 12676  2156 2159 13004  545 11903 12751  2978 4138 13153  7067 11486 12666  7124 11375 12488  7013 7560 12776  7323 9584 12869  7535 12813 13041  4558 11164 12863  10060 10061 12851  474 475 13071  8126 8127 12998  1950 12846 13070  4090 12440 12805  7239 11469 12514  8449 11725 12524  2117 2121 12818  8449 11073 12524  7165 10524 12723  7184 12757 12968  7395 12934 13074  6968 7886 12780  6936 12084 12247  7213 12618 12954  4040 10704 12842  1007 1009 12955  1232 10624 12743  4371 10738 12947  5965 10337 12752  5891 12931 13125  2171 10282 12793  10775 12322 12610  8124 12482 13013  3051 12735 13092  4558 10338 12863  8138 8140 12808  8232 10424 12992  728 10018 12884  9084 12499 12854  6461 12687 12857  6139 12836 12934  7287 10843 13120  7500 12397 12458  5837 7912 12991  4008 10608 12695  7424 7643 13027  1884 1886 12923  7206 7579 12936  10428 12867 13072  5292 11842 12497  2612 2613 12889  7557 7559 13152  1821 12216 12774  3049 4008 13127  7289 13031 13150  3821 4084 12928  3198 11666 12646  143 722 11733  3649 3651 12902  7966 12802 12853  9421 9422 12971  7445 7447 12913  6159 7149 12903  2470 2472 12964  7037 9521 13031  7473 7875 13094  7017 12264 12403  6865 7538 12585  9521 13031 13150  5653 11834 12429  3198 11624 12646  7798 11903 12751  1979 1981 12907  10418 12631 12659  592 9969 13076  719 10053 12636  10125 12581 13024  7690 9917 13105  7364 12856 13033  9416 9418 12874  7841 11699 12326  9019 9022 13012  7149 12702 12903  7556 11876 12071  6890 12437 12756  9045 9678 13034  8074 11489 13131  3196 12832 13085  3517 3519 12895  7342 13138 13157  7266 10455 12812  10008 11820 12925  7346 12026 12053  8167 8168 13068  2426 2705 13022  7579 12936 13173  6506 11607 12301  753 11967 13145  7669 12654 13015  7966 7968 12853  764 766 13107  7535 7537 13041  6972 10241 12989  7946 10682 12982  4488 12631 12659  3541 3543 12924  730 10097 12910  6778 11927 12116  7362 10991 13118  4909 6354 12951  7418 8210 13035  6716 12498 13065  2255 2257 12960  7389 7391 12966  9778 11708 13112  7783 12838 12987  6461 7376 12857  7447 12913 13104  5875 10642 12961  611 11621 12667  1219 10256 12898  7982 7985 13109  7056 7058 13112  7072 11376 12431  8187 12904 13003  6819 11251 12602  7285 12581 13024  7364 7366 13033  7184 7706 12968  6958 12248 12342  4437 10150 12965  6401 11039 12829  8227 11615 13147  7326 8249 13161  6547 10448 12864  7643 12889 13027  654 9962 12914  7818 12540 12582  7783 7785 12987  7774 11810 12712  7156 7628 12912  7626 10875 12804  1959 10478 12860  7579 7581 13173  2025 11030 12971  592 12817 13076  7265 10816 12933  4428 5222 13129  7722 11051 13108  2899 10843 13120  2122 2125 12949  1950 10539 12846  566 10049 12996  5720 5722 12944  6461 10598 12687  5680 6705 13049  10252 10498 12833  7075 11964 12598  652 11662 13059  7151 8089 12997  8124 10634 13013  599 11558 12569  2257 12960 13159  3458 3460 13082  7525 7778 13026  7447 7883 13104  4849 10768 12758  3082 4923 12978  7213 7716 12954  2863 10248 12992  6289 7159 12975  7400 7415 12979  9259 10741 13170  7469 11002 12603  733 11571 12592  9411 12817 13076  2872 12802 12853  10403 12448 13043  7305 11638 12238  8152 12177 12331  2454 2456 13113  7878 10300 12934  7766 12281 12599  7218 12356 12535  7303 7959 13110  10711 12437 12756  7542 11774 12803  3898 12633 13048  2257 2334 13159  8187 8189 13003  6961 10844 12962  5169 5171 13164  8134 11164 12863  8795 12448 13043  5555 12388 12759  618 9914 12746  7806 10744 12763  5681 5690 13080  2129 2132 13000  3586 3593 13151  7819 12752 12939  600 11366 13086  4455 10337 12939  6844 7637 12945  6834 10805 13084  7593 12342 12682  6851 10940 13034  1549 1551 13111  7669 10395 13015  6163 6372 13018  7415 7740 13091  6237 10439 12896  736 10125 13024  7415 12979 13091  10949 11836 12983  7878 12836 12934  6123 12904 13003  10097 12910 13128  8185 12714 13160  4371 10741 13170  6346 8229 13055  7289 10672 13150  620 10097 13128  8452 13138 13157  3196 10909 12832  8475 10394 13143  7695 11967 13145  7669 11077 12654  2138 10487 12892  7620 7990 13075  7413 12343 12512  4818 12823 13001  10049 11829 12996  10053 12636 12675  5275 11300 13081  4283 12405 12596  9422 12511 12971  4908 10240 13160  6575 11567 12347  9045 10940 13034  5275 10300 13074  10343 12759 13007  10439 12726 12896  577 11936 12201  6436 11367 13115  586 11297 12620  8017 11825 12577  4598 10428 13072  7314 7957 13132  610 10782 12641  3908 12090 13122  6716 7655 13065  6970 11255 13075  7425 12272 12531  9440 10954 12937  551 10153 13140  6980 7362 13118  1212 12915 13135  3906 10343 13007  10337 12752 12939  7724 11836 13083  10240 12714 13160  6972 11908 12989  9891 11550 12895  9789 11656 12498  7546 11803 12970  7151 12997 13079  6964 10403 13043  9569 12296 12427  4986 10682 12982  716 10005 13174  4923 10865 12917  7611 11654 13067  9196 11728 12761  545 11903 12273  7261 10604 13092  7471 12454 12691  7120 12429 13019  4853 10672 13150  7289 10898 13031  5264 10804 13056  10752 12313 12731  722 11734 12320  9641 12758 13098  11376 12116 12431  8760 10501 13122  6998 12354 12561  7221 12449 12832  7222 11221 12677  10909 12449 12832  6778 12116 12431  5814 11976 12544  5997 11931 12747  8293 11951 12361  4887 10487 13093  6680 12076 12985  597 11489 13131  8763 10804 13056  7530 11711 13171  8154 12269 12397  9225 12561 13114  654 12220 12914  8138 11158 12808  2025 12511 12971  7342 10502 13138  10300 12934 13074  7584 12647 12940  1293 11686 12426  10816 12639 12933  7151 10596 13079  9823 11783 12697  2274 12626 12976  5701 6680 12985  5089 10728 13141  5209 11838 12819  1228 11800 12766  10088 12128 13154  6396 11964 12598  5056 10920 12999  9532 12460 12574  7354 12892 13093  4986 11220 12982  3051 12735 13127  6687 11722 12398  7263 11597 12554  6991 12332 12444  668 12212 12875  8975 12997 13079  3196 10907 13085  8716 12180 13124  8749 10863 12995  7250 11999 12283  9421 11030 12971  6615 11293 12781  4187 10768 13098  4822 11956 12294  10170 12039 12644  11001 11002 12476  7174 12636 12675  11567 11839 12347  5037 11885 12734  8171 11558 12569  7837 11970 12791  4495 11979 12487  2630 12302 12741  9493 11521 13057  8673 12920 12970  10487 12892 13093  10170 12261 12644  10768 12758 13098  7967 11486 12666  9061 12760 13069  7386 12576 13044  5062 11951 12361  2121 12818 12935  10649 11193 13145  8231 11843 13172  6903 11330 13099  7910 11424 13155  722 11101 12320  7122 12006 12285  7211 11773 12415  6658 11551 12628  7455 12375 12534  5683 11153 13029  7091 11835 12462  2549 12439 12725  6802 11133 13166  8284 12076 12985  8705 12265 12336  165 755 11001  6716 11656 12498  7134 11580 12678  3733 12406 12731  10443 12090 13122  1347 11940 12419  7675 12119 12442  8899 12304 12969  10152 12606 12977  8768 12261 12644  7717 12568 12824  2757 12004 13133  633 10286 13142  9156 11622 12711  7297 11885 12734  682 11001 12476  7978 11566 12897  3271 12709 13088  8024 11998 12951  4978 11436 12977  7987 12177 12331  10476 11622 12711  7540 11863 12531  142 761 11733  10005 11982 13174  10730 11142 13088  2748 12368 12613  5849 12696 12806  8078 11566 12897  4260 12085 12386  5729 12075 12748  8886 12158 12383  7368 12113 12480  5946 12745 13168  5734 12265 12336  9139 11300 13081  7525 12634 13026  2138 12058 12753  7098 11968 12483  7145 11393 13021  5944 12447 12803  7729 11367 13115  5989 7469 13146  7593 12248 12342  6385 12113 12480  10708 12566 12806  7035 12100 12859  1239 12120 12413  7593 12139 12682  753 11193 13145  6401 12330 12829  8636 11623 13144  7456 12196 13040  7675 12206 12390  2002 12186 12394  6965 12149 12425  10704 12613 12842  9021 12163 12555  2749 12550 12792  7178 12269 12397  2929 12252 12456  4488 12424 12659  7830 12171 12768  9668 12064 12902  166 755 11780  5264 11938 13030  6968 12015 12807  6172 12775 13130  10948 10949 12983  8691 11742 12864  7477 12257 12465  605 11521 13057  8628 11662 13059  755 11695 11780  7337 12855 12984  7302 11556 13137  3987 12225 12764  7256 12094 13017  7440 12296 12876  10077 12311 12908  9823 12627 12697  5732 11988 13166  3894 12552 12952  2856 12091 13143  3678 12141 12556  10719 12358 12586  7492 12358 12586  8218 12199 12583  1825 12549 12763  10045 12127 12645  7561 12676 12746  7065 12561 13114  7850 12243 12640  7236 12547 13102  10251 11984 12770  594 11653 13103  8055 12209 12924  682 12476 13053  6290 11803 12920  7278 11838 12819  9565 12316 12699  9440 11958 12937  7879 12769 12955  7552 12415 12950  7065 12354 12561  6819 12602 12669  7768 12288 12632  641 12196 13040  754 11309 12777  7302 11719 13137  7965 12172 12785  10480 12368 12613  8031 12833 12984  7725 12405 12596  9416 12232 12874  7972 12602 12669  7959 12108 12810  7797 11903 12973  592 12251 12817  6852 12100 12859  1112 12131 12887  7204 12406 12731  8128 12256 12801  925 12365 12706  8212 12323 13018  7167 12590 13089  8419 12439 12725  8797 12212 12875  10343 12388 12759  9528 12305 13113  754 11243 12778  2641 12364 12773  10740 12311 12908  2033 12880 13100  10152 12539 12977  5580 12627 12697  8167 12440 12805  7469 12603 13146  10948 12532 12983  4007 12400 12881  9305 12550 12792  8960 12566 12806  6564 12849 13078  759 12510 12778  754 12777 12778  7721 12510 12777  7190 12499 12854  9236 12489 12901  7345 12304 12969  7878 12559 12836  666 12180 13124  6403 12941 13121  7769 12415 12950  7298 12891 13163  701 12529 12901  12510 12777 12778  9460 12597 13008  2012 12553 12926  9207 12597 13008  9496 12652 13000  7596 12552 12952  8965 12590 13089  7342 12494 13157  623 12576 13044  10286 12467 13142  1476 12491 13039  3973 12647 12940  9121 12626 12976  6600 12543 13032  6523 12532 12983  7256 12653 13054  9039 12547 13102  7704 12603 13146  9843 12633 13048  10252 12833 12984  7737 12783 13051  10844 12783 13051  7618 12467 13142  7329 12709 13088  5690 12905 13080  716 12788 13174  4008 12695 13156  7746 12788 13174  9105 12735 13092  9104 12735 13127  9404 12692 13153  8931 12775 13130  10033 12849 13078  9164 12745 13168  9098 12905 13080  7958 12880 13100  1736 13091 13134  9558 12941 13121  10317 12891 13163  7740 13091 13134  0 4 11243  0 541 11243  1 140 761  1 141 761  2 167 11780  2 168 11780  3 304 760  3 305 760  </DataArray>
<DataArray  type="UInt32"  Name="offsets"  format="ascii">3 6 9 12 15 18 21 24 27 30 33 36 39 42 45 48 51 54 57 60 63 66 69 72 75 78 81 84 87 90 93 96 99 102 105 108 111 114 117 120 123 126 129 132 135 138 141 144 147 150 153 156 159 162 165 168 171 174 177 180 183 186 189 192 195 198 201 204 207 210 213 216 219 222 225 228 231 234 237 240 243 246 249 252 255 258 261 264 267 270 273 276 279 282 285 288 291 294 297 300 303 306 309 312 315 318 321 324 327 330 333 336 339 342 345 348 351 354 357 360 363 366 369 372 375 378 381 384 387 390 393 396 399 402 405 408 411 414 417 420 423 426 429 432 435 438 441 444 447 450 453 456 459 462 465 468 471 474 477 480 483 486 489 492 495 498 501 504 507 510 513 516 519 522 525 528 531 534 537 540 543 546 549 552 555 558 561 564 567 570 573 576 579 582 585 588 591 594 597 600 603 606 609 612 615 618 621 624 627 630 633 636 639 642 645 648 651 654 657 660 663 666 669 672 675 678 681 684 687 690 693 696 699 702 705 708 711 714 717 720 723 726 729 732 735 738 741 744 747 750 753 756 759 762 765 768 771 774 777 780 783 786 789 792 795 798 801 804 807 810 813 816 819 822 825 828 831 834 837 840 843 846 849 852 855 858 861 864 867 870 873 876 879 882 885 888 891 894 897 900 903 906 909 912 915 918 921 924 927 930 933 936 939 942 945 948 951 954 957 960 963 966 969 972 975 978 981 984 987 990 993 996 999 1002 1005 1008 1011 1014 1017 1020 1023 1026 1029 1032 1035 1038 1041 1044 1047 1050 1053 1056 1059 1062 1065 1068 1071 1074 1077 1080 1083 1086 1089 1092 1095 1098 1101 1104 1107 1110 1113 1116 1119 1122 1125 1128 1131 1134 1137 1140 1143 1146 1149 1152 1155 1158 1161 1164 1167 1170 1173 1176 1179 1182 1185 1188 1191 1194 1197 1200 1203 1206 1209 1212 1215 1218 1221 1224 1227 1230 1233 1236 1239 1242 1245 1248 1251 1254 1257 1260 1263 1266 1269 1272 1275 1278 1281 1284 1287 1290 1293 1296 1299 1302 1305 1308 1311 1314 1317 1320 1323 1326 1329 1332 1335 1338 1341 1344 1347 1350 1353 1356 1359 1362 1365 1368 1371 1374 1377 1380 1383 1386 1389 1392 1395 1398 1401 1404 1407 1410 1413 1416 1419 1422 1425 1428 1431 1434 1437 1440 1443 1446 1449 1452 1455 1458 1461 1464 1467 1470 1473 1476 1479 1482 1485 1488 1491 1494 1497 1500 1503 1506 1509 1512 1515 1518 1521 1524 1527 1530 1533 1536 1539 1542 1545 1548 1551 1554 1557 1560 1563 1566 1569 1572 1575 1578 1581 1584 1587 1590 1593 1596 1599 1602 1605 1608 1611 1614 1617 1620 1623 1626 1629 1632 1635 1638 1641 1644 1647 1650 1653 1656 1659 1662 1665 1668 1671 1674 1677 1680 1683 1686 1689 1692 1695 1698 1701 1704 1707 1710 1713 1716 1719 1722 1725 1728 1731 1734 1737 1740 1743 1746 1749 1752 1755 1758 1761 1764 1767 1770 1773 1776 1779 1782 1785 1788 1791 1794 1797 1800 1803 1806 1809 1812 1815 1818 1821 1824 1827 1830 1833 1836 1839 1842 1845 1848 1851 1854 1857 1860 1863 1866 1869 1872 1875 1878 1881 1884 1887 1890 1893 1896 1899 1902 1905 1908 1911 1914 1917 1920 1923 1926 1929 1932 1935 1938 1941 1944 1947 1950 1953 1956 1959 1962 1965 1968 1971 1974 1977 1980 1983 1986 1989 1992 1995 1998 2001 2004 2007 2010 2013 2016 2019 2022 2025 2028 2031 2034 2037 2040 2043 2046 2049 2052 2055 2058 2061 2064 2067 2070 2073 2076 2079 2082 2085 2088 2091 2094 2097 2100 2103 2106 2109 2112 2115 2118 2121 2124 2127 2130 2133 2136 2139 2142 2145 2148 2151 2154 2157 2160 2163 2166 2169 2172 2175 2178 2181 2184 2187 2190 2193 2196 2199 2202 2205 2208 2211 2214 2217 2220 2223 2226 2229 2232 2235 2238 2241 2244 2247 2250 2253 2256 2259 2262 2265 2268 2271 2274 2277 2280 2283 2286 2289 2292 2295 2298 2301 2304 2307 2310 2313 2316 2319 2322 2325 2328 2331 2334 2337 2340 2343 2346 2349 2352 2355 2358 2361 2364 2367 2370 2373 2376 2379 2382 2385 2388 2391 2394 2397 2400 2403 2406 2409 2412 2415 2418 2421 2424 2427 2430 2433 2436 2439 2442 2445 2448 2451 2454 2457 2460 2463 2466 2469 2472 2475 2478 2481 2484 2487 2490 2493 2496 2499 2502 2505 2508 2511 2514 2517 2520 2523 2526 2529 2532 2535 2538 2541 2544 2547 2550 2553 2556 2559 2562 2565 2568 2571 2574 2577 2580 2583 2586 2589 2592 2595 2598 2601 2604 2607 2610 2613 2616 2619 2622 2625 2628 2631 2634 2637 2640 2643 2646 2649 2652 2655 2658 2661 2664 2667 2670 2673 2676 2679 2682 2685 2688 2691 2694 2697 2700 2703 2706 2709 2712 2715 2718 2721 2724 2727 2730 2733 2736 2739 2742 2745 2748 2751 2754 2757 2760 2763 2766 2769 2772 2775 2778 2781 2784 2787 2790 2793 2796 2799 2802 2805 2808 2811 2814 2817 2820 2823 2826 2829 2832 2835 2838 2841 2844 2847 2850 2853 2856 2859 2862 2865 2868 2871 2874 2877 2880 2883 2886 2889 2892 2895 2898 2901 2904 2907 2910 2913 2916 2919 2922 2925 2928 2931 2934 2937 2940 2943 2946 2949 2952 2955 2958 2961 2964 2967 2970 2973 2976 2979 2982 2985 2988 2991 2994 2997 3000 3003 3006 3009 3012 3015 3018 3021 3024 3027 3030 3033 3036 3039 3042 3045 3048 3051 3054 3057 3060 3063 3066 3069 3072 3075 3078 3081 3084 3087 3090 3093 3096 3099 3102 3105 3108 3111 3114 3117 3120 3123 3126 3129 3132 3135 3138 3141 3144 3147 3150 3153 3156 3159 3162 3165 3168 3171 3174 3177 3180 3183 3186 3189 3192 3195 3198 3201 3204 3207 3210 3213 3216 3219 3222 3225 3228 3231 3234 3237 3240 3243 3246 3249 3252 3255 3258 3261 3264 3267 3270 3273 3276 3279 3282 3285 3288 3291 3294 3297 3300 3303 3306 3309 3312 3315 3318 3321 3324 3327 3330 3333 3336 3339 3342 3345 3348 3351 3354 3357 3360 3363 3366 3369 3372 3375 3378 3381 3384 3387 3390 3393 3396 3399 3402 3405 3408 3411 3414 3417 3420 3423 3426 3429 3432 3435 3438 3441 3444 3447 3450 3453 3456 3459 3462 3465 3468 3471 3474 3477 3480 3483 3486 3489 3492 3495 3498 3501 3504 3507 3510 3513 3516 3519 3522 3525 3528 3531 3534 3537 3540 3543 3546 3549 3552 3555 3558 3561 3564 3567 3570 3573 3576 3579 3582 3585 3588 3591 3594 3597 3600 3603 3606 3609 3612 3615 3618 3621 3624 3627 3630 3633 3636 3639 3642 3645 3648 3651 3654 3657 3660 3663 3666 3669 3672 3675 3678 3681 3684 3687 3690 3693 3696 3699 3702 3705 3708 3711 3714 3717 3720 3723 3726 3729 3732 3735 3738 3741 3744 3747 3750 3753 3756 3759 3762 3765 3768 3771 3774 3777 3780 3783 3786 3789 3792 3795 3798 3801 3804 3807 3810 3813 3816 3819 3822 3825 3828 3831 3834 3837 3840 3843 3846 3849 3852 3855 3858 3861 3864 3867 3870 3873 3876 3879 3882 3885 3888 3891 3894 3897 3900 3903 3906 3909 3912 3915 3918 3921 3924 3927 3930 3933 3936 3939 3942 3945 3948 3951 3954 3957 3960 3963 3966 3969 3972 3975 3978 3981 3984 3987 3990 3993 3996 3999 4002 4005 4008 4011 4014 4017 4020 4023 4026 4029 4032 4035 4038 4041 4044 4047 4050 4053 4056 4059 4062 4065 4068 4071 4074 4077 4080 4083 4086 4089 4092 4095 4098 4101 4104 4107 4110 4113 4116 4119 4122 4125 4128 4131 4134 4137 4140 4143 4146 4149 4152 4155 4158 4161 4164 4167 4170 4173 4176 4179 4182 4185 4188 4191 4194 4197 4200 4203 4206 4209 4212 4215 4218 4221 4224 4227 4230 4233 4236 4239 4242 4245 4248 4251 4254 4257 4260 4263 4266 4269 4272 4275 4278 4281 4284 4287 4290 4293 4296 4299 4302 4305 4308 4311 4314 4317 4320 4323 4326 4329 4332 4335 4338 4341 4344 4347 4350 4353 4356 4359 4362 4365 4368 4371 4374 4377 4380 4383 4386 4389 4392 4395 4398 4401 4404 4407 4410 4413 4416 4419 4422 4425 4428 4431 4434 4437 4440 4443 4446 4449 4452 4455 4458 4461 4464 4467 4470 4473 4476 4479 4482 4485 4488 4491 4494 4497 4500 4503 4506 4509 4512 4515 4518 4521 4524 4527 4530 4533 4536 4539 4542 4545 4548 4551 4554 4557 4560 4563 4566 4569 4572 4575 4578 4581 4584 4587 4590 4593 4596 4599 4602 4605 4608 4611 4614 4617 4620 4623 4626 4629 4632 4635 4638 4641 4644 4647 4650 4653 4656 4659 4662 4665 4668 4671 4674 4677 4680 4683 4686 4689 4692 4695 4698 4701 4704 4707 4710 4713 4716 4719 4722 4725 4728 4731 4734 4737 4740 4743 4746 4749 4752 4755 4758 4761 4764 4767 4770 4773 4776 4779 4782 4785 4788 4791 4794 4797 4800 4803 4806 4809 4812 4815 4818 4821 4824 4827 4830 4833 4836 4839 4842 4845 4848 4851 4854 4857 4860 4863 4866 4869 4872 4875 4878 4881 4884 4887 4890 4893 4896 4899 4902 4905 4908 4911 4914 4917 4920 4923 4926 4929 4932 4935 4938 4941 4944 4947 4950 4953 4956 4959 4962 4965 4968 4971 4974 4977 4980 4983 4986 4989 4992 4995 4998 5001 5004 5007 5010 5013 5016 5019 5022 5025 5028 5031 5034 5037 5040 5043 5046 5049 5052 5055 5058 5061 5064 5067 5070 5073 5076 5079 5082 5085 5088 5091 5094 5097 5100 5103 5106 5109 5112 5115 5118 5121 5124 5127 5130 5133 5136 5139 5142 5145 5148 5151 5154 5157 5160 5163 5166 5169 5172 5175 5178 5181 5184 5187 5190 5193 5196 5199 5202 5205 5208 5211 5214 5217 5220 5223 5226 5229 5232 5235 5238 5241 5244 5247 5250 5253 5256 5259 5262 5265 5268 5271 5274 5277 5280 5283 5286 5289 5292 5295 5298 5301 5304 5307 5310 5313 5316 5319 5322 5325 5328 5331 5334 5337 5340 5343 5346 5349 5352 5355 5358 5361 5364 5367 5370 5373 5376 5379 5382 5385 5388 5391 5394 5397 5400 5403 5406 5409 5412 5415 5418 5421 5424 5427 5430 5433 5436 5439 5442 5445 5448 5451 5454 5457 5460 5463 5466 5469 5472 5475 5478 5481 5484 5487 5490 5493 5496 5499 5502 5505 5508 5511 5514 5517 5520 5523 5526 5529 5532 5535 5538 5541 5544 5547 5550 5553 5556 5559 5562 5565 5568 5571 5574 5577 5580 5583 5586 5589 5592 5595 5598 5601 5604 5607 5610 5613 5616 5619 5622 5625 5628 5631 5634 5637 5640 5643 5646 5649 5652 5655 5658 5661 5664 5667 5670 5673 5676 5679 5682 5685 5688 5691 5694 5697 5700 5703 5706 5709 5712 5715 5718 5721 5724 5727 5730 5733 5736 5739 5742 5745 5748 5751 5754 5757 5760 5763 5766 5769 5772 5775 5778 5781 5784 5787 5790 5793 5796 5799 5802 5805 5808 5811 5814 5817 5820 5823 5826 5829 5832 5835 5838 5841 5844 5847 5850 5853 5856 5859 5862 5865 5868 5871 5874 5877 5880 5883 5886 5889 5892 5895 5898 5901 5904 5907 5910 5913 5916 5919 5922 5925 5928 5931 5934 5937 5940 5943 5946 5949 5952 5955 5958 5961 5964 5967 5970 5973 5976 5979 5982 5985 5988 5991 5994 5997 6000 6003 6006 6009 6012 6015 6018 6021 6024 6027 6030 6033 6036 6039 6042 6045 6048 6051 6054 6057 6060 6063 6066 6069 6072 6075 6078 6081 6084 6087 6090 6093 6096 6099 6102 6105 6108 6111 6114 6117 6120 6123 6126 6129 6132 6135 6138 6141 6144 6147 6150 6153 6156 6159 6162 6165 6168 6171 6174 6177 6180 6183 6186 6189 6192 6195 6198 6201 6204 6207 6210 6213 6216 6219 6222 6225 6228 6231 6234 6237 6240 6243 6246 6249 6252 6255 6258 6261 6264 6267 6270 6273 6276 6279 6282 6285 6288 6291 6294 6297 6300 6303 6306 6309 6312 6315 6318 6321 6324 6327 6330 6333 6336 6339 6342 6345 6348 6351 6354 6357 6360 6363 6366 6369 6372 6375 6378 6381 6384 6387 6390 6393 6396 6399 6402 6405 6408 6411 6414 6417 6420 6423 6426 6429 6432 6435 6438 6441 6444 6447 6450 6453 6456 6459 6462 6465 6468 6471 6474 6477 6480 6483 6486 6489 6492 6495 6498 6501 6504 6507 6510 6513 6516 6519 6522 6525 6528 6531 6534 6537 6540 6543 6546 6549 6552 6555 6558 6561 6564 6567 6570 6573 6576 6579 6582 6585 6588 6591 6594 6597 6600 6603 6606 6609 6612 6615 6618 6621 6624 6627 6630 6633 6636 6639 6642 6645 6648 6651 6654 6657 6660 6663 6666 6669 6672 6675 6678 6681 6684 6687 6690 6693 6696 6699 6702 6705 6708 6711 6714 6717 6720 6723 6726 6729 6732 6735 6738 6741 6744 6747 6750 6753 6756 6759 6762 6765 6768 6771 6774 6777 6780 6783 6786 6789 6792 6795 6798 6801 6804 6807 6810 6813 6816 6819 6822 6825 6828 6831 6834 6837 6840 6843 6846 6849 6852 6855 6858 6861 6864 6867 6870 6873 6876 6879 6882 6885 6888 6891 6894 6897 6900 6903 6906 6909 6912 6915 6918 6921 6924 6927 6930 6933 6936 6939 6942 6945 6948 6951 6954 6957 6960 6963 6966 6969 6972 6975 6978 6981 6984 6987 6990 6993 6996 6999 7002 7005 7008 7011 7014 7017 7020 7023 7026 7029 7032 7035 7038 7041 7044 7047 7050 7053 7056 7059 7062 7065 7068 7071 7074 7077 7080 7083 7086 7089 7092 7095 7098 7101 7104 7107 7110 7113 7116 7119 7122 7125 7128 7131 7134 7137 7140 7143 7146 7149 7152 7155 7158 7161 7164 7167 7170 7173 7176 7179 7182 7185 7188 7191 7194 7197 7200 7203 7206 7209 7212 7215 7218 7221 7224 7227 7230 7233 7236 7239 7242 7245 7248 7251 7254 7257 7260 7263 7266 7269 7272 7275 7278 7281 7284 7287 7290 7293 7296 7299 7302 7305 7308 7311 7314 7317 7320 7323 7326 7329 7332 7335 7338 7341 7344 7347 7350 7353 7356 7359 7362 7365 7368 7371 7374 7377 7380 7383 7386 7389 7392 7395 7398 7401 7404 7407 7410 7413 7416 7419 7422 7425 7428 7431 7434 7437 7440 7443 7446 7449 7452 7455 7458 7461 7464 7467 7470 7473 7476 7479 7482 7485 7488 7491 7494 7497 7500 7503 7506 7509 7512 7515 7518 7521 7524 7527 7530 7533 7536 7539 7542 7545 7548 7551 7554 7557 7560 7563 7566 7569 7572 7575 7578 7581 7584 7587 7590 7593 7596 7599 7602 7605 7608 7611 7614 7617 7620 7623 7626 7629 7632 7635 7638 7641 7644 7647 7650 7653 7656 7659 7662 7665 7668 7671 7674 7677 7680 7683 7686 7689 7692 7695 7698 7701 7704 7707 7710 7713 7716 7719 7722 7725 7728 7731 7734 7737 7740 7743 7746 7749 7752 7755 7758 7761 7764 7767 7770 7773 7776 7779 7782 7785 7788 7791 7794 7797 7800 7803 7806 7809 7812 7815 7818 7821 7824 7827 7830 7833 7836 7839 7842 7845 7848 7851 7854 7857 7860 7863 7866 7869 7872 7875 7878 7881 7884 7887 7890 7893 7896 7899 7902 7905 7908 7911 7914 7917 7920 7923 7926 7929 7932 7935 7938 7941 7944 7947 7950 7953 7956 7959 7962 7965 7968 7971 7974 7977 7980 7983 7986 7989 7992 7995 7998 8001 8004 8007 8010 8013 8016 8019 8022 8025 8028 8031 8034 8037 8040 8043 8046 8049 8052 8055 8058 8061 8064 8067 8070 8073 8076 8079 8082 8085 8088 8091 8094 8097 8100 8103 8106 8109 8112 8115 8118 8121 8124 8127 8130 8133 8136 8139 8142 8145 8148 8151 8154 8157 8160 8163 8166 8169 8172 8175 8178 8181 8184 8187 8190 8193 8196 8199 8202 8205 8208 8211 8214 8217 8220 8223 8226 8229 8232 8235 8238 8241 8244 8247 8250 8253 8256 8259 8262 8265 8268 8271 8274 8277 8280 8283 8286 8289 8292 8295 8298 8301 8304 8307 8310 8313 8316 8319 8322 8325 8328 8331 8334 8337 8340 8343 8346 8349 8352 8355 8358 8361 8364 8367 8370 8373 8376 8379 8382 8385 8388 8391 8394 8397 8400 8403 8406 8409 8412 8415 8418 8421 8424 8427 8430 8433 8436 8439 8442 8445 8448 8451 8454 8457 8460 8463 8466 8469 8472 8475 8478 8481 8484 8487 8490 8493 8496 8499 8502 8505 8508 8511 8514 8517 8520 8523 8526 8529 8532 8535 8538 8541 8544 8547 8550 8553 8556 8559 8562 8565 8568 8571 8574 8577 8580 8583 8586 8589 8592 8595 8598 8601 8604 8607 8610 8613 8616 8619 8622 8625 8628 8631 8634 8637 8640 8643 8646 8649 8652 8655 8658 8661 8664 8667 8670 8673 8676 8679 8682 8685 8688 8691 8694 8697 8700 8703 8706 8709 8712 8715 8718 8721 8724 8727 8730 8733 8736 8739 8742 8745 8748 8751 8754 8757 8760 8763 8766 8769 8772 8775 8778 8781 8784 8787 8790 8793 8796 8799 8802 8805 8808 8811 8814 8817 8820 8823 8826 8829 8832 8835 8838 8841 8844 8847 8850 8853 8856 8859 8862 8865 8868 8871 8874 8877 8880 8883 8886 8889 8892 8895 8898 8901 8904 8907 8910 8913 8916 8919 8922 8925 8928 8931 8934 8937 8940 8943 8946 8949 8952 8955 8958 8961 8964 8967 8970 8973 8976 8979 8982 8985 8988 8991 8994 8997 9000 9003 9006 9009 9012 9015 9018 9021 9024 9027 9030 9033 9036 9039 9042 9045 9048 9051 9054 9057 9060 9063 9066 9069 9072 9075 9078 9081 9084 9087 9090 9093 9096 9099 9102 9105 9108 9111 9114 9117 9120 9123 9126 9129 9132 9135 9138 9141 9144 9147 9150 9153 9156 9159 9162 9165 9168 9171 9174 9177 9180 9183 9186 9189 9192 9195 9198 9201 9204 9207 9210 9213 9216 9219 9222 9225 9228 9231 9234 9237 9240 9243 9246 9249 9252 9255 9258 9261 9264 9267 9270 9273 9276 9279 9282 9285 9288 9291 9294 9297 9300 9303 9306 9309 9312 9315 9318 9321 9324 9327 9330 9333 9336 9339 9342 9345 9348 9351 9354 9357 9360 9363 9366 9369 9372 9375 9378 9381 9384 9387 9390 9393 9396 9399 9402 9405 9408 9411 9414 9417 9420 9423 9426 9429 9432 9435 9438 9441 9444 9447 9450 9453 9456 9459 9462 9465 9468 9471 9474 9477 9480 9483 9486 9489 9492 9495 9498 9501 9504 9507 9510 9513 9516 9519 9522 9525 9528 9531 9534 9537 9540 9543 9546 9549 9552 9555 9558 9561 9564 9567 9570 9573 9576 9579 9582 9585 9588 9591 9594 9597 9600 9603 9606 9609 9612 9615 9618 9621 9624 9627 9630 9633 9636 9639 9642 9645 9648 9651 9654 9657 9660 9663 9666 9669 9672 9675 9678 9681 9684 9687 9690 9693 9696 9699 9702 9705 9708 9711 9714 9717 9720 9723 9726 9729 9732 9735 9738 9741 9744 9747 9750 9753 9756 9759 9762 9765 9768 9771 9774 9777 9780 9783 9786 9789 9792 9795 9798 9801 9804 9807 9810 9813 9816 9819 9822 9825 9828 9831 9834 9837 9840 9843 9846 9849 9852 9855 9858 9861 9864 9867 9870 9873 9876 9879 9882 9885 9888 9891 9894 9897 9900 9903 9906 9909 9912 9915 9918 9921 9924 9927 9930 9933 9936 9939 9942 9945 9948 9951 9954 9957 9960 9963 9966 9969 9972 9975 9978 9981 9984 9987 9990 9993 9996 9999 10002 10005 10008 10011 10014 10017 10020 10023 10026 10029 10032 10035 10038 10041 10044 10047 10050 10053 10056 10059 10062 10065 10068 10071 10074 10077 10080 10083 10086 10089 10092 10095 10098 10101 10104 10107 10110 10113 10116 10119 10122 10125 10128 10131 10134 10137 10140 10143 10146 10149 10152 10155 10158 10161 10164 10167 10170 10173 10176 10179 10182 10185 10188 10191 10194 10197 10200 10203 10206 10209 10212 10215 10218 10221 10224 10227 10230 10233 10236 10239 10242 10245 10248 10251 10254 10257 10260 10263 10266 10269 10272 10275 10278 10281 10284 10287 10290 10293 10296 10299 10302 10305 10308 10311 10314 10317 10320 10323 10326 10329 10332 10335 10338 10341 10344 10347 10350 10353 10356 10359 10362 10365 10368 10371 10374 10377 10380 10383 10386 10389 10392 10395 10398 10401 10404 10407 10410 10413 10416 10419 10422 10425 10428 10431 10434 10437 10440 10443 10446 10449 10452 10455 10458 10461 10464 10467 10470 10473 10476 10479 10482 10485 10488 10491 10494 10497 10500 10503 10506 10509 10512 10515 10518 10521 10524 10527 10530 10533 10536 10539 10542 10545 10548 10551 10554 10557 10560 10563 10566 10569 10572 10575 10578 10581 10584 10587 10590 10593 10596 10599 10602 10605 10608 10611 10614 10617 10620 10623 10626 10629 10632 10635 10638 10641 10644 10647 10650 10653 10656 10659 10662 10665 10668 10671 10674 10677 10680 10683 10686 10689 10692 10695 10698 10701 10704 10707 10710 10713 10716 10719 10722 10725 10728 10731 10734 10737 10740 10743 10746 10749 10752 10755 10758 10761 10764 10767 10770 10773 10776 10779 10782 10785 10788 10791 10794 10797 10800 10803 10806 10809 10812 10815 10818 10821 10824 10827 10830 10833 10836 10839 10842 10845 10848 10851 10854 10857 10860 10863 10866 10869 10872 10875 10878 10881 10884 10887 10890 10893 10896 10899 10902 10905 10908 10911 10914 10917 10920 10923 10926 10929 10932 10935 10938 10941 10944 10947 10950 10953 10956 10959 10962 10965 10968 10971 10974 10977 10980 10983 10986 10989 10992 10995 10998 11001 11004 11007 11010 11013 11016 11019 11022 11025 11028 11031 11034 11037 11040 11043 11046 11049 11052 11055 11058 11061 11064 11067 11070 11073 11076 11079 11082 11085 11088 11091 11094 11097 11100 11103 11106 11109 11112 11115 11118 11121 11124 11127 11130 11133 11136 11139 11142 11145 11148 11151 11154 11157 11160 11163 11166 11169 11172 11175 11178 11181 11184 11187 11190 11193 11196 11199 11202 11205 11208 11211 11214 11217 11220 11223 11226 11229 11232 11235 11238 11241 11244 11247 11250 11253 11256 11259 11262 11265 11268 11271 11274 11277 11280 11283 11286 11289 11292 11295 11298 11301 11304 11307 11310 11313 11316 11319 11322 11325 11328 11331 11334 11337 11340 11343 11346 11349 11352 11355 11358 11361 11364 11367 11370 11373 11376 11379 11382 11385 11388 11391 11394 11397 11400 11403 11406 11409 11412 11415 11418 11421 11424 11427 11430 11433 11436 11439 11442 11445 11448 11451 11454 11457 11460 11463 11466 11469 11472 11475 11478 11481 11484 11487 11490 11493 11496 11499 11502 11505 11508 11511 11514 11517 11520 11523 11526 11529 11532 11535 11538 11541 11544 11547 11550 11553 11556 11559 11562 11565 11568 11571 11574 11577 11580 11583 11586 11589 11592 11595 11598 11601 11604 11607 11610 11613 11616 11619 11622 11625 11628 11631 11634 11637 11640 11643 11646 11649 11652 11655 11658 11661 11664 11667 11670 11673 11676 11679 11682 11685 11688 11691 11694 11697 11700 11703 11706 11709 11712 11715 11718 11721 11724 11727 11730 11733 11736 11739 11742 11745 11748 11751 11754 11757 11760 11763 11766 11769 11772 11775 11778 11781 11784 11787 11790 11793 11796 11799 11802 11805 11808 11811 11814 11817 11820 11823 11826 11829 11832 11835 11838 11841 11844 11847 11850 11853 11856 11859 11862 11865 11868 11871 11874 11877 11880 11883 11886 11889 11892 11895 11898 11901 11904 11907 11910 11913 11916 11919 11922 11925 11928 11931 11934 11937 11940 11943 11946 11949 11952 11955 11958 11961 11964 11967 11970 11973 11976 11979 11982 11985 11988 11991 11994 11997 12000 12003 12006 12009 12012 12015 12018 12021 12024 12027 12030 12033 12036 12039 12042 12045 12048 12051 12054 12057 12060 12063 12066 12069 12072 12075 12078 12081 12084 12087 12090 12093 12096 12099 12102 12105 12108 12111 12114 12117 12120 12123 12126 12129 12132 12135 12138 12141 12144 12147 12150 12153 12156 12159 12162 12165 12168 12171 12174 12177 12180 12183 12186 12189 12192 12195 12198 12201 12204 12207 12210 12213 12216 12219 12222 12225 12228 12231 12234 12237 12240 12243 12246 12249 12252 12255 12258 12261 12264 12267 12270 12273 12276 12279 12282 12285 12288 12291 12294 12297 12300 12303 12306 12309 12312 12315 12318 12321 12324 12327 12330 12333 12336 12339 12342 12345 12348 12351 12354 12357 12360 12363 12366 12369 12372 12375 12378 12381 12384 12387 12390 12393 12396 12399 12402 12405 12408 12411 12414 12417 12420 12423 12426 12429 12432 12435 12438 12441 12444 12447 12450 12453 12456 12459 12462 12465 12468 12471 12474 12477 12480 12483 12486 12489 12492 12495 12498 12501 12504 12507 12510 12513 12516 12519 12522 12525 12528 12531 12534 12537 12540 12543 12546 12549 12552 12555 12558 12561 12564 12567 12570 12573 12576 12579 12582 12585 12588 12591 12594 12597 12600 12603 12606 12609 12612 12615 12618 12621 12624 12627 12630 12633 12636 12639 12642 12645 12648 12651 12654 12657 12660 12663 12666 12669 12672 12675 12678 12681 12684 12687 12690 12693 12696 12699 12702 12705 12708 12711 12714 12717 12720 12723 12726 12729 12732 12735 12738 12741 12744 12747 12750 12753 12756 12759 12762 12765 12768 12771 12774 12777 12780 12783 12786 12789 12792 12795 12798 12801 12804 12807 12810 12813 12816 12819 12822 12825 12828 12831 12834 12837 12840 12843 12846 12849 12852 12855 12858 12861 12864 12867 12870 12873 12876 12879 12882 12885 12888 12891 12894 12897 12900 12903 12906 12909 12912 12915 12918 12921 12924 12927 12930 12933 12936 12939 12942 12945 12948 12951 12954 12957 12960 12963 12966 12969 12972 12975 12978 12981 12984 12987 12990 12993 12996 12999 13002 13005 13008 13011 13014 13017 13020 13023 13026 13029 13032 13035 13038 13041 13044 13047 13050 13053 13056 13059 13062 13065 13068 13071 13074 13077 13080 13083 13086 13089 13092 13095 13098 13101 13104 13107 13110 13113 13116 13119 13122 13125 13128 13131 13134 13137 13140 13143 13146 13149 13152 13155 13158 13161 13164 13167 13170 13173 13176 13179 13182 13185 13188 13191 13194 13197 13200 13203 13206 13209 13212 13215 13218 13221 13224 13227 13230 13233 13236 13239 13242 13245 13248 13251 13254 13257 13260 13263 13266 13269 13272 13275 13278 13281 13284 13287 13290 13293 13296 13299 13302 13305 13308 13311 13314 13317 13320 13323 13326 13329 13332 13335 13338 13341 13344 13347 13350 13353 13356 13359 13362 13365 13368 13371 13374 13377 13380 13383 13386 13389 13392 13395 13398 13401 13404 13407 13410 13413 13416 13419 13422 13425 13428 13431 13434 13437 13440 13443 13446 13449 13452 13455 13458 13461 13464 13467 13470 13473 13476 13479 13482 13485 13488 13491 13494 13497 13500 13503 13506 13509 13512 13515 13518 13521 13524 13527 13530 13533 13536 13539 13542 13545 13548 13551 13554 13557 13560 13563 13566 13569 13572 13575 13578 13581 13584 13587 13590 13593 13596 13599 13602 13605 13608 13611 13614 13617 13620 13623 13626 13629 13632 13635 13638 13641 13644 13647 13650 13653 13656 13659 13662 13665 13668 13671 13674 13677 13680 13683 13686 13689 13692 13695 13698 13701 13704 13707 13710 13713 13716 13719 13722 13725 13728 13731 13734 13737 13740 13743 13746 13749 13752 13755 13758 13761 13764 13767 13770 13773 13776 13779 13782 13785 13788 13791 13794 13797 13800 13803 13806 13809 13812 13815 13818 13821 13824 13827 13830 13833 13836 13839 13842 13845 13848 13851 13854 13857 13860 13863 13866 13869 13872 13875 13878 13881 13884 13887 13890 13893 13896 13899 13902 13905 13908 13911 13914 13917 13920 13923 13926 13929 13932 13935 13938 13941 13944 13947 13950 13953 13956 13959 13962 13965 13968 13971 13974 13977 13980 13983 13986 13989 13992 13995 13998 14001 14004 14007 14010 14013 14016 14019 14022 14025 14028 14031 14034 14037 14040 14043 14046 14049 14052 14055 14058 14061 14064 14067 14070 14073 14076 14079 14082 14085 14088 14091 14094 14097 14100 14103 14106 14109 14112 14115 14118 14121 14124 14127 14130 14133 14136 14139 14142 14145 14148 14151 14154 14157 14160 14163 14166 14169 14172 14175 14178 14181 14184 14187 14190 14193 14196 14199 14202 14205 14208 14211 14214 14217 14220 14223 14226 14229 14232 14235 14238 14241 14244 14247 14250 14253 14256 14259 14262 14265 14268 14271 14274 14277 14280 14283 14286 14289 14292 14295 14298 14301 14304 14307 14310 14313 14316 14319 14322 14325 14328 14331 14334 14337 14340 14343 14346 14349 14352 14355 14358 14361 14364 14367 14370 14373 14376 14379 14382 14385 14388 14391 14394 14397 14400 14403 14406 14409 14412 14415 14418 14421 14424 14427 14430 14433 14436 14439 14442 14445 14448 14451 14454 14457 14460 14463 14466 14469 14472 14475 14478 14481 14484 14487 14490 14493 14496 14499 14502 14505 14508 14511 14514 14517 14520 14523 14526 14529 14532 14535 14538 14541 14544 14547 14550 14553 14556 14559 14562 14565 14568 14571 14574 14577 14580 14583 14586 14589 14592 14595 14598 14601 14604 14607 14610 14613 14616 14619 14622 14625 14628 14631 14634 14637 14640 14643 14646 14649 14652 14655 14658 14661 14664 14667 14670 14673 14676 14679 14682 14685 14688 14691 14694 14697 14700 14703 14706 14709 14712 14715 14718 14721 14724 14727 14730 14733 14736 14739 14742 14745 14748 14751 14754 14757 14760 14763 14766 14769 14772 14775 14778 14781 14784 14787 14790 14793 14796 14799 14802 14805 14808 14811 14814 14817 14820 14823 14826 14829 14832 14835 14838 14841 14844 14847 14850 14853 14856 14859 14862 14865 14868 14871 14874 14877 14880 14883 14886 14889 14892 14895 14898 14901 14904 14907 14910 14913 14916 14919 14922 14925 14928 14931 14934 14937 14940 14943 14946 14949 14952 14955 14958 14961 14964 14967 14970 14973 14976 14979 14982 14985 14988 14991 14994 14997 15000 15003 15006 15009 15012 15015 15018 15021 15024 15027 15030 15033 15036 15039 15042 15045 15048 15051 15054 15057 15060 15063 15066 15069 15072 15075 15078 15081 15084 15087 15090 15093 15096 15099 15102 15105 15108 15111 15114 15117 15120 15123 15126 15129 15132 15135 15138 15141 15144 15147 15150 15153 15156 15159 15162 15165 15168 15171 15174 15177 15180 15183 15186 15189 15192 15195 15198 15201 15204 15207 15210 15213 15216 15219 15222 15225 15228 15231 15234 15237 15240 15243 15246 15249 15252 15255 15258 15261 15264 15267 15270 15273 15276 15279 15282 15285 15288 15291 15294 15297 15300 15303 15306 15309 15312 15315 15318 15321 15324 15327 15330 15333 15336 15339 15342 15345 15348 15351 15354 15357 15360 15363 15366 15369 15372 15375 15378 15381 15384 15387 15390 15393 15396 15399 15402 15405 15408 15411 15414 15417 15420 15423 15426 15429 15432 15435 15438 15441 15444 15447 15450 15453 15456 15459 15462 15465 15468 15471 15474 15477 15480 15483 15486 15489 15492 15495 15498 15501 15504 15507 15510 15513 15516 15519 15522 15525 15528 15531 15534 15537 15540 15543 15546 15549 15552 15555 15558 15561 15564 15567 15570 15573 15576 15579 15582 15585 15588 15591 15594 15597 15600 15603 15606 15609 15612 15615 15618 15621 15624 15627 15630 15633 15636 15639 15642 15645 15648 15651 15654 15657 15660 15663 15666 15669 15672 15675 15678 15681 15684 15687 15690 15693 15696 15699 15702 15705 15708 15711 15714 15717 15720 15723 15726 15729 15732 15735 15738 15741 15744 15747 15750 15753 15756 15759 15762 15765 15768 15771 15774 15777 15780 15783 15786 15789 15792 15795 15798 15801 15804 15807 15810 15813 15816 15819 15822 15825 15828 15831 15834 15837 15840 15843 15846 15849 15852 15855 15858 15861 15864 15867 15870 15873 15876 15879 15882 15885 15888 15891 15894 15897 15900 15903 15906 15909 15912 15915 15918 15921 15924 15927 15930 15933 15936 15939 15942 15945 15948 15951 15954 15957 15960 15963 15966 15969 15972 15975 15978 15981 15984 15987 15990 15993 15996 15999 16002 16005 16008 16011 16014 16017 16020 16023 16026 16029 16032 16035 16038 16041 16044 16047 16050 16053 16056 16059 16062 16065 16068 16071 16074 16077 16080 16083 16086 16089 16092 16095 16098 16101 16104 16107 16110 16113 16116 16119 16122 16125 16128 16131 16134 16137 16140 16143 16146 16149 16152 16155 16158 16161 16164 16167 16170 16173 16176 16179 16182 16185 16188 16191 16194 16197 16200 16203 16206 16209 16212 16215 16218 16221 16224 16227 16230 16233 16236 16239 16242 16245 16248 16251 16254 16257 16260 16263 16266 16269 16272 16275 16278 16281 16284 16287 16290 16293 16296 16299 16302 16305 16308 16311 16314 16317 16320 16323 16326 16329 16332 16335 16338 16341 16344 16347 16350 16353 16356 16359 16362 16365 16368 16371 16374 16377 16380 16383 16386 16389 16392 16395 16398 16401 16404 16407 16410 16413 16416 16419 16422 16425 16428 16431 16434 16437 16440 16443 16446 16449 16452 16455 16458 16461 16464 16467 16470 16473 16476 16479 16482 16485 16488 16491 16494 16497 16500 16503 16506 16509 16512 16515 16518 16521 16524 16527 16530 16533 16536 16539 16542 16545 16548 16551 16554 16557 16560 16563 16566 16569 16572 16575 16578 16581 16584 16587 16590 16593 16596 16599 16602 16605 16608 16611 16614 16617 16620 16623 16626 16629 16632 16635 16638 16641 16644 16647 16650 16653 16656 16659 16662 16665 16668 16671 16674 16677 16680 16683 16686 16689 16692 16695 16698 16701 16704 16707 16710 16713 16716 16719 16722 16725 16728 16731 16734 16737 16740 16743 16746 16749 16752 16755 16758 16761 16764 16767 16770 16773 16776 16779 16782 16785 16788 16791 16794 16797 16800 16803 16806 16809 16812 16815 16818 16821 16824 16827 16830 16833 16836 16839 16842 16845 16848 16851 16854 16857 16860 16863 16866 16869 16872 16875 16878 16881 16884 16887 16890 16893 16896 16899 16902 16905 16908 16911 16914 16917 16920 16923 16926 16929 16932 16935 16938 16941 16944 16947 16950 16953 16956 16959 16962 16965 16968 16971 16974 16977 16980 16983 16986 16989 16992 16995 16998 17001 17004 17007 17010 17013 17016 17019 17022 17025 17028 17031 17034 17037 17040 17043 17046 17049 17052 17055 17058 17061 17064 17067 17070 17073 17076 17079 17082 17085 17088 17091 17094 17097 17100 17103 17106 17109 17112 17115 17118 17121 17124 17127 17130 17133 17136 17139 17142 17145 17148 17151 17154 17157 17160 17163 17166 17169 17172 17175 17178 17181 17184 17187 17190 17193 17196 17199 17202 17205 17208 17211 17214 17217 17220 17223 17226 17229 17232 17235 17238 17241 17244 17247 17250 17253 17256 17259 17262 17265 17268 17271 17274 17277 17280 17283 17286 17289 17292 17295 17298 17301 17304 17307 17310 17313 17316 17319 17322 17325 17328 17331 17334 17337 17340 17343 17346 17349 17352 17355 17358 17361 17364 17367 17370 17373 17376 17379 17382 17385 17388 17391 17394 17397 17400 17403 17406 17409 17412 17415 17418 17421 17424 17427 17430 17433 17436 17439 17442 17445 17448 17451 17454 17457 17460 17463 17466 17469 17472 17475 17478 17481 17484 17487 17490 17493 17496 17499 17502 17505 17508 17511 17514 17517 17520 17523 17526 17529 17532 17535 17538 17541 17544 17547 17550 17553 17556 17559 17562 17565 17568 17571 17574 17577 17580 17583 17586 17589 17592 17595 17598 17601 17604 17607 17610 17613 17616 17619 17622 17625 17628 17631 17634 17637 17640 17643 17646 17649 17652 17655 17658 17661 17664 17667 17670 17673 17676 17679 17682 17685 17688 17691 17694 17697 17700 17703 17706 17709 17712 17715 17718 17721 17724 17727 17730 17733 17736 17739 17742 17745 17748 17751 17754 17757 17760 17763 17766 17769 17772 17775 17778 17781 17784 17787 17790 17793 17796 17799 17802 17805 17808 17811 17814 17817 17820 17823 17826 17829 17832 17835 17838 17841 17844 17847 17850 17853 17856 17859 17862 17865 17868 17871 17874 17877 17880 17883 17886 17889 17892 17895 17898 17901 17904 17907 17910 17913 17916 17919 17922 17925 17928 17931 17934 17937 17940 17943 17946 17949 17952 17955 17958 17961 17964 17967 17970 17973 17976 17979 17982 17985 17988 17991 17994 17997 18000 18003 18006 18009 18012 18015 18018 18021 18024 18027 18030 18033 18036 18039 18042 18045 18048 18051 18054 18057 18060 18063 18066 18069 18072 18075 18078 18081 18084 18087 18090 18093 18096 18099 18102 18105 18108 18111 18114 18117 18120 18123 18126 18129 18132 18135 18138 18141 18144 18147 18150 18153 18156 18159 18162 18165 18168 18171 18174 18177 18180 18183 18186 18189 18192 18195 18198 18201 18204 18207 18210 18213 18216 18219 18222 18225 18228 18231 18234 18237 18240 18243 18246 18249 18252 18255 18258 18261 18264 18267 18270 18273 18276 18279 18282 18285 18288 18291 18294 18297 18300 18303 18306 18309 18312 18315 18318 18321 18324 18327 18330 18333 18336 18339 18342 18345 18348 18351 18354 18357 18360 18363 18366 18369 18372 18375 18378 18381 18384 18387 18390 18393 18396 18399 18402 18405 18408 18411 18414 18417 18420 18423 18426 18429 18432 18435 18438 18441 18444 18447 18450 18453 18456 18459 18462 18465 18468 18471 18474 18477 18480 18483 18486 18489 18492 18495 18498 18501 18504 18507 18510 18513 18516 18519 18522 18525 18528 18531 18534 18537 18540 18543 18546 18549 18552 18555 18558 18561 18564 18567 18570 18573 18576 18579 18582 18585 18588 18591 18594 18597 18600 18603 18606 18609 18612 18615 18618 18621 18624 18627 18630 18633 18636 18639 18642 18645 18648 18651 18654 18657 18660 18663 18666 18669 18672 18675 18678 18681 18684 18687 18690 18693 18696 18699 18702 18705 18708 18711 18714 18717 18720 18723 18726 18729 18732 18735 18738 18741 18744 18747 18750 18753 18756 18759 18762 18765 18768 18771 18774 18777 18780 18783 18786 18789 18792 18795 18798 18801 18804 18807 18810 18813 18816 18819 18822 18825 18828 18831 18834 18837 18840 18843 18846 18849 18852 18855 18858 18861 18864 18867 18870 18873 18876 18879 18882 18885 18888 18891 18894 18897 18900 18903 18906 18909 18912 18915 18918 18921 18924 18927 18930 18933 18936 18939 18942 18945 18948 18951 18954 18957 18960 18963 18966 18969 18972 18975 18978 18981 18984 18987 18990 18993 18996 18999 19002 19005 19008 19011 19014 19017 19020 19023 19026 19029 19032 19035 19038 19041 19044 19047 19050 19053 19056 19059 19062 19065 19068 19071 19074 19077 19080 19083 19086 19089 19092 19095 19098 19101 19104 19107 19110 19113 19116 19119 19122 19125 19128 19131 19134 19137 19140 19143 19146 19149 19152 19155 19158 19161 19164 19167 19170 19173 19176 19179 19182 19185 19188 19191 19194 19197 19200 19203 19206 19209 19212 19215 19218 19221 19224 19227 19230 19233 19236 19239 19242 19245 19248 19251 19254 19257 19260 19263 19266 19269 19272 19275 19278 19281 19284 19287 19290 19293 19296 19299 19302 19305 19308 19311 19314 19317 19320 19323 19326 19329 19332 19335 19338 19341 19344 19347 19350 19353 19356 19359 19362 19365 19368 19371 19374 19377 19380 19383 19386 19389 19392 19395 19398 19401 19404 19407 19410 19413 19416 19419 19422 19425 19428 19431 19434 19437 19440 19443 19446 19449 19452 19455 19458 19461 19464 19467 19470 19473 19476 19479 19482 19485 19488 19491 19494 19497 19500 19503 19506 19509 19512 19515 19518 19521 19524 19527 19530 19533 19536 19539 19542 19545 19548 19551 19554 19557 19560 19563 19566 19569 19572 19575 19578 19581 19584 19587 19590 19593 19596 19599 19602 19605 19608 19611 19614 19617 19620 19623 19626 19629 19632 19635 19638 19641 19644 19647 19650 19653 19656 19659 19662 19665 19668 19671 19674 19677 19680 19683 19686 19689 19692 19695 19698 19701 19704 19707 19710 19713 19716 19719 19722 19725 19728 19731 19734 19737 19740 19743 19746 19749 19752 19755 19758 19761 19764 19767 19770 19773 19776 19779 19782 19785 19788 19791 19794 19797 19800 19803 19806 19809 19812 19815 19818 19821 19824 19827 19830 19833 19836 19839 19842 19845 19848 19851 19854 19857 19860 19863 19866 19869 19872 19875 19878 19881 19884 19887 19890 19893 19896 19899 19902 19905 19908 19911 19914 19917 19920 19923 19926 19929 19932 19935 19938 19941 19944 19947 19950 19953 19956 19959 19962 19965 19968 19971 19974 19977 19980 19983 19986 19989 19992 19995 19998 20001 20004 20007 20010 20013 20016 20019 20022 20025 20028 20031 20034 20037 20040 20043 20046 20049 20052 20055 20058 20061 20064 20067 20070 20073 20076 20079 20082 20085 20088 20091 20094 20097 20100 20103 20106 20109 20112 20115 20118 20121 20124 20127 20130 20133 20136 20139 20142 20145 20148 20151 20154 20157 20160 20163 20166 20169 20172 20175 20178 20181 20184 20187 20190 20193 20196 20199 20202 20205 20208 20211 20214 20217 20220 20223 20226 20229 20232 20235 20238 20241 20244 20247 20250 20253 20256 20259 20262 20265 20268 20271 20274 20277 20280 20283 20286 20289 20292 20295 20298 20301 20304 20307 20310 20313 20316 20319 20322 20325 20328 20331 20334 20337 20340 20343 20346 20349 20352 20355 20358 20361 20364 20367 20370 20373 20376 20379 20382 20385 20388 20391 20394 20397 20400 20403 20406 20409 20412 20415 20418 20421 20424 20427 20430 20433 20436 20439 20442 20445 20448 20451 20454 20457 20460 20463 20466 20469 20472 20475 20478 20481 20484 20487 20490 20493 20496 20499 20502 20505 20508 20511 20514 20517 20520 20523 20526 20529 20532 20535 20538 20541 20544 20547 20550 20553 20556 20559 20562 20565 20568 20571 20574 20577 20580 20583 20586 20589 20592 20595 20598 20601 20604 20607 20610 20613 20616 20619 20622 20625 20628 20631 20634 20637 20640 20643 20646 20649 20652 20655 20658 20661 20664 20667 20670 20673 20676 20679 20682 20685 20688 20691 20694 20697 20700 20703 20706 20709 20712 20715 20718 20721 20724 20727 20730 20733 20736 20739 20742 20745 20748 20751 20754 20757 20760 20763 20766 20769 20772 20775 20778 20781 20784 20787 20790 20793 20796 20799 20802 20805 20808 20811 20814 20817 20820 20823 20826 20829 20832 20835 20838 20841 20844 20847 20850 20853 20856 20859 20862 20865 20868 20871 20874 20877 20880 20883 20886 20889 20892 20895 20898 20901 20904 20907 20910 20913 20916 20919 20922 20925 20928 20931 20934 20937 20940 20943 20946 20949 20952 20955 20958 20961 20964 20967 20970 20973 20976 20979 20982 20985 20988 20991 20994 20997 21000 21003 21006 21009 21012 21015 21018 21021 21024 21027 21030 21033 21036 21039 21042 21045 21048 21051 21054 21057 21060 21063 21066 21069 21072 21075 21078 21081 21084 21087 21090 21093 21096 21099 21102 21105 21108 21111 21114 21117 21120 21123 21126 21129 21132 21135 21138 21141 21144 21147 21150 21153 21156 21159 21162 21165 21168 21171 21174 21177 21180 21183 21186 21189 21192 21195 21198 21201 21204 21207 21210 21213 21216 21219 21222 21225 21228 21231 21234 21237 21240 21243 21246 21249 21252 21255 21258 21261 21264 21267 21270 21273 21276 21279 21282 21285 21288 21291 21294 21297 21300 21303 21306 21309 21312 21315 21318 21321 21324 21327 21330 21333 21336 21339 21342 21345 21348 21351 21354 21357 21360 21363 21366 21369 21372 21375 21378 21381 21384 21387 21390 21393 21396 21399 21402 21405 21408 21411 21414 21417 21420 21423 21426 21429 21432 21435 21438 21441 21444 21447 21450 21453 21456 21459 21462 21465 21468 21471 21474 21477 21480 21483 21486 21489 21492 21495 21498 21501 21504 21507 21510 21513 21516 21519 21522 21525 21528 21531 21534 21537 21540 21543 21546 21549 21552 21555 21558 21561 21564 21567 21570 21573 21576 21579 21582 21585 21588 21591 21594 21597 21600 21603 21606 21609 21612 21615 21618 21621 21624 21627 21630 21633 21636 21639 21642 21645 21648 21651 21654 21657 21660 21663 21666 21669 21672 21675 21678 21681 21684 21687 21690 21693 21696 21699 21702 21705 21708 21711 21714 21717 21720 21723 21726 21729 21732 21735 21738 21741 21744 21747 21750 21753 21756 21759 21762 21765 21768 21771 21774 21777 21780 21783 21786 21789 21792 21795 21798 21801 21804 21807 21810 21813 21816 21819 21822 21825 21828 21831 21834 21837 21840 21843 21846 21849 21852 21855 21858 21861 21864 21867 21870 21873 21876 21879 21882 21885 21888 21891 21894 21897 21900 21903 21906 21909 21912 21915 21918 21921 21924 21927 21930 21933 21936 21939 21942 21945 21948 21951 21954 21957 21960 21963 21966 21969 21972 21975 21978 21981 21984 21987 21990 21993 21996 21999 22002 22005 22008 22011 22014 22017 22020 22023 22026 22029 22032 22035 22038 22041 22044 22047 22050 22053 22056 22059 22062 22065 22068 22071 22074 22077 22080 22083 22086 22089 22092 22095 22098 22101 22104 22107 22110 22113 22116 22119 22122 22125 22128 22131 22134 22137 22140 22143 22146 22149 22152 22155 22158 22161 22164 22167 22170 22173 22176 22179 22182 22185 22188 22191 22194 22197 22200 22203 22206 22209 22212 22215 22218 22221 22224 22227 22230 22233 22236 22239 22242 22245 22248 22251 22254 22257 22260 22263 22266 22269 22272 22275 22278 22281 22284 22287 22290 22293 22296 22299 22302 22305 22308 22311 22314 22317 22320 22323 22326 22329 22332 22335 22338 22341 22344 22347 22350 22353 22356 22359 22362 22365 22368 22371 22374 22377 22380 22383 22386 22389 22392 22395 22398 22401 22404 22407 22410 22413 22416 22419 22422 22425 22428 22431 22434 22437 22440 22443 22446 22449 22452 22455 22458 22461 22464 22467 22470 22473 22476 22479 22482 22485 22488 22491 22494 22497 22500 22503 22506 22509 22512 22515 22518 22521 22524 22527 22530 22533 22536 22539 22542 22545 22548 22551 22554 22557 22560 22563 22566 22569 22572 22575 22578 22581 22584 22587 22590 22593 22596 22599 22602 22605 22608 22611 22614 22617 22620 22623 22626 22629 22632 22635 22638 22641 22644 22647 22650 22653 22656 22659 22662 22665 22668 22671 22674 22677 22680 22683 22686 22689 22692 22695 22698 22701 22704 22707 22710 22713 22716 22719 22722 22725 22728 22731 22734 22737 22740 22743 22746 22749 22752 22755 22758 22761 22764 22767 22770 22773 22776 22779 22782 22785 22788 22791 22794 22797 22800 22803 22806 22809 22812 22815 22818 22821 22824 22827 22830 22833 22836 22839 22842 22845 22848 22851 22854 22857 22860 22863 22866 22869 22872 22875 22878 22881 22884 22887 22890 22893 22896 22899 22902 22905 22908 22911 22914 22917 22920 22923 22926 22929 22932 22935 22938 22941 22944 22947 22950 22953 22956 22959 22962 22965 22968 22971 22974 22977 22980 22983 22986 22989 22992 22995 22998 23001 23004 23007 23010 23013 23016 23019 23022 23025 23028 23031 23034 23037 23040 23043 23046 23049 23052 23055 23058 23061 23064 23067 23070 23073 23076 23079 23082 23085 23088 23091 23094 23097 23100 23103 23106 23109 23112 23115 23118 23121 23124 23127 23130 23133 23136 23139 23142 23145 23148 23151 23154 23157 23160 23163 23166 23169 23172 23175 23178 23181 23184 23187 23190 23193 23196 23199 23202 23205 23208 23211 23214 23217 23220 23223 23226 23229 23232 23235 23238 23241 23244 23247 23250 23253 23256 23259 23262 23265 23268 23271 23274 23277 23280 23283 23286 23289 23292 23295 23298 23301 23304 23307 23310 23313 23316 23319 23322 23325 23328 23331 23334 23337 23340 23343 23346 23349 23352 23355 23358 23361 23364 23367 23370 23373 23376 23379 23382 23385 23388 23391 23394 23397 23400 23403 23406 23409 23412 23415 23418 23421 23424 23427 23430 23433 23436 23439 23442 23445 23448 23451 23454 23457 23460 23463 23466 23469 23472 23475 23478 23481 23484 23487 23490 23493 23496 23499 23502 23505 23508 23511 23514 23517 23520 23523 23526 23529 23532 23535 23538 23541 23544 23547 23550 23553 23556 23559 23562 23565 23568 23571 23574 23577 23580 23583 23586 23589 23592 23595 23598 23601 23604 23607 23610 23613 23616 23619 23622 23625 23628 23631 23634 23637 23640 23643 23646 23649 23652 23655 23658 23661 23664 23667 23670 23673 23676 23679 23682 23685 23688 23691 23694 23697 23700 23703 23706 23709 23712 23715 23718 23721 23724 23727 23730 23733 23736 23739 23742 23745 23748 23751 23754 23757 23760 23763 23766 23769 23772 23775 23778 23781 23784 23787 23790 23793 23796 23799 23802 23805 23808 23811 23814 23817 23820 23823 23826 23829 23832 23835 23838 23841 23844 23847 23850 23853 23856 23859 23862 23865 23868 23871 23874 23877 23880 23883 23886 23889 23892 23895 23898 23901 23904 23907 23910 23913 23916 23919 23922 23925 23928 23931 23934 23937 23940 23943 23946 23949 23952 23955 23958 23961 23964 23967 23970 23973 23976 23979 23982 23985 23988 23991 23994 23997 24000 24003 24006 24009 24012 24015 24018 24021 24024 24027 24030 24033 24036 24039 24042 24045 24048 24051 24054 24057 24060 24063 24066 24069 24072 24075 24078 24081 24084 24087 24090 24093 24096 24099 24102 24105 24108 24111 24114 24117 24120 24123 24126 24129 24132 24135 24138 24141 24144 24147 24150 24153 24156 24159 24162 24165 24168 24171 24174 24177 24180 24183 24186 24189 24192 24195 24198 24201 24204 24207 24210 24213 24216 24219 24222 24225 24228 24231 24234 24237 24240 24243 24246 24249 24252 24255 24258 24261 24264 24267 24270 24273 24276 24279 24282 24285 24288 24291 24294 24297 24300 24303 24306 24309 24312 24315 24318 24321 24324 24327 24330 24333 24336 24339 24342 24345 24348 24351 24354 24357 24360 24363 24366 24369 24372 24375 24378 24381 24384 24387 24390 24393 24396 24399 24402 24405 24408 24411 24414 24417 24420 24423 24426 24429 24432 24435 24438 24441 24444 24447 24450 24453 24456 24459 24462 24465 24468 24471 24474 24477 24480 24483 24486 24489 24492 24495 24498 24501 24504 24507 24510 24513 24516 24519 24522 24525 24528 24531 24534 24537 24540 24543 24546 24549 24552 24555 24558 24561 24564 24567 24570 24573 24576 24579 24582 24585 24588 24591 24594 24597 24600 24603 24606 24609 24612 24615 24618 24621 24624 24627 24630 24633 24636 24639 24642 24645 24648 24651 24654 24657 24660 24663 24666 24669 24672 24675 24678 24681 24684 24687 24690 24693 24696 24699 24702 24705 24708 24711 24714 24717 24720 24723 24726 24729 24732 24735 24738 24741 24744 24747 24750 24753 24756 24759 24762 24765 24768 24771 24774 24777 24780 24783 24786 24789 24792 24795 24798 24801 24804 24807 24810 24813 24816 24819 24822 24825 24828 24831 24834 24837 24840 24843 24846 24849 24852 24855 24858 24861 24864 24867 24870 24873 24876 24879 24882 24885 24888 24891 24894 24897 24900 24903 24906 24909 24912 24915 24918 24921 24924 24927 24930 24933 24936 24939 24942 24945 24948 24951 24954 24957 24960 24963 24966 24969 24972 24975 24978 24981 24984 24987 24990 24993 24996 24999 25002 25005 25008 25011 25014 25017 25020 25023 25026 25029 25032 25035 25038 25041 25044 25047 25050 25053 25056 25059 25062 25065 25068 25071 25074 25077 25080 25083 25086 25089 25092 25095 25098 25101 25104 25107 25110 25113 25116 25119 25122 25125 25128 25131 25134 25137 25140 25143 25146 25149 25152 25155 25158 25161 25164 25167 25170 25173 25176 25179 25182 25185 25188 25191 25194 25197 25200 25203 25206 25209 25212 25215 25218 25221 25224 25227 25230 25233 25236 25239 25242 25245 25248 25251 25254 25257 25260 25263 25266 25269 25272 25275 25278 25281 25284 25287 25290 25293 25296 25299 25302 25305 25308 25311 25314 25317 25320 25323 25326 25329 25332 25335 25338 25341 25344 25347 25350 25353 25356 25359 25362 25365 25368 25371 25374 25377 25380 25383 25386 25389 25392 25395 25398 25401 25404 25407 25410 25413 25416 25419 25422 25425 25428 25431 25434 25437 25440 25443 25446 25449 25452 25455 25458 25461 25464 25467 25470 25473 25476 25479 25482 25485 25488 25491 25494 25497 25500 25503 25506 25509 25512 25515 25518 25521 25524 25527 25530 25533 25536 25539 25542 25545 25548 25551 25554 25557 25560 25563 25566 25569 25572 25575 25578 25581 25584 25587 25590 25593 25596 25599 25602 25605 25608 25611 25614 25617 25620 25623 25626 25629 25632 25635 25638 25641 25644 25647 25650 25653 25656 25659 25662 25665 25668 25671 25674 25677 25680 25683 25686 25689 25692 25695 25698 25701 25704 25707 25710 25713 25716 25719 25722 25725 25728 25731 25734 25737 25740 25743 25746 25749 25752 25755 25758 25761 25764 25767 25770 25773 25776 25779 25782 25785 25788 25791 25794 25797 25800 25803 25806 25809 25812 25815 25818 25821 25824 25827 25830 25833 25836 25839 25842 25845 25848 25851 25854 25857 25860 25863 25866 25869 25872 25875 25878 25881 25884 25887 25890 25893 25896 25899 25902 25905 25908 25911 25914 25917 25920 25923 25926 25929 25932 25935 25938 25941 25944 25947 25950 25953 25956 25959 25962 25965 25968 25971 25974 25977 25980 25983 25986 25989 25992 25995 25998 26001 26004 26007 26010 26013 26016 26019 26022 26025 26028 26031 26034 26037 26040 26043 26046 26049 26052 26055 26058 26061 26064 26067 26070 26073 26076 26079 26082 26085 26088 26091 26094 26097 26100 26103 26106 26109 26112 26115 26118 26121 26124 26127 26130 26133 26136 26139 26142 26145 26148 26151 26154 26157 26160 26163 26166 26169 26172 26175 26178 26181 26184 26187 26190 26193 26196 26199 26202 26205 26208 26211 26214 26217 26220 26223 26226 26229 26232 26235 26238 26241 26244 26247 26250 26253 26256 26259 26262 26265 26268 26271 26274 26277 26280 26283 26286 26289 26292 26295 26298 26301 26304 26307 26310 26313 26316 26319 26322 26325 26328 26331 26334 26337 26340 26343 26346 26349 26352 26355 26358 26361 26364 26367 26370 26373 26376 26379 26382 26385 26388 26391 26394 26397 26400 26403 26406 26409 26412 26415 26418 26421 26424 26427 26430 26433 26436 26439 26442 26445 26448 26451 26454 26457 26460 26463 26466 26469 26472 26475 26478 26481 26484 26487 26490 26493 26496 26499 26502 26505 26508 26511 26514 26517 26520 26523 26526 26529 26532 26535 26538 26541 26544 26547 26550 26553 26556 26559 26562 26565 26568 26571 26574 26577 26580 26583 26586 26589 26592 26595 26598 26601 26604 26607 26610 26613 26616 26619 26622 26625 26628 26631 26634 26637 26640 26643 26646 26649 26652 26655 26658 26661 26664 26667 26670 26673 26676 26679 26682 26685 26688 26691 26694 26697 26700 26703 26706 26709 26712 26715 26718 26721 26724 26727 26730 26733 26736 26739 26742 26745 26748 26751 26754 26757 26760 26763 26766 26769 26772 26775 26778 26781 26784 26787 26790 26793 26796 26799 26802 26805 26808 26811 26814 26817 26820 26823 26826 26829 26832 26835 26838 26841 26844 26847 26850 26853 26856 26859 26862 26865 26868 26871 26874 26877 26880 26883 26886 26889 26892 26895 26898 26901 26904 26907 26910 26913 26916 26919 26922 26925 26928 26931 26934 26937 26940 26943 26946 26949 26952 26955 26958 26961 26964 26967 26970 26973 26976 26979 26982 26985 26988 26991 26994 26997 27000 27003 27006 27009 27012 27015 27018 27021 27024 27027 27030 27033 27036 27039 27042 27045 27048 27051 27054 27057 27060 27063 27066 27069 27072 27075 27078 27081 27084 27087 27090 27093 27096 27099 27102 27105 27108 27111 27114 27117 27120 27123 27126 27129 27132 27135 27138 27141 27144 27147 27150 27153 27156 27159 27162 27165 27168 27171 27174 27177 27180 27183 27186 27189 27192 27195 27198 27201 27204 27207 27210 27213 27216 27219 27222 27225 27228 27231 27234 27237 27240 27243 27246 27249 27252 27255 27258 27261 27264 27267 27270 27273 27276 27279 27282 27285 27288 27291 27294 27297 27300 27303 27306 27309 27312 27315 27318 27321 27324 27327 27330 27333 27336 27339 27342 27345 27348 27351 27354 27357 27360 27363 27366 27369 27372 27375 27378 27381 27384 27387 27390 27393 27396 27399 27402 27405 27408 27411 27414 27417 27420 27423 27426 27429 27432 27435 27438 27441 27444 27447 27450 27453 27456 27459 27462 27465 27468 27471 27474 27477 27480 27483 27486 27489 27492 27495 27498 27501 27504 27507 27510 27513 27516 27519 27522 27525 27528 27531 27534 27537 27540 27543 27546 27549 27552 27555 27558 27561 27564 27567 27570 27573 27576 27579 27582 27585 27588 27591 27594 27597 27600 27603 27606 27609 27612 27615 27618 27621 27624 27627 27630 27633 27636 27639 27642 27645 27648 27651 27654 27657 27660 27663 27666 27669 27672 27675 27678 27681 27684 27687 27690 27693 27696 27699 27702 27705 27708 27711 27714 27717 27720 27723 27726 27729 27732 27735 27738 27741 27744 27747 27750 27753 27756 27759 27762 27765 27768 27771 27774 27777 27780 27783 27786 27789 27792 27795 27798 27801 27804 27807 27810 27813 27816 27819 27822 27825 27828 27831 27834 27837 27840 27843 27846 27849 27852 27855 27858 27861 27864 27867 27870 27873 27876 27879 27882 27885 27888 27891 27894 27897 27900 27903 27906 27909 27912 27915 27918 27921 27924 27927 27930 27933 27936 27939 27942 27945 27948 27951 27954 27957 27960 27963 27966 27969 27972 27975 27978 27981 27984 27987 27990 27993 27996 27999 28002 28005 28008 28011 28014 28017 28020 28023 28026 28029 28032 28035 28038 28041 28044 28047 28050 28053 28056 28059 28062 28065 28068 28071 28074 28077 28080 28083 28086 28089 28092 28095 28098 28101 28104 28107 28110 28113 28116 28119 28122 28125 28128 28131 28134 28137 28140 28143 28146 28149 28152 28155 28158 28161 28164 28167 28170 28173 28176 28179 28182 28185 28188 28191 28194 28197 28200 28203 28206 28209 28212 28215 28218 28221 28224 28227 28230 28233 28236 28239 28242 28245 28248 28251 28254 28257 28260 28263 28266 28269 28272 28275 28278 28281 28284 28287 28290 28293 28296 28299 28302 28305 28308 28311 28314 28317 28320 28323 28326 28329 28332 28335 28338 28341 28344 28347 28350 28353 28356 28359 28362 28365 28368 28371 28374 28377 28380 28383 28386 28389 28392 28395 28398 28401 28404 28407 28410 28413 28416 28419 28422 28425 28428 28431 28434 28437 28440 28443 28446 28449 28452 28455 28458 28461 28464 28467 28470 28473 28476 28479 28482 28485 28488 28491 28494 28497 28500 28503 28506 28509 28512 28515 28518 28521 28524 28527 28530 28533 28536 28539 28542 28545 28548 28551 28554 28557 28560 28563 28566 28569 28572 28575 28578 28581 28584 28587 28590 28593 28596 28599 28602 28605 28608 28611 28614 28617 28620 28623 28626 28629 28632 28635 28638 28641 28644 28647 28650 28653 28656 28659 28662 28665 28668 28671 28674 28677 28680 28683 28686 28689 28692 28695 28698 28701 28704 28707 28710 28713 28716 28719 28722 28725 28728 28731 28734 28737 28740 28743 28746 28749 28752 28755 28758 28761 28764 28767 28770 28773 28776 28779 28782 28785 28788 28791 28794 28797 28800 28803 28806 28809 28812 28815 28818 28821 28824 28827 28830 28833 28836 28839 28842 28845 28848 28851 28854 28857 28860 28863 28866 28869 28872 28875 28878 28881 28884 28887 28890 28893 28896 28899 28902 28905 28908 28911 28914 28917 28920 28923 28926 28929 28932 28935 28938 28941 28944 28947 28950 28953 28956 28959 28962 28965 28968 28971 28974 28977 28980 28983 28986 28989 28992 28995 28998 29001 29004 29007 29010 29013 29016 29019 29022 29025 29028 29031 29034 29037 29040 29043 29046 29049 29052 29055 29058 29061 29064 29067 29070 29073 29076 29079 29082 29085 29088 29091 29094 29097 29100 29103 29106 29109 29112 29115 29118 29121 29124 29127 29130 29133 29136 29139 29142 29145 29148 29151 29154 29157 29160 29163 29166 29169 29172 29175 29178 29181 29184 29187 29190 29193 29196 29199 29202 29205 29208 29211 29214 29217 29220 29223 29226 29229 29232 29235 29238 29241 29244 29247 29250 29253 29256 29259 29262 29265 29268 29271 29274 29277 29280 29283 29286 29289 29292 29295 29298 29301 29304 29307 29310 29313 29316 29319 29322 29325 29328 29331 29334 29337 29340 29343 29346 29349 29352 29355 29358 29361 29364 29367 29370 29373 29376 29379 29382 29385 29388 29391 29394 29397 29400 29403 29406 29409 29412 29415 29418 29421 29424 29427 29430 29433 29436 29439 29442 29445 29448 29451 29454 29457 29460 29463 29466 29469 29472 29475 29478 29481 29484 29487 29490 29493 29496 29499 29502 29505 29508 29511 29514 29517 29520 29523 29526 29529 29532 29535 29538 29541 29544 29547 29550 29553 29556 29559 29562 29565 29568 29571 29574 29577 29580 29583 29586 29589 29592 29595 29598 29601 29604 29607 29610 29613 29616 29619 29622 29625 29628 29631 29634 29637 29640 29643 29646 29649 29652 29655 29658 29661 29664 29667 29670 29673 29676 29679 29682 29685 29688 29691 29694 29697 29700 29703 29706 29709 29712 29715 29718 29721 29724 29727 29730 29733 29736 29739 29742 29745 29748 29751 29754 29757 29760 29763 29766 29769 29772 29775 29778 29781 29784 29787 29790 29793 29796 29799 29802 29805 29808 29811 29814 29817 29820 29823 29826 29829 29832 29835 29838 29841 29844 29847 29850 29853 29856 29859 29862 29865 29868 29871 29874 29877 29880 29883 29886 29889 29892 29895 29898 29901 29904 29907 29910 29913 29916 29919 29922 29925 29928 29931 29934 29937 29940 29943 29946 29949 29952 29955 29958 29961 29964 29967 29970 29973 29976 29979 29982 29985 29988 29991 29994 29997 30000 30003 30006 30009 30012 30015 30018 30021 30024 30027 30030 30033 30036 30039 30042 30045 30048 30051 30054 30057 30060 30063 30066 30069 30072 30075 30078 30081 30084 30087 30090 30093 30096 30099 30102 30105 30108 30111 30114 30117 30120 30123 30126 30129 30132 30135 30138 30141 30144 30147 30150 30153 30156 30159 30162 30165 30168 30171 30174 30177 30180 30183 30186 30189 30192 30195 30198 30201 30204 30207 30210 30213 30216 30219 30222 30225 30228 30231 30234 30237 30240 30243 30246 30249 30252 30255 30258 30261 30264 30267 30270 30273 30276 30279 30282 30285 30288 30291 30294 30297 30300 30303 30306 30309 30312 30315 30318 30321 30324 30327 30330 30333 30336 30339 30342 30345 30348 30351 30354 30357 30360 30363 30366 30369 30372 30375 30378 30381 30384 30387 30390 30393 30396 30399 30402 30405 30408 30411 30414 30417 30420 30423 30426 30429 30432 30435 30438 30441 30444 30447 30450 30453 30456 30459 30462 30465 30468 30471 30474 30477 30480 30483 30486 30489 30492 30495 30498 30501 30504 30507 30510 30513 30516 30519 30522 30525 30528 30531 30534 30537 30540 30543 30546 30549 30552 30555 30558 30561 30564 30567 30570 30573 30576 30579 30582 30585 30588 30591 30594 30597 30600 30603 30606 30609 30612 30615 30618 30621 30624 30627 30630 30633 30636 30639 30642 30645 30648 30651 30654 30657 30660 30663 30666 30669 30672 30675 30678 30681 30684 30687 30690 30693 30696 30699 30702 30705 30708 30711 30714 30717 30720 30723 30726 30729 30732 30735 30738 30741 30744 30747 30750 30753 30756 30759 30762 30765 30768 30771 30774 30777 30780 30783 30786 30789 30792 30795 30798 30801 30804 30807 30810 30813 30816 30819 30822 30825 30828 30831 30834 30837 30840 30843 30846 30849 30852 30855 30858 30861 30864 30867 30870 30873 30876 30879 30882 30885 30888 30891 30894 30897 30900 30903 30906 30909 30912 30915 30918 30921 30924 30927 30930 30933 30936 30939 30942 30945 30948 30951 30954 30957 30960 30963 30966 30969 30972 30975 30978 30981 30984 30987 30990 30993 30996 30999 31002 31005 31008 31011 31014 31017 31020 31023 31026 31029 31032 31035 31038 31041 31044 31047 31050 31053 31056 31059 31062 31065 31068 31071 31074 31077 31080 31083 31086 31089 31092 31095 31098 31101 31104 31107 31110 31113 31116 31119 31122 31125 31128 31131 31134 31137 31140 31143 31146 31149 31152 31155 31158 31161 31164 31167 31170 31173 31176 31179 31182 31185 31188 31191 31194 31197 31200 31203 31206 31209 31212 31215 31218 31221 31224 31227 31230 31233 31236 31239 31242 31245 31248 31251 31254 31257 31260 31263 31266 31269 31272 31275 31278 31281 31284 31287 31290 31293 31296 31299 31302 31305 31308 31311 31314 31317 31320 31323 31326 31329 31332 31335 31338 31341 31344 31347 31350 31353 31356 31359 31362 31365 31368 31371 31374 31377 31380 31383 31386 31389 31392 31395 31398 31401 31404 31407 31410 31413 31416 31419 31422 31425 31428 31431 31434 31437 31440 31443 31446 31449 31452 31455 31458 31461 31464 31467 31470 31473 31476 31479 31482 31485 31488 31491 31494 31497 31500 31503 31506 31509 31512 31515 31518 31521 31524 31527 31530 31533 31536 31539 31542 31545 31548 31551 31554 31557 31560 31563 31566 31569 31572 31575 31578 31581 31584 31587 31590 31593 31596 31599 31602 31605 31608 31611 31614 31617 31620 31623 31626 31629 31632 31635 31638 31641 31644 31647 31650 31653 31656 31659 31662 31665 31668 31671 31674 31677 31680 31683 31686 31689 31692 31695 31698 31701 31704 31707 31710 31713 31716 31719 31722 31725 31728 31731 31734 31737 31740 31743 31746 31749 31752 31755 31758 31761 31764 31767 31770 31773 31776 31779 31782 31785 31788 31791 31794 31797 31800 31803 31806 31809 31812 31815 31818 31821 31824 31827 31830 31833 31836 31839 31842 31845 31848 31851 31854 31857 31860 31863 31866 31869 31872 31875 31878 31881 31884 31887 31890 31893 31896 31899 31902 31905 31908 31911 31914 31917 31920 31923 31926 31929 31932 31935 31938 31941 31944 31947 31950 31953 31956 31959 31962 31965 31968 31971 31974 31977 31980 31983 31986 31989 31992 31995 31998 32001 32004 32007 32010 32013 32016 32019 32022 32025 32028 32031 32034 32037 32040 32043 32046 32049 32052 32055 32058 32061 32064 32067 32070 32073 32076 32079 32082 32085 32088 32091 32094 32097 32100 32103 32106 32109 32112 32115 32118 32121 32124 32127 32130 32133 32136 32139 32142 32145 32148 32151 32154 32157 32160 32163 32166 32169 32172 32175 32178 32181 32184 32187 32190 32193 32196 32199 32202 32205 32208 32211 32214 32217 32220 32223 32226 32229 32232 32235 32238 32241 32244 32247 32250 32253 32256 32259 32262 32265 32268 32271 32274 32277 32280 32283 32286 32289 32292 32295 32298 32301 32304 32307 32310 32313 32316 32319 32322 32325 32328 32331 32334 32337 32340 32343 32346 32349 32352 32355 32358 32361 32364 32367 32370 32373 32376 32379 32382 32385 32388 32391 32394 32397 32400 32403 32406 32409 32412 32415 32418 32421 32424 32427 32430 32433 32436 32439 32442 32445 32448 32451 32454 32457 32460 32463 32466 32469 32472 32475 32478 32481 32484 32487 32490 32493 32496 32499 32502 32505 32508 32511 32514 32517 32520 32523 32526 32529 32532 32535 32538 32541 32544 32547 32550 32553 32556 32559 32562 32565 32568 32571 32574 32577 32580 32583 32586 32589 32592 32595 32598 32601 32604 32607 32610 32613 32616 32619 32622 32625 32628 32631 32634 32637 32640 32643 32646 32649 32652 32655 32658 32661 32664 32667 32670 32673 32676 32679 32682 32685 32688 32691 32694 32697 32700 32703 32706 32709 32712 32715 32718 32721 32724 32727 32730 32733 32736 32739 32742 32745 32748 32751 32754 32757 32760 32763 32766 32769 32772 32775 32778 32781 32784 32787 32790 32793 32796 32799 32802 32805 32808 32811 32814 32817 32820 32823 32826 32829 32832 32835 32838 32841 32844 32847 32850 32853 32856 32859 32862 32865 32868 32871 32874 32877 32880 32883 32886 32889 32892 32895 32898 32901 32904 32907 32910 32913 32916 32919 32922 32925 32928 32931 32934 32937 32940 32943 32946 32949 32952 32955 32958 32961 32964 32967 32970 32973 32976 32979 32982 32985 32988 32991 32994 32997 33000 33003 33006 33009 33012 33015 33018 33021 33024 33027 33030 33033 33036 33039 33042 33045 33048 33051 33054 33057 33060 33063 33066 33069 33072 33075 33078 33081 33084 33087 33090 33093 33096 33099 33102 33105 33108 33111 33114 33117 33120 33123 33126 33129 33132 33135 33138 33141 33144 33147 33150 33153 33156 33159 33162 33165 33168 33171 33174 33177 33180 33183 33186 33189 33192 33195 33198 33201 33204 33207 33210 33213 33216 33219 33222 33225 33228 33231 33234 33237 33240 33243 33246 33249 33252 33255 33258 33261 33264 33267 33270 33273 33276 33279 33282 33285 33288 33291 33294 33297 33300 33303 33306 33309 33312 33315 33318 33321 33324 33327 33330 33333 33336 33339 33342 33345 33348 33351 33354 33357 33360 33363 33366 33369 33372 33375 33378 33381 33384 33387 33390 33393 33396 33399 33402 33405 33408 33411 33414 33417 33420 33423 33426 33429 33432 33435 33438 33441 33444 33447 33450 33453 33456 33459 33462 33465 33468 33471 33474 33477 33480 33483 33486 33489 33492 33495 33498 33501 33504 33507 33510 33513 33516 33519 33522 33525 33528 33531 33534 33537 33540 33543 33546 33549 33552 33555 33558 33561 33564 33567 33570 33573 33576 33579 33582 33585 33588 33591 33594 33597 33600 33603 33606 33609 33612 33615 33618 33621 33624 33627 33630 33633 33636 33639 33642 33645 33648 33651 33654 33657 33660 33663 33666 33669 33672 33675 33678 33681 33684 33687 33690 33693 33696 33699 33702 33705 33708 33711 33714 33717 33720 33723 33726 33729 33732 33735 33738 33741 33744 33747 33750 33753 33756 33759 33762 33765 33768 33771 33774 33777 33780 33783 33786 33789 33792 33795 33798 33801 33804 33807 33810 33813 33816 33819 33822 33825 33828 33831 33834 33837 33840 33843 33846 33849 33852 33855 33858 33861 33864 33867 33870 33873 33876 33879 33882 33885 33888 33891 33894 33897 33900 33903 33906 33909 33912 33915 33918 33921 33924 33927 33930 33933 33936 33939 33942 33945 33948 33951 33954 33957 33960 33963 33966 33969 33972 33975 33978 33981 33984 33987 33990 33993 33996 33999 34002 34005 34008 34011 34014 34017 34020 34023 34026 34029 34032 34035 34038 34041 34044 34047 34050 34053 34056 34059 34062 34065 34068 34071 34074 34077 34080 34083 34086 34089 34092 34095 34098 34101 34104 34107 34110 34113 34116 34119 34122 34125 34128 34131 34134 34137 34140 34143 34146 34149 34152 34155 34158 34161 34164 34167 34170 34173 34176 34179 34182 34185 34188 34191 34194 34197 34200 34203 34206 34209 34212 34215 34218 34221 34224 34227 34230 34233 34236 34239 34242 34245 34248 34251 34254 34257 34260 34263 34266 34269 34272 34275 34278 34281 34284 34287 34290 34293 34296 34299 34302 34305 34308 34311 34314 34317 34320 34323 34326 34329 34332 34335 34338 34341 34344 34347 34350 34353 34356 34359 34362 34365 34368 34371 34374 34377 34380 34383 34386 34389 34392 34395 34398 34401 34404 34407 34410 34413 34416 34419 34422 34425 34428 34431 34434 34437 34440 34443 34446 34449 34452 34455 34458 34461 34464 34467 34470 34473 34476 34479 34482 34485 34488 34491 34494 34497 34500 34503 34506 34509 34512 34515 34518 34521 34524 34527 34530 34533 34536 34539 34542 34545 34548 34551 34554 34557 34560 34563 34566 34569 34572 34575 34578 34581 34584 34587 34590 34593 34596 34599 34602 34605 34608 34611 34614 34617 34620 34623 34626 34629 34632 34635 34638 34641 34644 34647 34650 34653 34656 34659 34662 34665 34668 34671 34674 34677 34680 34683 34686 34689 34692 34695 34698 34701 34704 34707 34710 34713 34716 34719 34722 34725 34728 34731 34734 34737 34740 34743 34746 34749 34752 34755 34758 34761 34764 34767 34770 34773 34776 34779 34782 34785 34788 34791 34794 34797 34800 34803 34806 34809 34812 34815 34818 34821 34824 34827 34830 34833 34836 34839 34842 34845 34848 34851 34854 34857 34860 34863 34866 34869 34872 34875 34878 34881 34884 34887 34890 34893 34896 34899 34902 34905 34908 34911 34914 34917 34920 34923 34926 34929 34932 34935 34938 34941 34944 34947 34950 34953 34956 34959 34962 34965 34968 34971 34974 34977 34980 34983 34986 34989 34992 34995 34998 35001 35004 35007 35010 35013 35016 35019 35022 35025 35028 35031 35034 35037 35040 35043 35046 35049 35052 35055 35058 35061 35064 35067 35070 35073 35076 35079 35082 35085 35088 35091 35094 35097 35100 35103 35106 35109 35112 35115 35118 35121 35124 35127 35130 35133 35136 35139 35142 35145 35148 35151 35154 35157 35160 35163 35166 35169 35172 35175 35178 35181 35184 35187 35190 35193 35196 35199 35202 35205 35208 35211 35214 35217 35220 35223 35226 35229 35232 35235 35238 35241 35244 35247 35250 35253 35256 35259 35262 35265 35268 35271 35274 35277 35280 35283 35286 35289 35292 35295 35298 35301 35304 35307 35310 35313 35316 35319 35322 35325 35328 35331 35334 35337 35340 35343 35346 35349 35352 35355 35358 35361 35364 35367 35370 35373 35376 35379 35382 35385 35388 35391 35394 35397 35400 35403 35406 35409 35412 35415 35418 35421 35424 35427 35430 35433 35436 35439 35442 35445 35448 35451 35454 35457 35460 35463 35466 35469 35472 35475 35478 35481 35484 35487 35490 35493 35496 35499 35502 35505 35508 35511 35514 35517 35520 35523 35526 35529 35532 35535 35538 35541 35544 35547 35550 35553 35556 35559 35562 35565 35568 35571 35574 35577 35580 35583 35586 35589 35592 35595 35598 35601 35604 35607 35610 35613 35616 35619 35622 35625 35628 35631 35634 35637 35640 35643 35646 35649 35652 35655 35658 35661 35664 35667 35670 35673 35676 35679 35682 35685 35688 35691 35694 35697 35700 35703 35706 35709 35712 35715 35718 35721 35724 35727 35730 35733 35736 35739 35742 35745 35748 35751 35754 35757 35760 35763 35766 35769 35772 35775 35778 35781 35784 35787 35790 35793 35796 35799 35802 35805 35808 35811 35814 35817 35820 35823 35826 35829 35832 35835 35838 35841 35844 35847 35850 35853 35856 35859 35862 35865 35868 35871 35874 35877 35880 35883 35886 35889 35892 35895 35898 35901 35904 35907 35910 35913 35916 35919 35922 35925 35928 35931 35934 35937 35940 35943 35946 35949 35952 35955 35958 35961 35964 35967 35970 35973 35976 35979 35982 35985 35988 35991 35994 35997 36000 36003 36006 36009 36012 36015 36018 36021 36024 36027 36030 36033 36036 36039 36042 36045 36048 36051 36054 36057 36060 36063 36066 36069 36072 36075 36078 36081 36084 36087 36090 36093 36096 36099 36102 36105 36108 36111 36114 36117 36120 36123 36126 36129 36132 36135 36138 36141 36144 36147 36150 36153 36156 36159 36162 36165 36168 36171 36174 36177 36180 36183 36186 36189 36192 36195 36198 36201 36204 36207 36210 36213 36216 36219 36222 36225 36228 36231 36234 36237 36240 36243 36246 36249 36252 36255 36258 36261 36264 36267 36270 36273 36276 36279 36282 36285 36288 36291 36294 36297 36300 36303 36306 36309 36312 36315 36318 36321 36324 36327 36330 36333 36336 36339 36342 36345 36348 36351 36354 36357 36360 36363 36366 36369 36372 36375 36378 36381 36384 36387 36390 36393 36396 36399 36402 36405 36408 36411 36414 36417 36420 36423 36426 36429 36432 36435 36438 36441 36444 36447 36450 36453 36456 36459 36462 36465 36468 36471 36474 36477 36480 36483 36486 36489 36492 36495 36498 36501 36504 36507 36510 36513 36516 36519 36522 36525 36528 36531 36534 36537 36540 36543 36546 36549 36552 36555 36558 36561 36564 36567 36570 36573 36576 36579 36582 36585 36588 36591 36594 36597 36600 36603 36606 36609 36612 36615 36618 36621 36624 36627 36630 36633 36636 36639 36642 36645 36648 36651 36654 36657 36660 36663 36666 36669 36672 36675 36678 36681 36684 36687 36690 36693 36696 36699 36702 36705 36708 36711 36714 36717 36720 36723 36726 36729 36732 36735 36738 36741 36744 36747 36750 36753 36756 36759 36762 36765 36768 36771 36774 36777 36780 36783 36786 36789 36792 36795 36798 36801 36804 36807 36810 36813 36816 36819 36822 36825 36828 36831 36834 36837 36840 36843 36846 36849 36852 36855 36858 36861 36864 36867 36870 36873 36876 36879 36882 36885 36888 36891 36894 36897 36900 36903 36906 36909 36912 36915 36918 36921 36924 36927 36930 36933 36936 36939 36942 36945 36948 36951 36954 36957 36960 36963 36966 36969 36972 36975 36978 36981 36984 36987 36990 36993 36996 36999 37002 37005 37008 37011 37014 37017 37020 37023 37026 37029 37032 37035 37038 37041 37044 37047 37050 37053 37056 37059 37062 37065 37068 37071 37074 37077 37080 37083 37086 37089 37092 37095 37098 37101 37104 37107 37110 37113 37116 37119 37122 37125 37128 37131 37134 37137 37140 37143 37146 37149 37152 37155 37158 37161 37164 37167 37170 37173 37176 37179 37182 37185 37188 37191 37194 37197 37200 37203 37206 37209 37212 37215 37218 37221 37224 37227 37230 37233 37236 37239 37242 37245 37248 37251 37254 37257 37260 37263 37266 37269 37272 37275 37278 37281 37284 37287 37290 37293 37296 37299 37302 37305 37308 37311 37314 37317 37320 37323 37326 37329 37332 37335 37338 37341 37344 37347 37350 37353 37356 37359 37362 37365 37368 37371 37374 37377 37380 37383 37386 37389 37392 37395 37398 37401 37404 37407 37410 37413 37416 37419 37422 37425 37428 37431 37434 37437 37440 37443 37446 37449 37452 37455 37458 37461 37464 37467 37470 37473 37476 37479 37482 37485 37488 37491 37494 37497 37500 37503 37506 37509 37512 37515 37518 37521 37524 37527 37530 37533 37536 37539 37542 37545 37548 37551 37554 37557 37560 37563 37566 37569 37572 37575 37578 37581 37584 37587 37590 37593 37596 37599 37602 37605 37608 37611 37614 37617 37620 37623 37626 37629 37632 37635 37638 37641 37644 37647 37650 37653 37656 37659 37662 37665 37668 37671 37674 37677 37680 37683 37686 37689 37692 37695 37698 37701 37704 37707 37710 37713 37716 37719 37722 37725 37728 37731 37734 37737 37740 37743 37746 37749 37752 37755 37758 37761 37764 37767 37770 37773 37776 37779 37782 37785 37788 37791 37794 37797 37800 37803 37806 37809 37812 37815 37818 37821 37824 37827 37830 37833 37836 37839 37842 37845 37848 37851 37854 37857 37860 37863 37866 37869 37872 37875 37878 37881 37884 37887 37890 37893 37896 37899 37902 37905 37908 37911 37914 37917 37920 37923 37926 37929 37932 37935 37938 37941 37944 37947 37950 37953 37956 37959 37962 37965 37968 37971 37974 37977 37980 37983 37986 37989 37992 37995 37998 38001 38004 38007 38010 38013 38016 38019 38022 38025 38028 38031 38034 38037 38040 38043 38046 38049 38052 38055 38058 38061 38064 38067 38070 38073 38076 38079 38082 38085 38088 38091 38094 38097 38100 38103 38106 38109 38112 38115 38118 38121 38124 38127 38130 38133 38136 38139 38142 38145 38148 38151 38154 38157 38160 38163 38166 38169 38172 38175 38178 38181 38184 38187 38190 38193 38196 38199 38202 38205 38208 38211 38214 38217 38220 38223 38226 38229 38232 38235 38238 38241 38244 38247 38250 38253 38256 38259 38262 38265 38268 38271 38274 38277 38280 38283 38286 38289 38292 38295 38298 38301 38304 38307 38310 38313 38316 38319 38322 38325 38328 38331 38334 38337 38340 38343 38346 38349 38352 38355 38358 38361 38364 38367 38370 38373 38376 38379 38382 38385 38388 38391 38394 38397 38400 38403 38406 38409 38412 38415 38418 38421 38424 38427 38430 38433 38436 38439 38442 38445 38448 38451 38454 38457 38460 38463 38466 38469 38472 38475 38478 38481 38484 38487 38490 38493 38496 38499 38502 38505 38508 38511 38514 38517 38520 38523 38526 38529 38532 38535 38538 38541 38544 38547 38550 38553 38556 38559 38562 38565 38568 38571 38574 38577 38580 38583 38586 38589 38592 38595 38598 38601 38604 38607 38610 38613 38616 38619 38622 38625 38628 38631 38634 38637 38640 38643 38646 38649 38652 38655 38658 38661 38664 38667 38670 38673 38676 38679 38682 38685 38688 38691 38694 38697 38700 38703 38706 38709 38712 38715 38718 38721 38724 38727 38730 38733 38736 38739 38742 38745 38748 38751 38754 38757 38760 38763 38766 38769 38772 38775 38778 38781 38784 38787 38790 38793 38796 38799 38802 38805 38808 38811 38814 38817 38820 38823 38826 38829 38832 38835 38838 38841 38844 38847 38850 38853 38856 38859 38862 38865 38868 38871 38874 38877 38880 38883 38886 38889 38892 38895 38898 38901 38904 38907 38910 38913 38916 38919 38922 38925 38928 38931 38934 38937 38940 38943 38946 38949 38952 38955 38958 38961 38964 38967 38970 38973 38976 38979 38982 38985 38988 38991 38994 38997 39000 39003 39006 39009 39012 39015 39018 39021 39024 39027 39030 39033 39036 39039 39042 39045 39048 39051 39054 39057 39060 39063 39066 39069 39072 39075 39078 39081 39084 39087 39090 39093 39096 39099 39102 39105 39108 39111 39114 39117 39120 39123 39126 39129 39132 39135 39138 39141 39144 39147 39150 39153 39156 39159 39162 39165 39168 39171 39174 39177 39180 39183 39186 39189 39192 39195 39198 39201 39204 39207 39210 39213 39216 39219 39222 39225 39228 39231 39234 39237 39240 39243 39246 39249 39252 39255 39258 39261 39264 39267 39270 39273 39276 39279 39282 39285 39288 39291 39294 39297 39300 39303 39306 39309 39312 39315 39318 39321 39324 39327 39330 39333 39336 39339 39342 39345 39348 39351 39354 39357 39360 39363 39366 39369 39372 39375 39378 39381 39384 39387 39390 39393 39396 39399 39402 39405 39408 39411 39414 39417 39420 39423 39426 39429 39432 39435 39438 39441 39444 39447 39450 39453 39456 39459 39462 39465 39468 39471 39474 39477 39480 39483 39486 39489 39492 39495 39498 39501 39504 39507 39510 39513 39516 39519 39522 39525 39528 39531 39534 39537 39540 39543 39546 39549 39552 39555 39558 39561 39564 39567 39570 39573 39576 39579 39582 39585 39588 39591 39594 39597 39600 39603 39606 39609 39612 39615 39618 39621 39624 39627 39630 39633 39636 39639 39642 39645 39648 39651 39654 39657 39660 39663 39666 39669 39672 39675 39678 39681 39684 39687 39690 39693 39696 39699 39702 39705 39708 39711 39714 39717 39720 39723 39726 39729 39732 39735 39738 39741 39744 39747 39750 39753 39756 39759 39762 39765 39768 39771 39774 39777 39780 39783 39786 39789 39792 39795 39798 39801 39804 39807 39810 39813 39816 39819 39822 39825 39828 39831 39834 39837 39840 39843 39846 39849 39852 39855 39858 39861 39864 39867 39870 39873 39876 39879 39882 39885 39888 39891 39894 39897 39900 39903 39906 39909 39912 39915 39918 39921 39924 39927 39930 39933 39936 39939 39942 39945 39948 39951 39954 39957 39960 39963 39966 39969 39972 39975 39978 39981 39984 39987 39990 39993 39996 39999 40002 40005 40008 40011 40014 40017 40020 40023 40026 40029 40032 40035 40038 40041 40044 40047 40050 40053 40056 40059 40062 40065 40068 40071 40074 40077 40080 40083 40086 40089 40092 40095 40098 40101 40104 40107 40110 40113 40116 40119 40122 40125 40128 40131 40134 40137 40140 40143 40146 40149 40152 40155 40158 40161 40164 40167 40170 40173 40176 40179 40182 40185 40188 40191 40194 40197 40200 40203 40206 40209 40212 40215 40218 40221 40224 40227 40230 40233 40236 40239 40242 40245 40248 40251 40254 40257 40260 40263 40266 40269 40272 40275 40278 40281 40284 40287 40290 40293 40296 40299 40302 40305 40308 40311 40314 40317 40320 40323 40326 40329 40332 40335 40338 40341 40344 40347 40350 40353 40356 40359 40362 40365 40368 40371 40374 40377 40380 40383 40386 40389 40392 40395 40398 40401 40404 40407 40410 40413 40416 40419 40422 40425 40428 40431 40434 40437 40440 40443 40446 40449 40452 40455 40458 40461 40464 40467 40470 40473 40476 40479 40482 40485 40488 40491 40494 40497 40500 40503 40506 40509 40512 40515 40518 40521 40524 40527 40530 40533 40536 40539 40542 40545 40548 40551 40554 40557 40560 40563 40566 40569 40572 40575 40578 40581 40584 40587 40590 40593 40596 40599 40602 40605 40608 40611 40614 40617 40620 40623 40626 40629 40632 40635 40638 40641 40644 40647 40650 40653 40656 40659 40662 40665 40668 40671 40674 40677 40680 40683 40686 40689 40692 40695 40698 40701 40704 40707 40710 40713 40716 40719 40722 40725 40728 40731 40734 40737 40740 40743 40746 40749 40752 40755 40758 40761 40764 40767 40770 40773 40776 40779 40782 40785 40788 40791 40794 40797 40800 40803 40806 40809 40812 40815 40818 40821 40824 40827 40830 40833 40836 40839 40842 40845 40848 40851 40854 40857 40860 40863 40866 40869 40872 40875 40878 40881 40884 40887 40890 40893 40896 40899 40902 40905 40908 40911 40914 40917 40920 40923 40926 40929 40932 40935 40938 40941 40944 40947 40950 40953 40956 40959 40962 40965 40968 40971 40974 40977 40980 40983 40986 40989 40992 40995 40998 41001 41004 41007 41010 41013 41016 41019 41022 41025 41028 41031 41034 41037 41040 41043 41046 41049 41052 41055 41058 41061 41064 41067 41070 41073 41076 41079 41082 41085 41088 41091 41094 41097 41100 41103 41106 41109 41112 41115 41118 41121 41124 41127 41130 41133 41136 41139 41142 41145 41148 41151 41154 41157 41160 41163 41166 41169 41172 41175 41178 41181 41184 41187 41190 41193 41196 41199 41202 41205 41208 41211 41214 41217 41220 41223 41226 41229 41232 41235 41238 41241 41244 41247 41250 41253 41256 41259 41262 41265 41268 41271 41274 41277 41280 41283 41286 41289 41292 41295 41298 41301 41304 41307 41310 41313 41316 41319 41322 41325 41328 41331 41334 41337 41340 41343 41346 41349 41352 41355 41358 41361 41364 41367 41370 41373 41376 41379 41382 41385 41388 41391 41394 41397 41400 41403 41406 41409 41412 41415 41418 41421 41424 41427 41430 41433 41436 41439 41442 41445 41448 41451 41454 41457 41460 41463 41466 41469 41472 41475 41478 41481 41484 41487 41490 41493 41496 41499 41502 41505 41508 41511 41514 41517 41520 41523 41526 41529 41532 41535 41538 41541 41544 41547 41550 41553 41556 41559 41562 41565 41568 41571 41574 41577 41580 41583 41586 41589 41592 41595 41598 41601 41604 41607 41610 41613 41616 41619 41622 41625 41628 41631 41634 41637 41640 41643 41646 41649 41652 41655 41658 41661 41664 41667 41670 41673 41676 41679 41682 41685 41688 41691 41694 41697 41700 41703 41706 41709 41712 41715 41718 41721 41724 41727 41730 41733 41736 41739 41742 41745 41748 41751 41754 41757 41760 41763 41766 41769 41772 41775 41778 41781 41784 41787 41790 41793 41796 41799 41802 41805 41808 41811 41814 41817 41820 41823 41826 41829 41832 41835 41838 41841 41844 41847 41850 41853 41856 41859 41862 41865 41868 41871 41874 41877 41880 41883 41886 41889 41892 41895 41898 41901 41904 41907 41910 41913 41916 41919 41922 41925 41928 41931 41934 41937 41940 41943 41946 41949 41952 41955 41958 41961 41964 41967 41970 41973 41976 41979 41982 41985 41988 41991 41994 41997 42000 42003 42006 42009 42012 42015 42018 42021 42024 42027 42030 42033 42036 42039 42042 42045 42048 42051 42054 42057 42060 42063 42066 42069 42072 42075 42078 42081 42084 42087 42090 42093 42096 42099 42102 42105 42108 42111 42114 42117 42120 42123 42126 42129 42132 42135 42138 42141 42144 42147 42150 42153 42156 42159 42162 42165 42168 42171 42174 42177 42180 42183 42186 42189 42192 42195 42198 42201 42204 42207 42210 42213 42216 42219 42222 42225 42228 42231 42234 42237 42240 42243 42246 42249 42252 42255 42258 42261 42264 42267 42270 42273 42276 42279 42282 42285 42288 42291 42294 42297 42300 42303 42306 42309 42312 42315 42318 42321 42324 42327 42330 42333 42336 42339 42342 42345 42348 42351 42354 42357 42360 42363 42366 42369 42372 42375 42378 42381 42384 42387 42390 42393 42396 42399 42402 42405 42408 42411 42414 42417 42420 42423 42426 42429 42432 42435 42438 42441 42444 42447 42450 42453 42456 42459 42462 42465 42468 42471 42474 42477 42480 42483 42486 42489 42492 42495 42498 42501 42504 42507 42510 42513 42516 42519 42522 42525 42528 42531 42534 42537 42540 42543 42546 42549 42552 42555 42558 42561 42564 42567 42570 42573 42576 42579 42582 42585 42588 42591 42594 42597 42600 42603 42606 42609 42612 42615 42618 42621 42624 42627 42630 42633 42636 42639 42642 42645 42648 42651 42654 42657 42660 42663 42666 42669 42672 42675 42678 42681 42684 42687 42690 42693 42696 42699 42702 42705 42708 42711 42714 42717 42720 42723 42726 42729 42732 42735 42738 42741 42744 42747 42750 42753 42756 42759 42762 42765 42768 42771 42774 42777 42780 42783 42786 42789 42792 42795 42798 42801 42804 42807 42810 42813 42816 42819 42822 42825 42828 42831 42834 42837 42840 42843 42846 42849 42852 42855 42858 42861 42864 42867 42870 42873 42876 42879 42882 42885 42888 42891 42894 42897 42900 42903 42906 42909 42912 42915 42918 42921 42924 42927 42930 42933 42936 42939 42942 42945 42948 42951 42954 42957 42960 42963 42966 42969 42972 42975 42978 42981 42984 42987 42990 42993 42996 42999 43002 43005 43008 43011 43014 43017 43020 43023 43026 43029 43032 43035 43038 43041 43044 43047 43050 43053 43056 43059 43062 43065 43068 43071 43074 43077 43080 43083 43086 43089 43092 43095 43098 43101 43104 43107 43110 43113 43116 43119 43122 43125 43128 43131 43134 43137 43140 43143 43146 43149 43152 43155 43158 43161 43164 43167 43170 43173 43176 43179 43182 43185 43188 43191 43194 43197 43200 43203 43206 43209 43212 43215 43218 43221 43224 43227 43230 43233 43236 43239 43242 43245 43248 43251 43254 43257 43260 43263 43266 43269 43272 43275 43278 43281 43284 43287 43290 43293 43296 43299 43302 43305 43308 43311 43314 43317 43320 43323 43326 43329 43332 43335 43338 43341 43344 43347 43350 43353 43356 43359 43362 43365 43368 43371 43374 43377 43380 43383 43386 43389 43392 43395 43398 43401 43404 43407 43410 43413 43416 43419 43422 43425 43428 43431 43434 43437 43440 43443 43446 43449 43452 43455 43458 43461 43464 43467 43470 43473 43476 43479 43482 43485 43488 43491 43494 43497 43500 43503 43506 43509 43512 43515 43518 43521 43524 43527 43530 43533 43536 43539 43542 43545 43548 43551 43554 43557 43560 43563 43566 43569 43572 43575 43578 43581 43584 43587 43590 43593 43596 43599 43602 43605 43608 43611 43614 43617 43620 43623 43626 43629 43632 43635 43638 43641 43644 43647 43650 43653 43656 43659 43662 43665 43668 43671 43674 43677 43680 43683 43686 43689 43692 43695 43698 43701 43704 43707 43710 43713 43716 43719 43722 43725 43728 43731 43734 43737 43740 43743 43746 43749 43752 43755 43758 43761 43764 43767 43770 43773 43776 43779 43782 43785 43788 43791 43794 43797 43800 43803 43806 43809 43812 43815 43818 43821 43824 43827 43830 43833 43836 43839 43842 43845 43848 43851 43854 43857 43860 43863 43866 43869 43872 43875 43878 43881 43884 43887 43890 43893 43896 43899 43902 43905 43908 43911 43914 43917 43920 43923 43926 43929 43932 43935 43938 43941 43944 43947 43950 43953 43956 43959 43962 43965 43968 43971 43974 43977 43980 43983 43986 43989 43992 43995 43998 44001 44004 44007 44010 44013 44016 44019 44022 44025 44028 44031 44034 44037 44040 44043 44046 44049 44052 44055 44058 44061 44064 44067 44070 44073 44076 44079 44082 44085 44088 44091 44094 44097 44100 44103 44106 44109 44112 44115 44118 44121 44124 44127 44130 44133 44136 44139 44142 44145 44148 44151 44154 44157 44160 44163 44166 44169 44172 44175 44178 44181 44184 44187 44190 44193 44196 44199 44202 44205 44208 44211 44214 44217 44220 44223 44226 44229 44232 44235 44238 44241 44244 44247 44250 44253 44256 44259 44262 44265 44268 44271 44274 44277 44280 44283 44286 44289 44292 44295 44298 44301 44304 44307 44310 44313 44316 44319 44322 44325 44328 44331 44334 44337 44340 44343 44346 44349 44352 44355 44358 44361 44364 44367 44370 44373 44376 44379 44382 44385 44388 44391 44394 44397 44400 44403 44406 44409 44412 44415 44418 44421 44424 44427 44430 44433 44436 44439 44442 44445 44448 44451 44454 44457 44460 44463 44466 44469 44472 44475 44478 44481 44484 44487 44490 44493 44496 44499 44502 44505 44508 44511 44514 44517 44520 44523 44526 44529 44532 44535 44538 44541 44544 44547 44550 44553 44556 44559 44562 44565 44568 44571 44574 44577 44580 44583 44586 44589 44592 44595 44598 44601 44604 44607 44610 44613 44616 44619 44622 44625 44628 44631 44634 44637 44640 44643 44646 44649 44652 44655 44658 44661 44664 44667 44670 44673 44676 44679 44682 44685 44688 44691 44694 44697 44700 44703 44706 44709 44712 44715 44718 44721 44724 44727 44730 44733 44736 44739 44742 44745 44748 44751 44754 44757 44760 44763 44766 44769 44772 44775 44778 44781 44784 44787 44790 44793 44796 44799 44802 44805 44808 44811 44814 44817 44820 44823 44826 44829 44832 44835 44838 44841 44844 44847 44850 44853 44856 44859 44862 44865 44868 44871 44874 44877 44880 44883 44886 44889 44892 44895 44898 44901 44904 44907 44910 44913 44916 44919 44922 44925 44928 44931 44934 44937 44940 44943 44946 44949 44952 44955 44958 44961 44964 44967 44970 44973 44976 44979 44982 44985 44988 44991 44994 44997 45000 45003 45006 45009 45012 45015 45018 45021 45024 45027 45030 45033 45036 45039 45042 45045 45048 45051 45054 45057 45060 45063 45066 45069 45072 45075 45078 45081 45084 45087 45090 45093 45096 45099 45102 45105 45108 45111 45114 45117 45120 45123 45126 45129 45132 45135 45138 45141 45144 45147 45150 45153 45156 45159 45162 45165 45168 45171 45174 45177 45180 45183 45186 45189 45192 45195 45198 45201 45204 45207 45210 45213 45216 45219 45222 45225 45228 45231 45234 45237 45240 45243 45246 45249 45252 45255 45258 45261 45264 45267 45270 45273 45276 45279 45282 45285 45288 45291 45294 45297 45300 45303 45306 45309 45312 45315 45318 45321 45324 45327 45330 45333 45336 45339 45342 45345 45348 45351 45354 45357 45360 45363 45366 45369 45372 45375 45378 45381 45384 45387 45390 45393 45396 45399 45402 45405 45408 45411 45414 45417 45420 45423 45426 45429 45432 45435 45438 45441 45444 45447 45450 45453 45456 45459 45462 45465 45468 45471 45474 45477 45480 45483 45486 45489 45492 45495 45498 45501 45504 45507 45510 45513 45516 45519 45522 45525 45528 45531 45534 45537 45540 45543 45546 45549 45552 45555 45558 45561 45564 45567 45570 45573 45576 45579 45582 45585 45588 45591 45594 45597 45600 45603 45606 45609 45612 45615 45618 45621 45624 45627 45630 45633 45636 45639 45642 45645 45648 45651 45654 45657 45660 45663 45666 45669 45672 45675 45678 45681 45684 45687 45690 45693 45696 45699 45702 45705 45708 45711 45714 45717 45720 45723 45726 45729 45732 45735 45738 45741 45744 45747 45750 45753 45756 45759 45762 45765 45768 45771 45774 45777 45780 45783 45786 45789 45792 45795 45798 45801 45804 45807 45810 45813 45816 45819 45822 45825 45828 45831 45834 45837 45840 45843 45846 45849 45852 45855 45858 45861 45864 45867 45870 45873 45876 45879 45882 45885 45888 45891 45894 45897 45900 45903 45906 45909 45912 45915 45918 45921 45924 45927 45930 45933 45936 45939 45942 45945 45948 45951 45954 45957 45960 45963 45966 45969 45972 45975 45978 45981 45984 45987 45990 45993 45996 45999 46002 46005 46008 46011 46014 46017 46020 46023 46026 46029 46032 46035 46038 46041 46044 46047 46050 46053 46056 46059 46062 46065 46068 46071 46074 46077 46080 46083 46086 46089 46092 46095 46098 46101 46104 46107 46110 46113 46116 46119 46122 46125 46128 46131 46134 46137 46140 46143 46146 46149 46152 46155 46158 46161 46164 46167 46170 46173 46176 46179 46182 46185 46188 46191 46194 46197 46200 46203 46206 46209 46212 46215 46218 46221 46224 46227 46230 46233 46236 46239 46242 46245 46248 46251 46254 46257 46260 46263 46266 46269 46272 46275 46278 46281 46284 46287 46290 46293 46296 46299 46302 46305 46308 46311 46314 46317 46320 46323 46326 46329 46332 46335 46338 46341 46344 46347 46350 46353 46356 46359 46362 46365 46368 46371 46374 46377 46380 46383 46386 46389 46392 46395 46398 46401 46404 46407 46410 46413 46416 46419 46422 46425 46428 46431 46434 46437 46440 46443 46446 46449 46452 46455 46458 46461 46464 46467 46470 46473 46476 46479 46482 46485 46488 46491 46494 46497 46500 46503 46506 46509 46512 46515 46518 46521 46524 46527 46530 46533 46536 46539 46542 46545 46548 46551 46554 46557 46560 46563 46566 46569 46572 46575 46578 46581 46584 46587 46590 46593 46596 46599 46602 46605 46608 46611 46614 46617 46620 46623 46626 46629 46632 46635 46638 46641 46644 46647 46650 46653 46656 46659 46662 46665 46668 46671 46674 46677 46680 46683 46686 46689 46692 46695 46698 46701 46704 46707 46710 46713 46716 46719 46722 46725 46728 46731 46734 46737 46740 46743 46746 46749 46752 46755 46758 46761 46764 46767 46770 46773 46776 46779 46782 46785 46788 46791 46794 46797 46800 46803 46806 46809 46812 46815 46818 46821 46824 46827 46830 46833 46836 46839 46842 46845 46848 46851 46854 46857 46860 46863 46866 46869 46872 46875 46878 46881 46884 46887 46890 46893 46896 46899 46902 46905 46908 46911 46914 46917 46920 46923 46926 46929 46932 46935 46938 46941 46944 46947 46950 46953 46956 46959 46962 46965 46968 46971 46974 46977 46980 46983 46986 46989 46992 46995 46998 47001 47004 47007 47010 47013 47016 47019 47022 47025 47028 47031 47034 47037 47040 47043 47046 47049 47052 47055 47058 47061 47064 47067 47070 47073 47076 47079 47082 47085 47088 47091 47094 47097 47100 47103 47106 47109 47112 47115 47118 47121 47124 47127 47130 47133 47136 47139 47142 47145 47148 47151 47154 47157 47160 47163 47166 47169 47172 47175 47178 47181 47184 47187 47190 47193 47196 47199 47202 47205 47208 47211 47214 47217 47220 47223 47226 47229 47232 47235 47238 47241 47244 47247 47250 47253 47256 47259 47262 47265 47268 47271 47274 47277 47280 47283 47286 47289 47292 47295 47298 47301 47304 47307 47310 47313 47316 47319 47322 47325 47328 47331 47334 47337 47340 47343 47346 47349 47352 47355 47358 47361 47364 47367 47370 47373 47376 47379 47382 47385 47388 47391 47394 47397 47400 47403 47406 47409 47412 47415 47418 47421 47424 47427 47430 47433 47436 47439 47442 47445 47448 47451 47454 47457 47460 47463 47466 47469 47472 47475 47478 47481 47484 47487 47490 47493 47496 47499 47502 47505 47508 47511 47514 47517 47520 47523 47526 47529 47532 47535 47538 47541 47544 47547 47550 47553 47556 47559 47562 47565 47568 47571 47574 47577 47580 47583 47586 47589 47592 47595 47598 47601 47604 47607 47610 47613 47616 47619 47622 47625 47628 47631 47634 47637 47640 47643 47646 47649 47652 47655 47658 47661 47664 47667 47670 47673 47676 47679 47682 47685 47688 47691 47694 47697 47700 47703 47706 47709 47712 47715 47718 47721 47724 47727 47730 47733 47736 47739 47742 47745 47748 47751 47754 47757 47760 47763 47766 47769 47772 47775 47778 47781 47784 47787 47790 47793 47796 47799 47802 47805 47808 47811 47814 47817 47820 47823 47826 47829 47832 47835 47838 47841 47844 47847 47850 47853 47856 47859 47862 47865 47868 47871 47874 47877 47880 47883 47886 47889 47892 47895 47898 47901 47904 47907 47910 47913 47916 47919 47922 47925 47928 47931 47934 47937 47940 47943 47946 47949 47952 47955 47958 47961 47964 47967 47970 47973 47976 47979 47982 47985 47988 47991 47994 47997 48000 48003 48006 48009 48012 48015 48018 48021 48024 48027 48030 48033 48036 48039 48042 48045 48048 48051 48054 48057 48060 48063 48066 48069 48072 48075 48078 48081 48084 48087 48090 48093 48096 48099 48102 48105 48108 48111 48114 48117 48120 48123 48126 48129 48132 48135 48138 48141 48144 48147 48150 48153 48156 48159 48162 48165 48168 48171 48174 48177 48180 48183 48186 48189 48192 48195 48198 48201 48204 48207 48210 48213 48216 48219 48222 48225 48228 48231 48234 48237 48240 48243 48246 48249 48252 48255 48258 48261 48264 48267 48270 48273 48276 48279 48282 48285 48288 48291 48294 48297 48300 48303 48306 48309 48312 48315 48318 48321 48324 48327 48330 48333 48336 48339 48342 48345 48348 48351 48354 48357 48360 48363 48366 48369 48372 48375 48378 48381 48384 48387 48390 48393 48396 48399 48402 48405 48408 48411 48414 48417 48420 48423 48426 48429 48432 48435 48438 48441 48444 48447 48450 48453 48456 48459 48462 48465 48468 48471 48474 48477 48480 48483 48486 48489 48492 48495 48498 48501 48504 48507 48510 48513 48516 48519 48522 48525 48528 48531 48534 48537 48540 48543 48546 48549 48552 48555 48558 48561 48564 48567 48570 48573 48576 48579 48582 48585 48588 48591 48594 48597 48600 48603 48606 48609 48612 48615 48618 48621 48624 48627 48630 48633 48636 48639 48642 48645 48648 48651 48654 48657 48660 48663 48666 48669 48672 48675 48678 48681 48684 48687 48690 48693 48696 48699 48702 48705 48708 48711 48714 48717 48720 48723 48726 48729 48732 48735 48738 48741 48744 48747 48750 48753 48756 48759 48762 48765 48768 48771 48774 48777 48780 48783 48786 48789 48792 48795 48798 48801 48804 48807 48810 48813 48816 48819 48822 48825 48828 48831 48834 48837 48840 48843 48846 48849 48852 48855 48858 48861 48864 48867 48870 48873 48876 48879 48882 48885 48888 48891 48894 48897 48900 48903 48906 48909 48912 48915 48918 48921 48924 48927 48930 48933 48936 48939 48942 48945 48948 48951 48954 48957 48960 48963 48966 48969 48972 48975 48978 48981 48984 48987 48990 48993 48996 48999 49002 49005 49008 49011 49014 49017 49020 49023 49026 49029 49032 49035 49038 49041 49044 49047 49050 49053 49056 49059 49062 49065 49068 49071 49074 49077 49080 49083 49086 49089 49092 49095 49098 49101 49104 49107 49110 49113 49116 49119 49122 49125 49128 49131 49134 49137 49140 49143 49146 49149 49152 49155 49158 49161 49164 49167 49170 49173 49176 49179 49182 49185 49188 49191 49194 49197 49200 49203 49206 49209 49212 49215 49218 49221 49224 49227 49230 49233 49236 49239 49242 49245 49248 49251 49254 49257 49260 49263 49266 49269 49272 49275 49278 49281 49284 49287 49290 49293 49296 49299 49302 49305 49308 49311 49314 49317 49320 49323 49326 49329 49332 49335 49338 49341 49344 49347 49350 49353 49356 49359 49362 49365 49368 49371 49374 49377 49380 49383 49386 49389 49392 49395 49398 49401 49404 49407 49410 49413 49416 49419 49422 49425 49428 49431 49434 49437 49440 49443 49446 49449 49452 49455 49458 49461 49464 49467 49470 49473 49476 49479 49482 49485 49488 49491 49494 49497 49500 49503 49506 49509 49512 49515 49518 49521 49524 49527 49530 49533 49536 49539 49542 49545 49548 49551 49554 49557 49560 49563 49566 49569 49572 49575 49578 49581 49584 49587 49590 49593 49596 49599 49602 49605 49608 49611 49614 49617 49620 49623 49626 49629 49632 49635 49638 49641 49644 49647 49650 49653 49656 49659 49662 49665 49668 49671 49674 49677 49680 49683 49686 49689 49692 49695 49698 49701 49704 49707 49710 49713 49716 49719 49722 49725 49728 49731 49734 49737 49740 49743 49746 49749 49752 49755 49758 49761 49764 49767 49770 49773 49776 49779 49782 49785 49788 49791 49794 49797 49800 49803 49806 49809 49812 49815 49818 49821 49824 49827 49830 49833 49836 49839 49842 49845 49848 49851 49854 49857 49860 49863 49866 49869 49872 49875 49878 49881 49884 49887 49890 49893 49896 49899 49902 49905 49908 49911 49914 49917 49920 49923 49926 49929 49932 49935 49938 49941 49944 49947 49950 49953 49956 49959 49962 49965 49968 49971 49974 49977 49980 49983 49986 49989 49992 49995 49998 50001 50004 50007 50010 50013 50016 50019 50022 50025 50028 50031 50034 50037 50040 50043 50046 50049 50052 50055 50058 50061 50064 50067 50070 50073 50076 50079 50082 50085 50088 50091 50094 50097 50100 50103 50106 50109 50112 50115 50118 50121 50124 50127 50130 50133 50136 50139 50142 50145 50148 50151 50154 50157 50160 50163 50166 50169 50172 50175 50178 50181 50184 50187 50190 50193 50196 50199 50202 50205 50208 50211 50214 50217 50220 50223 50226 50229 50232 50235 50238 50241 50244 50247 50250 50253 50256 50259 50262 50265 50268 50271 50274 50277 50280 50283 50286 50289 50292 50295 50298 50301 50304 50307 50310 50313 50316 50319 50322 50325 50328 50331 50334 50337 50340 50343 50346 50349 50352 50355 50358 50361 50364 50367 50370 50373 50376 50379 50382 50385 50388 50391 50394 50397 50400 50403 50406 50409 50412 50415 50418 50421 50424 50427 50430 50433 50436 50439 50442 50445 50448 50451 50454 50457 50460 50463 50466 50469 50472 50475 50478 50481 50484 50487 50490 50493 50496 50499 50502 50505 50508 50511 50514 50517 50520 50523 50526 50529 50532 50535 50538 50541 50544 50547 50550 50553 50556 50559 50562 50565 50568 50571 50574 50577 50580 50583 50586 50589 50592 50595 50598 50601 50604 50607 50610 50613 50616 50619 50622 50625 50628 50631 50634 50637 50640 50643 50646 50649 50652 50655 50658 50661 50664 50667 50670 50673 50676 50679 50682 50685 50688 50691 50694 50697 50700 50703 50706 50709 50712 50715 50718 50721 50724 50727 50730 50733 50736 50739 50742 50745 50748 50751 50754 50757 50760 50763 50766 50769 50772 50775 50778 50781 50784 50787 50790 50793 50796 50799 50802 50805 50808 50811 50814 50817 50820 50823 50826 50829 50832 50835 50838 50841 50844 50847 50850 50853 50856 50859 50862 50865 50868 50871 50874 50877 50880 50883 50886 50889 50892 50895 50898 50901 50904 50907 50910 50913 50916 50919 50922 50925 50928 50931 50934 50937 50940 50943 50946 50949 50952 50955 50958 50961 50964 50967 50970 50973 50976 50979 50982 50985 50988 50991 50994 50997 51000 51003 51006 51009 51012 51015 51018 51021 51024 51027 51030 51033 51036 51039 51042 51045 51048 51051 51054 51057 51060 51063 51066 51069 51072 51075 51078 51081 51084 51087 51090 51093 51096 51099 51102 51105 51108 51111 51114 51117 51120 51123 51126 51129 51132 51135 51138 51141 51144 51147 51150 51153 51156 51159 51162 51165 51168 51171 51174 51177 51180 51183 51186 51189 51192 51195 51198 51201 51204 51207 51210 51213 51216 51219 51222 51225 51228 51231 51234 51237 51240 51243 51246 51249 51252 51255 51258 51261 51264 51267 51270 51273 51276 51279 51282 51285 51288 51291 51294 51297 51300 51303 51306 51309 51312 51315 51318 51321 51324 51327 51330 51333 51336 51339 51342 51345 51348 51351 51354 51357 51360 51363 51366 51369 51372 51375 51378 51381 51384 51387 51390 51393 51396 51399 51402 51405 51408 51411 51414 51417 51420 51423 51426 51429 51432 51435 51438 51441 51444 51447 51450 51453 51456 51459 51462 51465 51468 51471 51474 51477 51480 51483 51486 51489 51492 51495 51498 51501 51504 51507 51510 51513 51516 51519 51522 51525 51528 51531 51534 51537 51540 51543 51546 51549 51552 51555 51558 51561 51564 51567 51570 51573 51576 51579 51582 51585 51588 51591 51594 51597 51600 51603 51606 51609 51612 51615 51618 51621 51624 51627 51630 51633 51636 51639 51642 51645 51648 51651 51654 51657 51660 51663 51666 51669 51672 51675 51678 51681 51684 51687 51690 51693 51696 51699 51702 51705 51708 51711 51714 51717 51720 51723 51726 51729 51732 51735 51738 51741 51744 51747 51750 51753 51756 51759 51762 51765 51768 51771 51774 51777 51780 51783 51786 51789 51792 51795 51798 51801 51804 51807 51810 51813 51816 51819 51822 51825 51828 51831 51834 51837 51840 51843 51846 51849 51852 51855 51858 51861 51864 51867 51870 51873 51876 51879 51882 51885 51888 51891 51894 51897 51900 51903 51906 51909 51912 51915 51918 51921 51924 51927 51930 51933 51936 51939 51942 51945 51948 51951 51954 51957 51960 51963 51966 51969 51972 51975 51978 51981 51984 51987 51990 51993 51996 51999 52002 52005 52008 52011 52014 52017 52020 52023 52026 52029 52032 52035 52038 52041 52044 52047 52050 52053 52056 52059 52062 52065 52068 52071 52074 52077 52080 52083 52086 52089 52092 52095 52098 52101 52104 52107 52110 52113 52116 52119 52122 52125 52128 52131 52134 52137 52140 52143 52146 52149 52152 52155 52158 52161 52164 52167 52170 52173 52176 52179 52182 52185 52188 52191 52194 52197 52200 52203 52206 52209 52212 52215 52218 52221 52224 52227 52230 52233 52236 52239 52242 52245 52248 52251 52254 52257 52260 52263 52266 52269 52272 52275 52278 52281 52284 52287 52290 52293 52296 52299 52302 52305 52308 52311 52314 52317 52320 52323 52326 52329 52332 52335 52338 52341 52344 52347 52350 52353 52356 52359 52362 52365 52368 52371 52374 52377 52380 52383 52386 52389 52392 52395 52398 52401 52404 52407 52410 52413 52416 52419 52422 52425 52428 52431 52434 52437 52440 52443 52446 52449 52452 52455 52458 52461 52464 52467 52470 52473 52476 52479 52482 52485 52488 52491 52494 52497 52500 52503 52506 52509 52512 52515 52518 52521 52524 52527 52530 52533 52536 52539 52542 52545 52548 52551 52554 52557 52560 52563 52566 52569 52572 52575 52578 52581 52584 52587 52590 52593 52596 52599 52602 52605 52608 52611 52614 52617 52620 52623 52626 52629 52632 52635 52638 52641 52644 52647 52650 52653 52656 52659 52662 52665 52668 52671 52674 52677 52680 52683 52686 52689 52692 52695 52698 52701 52704 52707 52710 52713 52716 52719 52722 52725 52728 52731 52734 52737 52740 52743 52746 52749 52752 52755 52758 52761 52764 52767 52770 52773 52776 52779 52782 52785 52788 52791 52794 52797 52800 52803 52806 52809 52812 52815 52818 52821 52824 52827 52830 52833 52836 52839 52842 52845 52848 52851 52854 52857 52860 52863 52866 52869 52872 52875 52878 52881 52884 52887 52890 52893 52896 52899 52902 52905 52908 52911 52914 52917 52920 52923 52926 52929 52932 52935 52938 52941 52944 52947 52950 52953 52956 52959 52962 52965 52968 52971 52974 52977 52980 52983 52986 52989 52992 52995 52998 53001 53004 53007 53010 53013 53016 53019 53022 53025 53028 53031 53034 53037 53040 53043 53046 53049 53052 53055 53058 53061 53064 53067 53070 53073 53076 53079 53082 53085 53088 53091 53094 53097 53100 53103 53106 53109 53112 53115 53118 53121 53124 53127 53130 53133 53136 53139 53142 53145 53148 53151 53154 53157 53160 53163 53166 53169 53172 53175 53178 53181 53184 53187 53190 53193 53196 53199 53202 53205 53208 53211 53214 53217 53220 53223 53226 53229 53232 53235 53238 53241 53244 53247 53250 53253 53256 53259 53262 53265 53268 53271 53274 53277 53280 53283 53286 53289 53292 53295 53298 53301 53304 53307 53310 53313 53316 53319 53322 53325 53328 53331 53334 53337 53340 53343 53346 53349 53352 53355 53358 53361 53364 53367 53370 53373 53376 53379 53382 53385 53388 53391 53394 53397 53400 53403 53406 53409 53412 53415 53418 53421 53424 53427 53430 53433 53436 53439 53442 53445 53448 53451 53454 53457 53460 53463 53466 53469 53472 53475 53478 53481 53484 53487 53490 53493 53496 53499 53502 53505 53508 53511 53514 53517 53520 53523 53526 53529 53532 53535 53538 53541 53544 53547 53550 53553 53556 53559 53562 53565 53568 53571 53574 53577 53580 53583 53586 53589 53592 53595 53598 53601 53604 53607 53610 53613 53616 53619 53622 53625 53628 53631 53634 53637 53640 53643 53646 53649 53652 53655 53658 53661 53664 53667 53670 53673 53676 53679 53682 53685 53688 53691 53694 53697 53700 53703 53706 53709 53712 53715 53718 53721 53724 53727 53730 53733 53736 53739 53742 53745 53748 53751 53754 53757 53760 53763 53766 53769 53772 53775 53778 53781 53784 53787 53790 53793 53796 53799 53802 53805 53808 53811 53814 53817 53820 53823 53826 53829 53832 53835 53838 53841 53844 53847 53850 53853 53856 53859 53862 53865 53868 53871 53874 53877 53880 53883 53886 53889 53892 53895 53898 53901 53904 53907 53910 53913 53916 53919 53922 53925 53928 53931 53934 53937 53940 53943 53946 53949 53952 53955 53958 53961 53964 53967 53970 53973 53976 53979 53982 53985 53988 53991 53994 53997 54000 54003 54006 54009 54012 54015 54018 54021 54024 54027 54030 54033 54036 54039 54042 54045 54048 54051 54054 54057 54060 54063 54066 54069 54072 54075 54078 54081 54084 54087 54090 54093 54096 54099 54102 54105 54108 54111 54114 54117 54120 54123 54126 54129 54132 54135 54138 54141 54144 54147 54150 54153 54156 54159 54162 54165 54168 54171 54174 54177 54180 54183 54186 54189 54192 54195 54198 54201 54204 54207 54210 54213 54216 54219 54222 54225 54228 54231 54234 54237 54240 54243 54246 54249 54252 54255 54258 54261 54264 54267 54270 54273 54276 54279 54282 54285 54288 54291 54294 54297 54300 54303 54306 54309 54312 54315 54318 54321 54324 54327 54330 54333 54336 54339 54342 54345 54348 54351 54354 54357 54360 54363 54366 54369 54372 54375 54378 54381 54384 54387 54390 54393 54396 54399 54402 54405 54408 54411 54414 54417 54420 54423 54426 54429 54432 54435 54438 54441 54444 54447 54450 54453 54456 54459 54462 54465 54468 54471 54474 54477 54480 54483 54486 54489 54492 54495 54498 54501 54504 54507 54510 54513 54516 54519 54522 54525 54528 54531 54534 54537 54540 54543 54546 54549 54552 54555 54558 54561 54564 54567 54570 54573 54576 54579 54582 54585 54588 54591 54594 54597 54600 54603 54606 54609 54612 54615 54618 54621 54624 54627 54630 54633 54636 54639 54642 54645 54648 54651 54654 54657 54660 54663 54666 54669 54672 54675 54678 54681 54684 54687 54690 54693 54696 54699 54702 54705 54708 54711 54714 54717 54720 54723 54726 54729 54732 54735 54738 54741 54744 54747 54750 54753 54756 54759 54762 54765 54768 54771 54774 54777 54780 54783 54786 54789 54792 54795 54798 54801 54804 54807 54810 54813 54816 54819 54822 54825 54828 54831 54834 54837 54840 54843 54846 54849 54852 54855 54858 54861 54864 54867 54870 54873 54876 54879 54882 54885 54888 54891 54894 54897 54900 54903 54906 54909 54912 54915 54918 54921 54924 54927 54930 54933 54936 54939 54942 54945 54948 54951 54954 54957 54960 54963 54966 54969 54972 54975 54978 54981 54984 54987 54990 54993 54996 54999 55002 55005 55008 55011 55014 55017 55020 55023 55026 55029 55032 55035 55038 55041 55044 55047 55050 55053 55056 55059 55062 55065 55068 55071 55074 55077 55080 55083 55086 55089 55092 55095 55098 55101 55104 55107 55110 55113 55116 55119 55122 55125 55128 55131 55134 55137 55140 55143 55146 55149 55152 55155 55158 55161 55164 55167 55170 55173 55176 55179 55182 55185 55188 55191 55194 55197 55200 55203 55206 55209 55212 55215 55218 55221 55224 55227 55230 55233 55236 55239 55242 55245 55248 55251 55254 55257 55260 55263 55266 55269 55272 55275 55278 55281 55284 55287 55290 55293 55296 55299 55302 55305 55308 55311 55314 55317 55320 55323 55326 55329 55332 55335 55338 55341 55344 55347 55350 55353 55356 55359 55362 55365 55368 55371 55374 55377 55380 55383 55386 55389 55392 55395 55398 55401 55404 55407 55410 55413 55416 55419 55422 55425 55428 55431 55434 55437 55440 55443 55446 55449 55452 55455 55458 55461 55464 55467 55470 55473 55476 55479 55482 55485 55488 55491 55494 55497 55500 55503 55506 55509 55512 55515 55518 55521 55524 55527 55530 55533 55536 55539 55542 55545 55548 55551 55554 55557 55560 55563 55566 55569 55572 55575 55578 55581 55584 55587 55590 55593 55596 55599 55602 55605 55608 55611 55614 55617 55620 55623 55626 55629 55632 55635 55638 55641 55644 55647 55650 55653 55656 55659 55662 55665 55668 55671 55674 55677 55680 55683 55686 55689 55692 55695 55698 55701 55704 55707 55710 55713 55716 55719 55722 55725 55728 55731 55734 55737 55740 55743 55746 55749 55752 55755 55758 55761 55764 55767 55770 55773 55776 55779 55782 55785 55788 55791 55794 55797 55800 55803 55806 55809 55812 55815 55818 55821 55824 55827 55830 55833 55836 55839 55842 55845 55848 55851 55854 55857 55860 55863 55866 55869 55872 55875 55878 55881 55884 55887 55890 55893 55896 55899 55902 55905 55908 55911 55914 55917 55920 55923 55926 55929 55932 55935 55938 55941 55944 55947 55950 55953 55956 55959 55962 55965 55968 55971 55974 55977 55980 55983 55986 55989 55992 55995 55998 56001 56004 56007 56010 56013 56016 56019 56022 56025 56028 56031 56034 56037 56040 56043 56046 56049 56052 56055 56058 56061 56064 56067 56070 56073 56076 56079 56082 56085 56088 56091 56094 56097 56100 56103 56106 56109 56112 56115 56118 56121 56124 56127 56130 56133 56136 56139 56142 56145 56148 56151 56154 56157 56160 56163 56166 56169 56172 56175 56178 56181 56184 56187 56190 56193 56196 56199 56202 56205 56208 56211 56214 56217 56220 56223 56226 56229 56232 56235 56238 56241 56244 56247 56250 56253 56256 56259 56262 56265 56268 56271 56274 56277 56280 56283 56286 56289 56292 56295 56298 56301 56304 56307 56310 56313 56316 56319 56322 56325 56328 56331 56334 56337 56340 56343 56346 56349 56352 56355 56358 56361 56364 56367 56370 56373 56376 56379 56382 56385 56388 56391 56394 56397 56400 56403 56406 56409 56412 56415 56418 56421 56424 56427 56430 56433 56436 56439 56442 56445 56448 56451 56454 56457 56460 56463 56466 56469 56472 56475 56478 56481 56484 56487 56490 56493 56496 56499 56502 56505 56508 56511 56514 56517 56520 56523 56526 56529 56532 56535 56538 56541 56544 56547 56550 56553 56556 56559 56562 56565 56568 56571 56574 56577 56580 56583 56586 56589 56592 56595 56598 56601 56604 56607 56610 56613 56616 56619 56622 56625 56628 56631 56634 56637 56640 56643 56646 56649 56652 56655 56658 56661 56664 56667 56670 56673 56676 56679 56682 56685 56688 56691 56694 56697 56700 56703 56706 56709 56712 56715 56718 56721 56724 56727 56730 56733 56736 56739 56742 56745 56748 56751 56754 56757 56760 56763 56766 56769 56772 56775 56778 56781 56784 56787 56790 56793 56796 56799 56802 56805 56808 56811 56814 56817 56820 56823 56826 56829 56832 56835 56838 56841 56844 56847 56850 56853 56856 56859 56862 56865 56868 56871 56874 56877 56880 56883 56886 56889 56892 56895 56898 56901 56904 56907 56910 56913 56916 56919 56922 56925 56928 56931 56934 56937 56940 56943 56946 56949 56952 56955 56958 56961 56964 56967 56970 56973 56976 56979 56982 56985 56988 56991 56994 56997 57000 57003 57006 57009 57012 57015 57018 57021 57024 57027 57030 57033 57036 57039 57042 57045 57048 57051 57054 57057 57060 57063 57066 57069 57072 57075 57078 57081 57084 57087 57090 57093 57096 57099 57102 57105 57108 57111 57114 57117 57120 57123 57126 57129 57132 57135 57138 57141 57144 57147 57150 57153 57156 57159 57162 57165 57168 57171 57174 57177 57180 57183 57186 57189 57192 57195 57198 57201 57204 57207 57210 57213 57216 57219 57222 57225 57228 57231 57234 57237 57240 57243 57246 57249 57252 57255 57258 57261 57264 57267 57270 57273 57276 57279 57282 57285 57288 57291 57294 57297 57300 57303 57306 57309 57312 57315 57318 57321 57324 57327 57330 57333 57336 57339 57342 57345 57348 57351 57354 57357 57360 57363 57366 57369 57372 57375 57378 57381 57384 57387 57390 57393 57396 57399 57402 57405 57408 57411 57414 57417 57420 57423 57426 57429 57432 57435 57438 57441 57444 57447 57450 57453 57456 57459 57462 57465 57468 57471 57474 57477 57480 57483 57486 57489 57492 57495 57498 57501 57504 57507 57510 57513 57516 57519 57522 57525 57528 57531 57534 57537 57540 57543 57546 57549 57552 57555 57558 57561 57564 57567 57570 57573 57576 57579 57582 57585 57588 57591 57594 57597 57600 57603 57606 57609 57612 57615 57618 57621 57624 57627 57630 57633 57636 57639 57642 57645 57648 57651 57654 57657 57660 57663 57666 57669 57672 57675 57678 57681 57684 57687 57690 57693 57696 57699 57702 57705 57708 57711 57714 57717 57720 57723 57726 57729 57732 57735 57738 57741 57744 57747 57750 57753 57756 57759 57762 57765 57768 57771 57774 57777 57780 57783 57786 57789 57792 57795 57798 57801 57804 57807 57810 57813 57816 57819 57822 57825 57828 57831 57834 57837 57840 57843 57846 57849 57852 57855 57858 57861 57864 57867 57870 57873 57876 57879 57882 57885 57888 57891 57894 57897 57900 57903 57906 57909 57912 57915 57918 57921 57924 57927 57930 57933 57936 57939 57942 57945 57948 57951 57954 57957 57960 57963 57966 57969 57972 57975 57978 57981 57984 57987 57990 57993 57996 57999 58002 58005 58008 58011 58014 58017 58020 58023 58026 58029 58032 58035 58038 58041 58044 58047 58050 58053 58056 58059 58062 58065 58068 58071 58074 58077 58080 58083 58086 58089 58092 58095 58098 58101 58104 58107 58110 58113 58116 58119 58122 58125 58128 58131 58134 58137 58140 58143 58146 58149 58152 58155 58158 58161 58164 58167 58170 58173 58176 58179 58182 58185 58188 58191 58194 58197 58200 58203 58206 58209 58212 58215 58218 58221 58224 58227 58230 58233 58236 58239 58242 58245 58248 58251 58254 58257 58260 58263 58266 58269 58272 58275 58278 58281 58284 58287 58290 58293 58296 58299 58302 58305 58308 58311 58314 58317 58320 58323 58326 58329 58332 58335 58338 58341 58344 58347 58350 58353 58356 58359 58362 58365 58368 58371 58374 58377 58380 58383 58386 58389 58392 58395 58398 58401 58404 58407 58410 58413 58416 58419 58422 58425 58428 58431 58434 58437 58440 58443 58446 58449 58452 58455 58458 58461 58464 58467 58470 58473 58476 58479 58482 58485 58488 58491 58494 58497 58500 58503 58506 58509 58512 58515 58518 58521 58524 58527 58530 58533 58536 58539 58542 58545 58548 58551 58554 58557 58560 58563 58566 58569 58572 58575 58578 58581 58584 58587 58590 58593 58596 58599 58602 58605 58608 58611 58614 58617 58620 58623 58626 58629 58632 58635 58638 58641 58644 58647 58650 58653 58656 58659 58662 58665 58668 58671 58674 58677 58680 58683 58686 58689 58692 58695 58698 58701 58704 58707 58710 58713 58716 58719 58722 58725 58728 58731 58734 58737 58740 58743 58746 58749 58752 58755 58758 58761 58764 58767 58770 58773 58776 58779 58782 58785 58788 58791 58794 58797 58800 58803 58806 58809 58812 58815 58818 58821 58824 58827 58830 58833 58836 58839 58842 58845 58848 58851 58854 58857 58860 58863 58866 58869 58872 58875 58878 58881 58884 58887 58890 58893 58896 58899 58902 58905 58908 58911 58914 58917 58920 58923 58926 58929 58932 58935 58938 58941 58944 58947 58950 58953 58956 58959 58962 58965 58968 58971 58974 58977 58980 58983 58986 58989 58992 58995 58998 59001 59004 59007 59010 59013 59016 59019 59022 59025 59028 59031 59034 59037 59040 59043 59046 59049 59052 59055 59058 59061 59064 59067 59070 59073 59076 59079 59082 59085 59088 59091 59094 59097 59100 59103 59106 59109 59112 59115 59118 59121 59124 59127 59130 59133 59136 59139 59142 59145 59148 59151 59154 59157 59160 59163 59166 59169 59172 59175 59178 59181 59184 59187 59190 59193 59196 59199 59202 59205 59208 59211 59214 59217 59220 59223 59226 59229 59232 59235 59238 59241 59244 59247 59250 59253 59256 59259 59262 59265 59268 59271 59274 59277 59280 59283 59286 59289 59292 59295 59298 59301 59304 59307 59310 59313 59316 59319 59322 59325 59328 59331 59334 59337 59340 59343 59346 59349 59352 59355 59358 59361 59364 59367 59370 59373 59376 59379 59382 59385 59388 59391 59394 59397 59400 59403 59406 59409 59412 59415 59418 59421 59424 59427 59430 59433 59436 59439 59442 59445 59448 59451 59454 59457 59460 59463 59466 59469 59472 59475 59478 59481 59484 59487 59490 59493 59496 59499 59502 59505 59508 59511 59514 59517 59520 59523 59526 59529 59532 59535 59538 59541 59544 59547 59550 59553 59556 59559 59562 59565 59568 59571 59574 59577 59580 59583 59586 59589 59592 59595 59598 59601 59604 59607 59610 59613 59616 59619 59622 59625 59628 59631 59634 59637 59640 59643 59646 59649 59652 59655 59658 59661 59664 59667 59670 59673 59676 59679 59682 59685 59688 59691 59694 59697 59700 59703 59706 59709 59712 59715 59718 59721 59724 59727 59730 59733 59736 59739 59742 59745 59748 59751 59754 59757 59760 59763 59766 59769 59772 59775 59778 59781 59784 59787 59790 59793 59796 59799 59802 59805 59808 59811 59814 59817 59820 59823 59826 59829 59832 59835 59838 59841 59844 59847 59850 59853 59856 59859 59862 59865 59868 59871 59874 59877 59880 59883 59886 59889 59892 59895 59898 59901 59904 59907 59910 59913 59916 59919 59922 59925 59928 59931 59934 59937 59940 59943 59946 59949 59952 59955 59958 59961 59964 59967 59970 59973 59976 59979 59982 59985 59988 59991 59994 59997 60000 60003 60006 60009 60012 60015 60018 60021 60024 60027 60030 60033 60036 60039 60042 60045 60048 60051 60054 60057 60060 60063 60066 60069 60072 60075 60078 60081 60084 60087 60090 60093 60096 60099 60102 60105 60108 60111 60114 60117 60120 60123 60126 60129 60132 60135 60138 60141 60144 60147 60150 60153 60156 60159 60162 60165 60168 60171 60174 60177 60180 60183 60186 60189 60192 60195 60198 60201 60204 60207 60210 60213 60216 60219 60222 60225 60228 60231 60234 60237 60240 60243 60246 60249 60252 60255 60258 60261 60264 60267 60270 60273 60276 60279 60282 60285 60288 60291 60294 60297 60300 60303 60306 60309 60312 60315 60318 60321 60324 60327 60330 60333 60336 60339 60342 60345 60348 60351 60354 60357 60360 60363 60366 60369 60372 60375 60378 60381 60384 60387 60390 60393 60396 60399 60402 60405 60408 60411 60414 60417 60420 60423 60426 60429 60432 60435 60438 60441 60444 60447 60450 60453 60456 60459 60462 60465 60468 60471 60474 60477 60480 60483 60486 60489 60492 60495 60498 60501 60504 60507 60510 60513 60516 60519 60522 60525 60528 60531 60534 60537 60540 60543 60546 60549 60552 60555 60558 60561 60564 60567 60570 60573 60576 60579 60582 60585 60588 60591 60594 60597 60600 60603 60606 60609 60612 60615 60618 60621 60624 60627 60630 60633 60636 60639 60642 60645 60648 60651 60654 60657 60660 60663 60666 60669 60672 60675 60678 60681 60684 60687 60690 60693 60696 60699 60702 60705 60708 60711 60714 60717 60720 60723 60726 60729 60732 60735 60738 60741 60744 60747 60750 60753 60756 60759 60762 60765 60768 60771 60774 60777 60780 60783 60786 60789 60792 60795 60798 60801 60804 60807 60810 60813 60816 60819 60822 60825 60828 60831 60834 60837 60840 60843 60846 60849 60852 60855 60858 60861 60864 60867 60870 60873 60876 60879 60882 60885 60888 60891 60894 60897 60900 60903 60906 60909 60912 60915 60918 60921 60924 60927 60930 60933 60936 60939 60942 60945 60948 60951 60954 60957 60960 60963 60966 60969 60972 60975 60978 60981 60984 60987 60990 60993 60996 60999 61002 61005 61008 61011 61014 61017 61020 61023 61026 61029 61032 61035 61038 61041 61044 61047 61050 61053 61056 61059 61062 61065 61068 61071 61074 61077 61080 61083 61086 61089 61092 61095 61098 61101 61104 61107 61110 61113 61116 61119 61122 61125 61128 61131 61134 61137 61140 61143 61146 61149 61152 61155 61158 61161 61164 61167 61170 61173 61176 61179 61182 61185 61188 61191 61194 61197 61200 61203 61206 61209 61212 61215 61218 61221 61224 61227 61230 61233 61236 61239 61242 61245 61248 61251 61254 61257 61260 61263 61266 61269 61272 61275 61278 61281 61284 61287 61290 61293 61296 61299 61302 61305 61308 61311 61314 61317 61320 61323 61326 61329 61332 61335 61338 61341 61344 61347 61350 61353 61356 61359 61362 61365 61368 61371 61374 61377 61380 61383 61386 61389 61392 61395 61398 61401 61404 61407 61410 61413 61416 61419 61422 61425 61428 61431 61434 61437 61440 61443 61446 61449 61452 61455 61458 61461 61464 61467 61470 61473 61476 61479 61482 61485 61488 61491 61494 61497 61500 61503 61506 61509 61512 61515 61518 61521 61524 61527 61530 61533 61536 61539 61542 61545 61548 61551 61554 61557 61560 61563 61566 61569 61572 61575 61578 61581 61584 61587 61590 61593 61596 61599 61602 61605 61608 61611 61614 61617 61620 61623 61626 61629 61632 61635 61638 61641 61644 61647 61650 61653 61656 61659 61662 61665 61668 61671 61674 61677 61680 61683 61686 61689 61692 61695 61698 61701 61704 61707 61710 61713 61716 61719 61722 61725 61728 61731 61734 61737 61740 61743 61746 61749 61752 61755 61758 61761 61764 61767 61770 61773 61776 61779 61782 61785 61788 61791 61794 61797 61800 61803 61806 61809 61812 61815 61818 61821 61824 61827 61830 61833 61836 61839 61842 61845 61848 61851 61854 61857 61860 61863 61866 61869 61872 61875 61878 61881 61884 61887 61890 61893 61896 61899 61902 61905 61908 61911 61914 61917 61920 61923 61926 61929 61932 61935 61938 61941 61944 61947 61950 61953 61956 61959 61962 61965 61968 61971 61974 61977 61980 61983 61986 61989 61992 61995 61998 62001 62004 62007 62010 62013 62016 62019 62022 62025 62028 62031 62034 62037 62040 62043 62046 62049 62052 62055 62058 62061 62064 62067 62070 62073 62076 62079 62082 62085 62088 62091 62094 62097 62100 62103 62106 62109 62112 62115 62118 62121 62124 62127 62130 62133 62136 62139 62142 62145 62148 62151 62154 62157 62160 62163 62166 62169 62172 62175 62178 62181 62184 62187 62190 62193 62196 62199 62202 62205 62208 62211 62214 62217 62220 62223 62226 62229 62232 62235 62238 62241 62244 62247 62250 62253 62256 62259 62262 62265 62268 62271 62274 62277 62280 62283 62286 62289 62292 62295 62298 62301 62304 62307 62310 62313 62316 62319 62322 62325 62328 62331 62334 62337 62340 62343 62346 62349 62352 62355 62358 62361 62364 62367 62370 62373 62376 62379 62382 62385 62388 62391 62394 62397 62400 62403 62406 62409 62412 62415 62418 62421 62424 62427 62430 62433 62436 62439 62442 62445 62448 62451 62454 62457 62460 62463 62466 62469 62472 62475 62478 62481 62484 62487 62490 62493 62496 62499 62502 62505 62508 62511 62514 62517 62520 62523 62526 62529 62532 62535 62538 62541 62544 62547 62550 62553 62556 62559 62562 62565 62568 62571 62574 62577 62580 62583 62586 62589 62592 62595 62598 62601 62604 62607 62610 62613 62616 62619 62622 62625 62628 62631 62634 62637 62640 62643 62646 62649 62652 62655 62658 62661 62664 62667 62670 62673 62676 62679 62682 62685 62688 62691 62694 62697 62700 62703 62706 62709 62712 62715 62718 62721 62724 62727 62730 62733 62736 62739 62742 62745 62748 62751 62754 62757 62760 62763 62766 62769 62772 62775 62778 62781 62784 62787 62790 62793 62796 62799 62802 62805 62808 62811 62814 62817 62820 62823 62826 62829 62832 62835 62838 62841 62844 62847 62850 62853 62856 62859 62862 62865 62868 62871 62874 62877 62880 62883 62886 62889 62892 62895 62898 62901 62904 62907 62910 62913 62916 62919 62922 62925 62928 62931 62934 62937 62940 62943 62946 62949 62952 62955 62958 62961 62964 62967 62970 62973 62976 62979 62982 62985 62988 62991 62994 62997 63000 63003 63006 63009 63012 63015 63018 63021 63024 63027 63030 63033 63036 63039 63042 63045 63048 63051 63054 63057 63060 63063 63066 63069 63072 63075 63078 63081 63084 63087 63090 63093 63096 63099 63102 63105 63108 63111 63114 63117 63120 63123 63126 63129 63132 63135 63138 63141 63144 63147 63150 63153 63156 63159 63162 63165 63168 63171 63174 63177 63180 63183 63186 63189 63192 63195 63198 63201 63204 63207 63210 63213 63216 63219 63222 63225 63228 63231 63234 63237 63240 63243 63246 63249 63252 63255 63258 63261 63264 63267 63270 63273 63276 63279 63282 63285 63288 63291 63294 63297 63300 63303 63306 63309 63312 63315 63318 63321 63324 63327 63330 63333 63336 63339 63342 63345 63348 63351 63354 63357 63360 63363 63366 63369 63372 63375 63378 63381 63384 63387 63390 63393 63396 63399 63402 63405 63408 63411 63414 63417 63420 63423 63426 63429 63432 63435 63438 63441 63444 63447 63450 63453 63456 63459 63462 63465 63468 63471 63474 63477 63480 63483 63486 63489 63492 63495 63498 63501 63504 63507 63510 63513 63516 63519 63522 63525 63528 63531 63534 63537 63540 63543 63546 63549 63552 63555 63558 63561 63564 63567 63570 63573 63576 63579 63582 63585 63588 63591 63594 63597 63600 63603 63606 63609 63612 63615 63618 63621 63624 63627 63630 63633 63636 63639 63642 63645 63648 63651 63654 63657 63660 63663 63666 63669 63672 63675 63678 63681 63684 63687 63690 63693 63696 63699 63702 63705 63708 63711 63714 63717 63720 63723 63726 63729 63732 63735 63738 63741 63744 63747 63750 63753 63756 63759 63762 63765 63768 63771 63774 63777 63780 63783 63786 63789 63792 63795 63798 63801 63804 63807 63810 63813 63816 63819 63822 63825 63828 63831 63834 63837 63840 63843 63846 63849 63852 63855 63858 63861 63864 63867 63870 63873 63876 63879 63882 63885 63888 63891 63894 63897 63900 63903 63906 63909 63912 63915 63918 63921 63924 63927 63930 63933 63936 63939 63942 63945 63948 63951 63954 63957 63960 63963 63966 63969 63972 63975 63978 63981 63984 63987 63990 63993 63996 63999 64002 64005 64008 64011 64014 64017 64020 64023 64026 64029 64032 64035 64038 64041 64044 64047 64050 64053 64056 64059 64062 64065 64068 64071 64074 64077 64080 64083 64086 64089 64092 64095 64098 64101 64104 64107 64110 64113 64116 64119 64122 64125 64128 64131 64134 64137 64140 64143 64146 64149 64152 64155 64158 64161 64164 64167 64170 64173 64176 64179 64182 64185 64188 64191 64194 64197 64200 64203 64206 64209 64212 64215 64218 64221 64224 64227 64230 64233 64236 64239 64242 64245 64248 64251 64254 64257 64260 64263 64266 64269 64272 64275 64278 64281 64284 64287 64290 64293 64296 64299 64302 64305 64308 64311 64314 64317 64320 64323 64326 64329 64332 64335 64338 64341 64344 64347 64350 64353 64356 64359 64362 64365 64368 64371 64374 64377 64380 64383 64386 64389 64392 64395 64398 64401 64404 64407 64410 64413 64416 64419 64422 64425 64428 64431 64434 64437 64440 64443 64446 64449 64452 64455 64458 64461 64464 64467 64470 64473 64476 64479 64482 64485 64488 64491 64494 64497 64500 64503 64506 64509 64512 64515 64518 64521 64524 64527 64530 64533 64536 64539 64542 64545 64548 64551 64554 64557 64560 64563 64566 64569 64572 64575 64578 64581 64584 64587 64590 64593 64596 64599 64602 64605 64608 64611 64614 64617 64620 64623 64626 64629 64632 64635 64638 64641 64644 64647 64650 64653 64656 64659 64662 64665 64668 64671 64674 64677 64680 64683 64686 64689 64692 64695 64698 64701 64704 64707 64710 64713 64716 64719 64722 64725 64728 64731 64734 64737 64740 64743 64746 64749 64752 64755 64758 64761 64764 64767 64770 64773 64776 64779 64782 64785 64788 64791 64794 64797 64800 64803 64806 64809 64812 64815 64818 64821 64824 64827 64830 64833 64836 64839 64842 64845 64848 64851 64854 64857 64860 64863 64866 64869 64872 64875 64878 64881 64884 64887 64890 64893 64896 64899 64902 64905 64908 64911 64914 64917 64920 64923 64926 64929 64932 64935 64938 64941 64944 64947 64950 64953 64956 64959 64962 64965 64968 64971 64974 64977 64980 64983 64986 64989 64992 64995 64998 65001 65004 65007 65010 65013 65016 65019 65022 65025 65028 65031 65034 65037 65040 65043 65046 65049 65052 65055 65058 65061 65064 65067 65070 65073 65076 65079 65082 65085 65088 65091 65094 65097 65100 65103 65106 65109 65112 65115 65118 65121 65124 65127 65130 65133 65136 65139 65142 65145 65148 65151 65154 65157 65160 65163 65166 65169 65172 65175 65178 65181 65184 65187 65190 65193 65196 65199 65202 65205 65208 65211 65214 65217 65220 65223 65226 65229 65232 65235 65238 65241 65244 65247 65250 65253 65256 65259 65262 65265 65268 65271 65274 65277 65280 65283 65286 65289 65292 65295 65298 65301 65304 65307 65310 65313 65316 65319 65322 65325 65328 65331 65334 65337 65340 65343 65346 65349 65352 65355 65358 65361 65364 65367 65370 65373 65376 65379 65382 65385 65388 65391 65394 65397 65400 65403 65406 65409 65412 65415 65418 65421 65424 65427 65430 65433 65436 65439 65442 65445 65448 65451 65454 65457 65460 65463 65466 65469 65472 65475 65478 65481 65484 65487 65490 65493 65496 65499 65502 65505 65508 65511 65514 65517 65520 65523 65526 65529 65532 65535 65538 65541 65544 65547 65550 65553 65556 65559 65562 65565 65568 65571 65574 65577 65580 65583 65586 65589 65592 65595 65598 65601 65604 65607 65610 65613 65616 65619 65622 65625 65628 65631 65634 65637 65640 65643 65646 65649 65652 65655 65658 65661 65664 65667 65670 65673 65676 65679 65682 65685 65688 65691 65694 65697 65700 65703 65706 65709 65712 65715 65718 65721 65724 65727 65730 65733 65736 65739 65742 65745 65748 65751 65754 65757 65760 65763 65766 65769 65772 65775 65778 65781 65784 65787 65790 65793 65796 65799 65802 65805 65808 65811 65814 65817 65820 65823 65826 65829 65832 65835 65838 65841 65844 65847 65850 65853 65856 65859 65862 65865 65868 65871 65874 65877 65880 65883 65886 65889 65892 65895 65898 65901 65904 65907 65910 65913 65916 65919 65922 65925 65928 65931 65934 65937 65940 65943 65946 65949 65952 65955 65958 65961 65964 65967 65970 65973 65976 65979 65982 65985 65988 65991 65994 65997 66000 66003 66006 66009 66012 66015 66018 66021 66024 66027 66030 66033 66036 66039 66042 66045 66048 66051 66054 66057 66060 66063 66066 66069 66072 66075 66078 66081 66084 66087 66090 66093 66096 66099 66102 66105 66108 66111 66114 66117 66120 66123 66126 66129 66132 66135 66138 66141 66144 66147 66150 66153 66156 66159 66162 66165 66168 66171 66174 66177 66180 66183 66186 66189 66192 66195 66198 66201 66204 66207 66210 66213 66216 66219 66222 66225 66228 66231 66234 66237 66240 66243 66246 66249 66252 66255 66258 66261 66264 66267 66270 66273 66276 66279 66282 66285 66288 66291 66294 66297 66300 66303 66306 66309 66312 66315 66318 66321 66324 66327 66330 66333 66336 66339 66342 66345 66348 66351 66354 66357 66360 66363 66366 66369 66372 66375 66378 66381 66384 66387 66390 66393 66396 66399 66402 66405 66408 66411 66414 66417 66420 66423 66426 66429 66432 66435 66438 66441 66444 66447 66450 66453 66456 66459 66462 66465 66468 66471 66474 66477 66480 66483 66486 66489 66492 66495 66498 66501 66504 66507 66510 66513 66516 66519 66522 66525 66528 66531 66534 66537 66540 66543 66546 66549 66552 66555 66558 66561 66564 66567 66570 66573 66576 66579 66582 66585 66588 66591 66594 66597 66600 66603 66606 66609 66612 66615 66618 66621 66624 66627 66630 66633 66636 66639 66642 66645 66648 66651 66654 66657 66660 66663 66666 66669 66672 66675 66678 66681 66684 66687 66690 66693 66696 66699 66702 66705 66708 66711 66714 66717 66720 66723 66726 66729 66732 66735 66738 66741 66744 66747 66750 66753 66756 66759 66762 66765 66768 66771 66774 66777 66780 66783 66786 66789 66792 66795 66798 66801 66804 66807 66810 66813 66816 66819 66822 66825 66828 66831 66834 66837 66840 66843 66846 66849 66852 66855 66858 66861 66864 66867 66870 66873 66876 66879 66882 66885 66888 66891 66894 66897 66900 66903 66906 66909 66912 66915 66918 66921 66924 66927 66930 66933 66936 66939 66942 66945 66948 66951 66954 66957 66960 66963 66966 66969 66972 66975 66978 66981 66984 66987 66990 66993 66996 66999 67002 67005 67008 67011 67014 67017 67020 67023 67026 67029 67032 67035 67038 67041 67044 67047 67050 67053 67056 67059 67062 67065 67068 67071 67074 67077 67080 67083 67086 67089 67092 67095 67098 67101 67104 67107 67110 67113 67116 67119 67122 67125 67128 67131 67134 67137 67140 67143 67146 67149 67152 67155 67158 67161 67164 67167 67170 67173 67176 67179 67182 67185 67188 67191 67194 67197 67200 67203 67206 67209 67212 67215 67218 67221 67224 67227 67230 67233 67236 67239 67242 67245 67248 67251 67254 67257 67260 67263 67266 67269 67272 67275 67278 67281 67284 67287 67290 67293 67296 67299 67302 67305 67308 67311 67314 67317 67320 67323 67326 67329 67332 67335 67338 67341 67344 67347 67350 67353 67356 67359 67362 67365 67368 67371 67374 67377 67380 67383 67386 67389 67392 67395 67398 67401 67404 67407 67410 67413 67416 67419 67422 67425 67428 67431 67434 67437 67440 67443 67446 67449 67452 67455 67458 67461 67464 67467 67470 67473 67476 67479 67482 67485 67488 67491 67494 67497 67500 67503 67506 67509 67512 67515 67518 67521 67524 67527 67530 67533 67536 67539 67542 67545 67548 67551 67554 67557 67560 67563 67566 67569 67572 67575 67578 67581 67584 67587 67590 67593 67596 67599 67602 67605 67608 67611 67614 67617 67620 67623 67626 67629 67632 67635 67638 67641 67644 67647 67650 67653 67656 67659 67662 67665 67668 67671 67674 67677 67680 67683 67686 67689 67692 67695 67698 67701 67704 67707 67710 67713 67716 67719 67722 67725 67728 67731 67734 67737 67740 67743 67746 67749 67752 67755 67758 67761 67764 67767 67770 67773 67776 67779 67782 67785 67788 67791 67794 67797 67800 67803 67806 67809 67812 67815 67818 67821 67824 67827 67830 67833 67836 67839 67842 67845 67848 67851 67854 67857 67860 67863 67866 67869 67872 67875 67878 67881 67884 67887 67890 67893 67896 67899 67902 67905 67908 67911 67914 67917 67920 67923 67926 67929 67932 67935 67938 67941 67944 67947 67950 67953 67956 67959 67962 67965 67968 67971 67974 67977 67980 67983 67986 67989 67992 67995 67998 68001 68004 68007 68010 68013 68016 68019 68022 68025 68028 68031 68034 68037 68040 68043 68046 68049 68052 68055 68058 68061 68064 68067 68070 68073 68076 68079 68082 68085 68088 68091 68094 68097 68100 68103 68106 68109 68112 68115 68118 68121 68124 68127 68130 68133 68136 68139 68142 68145 68148 68151 68154 68157 68160 68163 68166 68169 68172 68175 68178 68181 68184 68187 68190 68193 68196 68199 68202 68205 68208 68211 68214 68217 68220 68223 68226 68229 68232 68235 68238 68241 68244 68247 68250 68253 68256 68259 68262 68265 68268 68271 68274 68277 68280 68283 68286 68289 68292 68295 68298 68301 68304 68307 68310 68313 68316 68319 68322 68325 68328 68331 68334 68337 68340 68343 68346 68349 68352 68355 68358 68361 68364 68367 68370 68373 68376 68379 68382 68385 68388 68391 68394 68397 68400 68403 68406 68409 68412 68415 68418 68421 68424 68427 68430 68433 68436 68439 68442 68445 68448 68451 68454 68457 68460 68463 68466 68469 68472 68475 68478 68481 68484 68487 68490 68493 68496 68499 68502 68505 68508 68511 68514 68517 68520 68523 68526 68529 68532 68535 68538 68541 68544 68547 68550 68553 68556 68559 68562 68565 68568 68571 68574 68577 68580 68583 68586 68589 68592 68595 68598 68601 68604 68607 68610 68613 68616 68619 68622 68625 68628 68631 68634 68637 68640 68643 68646 68649 68652 68655 68658 68661 68664 68667 68670 68673 68676 68679 68682 68685 68688 68691 68694 68697 68700 68703 68706 68709 68712 68715 68718 68721 68724 68727 68730 68733 68736 68739 68742 68745 68748 68751 68754 68757 68760 68763 68766 68769 68772 68775 68778 68781 68784 68787 68790 68793 68796 68799 68802 68805 68808 68811 68814 68817 68820 68823 68826 68829 68832 68835 68838 68841 68844 68847 68850 68853 68856 68859 68862 68865 68868 68871 68874 68877 68880 68883 68886 68889 68892 68895 68898 68901 68904 68907 68910 68913 68916 68919 68922 68925 68928 68931 68934 68937 68940 68943 68946 68949 68952 68955 68958 68961 68964 68967 68970 68973 68976 68979 68982 68985 68988 68991 68994 68997 69000 69003 69006 69009 69012 69015 69018 69021 69024 69027 69030 69033 69036 69039 69042 69045 69048 69051 69054 69057 69060 69063 69066 69069 69072 69075 69078 69081 69084 69087 69090 69093 69096 69099 69102 69105 69108 69111 69114 69117 69120 69123 69126 69129 69132 69135 69138 69141 69144 69147 69150 69153 69156 69159 69162 69165 69168 69171 69174 69177 69180 69183 69186 69189 69192 69195 69198 69201 69204 69207 69210 69213 69216 69219 69222 69225 69228 69231 69234 69237 69240 69243 69246 69249 69252 69255 69258 69261 69264 69267 69270 69273 69276 69279 69282 69285 69288 69291 69294 69297 69300 69303 69306 69309 69312 69315 69318 69321 69324 69327 69330 69333 69336 69339 69342 69345 69348 69351 69354 69357 69360 69363 69366 69369 69372 69375 69378 69381 69384 69387 69390 69393 69396 69399 69402 69405 69408 69411 69414 69417 69420 69423 69426 69429 69432 69435 69438 69441 69444 69447 69450 69453 69456 69459 69462 69465 69468 69471 69474 69477 69480 69483 69486 69489 69492 69495 69498 69501 69504 69507 69510 69513 69516 69519 69522 69525 69528 69531 69534 69537 69540 69543 69546 69549 69552 69555 69558 69561 69564 69567 69570 69573 69576 69579 69582 69585 69588 69591 69594 69597 69600 69603 69606 69609 69612 69615 69618 69621 69624 69627 69630 69633 69636 69639 69642 69645 69648 69651 69654 69657 69660 69663 69666 69669 69672 69675 69678 69681 69684 69687 69690 69693 69696 69699 69702 69705 69708 69711 69714 69717 69720 69723 69726 69729 69732 69735 69738 69741 69744 69747 69750 69753 69756 69759 69762 69765 69768 69771 69774 69777 69780 69783 69786 69789 69792 69795 69798 69801 69804 69807 69810 69813 69816 69819 69822 69825 69828 69831 69834 69837 69840 69843 69846 69849 69852 69855 69858 69861 69864 69867 69870 69873 69876 69879 69882 69885 69888 69891 69894 69897 69900 69903 69906 69909 69912 69915 69918 69921 69924 69927 69930 69933 69936 69939 69942 69945 69948 69951 69954 69957 69960 69963 69966 69969 69972 69975 69978 69981 69984 69987 69990 69993 69996 69999 70002 70005 70008 70011 70014 70017 70020 70023 70026 70029 70032 70035 70038 70041 70044 70047 70050 70053 70056 70059 70062 70065 70068 70071 70074 70077 70080 70083 70086 70089 70092 70095 70098 70101 70104 70107 70110 70113 70116 70119 70122 70125 70128 70131 70134 70137 70140 70143 70146 70149 70152 70155 70158 70161 70164 70167 70170 70173 70176 70179 70182 70185 70188 70191 70194 70197 70200 70203 70206 70209 70212 70215 70218 70221 70224 70227 70230 70233 70236 70239 70242 70245 70248 70251 70254 70257 70260 70263 70266 70269 70272 70275 70278 70281 70284 70287 70290 70293 70296 70299 70302 70305 70308 70311 70314 70317 70320 70323 70326 70329 70332 70335 70338 70341 70344 70347 70350 70353 70356 70359 70362 70365 70368 70371 70374 70377 70380 70383 70386 70389 70392 70395 70398 70401 70404 70407 70410 70413 70416 70419 70422 70425 70428 70431 70434 70437 70440 70443 70446 70449 70452 70455 70458 70461 70464 70467 70470 70473 70476 70479 70482 70485 70488 70491 70494 70497 70500 70503 70506 70509 70512 70515 70518 70521 70524 70527 70530 70533 70536 70539 70542 70545 70548 70551 70554 70557 70560 70563 70566 70569 70572 70575 70578 70581 70584 70587 70590 70593 70596 70599 70602 70605 70608 70611 70614 70617 70620 70623 70626 70629 70632 70635 70638 70641 70644 70647 70650 70653 70656 70659 70662 70665 70668 70671 70674 70677 70680 70683 70686 70689 70692 70695 70698 70701 70704 70707 70710 70713 70716 70719 70722 70725 70728 70731 70734 70737 70740 70743 70746 70749 70752 70755 70758 70761 70764 70767 70770 70773 70776 70779 70782 70785 70788 70791 70794 70797 70800 70803 70806 70809 70812 70815 70818 70821 70824 70827 70830 70833 70836 70839 70842 70845 70848 70851 70854 70857 70860 70863 70866 70869 70872 70875 70878 70881 70884 70887 70890 70893 70896 70899 70902 70905 70908 70911 70914 70917 70920 70923 70926 70929 70932 70935 70938 70941 70944 70947 70950 70953 70956 70959 70962 70965 70968 70971 70974 70977 70980 70983 70986 70989 70992 70995 70998 71001 71004 71007 71010 71013 71016 71019 71022 71025 71028 71031 71034 71037 71040 71043 71046 71049 71052 71055 71058 71061 71064 71067 71070 71073 71076 71079 71082 71085 71088 71091 71094 71097 71100 71103 71106 71109 71112 71115 71118 71121 71124 71127 71130 71133 71136 71139 71142 71145 71148 71151 71154 71157 71160 71163 71166 71169 71172 71175 71178 71181 71184 71187 71190 71193 71196 71199 71202 71205 71208 71211 71214 71217 71220 71223 71226 71229 71232 71235 71238 71241 71244 71247 71250 71253 71256 71259 71262 71265 71268 71271 71274 71277 71280 71283 71286 71289 71292 71295 71298 71301 71304 71307 71310 71313 71316 71319 71322 71325 71328 71331 71334 71337 71340 71343 71346 71349 71352 71355 71358 71361 71364 71367 71370 71373 71376 71379 71382 71385 71388 71391 71394 71397 71400 71403 71406 71409 71412 71415 71418 71421 71424 71427 71430 71433 71436 71439 71442 71445 71448 71451 71454 71457 71460 71463 71466 71469 71472 71475 71478 71481 71484 71487 71490 71493 71496 71499 71502 71505 71508 71511 71514 71517 71520 71523 71526 71529 71532 71535 71538 71541 71544 71547 71550 71553 71556 71559 71562 71565 71568 71571 71574 71577 71580 71583 71586 71589 71592 71595 71598 71601 71604 71607 71610 71613 71616 71619 71622 71625 71628 71631 71634 71637 71640 71643 71646 71649 71652 71655 71658 71661 71664 71667 71670 71673 71676 71679 71682 71685 71688 71691 71694 71697 71700 71703 71706 71709 71712 71715 71718 71721 71724 71727 71730 71733 71736 71739 71742 71745 71748 71751 71754 71757 71760 71763 71766 71769 71772 71775 71778 71781 71784 71787 71790 71793 71796 71799 71802 71805 71808 71811 71814 71817 71820 71823 71826 71829 71832 71835 71838 71841 71844 71847 71850 71853 71856 71859 71862 71865 71868 71871 71874 71877 71880 71883 71886 71889 71892 71895 71898 71901 71904 71907 71910 71913 71916 71919 71922 71925 71928 71931 71934 71937 71940 71943 71946 71949 71952 71955 71958 71961 71964 71967 71970 71973 71976 71979 71982 71985 71988 71991 71994 71997 72000 72003 72006 72009 72012 72015 72018 72021 72024 72027 72030 72033 72036 72039 72042 72045 72048 72051 72054 72057 72060 72063 72066 72069 72072 72075 72078 72081 72084 72087 72090 72093 72096 72099 72102 72105 72108 72111 72114 72117 72120 72123 72126 72129 72132 72135 72138 72141 72144 72147 72150 72153 72156 72159 72162 72165 72168 72171 72174 72177 72180 72183 72186 72189 72192 72195 72198 72201 72204 72207 72210 72213 72216 72219 72222 72225 72228 72231 72234 72237 72240 72243 72246 72249 72252 72255 72258 72261 72264 72267 72270 72273 72276 72279 72282 72285 72288 72291 72294 72297 72300 72303 72306 72309 72312 72315 72318 72321 72324 72327 72330 72333 72336 72339 72342 72345 72348 72351 72354 72357 72360 72363 72366 72369 72372 72375 72378 72381 72384 72387 72390 72393 72396 72399 72402 72405 72408 72411 72414 72417 72420 72423 72426 72429 72432 72435 72438 72441 72444 72447 72450 72453 72456 72459 72462 72465 72468 72471 72474 72477 72480 72483 72486 72489 72492 72495 72498 72501 72504 72507 72510 72513 72516 72519 72522 72525 72528 72531 72534 72537 72540 72543 72546 72549 72552 72555 72558 72561 72564 72567 72570 72573 72576 72579 72582 72585 72588 72591 72594 72597 72600 72603 72606 72609 72612 72615 72618 72621 72624 72627 72630 72633 72636 72639 72642 72645 72648 72651 72654 72657 72660 72663 72666 72669 72672 72675 72678 72681 72684 72687 72690 72693 72696 72699 72702 72705 72708 72711 72714 72717 72720 72723 72726 72729 72732 72735 72738 72741 72744 72747 72750 72753 72756 72759 72762 72765 72768 72771 72774 72777 72780 72783 72786 72789 72792 72795 72798 72801 72804 72807 72810 72813 72816 72819 72822 72825 72828 72831 72834 72837 72840 72843 72846 72849 72852 72855 72858 72861 72864 72867 72870 72873 72876 72879 72882 72885 72888 72891 72894 72897 72900 72903 72906 72909 72912 72915 72918 72921 72924 72927 72930 72933 72936 72939 72942 72945 72948 72951 72954 72957 72960 72963 72966 72969 72972 72975 72978 72981 72984 72987 72990 72993 72996 72999 73002 73005 73008 73011 73014 73017 73020 73023 73026 73029 73032 73035 73038 73041 73044 73047 73050 73053 73056 73059 73062 73065 73068 73071 73074 73077 73080 73083 73086 73089 73092 73095 73098 73101 73104 73107 73110 73113 73116 73119 73122 73125 73128 73131 73134 73137 73140 73143 73146 73149 73152 73155 73158 73161 73164 73167 73170 73173 73176 73179 73182 73185 73188 73191 73194 73197 73200 73203 73206 73209 73212 73215 73218 73221 73224 73227 73230 73233 73236 73239 73242 73245 73248 73251 73254 73257 73260 73263 73266 73269 73272 73275 73278 73281 73284 73287 73290 73293 73296 73299 73302 73305 73308 73311 73314 73317 73320 73323 73326 73329 73332 73335 73338 73341 73344 73347 73350 73353 73356 73359 73362 73365 73368 73371 73374 73377 73380 73383 73386 73389 73392 73395 73398 73401 73404 73407 73410 73413 73416 73419 73422 73425 73428 73431 73434 73437 73440 73443 73446 73449 73452 73455 73458 73461 73464 73467 73470 73473 73476 73479 73482 73485 73488 73491 73494 73497 73500 73503 73506 73509 73512 73515 73518 73521 73524 73527 73530 73533 73536 73539 73542 73545 73548 73551 73554 73557 73560 73563 73566 73569 73572 73575 73578 73581 73584 73587 73590 73593 73596 73599 73602 73605 73608 73611 73614 73617 73620 73623 73626 73629 73632 73635 73638 73641 73644 73647 73650 73653 73656 73659 73662 73665 73668 73671 73674 73677 73680 73683 73686 73689 73692 73695 73698 73701 73704 73707 73710 73713 73716 73719 73722 73725 73728 73731 73734 73737 73740 73743 73746 73749 73752 73755 73758 73761 73764 73767 73770 73773 73776 73779 73782 73785 73788 73791 73794 73797 73800 73803 73806 73809 73812 73815 73818 73821 73824 73827 73830 73833 73836 73839 73842 73845 73848 73851 73854 73857 73860 73863 73866 73869 73872 73875 73878 73881 73884 73887 73890 73893 73896 73899 73902 73905 73908 73911 73914 73917 73920 73923 73926 73929 73932 73935 73938 73941 73944 73947 73950 73953 73956 73959 73962 73965 73968 73971 73974 73977 73980 73983 73986 73989 73992 73995 73998 74001 74004 74007 74010 74013 74016 74019 74022 74025 74028 74031 74034 74037 74040 74043 74046 74049 74052 74055 74058 74061 74064 74067 74070 74073 74076 74079 74082 74085 74088 74091 74094 74097 74100 74103 74106 74109 74112 74115 74118 74121 74124 74127 74130 74133 74136 74139 74142 74145 74148 74151 74154 74157 74160 74163 74166 74169 74172 74175 74178 74181 74184 74187 74190 74193 74196 74199 74202 74205 74208 74211 74214 74217 74220 74223 74226 74229 74232 74235 74238 74241 74244 74247 74250 74253 74256 74259 74262 74265 74268 74271 74274 74277 74280 74283 74286 74289 74292 74295 74298 74301 74304 74307 74310 74313 74316 74319 74322 74325 74328 74331 74334 74337 74340 74343 74346 74349 74352 74355 74358 74361 74364 74367 74370 74373 74376 74379 74382 74385 74388 74391 74394 74397 74400 74403 74406 74409 74412 74415 74418 74421 74424 74427 74430 74433 74436 74439 74442 74445 74448 74451 74454 74457 74460 74463 74466 74469 74472 74475 74478 74481 74484 74487 74490 74493 74496 74499 74502 74505 74508 74511 74514 74517 74520 74523 74526 74529 74532 74535 74538 74541 74544 74547 74550 74553 74556 74559 74562 74565 74568 74571 74574 74577 74580 74583 74586 74589 74592 74595 74598 74601 74604 74607 74610 74613 74616 74619 74622 74625 74628 74631 74634 74637 74640 74643 74646 74649 74652 74655 74658 74661 74664 74667 74670 74673 74676 74679 74682 74685 74688 74691 74694 74697 74700 74703 74706 74709 74712 74715 74718 74721 74724 74727 74730 74733 74736 74739 74742 74745 74748 74751 74754 74757 74760 74763 74766 74769 74772 74775 74778 74781 74784 74787 74790 74793 74796 74799 74802 74805 74808 74811 74814 74817 74820 74823 74826 74829 74832 74835 74838 74841 74844 74847 74850 74853 74856 74859 74862 74865 74868 74871 74874 74877 74880 74883 74886 74889 74892 74895 74898 74901 74904 74907 74910 74913 74916 74919 74922 74925 74928 74931 74934 74937 74940 74943 74946 74949 74952 74955 74958 74961 74964 74967 74970 74973 74976 74979 74982 74985 74988 74991 74994 74997 75000 75003 75006 75009 75012 75015 75018 75021 75024 75027 75030 75033 75036 75039 75042 75045 75048 75051 75054 75057 75060 75063 75066 75069 75072 75075 75078 75081 75084 75087 75090 75093 75096 75099 75102 75105 75108 75111 75114 75117 75120 75123 75126 75129 75132 75135 75138 75141 75144 75147 75150 75153 75156 75159 75162 75165 75168 75171 75174 75177 75180 75183 75186 75189 75192 75195 75198 75201 75204 75207 75210 75213 75216 75219 75222 75225 75228 75231 75234 75237 75240 75243 75246 75249 75252 75255 75258 75261 75264 75267 75270 75273 75276 75279 75282 75285 75288 75291 75294 75297 75300 75303 75306 75309 75312 75315 75318 75321 75324 75327 75330 75333 75336 75339 75342 75345 75348 75351 75354 75357 75360 75363 75366 75369 75372 75375 75378 75381 75384 75387 75390 75393 75396 75399 75402 75405 75408 75411 75414 75417 75420 75423 75426 75429 75432 75435 75438 75441 75444 75447 75450 75453 75456 75459 75462 75465 75468 75471 75474 75477 75480 75483 75486 75489 75492 75495 75498 75501 75504 75507 75510 75513 75516 75519 75522 75525 75528 75531 75534 75537 75540 75543 75546 75549 75552 75555 75558 75561 75564 75567 75570 75573 75576 75579 75582 75585 75588 75591 75594 75597 75600 75603 75606 75609 75612 75615 75618 75621 75624 75627 75630 75633 75636 75639 75642 75645 75648 75651 75654 75657 75660 75663 75666 75669 75672 75675 75678 75681 75684 75687 75690 75693 75696 75699 75702 75705 75708 75711 75714 75717 75720 75723 75726 75729 75732 75735 75738 75741 75744 75747 75750 75753 75756 75759 75762 75765 75768 75771 75774 75777 75780 75783 75786 75789 75792 75795 75798 75801 75804 75807 75810 75813 75816 75819 75822 75825 75828 75831 75834 75837 75840 75843 75846 75849 75852 75855 75858 75861 75864 75867 75870 75873 75876 75879 75882 75885 75888 75891 75894 75897 75900 75903 75906 75909 75912 75915 75918 75921 75924 75927 75930 75933 75936 75939 75942 75945 75948 75951 75954 75957 75960 75963 75966 75969 75972 75975 75978 75981 75984 75987 75990 75993 75996 75999 76002 76005 76008 76011 76014 76017 76020 76023 76026 76029 76032 76035 76038 76041 76044 76047 76050 76053 76056 76059 76062 76065 76068 76071 76074 76077 76080 76083 76086 76089 76092 76095 76098 76101 76104 76107 76110 76113 76116 76119 76122 76125 76128 76131 76134 76137 76140 76143 76146 76149 76152 76155 76158 76161 76164 76167 76170 76173 76176 76179 76182 76185 76188 76191 76194 76197 76200 76203 76206 76209 76212 76215 76218 76221 76224 76227 76230 76233 76236 76239 76242 76245 76248 76251 76254 76257 76260 76263 76266 76269 76272 76275 76278 76281 76284 76287 76290 76293 76296 76299 76302 76305 76308 76311 76314 76317 76320 76323 76326 76329 76332 76335 76338 76341 76344 76347 76350 76353 76356 76359 76362 76365 76368 76371 76374 76377 76380 76383 76386 76389 76392 76395 76398 76401 76404 76407 76410 76413 76416 76419 76422 76425 76428 76431 76434 76437 76440 76443 76446 76449 76452 76455 76458 76461 76464 76467 76470 76473 76476 76479 76482 76485 76488 76491 76494 76497 76500 76503 76506 76509 76512 76515 76518 76521 76524 76527 76530 76533 76536 76539 76542 76545 76548 76551 76554 76557 76560 76563 76566 76569 76572 76575 76578 76581 76584 76587 76590 76593 76596 76599 76602 76605 76608 76611 76614 76617 76620 76623 76626 76629 76632 76635 76638 76641 76644 76647 76650 76653 76656 76659 76662 76665 76668 76671 76674 76677 76680 76683 76686 76689 76692 76695 76698 76701 76704 76707 76710 76713 76716 76719 76722 76725 76728 76731 76734 76737 76740 76743 76746 76749 76752 76755 76758 76761 76764 76767 76770 76773 76776 76779 76782 76785 76788 76791 76794 76797 76800 76803 76806 76809 76812 76815 76818 76821 76824 76827 76830 76833 76836 76839 76842 76845 76848 76851 76854 76857 76860 76863 76866 76869 76872 76875 76878 76881 76884 76887 76890 76893 76896 76899 76902 76905 76908 76911 76914 76917 76920 76923 76926 76929 76932 76935 76938 76941 76944 76947 76950 76953 76956 76959 76962 76965 76968 76971 76974 76977 76980 76983 76986 76989 76992 76995 76998 77001 77004 77007 77010 77013 77016 77019 77022 77025 77028 77031 77034 77037 77040 77043 77046 77049 77052 77055 77058 77061 77064 77067 77070 77073 77076 77079 77082 77085 77088 77091 77094 77097 77100 77103 77106 77109 77112 77115 77118 77121 77124 77127 77130 77133 77136 77139 77142 77145 77148 77151 77154 77157 77160 77163 77166 77169 77172 77175 77178 77181 77184 77187 77190 77193 77196 77199 77202 77205 77208 77211 77214 77217 77220 77223 77226 77229 77232 77235 77238 77241 77244 77247 77250 77253 77256 77259 77262 77265 77268 77271 77274 77277 77280 77283 77286 77289 77292 77295 77298 77301 77304 77307 77310 77313 77316 77319 77322 77325 77328 77331 77334 77337 77340 77343 77346 77349 77352 77355 77358 77361 77364 77367 77370 77373 77376 77379 77382 77385 77388 77391 77394 77397 77400 77403 77406 77409 77412 77415 77418 77421 77424 77427 77430 77433 77436 77439 77442 </DataArray>
<DataArray  type="UInt8"  Name="types"  format="ascii">5 5 5 5 5 5 5 5 5 5 5 5 5 5 5 5 5 5 5 5 5 5 5 5 5 5 5 5 5 5 5 5 5 5 5 5 5 5 5 5 5 5 5 5 5 5 5 5 5 5 5 5 5 5 5 5 5 5 5 5 5 5 5 5 5 5 5 5 5 5 5 5 5 5 5 5 5 5 5 5 5 5 5 5 5 5 5 5 5 5 5 5 5 5 5 5 5 5 5 5 5 5 5 5 5 5 5 5 5 5 5 5 5 5 5 5 5 5 5 5 5 5 5 5 5 5 5 5 5 5 5 5 5 5 5 5 5 5 5 5 5 5 5 5 5 5 5 5 5 5 5 5 5 5 5 5 5 5 5 5 5 5 5 5 5 5 5 5 5 5 5 5 5 5 5 5 5 5 5 5 5 5 5 5 5 5 5 5 5 5 5 5 5 5 5 5 5 5 5 5 5 5 5 5 5 5 5 5 5 5 5 5 5 5 5 5 5 5 5 5 5 5 5 5 5 5 5 5 5 5 5 5 5 5 5 5 5 5 5 5 5 5 5 5 5 5 5 5 5 5 5 5 5 5 5 5 5 5 5 5 5 5 5 5 5 5 5 5 5 5 5 5 5 5 5 5 5 5 5 5 5 5 5 5 5 5 5 5 5 5 5 5 5 5 5 5 5 5 5 5 5 5 5 5 5 5 5 5 5 5 5 5 5 5 5 5 5 5 5 5 5 5 5 5 5 5 5 5 5 5 5 5 5 5 5 5 5 5 5 5 5 5 5 5 5 5 5 5 5 5 5 5 5 5 5 5 5 5 5 5 5 5 5 5 5 5 5 5 5 5 5 5 5 5 5 5 5 5 5 5 5 5 5 5 5 5 5 5 5 5 5 5 5 5 5 5 5 5 5 5 5 5 5 5 5 5 5 5 5 5 5 5 5 5 5 5 5 5 5 5 5 5 5 5 5 5 5 5 5 5 5 5 5 5 5 5 5 5 5 5 5 5 5 5 5 5 5 5 5 5 5 5 5 5 5 5 5 5 5 5 5 5 5 5 5 5 5 5 5 5 5 5 5 5 5 5 5 5 5 5 5 5 5 5 5 5 5 5 5 5 5 5 5 5 5 5 5 5 5 5 5 5 5 5 5 5 5 5 5 5 5 5 5 5 5 5 5 5 5 5 5 5 5 5 5 5 5 5 5 5 5 5 5 5 5 5 5 5 5 5 5 5 5 5 5 5 5 5 5 5 5 5 5 5 5 5 5 5 5 5 5 5 5 5 5 5 5 5 5 5 5 5 5 5 5 5 5 5 5 5 5 5 5 5 5 5 5 5 5 5 5 5 5 5 5 5 5 5 5 5 5 5 5 5 5 5 5 5 5 5 5 5 5 5 5 5 5 5 5 5 5 5 5 5 5 5 5 5 5 5 5 5 5 5 5 5 5 5 5 5 5 5 5 5 5 5 5 5 5 5 5 5 5 5 5 5 5 5 5 5 5 5 5 5 5 5 5 5 5 5 5 5 5 5 5 5 5 5 5 5 5 5 5 5 5 5 5 5 5 5 5 5 5 5 5 5 5 5 5 5 5 5 5 5 5 5 5 5 5 5 5 5 5 5 5 5 5 5 5 5 5 5 5 5 5 5 5 5 5 5 5 5 5 5 5 5 5 5 5 5 5 5 5 5 5 5 5 5 5 5 5 5 5 5 5 5 5 5 5 5 5 5 5 5 5 5 5 5 5 5 5 5 5 5 5 5 5 5 5 5 5 5 5 5 5 5 5 5 5 5 5 5 5 5 5 5 5 5 5 5 5 5 5 5 5 5 5 5 5 5 5 5 5 5 5 5 5 5 5 5 5 5 5 5 5 5 5 5 5 5 5 5 5 5 5 5 5 5 5 5 5 5 5 5 5 5 5 5 5 5 5 5 5 5 5 5 5 5 5 5 5 5 5 5 5 5 5 5 5 5 5 5 5 5 5 5 5 5 5 5 5 5 5 5 5 5 5 5 5 5 5 5 5 5 5 5 5 5 5 5 5 5 5 5 5 5 5 5 5 5 5 5 5 5 5 5 5 5 5 5 5 5 5 5 5 5 5 5 5 5 5 5 5 5 5 5 5 5 5 5 5 5 5 5 5 5 5 5 5 5 5 5 5 5 5 5 5 5 5 5 5 5 5 5 5 5 5 5 5 5 5 5 5 5 5 5 5 5 5 5 5 5 5 5 5 5 5 5 5 5 5 5 5 5 5 5 5 5 5 5 5 5 5 5 5 5 5 5 5 5 5 5 5 5 5 5 5 5 5 5 5 5 5 5 5 5 5 5 5 5 5 5 5 5 5 5 5 5 5 5 5 5 5 5 5 5 5 5 5 5 5 5 5 5 5 5 5 5 5 5 5 5 5 5 5 5 5 5 5 5 5 5 5 5 5 5 5 5 5 5 5 5 5 5 5 5 5 5 5 5 5 5 5 5 5 5 5 5 5 5 5 5 5 5 5 5 5 5 5 5 5 5 5 5 5 5 5 5 5 5 5 5 5 5 5 5 5 5 5 5 5 5 5 5 5 5 5 5 5 5 5 5 5 5 5 5 5 5 5 5 5 5 5 5 5 5 5 5 5 5 5 5 5 5 5 5 5 5 5 5 5 5 5 5 5 5 5 5 5 5 5 5 5 5 5 5 5 5 5 5 5 5 5 5 5 5 5 5 5 5 5 5 5 5 5 5 5 5 5 5 5 5 5 5 5 5 5 5 5 5 5 5 5 5 5 5 5 5 5 5 5 5 5 5 5 5 5 5 5 5 5 5 5 5 5 5 5 5 5 5 5 5 5 5 5 5 5 5 5 5 5 5 5 5 5 5 5 5 5 5 5 5 5 5 5 5 5 5 5 5 5 5 5 5 5 5 5 5 5 5 5 5 5 5 5 5 5 5 5 5 5 5 5 5 5 5 5 5 5 5 5 5 5 5 5 5 5 5 5 5 5 5 5 5 5 5 5 5 5 5 5 5 5 5 5 5 5 5 5 5 5 5 5 5 5 5 5 5 5 5 5 5 5 5 5 5 5 5 5 5 5 5 5 5 5 5 5 5 5 5 5 5 5 5 5 5 5 5 5 5 5 5 5 5 5 5 5 5 5 5 5 5 5 5 5 5 5 5 5 5 5 5 5 5 5 5 5 5 5 5 5 5 5 5 5 5 5 5 5 5 5 5 5 5 5 5 5 5 5 5 5 5 5 5 5 5 5 5 5 5 5 5 5 5 5 5 5 5 5 5 5 5 5 5 5 5 5 5 5 5 5 5 5 5 5 5 5 5 5 5 5 5 5 5 5 5 5 5 5 5 5 5 5 5 5 5 5 5 5 5 5 5 5 5 5 5 5 5 5 5 5 5 5 5 5 5 5 5 5 5 5 5 5 5 5 5 5 5 5 5 5 5 5 5 5 5 5 5 5 5 5 5 5 5 5 5 5 5 5 5 5 5 5 5 5 5 5 5 5 5 5 5 5 5 5 5 5 5 5 5 5 5 5 5 5 5 5 5 5 5 5 5 5 5 5 5 5 5 5 5 5 5 5 5 5 5 5 5 5 5 5 5 5 5 5 5 5 5 5 5 5 5 5 5 5 5 5 5 5 5 5 5 5 5 5 5 5 5 5 5 5 5 5 5 5 5 5 5 5 5 5 5 5 5 5 5 5 5 5 5 5 5 5 5 5 5 5 5 5 5 5 5 5 5 5 5 5 5 5 5 5 5 5 5 5 5 5 5 5 5 5 5 5 5 5 5 5 5 5 5 5 5 5 5 5 5 5 5 5 5 5 5 5 5 5 5 5 5 5 5 5 5 5 5 5 5 5 5 5 5 5 5 5 5 5 5 5 5 5 5 5 5 5 5 5 5 5 5 5 5 5 5 5 5 5 5 5 5 5 5 5 5 5 5 5 5 5 5 5 5 5 5 5 5 5 5 5 5 5 5 5 5 5 5 5 5 5 5 5 5 5 5 5 5 5 5 5 5 5 5 5 5 5 5 5 5 5 5 5 5 5 5 5 5 5 5 5 5 5 5 5 5 5 5 5 5 5 5 5 5 5 5 5 5 5 5 5 5 5 5 5 5 5 5 5 5 5 5 5 5 5 5 5 5 5 5 5 5 5 5 5 5 5 5 5 5 5 5 5 5 5 5 5 5 5 5 5 5 5 5 5 5 5 5 5 5 5 5 5 5 5 5 5 5 5 5 5 5 5 5 5 5 5 5 5 5 5 5 5 5 5 5 5 5 5 5 5 5 5 5 5 5 5 5 5 5 5 5 5 5 5 5 5 5 5 5 5 5 5 5 5 5 5 5 5 5 5 5 5 5 5 5 5 5 5 5 5 5 5 5 5 5 5 5 5 5 5 5 5 5 5 5 5 5 5 5 5 5 5 5 5 5 5 5 5 5 5 5 5 5 5 5 5 5 5 5 5 5 5 5 5 5 5 5 5 5 5 5 5 5 5 5 5 5 5 5 5 5 5 5 5 5 5 5 5 5 5 5 5 5 5 5 5 5 5 5 5 5 5 5 5 5 5 5 5 5 5 5 5 5 5 5 5 5 5 5 5 5 5 5 5 5 5 5 5 5 5 5 5 5 5 5 5 5 5 5 5 5 5 5 5 5 5 5 5 5 5 5 5 5 5 5 5 5 5 5 5 5 5 5 5 5 5 5 5 5 5 5 5 5 5 5 5 5 5 5 5 5 5 5 5 5 5 5 5 5 5 5 5 5 5 5 5 5 5 5 5 5 5 5 5 5 5 5 5 5 5 5 5 5 5 5 5 5 5 5 5 5 5 5 5 5 5 5 5 5 5 5 5 5 5 5 5 5 5 5 5 5 5 5 5 5 5 5 5 5 5 5 5 5 5 5 5 5 5 5 5 5 5 5 5 5 5 5 5 5 5 5 5 5 5 5 5 5 5 5 5 5 5 5 5 5 5 5 5 5 5 5 5 5 5 5 5 5 5 5 5 5 5 5 5 5 5 5 5 5 5 5 5 5 5 5 5 5 5 5 5 5 5 5 5 5 5 5 5 5 5 5 5 5 5 5 5 5 5 5 5 5 5 5 5 5 5 5 5 5 5 5 5 5 5 5 5 5 5 5 5 5 5 5 5 5 5 5 5 5 5 5 5 5 5 5 5 5 5 5 5 5 5 5 5 5 5 5 5 5 5 5 5 5 5 5 5 5 5 5 5 5 5 5 5 5 5 5 5 5 5 5 5 5 5 5 5 5 5 5 5 5 5 5 5 5 5 5 5 5 5 5 5 5 5 5 5 5 5 5 5 5 5 5 5 5 5 5 5 5 5 5 5 5 5 5 5 5 5 5 5 5 5 5 5 5 5 5 5 5 5 5 5 5 5 5 5 5 5 5 5 5 5 5 5 5 5 5 5 5 5 5 5 5 5 5 5 5 5 5 5 5 5 5 5 5 5 5 5 5 5 5 5 5 5 5 5 5 5 5 5 5 5 5 5 5 5 5 5 5 5 5 5 5 5 5 5 5 5 5 5 5 5 5 5 5 5 5 5 5 5 5 5 5 5 5 5 5 5 5 5 5 5 5 5 5 5 5 5 5 5 5 5 5 5 5 5 5 5 5 5 5 5 5 5 5 5 5 5 5 5 5 5 5 5 5 5 5 5 5 5 5 5 5 5 5 5 5 5 5 5 5 5 5 5 5 5 5 5 5 5 5 5 5 5 5 5 5 5 5 5 5 5 5 5 5 5 5 5 5 5 5 5 5 5 5 5 5 5 5 5 5 5 5 5 5 5 5 5 5 5 5 5 5 5 5 5 5 5 5 5 5 5 5 5 5 5 5 5 5 5 5 5 5 5 5 5 5 5 5 5 5 5 5 5 5 5 5 5 5 5 5 5 5 5 5 5 5 5 5 5 5 5 5 5 5 5 5 5 5 5 5 5 5 5 5 5 5 5 5 5 5 5 5 5 5 5 5 5 5 5 5 5 5 5 5 5 5 5 5 5 5 5 5 5 5 5 5 5 5 5 5 5 5 5 5 5 5 5 5 5 5 5 5 5 5 5 5 5 5 5 5 5 5 5 5 5 5 5 5 5 5 5 5 5 5 5 5 5 5 5 5 5 5 5 5 5 5 5 5 5 5 5 5 5 5 5 5 5 5 5 5 5 5 5 5 5 5 5 5 5 5 5 5 5 5 5 5 5 5 5 5 5 5 5 5 5 5 5 5 5 5 5 5 5 5 5 5 5 5 5 5 5 5 5 5 5 5 5 5 5 5 5 5 5 5 5 5 5 5 5 5 5 5 5 5 5 5 5 5 5 5 5 5 5 5 5 5 5 5 5 5 5 5 5 5 5 5 5 5 5 5 5 5 5 5 5 5 5 5 5 5 5 5 5 5 5 5 5 5 5 5 5 5 5 5 5 5 5 5 5 5 5 5 5 5 5 5 5 5 5 5 5 5 5 5 5 5 5 5 5 5 5 5 5 5 5 5 5 5 5 5 5 5 5 5 5 5 5 5 5 5 5 5 5 5 5 5 5 5 5 5 5 5 5 5 5 5 5 5 5 5 5 5 5 5 5 5 5 5 5 5 5 5 5 5 5 5 5 5 5 5 5 5 5 5 5 5 5 5 5 5 5 5 5 5 5 5 5 5 5 5 5 5 5 5 5 5 5 5 5 5 5 5 5 5 5 5 5 5 5 5 5 5 5 5 5 5 5 5 5 5 5 5 5 5 5 5 5 5 5 5 5 5 5 5 5 5 5 5 5 5 5 5 5 5 5 5 5 5 5 5 5 5 5 5 5 5 5 5 5 5 5 5 5 5 5 5 5 5 5 5 5 5 5 5 5 5 5 5 5 5 5 5 5 5 5 5 5 5 5 5 5 5 5 5 5 5 5 5 5 5 5 5 5 5 5 5 5 5 5 5 5 5 5 5 5 5 5 5 5 5 5 5 5 5 5 5 5 5 5 5 5 5 5 5 5 5 5 5 5 5 5 5 5 5 5 5 5 5 5 5 5 5 5 5 5 5 5 5 5 5 5 5 5 5 5 5 5 5 5 5 5 5 5 5 5 5 5 5 5 5 5 5 5 5 5 5 5 5 5 5 5 5 5 5 5 5 5 5 5 5 5 5 5 5 5 5 5 5 5 5 5 5 5 5 5 5 5 5 5 5 5 5 5 5 5 5 5 5 5 5 5 5 5 5 5 5 5 5 5 5 5 5 5 5 5 5 5 5 5 5 5 5 5 5 5 5 5 5 5 5 5 5 5 5 5 5 5 5 5 5 5 5 5 5 5 5 5 5 5 5 5 5 5 5 5 5 5 5 5 5 5 5 5 5 5 5 5 5 5 5 5 5 5 5 5 5 5 5 5 5 5 5 5 5 5 5 5 5 5 5 5 5 5 5 5 5 5 5 5 5 5 5 5 5 5 5 5 5 5 5 5 5 5 5 5 5 5 5 5 5 5 5 5 5 5 5 5 5 5 5 5 5 5 5 5 5 5 5 5 5 5 5 5 5 5 5 5 5 5 5 5 5 5 5 5 5 5 5 5 5 5 5 5 5 5 5 5 5 5 5 5 5 5 5 5 5 5 5 5 5 5 5 5 5 5 5 5 5 5 5 5 5 5 5 5 5 5 5 5 5 5 5 5 5 5 5 5 5 5 5 5 5 5 5 5 5 5 5 5 5 5 5 5 5 5 5 5 5 5 5 5 5 5 5 5 5 5 5 5 5 5 5 5 5 5 5 5 5 5 5 5 5 5 5 5 5 5 5 5 5 5 5 5 5 5 5 5 5 5 5 5 5 5 5 5 5 5 5 5 5 5 5 5 5 5 5 5 5 5 5 5 5 5 5 5 5 5 5 5 5 5 5 5 5 5 5 5 5 5 5 5 5 5 5 5 5 5 5 5 5 5 5 5 5 5 5 5 5 5 5 5 5 5 5 5 5 5 5 5 5 5 5 5 5 5 5 5 5 5 5 5 5 5 5 5 5 5 5 5 5 5 5 5 5 5 5 5 5 5 5 5 5 5 5 5 5 5 5 5 5 5 5 5 5 5 5 5 5 5 5 5 5 5 5 5 5 5 5 5 5 5 5 5 5 5 5 5 5 5 5 5 5 5 5 5 5 5 5 5 5 5 5 5 5 5 5 5 5 5 5 5 5 5 5 5 5 5 5 5 5 5 5 5 5 5 5 5 5 5 5 5 5 5 5 5 5 5 5 5 5 5 5 5 5 5 5 5 5 5 5 5 5 5 5 5 5 5 5 5 5 5 5 5 5 5 5 5 5 5 5 5 5 5 5 5 5 5 5 5 5 5 5 5 5 5 5 5 5 5 5 5 5 5 5 5 5 5 5 5 5 5 5 5 5 5 5 5 5 5 5 5 5 5 5 5 5 5 5 5 5 5 5 5 5 5 5 5 5 5 5 5 5 5 5 5 5 5 5 5 5 5 5 5 5 5 5 5 5 5 5 5 5 5 5 5 5 5 5 5 5 5 5 5 5 5 5 5 5 5 5 5 5 5 5 5 5 5 5 5 5 5 5 5 5 5 5 5 5 5 5 5 5 5 5 5 5 5 5 5 5 5 5 5 5 5 5 5 5 5 5 5 5 5 5 5 5 5 5 5 5 5 5 5 5 5 5 5 5 5 5 5 5 5 5 5 5 5 5 5 5 5 5 5 5 5 5 5 5 5 5 5 5 5 5 5 5 5 5 5 5 5 5 5 5 5 5 5 5 5 5 5 5 5 5 5 5 5 5 5 5 5 5 5 5 5 5 5 5 5 5 5 5 5 5 5 5 5 5 5 5 5 5 5 5 5 5 5 5 5 5 5 5 5 5 5 5 5 5 5 5 5 5 5 5 5 5 5 5 5 5 5 5 5 5 5 5 5 5 5 5 5 5 5 5 5 5 5 5 5 5 5 5 5 5 5 5 5 5 5 5 5 5 5 5 5 5 5 5 5 5 5 5 5 5 5 5 5 5 5 5 5 5 5 5 5 5 5 5 5 5 5 5 5 5 5 5 5 5 5 5 5 5 5 5 5 5 5 5 5 5 5 5 5 5 5 5 5 5 5 5 5 5 5 5 5 5 5 5 5 5 5 5 5 5 5 5 5 5 5 5 5 5 5 5 5 5 5 5 5 5 5 5 5 5 5 5 5 5 5 5 5 5 5 5 5 5 5 5 5 5 5 5 5 5 5 5 5 5 5 5 5 5 5 5 5 5 5 5 5 5 5 5 5 5 5 5 5 5 5 5 5 5 5 5 5 5 5 5 5 5 5 5 5 5 5 5 5 5 5 5 5 5 5 5 5 5 5 5 5 5 5 5 5 5 5 5 5 5 5 5 5 5 5 5 5 5 5 5 5 5 5 5 5 5 5 5 5 5 5 5 5 5 5 5 5 5 5 5 5 5 5 5 5 5 5 5 5 5 5 5 5 5 5 5 5 5 5 5 5 5 5 5 5 5 5 5 5 5 5 5 5 5 5 5 5 5 5 5 5 5 5 5 5 5 5 5 5 5 5 5 5 5 5 5 5 5 5 5 5 5 5 5 5 5 5 5 5 5 5 5 5 5 5 5 5 5 5 5 5 5 5 5 5 5 5 5 5 5 5 5 5 5 5 5 5 5 5 5 5 5 5 5 5 5 5 5 5 5 5 5 5 5 5 5 5 5 5 5 5 5 5 5 5 5 5 5 5 5 5 5 5 5 5 5 5 5 5 5 5 5 5 5 5 5 5 5 5 5 5 5 5 5 5 5 5 5 5 5 5 5 5 5 5 5 5 5 5 5 5 5 5 5 5 5 5 5 5 5 5 5 5 5 5 5 5 5 5 5 5 5 5 5 5 5 5 5 5 5 5 5 5 5 5 5 5 5 5 5 5 5 5 5 5 5 5 5 5 5 5 5 5 5 5 5 5 5 5 5 5 5 5 5 5 5 5 5 5 5 5 5 5 5 5 5 5 5 5 5 5 5 5 5 5 5 5 5 5 5 5 5 5 5 5 5 5 5 5 5 5 5 5 5 5 5 5 5 5 5 5 5 5 5 5 5 5 5 5 5 5 5 5 5 5 5 5 5 5 5 5 5 5 5 5 5 5 5 5 5 5 5 5 5 5 5 5 5 5 5 5 5 5 5 5 5 5 5 5 5 5 5 5 5 5 5 5 5 5 5 5 5 5 5 5 5 5 5 5 5 5 5 5 5 5 5 5 5 5 5 5 5 5 5 5 5 5 5 5 5 5 5 5 5 5 5 5 5 5 5 5 5 5 5 5 5 5 5 5 5 5 5 5 5 5 5 5 5 5 5 5 5 5 5 5 5 5 5 5 5 5 5 5 5 5 5 5 5 5 5 5 5 5 5 5 5 5 5 5 5 5 5 5 5 5 5 5 5 5 5 5 5 5 5 5 5 5 5 5 5 5 5 5 5 5 5 5 5 5 5 5 5 5 5 5 5 5 5 5 5 5 5 5 5 5 5 5 5 5 5 5 5 5 5 5 5 5 5 5 5 5 5 5 5 5 5 5 5 5 5 5 5 5 5 5 5 5 5 5 5 5 5 5 5 5 5 5 5 5 5 5 5 5 5 5 5 5 5 5 5 5 5 5 5 5 5 5 5 5 5 5 5 5 5 5 5 5 5 5 5 5 5 5 5 5 5 5 5 5 5 5 5 5 5 5 5 5 5 5 5 5 5 5 5 5 5 5 5 5 5 5 5 5 5 5 5 5 5 5 5 5 5 5 5 5 5 5 5 5 5 5 5 5 5 5 5 5 5 5 5 5 5 5 5 5 5 5 5 5 5 5 5 5 5 5 5 5 5 5 5 5 5 5 5 5 5 5 5 5 5 5 5 5 5 5 5 5 5 5 5 5 5 5 5 5 5 5 5 5 5 5 5 5 5 5 5 5 5 5 5 5 5 5 5 5 5 5 5 5 5 5 5 5 5 5 5 5 5 5 5 5 5 5 5 5 5 5 5 5 5 5 5 5 5 5 5 5 5 5 5 5 5 5 5 5 5 5 5 5 5 5 5 5 5 5 5 5 5 5 5 5 5 5 5 5 5 5 5 5 5 5 5 5 5 5 5 5 5 5 5 5 5 5 5 5 5 5 5 5 5 5 5 5 5 5 5 5 5 5 5 5 5 5 5 5 5 5 5 5 5 5 5 5 5 5 5 5 5 5 5 5 5 5 5 5 5 5 5 5 5 5 5 5 5 5 5 5 5 5 5 5 5 5 5 5 5 5 5 5 5 5 5 5 5 5 5 5 5 5 5 5 5 5 5 5 5 5 5 5 5 5 5 5 5 5 5 5 5 5 5 5 5 5 5 5 5 5 5 5 5 5 5 5 5 5 5 5 5 5 5 5 5 5 5 5 5 5 5 5 5 5 5 5 5 5 5 5 5 5 5 5 5 5 5 5 5 5 5 5 5 5 5 5 5 5 5 5 5 5 5 5 5 5 5 5 5 5 5 5 5 5 5 5 5 5 5 5 5 5 5 5 5 5 5 5 5 5 5 5 5 5 5 5 5 5 5 5 5 5 5 5 5 5 5 5 5 5 5 5 5 5 5 5 5 5 5 5 5 5 5 5 5 5 5 5 5 5 5 5 5 5 5 5 5 5 5 5 5 5 5 5 5 5 5 5 5 5 5 5 5 5 5 5 5 5 5 5 5 5 5 5 5 5 5 5 5 5 5 5 5 5 5 5 5 5 5 5 5 5 5 5 5 5 5 5 5 5 5 5 5 5 5 5 5 5 5 5 5 5 5 5 5 5 5 5 5 5 5 5 5 5 5 5 5 5 5 5 5 5 5 5 5 5 5 5 5 5 5 5 5 5 5 5 5 5 5 5 5 5 5 5 5 5 5 5 5 5 5 5 5 5 5 5 5 5 5 5 5 5 5 5 5 5 5 5 5 5 5 5 5 5 5 5 5 5 5 5 5 5 5 5 5 5 5 5 5 5 5 5 5 5 5 5 5 5 5 5 5 5 5 5 5 5 5 5 5 5 5 5 5 5 5 5 5 5 5 5 5 5 5 5 5 5 5 5 5 5 5 5 5 5 5 5 5 5 5 5 5 5 5 5 5 5 5 5 5 5 5 5 5 5 5 5 5 5 5 5 5 5 5 5 5 5 5 5 5 5 5 5 5 5 5 5 5 5 5 5 5 5 5 5 5 5 5 5 5 5 5 5 5 5 5 5 5 5 5 5 5 5 5 5 5 5 5 5 5 5 5 5 5 5 5 5 5 5 5 5 5 5 5 5 5 5 5 5 5 5 5 5 5 5 5 5 5 5 5 5 5 5 5 5 5 5 5 5 5 5 5 5 5 5 5 5 5 5 5 5 5 5 5 5 5 5 5 5 5 5 5 5 5 5 5 5 5 5 5 5 5 5 5 5 5 5 5 5 5 5 5 5 5 5 5 5 5 5 5 5 5 5 5 5 5 5 5 5 5 5 5 5 5 5 5 5 5 5 5 5 5 5 5 5 5 5 5 5 5 5 5 5 5 5 5 5 5 5 5 5 5 5 5 5 5 5 5 5 5 5 5 5 5 5 5 5 5 5 5 5 5 5 5 5 5 5 5 5 5 5 5 5 5 5 5 5 5 5 5 5 5 5 5 5 5 5 5 5 5 5 5 5 5 5 5 5 5 5 5 5 5 5 5 5 5 5 5 5 5 5 5 5 5 5 5 5 5 5 5 5 5 5 5 5 5 5 5 5 5 5 5 5 5 5 5 5 5 5 5 5 5 5 5 5 5 5 5 5 5 5 5 5 5 5 5 5 5 5 5 5 5 5 5 5 5 5 5 5 5 5 5 5 5 5 5 5 5 5 5 5 5 5 5 5 5 5 5 5 5 5 5 5 5 5 5 5 5 5 5 5 5 5 5 5 5 5 5 5 5 5 5 5 5 5 5 5 5 5 5 5 5 5 5 5 5 5 5 5 5 5 5 5 5 5 5 5 5 5 5 5 5 5 5 5 5 5 5 5 5 5 5 5 5 5 5 5 5 5 5 5 5 5 5 5 5 5 5 5 5 5 5 5 5 5 5 5 5 5 5 5 5 5 5 5 5 5 5 5 5 5 5 5 5 5 5 5 5 5 5 5 5 5 5 5 5 5 5 5 5 5 5 5 5 5 5 5 5 5 5 5 5 5 5 5 5 5 5 5 5 5 5 5 5 5 5 5 5 5 5 5 5 5 5 5 5 5 5 5 5 5 5 5 5 5 5 5 5 5 5 5 5 5 5 5 5 5 5 5 5 5 5 5 5 5 5 5 5 5 5 5 5 5 5 5 5 5 5 5 5 5 5 5 5 5 5 5 5 5 5 5 5 5 5 5 5 5 5 5 5 5 5 5 5 5 5 5 5 5 5 5 5 5 5 5 5 5 5 5 5 5 5 5 5 5 5 5 5 5 5 5 5 5 5 5 5 5 5 5 5 5 5 5 5 5 5 5 5 5 5 5 5 5 5 5 5 5 5 5 5 5 5 5 5 5 5 5 5 5 5 5 5 5 5 5 5 5 5 5 5 5 5 5 5 5 5 5 5 5 5 5 5 5 5 5 5 5 5 5 5 5 5 5 5 5 5 5 5 5 5 5 5 5 5 5 5 5 5 5 5 5 5 5 5 5 5 5 5 5 5 5 5 5 5 5 5 5 5 5 5 5 5 5 5 5 5 5 5 5 5 5 5 5 5 5 5 5 5 5 5 5 5 5 5 5 5 5 5 5 5 5 5 5 5 5 5 5 5 5 5 5 5 5 5 5 5 5 5 5 5 5 5 5 5 5 5 5 5 5 5 5 5 5 5 5 5 5 5 5 5 5 5 5 5 5 5 5 5 5 5 5 5 5 5 5 5 5 5 5 5 5 5 5 5 5 5 5 5 5 5 5 5 5 5 5 5 5 5 5 5 5 5 5 5 5 5 5 5 5 5 5 5 5 5 5 5 5 5 5 5 5 5 5 5 5 5 5 5 5 5 5 5 5 5 5 5 5 5 5 5 5 5 5 5 5 5 5 5 5 5 5 5 5 5 5 5 5 5 5 5 5 5 5 5 5 5 5 5 5 5 5 5 5 5 5 5 5 5 5 5 5 5 5 5 5 5 5 5 5 5 5 5 5 5 5 5 5 5 5 5 5 5 5 5 5 5 5 5 5 5 5 5 5 5 5 5 5 5 5 5 5 5 5 5 5 5 5 5 5 5 5 5 5 5 5 5 5 5 5 5 5 5 5 5 5 5 5 5 5 5 5 5 5 5 5 5 5 5 5 5 5 5 5 5 5 5 5 5 5 5 5 5 5 5 5 5 5 5 5 5 5 5 5 5 5 5 5 5 5 5 5 5 5 5 5 5 5 5 5 5 5 5 5 5 5 5 5 5 5 5 5 5 5 5 5 5 5 5 5 5 5 5 5 5 5 5 5 5 5 5 5 5 5 5 5 5 5 5 5 5 5 5 5 5 5 5 5 5 5 5 5 5 5 5 5 5 5 5 5 5 5 5 5 5 5 5 5 5 5 5 5 5 5 5 5 5 5 5 5 5 5 5 5 5 5 5 5 5 5 5 5 5 5 5 5 5 5 5 5 5 5 5 5 5 5 5 5 5 5 5 5 5 5 5 5 5 5 5 5 5 5 5 5 5 5 5 5 5 5 5 5 5 5 5 5 5 5 5 5 5 5 5 5 5 5 5 5 5 5 5 5 5 5 5 5 5 5 5 5 5 5 5 5 5 5 5 5 5 5 5 5 5 5 5 5 5 5 5 5 5 5 5 5 5 5 5 5 5 5 5 5 5 5 5 5 5 5 5 5 5 5 5 5 5 5 5 5 5 5 5 5 5 5 5 5 5 5 5 5 5 5 5 5 5 5 5 5 5 5 5 5 5 5 5 5 5 5 5 5 5 5 5 5 5 5 5 5 5 5 5 5 5 5 5 5 5 5 5 5 5 5 5 5 5 5 5 5 5 5 5 5 5 5 5 5 5 5 5 5 5 5 5 5 5 5 5 5 5 5 5 5 5 5 5 5 5 5 5 5 5 5 5 5 5 5 5 5 5 5 5 5 5 5 5 5 5 5 5 5 5 5 5 5 5 5 5 5 5 5 5 5 5 5 5 5 5 5 5 5 5 5 5 5 5 5 5 5 5 5 5 5 5 5 5 5 5 5 5 5 5 5 5 5 5 5 5 5 5 5 5 5 5 5 5 5 5 5 5 5 5 5 5 5 5 5 5 5 5 5 5 5 5 5 5 5 5 5 5 5 5 5 5 5 5 5 5 5 5 5 5 5 5 5 5 5 5 5 5 5 5 5 5 5 5 5 5 5 5 5 5 5 5 5 5 5 5 5 5 5 5 5 5 5 5 5 5 5 5 5 5 5 5 5 5 5 5 5 5 5 5 5 5 5 5 5 5 5 5 5 5 5 5 5 5 5 5 5 5 5 5 5 5 5 5 5 5 5 5 5 5 5 5 5 5 5 5 5 5 5 5 5 5 5 5 5 5 5 5 5 5 5 5 5 5 5 5 5 5 5 5 5 5 5 5 5 5 5 5 5 5 5 5 5 5 5 5 5 5 5 5 5 5 5 5 5 5 5 5 5 5 5 5 5 5 5 5 5 5 5 5 5 5 5 5 5 5 5 5 5 5 5 5 5 5 5 5 5 5 5 5 5 5 5 5 5 5 5 5 5 5 5 5 5 5 5 5 5 5 5 5 5 5 5 5 5 5 5 5 5 5 5 5 5 5 5 5 5 5 5 5 5 5 5 5 5 5 5 5 5 5 5 5 5 5 5 5 5 5 5 5 5 5 5 5 5 5 5 5 5 5 5 5 5 5 5 5 5 5 5 5 5 5 5 5 5 5 5 5 5 5 5 5 5 5 5 5 5 5 5 5 5 5 5 5 5 5 5 5 5 5 5 5 5 5 5 5 5 5 5 5 5 5 5 5 5 5 5 5 5 5 5 5 5 5 5 5 5 5 5 5 5 5 5 5 5 5 5 5 5 5 5 5 5 5 5 5 5 5 5 5 5 5 5 5 5 5 5 5 5 5 5 5 5 5 5 5 5 5 5 5 5 5 5 5 5 5 5 5 5 5 5 5 5 5 5 5 5 5 5 5 5 5 5 5 5 5 5 5 5 5 5 5 5 5 5 5 5 5 5 5 5 5 5 5 5 5 5 5 5 5 5 5 5 5 5 5 5 5 5 5 5 5 5 5 5 5 5 5 5 5 5 5 5 5 5 5 5 5 5 5 5 5 5 5 5 5 5 5 5 5 5 5 5 5 5 5 5 5 5 5 5 5 5 5 5 5 5 5 5 5 5 5 5 5 5 5 5 5 5 5 5 5 5 5 5 5 5 5 5 5 5 5 5 5 5 5 5 5 5 5 5 5 5 5 5 5 5 5 5 5 5 5 5 5 5 5 5 5 5 5 5 5 5 5 5 5 5 5 5 5 5 5 5 5 5 5 5 5 5 5 5 5 5 5 5 5 5 5 5 5 5 5 5 5 5 5 5 5 5 5 5 5 5 5 5 5 5 5 5 5 5 5 5 5 5 5 5 5 5 5 5 5 5 5 5 5 5 5 5 5 5 5 5 5 5 5 5 5 5 5 5 5 5 5 5 5 5 5 5 5 5 5 5 5 5 5 5 5 5 5 5 5 5 5 5 5 5 5 5 5 5 5 5 5 5 5 5 5 5 5 5 5 5 5 5 5 5 5 5 5 5 5 5 5 5 5 5 5 5 5 5 5 5 5 5 5 5 5 5 5 5 5 5 5 5 5 5 5 5 5 5 5 5 5 5 5 5 5 5 5 5 5 5 5 5 5 5 5 5 5 5 5 5 5 5 5 5 5 5 5 5 5 5 5 5 5 5 5 5 5 5 5 5 5 5 5 5 5 5 5 5 5 5 5 5 5 5 5 5 5 5 5 5 5 5 5 5 5 5 5 5 5 5 5 5 5 5 5 5 5 5 5 5 5 5 5 5 5 5 5 5 5 5 5 5 5 5 5 5 5 5 5 5 5 5 5 5 5 5 5 5 5 5 5 5 5 5 5 5 5 5 5 5 5 5 5 5 5 5 5 5 5 5 5 5 5 5 5 5 5 5 5 5 5 5 5 5 5 5 5 5 5 5 5 5 5 5 5 5 5 5 5 5 5 5 5 5 5 5 5 5 5 5 5 5 5 5 5 5 5 5 5 5 5 5 5 5 5 5 5 5 5 5 5 5 5 5 5 5 5 5 5 5 5 5 5 5 5 5 5 5 5 5 5 5 5 5 5 5 5 5 5 5 5 5 5 5 5 5 5 5 5 5 5 5 5 5 5 5 5 5 5 5 5 5 5 5 5 5 5 5 5 5 5 5 5 5 5 5 5 5 5 5 5 5 5 5 5 5 5 5 5 5 5 5 5 5 5 5 5 5 5 5 5 5 5 5 5 5 5 5 5 5 5 5 5 5 5 5 5 5 5 5 5 5 5 5 5 5 5 5 5 5 5 5 5 5 5 5 5 5 5 5 5 5 5 5 5 5 5 5 5 5 5 5 5 5 5 5 5 5 5 5 5 5 5 5 5 5 5 5 5 5 5 5 5 5 5 5 5 5 5 5 5 5 5 5 5 5 5 5 5 5 5 5 5 5 5 5 5 5 5 5 5 5 5 5 5 5 5 5 5 5 5 5 5 5 5 5 5 5 5 5 5 5 5 5 5 5 5 5 5 5 5 5 5 5 5 5 5 5 5 5 5 5 5 5 5 5 5 5 5 5 5 5 5 5 5 5 5 5 5 5 5 5 5 5 5 5 5 5 5 5 5 5 5 5 5 5 5 5 5 5 5 5 5 5 5 5 5 5 5 5 5 5 5 5 5 5 5 5 5 5 5 5 5 5 5 5 5 5 5 5 5 5 5 5 5 5 5 5 5 5 5 5 5 5 5 5 5 5 5 5 5 5 5 5 5 5 5 5 5 5 5 5 5 5 5 5 5 5 5 5 5 5 5 5 5 5 5 5 5 5 5 5 5 5 5 5 5 5 5 5 5 5 5 5 5 5 5 5 5 5 5 5 5 5 5 5 5 5 5 5 5 5 5 5 5 5 5 5 5 5 5 5 5 5 5 5 5 5 5 5 5 5 5 5 5 5 5 5 5 5 5 5 5 5 5 5 5 5 5 5 5 5 5 5 5 5 5 5 5 5 5 5 5 5 5 5 5 5 5 5 5 5 5 5 5 5 5 5 5 5 5 5 5 5 5 5 5 5 5 5 5 5 5 5 5 5 5 5 5 5 5 5 5 5 5 5 5 5 5 5 5 5 5 5 5 5 5 5 5 5 5 5 5 5 5 5 5 5 5 5 5 5 5 5 5 5 5 5 5 5 5 5 5 5 5 5 5 5 5 5 5 5 5 5 5 5 5 5 5 5 5 5 5 5 5 5 5 5 5 5 5 5 5 5 5 5 5 5 5 5 5 5 5 5 5 5 5 5 5 5 5 5 5 5 5 5 5 5 5 5 5 5 5 5 5 5 5 5 5 5 5 5 5 5 5 5 5 5 5 5 5 5 5 5 5 5 5 5 5 5 5 5 5 5 5 5 5 5 5 5 5 5 5 5 5 5 5 5 5 5 5 5 5 5 5 5 5 5 5 5 5 5 5 5 5 5 5 5 5 5 5 5 5 5 5 5 5 5 5 5 5 5 5 5 5 5 5 5 5 5 5 5 5 5 5 5 5 5 5 5 5 5 5 5 5 5 5 5 5 5 5 5 5 5 5 5 5 5 5 5 5 5 5 5 5 5 5 5 5 5 5 5 5 5 5 5 5 5 5 5 5 5 5 5 5 5 5 5 5 5 5 5 5 5 5 5 5 5 5 5 5 5 5 5 5 5 5 5 5 5 5 5 5 5 5 5 5 5 5 5 5 5 5 5 5 5 5 5 5 5 5 5 5 5 5 5 5 5 5 5 5 5 5 5 5 5 5 5 5 5 5 5 5 5 5 5 5 5 5 5 5 5 5 5 5 5 5 5 5 5 5 5 5 5 5 5 5 5 5 5 5 5 5 5 5 5 5 5 5 5 5 5 5 5 5 5 5 5 5 5 5 5 5 5 5 5 5 5 5 5 5 5 5 5 5 5 5 5 5 5 5 5 5 5 5 5 5 5 5 5 5 5 5 5 5 5 5 5 5 5 5 5 5 5 5 5 5 5 5 5 5 5 5 5 5 5 5 5 5 5 5 5 5 5 5 5 5 5 5 5 5 5 5 5 5 5 5 5 5 5 5 5 5 5 5 5 5 5 5 5 5 5 5 5 5 5 5 5 5 5 5 5 5 5 5 5 5 5 5 5 5 5 5 5 5 5 5 5 5 5 5 5 5 5 5 5 5 5 5 5 5 5 5 5 5 5 5 5 5 5 5 5 5 5 5 5 5 5 5 5 5 5 5 5 5 5 5 5 5 5 5 5 5 5 5 5 5 5 5 5 5 5 5 5 5 5 5 5 5 5 5 5 5 5 5 5 5 5 5 5 5 5 5 5 5 5 5 5 5 5 5 5 5 5 5 5 5 5 5 5 5 5 5 5 5 5 5 5 5 5 5 5 5 5 5 5 5 5 5 5 5 5 5 5 5 5 5 5 5 5 5 5 5 5 5 5 5 5 5 5 5 5 5 5 5 5 5 5 5 5 5 5 5 5 5 5 5 5 5 5 5 5 5 5 5 5 5 5 5 5 5 5 5 5 5 5 5 5 5 5 5 5 5 5 5 5 5 5 5 5 5 5 5 5 5 5 5 5 5 5 5 5 5 5 5 5 5 5 5 5 5 5 5 5 5 5 5 5 5 5 5 5 5 5 5 5 5 5 5 5 5 5 5 5 5 5 5 5 5 5 5 5 5 5 5 5 5 5 5 5 5 5 5 5 5 5 5 5 5 5 5 5 5 5 5 5 5 5 5 5 5 5 5 5 5 5 5 5 5 5 5 5 5 5 5 5 5 5 5 5 5 5 5 5 5 5 5 5 5 5 5 5 5 5 5 5 5 5 5 5 5 5 5 5 5 5 5 5 5 5 5 5 5 5 5 5 5 5 5 5 5 5 5 5 5 5 5 5 5 5 5 5 5 5 5 5 5 5 5 5 5 5 5 5 5 5 5 5 5 5 5 5 5 5 5 5 5 5 5 5 5 5 5 5 5 5 5 5 5 5 5 5 5 5 5 5 5 5 5 5 5 5 5 5 5 5 5 5 5 5 5 5 5 5 5 5 5 5 5 5 5 5 5 5 5 5 5 5 5 5 5 5 5 5 5 5 5 5 5 5 5 5 5 5 5 5 5 5 5 5 5 5 5 5 5 5 5 5 5 5 5 5 5 5 5 5 5 5 5 5 5 5 5 5 5 5 5 5 5 5 5 5 5 5 5 5 5 5 5 5 5 5 5 5 5 5 5 5 5 5 5 5 5 5 5 5 5 5 5 5 5 5 5 5 5 5 5 5 5 5 5 5 5 5 5 5 5 5 5 5 5 5 5 5 5 5 5 5 5 5 5 5 5 5 5 5 5 5 5 5 5 5 5 5 5 5 5 5 5 5 5 5 5 5 5 5 5 5 5 5 5 5 5 5 5 5 5 5 5 5 5 5 5 5 5 5 5 5 5 5 5 5 5 5 5 5 5 5 5 5 5 5 5 5 5 5 5 5 5 5 5 5 5 5 5 5 5 5 5 5 5 5 5 5 5 5 5 5 5 5 5 5 5 5 5 5 5 5 5 5 5 5 5 5 5 5 5 5 5 5 5 5 5 5 5 5 5 5 5 5 5 5 5 5 5 5 5 5 5 5 5 5 5 5 5 5 5 5 5 5 5 5 5 5 5 5 5 5 5 5 5 5 5 5 5 5 5 5 5 5 5 5 5 5 5 5 5 5 5 5 5 5 5 5 5 5 5 5 5 5 5 5 5 5 5 5 5 5 5 5 5 5 5 5 5 5 5 5 5 5 5 5 5 5 5 5 5 5 5 5 5 5 5 5 5 5 5 5 5 5 5 5 5 5 5 5 5 5 5 5 5 5 5 5 5 5 5 5 5 5 5 5 5 5 5 5 5 5 5 5 5 5 5 5 5 5 5 5 5 5 5 5 5 5 5 5 5 5 5 5 5 5 5 5 5 5 5 5 5 5 5 5 5 5 5 5 5 5 5 5 5 5 5 5 5 5 5 5 5 5 5 5 5 5 5 5 5 5 5 5 5 5 5 5 5 5 5 5 5 5 5 5 5 5 5 5 5 5 5 5 5 5 5 5 5 5 5 5 5 5 5 5 5 5 5 5 5 5 5 5 5 5 5 5 5 5 5 5 5 5 5 5 5 5 5 5 5 5 5 5 5 5 5 5 5 5 5 5 5 5 5 5 5 5 5 5 5 5 5 5 5 5 5 5 5 5 5 5 5 5 5 5 5 5 5 5 5 5 5 5 5 5 5 5 5 5 5 5 5 5 5 5 5 5 5 5 5 5 5 5 5 5 5 5 5 5 5 5 5 5 5 5 5 5 5 5 5 5 5 5 5 5 5 5 5 5 5 5 5 5 5 5 5 5 5 5 5 5 5 5 5 5 5 5 5 5 5 5 5 5 5 5 5 5 5 5 5 5 5 5 5 5 5 5 5 5 5 5 5 5 5 5 5 5 5 5 5 5 5 5 5 5 5 5 5 5 5 5 5 5 5 5 5 5 5 5 5 5 5 5 5 5 5 5 5 5 5 5 5 5 5 5 5 5 5 5 5 5 5 5 5 5 5 5 5 5 5 5 5 5 5 5 5 5 5 5 5 5 5 5 5 5 5 5 5 5 5 5 5 5 5 5 5 5 5 5 5 5 5 5 5 5 5 5 5 5 5 5 5 5 5 5 5 5 5 5 5 5 5 5 5 5 5 5 5 5 5 5 5 5 5 5 5 5 5 5 5 5 5 5 5 5 5 5 5 5 5 5 5 5 5 5 5 5 5 5 5 5 5 5 5 5 5 5 5 5 5 5 5 5 5 5 5 5 5 5 5 5 5 5 5 5 5 5 5 5 5 5 5 5 5 5 5 5 5 5 5 5 5 5 5 5 5 5 5 5 5 5 5 5 5 5 5 5 5 5 5 5 5 5 5 5 5 5 5 5 5 5 5 5 5 5 5 5 5 5 5 5 5 5 5 5 5 5 5 5 5 5 5 5 5 5 5 5 5 5 5 5 5 5 5 5 5 5 5 5 5 5 5 5 5 5 5 5 5 5 5 5 5 5 5 5 5 5 5 5 5 5 5 5 5 5 5 5 5 5 5 5 5 5 5 5 5 5 5 5 5 5 5 5 5 5 5 5 5 5 5 5 5 5 5 5 5 5 5 5 5 5 5 5 5 5 5 5 5 5 5 5 5 5 5 5 5 5 5 5 5 5 5 5 5 5 5 5 5 5 5 5 5 5 5 5 5 5 5 5 5 5 5 5 5 5 5 5 5 5 5 5 5 5 5 5 5 5 5 5 5 5 5 5 5 5 5 5 5 5 5 5 5 5 5 5 5 5 5 5 5 5 5 5 5 5 5 5 5 5 5 5 5 5 5 5 5 5 5 5 5 5 5 5 5 5 5 5 5 5 5 5 5 5 5 5 5 5 5 5 5 5 5 5 5 5 5 5 5 5 5 5 5 5 5 5 5 5 5 5 5 5 5 5 5 5 5 5 5 5 5 5 5 5 5 5 5 5 5 5 5 5 5 5 5 5 5 5 5 5 5 5 5 5 5 5 5 5 5 5 5 5 5 5 5 5 5 5 5 5 5 5 5 5 5 5 5 5 5 5 5 5 5 5 5 5 5 5 5 5 5 5 5 5 5 5 5 5 5 5 5 5 5 5 5 5 5 5 5 5 5 5 5 5 5 5 5 5 5 5 5 5 5 5 5 5 5 5 5 5 5 5 5 5 5 5 5 5 5 5 5 5 5 5 5 5 5 5 5 5 5 5 5 5 5 5 5 5 5 5 5 5 5 5 5 5 5 5 5 5 5 5 5 5 5 5 5 5 5 5 5 5 5 5 5 5 5 5 5 5 5 5 5 5 5 5 5 5 5 5 5 5 5 5 5 5 5 5 5 5 5 5 5 5 5 5 5 5 5 5 5 5 5 5 5 5 5 5 5 5 5 5 5 5 5 5 5 5 5 5 5 5 5 5 5 5 5 5 5 5 5 5 5 5 5 5 5 5 5 5 5 5 5 5 5 5 5 5 5 5 5 5 5 5 5 5 5 5 5 5 5 5 5 5 5 5 5 5 5 5 5 5 5 5 5 5 5 5 5 5 5 5 5 5 5 5 5 5 5 5 5 5 5 5 5 5 5 5 5 5 5 5 5 5 5 5 5 5 5 5 5 5 5 5 5 5 5 5 5 5 5 5 5 5 5 5 5 5 5 5 5 5 5 5 5 5 5 5 5 5 5 5 5 5 5 5 5 5 5 5 5 5 5 5 5 5 5 5 5 5 5 5 5 5 5 5 5 5 5 5 5 5 5 5 5 5 5 5 5 5 5 5 5 5 5 5 5 5 5 5 5 5 5 5 5 5 5 5 5 5 5 5 5 5 5 5 5 5 5 5 5 5 5 5 5 5 5 5 5 5 5 5 5 5 5 5 5 5 5 5 5 5 5 5 5 5 5 5 5 5 5 5 5 5 5 5 5 5 5 5 5 5 5 5 5 5 5 5 5 5 5 5 5 5 5 5 5 5 5 5 5 5 5 5 5 5 5 5 5 5 5 5 5 5 5 5 5 5 5 5 5 5 5 5 5 5 5 5 5 5 5 5 5 5 5 5 5 5 5 5 5 5 5 5 5 5 5 5 5 5 5 5 5 5 5 5 5 5 5 5 5 5 5 5 5 5 5 5 5 5 5 5 5 5 5 5 5 5 5 5 5 5 5 5 5 5 5 5 5 5 5 5 5 5 5 5 5 5 5 5 5 5 5 5 5 5 5 5 5 5 5 5 5 5 5 5 5 5 5 5 5 5 5 5 5 5 5 5 5 5 5 5 5 5 5 5 5 5 5 5 5 5 5 5 5 5 5 5 5 5 5 5 5 5 5 5 5 5 5 5 5 5 5 5 5 5 5 5 5 5 5 5 5 5 5 5 5 5 5 5 5 5 5 5 5 5 5 5 5 5 5 5 5 5 5 5 5 5 5 5 5 5 5 5 5 5 5 5 5 5 5 5 5 5 5 5 5 5 5 5 5 5 5 5 5 5 5 5 5 5 5 5 5 5 5 5 5 5 5 5 5 5 5 5 5 5 5 5 5 5 5 5 5 5 5 5 5 5 5 5 5 5 5 5 5 5 5 5 5 5 5 5 5 5 5 5 5 5 5 5 5 5 5 5 5 5 5 5 5 5 5 5 5 5 5 5 5 5 5 5 5 5 5 5 5 5 5 5 5 5 5 5 5 5 5 5 5 5 5 5 5 5 5 5 5 5 5 5 5 5 5 5 5 5 5 5 5 5 5 5 5 5 5 5 5 5 5 5 5 5 5 5 5 5 5 5 5 5 5 5 5 5 5 5 5 5 5 5 5 5 5 5 5 5 5 5 5 5 5 5 5 5 5 5 5 5 5 5 5 5 5 5 5 5 5 5 5 5 5 5 5 5 5 5 5 5 5 5 5 5 5 5 5 5 5 5 5 5 5 5 5 5 5 5 5 5 5 5 5 5 5 5 5 5 5 5 5 5 5 5 5 5 5 5 5 5 5 5 5 5 5 5 5 5 5 5 5 5 5 5 5 5 5 5 5 5 5 5 5 5 5 5 5 5 5 5 5 5 5 5 5 5 5 5 5 5 5 5 5 5 5 5 5 5 5 5 5 5 5 5 5 5 5 5 5 5 5 5 5 5 5 5 5 5 5 5 5 5 5 5 5 5 5 5 5 5 5 5 5 5 5 5 5 5 5 5 5 5 5 5 5 5 5 5 5 5 5 5 5 5 5 5 5 5 5 5 5 5 5 5 5 5 5 5 5 5 5 5 5 5 5 5 5 5 5 5 5 5 5 5 5 5 5 5 5 5 5 5 5 5 5 5 5 5 5 5 5 5 5 5 5 5 5 5 5 5 5 5 5 5 5 5 5 5 5 5 5 5 5 5 5 5 5 5 5 5 5 5 5 5 5 5 5 5 5 5 5 5 5 5 5 5 5 5 5 5 5 5 5 5 5 5 5 5 5 5 5 5 5 5 5 5 5 5 5 5 5 5 5 5 5 5 5 5 5 5 5 5 5 5 5 5 5 5 5 5 5 5 5 5 5 5 5 5 5 5 5 5 5 5 5 5 5 5 5 5 5 5 5 5 5 5 5 5 5 5 5 5 5 5 5 5 5 5 5 5 5 5 5 5 5 5 5 5 5 5 5 5 5 5 5 5 5 5 5 5 5 5 5 5 5 5 5 5 5 5 5 5 5 5 5 5 5 5 5 5 5 5 5 5 5 5 5 5 5 5 5 5 5 5 5 5 5 5 5 5 5 5 5 5 5 5 5 5 5 5 5 5 5 5 5 5 5 5 5 5 5 5 5 5 5 5 5 5 5 5 5 5 5 5 5 5 5 5 5 5 5 5 5 5 5 5 5 5 5 5 5 5 5 5 5 5 5 5 5 5 5 5 5 5 5 5 5 5 5 5 5 5 5 5 5 5 5 5 5 5 5 5 5 5 5 5 5 5 5 5 5 5 5 5 5 5 5 5 5 5 5 5 5 5 5 5 5 5 5 5 5 5 5 5 5 5 5 5 5 5 5 5 5 5 5 5 5 5 5 5 5 5 5 5 5 5 5 5 5 5 5 5 5 5 5 5 5 5 5 5 5 5 5 5 5 5 5 5 5 5 5 5 5 5 5 5 5 5 5 5 5 5 5 5 5 5 5 5 5 5 5 5 5 5 5 5 5 5 5 5 5 5 5 5 5 5 5 5 5 5 5 5 5 5 5 5 5 5 5 5 5 5 5 5 5 5 5 5 5 5 5 5 5 5 5 5 5 5 5 5 5 5 5 5 5 5 5 5 5 5 5 5 5 5 5 5 5 5 5 5 5 5 5 5 5 5 5 5 5 5 5 5 5 5 5 5 5 5 5 5 5 5 5 5 5 5 5 5 5 5 5 5 5 5 5 5 5 5 5 5 5 5 5 5 5 5 5 5 5 5 5 5 5 5 5 5 5 5 5 5 5 5 5 5 5 5 5 5 5 5 5 5 5 5 5 5 5 5 5 5 5 5 5 5 5 5 5 5 5 5 5 5 5 5 5 5 5 5 5 5 5 5 5 5 5 5 5 5 5 5 5 5 5 5 5 5 5 5 5 5 5 5 5 5 5 5 5 5 5 5 5 5 5 5 5 5 5 5 5 5 5 5 5 5 5 5 5 5 5 5 5 5 5 5 5 5 5 5 5 5 5 5 5 5 5 5 5 5 5 5 5 5 5 5 5 5 5 5 5 5 5 5 5 5 5 5 5 5 5 5 5 5 5 5 5 5 5 5 5 5 5 5 5 5 5 5 5 5 5 5 5 5 5 5 5 5 5 5 5 5 5 5 5 5 5 5 5 5 5 5 5 5 5 5 5 5 5 5 5 5 5 5 5 5 5 5 5 5 5 5 5 5 5 5 5 5 5 5 5 5 5 5 5 5 5 5 5 5 5 5 5 5 5 5 5 5 5 5 5 5 5 5 5 5 5 5 5 5 5 5 5 5 5 5 5 5 5 5 5 5 5 5 5 5 5 5 5 5 5 5 5 5 5 5 5 5 5 5 5 5 5 5 5 5 5 5 5 5 5 5 5 5 5 5 5 5 5 5 5 5 5 5 5 5 5 5 5 5 5 5 5 5 5 5 5 5 5 5 5 5 5 5 5 5 5 5 5 5 5 5 5 5 5 5 5 5 5 5 5 5 5 5 5 5 5 5 5 5 5 5 5 5 5 5 5 5 5 5 5 5 5 5 5 5 5 5 5 5 5 5 5 5 5 5 5 5 5 5 5 5 5 5 5 5 5 5 5 5 5 5 5 5 5 5 5 5 5 5 5 5 5 5 5 5 5 5 5 5 5 5 5 5 5 5 5 5 5 5 5 5 5 5 5 5 5 5 5 5 5 5 5 5 5 5 5 5 5 5 5 5 5 5 5 5 5 5 5 5 5 5 5 5 5 5 5 5 5 5 5 5 5 5 5 5 5 5 5 5 5 5 5 5 5 5 5 5 5 5 5 5 5 5 5 5 5 5 5 5 5 5 5 5 5 5 5 5 5 5 5 5 5 5 5 5 5 5 5 5 5 5 5 5 5 5 5 5 5 5 5 5 5 5 5 5 5 5 5 5 5 5 5 5 5 5 5 5 5 5 5 5 5 5 5 5 5 5 5 5 5 5 5 5 5 5 5 5 5 5 5 5 5 5 5 5 5 5 5 5 5 5 5 5 5 5 5 5 5 5 5 5 5 5 5 5 5 5 5 5 5 5 5 5 5 5 5 5 5 5 5 5 5 5 5 5 5 5 5 5 5 5 5 5 5 5 5 5 5 5 5 5 5 5 5 5 5 5 5 5 5 5 5 5 5 5 5 5 5 5 5 5 5 5 5 5 5 5 5 5 5 5 5 5 5 5 5 5 5 5 5 5 5 5 5 5 5 5 5 5 5 5 5 5 5 5 5 5 5 5 5 5 5 5 5 5 5 5 5 5 5 5 5 5 5 5 5 5 5 5 5 5 5 5 5 5 5 5 5 5 5 5 5 5 5 5 5 5 5 5 5 5 5 5 5 5 5 5 5 5 5 5 5 5 5 5 5 5 5 5 5 5 5 5 5 5 5 5 5 5 5 5 5 5 5 5 5 5 5 5 5 5 5 5 5 5 5 5 5 5 5 5 5 5 5 5 5 5 5 5 5 5 5 5 5 5 5 5 5 5 5 5 5 5 5 5 5 5 5 5 5 5 5 5 5 5 5 5 5 5 5 5 5 5 5 5 5 5 5 5 5 5 5 5 5 5 5 5 5 5 5 5 5 5 5 5 5 5 5 5 5 5 5 5 5 5 5 5 5 5 5 5 5 5 5 5 5 5 5 5 5 5 5 5 5 5 5 5 5 5 5 5 5 5 5 5 5 5 5 5 5 5 5 5 5 5 5 5 5 5 5 5 5 5 5 5 5 5 5 5 5 5 5 5 5 5 5 5 5 5 5 5 5 5 5 5 5 5 5 5 5 5 5 5 5 5 5 5 5 5 5 5 5 5 5 5 5 5 5 5 5 5 5 5 5 5 5 5 5 5 5 5 5 5 5 5 5 5 5 5 5 5 5 5 5 5 5 5 5 5 5 5 5 5 5 5 5 5 5 5 5 5 5 5 5 5 5 5 5 5 5 5 5 5 5 5 5 5 5 5 5 5 5 5 5 5 5 5 5 5 5 5 5 5 5 5 5 5 5 5 5 5 5 5 5 5 5 5 5 5 5 5 5 5 5 5 5 5 5 5 5 5 5 5 5 5 5 5 5 5 5 5 5 5 5 5 5 5 5 5 5 5 5 5 5 5 5 5 5 5 5 5 5 5 5 5 5 5 5 5 5 5 5 5 5 5 5 5 5 5 5 5 5 5 5 5 5 5 5 5 5 5 5 5 5 5 5 5 5 5 5 5 5 5 5 5 5 5 5 5 5 5 5 5 5 5 5 5 5 5 5 5 5 5 5 5 5 5 5 5 5 5 5 5 5 5 5 5 5 5 5 5 5 5 5 5 5 5 5 5 5 5 5 5 5 5 5 5 5 5 5 5 5 5 5 5 5 5 5 5 5 5 5 5 5 5 5 5 5 5 5 5 5 5 5 5 5 5 5 5 5 5 5 5 5 5 5 5 5 5 5 5 5 5 5 5 5 5 5 5 5 5 5 5 5 5 5 5 5 5 5 5 5 5 5 5 5 5 5 5 5 5 5 5 5 5 5 5 5 5 5 5 5 5 5 5 5 5 5 5 5 5 5 5 5 5 5 5 5 5 5 5 5 5 5 5 5 5 5 5 5 5 5 5 5 5 5 5 5 5 5 5 5 5 5 5 5 5 5 5 5 5 5 5 5 5 5 5 5 5 5 5 5 5 5 5 5 5 5 5 5 5 5 5 5 5 5 5 5 5 5 5 5 5 5 5 5 5 5 5 5 5 5 5 5 5 5 5 5 5 5 5 5 5 5 5 5 5 5 5 5 5 5 5 5 5 5 5 5 5 5 5 5 5 5 5 5 5 5 5 5 5 5 5 5 5 5 5 5 5 5 5 5 5 5 5 5 5 5 5 5 5 5 5 5 5 5 5 5 5 5 5 5 5 5 5 5 5 5 5 5 5 5 5 5 5 5 5 5 5 5 5 5 5 5 5 5 5 5 5 5 5 5 5 5 5 5 5 5 5 5 5 5 5 5 5 5 5 5 5 5 5 5 5 5 5 5 5 5 5 5 5 5 5 5 5 5 5 5 5 5 5 5 5 5 5 5 5 5 5 5 5 5 5 5 5 5 5 5 5 5 5 5 5 5 5 5 5 5 5 5 5 5 5 5 5 5 5 5 5 5 5 5 5 5 5 5 5 5 5 5 5 5 5 5 5 5 5 5 5 5 5 5 5 5 5 5 5 5 5 5 5 5 5 5 5 5 5 5 5 5 5 5 5 5 5 5 5 5 5 5 5 5 5 5 5 5 5 5 5 5 5 5 5 5 5 5 5 5 5 5 5 5 5 5 5 5 5 5 5 5 5 5 5 5 5 5 5 5 5 5 5 5 5 5 5 5 5 5 5 5 5 5 5 5 5 5 5 5 5 5 5 5 5 5 5 5 5 5 5 5 5 5 5 5 5 5 5 5 5 5 5 5 5 5 5 5 5 5 5 5 5 5 5 5 5 5 5 5 5 5 5 5 5 5 5 5 5 5 5 5 5 5 5 5 5 5 5 5 5 5 5 5 5 5 5 5 5 5 5 5 5 5 5 5 5 5 5 5 5 5 5 5 5 5 5 5 5 5 5 5 5 5 5 5 5 5 5 5 5 5 5 5 5 5 5 5 5 5 5 5 5 5 5 5 5 5 5 5 5 5 5 5 5 5 5 5 5 5 5 5 5 5 5 5 5 5 5 5 5 5 5 5 5 5 5 5 5 5 5 5 5 5 5 5 5 5 5 5 5 5 5 5 5 5 5 5 5 5 5 5 5 5 5 5 5 5 5 5 5 5 5 5 5 5 5 5 5 5 5 5 5 5 5 5 5 5 5 5 5 5 5 5 5 5 5 5 5 5 5 5 5 5 5 5 5 5 5 5 5 5 5 5 5 5 5 5 5 5 5 5 5 5 5 5 5 5 5 5 5 5 5 5 5 5 5 5 5 5 5 5 5 5 5 5 5 5 5 5 5 5 5 5 5 5 5 5 5 5 5 5 5 5 5 5 5 5 5 5 5 5 5 5 5 5 5 5 5 5 5 5 5 5 5 5 5 5 5 5 5 5 5 5 5 5 5 5 5 5 5 5 5 5 5 5 5 5 5 5 5 5 5 5 5 5 5 5 5 5 5 5 5 5 5 5 5 5 5 5 5 5 5 5 5 5 5 5 5 5 5 5 5 5 5 5 5 5 5 5 5 5 5 5 5 5 5 5 5 5 5 5 5 5 5 5 5 5 5 5 5 5 5 5 5 5 5 5 5 5 5 5 5 5 5 5 5 5 5 5 5 5 5 5 5 5 5 5 5 5 5 5 5 5 5 5 5 5 5 5 5 5 5 5 5 5 5 5 5 5 5 5 5 5 5 5 5 5 5 5 5 5 5 5 5 5 5 5 5 5 5 5 5 5 5 5 5 5 5 5 5 5 5 5 5 5 5 5 5 5 5 5 5 5 5 5 5 5 5 5 5 5 5 5 5 5 5 5 5 5 5 5 5 5 5 5 5 5 5 5 5 5 5 5 5 5 5 5 5 5 5 5 5 5 5 5 5 5 5 5 5 5 5 5 5 5 5 5 5 5 5 5 5 5 5 5 5 5 5 5 5 5 5 5 5 5 5 5 5 5 5 5 5 5 5 5 5 5 5 5 5 5 5 5 5 5 5 5 5 5 5 5 5 5 5 5 5 5 5 5 5 5 5 5 5 5 5 5 5 5 5 5 5 5 5 5 5 5 5 5 5 5 5 5 5 5 5 5 5 5 5 5 5 5 5 5 5 5 5 5 5 5 5 5 5 5 5 5 5 5 5 5 5 5 5 5 5 5 5 5 5 5 5 5 5 5 5 5 5 5 5 5 5 5 5 5 5 5 5 5 5 5 5 5 5 5 5 5 5 5 5 5 5 5 5 5 5 5 5 5 5 5 5 5 5 5 5 5 5 5 5 5 5 5 5 5 5 5 5 5 5 5 5 5 5 5 5 5 5 5 5 5 5 5 5 5 5 5 5 5 5 5 5 5 5 5 5 5 5 5 5 5 5 5 5 5 5 5 5 5 5 5 5 5 5 5 5 5 5 5 5 5 5 5 5 5 5 5 5 5 5 5 5 5 5 5 5 5 5 5 5 5 5 5 5 5 5 5 5 5 5 5 5 5 5 5 5 5 5 5 5 5 5 5 5 5 5 5 5 5 5 5 5 5 5 5 5 5 5 5 5 5 5 5 5 5 5 5 5 5 5 5 5 5 5 5 5 5 5 5 5 5 5 5 5 5 5 5 5 5 5 5 5 5 5 5 5 5 5 5 5 5 5 5 5 5 5 5 5 5 5 5 5 5 5 5 5 5 5 5 5 5 5 5 5 5 5 5 5 5 5 5 5 5 5 5 5 5 5 5 5 5 5 5 5 5 5 5 5 5 5 5 5 5 5 5 5 5 5 5 5 5 5 5 5 5 5 5 5 5 5 5 5 5 5 5 5 5 5 5 5 5 5 5 5 5 5 5 5 5 5 5 5 5 5 5 5 5 5 5 5 5 5 5 5 5 5 5 5 5 5 5 5 5 5 5 5 5 5 5 5 5 5 5 5 5 5 5 5 5 5 5 5 5 5 5 5 5 5 5 5 5 5 5 5 5 5 5 5 5 5 5 5 5 5 5 5 5 5 5 5 5 5 5 5 5 5 5 5 5 5 5 5 5 5 5 5 5 5 5 5 5 5 5 5 5 5 5 5 5 5 5 5 5 5 5 5 5 5 5 5 5 5 5 5 5 5 5 5 5 5 5 5 5 5 5 5 5 5 5 5 5 5 5 5 5 5 5 5 5 5 5 5 5 5 5 5 5 5 5 5 5 5 5 5 5 5 5 5 5 5 5 5 5 5 5 5 5 5 5 5 5 5 5 5 5 5 5 5 5 5 5 5 5 5 5 5 5 5 5 5 5 5 5 5 5 5 5 5 5 5 5 5 5 5 5 5 5 5 5 5 5 5 5 5 5 5 5 5 5 5 5 5 5 5 5 5 5 5 5 5 5 5 5 5 5 5 5 5 5 5 5 5 5 5 5 5 5 5 5 5 5 5 5 5 5 5 5 5 5 5 5 5 5 5 5 5 5 5 5 5 5 5 5 5 5 5 5 5 5 5 5 5 5 5 5 5 5 5 5 5 5 5 5 5 5 5 5 5 5 5 5 5 5 5 5 5 5 5 5 5 5 5 5 5 5 5 5 5 5 5 5 5 5 5 5 5 5 5 5 5 5 5 5 5 5 5 5 5 5 5 5 5 5 5 5 5 5 5 5 5 5 5 5 5 5 5 5 5 5 5 5 5 5 5 5 5 5 5 5 5 5 5 5 5 5 5 5 5 5 5 5 5 5 5 5 5 5 5 5 5 5 5 5 5 5 5 5 5 5 5 5 5 5 5 5 5 5 5 5 5 5 5 5 5 5 5 5 5 5 5 5 5 5 5 5 5 5 5 5 5 5 5 5 5 5 5 5 5 5 5 5 5 5 5 5 5 5 5 5 5 5 5 5 5 5 5 5 5 5 5 5 5 5 5 5 5 5 5 5 5 5 5 5 5 5 5 5 5 5 5 5 5 5 5 5 5 5 5 5 5 5 5 5 5 5 5 5 5 5 5 5 5 5 5 5 5 5 5 5 5 5 5 5 5 5 5 5 5 5 5 5 5 5 5 5 5 5 5 5 5 5 5 5 5 5 5 5 5 5 5 5 5 5 5 5 5 5 5 5 5 5 5 5 5 5 5 5 5 5 5 5 5 5 5 5 5 5 5 5 5 5 5 5 5 5 5 5 5 5 5 5 5 5 5 5 5 5 5 5 5 5 5 5 5 5 5 5 5 5 5 5 5 5 5 5 5 5 5 5 5 5 5 5 5 5 5 5 5 5 5 5 5 5 5 5 5 5 5 5 5 5 5 5 5 5 5 5 5 5 5 5 5 5 5 5 5 5 5 5 5 5 5 5 5 5 5 5 5 5 5 5 5 5 5 5 5 5 5 5 5 5 5 5 5 5 5 5 5 5 5 5 5 5 5 5 5 5 5 5 5 5 5 5 5 5 5 5 5 5 5 5 5 5 5 5 5 5 5 5 5 5 5 5 5 5 5 5 5 5 5 5 5 5 5 5 5 5 5 5 5 5 5 5 5 5 5 5 5 5 5 5 5 5 5 5 5 5 5 5 5 5 5 5 5 5 5 5 5 5 5 5 5 5 5 5 5 5 5 5 5 5 5 5 5 5 5 5 5 5 5 5 5 5 5 5 5 5 5 5 5 5 5 5 5 5 5 5 5 5 5 5 5 5 5 5 5 5 5 5 5 5 5 5 5 5 5 5 5 5 5 5 5 5 5 5 5 5 5 5 5 5 5 5 5 5 5 5 5 5 5 5 5 5 5 5 5 5 5 5 5 5 5 5 5 5 5 5 5 5 5 5 5 5 5 5 5 5 5 5 5 5 5 5 5 5 5 5 5 5 5 5 5 5 5 5 5 5 5 5 5 5 5 5 5 5 5 5 5 5 5 5 5 5 5 5 5 5 5 5 5 5 5 5 5 5 5 5 5 5 5 5 5 5 5 5 5 5 5 5 5 5 5 5 5 5 5 5 5 5 5 5 5 5 5 5 5 5 5 5 5 5 5 5 5 5 5 5 5 5 5 5 5 5 5 5 5 5 5 5 5 5 5 5 5 5 5 5 5 5 5 5 5 5 5 5 5 5 5 5 5 5 5 5 5 5 5 5 5 5 5 5 5 5 5 5 5 5 5 5 5 5 5 5 5 5 5 5 5 5 5 5 5 5 5 5 5 5 5 5 5 5 5 5 5 5 5 5 5 5 5 5 5 5 5 5 5 5 5 5 5 5 5 5 5 5 5 5 5 5 5 5 5 5 5 5 5 5 5 5 5 5 5 5 5 5 5 5 5 5 5 5 5 5 5 5 5 5 5 5 5 5 5 5 5 5 5 5 5 5 5 5 5 5 5 5 5 5 5 5 5 5 5 5 5 5 5 5 5 5 5 5 5 5 5 5 5 5 5 5 5 5 5 5 5 5 5 5 5 5 5 5 5 5 5 5 5 5 5 5 5 5 5 5 5 5 5 5 5 5 5 5 5 5 5 5 5 5 5 5 5 5 5 5 5 5 5 5 5 5 5 5 5 5 5 5 5 5 5 5 5 5 5 5 5 5 5 5 5 5 5 5 5 5 5 5 5 5 5 5 5 5 5 5 5 5 5 5 5 5 5 5 5 5 5 5 5 5 5 5 5 5 5 5 5 5 5 5 5 5 5 5 5 5 5 5 5 5 5 5 5 5 5 5 5 5 5 5 5 5 5 5 5 5 5 5 5 5 5 5 5 5 5 5 5 5 5 5 5 5 5 5 5 5 5 5 5 5 5 5 5 5 5 5 5 5 5 5 5 5 5 5 5 5 5 5 5 5 5 5 5 5 5 5 5 5 5 5 5 5 5 5 5 5 5 5 5 5 5 5 5 5 5 5 5 5 5 5 5 5 5 5 5 5 5 5 5 5 5 5 5 5 5 5 5 5 5 5 5 5 5 5 5 5 5 5 5 5 5 5 5 5 5 5 5 5 5 5 5 5 5 5 5 5 5 5 5 5 5 5 5 5 5 5 5 5 5 5 5 5 5 5 5 5 5 5 5 5 5 5 5 5 5 5 5 5 5 5 5 5 5 5 5 5 5 5 5 5 5 5 5 5 5 5 5 5 5 5 5 5 5 5 5 5 5 5 5 5 5 5 5 5 5 5 5 5 5 5 5 5 5 5 5 5 5 5 5 5 5 5 5 5 5 5 5 5 5 5 5 5 5 5 5 5 5 5 5 5 5 5 5 5 5 5 5 5 5 5 5 5 5 5 5 5 5 5 5 5 5 5 5 5 5 5 5 5 5 5 5 5 5 5 5 5 5 5 5 5 5 5 5 5 5 5 5 5 5 5 5 5 5 5 5 5 5 5 5 5 5 5 5 5 5 5 5 5 5 5 5 5 5 5 5 5 5 5 5 5 5 5 5 5 5 5 5 5 5 5 5 5 5 5 5 5 5 5 5 5 5 5 5 5 5 5 5 5 5 5 5 5 5 5 5 5 5 5 5 5 5 5 5 5 5 5 5 5 5 5 5 5 5 5 5 5 5 5 5 5 5 5 5 5 5 5 5 5 5 5 5 5 5 5 5 5 5 5 5 5 5 5 5 5 5 5 5 5 5 5 5 5 5 5 5 5 5 5 5 5 5 5 5 5 5 5 5 5 5 5 5 5 5 5 5 5 5 5 5 5 5 5 5 5 5 5 5 5 5 5 5 5 5 5 5 5 5 5 5 5 5 5 5 5 5 5 5 5 5 5 5 5 5 5 5 5 5 5 5 5 5 5 5 5 5 5 5 5 5 5 5 5 5 5 5 5 5 5 5 5 5 5 5 5 5 5 5 5 5 5 5 5 5 5 5 5 5 5 5 5 5 5 5 5 5 5 5 5 5 5 5 5 5 5 5 5 5 5 5 5 5 5 5 5 5 5 5 5 5 5 5 5 5 5 5 5 5 5 5 5 5 5 5 5 5 5 5 5 5 5 5 5 5 5 5 5 5 5 5 5 5 5 5 5 5 5 5 5 5 5 5 5 5 5 5 5 5 5 5 5 5 5 5 5 5 5 5 5 5 5 5 5 5 5 5 5 5 5 5 5 5 5 5 5 5 5 5 5 5 5 5 5 5 5 5 5 5 5 5 5 5 5 5 5 5 5 5 5 5 5 5 5 5 5 5 5 5 5 5 5 5 5 5 5 5 5 5 5 5 5 5 5 5 5 5 5 5 5 5 5 5 5 5 5 5 5 5 5 5 5 5 5 5 5 5 5 5 5 5 5 5 5 5 5 5 5 5 5 5 5 5 5 5 5 5 5 5 5 5 5 5 5 5 5 5 5 5 5 5 5 5 5 5 5 5 5 5 5 5 5 5 5 5 5 5 5 5 5 5 5 5 5 5 5 5 5 5 5 5 5 5 5 5 5 5 5 5 5 5 5 5 5 5 5 5 5 5 5 5 5 5 5 5 5 5 5 5 5 5 5 5 5 5 5 5 5 5 5 5 5 5 5 5 5 5 5 5 5 5 5 5 5 5 5 5 5 5 5 5 5 5 5 5 5 5 5 5 5 5 5 5 5 5 5 5 5 5 5 5 5 5 5 5 5 5 5 5 5 5 5 5 5 5 5 5 5 5 5 5 5 5 5 5 5 5 5 5 5 5 5 5 5 5 5 5 5 5 5 5 5 5 5 5 5 5 5 5 5 5 5 5 5 5 5 5 5 5 5 5 5 5 5 5 5 5 5 5 5 5 5 5 5 5 5 5 5 5 5 5 5 5 5 5 5 5 5 5 5 5 5 5 5 5 5 5 5 5 5 5 5 5 5 5 5 5 5 5 5 5 5 5 5 5 5 5 5 5 5 5 5 5 5 5 5 5 5 5 5 5 5 5 5 5 5 5 5 5 5 5 5 5 5 5 5 5 5 5 5 5 5 5 5 5 5 5 5 5 5 5 5 5 5 5 5 5 5 5 5 5 5 5 5 5 5 5 5 5 5 5 5 5 5 5 5 5 5 5 5 5 5 5 5 5 5 5 5 5 5 5 5 5 5 5 5 5 5 5 5 5 5 5 5 5 5 5 5 5 5 5 5 5 5 5 5 5 5 5 5 5 5 5 5 5 5 5 5 5 5 5 5 5 5 5 5 5 5 5 5 5 5 5 5 5 5 5 5 5 5 5 5 5 5 5 5 5 5 5 5 5 5 5 5 5 5 5 5 5 5 5 5 5 5 5 5 5 5 5 5 5 5 5 5 5 5 5 5 5 5 5 5 5 5 5 5 5 5 5 5 5 5 5 5 5 5 5 5 5 5 5 5 5 5 5 5 5 5 5 5 5 5 5 5 5 5 5 5 5 5 5 5 5 5 5 5 5 5 5 5 5 5 5 5 5 5 5 5 5 5 5 5 5 5 5 5 5 5 5 5 5 5 5 5 5 5 5 5 5 5 5 5 5 5 5 5 5 5 5 5 5 5 5 5 5 5 5 5 5 5 5 5 5 5 5 5 5 5 5 5 5 5 5 5 5 5 5 5 5 5 5 5 5 5 5 5 5 5 5 5 5 5 5 5 5 5 5 5 5 5 5 5 5 5 5 5 5 5 5 5 5 5 5 5 5 5 5 5 5 5 5 5 5 5 5 5 5 5 5 5 5 5 5 5 5 5 5 5 5 5 5 5 5 5 5 5 5 5 5 5 5 5 5 5 5 5 5 5 5 5 5 5 5 5 5 5 5 5 5 5 5 5 5 5 5 5 5 5 5 5 5 5 5 5 5 5 5 5 5 5 5 5 5 5 5 5 5 5 5 5 5 5 5 5 5 5 5 5 5 5 5 5 5 5 5 5 5 5 5 5 5 5 5 5 5 5 5 5 5 5 5 5 5 5 5 5 5 5 5 5 5 5 5 5 5 5 5 5 5 5 5 5 5 5 5 5 5 5 5 5 5 5 5 5 5 5 5 5 5 5 5 5 5 5 5 5 5 5 5 5 5 5 5 5 5 5 5 5 5 5 5 5 5 5 5 5 5 5 5 5 5 5 5 5 5 5 5 5 5 5 5 5 5 5 5 5 5 5 5 5 5 5 5 5 5 5 5 5 5 5 5 5 5 5 5 5 5 5 5 5 5 5 5 5 5 5 5 5 5 5 5 5 5 5 5 5 5 5 5 5 5 5 5 5 5 5 5 5 5 5 5 5 5 5 5 5 5 5 5 5 5 5 5 5 5 5 5 5 5 5 5 5 5 5 5 5 5 5 5 5 5 5 5 5 5 5 5 5 5 5 5 5 5 5 5 5 5 5 5 5 5 5 5 5 5 5 5 5 5 5 5 5 5 5 5 5 5 5 5 5 5 5 5 5 5 5 5 5 5 5 5 5 5 5 5 5 5 5 5 5 5 5 5 5 5 5 5 5 5 5 5 5 5 5 5 5 5 5 5 5 5 5 5 5 5 5 5 5 5 5 5 5 5 5 5 5 5 5 5 5 5 5 5 5 5 5 5 5 5 5 5 5 5 5 5 5 5 5 5 5 5 5 5 5 5 5 5 5 5 5 5 5 5 5 5 5 5 5 5 5 5 5 5 5 5 5 5 5 5 5 5 5 5 5 5 5 5 5 5 5 5 5 5 5 5 5 5 5 5 5 5 5 5 5 5 5 5 5 5 5 5 5 5 5 5 5 5 5 5 5 5 5 5 5 5 5 5 5 5 5 5 5 5 5 5 5 5 5 5 5 5 5 5 5 5 5 5 5 5 5 5 5 5 5 5 5 5 5 5 5 5 5 5 5 5 5 5 5 5 5 5 5 5 5 5 5 5 5 5 5 5 5 5 5 5 5 5 5 5 5 5 5 5 5 5 5 5 5 5 5 5 5 5 5 5 5 5 5 5 5 5 5 5 5 5 5 5 5 5 5 5 5 5 5 5 5 5 5 5 5 5 5 5 5 5 5 5 5 5 5 5 5 5 5 5 5 5 5 5 5 5 5 5 5 5 5 5 5 5 5 5 5 5 5 5 5 5 5 5 5 5 5 5 5 5 5 5 5 5 5 5 5 5 5 5 5 5 5 5 5 5 5 5 5 5 5 5 5 5 5 5 5 5 5 5 5 5 5 5 5 5 5 5 5 5 5 5 5 5 5 5 5 5 5 5 5 5 5 5 5 5 5 5 5 5 5 5 5 5 5 5 5 5 5 5 5 5 5 5 5 5 5 5 5 5 5 5 5 5 5 5 5 5 5 5 5 5 5 5 5 5 5 5 5 5 5 5 5 5 5 5 5 5 5 5 5 5 5 5 5 5 5 5 5 5 5 5 5 5 5 5 5 5 5 5 5 5 5 5 5 5 5 5 5 5 5 5 5 5 5 5 5 5 5 5 5 5 5 5 5 5 5 5 5 5 5 5 5 5 5 5 5 5 5 5 5 5 5 5 5 5 5 5 5 5 5 5 5 5 5 5 5 5 5 5 5 5 5 5 5 5 5 5 5 5 5 5 5 5 5 5 5 5 5 5 5 5 5 5 5 5 5 5 5 5 5 5 5 5 5 5 5 5 5 5 5 5 5 5 5 5 5 5 5 5 5 5 5 5 5 5 5 5 5 5 5 5 5 5 5 5 5 5 5 5 5 5 5 5 5 5 5 5 5 5 5 5 5 5 5 5 5 5 5 5 5 5 5 5 5 5 5 5 5 5 5 5 5 5 5 5 5 5 5 5 5 5 5 5 5 5 5 5 5 5 5 5 5 5 5 5 5 5 5 5 5 5 5 5 5 5 5 5 5 5 5 5 5 5 5 5 5 5 5 5 5 5 5 5 5 5 5 5 5 5 5 5 5 5 5 5 5 5 5 5 5 5 5 5 5 5 5 5 5 5 5 5 5 5 5 5 5 5 5 5 5 5 5 5 5 5 5 5 5 5 5 5 5 5 5 5 5 5 5 5 5 5 5 5 5 5 5 5 5 5 5 5 5 5 5 5 5 5 5 5 5 5 5 5 5 5 5 5 5 5 5 5 5 5 5 5 5 5 5 5 5 5 5 5 5 5 5 5 5 5 5 5 5 5 5 5 5 5 5 5 5 5 5 5 5 5 5 5 5 5 5 5 5 5 5 5 5 5 5 5 5 5 5 5 5 5 5 5 5 5 5 5 5 5 5 5 5 5 5 5 5 5 5 5 5 5 5 5 5 5 5 5 5 5 5 5 5 5 5 5 5 5 5 5 5 5 5 5 5 5 5 5 5 5 5 5 5 5 5 5 5 5 5 5 5 5 5 5 5 5 5 5 5 5 5 5 5 5 5 5 5 5 5 5 5 5 5 5 5 5 5 5 5 5 5 5 5 5 5 5 5 5 5 5 5 5 5 5 5 5 5 5 5 5 5 5 5 5 5 5 5 5 5 5 5 5 5 5 5 5 5 5 5 5 5 5 5 5 5 5 5 5 5 5 5 5 5 5 5 5 5 5 5 5 5 5 5 5 5 5 5 5 5 5 5 5 5 5 5 5 5 5 5 5 5 5 5 5 5 5 5 5 5 5 5 5 5 5 5 5 5 5 5 5 5 5 5 5 5 5 5 5 5 5 5 5 5 5 5 5 5 5 5 5 5 5 5 5 5 5 5 5 5 5 5 5 5 5 5 5 5 5 5 5 5 5 5 5 5 5 5 5 5 5 5 5 5 5 5 5 5 5 5 5 5 5 5 5 5 5 5 5 5 5 5 5 5 5 5 5 5 5 5 5 5 5 5 5 5 5 5 5 5 5 5 5 5 5 5 5 5 5 5 5 5 5 5 5 5 5 5 5 5 5 5 5 5 5 5 5 5 5 5 5 5 5 5 5 5 5 5 5 5 5 5 5 5 5 5 5 5 5 5 5 5 5 5 5 5 5 5 5 5 5 5 5 5 5 5 5 5 5 5 5 5 5 5 5 5 5 5 5 5 5 5 5 5 5 5 5 5 5 5 5 5 5 5 5 5 5 5 5 5 5 5 5 5 5 5 5 5 5 5 5 5 5 5 5 5 5 5 5 5 5 5 5 5 5 5 5 5 5 5 5 5 5 5 5 5 5 5 5 5 5 5 5 5 5 5 5 5 5 5 5 5 5 5 5 5 5 5 5 5 5 5 5 5 5 5 5 5 5 5 5 5 5 5 5 5 5 5 5 5 5 5 5 5 5 5 5 5 5 5 5 5 5 5 5 5 5 5 5 5 5 5 5 5 5 5 5 5 5 5 5 5 5 5 5 5 5 5 5 5 5 5 5 5 5 5 5 5 5 5 5 5 5 5 5 5 5 5 5 5 5 5 5 5 5 5 5 5 5 5 5 5 5 5 5 5 5 5 5 5 5 5 5 5 5 5 5 5 5 5 5 5 5 5 5 5 5 5 5 5 5 5 5 5 5 5 5 5 5 5 5 5 5 5 5 5 5 5 5 5 5 5 5 5 5 5 5 5 5 5 5 5 5 5 5 5 5 5 5 5 5 5 5 5 5 5 5 5 5 5 5 5 5 5 5 5 5 5 5 5 5 5 5 5 5 5 5 5 5 5 5 5 5 5 5 5 5 5 5 5 5 5 5 5 5 5 5 5 5 5 5 5 5 5 5 5 5 5 5 5 5 5 5 5 5 5 5 5 5 5 5 5 5 5 5 5 5 5 5 5 5 5 5 5 5 5 5 5 5 5 5 5 5 5 5 5 5 5 5 5 5 5 5 5 5 5 5 5 5 5 5 5 5 5 5 5 5 5 5 5 5 5 5 5 5 5 5 5 5 5 5 5 5 5 5 5 5 5 5 5 5 5 5 5 5 5 5 5 5 5 5 5 5 5 5 5 5 5 5 5 5 5 5 5 5 5 5 5 5 5 5 5 5 5 5 5 5 5 5 5 5 5 5 5 5 5 5 5 5 5 5 5 5 5 5 5 5 5 5 5 5 5 5 5 5 5 5 5 5 5 5 5 5 5 5 5 5 5 5 5 5 5 5 5 5 5 5 5 5 5 5 5 5 5 5 5 5 5 5 5 5 5 5 5 5 5 5 5 5 5 5 5 5 5 5 5 5 5 5 5 5 5 5 5 5 5 5 5 5 5 5 5 5 5 5 5 5 5 5 5 5 5 5 5 5 5 5 5 5 5 5 5 5 5 5 5 5 5 5 5 5 5 5 5 5 5 5 5 5 5 5 5 5 5 5 5 5 5 5 5 5 5 5 5 5 5 5 5 5 5 5 5 5 5 5 5 5 5 5 5 5 5 5 5 5 5 5 5 5 5 5 5 5 5 5 5 5 5 5 5 5 5 5 5 5 5 5 5 5 5 5 5 5 5 5 5 5 5 5 5 5 5 5 5 5 5 5 5 5 5 5 5 5 5 5 5 5 5 5 5 5 5 5 5 5 5 5 5 5 5 5 5 5 5 5 5 5 5 5 5 5 5 5 5 5 5 5 5 5 5 5 5 5 5 5 5 5 5 5 5 5 5 5 5 5 5 5 5 5 5 5 5 5 5 5 5 5 5 5 5 5 5 5 5 5 5 5 5 5 5 5 5 5 5 5 5 5 5 5 5 5 5 5 5 5 5 5 5 5 5 5 5 5 5 5 5 5 5 5 5 5 5 5 5 5 5 5 5 5 5 5 5 5 5 5 5 5 5 5 5 5 5 5 5 5 5 5 5 5 5 5 5 5 5 5 5 5 5 5 5 5 5 5 5 5 5 5 5 5 5 5 5 5 5 5 5 5 5 5 5 5 5 5 5 5 5 5 5 5 5 5 5 5 5 5 5 5 5 5 5 5 5 5 5 5 5 5 5 5 5 5 5 5 5 5 5 5 5 5 5 5 5 5 5 5 5 5 5 5 5 5 5 5 5 5 5 5 5 5 5 5 5 5 5 5 5 5 5 5 5 5 5 5 5 5 5 5 5 5 5 5 5 5 5 5 5 5 5 5 5 5 5 5 5 5 5 5 5 5 5 5 5 5 5 5 5 5 5 5 5 5 5 5 5 5 5 5 5 5 5 5 5 5 5 5 5 5 5 5 5 5 5 5 5 5 5 5 5 5 5 5 5 5 5 5 5 5 5 5 5 5 5 5 5 5 5 5 5 5 5 5 5 5 5 5 5 5 5 5 5 5 5 5 5 5 5 5 5 5 5 5 5 5 5 5 5 5 5 5 5 5 5 5 5 5 5 5 5 5 5 5 5 5 5 5 5 5 5 5 5 5 5 5 5 5 5 5 5 5 5 5 5 5 5 5 5 5 5 5 5 5 5 5 5 5 5 5 5 5 5 5 5 5 5 5 5 5 5 5 5 5 5 5 5 5 5 5 5 5 5 5 5 5 5 5 5 5 5 5 5 5 5 5 5 5 5 5 5 5 5 5 5 5 5 5 5 5 5 5 5 5 5 5 5 5 5 5 5 5 5 5 5 5 5 5 5 5 5 5 5 5 5 5 5 5 5 5 5 5 5 5 5 5 5 5 5 5 5 5 5 5 5 5 5 5 5 5 5 5 5 5 5 5 5 5 5 5 5 5 5 5 5 5 5 5 5 5 5 5 5 5 5 5 5 5 5 5 5 5 5 5 5 5 5 5 5 5 5 5 5 5 5 5 5 5 5 5 5 5 5 5 5 5 5 5 5 5 5 5 5 5 5 5 5 5 5 5 5 5 5 5 5 5 5 5 5 5 5 5 5 5 5 5 5 5 5 5 5 5 5 5 5 5 5 5 5 5 5 5 5 5 5 5 5 5 5 5 5 5 5 5 5 5 5 5 5 5 5 5 5 5 5 5 5 5 5 5 5 5 5 5 5 5 5 5 5 5 5 5 5 5 5 5 5 5 5 5 5 5 5 5 5 5 5 5 5 5 5 5 5 5 5 5 5 5 5 5 5 5 5 5 5 5 5 5 5 5 5 5 5 5 5 5 5 5 5 5 5 5 5 5 5 5 5 5 5 5 5 5 5 5 5 5 5 5 5 5 5 5 5 5 5 5 5 5 5 5 5 5 5 5 5 5 5 5 5 5 5 5 5 5 5 5 5 5 5 5 5 5 5 5 5 5 5 5 5 5 5 5 5 5 5 5 5 5 5 5 5 5 5 5 5 5 5 5 5 5 5 5 5 5 5 5 5 5 5 5 5 5 5 5 5 5 5 5 5 5 5 5 5 5 5 5 5 5 5 5 5 5 5 5 5 5 5 5 5 5 5 5 5 5 5 5 5 5 5 5 5 5 5 5 5 5 5 5 5 5 5 5 5 5 5 5 5 5 5 5 5 5 5 5 5 5 5 5 5 5 5 5 5 5 5 5 5 5 5 5 5 5 5 5 5 5 5 5 5 5 5 5 5 5 5 5 5 5 5 5 5 5 5 5 5 5 5 5 5 5 5 5 5 5 5 5 5 5 5 5 5 5 5 5 5 5 5 5 5 5 5 5 5 5 5 5 5 5 5 5 5 5 5 5 5 5 5 5 5 5 5 5 5 5 5 5 5 5 5 5 5 5 5 5 5 5 5 5 5 5 5 5 5 5 5 5 5 5 5 5 5 5 5 5 5 5 5 5 5 5 5 5 5 5 5 5 5 5 5 5 5 5 5 5 5 5 5 5 5 5 5 5 5 5 5 5 5 5 5 5 5 5 5 5 5 5 5 5 5 5 5 5 5 5 5 5 5 5 5 5 5 5 5 5 5 5 5 5 5 5 5 5 5 5 5 5 5 5 5 5 5 5 5 5 5 5 5 5 5 5 5 5 5 5 5 5 5 5 5 5 5 5 5 5 5 5 5 5 5 5 5 5 5 5 5 5 5 5 5 5 5 5 5 5 5 5 5 5 5 5 5 5 5 5 5 5 5 5 5 5 5 5 5 5 5 5 5 5 5 5 5 5 5 5 5 5 5 5 5 5 5 5 5 5 5 5 5 5 5 5 5 5 5 5 5 5 5 5 5 5 5 5 5 5 5 5 5 5 5 5 5 5 5 5 5 5 5 5 5 5 5 5 5 5 5 5 5 5 5 5 5 5 5 5 5 5 5 5 5 5 5 5 5 5 5 5 5 5 5 5 5 5 5 5 5 5 5 5 5 5 5 5 5 5 5 5 5 5 5 5 5 5 5 5 5 5 5 5 5 5 5 5 5 5 5 5 5 5 5 5 5 5 5 5 5 5 5 5 5 5 5 5 5 5 5 5 5 5 5 5 5 5 5 5 5 5 5 5 5 5 5 5 5 5 5 5 5 5 5 5 5 5 5 5 5 5 5 5 5 5 5 5 5 5 5 5 5 5 5 5 5 5 5 5 5 5 5 5 5 5 5 5 5 5 5 5 5 5 5 5 5 5 5 5 5 5 5 5 5 5 5 5 5 5 5 5 5 5 5 5 5 5 5 5 5 5 5 5 5 5 5 5 5 5 5 5 5 5 5 5 5 5 5 5 5 5 5 5 5 5 5 5 5 5 5 5 5 5 5 5 5 5 5 5 5 5 5 5 5 5 5 5 5 5 5 5 5 5 5 5 5 5 5 5 5 5 5 5 5 5 5 5 5 5 5 5 5 5 5 5 5 5 5 5 5 5 5 5 5 5 5 5 5 5 5 5 5 5 5 5 5 5 5 5 5 5 5 5 5 5 5 5 5 5 5 5 5 5 5 5 5 5 5 5 5 5 5 5 5 5 5 5 5 5 5 5 5 5 5 5 5 5 5 5 5 5 5 5 5 5 5 5 5 5 5 5 5 5 5 5 5 5 5 5 5 5 5 5 5 5 5 5 5 5 5 5 5 5 5 5 5 5 5 5 5 5 5 5 5 5 5 5 5 5 5 5 5 5 5 5 5 5 5 5 5 5 5 5 5 5 5 5 5 5 5 5 5 5 5 5 5 5 5 5 5 5 5 5 5 5 5 5 5 5 5 5 5 5 5 5 5 5 5 5 5 5 5 5 5 5 5 5 5 5 5 5 5 5 5 5 5 5 5 5 5 5 5 5 5 5 5 5 5 5 5 5 5 5 5 5 5 5 5 5 5 5 5 5 5 5 5 5 5 5 5 5 5 5 5 5 5 5 5 5 5 5 5 5 5 5 5 5 5 5 5 5 5 5 5 5 5 5 5 5 5 5 5 5 5 5 5 5 5 5 5 5 5 5 5 5 5 5 5 5 5 5 5 5 5 5 5 5 5 5 5 5 5 5 5 5 5 5 5 5 5 5 5 5 5 5 5 5 5 5 5 5 5 5 5 5 5 5 5 5 5 5 5 5 5 5 5 5 5 5 5 5 5 5 5 5 5 5 5 5 5 5 5 5 5 5 5 5 5 5 5 5 5 5 5 5 5 5 5 5 5 5 5 5 5 5 5 5 5 5 5 5 5 5 5 5 5 5 5 5 5 5 5 5 5 5 5 5 5 5 5 5 5 5 5 5 5 5 5 5 5 5 5 5 5 5 5 5 5 5 5 5 5 5 5 5 5 5 5 5 5 5 5 5 5 5 5 5 5 5 5 5 5 5 5 5 5 5 5 5 5 5 5 5 5 5 5 5 5 5 5 5 5 5 5 5 5 5 5 5 5 5 5 5 5 5 5 5 5 5 5 5 5 5 5 5 5 5 5 5 5 5 5 5 5 5 5 5 5 5 5 5 5 5 5 5 5 5 5 5 5 5 5 5 5 5 5 5 5 5 5 5 5 5 5 5 5 5 5 5 5 5 5 5 5 5 5 5 5 5 5 5 5 5 5 5 5 5 5 5 5 5 5 5 5 5 5 5 5 5 5 5 5 5 5 5 5 5 5 5 5 5 5 5 5 5 5 5 5 5 5 5 5 5 5 5 5 5 5 5 5 5 5 5 5 5 5 5 5 5 5 5 5 5 5 5 5 5 5 5 5 5 5 5 5 5 5 5 5 5 5 5 5 5 5 5 5 5 5 5 5 5 5 5 5 5 5 5 5 5 5 5 5 5 5 5 5 5 5 5 5 5 5 5 5 5 5 5 5 5 5 5 5 5 5 5 5 5 5 5 5 5 5 5 5 5 5 5 5 5 5 5 5 5 5 5 5 5 5 5 5 5 5 5 5 5 5 5 5 5 5 5 5 5 5 5 5 5 5 5 5 5 5 5 5 5 5 5 5 5 5 5 5 5 5 5 5 5 5 5 5 5 5 5 5 5 5 5 5 5 5 5 5 5 5 5 5 5 5 5 5 5 5 5 5 5 5 5 5 5 5 5 5 5 5 5 5 5 5 5 5 5 5 5 5 5 5 5 5 5 5 5 5 5 5 5 5 5 5 5 5 5 5 5 5 5 5 5 5 5 5 5 5 5 5 5 5 5 5 5 5 5 5 5 5 5 5 5 5 5 5 5 5 5 5 5 5 5 5 5 5 5 5 5 5 5 5 5 5 5 5 5 5 5 5 5 5 5 5 5 5 5 5 5 5 5 5 5 5 5 5 5 5 5 5 5 5 5 5 5 5 5 5 5 5 5 5 5 5 5 5 5 5 5 5 5 5 5 5 5 5 5 5 5 5 5 5 5 5 5 5 5 5 5 5 5 5 5 5 5 5 5 5 5 5 5 5 5 5 5 5 5 5 5 5 5 5 5 5 5 5 5 5 5 5 5 5 5 5 5 5 5 5 5 5 5 5 5 5 5 5 5 5 5 5 5 5 5 5 5 5 5 5 5 5 5 5 5 5 5 5 5 5 5 5 5 5 5 5 5 5 5 5 5 5 5 5 5 5 5 5 5 5 5 5 5 5 5 5 5 5 5 5 5 5 5 5 5 5 5 5 5 5 5 5 5 5 5 5 5 5 5 5 5 5 5 5 5 5 5 5 5 5 5 5 5 5 5 5 5 5 5 5 5 5 5 5 5 5 5 5 5 5 5 5 5 5 5 5 5 5 5 5 5 5 5 5 5 5 5 5 5 5 5 5 5 5 5 5 5 5 5 5 5 5 5 5 5 5 5 5 5 5 5 5 5 5 5 5 5 5 5 5 5 5 5 5 5 5 5 5 5 5 5 5 5 5 5 5 5 5 5 5 5 5 5 5 5 5 5 5 5 5 5 5 5 5 5 5 5 5 5 5 5 5 5 5 5 5 5 5 5 5 5 5 5 5 5 5 5 5 5 5 5 5 5 5 5 5 5 5 5 5 5 5 5 5 5 5 5 5 5 5 5 5 5 5 5 5 5 5 5 5 5 5 5 5 5 5 5 5 5 5 5 5 5 5 5 5 5 5 5 5 5 5 5 5 5 5 5 5 5 5 5 5 5 5 5 5 5 5 5 5 5 5 5 5 5 5 5 5 5 5 5 5 5 5 5 5 5 5 5 5 5 5 5 5 5 5 5 5 5 5 5 5 5 5 5 5 5 5 5 5 5 5 5 5 5 5 5 5 5 5 5 5 5 5 5 5 5 5 5 5 5 5 5 5 5 5 5 5 5 5 5 5 5 5 5 5 5 5 5 5 5 5 5 5 5 5 5 5 5 5 5 5 5 5 5 5 5 5 5 5 5 5 5 5 5 5 5 5 5 5 5 5 5 5 5 5 5 5 5 5 5 5 5 5 5 5 5 5 5 5 5 5 5 5 5 5 5 5 5 5 5 5 5 5 5 5 5 5 5 5 5 5 5 5 5 5 5 5 5 5 5 5 5 5 5 5 5 5 5 5 5 5 5 5 5 5 5 5 5 5 5 5 5 5 5 5 5 5 5 5 5 5 5 5 5 5 5 5 5 5 5 5 5 5 5 5 5 5 5 5 5 5 5 5 5 5 5 5 5 5 5 5 5 5 5 5 5 5 5 5 5 5 5 5 5 5 5 5 5 5 5 5 5 5 5 5 5 5 5 5 5 5 5 5 5 5 5 5 5 5 5 5 5 5 5 5 5 5 5 5 5 5 5 5 5 5 5 5 5 5 5 5 5 5 5 5 5 5 5 5 5 5 5 5 5 5 5 5 5 5 5 5 5 5 5 5 5 5 5 5 5 5 5 5 5 5 5 5 5 5 5 5 5 5 5 5 5 5 5 5 5 5 5 5 5 5 5 5 5 5 5 5 5 5 5 5 5 5 5 5 5 5 5 5 5 5 5 5 5 5 5 5 5 5 5 5 5 5 5 5 5 5 5 5 5 5 5 5 5 5 5 5 5 5 5 5 5 5 5 5 5 5 5 5 5 5 5 5 5 5 5 5 5 5 5 5 5 5 5 5 5 5 5 5 5 5 5 5 5 5 5 5 5 5 5 5 5 5 5 5 5 5 5 5 5 5 5 5 5 5 5 5 5 5 5 5 5 5 5 5 5 5 5 5 5 5 5 5 5 5 5 5 5 5 5 5 5 5 5 5 5 5 5 5 5 5 5 5 5 5 5 5 5 5 5 5 5 5 5 5 5 5 5 5 5 5 5 5 5 5 5 5 5 5 5 5 5 5 5 5 5 5 5 5 5 5 5 5 5 5 5 5 5 5 5 5 5 5 5 5 5 5 5 5 5 5 5 5 5 5 5 5 5 5 5 5 5 5 5 5 5 5 5 5 5 5 5 5 5 5 5 5 5 5 5 5 5 5 5 5 5 5 5 5 5 5 5 5 5 5 5 5 5 5 5 5 5 5 5 5 5 5 5 5 5 5 5 5 5 5 5 5 5 5 5 5 5 5 5 5 5 5 5 5 5 5 5 5 5 5 5 5 5 5 5 5 5 5 5 5 5 5 5 5 5 5 5 5 5 5 5 5 5 5 5 5 5 5 5 5 5 5 5 5 5 5 5 5 5 5 5 5 5 5 5 5 5 5 5 5 5 5 5 5 5 5 5 5 5 5 5 5 5 5 5 5 5 5 5 5 5 5 5 5 5 5 5 5 5 5 5 5 5 5 5 5 5 5 5 5 5 5 5 5 5 5 5 5 5 5 5 5 5 5 5 5 5 5 5 5 5 5 5 5 5 5 5 5 5 5 5 5 5 5 5 5 5 5 5 5 5 5 5 5 5 5 5 5 5 5 5 5 5 5 5 5 5 5 5 5 5 5 5 5 5 5 5 5 5 5 5 5 5 5 5 5 5 5 5 5 5 5 5 5 5 5 5 5 5 5 5 5 5 5 5 5 5 5 5 5 5 5 5 5 5 5 5 5 5 5 5 5 5 5 5 5 5 5 5 5 5 5 5 5 5 5 5 5 5 5 5 5 5 5 5 5 5 5 5 5 5 5 5 5 5 5 5 5 5 5 5 5 5 5 5 5 5 5 5 5 5 5 5 5 5 5 5 5 5 5 5 5 5 5 5 5 5 5 5 5 5 5 5 5 5 5 5 5 5 5 5 5 5 5 5 5 5 5 5 5 5 5 5 5 5 5 5 5 5 5 5 5 5 5 5 5 5 5 5 5 5 5 5 5 5 5 5 5 5 5 5 5 5 5 5 5 5 5 5 5 5 5 5 5 5 5 5 5 5 5 5 5 5 5 5 5 5 5 5 5 5 5 5 5 5 5 5 5 5 5 5 5 5 5 5 5 5 5 5 5 5 5 5 5 5 5 5 5 5 5 5 5 5 5 5 5 5 5 5 5 5 5 5 5 5 5 5 5 5 5 5 5 5 5 5 5 5 5 5 5 5 5 5 5 5 5 5 5 5 5 5 5 5 5 5 5 5 5 5 5 5 5 5 5 5 5 5 5 5 5 5 5 5 5 5 5 5 5 5 5 5 5 5 5 5 5 5 5 5 5 5 5 5 5 5 5 5 5 5 5 5 5 5 5 5 5 5 5 5 5 5 5 5 5 5 5 5 5 5 5 5 5 5 5 5 5 5 5 5 5 5 5 5 5 5 5 5 5 5 5 5 5 5 5 5 5 5 5 5 5 5 5 5 5 5 5 5 5 5 5 5 5 5 5 5 5 5 5 5 5 5 5 5 5 5 5 5 5 5 5 5 5 5 5 5 5 5 5 5 5 5 5 5 5 5 5 5 5 5 5 5 5 5 5 5 5 5 5 5 5 5 5 5 5 5 5 5 5 5 5 5 5 5 5 5 5 5 5 5 5 5 5 5 5 5 5 5 5 5 5 5 5 5 5 5 5 5 5 5 5 5 5 5 5 5 5 5 5 5 5 5 5 5 5 5 5 5 5 5 5 5 5 5 5 5 5 5 5 5 5 5 5 5 5 5 5 5 5 5 5 5 5 5 5 5 5 5 5 5 5 5 5 5 5 5 5 5 5 5 5 5 5 5 5 5 5 5 5 5 5 5 5 5 5 5 5 5 5 5 5 5 5 5 5 5 5 5 5 5 5 5 5 5 5 5 5 5 5 5 5 5 5 5 5 5 5 5 5 5 5 5 5 5 5 5 5 5 5 5 5 5 5 5 5 5 5 5 5 5 5 5 5 5 5 5 5 5 5 5 5 5 5 5 5 5 5 5 5 5 5 5 5 5 5 5 5 5 5 5 5 5 5 5 5 5 5 5 5 5 5 5 5 5 5 5 5 5 5 5 5 5 5 5 5 5 5 5 5 5 5 5 5 5 5 5 5 5 5 5 5 5 5 5 5 5 5 5 5 5 5 5 5 5 5 5 5 5 5 5 5 5 5 5 5 5 5 5 5 5 5 5 5 5 5 5 5 5 5 5 5 5 5 5 5 5 5 5 5 5 5 5 5 5 5 5 5 5 5 5 5 5 5 5 5 5 5 5 5 5 5 5 5 5 5 5 5 5 5 5 5 5 5 5 5 5 5 5 5 5 5 5 5 5 5 5 5 5 5 5 5 5 5 5 5 5 5 5 5 5 5 5 5 5 5 5 5 5 5 5 5 5 5 5 5 5 5 5 5 5 5 5 5 5 5 5 5 5 5 5 5 5 5 5 5 5 5 5 5 5 5 5 5 5 5 5 5 5 5 5 5 5 5 5 5 5 5 5 5 5 5 5 5 5 5 5 5 5 5 5 5 5 5 5 5 5 5 5 5 5 5 5 5 5 5 5 5 5 5 5 5 5 5 5 5 5 5 5 5 5 5 5 5 5 5 5 5 5 5 5 5 5 5 5 5 5 5 5 5 5 5 5 5 5 5 5 5 5 5 5 5 5 5 5 5 5 5 5 5 5 5 5 5 5 5 5 5 5 5 5 5 5 5 5 5 5 5 5 5 5 5 5 5 5 5 5 5 5 5 5 5 5 5 5 5 5 5 5 5 5 5 5 5 5 5 5 5 5 5 5 5 5 5 5 5 5 5 5 5 5 5 5 5 5 5 5 5 5 5 5 5 5 5 5 5 5 5 5 5 5 5 5 5 5 5 5 5 5 5 5 5 5 5 5 5 5 5 5 5 5 5 5 5 5 5 5 5 5 5 5 5 5 5 5 5 5 5 5 5 5 5 5 5 5 5 5 5 5 5 5 5 5 5 5 5 5 5 5 5 5 5 5 5 5 5 5 5 5 5 5 5 5 5 5 5 5 5 5 5 5 5 5 5 5 5 5 5 5 5 5 5 5 5 5 5 5 5 5 5 5 5 5 5 5 5 5 5 5 5 5 5 5 5 5 5 5 5 5 5 5 5 5 5 5 5 5 5 5 5 5 5 5 5 5 5 5 5 5 5 5 5 5 5 5 5 5 5 5 5 5 5 5 5 5 5 5 5 5 5 5 5 5 5 5 5 5 5 5 5 5 5 5 5 5 5 5 5 5 5 5 5 5 5 5 5 5 5 5 5 5 5 5 5 5 5 5 5 5 5 5 5 5 5 5 5 5 5 5 5 5 5 5 5 5 5 5 5 5 5 5 5 5 5 5 5 5 5 5 5 5 5 5 5 5 5 5 5 5 5 5 5 5 5 5 5 5 5 5 5 5 5 5 5 5 5 5 5 5 5 5 5 5 5 5 5 5 5 5 5 5 5 5 5 5 5 5 5 5 5 5 5 5 5 5 5 5 5 5 5 5 5 5 5 5 5 5 5 5 5 5 5 5 5 5 5 5 5 5 5 5 5 5 5 5 5 5 5 5 5 5 5 5 5 5 5 5 5 5 5 5 5 5 5 5 5 5 5 5 5 5 5 5 5 5 5 5 5 5 5 5 5 5 5 5 5 5 5 5 5 5 5 5 5 5 5 5 5 5 5 5 5 5 5 5 5 5 5 5 5 5 5 5 5 5 5 5 5 5 5 5 5 5 5 5 5 5 5 5 5 5 5 5 5 5 5 5 5 5 5 5 5 5 5 5 5 5 5 5 5 5 5 5 5 5 5 5 5 5 5 5 5 5 5 5 5 5 5 5 5 5 5 5 5 5 5 5 5 5 5 5 5 5 5 5 5 5 5 5 5 5 5 5 5 5 5 5 5 5 5 5 5 5 5 5 5 5 5 5 5 5 5 5 5 5 5 5 5 5 5 5 5 5 5 5 5 5 5 5 5 5 5 5 5 5 5 5 5 5 5 5 5 5 5 5 5 5 5 5 5 5 5 5 5 5 5 5 5 5 5 5 5 5 5 5 5 5 5 5 5 5 5 5 5 5 5 5 5 5 5 5 5 5 5 5 5 5 5 5 5 5 5 5 5 5 5 5 5 5 5 5 5 5 5 5 5 5 5 5 5 5 5 5 5 5 5 5 5 5 5 5 5 5 5 5 5 5 5 5 5 5 5 5 5 5 5 5 5 5 5 5 5 5 5 5 5 5 5 5 5 5 5 5 5 5 5 5 5 5 5 5 5 5 5 5 5 5 5 5 5 5 5 5 5 5 5 5 5 5 5 5 5 5 5 5 5 5 5 5 5 5 5 5 5 5 5 5 5 5 5 5 5 5 5 5 5 5 5 5 5 5 5 5 5 5 5 5 5 5 5 5 5 5 5 5 5 5 5 5 5 5 5 5 5 5 5 5 5 5 5 5 5 5 5 5 5 5 5 5 5 5 5 5 5 5 5 5 5 5 5 5 5 5 5 5 5 5 5 5 5 5 5 5 5 5 5 5 5 5 5 5 5 5 5 5 5 5 5 5 5 5 5 5 5 5 5 5 5 5 5 5 5 5 5 5 5 5 5 5 5 5 5 5 5 5 5 5 5 5 5 5 5 5 5 5 5 5 5 5 5 5 5 5 5 5 5 5 5 5 5 5 5 5 5 5 5 5 5 5 5 5 5 5 5 5 5 5 5 5 5 5 5 5 5 5 5 5 5 5 5 5 5 5 5 5 5 5 5 5 5 5 5 5 5 5 5 5 5 5 5 5 5 5 5 5 5 5 5 5 5 5 5 5 5 5 5 5 5 5 5 5 5 5 5 5 5 5 5 5 5 5 5 5 5 5 5 5 5 5 5 5 5 5 5 5 5 5 5 5 5 5 5 5 5 5 5 5 5 5 5 5 5 5 5 5 5 5 5 5 5 5 5 5 5 5 5 5 5 5 5 5 5 5 5 5 5 5 5 5 5 5 5 5 5 5 5 5 5 5 5 5 5 5 5 5 5 5 5 5 5 5 5 5 5 5 5 5 5 5 5 5 5 5 5 5 5 5 5 5 5 5 5 5 5 5 5 5 5 5 5 5 5 5 5 5 5 5 5 5 5 5 5 5 5 5 5 5 5 5 5 5 5 5 5 5 5 5 5 5 5 5 5 5 5 5 5 5 5 5 5 5 5 5 5 5 5 5 5 5 5 5 5 5 5 5 5 5 5 5 5 5 5 5 5 5 5 5 5 5 5 5 5 5 5 5 5 5 5 5 5 5 5 5 5 5 5 5 5 5 5 5 5 5 5 5 5 5 5 5 5 5 5 5 5 5 5 5 5 5 5 5 5 5 5 5 5 5 5 5 5 5 5 5 5 5 5 5 5 5 5 5 5 5 5 5 5 5 5 5 5 5 5 5 5 5 5 5 5 5 5 5 5 5 5 5 5 5 5 5 5 5 5 5 5 5 5 5 5 5 5 5 5 5 5 5 5 5 5 5 5 5 5 5 5 5 5 5 5 5 5 5 5 5 5 5 5 5 5 5 5 5 5 5 5 5 5 5 5 5 5 5 5 5 5 5 5 5 5 5 5 5 5 5 5 5 5 5 5 5 5 5 5 5 5 5 5 5 5 5 5 5 5 5 5 5 5 5 5 5 5 5 5 5 5 5 5 5 5 5 5 5 5 5 5 5 5 5 5 5 5 5 5 5 5 5 5 5 5 5 5 5 5 5 5 5 5 5 5 5 5 5 5 5 5 5 5 5 5 5 5 5 5 5 5 5 5 5 5 5 5 5 5 5 5 5 5 5 5 5 5 5 5 5 5 5 5 5 5 5 5 5 5 5 5 5 5 5 5 5 5 5 5 5 5 5 5 5 5 5 5 5 5 5 5 5 5 5 5 5 5 5 5 5 5 5 5 5 5 5 5 5 5 5 5 5 5 5 5 5 5 5 5 5 5 5 5 5 5 5 5 5 5 5 5 5 5 5 5 5 5 5 5 5 5 5 5 5 5 5 5 5 5 5 5 5 5 5 5 5 5 5 5 5 5 5 5 5 5 5 5 5 5 5 5 5 5 5 5 5 5 5 5 5 5 5 5 5 5 5 5 5 5 5 5 5 5 5 5 5 5 5 5 5 5 5 5 5 5 5 5 5 5 5 5 5 5 5 5 5 5 5 5 5 5 5 5 5 5 5 5 5 5 5 5 5 5 5 5 5 5 5 5 5 5 5 5 5 5 5 5 5 5 5 5 5 5 5 5 5 5 5 5 5 5 5 5 5 5 5 5 5 5 5 5 5 5 5 5 5 5 5 5 5 5 5 5 5 5 5 5 5 5 5 5 5 5 5 5 5 5 5 5 5 5 5 5 5 5 5 5 5 5 5 5 5 5 5 5 5 5 5 5 5 5 5 5 5 5 5 5 5 5 5 5 5 5 5 5 5 5 5 5 5 5 5 5 5 5 5 5 5 5 5 5 5 5 5 5 5 5 5 5 5 5 5 5 5 5 5 5 5 5 5 5 5 5 5 5 5 5 5 5 5 5 5 5 5 5 5 5 5 5 5 5 5 5 5 5 5 5 5 5 5 5 5 5 5 5 5 5 5 5 5 5 5 5 5 5 5 5 5 5 5 5 5 5 5 5 5 5 5 5 5 5 5 5 5 5 5 5 5 5 5 5 5 5 5 5 5 5 5 5 5 5 5 5 5 5 5 5 5 5 5 5 5 5 5 5 5 5 5 5 5 5 5 5 5 5 5 5 5 5 5 5 5 5 5 5 5 5 5 5 5 5 5 5 5 5 5 5 5 5 5 5 5 5 5 5 5 5 5 5 5 5 5 5 5 5 5 5 5 5 5 5 5 5 5 5 5 5 5 5 5 5 5 5 5 5 5 5 5 5 5 5 5 5 5 5 5 5 5 5 5 5 5 5 5 5 5 5 5 5 5 5 5 5 5 5 5 5 5 5 5 5 5 5 5 5 5 5 5 5 5 5 5 5 5 5 5 5 5 5 5 5 5 5 5 5 5 5 5 5 5 5 5 5 5 5 5 5 5 5 5 5 5 5 5 5 5 5 5 5 5 5 5 5 5 5 5 5 5 5 5 5 5 5 5 5 5 5 5 5 5 5 5 5 5 5 5 5 5 5 5 5 5 5 5 5 5 5 5 5 5 5 5 5 5 5 5 5 5 5 5 5 5 5 5 5 5 5 5 5 5 5 5 5 5 5 5 5 5 5 5 5 5 5 5 5 5 5 5 5 5 5 5 5 5 5 5 5 5 5 5 5 5 5 5 5 5 5 5 5 5 5 5 5 5 5 5 5 5 5 5 5 5 5 5 5 5 5 5 5 5 5 5 5 5 5 5 5 5 5 5 5 5 5 5 5 5 5 5 5 5 5 5 5 5 5 5 5 5 5 5 5 5 5 5 5 5 5 5 5 5 5 5 5 5 5 5 5 5 5 5 5 5 5 5 5 5 5 5 5 5 5 5 5 5 5 5 5 5 5 5 5 5 5 5 5 5 5 5 5 5 5 5 5 5 5 5 5 5 5 5 5 5 5 5 5 5 5 5 5 5 5 5 5 5 5 5 5 5 5 5 5 5 5 5 5 5 5 5 5 5 5 5 5 5 5 5 5 5 5 5 5 5 5 5 5 5 5 5 5 5 5 5 5 5 5 5 5 5 5 5 5 5 5 5 5 5 5 5 5 5 5 5 5 5 5 5 5 5 5 5 5 5 5 5 5 5 5 5 5 5 5 5 5 5 5 5 5 5 5 5 5 5 5 5 5 5 5 5 5 5 5 5 5 5 5 5 5 5 5 5 5 5 5 5 5 5 5 5 5 5 5 5 5 5 5 5 5 5 5 5 5 5 5 5 5 5 5 5 5 5 5 5 5 5 5 5 5 5 5 5 5 5 5 5 5 5 5 5 5 5 5 5 5 5 5 5 5 5 5 5 5 5 5 5 5 5 5 5 5 5 5 5 5 5 5 5 5 5 5 5 5 5 5 5 5 5 5 5 5 5 5 5 5 5 5 5 5 5 5 5 5 5 5 5 5 5 5 5 5 5 5 5 5 5 5 5 5 5 5 5 5 5 5 5 5 5 5 5 5 5 5 5 5 5 5 5 5 5 5 5 5 5 5 5 5 5 5 5 5 5 5 5 5 5 5 5 5 5 5 5 5 5 5 5 5 5 5 5 5 5 5 5 5 5 5 5 5 5 5 5 5 5 5 5 5 5 5 5 5 5 5 5 5 5 5 5 5 5 5 5 5 5 5 5 5 5 5 5 5 5 5 5 5 5 5 5 5 5 5 5 5 5 5 5 5 5 5 5 5 5 5 5 5 5 5 5 5 5 5 5 5 5 5 5 5 5 5 5 5 5 5 5 5 5 5 5 5 5 5 5 5 5 5 5 5 5 5 5 5 5 5 5 5 5 5 5 5 5 5 5 5 5 5 5 5 5 5 5 5 5 5 5 5 5 5 5 5 5 5 5 5 5 5 5 5 5 5 5 5 5 5 5 5 5 5 5 5 5 5 5 5 5 5 5 5 5 5 5 5 5 5 5 5 5 5 5 5 5 5 5 5 5 5 5 5 5 5 5 5 5 5 5 5 5 5 5 5 5 5 5 5 </DataArray>
</Cells>
<PointData  Scalars=" mean stress"> 
<DataArray  type="Float64"  Name=" mean stress"  format="ascii">1.3638575201904335e-01  2.6158215701323672e+02  1.4778255864141802e+04  6.7353908120077938e+02  2.5905938261005906e-01  1.2668759175604241e-01  1.2679628075200258e-01  1.2447532526128419e-01  1.2630190176007813e-01  1.2897890587552502e-01  1.3551458723312521e-01  1.4069345258259847e-01  1.5107095123390998e-01  1.5734947077604547e-01  1.7684888366006349e-01  1.8731322989665444e-01  2.0376886587731366e-01  2.2360554387512779e-01  2.4273474630250028e-01  2.7605458319509002e-01  3.0440571150279688e-01  3.2611303189776714e-01  3.5612226366449706e-01  4.0299570053812489e-01  4.4187526959126777e-01  4.7859456696117209e-01  5.4298816905346303e-01  5.8202162995981344e-01  6.2729702840493939e-01  7.0350326420670650e-01  7.6275241069982691e-01  8.3848969177478772e-01  9.0751726424224233e-01  9.8954171388058931e-01  1.0786944087285868e+00  1.1701058023266029e+00  1.2736198332721509e+00  1.3880879639325601e+00  1.4941343944198262e+00  1.6079414476777714e+00  1.7861456330704493e+00  1.8775682356702312e+00  2.0291300529749741e+00  2.1438032072607291e+00  2.3670972807568278e+00  2.5504720378335017e+00  2.7309262421760416e+00  2.9394454934826029e+00  3.1484660867783441e+00  3.3694518531966078e+00  3.5578561175200276e+00  3.8584113573883174e+00  4.1501070691186541e+00  4.4394437227900578e+00  4.7135541521501150e+00  5.0122568608157296e+00  5.3999256586463087e+00  5.7920007445660255e+00  6.1482514012715921e+00  6.5800634195537553e+00  6.9601642864269362e+00  7.4071739200517621e+00  7.8830588813760878e+00  8.3999003776425756e+00  9.0021438159170195e+00  9.4941553005666517e+00  1.0093170851676545e+01  1.0723403033053790e+01  1.1302034814716325e+01  1.2077730256406619e+01  1.2741278741613865e+01  1.3467171044656622e+01  1.4342234072074410e+01  1.5269875093648839e+01  1.6218772681199713e+01  1.7194057807816769e+01  1.8236070754448185e+01  1.9298459698337162e+01  2.0439534751962295e+01  2.1730894244961597e+01  2.3103623996938705e+01  2.4229464286610938e+01  2.7218170271569619e+01  2.8192216871254598e+01  2.8982876234267135e+01  3.1002743405774162e+01  3.3224779561063407e+01  3.4708211538253309e+01  3.7504173823623923e+01  4.1159275461977479e+01  4.3248007955542853e+01  4.5309763846691958e+01  4.8235336775699217e+01  5.1590357480108430e+01  5.5257617091826930e+01  5.9118564560216981e+01  6.3625293087426890e+01  6.5895283357551349e+01  7.1917356488103366e+01  7.8628086819366501e+01  8.2629447453748909e+01  8.8203107185926356e+01  9.4058841329516468e+01  1.0141118969086030e+02  1.0921858669594064e+02  1.2141924156963394e+02  1.1810908228307898e+02  1.3126571688922817e+02  1.4296842657007730e+02  1.4715287744491630e+02  1.5539871824774676e+02  1.5426401504579025e+02  1.7558954578876944e+02  1.7769314342406557e+02  1.8775786430333807e+02  1.8245019753093177e+02  1.8788978202923028e+02  2.0121967185001890e+02  2.0721555606426591e+02  2.1224266855137435e+02  2.0635519538721132e+02  2.0698048289191124e+02  2.1679990510068066e+02  2.1877692903566285e+02  2.1958253793142063e+02  2.2118365368980531e+02  2.2140403875986951e+02  2.2105507345236185e+02  2.2389752935021568e+02  2.2543536416238456e+02  2.2677520381265359e+02  2.2817429304009877e+02  2.2988891538809096e+02  2.3238266508848102e+02  2.3503726967661555e+02  2.2954790464769775e+02  2.2501338412207986e+02  2.3393948055240517e+02  2.3829489611879657e+02  2.3508224918555351e+02  2.3698618706609278e+02  2.2142145471109160e+02  2.0967001507064211e+02  2.3238309752831725e+02  2.2631834348076640e+02  2.3635545014595829e+02  2.4130132108275288e+02  2.4803574611941090e+02  2.5386583028627390e+02  2.6271860928754268e+02  2.7089611351967801e+02  2.8187124608772132e+02  2.9337173586658253e+02  3.0724543259398985e+02  3.2372106699310012e+02  3.4235074299971041e+02  3.6658372742318022e+02  3.9496292565254373e+02  4.2588885837900199e+02  4.6853845052466727e+02  5.2403338445945974e+02  5.9027395298710553e+02  6.9055983732189713e+02  8.2272994336688271e+02  1.0075005018826429e+03  1.4114920742913482e+03  1.7394263821970405e+03  3.5365517205554920e+03  2.7004045545185768e+03  1.7568860746518642e+03  1.1932212066193008e+03  8.9553344370943216e+02  6.9753546689907159e+02  5.7555173972975899e+02  4.9174765884588834e+02  4.2793504685141670e+02  3.7668198957874984e+02  3.3555323541380272e+02  3.0207513295671725e+02  2.7373253724453724e+02  2.4970133189794836e+02  2.2958427451694817e+02  2.1264657686082833e+02  1.9791471656356470e+02  1.8419155459260654e+02  1.7266853089710938e+02  1.6236531144444163e+02  1.5390115522721871e+02  1.4633981245634928e+02  1.3946865676025701e+02  1.3353011292858477e+02  1.2856977445817878e+02  1.2398643472205404e+02  1.2029983897852313e+02  1.1733943042499564e+02  1.1487679932779355e+02  1.1372762965778445e+02  1.1223011814840758e+02  1.1166095766671516e+02  1.1172187603341008e+02  1.1296402661281667e+02  1.1477080618244221e+02  1.1683333311490463e+02  1.1985357083841956e+02  1.2460206859214799e+02  1.3014947140535017e+02  1.3800211994985912e+02  1.4723082176794028e+02  1.5936066744913208e+02  1.7685100993319645e+02  2.0001304263846603e+02  2.3107992571751060e+02  2.7929565716035643e+02  3.5500741521233124e+02  4.8838996484811497e+02  7.7500038059697260e+02  1.1715395724845343e+03  8.9713712959448230e+02  5.2273761985561043e+02  3.5981036129700226e+02  2.6936568475723732e+02  2.1439302040483727e+02  1.7784507054692691e+02  1.5260412666801798e+02  1.3398208813598691e+02  1.1956304037166751e+02  1.0827899484979758e+02  9.8747508748266895e+01  9.1355793682270871e+01  8.5549540206444249e+01  8.0450348355287403e+01  7.6213510487777086e+01  7.2640208896648986e+01  6.9589037129270352e+01  6.7049535106504408e+01  6.4701552672619812e+01  6.2769475452240883e+01  6.1200074870183514e+01  5.9905619442742626e+01  5.8814264260530081e+01  5.7988283964858319e+01  5.7290626807700470e+01  5.6762443362787366e+01  5.6413501803037917e+01  5.6210428184347570e+01  5.6095798244567789e+01  5.6150129664474470e+01  5.6242501917660384e+01  5.6485218102029265e+01  5.6787135741927528e+01  5.7268823776799387e+01  5.7867542595345874e+01  5.8536731989841982e+01  5.9301227324788634e+01  6.0152884297939210e+01  6.1196619111578933e+01  6.2265050278062517e+01  6.3543952951781648e+01  6.5083808786336107e+01  6.6583331117426923e+01  6.8230626878044461e+01  6.9897968882164136e+01  7.1473341151092527e+01  7.3422167357144701e+01  7.5207472104514594e+01  7.7677907477759646e+01  7.9938861821408281e+01  8.2425765696514219e+01  8.5277096874470132e+01  8.8226559299957927e+01  9.1323766172776104e+01  9.4731336444688154e+01  9.8258318691588727e+01  1.0221337585298055e+02  1.0646221423697162e+02  1.1074706238756029e+02  1.1555143194475970e+02  1.2078832435141874e+02  1.2606928326742050e+02  1.3206724180309075e+02  1.3873730625860415e+02  1.4590179610411678e+02  1.5357616550502254e+02  1.6203143411561811e+02  1.7109114552681800e+02  1.8087912376596839e+02  1.9188880824205154e+02  2.0379533304515499e+02  2.1745369513505872e+02  2.3239267486139195e+02  2.4895805351575373e+02  2.6875545652840083e+02  2.8815842205158600e+02  3.1139289763133689e+02  3.3449790775847470e+02  3.6359698522121613e+02  3.9630143626946187e+02  4.3383012910817280e+02  4.7178045067574413e+02  5.1941357281005742e+02  5.6712698126055670e+02  6.3261402667785308e+02  6.4231429115470485e+02  6.8194188842098060e+02  7.9029907055446949e+02  4.9723633764430201e+02  3.7165803254727598e+02  2.9738322102376929e+02  2.5030400264443631e+02  2.1282074247853592e+02  1.8637430368783882e+02  1.6674875623334370e+02  1.5151913009131002e+02  1.3931061905052471e+02  1.2870271182378769e+02  1.1962533676931875e+02  1.1231961529786660e+02  1.0620312998927500e+02  1.0021303328816478e+02  9.5028188632540932e+01  9.1082665903431021e+01  8.6880383939631855e+01  8.3458653850470668e+01  8.0402429308075341e+01  7.7304837554982612e+01  7.4675112786297902e+01  7.2278520756740704e+01  7.0191940372615150e+01  6.8026000362374191e+01  6.6099175350784236e+01  6.4445989293333724e+01  6.2846135461011443e+01  6.1280852481200498e+01  5.9878077129152253e+01  5.8515852151163010e+01  5.7222077974765696e+01  5.6046843472537255e+01  5.4860423458501458e+01  5.3828499081902059e+01  5.2818445498006263e+01  5.1818048978304418e+01  5.0910942899846887e+01  5.0027510780091347e+01  4.9264361391681412e+01  4.8465172274025079e+01  4.7643127384053138e+01  4.6888860367517744e+01  4.6207546469446839e+01  4.5481359069738282e+01  4.4849156465394536e+01  4.4218677537360406e+01  4.3630162907225596e+01  4.3023055039044777e+01  4.2437231608038829e+01  4.1900979328510417e+01  4.1343477563465839e+01  4.0798953118363379e+01  4.0300531406184639e+01  3.9788868917703155e+01  3.9353502738329844e+01  3.8856294162642229e+01  3.8354553434118678e+01  3.7951193141216869e+01  3.7474709553611305e+01  3.7026000361518662e+01  3.6618761521612534e+01  3.6180288837270716e+01  3.5797170040202559e+01  3.5421354645213526e+01  3.4973816351882419e+01  3.4551632715943960e+01  3.4208276116693746e+01  3.3816738805558337e+01  3.3460466598976055e+01  3.3098068684453615e+01  3.2677958215848051e+01  3.2346590296599928e+01  3.2005533452054173e+01  3.1657520626615501e+01  3.1324950003375477e+01  3.0946641802195792e+01  3.0559867201335798e+01  3.0275106793739710e+01  2.9936829195895939e+01  2.9540285589776992e+01  2.9273344692764969e+01  2.8957071800692191e+01  2.8596842897886845e+01  2.8302637776158065e+01  2.7934377150862584e+01  2.7622291006694724e+01  2.7336738336273172e+01  2.6973443763997306e+01  2.6686996205889066e+01  2.6416941517310363e+01  2.6097983334075973e+01  2.5762690641421919e+01  2.5399943464545828e+01  2.5118000767408311e+01  2.4884552041161104e+01  2.4532005513405114e+01  2.4239378839967980e+01  2.3922885554259210e+01  2.3646519119049376e+01  2.3342818112555928e+01  2.3040077571389386e+01  2.2735316335584510e+01  2.2426335498549001e+01  2.2161081632670534e+01  2.1869322787105801e+01  2.1572748254734172e+01  2.1244239291101618e+01  2.1026212179392083e+01  2.0684134735992448e+01  2.0447993024484269e+01  2.0169746255381021e+01  1.9834778285022853e+01  1.9548214846107257e+01  1.9269547713253193e+01  1.9014872094940753e+01  1.8768800584152309e+01  1.8404229829327790e+01  1.8177177405257051e+01  1.7909068680706607e+01  1.7622909332661241e+01  1.7321838707635884e+01  1.7106224056360364e+01  1.6807807160003509e+01  1.6597487115325759e+01  1.6298637728162220e+01  1.5990489662703801e+01  1.5748974357477932e+01  1.5489682464076234e+01  1.5218541816217769e+01  1.4986692260977199e+01  1.4730303644004227e+01  1.4472243478423971e+01  1.4203586686806222e+01  1.3936121098818077e+01  1.3693391235290381e+01  1.3448213503538753e+01  1.3225495051001575e+01  1.2989883748753217e+01  1.2745554438552785e+01  1.2437810506647496e+01  1.2257134670994875e+01  1.2016504553226223e+01  1.1786275335121108e+01  1.1552191153838249e+01  1.1280731282710448e+01  1.1073069756414620e+01  1.0838205425690889e+01  1.0625985567937208e+01  1.0405328768127527e+01  1.0183783955296970e+01  9.9186500476310382e+00  9.7537457558336005e+00  9.5147284501637444e+00  9.3177594522386329e+00  9.1020924532469412e+00  8.8916666005125222e+00  8.6778919652149842e+00  8.4802915236612151e+00  8.2887756968310065e+00  8.0804102726483915e+00  7.8879881622509567e+00  7.6773231629873724e+00  7.4927970865903566e+00  7.2860649681857454e+00  7.1273855807353499e+00  6.9503137080594382e+00  6.7324260968369423e+00  6.5880011622795278e+00  6.3893062150952291e+00  6.1968741292300509e+00  6.0427631751810909e+00  5.8593333550769007e+00  5.7110639072029583e+00  5.5137634433478819e+00  5.4060703275827660e+00  5.2171904957315034e+00  5.0430361168368929e+00  4.8960199614628390e+00  4.7331915148866424e+00  4.5774695738193802e+00  4.4331577638610478e+00  4.3162351348277088e+00  4.1463301334697142e+00  4.0107056059407862e+00  3.8856843626357445e+00  3.7423643535257041e+00  3.5974727323991700e+00  3.4800084470337063e+00  3.3336708813905775e+00  3.2124662344898307e+00  3.0915058313992030e+00  2.9869818301656275e+00  2.8681643617184758e+00  2.7479524199039367e+00  2.6272066373683463e+00  2.5193366057070468e+00  2.4175985939650704e+00  2.2995960662787449e+00  2.2069551962049370e+00  2.1088675343871182e+00  2.0100840520048457e+00  1.9193582595587180e+00  1.8279263010367848e+00  1.7183926625655999e+00  1.6313518590831551e+00  1.5537410143268187e+00  1.4824611560106691e+00  1.3802112341171324e+00  1.3257972381650154e+00  1.2532950785426809e+00  1.1618828348716959e+00  1.0865082359568319e+00  1.0388137028092661e+00  9.7429966227843490e-01  9.1000755420501622e-01  8.5454013968674003e-01  7.9787534325733001e-01  7.2799428702099189e-01  6.8985438243475361e-01  6.3563954553417112e-01  5.7707392725865947e-01  5.3943937305959566e-01  5.1077922149742816e-01  4.6350418099858248e-01  4.2608271373415629e-01  3.9732198176185862e-01  3.6191703644976975e-01  3.4147650228349236e-01  3.0832453300362445e-01  2.8340942373649641e-01  2.5102744917134334e-01  2.3147412960715491e-01  1.3005388821733488e-01  4.4536039043595771e-01  9.0797283987271576e-02  1.2969977450005088e-01  1.3106444624144223e-01  1.8885771549661182e+01  2.2623682204189411e+01  1.5357341343291285e+01  2.6237064415050973e+01  1.2375488192642965e+01  9.6215679444997626e+00  2.9727875152388183e+01  7.4012881587803330e+00  5.6247048344187167e+00  3.3236746759785035e+01  3.7238669922549398e+01  4.1631275636429692e+01  4.2389938262034024e+00  1.6640200138856596e+01  7.3988128770520518e+01  1.0457356253768467e+01  5.9615197565900921e+01  2.9446483281722555e+00  6.6441861485942599e+00  2.0691682992170448e+00  4.6557217859632054e+01  5.8516364446178009e+01  4.2180865012915083e+00  6.3561484080823682e+01  5.3315836267671706e+01  1.1769883282999101e+02  2.6532370202312698e+00  7.3879634100632614e+01  1.4380594057306981e+00  2.4722619797948219e+01  1.5730479514216058e+00  6.2057621624897692e+01  9.0815800645561808e+01  3.5525146745617513e+02  3.8594616334865393e+01  9.4065120543115577e-01  9.6498526037736776e-01  1.1376405788781891e+02  2.7534589944517683e+02  2.4413939290583190e+01  2.0842230665008156e+01  1.3819964206053866e+01  1.6963716271184445e+01  1.0959663445138785e+01  7.3395559687965303e+01  5.7275846147770096e+01  5.8375235912730861e-01  1.4354529587666488e+02  1.4890118144393341e+02  8.4067598550032145e+01  6.2046028603307446e-01  1.1678248608084677e+02  9.2800184582857398e+01  3.5444386833205010e+00  3.5215300827444374e+01  8.4007914877753347e+00  6.5065197463450426e+00  3.1500116706964235e+01  2.8147704025181863e+01  1.1252734118454285e+02  3.7255587566247317e-01  1.9554186800117776e+02  1.4681528707452222e+02  1.1797525391712827e+02  4.1531118286415580e-01  1.3493010857393602e+02  1.7461638844516264e+02  2.3609339787786909e-01  3.1553822898863905e+02  1.2417517363091225e+02  1.9141178424330704e+02  1.3100431471547278e+01  8.2508178573647282e+00  1.6245301720914512e+02  6.4306396669027606e+01  5.7965034364167956e+01  2.6785854613356508e+02  2.0901623857362452e+02  2.4634924476367237e+00  4.9717450478763098e+01  4.3933940322459755e+01  3.9581254118334357e+01  4.8061463047547255e+00  4.1065455583976853e+02  1.9898661062555544e+02  2.9252676336151023e+02  3.0913719413532170e-01  2.0613233599286625e+02  5.2350194707348737e+02  2.1457144964346335e+02  1.7367539442255242e-01  3.5940458698612105e+02  2.6617159082411933e+02  1.7512395891445257e+02  1.9996488624245909e+01  6.0750929781907779e+01  3.2308947091174955e+00  3.0706493380278250e+01  1.6722010558955583e+02  7.0028281271578876e+01  4.6831486711462041e+01  1.8376784864555131e+02  4.4437212524774043e+02  8.2473134038783087e+01  1.2492553762358963e+02  1.0110391603316704e+02  1.2920837488231581e+02  8.6052350649762488e+01  5.1124085280219509e+00  6.8157672419328122e+01  2.0036274481220495e+00  1.2494409455279867e+00  7.6978193045049192e-01  2.5407585214209960e-01  8.1862850497831033e+01  1.1399724969430332e+00  7.6817810084619886e-01  6.6978965481129279e+01  5.7841073711556696e+01  1.6807201175140267e+00  2.7192039853602903e+01  2.5260332625444278e+01  9.0076486897449435e+00  1.0296566599735861e+01  2.3471820082356135e+01  2.1703148486080206e+01  1.4602269607944502e+01  1.6192700419276310e+01  1.3092174091146063e+01  1.1675351030429560e+01  2.0022433595085452e+01  1.7799940100505065e+01  1.4172372854927817e-01  4.4359783255056368e+02  2.4450721068220821e+02  5.5678184709247171e+02  9.4051681430990936e+02  2.2144160603788109e+02  1.2994150967117654e-01  2.7130465737471405e+02  9.0260579448105852e+02  5.2211024314922781e+02  1.4848394278125792e+01  1.2028044054041169e+01  9.3836949656021282e+00  7.3084694114531601e+00  2.1152303945179776e+02  2.0402624894853147e+02  9.6172117867899871e+01  1.2285051048135989e+02  1.5991373589022433e+02  1.9502840670130644e+02  3.4504171390680568e+01  4.0202405913258480e+02  2.2187260963629473e+01  5.7418782244659532e+00  9.8952447364167625e+01  2.3245061565888460e+02  1.4691799165288825e+02  1.8393667360214420e+02  1.2454257380831305e+02  6.5886258578226645e+01  2.4443154376198086e+02  1.1607843754085474e+02  2.2646510908253030e+00  5.9420384468806162e+01  3.6677497178573892e+00  7.7559437833756988e+01  1.8257671302009334e+02  6.8520287234977161e+01  2.3391562607547883e+02  6.1447053056698337e+01  5.8498275149858998e+01  5.7993780272089559e+01  4.5141037517433535e-01  1.7454588244276897e+02  2.9036005060058451e-01  3.0628517485221568e+02  1.1918476777360884e-01  1.9838054161010338e-01  2.2901889000152786e+02  1.4470658467945285e+02  1.0922097220789081e+02  4.8224770875665707e-01  3.6071280249417464e-01  1.2929991337242470e+00  5.5472910749729671e+01  5.1304182913360407e+01  2.2611028660638568e+00  1.8823685135343655e+00  4.5149433611420655e+01  4.8078740113664807e+01  2.7002184760709751e+00  3.1372511383702020e+00  3.8012365643339057e+00  4.2743614514765603e+01  4.0569558655456916e+01  4.4825351989562323e+00  3.8605483858110524e+01  5.1559292951578550e+00  3.6410023774625621e+01  3.4390889259373957e+01  5.9490279394417831e+00  3.2545195895146477e+01  6.8396195550017698e+00  3.0777331137384625e+01  7.8112370523738974e+00  2.9134908373942892e+01  1.9408717392643062e+01  1.8336285298072664e+01  2.8760223326666164e+02  3.5358412836317450e+02  1.2565483513874220e-01  1.4291382285392820e+03  4.1573881595470954e+02  2.2322271393352750e+02  1.7922704407197168e+03  1.1405583461395655e-01  5.7168285989930587e+02  2.2267400102324675e+02  2.2277959240499987e+02  2.1597602317133550e+02  2.1815534024271395e+02  2.3602247436264258e+02  2.3180295843311217e+02  2.3618762699417411e+02  2.3429479341200417e+02  2.4581601193124436e+02  2.4424055483869350e+02  2.5284446159525314e+02  2.5104361216087770e+02  2.6219652592555951e+02  2.6003539355955041e+02  2.7316562920498711e+02  2.7054035967926478e+02  2.8746880136254049e+02  2.8222746883858838e+02  2.6597515762682127e+02  2.7664327631370384e+02  2.6091162735072459e+02  2.7045578315686055e+02  2.5542520974225030e+02  2.6342551902761443e+02  2.4968935370155492e+02  2.5611254971939320e+02  2.4354478592160217e+02  2.4850877274138801e+02  2.3697757732860370e+02  2.4057083600603136e+02  2.2982099656503453e+02  2.3321218487832309e+02  2.2305060656974072e+02  2.2571630020912966e+02  2.1665350103287372e+02  2.1824043050682587e+02  2.1053276711700212e+02  2.1161478297053344e+02  2.0436375081256838e+02  2.0419933698553081e+02  1.9781222224957628e+02  1.9789384668657655e+02  1.9178222397089715e+02  1.9231819001202700e+02  1.8766285119625542e+02  1.8637835050712442e+02  1.8214052893307849e+02  1.8085110191320049e+02  1.7616338005839066e+02  1.7531840012143417e+02  1.7102413764332800e+02  1.7004392207640177e+02  1.6590234028765269e+02  1.6500914449823767e+02  1.6137022780728478e+02  1.5953808087145561e+02  1.5551167946155135e+02  1.5435728291223339e+02  1.5061742687924712e+02  1.5020025065459726e+02  1.4562139511734949e+02  1.4426187907564670e+02  1.3895018755253167e+02  1.3897700430074900e+02  1.3379344704097838e+02  1.3360175134796833e+02  1.2844264199055405e+02  1.2808062460529746e+02  1.2272959591608479e+02  1.2262393931665818e+02  1.1691180870051394e+02  1.1698463357810874e+02  1.1129733166639846e+02  1.1079620722214690e+02  1.0511928447860932e+02  1.0509249127625446e+02  9.9355442074741532e+01  9.9424688544459499e+01  9.4182485688532509e+01  9.4067808944890928e+01  8.9089882653480458e+01  8.9092374551746630e+01  8.4165702206341919e+01  8.4450593668645340e+01  7.9682493559837326e+01  7.9995808561630128e+01  7.5471607199968886e+01  7.5914953930065579e+01  7.1568775429850064e+01  7.0964428573880994e+01  6.7420665662834338e+01  6.7956969440029781e+01  6.4238054709288022e+01  6.4599925286256209e+01  6.1267803721948660e+01  6.1651185729411331e+01  5.8453726387854360e+01  5.8952257490412663e+01  5.5963212849857527e+01  5.6504371006063465e+01  5.3679689914247284e+01  5.4401599912574405e+01  5.1749342397997957e+01  5.2399850764576406e+01  4.9901699942459892e+01  5.0652820638407427e+01  4.8327798689657044e+01  4.9152777719080007e+01  4.6933801166742953e+01  4.7853521712254484e+01  4.5704382656008356e+01  4.4847472754363586e+01  4.3690674191676585e+01  4.4627022560190134e+01  4.2754323692539458e+01  4.3680875586548190e+01  4.1886456123662505e+01  4.2931427174290974e+01  4.1158471428235224e+01  4.2356675570647148e+01  4.0648965001039343e+01  4.1802988620884022e+01  4.0193692940285921e+01  4.1414674681910277e+01  3.9857248423691800e+01  4.1167641800941922e+01  3.9658186610502781e+01  4.1056365679557828e+01  3.9583187038797298e+01  4.1082456631568931e+01  3.9598422879420546e+01  3.8174729665780262e+01  3.8195094124458436e+01  3.9733379921378543e+01  3.8324344186942994e+01  3.9975285633068580e+01  3.8479952052273426e+01  4.0371461889583159e+01  3.8823584456002123e+01  4.0667283797424325e+01  3.9189632165642720e+01  4.0861368630069471e+01  3.9648779645788778e+01  4.1511565701569097e+01  4.0251070091137031e+01  4.2199648491091551e+01  4.0944009012322098e+01  4.2891728164981345e+01  4.1486008669340663e+01  4.3705153220173514e+01  4.2143529349467222e+01  4.4498332785841875e+01  4.0022335035905577e+01  4.0630440619621325e+01  3.8643660429748294e+01  3.9113685543696988e+01  3.7223780039151492e+01  3.7564062989760011e+01  3.5892221519382701e+01  3.5995212036554342e+01  3.4594911256062417e+01  3.4579079422138712e+01  3.3145985422363069e+01  3.3448867932347632e+01  3.5045862015740838e+01  3.1823239256912313e+01  3.1946775957674785e+01  3.0380238123285228e+01  3.0532304454712481e+01  2.9253251789967759e+01  2.9251809074203379e+01  2.8099698898356269e+01  2.8010563797820247e+01  2.6870650852449536e+01  2.6805327906151824e+01  2.5687099637045620e+01  2.5644650838285845e+01  2.4565136652457024e+01  2.4617408973185878e+01  2.6703080177990675e+01  2.3521710913555644e+01  2.3630504544157290e+01  2.2604807935621192e+01  2.2747576795845859e+01  2.2462342734319730e+01  2.1613886082458073e+01  2.1510586114499407e+01  2.0637416426957515e+01  2.0532861001359223e+01  1.9748142369112774e+01  1.9599053872691336e+01  1.8869922288168446e+01  1.8693392237761177e+01  1.7996807015433266e+01  1.7820595052460892e+01  1.7168573322749161e+01  1.7280525155540985e+01  1.7001873894068193e+01  1.6403408952240270e+01  1.6226364085263494e+01  1.6763427106295094e+01  1.5604663321071873e+01  1.5415845909847242e+01  1.4883381285169582e+01  1.4692952097276359e+01  1.4195636083237156e+01  1.4013273974921605e+01  1.3518446945156120e+01  1.3344279658418797e+01  1.2871183488461156e+01  1.3057870523197437e+01  1.2432229622389450e+01  1.2629816979523248e+01  1.2265896975189074e+01  1.1838328367114107e+01  1.1636163476960187e+01  1.1260373041146137e+01  1.1086434011039000e+01  1.0697435799302248e+01  1.0557088519563454e+01  1.0174030081394426e+01  1.0047742615823575e+01  1.0343105193161522e+01  9.6903621128870387e+00  9.5234796539798001e+00  9.2567726372483286e+00  9.3276056561157024e+00  8.9987856133376347e+00  8.7813588829825058e+00  8.5745651697479222e+00  8.3283372907223079e+00  8.1380936451327894e+00  7.8891860555097786e+00  7.7007901650062554e+00  7.9815511631714520e+00  7.4948173159193789e+00  7.3368448022317567e+00  7.1020659635068659e+00  6.9639642708915499e+00  6.7304905189611528e+00  6.8662277315066138e+00  6.5910329290895122e+00  6.3720396297626385e+00  3.9632393191083665e+01  6.2387864498452670e+00  6.0323271220396313e+00  4.5911136669914093e+01  4.6735311573177135e+01  4.8361292879369493e+01  4.9322978364974645e+01  5.9187888748739708e+00  6.0794584790300403e+00  5.7125461860860076e+00  5.5962416920045417e+00  5.4135263195988488e+00  5.1168611706315936e+01  5.1984685274174254e+01  5.2877074644340762e+00  5.1315376318305503e+00  5.1993327139903771e+00  4.9960864086891572e+00  4.8458284883076921e+00  5.3723297124681224e+01  5.4860103632810194e+01  4.7223484896474339e+00  4.5686721466220215e+00  4.4454036184700882e+00  4.6411317205162383e+00  4.2921112573307916e+00  5.6635462687058151e+01  5.7917180664905914e+01  5.9849742636919309e+01  6.1108510869037346e+01  4.2083327937920370e+00  4.0787300175783603e+00  3.6806688572404596e+01  3.9734724700285420e+00  3.8548756311811068e+00  3.9501859675121240e+00  6.3107240124620773e+01  6.4227165644909746e+01  3.7540690208808525e+00  3.6251020564505172e+00  6.6274995755671640e+01  6.7386822719531494e+01  6.5179301876991943e+01  6.8196463032098578e+01  6.5906394918669349e+01  6.8726139792510565e+01  6.6407524306809677e+01  6.8765202110750167e+01  6.6500442388884451e+01  6.8552117451193652e+01  6.5750987574675818e+01  6.7829935852350516e+01  6.4799699480853818e+01  6.6874415186202754e+01  6.3736626716969781e+01  6.5506827325103046e+01  6.2659051950064331e+01  6.3885933528100800e+01  6.1152041252052967e+01  6.2165083914782052e+01  5.9559024104891897e+01  6.0336554046440874e+01  5.7768426495759080e+01  5.8507984347624216e+01  5.6019382726885873e+01  5.6701079298457564e+01  5.4334680546070580e+01  5.4976761460095894e+01  5.2731582940693755e+01  5.3187226425736533e+01  5.5448570338673662e+01  5.3765732281238257e+01  5.5805654542484355e+01  5.4230394730379132e+01  5.6363911233008693e+01  5.4568456162766097e+01  5.1134967377251712e+01  5.6702496346340396e+01  5.4993363664664791e+01  5.7051605459208218e+01  5.5397300151311541e+01  5.3411048234185373e+01  5.3817490895128039e+01  5.5782131151609526e+01  5.4257392779721144e+01  5.0560386021889840e+01  4.9104614575062023e+01  4.8598386695193661e+01  4.7226995659598323e+01  4.6672130679296743e+01  4.5476784565709067e+01  4.4953932699817770e+01  5.6079488651911888e+01  5.4628474995457076e+01  4.3725139286429020e+01  4.3265458751797873e+01  5.6362879582062675e+01  5.4958080888559763e+01  5.2446187200867421e+01  4.2199742999170873e+01  4.1687153548165185e+01  5.6822170260567120e+01  5.5406413296271623e+01  6.9748116506661873e+01  4.0685297119074754e+01  4.0217688150970908e+01  5.7191051783625845e+01  5.5904862955565115e+01  5.8548363914260193e+01  3.9191781992430393e+01  3.8806471576350702e+01  3.7888686119887495e+01  3.7454448336723871e+01  3.8306567881010125e+01  5.7646174988125729e+01  5.6357358267570696e+01  5.4613469195254225e+01  5.5116289575341362e+01  5.6819343956207909e+01  5.5649314645107964e+01  3.6664378413982071e+01  3.6184218456534374e+01  5.3488150704589522e+01  5.7330516768597917e+01  5.6186356029568572e+01  3.5389564845485047e+01  3.4962778473785136e+01  3.4238157432833134e+01  3.3827294043607225e+01  5.7888294280574435e+01  5.6759616048482478e+01  3.3145788537524957e+01  3.2740991246759741e+01  5.8483868702406255e+01  5.7424189229457468e+01  3.2137590131478397e+01  3.1719272477600374e+01  3.2558683900164127e+01  7.0561335192506689e+01  3.5298642125906889e+00  3.4149467999538250e+00  3.1186707037480769e+01  3.0712063496929030e+01  5.9159409515392930e+01  5.8131369622171839e+01  6.0230732827752611e+01  5.6493949251247521e+01  5.7201762412399106e+01  5.5633308233474573e+01  5.6371798528625618e+01  5.7942923468418080e+01  5.7161823246121727e+01  3.1365319533105190e+01  3.0300050935021002e+01  5.8740436287049931e+01  5.8000076375834425e+01  2.9751025299846155e+01  2.9344843815521934e+01  3.3180965819892503e+00  3.4511506409974655e+00  3.2327241746714930e+00  5.4842195603052552e+01  2.9885440111527473e+01  2.8942958368554162e+01  3.7060151828459517e+01  2.8445765433467468e+01  2.8044040112827364e+01  3.1187359277369309e+00  3.0154822550003884e+00  5.9599092779998280e+01  5.8898735989735997e+01  2.7607510796807645e+01  2.7197153507570093e+01  2.7623967413066591e+01  2.6793062197786657e+01  2.9435518430403298e+00  2.8403966244752845e+00  2.9483958615814498e+00  2.6336724670172046e+01  2.6006225454840290e+01  2.6327585911145590e+01  2.5561148993613607e+01  2.5908473542519410e+01  2.5087231467250220e+01  2.4731528472533416e+01  2.4285186950405823e+01  2.4695433633869058e+01  2.3848134769981442e+01  2.3606107062641076e+01  2.3157144781334313e+01  2.3440673523193865e+01  2.2689832926825421e+01  2.2976311374841075e+01  2.2268384486417236e+01  2.1970734883244738e+01  2.1561247729043007e+01  6.5055572469966719e+01  6.0513384962571926e+01  5.9883145741945562e+01  2.7581344662827698e+00  2.6643764515270680e+00  4.2608200824292148e+01  6.1514306417270205e+01  6.0903519767863649e+01  2.1852157338657992e+01  2.1122727280194923e+01  2.0900782730826670e+01  2.0488927584988740e+01  5.3238039870987166e+01  5.9305640773256684e+01  6.0366683619536239e+01  2.6040268614677258e+00  2.4939595933713532e+00  2.0245198142554486e+01  1.9828311551940462e+01  2.0095930454327199e+01  1.9463570407593906e+01  6.1991059601428667e+01  6.1490938155604709e+01  1.9236648667309630e+01  1.8816925924029373e+01  2.4330855201178720e+00  2.4954199661930012e+00  2.3448906113671391e+00  1.9041820337415118e+01  1.8411596987216566e+01  1.8233369188945598e+01  1.7869853996672713e+01  1.7970264249524170e+01  1.7440416205529285e+01  5.8744121422805698e+01  6.3178608452887708e+01  6.2707510928178912e+01  2.2729942501912852e+00  2.2088184332839891e+00  6.1687528997310892e+01  1.7271384780042702e+01  1.6885624108827979e+01  1.7007995198847770e+01  1.6482229285476514e+01  1.6597554489240387e+01  1.6078474777051127e+01  1.5934771621923073e+01  1.5590306935169217e+01  3.1652140058024379e+01  6.4455868156706515e+01  6.4055093707956104e+01  2.1232823608652946e+00  2.0606576963981911e+00  2.1296104736844055e+00  1.5688665144045652e+01  1.5203679888048065e+01  1.5052036433865108e+01  1.4702024775740488e+01  1.4830892030040951e+01  1.4341024190225959e+01  1.4216118138657098e+01  1.3856755149484062e+01  1.3966926073564220e+01  1.3510094496829010e+01  1.9858452489687499e+00  1.9263715482552286e+00  6.5839644088572825e+01  6.5476098093141232e+01  4.2905505650526514e+01  6.3727644322376385e+01  6.5194356615496176e+01  1.3419129036747735e+01  1.3064660362547773e+01  4.3491117889570141e+01  1.8700154761786685e+00  1.9331557499385270e+00  1.7931266054776596e+00  1.3169378363233557e+01  1.2704967497797156e+01  1.2674781919784959e+01  1.2324322335736392e+01  6.6987964304818831e+01  6.6762945246513098e+01  6.8600117580092572e+01  6.8467681046466538e+01  6.3476486006988267e+01  1.2382619920046395e+01  1.1942451693499509e+01  1.1940151407581128e+01  1.1577415304159029e+01  1.7376845622245676e+00  1.6713325666836647e+00  6.3796218101778273e+01  1.1612379160319993e+01  1.1255399075733926e+01  1.1238230360313560e+01  1.0873569619765043e+01  1.0906849926639365e+01  1.0568854072345149e+01  1.6228380116352821e+00  1.5630256296581624e+00  1.6153617587157090e+00  6.6245855213987568e+01  7.0334250765705931e+01  7.0324929022247304e+01  1.0552916437873272e+01  1.0219512954401541e+01  1.0234840663266940e+01  9.9202162972581398e+00  1.5054691969085059e+00  1.5637787253295852e+00  1.4530952768263292e+00  9.8948293659580990e+00  9.5951490442497729e+00  9.6104136177006083e+00  9.2991904954168660e+00  7.2283269660312286e+01  7.2280732155103550e+01  7.0237767261916616e+01  7.2229330933890878e+01  9.2873399009255024e+00  8.9977766970175530e+00  9.0004873674933261e+00  8.7092272816244876e+00  1.3979220562097427e+00  1.3508108747682219e+00  5.0116908086951874e+01  8.7210411716316649e+00  8.4252204846278733e+00  8.4234425021478287e+00  8.1564050799832746e+00  1.3788738124204947e+01  7.4365123200639090e+01  7.4432766975397641e+01  7.0205242574016907e+01  1.3010441580288534e+00  1.2496085491764048e+00  8.1539802478319814e+00  7.8992591351936241e+00  7.8869936051836831e+00  7.6274897222248210e+00  1.2065479107739501e+00  1.1588411891683672e+00  1.2109406408303514e+00  7.6623754260179851e+01  7.6851006320175557e+01  8.8869169737332527e+01  7.6125565922861549e+00  7.3612192795829827e+00  7.3585378031933617e+00  7.1026593145616941e+00  5.7373045706046476e+01  7.1023615657124699e+00  6.8563562355793506e+00  1.1233531726944701e+00  1.1641163544171214e+00  1.0752166702711656e+00  6.8592900106030754e+00  6.6234565444646254e+00  6.6236900322472678e+00  6.3840128186834084e+00  4.2698011007772429e+01  7.9253877760945926e+01  7.9525242600246102e+01  6.2189167249060574e+01  6.3926750641196000e+00  6.1730868042034324e+00  6.1808938951341128e+00  5.9278747666282836e+00  1.0417581200074266e+00  9.9382034707861577e-01  9.5987663316687510e-01  9.1629927058654104e-01  5.9442235435367632e+00  5.7365267586468400e+00  5.7382716518453316e+00  5.5103752079136381e+00  8.1897689728071313e+01  8.1724312403220779e+01  8.2200884279925504e+01  7.9714974159111563e+01  8.2811583604958216e+01  5.8880336633098146e+01  7.9919230638698124e+01  8.3138989425890770e+01  5.5161915825369316e+00  5.3016922012804981e+00  5.3192845403182556e+00  5.1142715302866577e+00  5.1086270602445580e+00  4.9146302609214887e+00  8.5735472092406638e+01  4.9137963213210316e+00  4.7238644169217503e+00  4.2319607410816538e+01  8.8848127325691617e-01  8.4599424022784120e-01  8.7476038477248441e-01  1.1166768411753267e+02  4.7321693535687972e+00  4.5430439242462368e+00  8.1565528532238707e-01  8.6088292002154709e-01  7.7848703666334573e-01  8.0334395614493644e+01  8.3442119305232737e+01  3.7289641573975778e+01  4.5401934029479785e+00  4.3670532664553692e+00  4.3717580478181031e+00  4.1974039644109267e+00  7.4804511703553667e-01  7.2020002686372808e-01  8.0465774796537460e+01  4.1895135396174101e+00  4.0228662560941446e+00  4.0367421493785534e+00  3.8682179879879977e+00  3.8548997086914816e+00  3.7047573276569543e+00  6.9423327148286995e-01  6.6020509753541945e-01  8.0661666348296606e+01  8.3845551495787504e+01  7.2578397406353233e+01  3.6906084566752164e+00  3.5504151479293138e+00  3.5702914110382515e+00  3.4042236413294589e+00  1.4584611806519510e+02  3.3932430228297505e+00  3.2522198396675819e+00  4.3981669529152256e+01  6.3052268563914204e-01  5.3103163441124984e+01  6.0638394918706751e-01  6.3077167506213494e-01  3.2615042264391705e+00  3.1187077207870333e+00  2.0303369130530207e+01  9.9067583856487786e+01  3.1057098448938105e+00  2.9820420746865253e+00  8.1098713026736647e+01  8.4298943616457890e+01  8.7331180817798156e+01  5.8502369540215826e-01  6.1600721604930608e-01  5.5566481630502529e-01  7.8138246320258389e+01  8.7716317397370418e+01  9.1155871877274180e+01  2.9924136901326928e+00  2.8546411239252287e+00  2.8442728001963653e+00  2.7153017049141752e+00  2.7114190357049259e+00  2.5996303543922026e+00  7.8455492583507024e+01  7.5833209612412205e+01  5.3379206722119144e-01  9.1644159251978962e+01  9.5227568537612669e+01  2.5985946878508677e+00  2.4609441486826875e+00  5.1147426671358376e-01  3.0602789262392122e+01  1.6145516790585879e+02  6.3841000321523964e+01  9.5925108268966724e+01  9.9762471514463286e+01  2.4684896741355322e+00  2.3541906753897099e+00  4.9218299853610464e-01  7.6061471462789385e+01  7.3839911202253788e+01  8.0703746839844346e+00  1.0857096656804440e+01  1.9895687834853572e+01  1.2515434901038955e+00  6.4958879843876488e+01  5.7106471186285013e+01  5.5912124675635347e+01  2.3587699360928673e+00  2.2485359025449436e+00  2.2377238429629274e+00  2.1453485140714807e+00  1.0086680940410093e+02  1.0490684860599873e+02  1.0389007891566229e+02  1.0934783566163819e+02  1.0812358909048201e+02  1.1076899205349491e+02  1.1572907900802005e+02  1.1744571974723556e+02  4.7570752635678210e-01  4.8771007720274656e-01  4.4899596555365756e-01  4.7969831917226663e-01  2.1201505740531084e+00  2.0324699157519124e+00  7.3736602946899438e+01  7.1503559481679304e+01  1.7759983480303603e+02  2.0374757576271287e+00  1.9361647733117127e+00  1.9238695494900195e+00  1.8327072294001112e+00  1.8207263207691577e+00  1.7314896762636371e+00  1.2293079226478173e+02  1.2504218766214974e+02  9.2637088116537498e+01  1.3324753892486663e+02  4.2906899147738825e-01  4.1018218535713352e-01  1.7446513003664141e+00  1.6491453833063843e+00  1.7219043545908288e+00  3.5573132075888239e+01  1.5376478770563202e+02  7.1690732428422393e+01  6.9561323724554242e+01  7.3890089172840149e+01  3.9309153809588254e-01  3.8077528628655993e-01  1.1919391712324875e+02  1.2700013566059131e+02  1.3118988720604617e+02  1.2866761439545235e+02  1.9203091005943685e+02  6.9635882450690929e+01  6.7690851878011699e+01  6.7520507920387942e+01  6.5891525761295611e+01  6.5714364732663512e+01  6.4163029407757392e+01  6.4255428792869921e+01  6.2600906514665780e+01  6.2682592996361500e+01  6.1172562657543423e+01  6.1205810607338961e+01  5.9784519683373169e+01  5.9748645007662255e+01  5.8451104158279016e+01  5.8500261155618801e+01  5.7231155654635906e+01  5.7293698318461303e+01  5.6109432980823925e+01  5.6158903063950724e+01  5.5004522125423236e+01  5.5049875523593812e+01  5.3952140966961785e+01  5.4142145390551853e+01  5.2932356131158798e+01  5.3161633622566413e+01  5.2049481915944234e+01  5.2260973128010775e+01  5.1196764194828717e+01  5.1436821816492774e+01  5.0383868040777486e+01  5.0208995684838179e+01  4.9393006846739098e+01  4.9587308130782532e+01  4.8635626240486808e+01  4.8846256678100822e+01  4.7911152546794838e+01  4.8151433651649718e+01  4.7228366882208455e+01  4.7480698409262267e+01  4.6556123365620024e+01  4.6818965639883608e+01  4.5990635593187740e+01  4.6181602190517609e+01  4.5322289989394179e+01  4.5598966295851618e+01  4.4823865169225407e+01  4.5065704525717827e+01  4.4227781864581530e+01  4.4513041732532308e+01  4.3644147740724421e+01  4.3983664296565948e+01  4.3119911675331949e+01  4.3489659556981906e+01  4.2632442531696078e+01  4.3000558565816391e+01  4.2143760259553446e+01  4.1770514627154803e+01  4.1264833980777126e+01  4.1643880579298205e+01  4.0836664314117861e+01  4.1223907635765734e+01  4.0409079573464957e+01  4.0784111312836963e+01  3.9975955634637863e+01  4.0362605783967432e+01  3.9544426738332639e+01  3.9154495780628324e+01  3.8741426102980611e+01  3.9139203618861167e+01  3.8357922806744540e+01  3.7988827597975714e+01  3.7591467306532586e+01  3.7279806391552640e+01  3.6870367410567987e+01  3.7211033380310340e+01  3.6479694134704033e+01  3.6178581750318024e+01  3.5791394371420530e+01  4.1085734938156058e+01  3.6109009392602921e+01  3.5409141024766136e+01  3.5115543462954982e+01  3.4746071326262275e+01  3.4492542222730108e+01  3.4116885696649952e+01  3.4372133539763034e+01  3.3735020196153798e+01  3.4001739673858914e+01  3.3357708037657552e+01  3.3112976916759543e+01  3.2739946039953885e+01  4.4470389625404536e+01  3.2521384209051675e+01  3.2152440319969102e+01  3.2378933561946035e+01  3.1786640658488395e+01  3.1587618729140111e+01  3.1216469992271591e+01  3.1042647146957087e+01  3.0678262981717918e+01  3.0854152794090414e+01  3.0321787793203779e+01  3.0153752214170332e+01  2.9802042731724871e+01  2.9970656690390431e+01  2.9445304595651255e+01  2.9617100304531160e+01  2.9092042523992806e+01  2.8933238042263145e+01  2.8581880707569997e+01  2.8733125781199302e+01  2.8220280960923070e+01  2.8370084248369210e+01  2.7859702348204962e+01  2.7724070798217141e+01  2.7362206781524776e+01  2.7503897918357985e+01  2.7014771626352779e+01  4.7082470678889990e+01  2.6903630750738770e+01  2.6535779838741998e+01  2.6671314734262474e+01  2.6188034554603199e+01  2.6319358898578066e+01  2.5832926719506251e+01  2.5732403140417002e+01  2.5378983588591453e+01  2.5477072416568621e+01  2.5027075962478001e+01  2.4932344961017179e+01  2.4587971722037786e+01  2.4687126223409596e+01  2.4237243075495851e+01  2.4323360922688757e+01  2.3879837196483109e+01  2.3965656898958493e+01  2.3532193922591908e+01  2.3450461849474344e+01  2.3111476434710251e+01  2.3190199984848871e+01  2.2756322014667905e+01  2.2821419601754815e+01  2.2395084893656591e+01  2.2339503467211600e+01  2.1991736554033654e+01  2.2045608845600619e+01  2.1641015148125895e+01  2.1705139454535196e+01  2.1291247104881624e+01  2.1360780468293736e+01  2.0945690135940936e+01  2.0895260670185415e+01  2.0538219552088290e+01  2.0591303940954436e+01  2.0190699300784434e+01  2.0150999310362764e+01  1.9814922057940038e+01  1.9854325758279771e+01  1.9476138452740241e+01  1.9517020142450392e+01  1.9128289468792165e+01  1.9105077292494592e+01  1.8770553336289698e+01  1.8788040485282309e+01  1.8426515355442799e+01  1.8447059636890611e+01  1.8083560473821315e+01  1.8083760814910413e+01  1.7730614068674715e+01  1.7755372200988827e+01  1.7402080593916459e+01  1.7423929672653149e+01  1.7073536766769138e+01  5.2855456769720973e+01  1.7077857659641150e+01  1.6740629720640737e+01  1.6741831806829648e+01  1.6413231207027479e+01  1.6410877774473413e+01  1.6083259141126003e+01  1.6085688592357158e+01  1.5758560091038763e+01  1.5758641737810395e+01  1.5442044239217054e+01  1.5437167630564568e+01  1.5122227000288191e+01  1.5113081987366696e+01  1.4803759681842285e+01  4.1222563729899193e+01  1.4825711855937989e+01  1.4503811061797377e+01  1.4493612772147864e+01  1.4200971301924834e+01  1.4186289629629799e+01  1.3880488720204786e+01  4.3895271093383371e+01  1.3901403652914253e+01  1.3620063278914985e+01  1.3568309155746654e+01  1.3291745424761256e+01  1.3273166947217550e+01  1.2988143193910640e+01  1.6750574080197310e+01  1.2975099336883448e+01  1.2687159010882709e+01  1.2694520518864469e+01  1.2418695746446566e+01  1.2400341683815077e+01  1.2134411206376889e+01  2.1945153726587673e+01  2.4506169079570725e+01  2.1785874367183638e+01  1.6421061526136082e+01  2.4427931616160876e+01  4.9231347930253392e+01  5.6047957949927046e+01  1.2097992973355156e+01  1.1838759143690135e+01  1.1861781944290232e+01  1.1584763335230305e+01  1.1550487040830044e+01  1.1314050325837266e+01  1.1274869050911743e+01  1.1038293988400396e+01  1.3625895723561975e+01  1.1080034506244633e+01  1.0797643125342514e+01  1.0752428589683463e+01  1.0514962372403993e+01  4.8433911488499305e+01  1.0484461932901784e+01  1.0251439364464998e+01  1.0304231717683669e+01  1.0030646057841773e+01  9.9893082252026950e+00  9.7531641935112390e+00  9.7242911159496774e+00  9.4947660407979591e+00  9.4477084334285895e+00  9.2542924978395700e+00  4.5379993725100853e+01  1.3244885044288528e+01  9.1841698841858417e+00  8.9844831212281271e+00  9.0346797210806162e+00  8.7699975355294075e+00  8.7359155690001415e+00  8.5404314650649393e+00  8.4988909214184147e+00  8.2951814066166349e+00  6.4247888540216081e+01  8.3414115937870168e+00  8.1019924525477602e+00  8.0513842739949482e+00  7.8670757979951560e+00  9.8146242983616627e+00  7.8181126122476314e+00  7.6409708202773015e+00  1.8124444761555485e+00  1.6646814626507636e+00  1.5704819621936414e+00  1.6848961722426378e+02  5.3349536641542407e+01  1.7132433138963490e+00  7.6810238739926424e+00  7.4544029582939677e+00  7.4098998407310397e+00  7.2368914916570990e+00  7.1917176444822406e+00  7.0191631061221926e+00  6.9601186880251742e+00  6.7963658822176720e+00  3.5816984197003748e-01  3.7522040591763878e-01  3.4492087047099446e-01  3.6069438069276982e-01  6.5508155250256621e+01  9.6786953040031261e+00  6.7454857055827624e+00  6.5834478021676954e+00  6.6214846997424424e+00  6.4135778117884934e+00  6.3696497007944535e+00  6.2094918638890020e+00  1.3741859802885577e+02  1.3430125173170774e+02  1.8493726932885431e+02  1.5050177286180588e+01  6.1628022997591803e+00  6.0072973563337859e+00  2.7956205858203415e+01  1.2084330683125383e+02  1.2887881225590428e+02  7.2628773676735792e+00  3.9532491403774898e+01  1.5865716099091913e+00  1.4955215298506004e+00  1.6795699148460277e+00  1.4806235150139422e+00  1.4073634085072873e+00  1.3950119317079988e+00  1.3237463352702581e+00  1.3122210818754503e+00  1.2435789317461401e+00  1.2340585918290561e+00  1.1682817955142109e+00  2.0429400549585932e+02  5.4141738647903452e+01  5.3391008742219753e+01  5.2693760642851004e+01  6.0538771073744222e+00  5.8585580661281860e+00  5.8052052052176490e+00  5.6593338787006591e+00  5.6094658419036527e+00  5.4597200332467342e+00  5.4227083466226000e+00  5.2767292169252231e+00  2.0917847120831107e+02  3.2622737383354339e-01  3.1600701416270849e-01  3.0287792783821374e+02  1.8063838313681713e+00  5.7344652389249468e+01  1.1793656414424631e+00  1.1065290898192977e+00  1.0957560066547907e+00  1.0365658575909409e+00  6.0935087587197600e+01  6.2032638082045040e+01  6.2746794432954850e+01  6.3867400428832369e+01  6.4553929483271475e+01  6.5708396373766604e+01  6.6390675101553299e+01  6.7543252580613483e+01  6.8322951972316076e+01  6.9421350855076511e+01  7.0204312383513425e+01  7.1239646829060689e+01  7.2011533093200399e+01  7.3091466615810646e+01  7.2487725054036645e+01  7.4218182529978250e+01  7.3729872318240552e+01  7.5401491979880902e+01  7.5030737874571059e+01  7.6747830244617077e+01  7.6560868716396200e+01  7.8083313513678888e+01  7.7996805545930741e+01  7.9584148261308343e+01  7.9421024252503514e+01  8.1030691387526900e+01  8.1062669545267610e+01  8.2334156059299048e+01  8.2675419889193591e+01  8.3864153331667580e+01  8.4609525139635608e+01  8.5483664043784231e+01  8.6305115681575984e+01  8.7104332200791362e+01  8.7978442244272415e+01  8.8554283920242540e+01  8.9552081462405667e+01  9.0003886302285750e+01  9.1121398711916370e+01  9.1331938962774601e+01  9.2560571023449285e+01  9.2552277632229604e+01  9.3805380726647499e+01  7.3755689374777589e+01  9.3549435857274744e+01  9.4552301216045265e+01  9.4561692987002886e+01  9.5034584414853015e+01  9.5145419768322640e+01  9.5361295532789953e+01  9.5632290976199755e+01  9.5410097766648306e+01  9.5356748012483138e+01  9.5213969242242825e+01  7.8397077181661658e+01  9.4839239104720392e+01  9.5131645099964672e+01  9.4995910222269487e+01  9.4145053774239869e+01  8.6783702190700325e+01  9.4055736007259839e+01  9.2954115794134168e+01  9.3187357729419446e+01  9.1732214740378183e+01  9.2416530064804775e+01  9.0311137677510430e+01  9.1393427975081110e+01  8.8790362352211815e+01  8.3402428934831491e+01  9.0340955001735978e+01  8.7473022021004326e+01  8.9330148314697212e+01  8.5990965011926505e+01  8.3897522530161481e+01  8.2248531214111395e+01  8.4527462294691773e+01  8.0749440770490096e+01  7.8393603506449878e+01  7.6807377127146268e+01  7.9322238622684864e+01  7.5363621378648375e+01  7.7972571677438054e+01  7.4079983055622492e+01  7.6929919340479273e+01  7.2916926158874332e+01  7.6018902557331629e+01  7.1989198338404975e+01  7.5312803508562865e+01  7.1234595796351300e+01  7.4562527602356070e+01  7.4533426592754296e+01  9.2953643949057266e+01  7.0730029713786394e+01  7.4752081419236333e+01  8.8771288869353356e+01  7.0509354426982810e+01  7.4222543921992610e+01  7.9336076511311276e+01  7.0382010555111847e+01  7.4957041686050374e+01  9.1185054352397245e+01  9.5734086897904390e+01  9.3040746115880395e+01  7.0312798154578303e+01  7.4917215489406232e+01  7.2828937719977830e+01  7.4495466185401767e+01  7.3728688489669963e+01  7.5238841151960543e+01  7.4644267276886694e+01  7.6040199078639219e+01  7.5644272339847149e+01  7.7192623062084792e+01  7.6716406168535329e+01  7.7880375496979070e+01  7.8153058576204344e+01  7.7990849265780653e+01  7.9163477212412943e+01  7.9192619408482926e+01  7.0112694746848916e+01  7.4695233927315527e+01  7.0719722120647944e+01  7.5326012751364786e+01  9.4748778169001440e+01  7.0225833655457635e+01  7.1728102571492300e+01  7.6712547947890215e+01  8.0190378801034825e+01  8.0406174790638872e+01  6.7579533258595390e+01  8.0847823062184105e+01  9.4614485516929463e+01  7.2643809123306397e+01  7.7564440150064641e+01  7.3876448107371871e+01  7.9250824260782068e+01  8.1271184405093223e+01  8.1778576596326815e+01  8.0875834604942625e+01  8.0840936948961470e+01  8.2399279239860803e+01  9.3169609960126138e+01  7.5031442688126489e+01  7.8489005659035399e+01  7.4825686796260626e+01  8.0624744228480097e+01  6.6388907216092178e+01  7.6369986557312572e+01  8.2006783982888649e+01  8.3180709630581447e+01  8.4081361895346973e+01  8.2990169521841082e+01  8.4795668212055318e+01  7.8524397900867598e+01  7.8442973167021250e+01  8.4534096054958667e+01  8.1764532570567368e+01  8.0516164656554579e+01  8.6712663008118838e+01  8.3653138851918897e+01  8.5572259643752119e+01  8.6574841732723257e+01  8.7594641569888623e+01  8.6480868209616887e+01  8.8826663331307429e+01  6.5246634869581740e+01  8.5132902841932491e+01  7.6481471650247343e+01  8.9803350278796188e+01  9.1007856550636163e+01  8.9942583926527206e+01  9.3063797830225155e+01  8.2627902099173724e+01  8.9747527944604713e+01  9.1457155478883436e+01  2.2747005142780714e+02  5.5154330825331197e+00  5.2306158922949990e+00  5.0893146594155185e+00  2.5466601156566841e+02  1.7092833579327231e+00  9.3480482554177158e+01  9.5461207929199460e+01  9.4485189205852080e+01  9.7195477009979740e+01  9.5687164448495949e+01  9.9080791699044724e+01  9.7508319099005377e+01  1.0104762803202019e+02  2.8064857906439960e+02  9.9095871819741674e+01  1.0290867772384262e+02  7.1379607855151477e+00  8.5414612799614602e+01  9.1907429123688814e+01  1.0244586444364921e+02  1.4239608532901529e+00  1.4362169155350071e+02  1.4011761753696061e+02  1.4752350392271009e+02  1.2239399077338646e+02  3.0809106829123897e+02  7.1259411692836707e+01  9.4394360262141774e+01  2.2706475237083782e+02  2.9782077479750463e-01  2.8852388360331926e-01  1.1184229654120712e+00  3.2769331567881596e+02  5.0469018230780174e+00  4.9084955201643012e+00  4.9541947691936530e+00  4.7761530352868897e+00  4.7335172645929671e+00  4.6030040463089881e+00  7.2956571724556355e+01  4.6489768871859285e+00  4.4764520566101353e+00  4.4285916181281380e+00  4.3061679497821785e+00  4.2603138533758580e+00  4.1395971630377151e+00  4.0989684053135971e+00  3.9833412205971594e+00  1.0077941813394543e+02  1.0494711140874480e+02  1.3082241710979631e+02  5.2012737385462088e+01  5.1391690779035486e+01  5.2709195170056418e+01  1.0259893144511461e+00  9.6957844645286195e-01  1.0254485745059677e+02  1.0705057717104130e+02  1.0941663671545498e+02  1.1199642937109738e+02  1.0429419047830505e+02  2.5489829598977579e+01  2.6630616489531619e+01  2.5389202716675960e+01  2.6283276043384035e+01  2.5212691420764436e+01  2.6087263074313430e+01  2.5040766787887488e+01  2.5946253620149438e+01  2.4845002883662360e+01  2.5753693461524385e+01  2.7020564675524074e+01  2.4591580548807453e+01  2.6625413257055179e+01  2.7890490589053591e+01  2.7527071030932483e+01  2.8802280222138190e+01  2.8427960288701499e+01  2.9679318655835385e+01  2.9370319969873709e+01  3.0920225087990875e+01  3.0393766536167604e+01  3.1660717147369819e+01  2.8187124796887897e+01  3.1380110125983542e+01  3.2650811182920989e+01  3.3097777504429509e+01  3.4124610804175525e+01  3.3658265919387325e+01  3.5112392222436611e+01  3.5611238444004471e+01  3.6689100654036736e+01  3.7299895662506003e+01  3.8448476883939421e+01  3.8954845489389726e+01  3.4463261577184007e+01  4.0172406959893259e+01  4.0427913056821971e+01  3.9423474502978493e+01  4.1290122839465184e+01  4.0534866905602279e+01  4.2425406415527064e+01  3.7494846831533245e+01  3.0059650689011214e+01  4.1535082697819036e+01  4.3450569019129908e+01  4.4335223637555991e+01  2.3729123055113895e+01  2.3475024351085075e+01  2.2673583026751920e+01  2.2427342023159532e+01  2.1693574329679272e+01  2.1454871692328087e+01  2.2156344831602304e+01  2.1202774494022517e+01  2.1865150385420790e+01  2.0902998169028074e+01  2.0305938959083726e+01  2.0038508255414246e+01  1.9355693586074874e+01  1.9188975033904569e+01  1.8545996762760851e+01  2.1562139276158160e+01  1.8367867203571759e+01  1.7841143590928279e+01  1.7601679308752932e+01  1.7091162219022969e+01  1.8962013657622769e+01  1.6812918656273528e+01  1.6325282647334898e+01  1.6112403156433732e+01  1.5654675511106008e+01  1.5462744634767198e+01  1.4994605238060855e+01  1.4796217610625058e+01  1.4376950668880147e+01  1.6519497221227997e+01  1.4191684357822670e+01  1.3778322152246725e+01  1.3954429892065738e+01  1.3367031585292606e+01  1.3195935917990143e+01  1.2805411236812487e+01  1.2966070729836513e+01  1.2422416887686110e+01  1.2269711100037222e+01  1.1896198726392262e+01  1.1749774419491681e+01  1.1392800627886819e+01  1.2573924356209742e+01  1.1256550988846334e+01  1.0915184351904205e+01  1.6603937981141964e+01  1.1047005201345417e+01  1.0568526269690928e+01  1.0446674933602752e+01  1.0111249551097409e+01  9.9928898389174030e+00  9.6823146636213444e+00  9.8000833984433235e+00  9.3814607606783120e+00  9.2682235739323851e+00  8.9742383392541498e+00  8.8656848755533684e+00  8.5851109191994368e+00  9.5010011847401614e+00  8.4868967906020014e+00  8.2083617674398450e+00  1.8667090217114005e+01  8.3078493246547129e+00  7.9380742219921965e+00  7.8441193982976847e+00  7.5794216022611112e+00  7.5039257771930989e+00  7.2454966921414528e+00  7.3271154979623994e+00  7.0060496103378824e+00  6.9210257178024097e+00  6.6916424940896500e+00  4.5426500729821427e+01  4.6314876608008412e+01  1.4612638646103461e+01  4.2466950335632269e+01  4.0652728382681033e+01  1.1601916750994558e+01  6.6103422774036122e+00  6.3880988140547785e+00  6.3183336698786734e+00  6.0989202640858942e+00  4.1458661410961234e+01  3.9634431261802042e+01  7.0949029699840036e+00  6.1691070899451983e+00  5.8830386075371974e+00  5.8233427001320228e+00  5.5978313963111042e+00  5.6754145973587464e+00  5.4028492875449947e+00  5.3487256623312316e+00  5.1491073682034365e+00  5.1015593105256984e+00  4.8975930101376495e+00  8.8155936974764089e+01  9.4659197761239909e+01  9.9053019872762903e+01  1.0168949981365490e+02  9.7597230885039693e+01  1.0443179171453269e+02  1.0059669173989673e+02  1.0724250108629992e+02  1.0361890869750377e+02  1.1007257548615814e+02  1.0708785893841917e+02  1.1295658024557871e+02  9.5955174267457835e+01  1.5431300371494996e+02  1.5834690795027367e+02  1.1066369208564865e+02  1.1591763558326315e+02  1.1389511543676186e+02  1.1927494541733628e+02  1.1767822546522081e+02  1.2252757821510035e+02  4.0238028241824511e+00  3.8713530016797995e+00  3.8279355755626030e+00  3.7178433753022473e+00  3.6778078663230591e+00  3.5679723117839881e+00  4.8465964195154596e+00  4.6734897394187715e+00  8.7628820920423980e+00  1.1422155698842475e+02  1.1724604909386996e+02  3.3395020252676204e+02  1.8041070057400108e+00  5.5663811308114752e+00  4.7996358510169181e+01  7.5924206193799222e+01  6.5816373919696744e+01  2.7177582097940672e-01  2.8219784335266707e-01  2.6143840204316821e-01  2.7796927784638498e-01  4.7553070362913068e+01  4.8455481491559986e+01  1.0728529702866602e+02  4.6157639232479868e+00  4.4447725355706416e+00  2.4375933560075904e+02  4.5251972750573062e+00  3.5288539434009079e+00  3.4219678198225392e+00  3.4619235612372283e+00  3.3184747181009202e+00  3.2808727055071070e+00  3.1793791254772135e+00  1.7070695471153525e+00  9.6146159400602416e-01  9.0346160544747223e-01  9.1735817466302849e-01  8.5667710563873878e-01  8.4475906251198640e-01  7.9651862770783588e-01  1.0178994068781362e+00  8.0657067794091641e-01  7.4727511705545546e-01  5.1374981609434975e+01  5.2072024205855456e+01  4.5014841952785911e+00  4.2794962179380747e+00  4.2296856348521361e+00  4.0705502067751240e+00  4.1182898317230103e+00  3.9099020561967670e+00  3.8602702679355549e+00  3.7080111254837100e+00  3.6672661857553344e+00  3.5185179827021913e+00  4.0454731233228628e+01  3.8715754944052918e+01  4.2259081069908397e+01  3.1401783241685037e+00  3.0428341332364841e+00  3.0005585615002985e+00  2.9029602188715855e+00  3.5871145211743379e+02  5.4693256287963541e+00  1.1384706992508131e+02  1.2386537008383019e+02  1.1639710425541496e+02  7.7149819554566889e+01  6.5403585054185900e+00  1.2080877810022940e+02  3.4838668966141579e+00  3.3406137876354007e+00  2.6593932015446904e+02  3.6485962416000928e+02  1.2147518536311554e+02  1.2578416217866938e+02  1.6156492582379052e+00  7.5840463955658732e-01  7.0221499140856058e-01  6.9342622279295596e-01  6.5124541036861661e-01  1.6126749053626437e+00  1.5279364612804791e+00  1.3258052069396416e+02  1.4032020157575047e+02  3.3923797167868821e+02  6.7135837506545315e+01  2.5342123363842234e-01  2.3824948790525738e-01  3.9177886019699089e+00  5.0407804883998208e+00  2.7216323366908562e-01  6.4348316315333987e-01  6.0326799447796287e-01  2.7651578120157744e+01  4.2212743854622898e+00  1.6635254843957841e+02  1.7162885771277450e+02  1.1918166298269183e+02  1.2278280015493756e+02  1.2038937258911817e+02  1.2659088675465973e+02  1.2384340526725217e+02  1.3011825943512906e+02  5.0775669181178039e+01  5.1484430888896043e+01  3.6400892792444663e+00  3.3055426110512292e+00  3.1759015860073281e+00  3.2095133464026731e+00  3.0444030349098687e+00  1.1582366128118665e+02  2.9497865947250093e+00  2.8184008279368351e+00  2.7739464492020169e+00  2.6890789602270315e+00  2.6616901436764380e+00  2.5788265083957285e+00  2.2522150254677783e+01  2.2220587551778124e+01  3.0085491477026873e+00  2.8704539089549406e+00  1.5268706204412690e+00  1.4429678541083608e+00  1.4277463164387359e+02  1.5187775661686280e+02  3.5012409030718283e+02  2.4184748379516407e+02  9.9862975247146210e+01  1.0139746870775620e+02  3.3587102324500093e+00  1.3133138023388753e+02  7.3532199230542801e+01  1.1749292444308844e+02  1.1087547691521847e+02  1.9045704304249278e+00  1.9032367955287983e+00  2.0078236349745073e+00  2.0081901443779251e+00  2.1205578577386093e+00  2.1249752583755304e+00  2.3064333047960206e-01  4.1150888952203616e+01  4.2937941987415840e+01  3.8710514809924518e+02  3.7537522451061687e+02  4.7090767076844834e+01  4.9226698262219642e+01  4.7659996184705179e+01  4.9918473925108145e+01  4.8142663697461558e+01  5.0475658534241219e+01  4.8552276282373505e+01  5.0753039974749321e+01  4.8712398497978498e+01  4.6627990490109688e+01  4.6772402043431264e+01  4.4780538420857219e+01  4.4828961757579329e+01  4.2935446970154452e+01  2.1374658752344111e-01  5.0231583280616086e+01  5.0946868745753591e+01  4.9556448007964342e+01  2.3795268413478226e+01  2.2889050589091848e+01  2.3974593493626937e+01  2.3077645860324861e+01  2.3945205361148997e+01  2.2925668981490706e+01  2.4017288903067016e+01  2.3135995926266116e+01  2.4160617719854713e+01  2.3279256014948640e+01  2.2348961334898551e+01  2.2485444322897258e+01  2.1530141287340886e+01  2.1743805959029121e+01  2.0773279996411667e+01  2.1042526632323355e+01  2.0114615948884389e+01  2.0418163929107873e+01  1.9506179511695329e+01  1.9839240527687604e+01  1.8949349044394303e+01  1.9319170080240166e+01  1.8489907235411000e+01  1.8867619152712912e+01  1.8033281543719987e+01  1.8453448449323144e+01  1.9421021797058454e+01  1.8913525479130669e+01  1.7632268277603824e+01  1.9753210493313002e+01  1.9407475077750817e+01  2.0217987904737448e+01  1.9875360528872434e+01  2.0831583742391899e+01  2.0450364017158996e+01  2.1381600200857438e+01  2.1071852069644013e+01  2.1988422603887567e+01  2.1725942265920800e+01  1.9607943810587130e+01  2.2647549877506464e+01  2.2421987026216410e+01  2.3342038254012881e+01  2.3190137608224134e+01  2.4129180071772705e+01  2.4107409552820972e+01  2.5002253869814488e+01  2.4915857708755759e+01  2.5895414108213231e+01  2.5920868634397671e+01  2.6935669266567363e+01  2.6986659667187855e+01  2.7992685406013809e+01  2.2240066567327016e+01  2.8171065491068504e+01  2.9206753508356414e+01  2.9317166688236728e+01  3.0387454286704234e+01  3.0548327559667225e+01  3.1567162317148021e+01  3.2085643908559376e+01  3.3302649721678421e+01  2.2651136108339131e+01  2.5657200885485917e+01  1.7181826885585984e+01  1.6825010705259082e+01  1.6394451830864437e+01  1.6078733963974162e+01  1.5677766306132517e+01  1.5362131342167912e+01  1.4910362330088740e+01  1.4638841473614031e+01  1.4216818321153472e+01  1.3950514214400503e+01  1.3531384536069481e+01  1.3300550646930224e+01  1.3738096211859435e+01  1.3090575990727940e+01  1.3550241787230970e+01  1.2675581931215598e+01  1.2477145416474061e+01  1.2021169914549903e+01  1.1889916346475246e+01  1.1461977698626931e+01  1.1309611851071821e+01  1.0914755202525081e+01  1.0769504273175626e+01  1.0370032665869239e+01  1.1199163158003506e+01  1.0250562181994026e+01  9.8479382612523985e+00  9.7417296359747674e+00  9.3515550619252981e+00  3.3622336375543114e+01  3.4896900018212449e+01  9.2575465228308538e+00  8.8775003797388710e+00  2.2229791521375681e+01  3.5239285966743054e+01  3.6464822734610863e+01  8.9747680998361492e+00  8.5165200967414325e+00  8.4295284799298784e+00  8.0750339069173709e+00  7.9935656025768189e+00  7.6655462215972152e+00  2.5035043260802979e+01  3.7075454817370229e+01  3.8567726195760450e+01  7.7493162046263757e+00  7.3379293104555012e+00  7.2634139659768016e+00  6.9415893638451873e+00  3.9067963327306401e+01  4.0547641206346569e+01  6.8851137971974703e+00  6.5764639900574808e+00  6.6514261404217905e+00  6.2802841617487859e+00  6.2181065021333186e+00  5.9382802570791426e+00  6.3552548631602104e+00  2.8998990902965257e+01  1.1052656376844725e+01  5.8787976219876441e+00  5.6188955424462872e+00  3.0988405386654080e+01  4.1135184221564607e+01  4.2626217780814336e+01  4.3541663721039548e+01  4.5237683540451748e+01  5.5693449523614618e+00  5.3139933280582623e+00  3.6166394886052494e+01  4.6006916902191321e+01  4.7828224249876307e+01  1.3812182297907935e+01  4.8605438803306825e+01  5.0754045155339263e+01  5.2810532333391524e+00  5.0161889739176466e+00  5.0383610448467708e+00  4.7716667525424619e+00  4.8215801797057951e+00  4.5433934564276210e+00  4.5944827863164015e+00  4.3362669638283675e+00  5.5400323247989869e+00  4.2830005901451953e+00  4.0573116352084844e+00  4.1156152728653419e+00  3.8737175660266336e+00  3.8183475356441563e+00  3.6384508914917673e+00  3.6864429914778136e+00  3.4623994928038244e+00  3.4301162552757898e+00  3.2570510724981396e+00  3.2278209830721414e+00  3.0585627928026327e+00  3.7606342056944882e+01  4.2025880943582685e+01  3.0918340820464993e+00  2.8999153323626583e+00  2.8702757677490012e+00  2.7174158375754156e+00  2.7462497489495004e+00  2.5768047911230267e+00  2.5554551568625690e+00  2.4150747939887549e+00  9.6594749788117884e+00  5.1827336173273281e+01  5.3611126894481814e+01  4.9410094485218350e+00  2.3903562105962806e+00  2.2600672831179613e+00  5.4761842293498205e+01  5.6847946541746353e+01  4.9304829280020613e+01  1.9229216102055680e+01  5.7752008796198808e+01  6.0498864449337944e+01  2.6031036194790791e+00  2.2350920118087219e+00  2.1150784477139322e+00  2.3681446542525655e+00  2.1372109600710667e+00  1.9986119519027010e+00  4.4361419470990100e+01  5.9269113887748112e+01  6.2477892820380831e+01  6.4701861910759533e+01  6.6837950194933171e+01  6.8613938085059374e+01  7.0761278114851478e+01  1.9784700014787970e+00  1.8658236872031309e+00  7.2935493731121781e+01  7.5385209418478709e+01  6.5132571880598519e+01  2.0222586730675860e+00  1.8503503882348769e+00  1.7430177026948155e+00  7.7644180802633855e+01  8.0308297723409439e+01  8.2692690463434730e+01  8.5514745750198529e+01  5.2762719180952772e+01  1.5865794019322427e+01  1.7259078938899026e+00  1.6257786706173185e+00  1.6418231806159043e+00  1.5293362595911046e+00  1.5449676720666339e+00  1.4451969072608133e+00  1.4217114223847567e+00  1.3401911885119464e+00  1.8360674857626309e+00  2.0688535193250495e+01  8.3336970920936309e+01  8.8657069992220485e+01  9.1013041164261793e+01  9.4258124523512336e+01  9.6737984784958996e+01  1.0009920155562530e+02  1.0249225069915592e+02  1.0582818742995927e+02  1.0848851097107026e+02  1.1186455868232092e+02  1.3514619468528573e+00  1.2663742687241411e+00  1.2303218475920701e+00  1.1675485073733667e+00  8.6702181622708267e+01  1.1874160613897686e+00  1.0974477896001775e+00  1.0798595380020644e+00  1.0161011673748928e+00  1.1467318629954981e+02  1.1807973711126236e+02  1.7162992300535247e+00  1.8303768742570923e+00  1.0320284002491502e+00  9.5514885738618793e-01  9.4290233062681850e-01  8.8399554393458080e-01  7.1103068292311249e+01  1.1571959630874279e+02  1.2191037621444461e+02  1.2429213315048632e+02  1.2806282982467698e+02  1.3036303055029816e+02  1.3407100374698211e+02  1.3645104689543894e+02  1.4003101094987971e+02  1.5890138309771766e+01  8.7396477894023894e-01  8.1657765305532914e-01  8.2932739300121483e-01  7.6392977119077843e-01  4.8561307354849435e+00  1.4241848904964604e+02  1.4577719374134173e+02  1.4821127712738956e+02  1.5130610045927716e+02  7.5222256722205927e-01  7.0278732679725142e-01  7.7762778716433412e-01  1.1980205358249427e+02  9.9394924371325274e+01  1.7170626020362489e+00  1.8339767125364734e+00  1.5384807345930994e+02  1.5659379066948324e+02  6.9528667233127150e-01  6.4942861367723148e-01  2.5140179058565501e+01  2.5215200768143955e+01  1.5871023755514773e+02  1.6168237930182130e+02  1.6405546000873960e+02  1.6698619760290015e+02  2.2034558822578759e+01  1.4377822824958366e+02  1.3312612578469830e+02  2.6238953095784129e+01  2.6282534098132434e+01  2.7376748622164559e+01  2.7348420447083654e+01  2.6352706529739681e+01  2.7329452975247008e+01  2.6410352151856284e+01  2.7460876284902980e+01  2.6479387846756133e+01  2.7543122961245324e+01  2.6748493077843261e+01  2.7840164856008904e+01  2.7024152789339574e+01  2.8074741619255885e+01  2.7056427804928504e+01  2.8342314966731667e+01  2.7427090419022683e+01  2.8612228827611904e+01  2.7751168977383184e+01  2.8921040737744988e+01  2.8224358697021664e+01  2.9370420838224877e+01  2.8673002961607946e+01  2.9837960485922643e+01  2.9216160438361495e+01  3.0324454562971457e+01  2.9739302108343338e+01  3.1026372287088645e+01  3.0466593972001711e+01  3.1764370484129401e+01  2.8528223069592187e+01  3.1164465960283458e+01  3.2564354667393289e+01  3.2054813476060744e+01  3.3434477002953820e+01  3.3008082578819511e+01  3.4435903004402320e+01  3.4090272986507948e+01  3.5558546070480709e+01  2.9274376176097579e+01  3.0980906999943475e+01  2.5989286156821535e+01  3.5284010619611067e+01  3.6751805420880338e+01  3.6597753693754697e+01  3.8106204696106772e+01  3.8012567490086120e+01  3.9644125513061411e+01  3.4834225748638666e+01  2.6689001620876461e+01  3.9592153187536901e+01  4.1275346125764102e+01  4.1318745116928561e+01  4.3075241834845592e+01  4.3093465673159088e+01  4.4993876532529093e+01  4.5061437691137748e+01  4.7061872085322229e+01  4.7204670928214895e+01  4.9355321166260467e+01  4.9541964241913774e+01  2.8198347301172141e+01  5.1851017158674807e+01  5.2192329613605338e+01  5.4592474280272164e+01  2.9869449059663744e+01  5.5109055311741947e+01  5.7547493573352384e+01  4.9709025570926713e+01  5.2216677140353148e+01  5.1668177894821468e+01  2.0637319282839037e+01  2.5263709709856244e+00  2.4504503292385236e+00  2.1897407037923394e+01  2.0938391835826909e+01  4.3099967686211833e+01  3.0824465538256747e+00  1.2835303801529253e+02  2.4701578081700094e+02  1.0456926968098955e+02  6.1302414377540260e-01  5.6738311128666241e-01  5.5948644477280574e-01  5.2495887693523935e-01  1.2525211868642836e+02  1.2903268091591244e+02  1.2854367670959718e+02  1.3120681670697115e+02  1.3218812830118762e+02  1.3392732649532010e+02  1.3531496564153707e+02  1.3686135106970585e+02  1.3901292003354450e+02  1.4008700125358067e+02  2.3187118486614146e+01  2.2840419940222933e+01  2.1883511635347869e+01  2.2487235815176849e+01  2.1585405210285547e+01  2.2140112558689815e+01  2.3072207141137000e+01  2.1305918751260300e+01  2.2706174218546057e+01  2.3635101661235534e+01  2.3251020798630975e+01  2.4203617484255560e+01  2.3768453183849321e+01  2.4762790515345181e+01  2.2867125357659269e+01  2.5170356782953441e+01  2.5737310337099061e+01  2.5305387563545882e+01  2.6308796226613428e+01  2.5875596142051137e+01  2.6863618529268599e+01  2.7351513906231560e+01  2.7927339688735017e+01  2.8459189143371237e+01  2.9032448800760633e+01  2.8468432924920194e+01  2.9584157473244250e+01  2.8988273241528031e+01  3.0107916770991579e+01  3.0759979953791198e+01  3.1333239935725775e+01  3.0633849780469856e+01  3.1892873094416487e+01  3.2559106860956483e+01  1.4266688883004034e+02  1.4350423409728435e+02  6.4308628140994273e-01  5.9920978784609213e-01  6.0340098054455960e-01  5.5679783749498224e-01  5.6534020255286543e-01  5.1829409150935235e-01  6.9059083901467133e-01  2.8390166588078865e+00  5.1194016644152518e-01  4.7886732214346661e-01  2.4016079778096349e+00  2.3320886110934445e+00  2.3741749614200507e+00  2.2545583035303958e+00  2.2219785397617562e+00  2.1499405741251687e+00  2.1120444388483981e+00  2.0345951803355637e+00  3.9595367600315736e+00  1.6951684432609909e+02  1.7178186389724934e+02  3.3109644733541458e+01  2.6144921963815078e+00  3.5106182648139516e+01  1.6019626468166180e+02  1.5509607693906128e+02  1.6542104456380966e+02  2.7920143997570950e+01  8.4735063051838452e+01  3.2387603623799421e+01  3.3655981328615191e+01  2.1912230431180965e-01  1.2212234356669700e+01  2.9896619834589305e+01  9.9727385638230448e+00  3.6982570790681899e+02  4.0363289783130978e+02  1.7239963128366287e+00  1.6110494230792021e+00  1.8421760088950871e+00  1.9536341079426160e+00  1.9665944277980523e+00  2.0832527223314905e+00  4.7697465646497839e+01  4.1217409264300102e+01  3.4633946234771990e+01  4.7628721563324028e+01  1.8483436094996335e+01  1.5215513034111108e+01  5.9017601491780397e+01  1.1488021421646513e+01  5.2474409568522972e+01  8.8157255127961065e+00  2.2136428393635326e+00  6.8071838196150711e+00  3.5083808541393511e+00  7.9462286935912445e+01  8.6214992292252131e+00  9.9320018774143762e+01  5.1810721366926593e+00  1.3409141514243169e+02  4.1519116951006076e+01  4.0799948246689809e+01  4.1209299389478929e+01  4.0461619308536775e+01  4.0937001779091815e+01  4.0255914797936569e+01  4.0729644208965730e+01  4.0066251624137124e+01  4.0554786451252873e+01  3.9896270998100995e+01  3.9435784586855490e+01  4.0378411444841632e+01  3.9294449837028480e+01  3.8829731857686632e+01  3.8736025976088584e+01  3.8290863899890780e+01  3.8191193191658293e+01  3.7757849507687567e+01  3.8651215175848428e+01  3.7675275035799309e+01  3.7228713871197677e+01  3.7315962098977408e+01  3.6771390156544307e+01  3.6695117357833311e+01  3.6292652912113184e+01  3.6359081976613808e+01  3.5899265481014325e+01  3.5796037568478646e+01  3.5437553614976679e+01  3.5522358086603887e+01  3.5042139695200810e+01  3.4951153573195391e+01  3.4601824622159334e+01  3.4691453126142314e+01  3.4239647218702494e+01  3.4169855977045891e+01  3.3777959053009837e+01  3.3857479567603342e+01  3.3406300071402619e+01  3.3490729984786753e+01  3.3028043552172342e+01  3.2955673807787150e+01  3.2625569042772874e+01  3.2681529495475118e+01  3.2263991010000701e+01  3.2189934566248716e+01  3.1850047210394617e+01  3.1898179285637166e+01  3.1502566628825587e+01  3.1449444928038837e+01  3.1105770259854211e+01  3.1188553432953380e+01  3.0773086350332395e+01  3.0735779770889010e+01  3.0390470554080430e+01  3.0435953492596383e+01  3.0040708044728646e+01  4.0029204402922879e+01  3.0092891233620506e+01  2.9703311735333465e+01  2.9673078482958573e+01  2.9332420822113441e+01  2.9364233444599311e+01  2.9011954480578709e+01  2.9045686218446427e+01  2.8682417235395352e+01  2.8657939680915884e+01  2.8314577187548942e+01  2.8332290655138181e+01  2.7978907160795696e+01  2.8002645492657681e+01  2.7639333252771728e+01  2.7632461700417721e+01  2.7291446721331514e+01  2.7311764158203740e+01  2.6977370608315336e+01  4.0979666077856997e+01  4.0888701466591087e+01  4.1412352546319994e+01  4.1388857356116560e+01  4.1973307857248379e+01  4.1810882563379288e+01  4.1270932939726606e+01  4.1783614402996228e+01  4.2369385060156276e+01  4.2279186001867416e+01  4.2916818258267590e+01  4.2788382404518480e+01  4.3435077040023693e+01  4.1167468963617438e+01  4.3362658421135521e+01  4.4032085187543579e+01  4.3924828259193738e+01  4.4576347121863826e+01  4.4451209456221811e+01  4.5190938078131431e+01  4.2670484044888894e+01  4.5203253602349250e+01  4.5839117524596126e+01  2.6987737100767063e+01  2.6645143193168693e+01  2.6644704470012261e+01  2.6313187710461182e+01  2.6318482646568750e+01  2.5987619922067143e+01  2.5985341111442391e+01  2.5666745906204156e+01  2.5680564074699035e+01  2.5353652129517805e+01  2.5344407011322996e+01  2.5007399678001743e+01  4.5252038938646166e+01  2.5049086773458953e+01  2.4702903413996545e+01  2.4696718015664597e+01  2.4381515604931177e+01  4.5804965587731822e+01  4.6508601725844777e+01  2.4362108238289178e+01  2.4055757446910977e+01  2.4047152255268326e+01  2.3737499704728908e+01  2.3736491847864876e+01  2.3426919158966218e+01  2.3431454734759960e+01  2.3111186962347343e+01  2.3098185452763964e+01  2.2789453589624397e+01  2.2775527967977602e+01  2.2486153967717225e+01  2.2497624480987941e+01  2.2191562306628992e+01  2.2163152434506166e+01  2.1867758697221774e+01  4.3574918149720489e+01  2.1842745281826403e+01  2.1549216273911416e+01  2.1574976988596571e+01  2.1256417445495416e+01  2.1233938580565173e+01  2.0943717235278662e+01  2.0928550784690060e+01  2.0636199884694832e+01  2.0609620641224847e+01  2.0337178664981945e+01  2.0359810241050518e+01  2.0058854534873014e+01  2.0025933652348936e+01  1.9734750723575054e+01  1.9699795617886029e+01  1.9419907652537212e+01  1.9414659420946865e+01  1.9137660951587879e+01  1.9169107198556127e+01  1.8867222888693206e+01  1.8824783522862518e+01  1.8546005691991660e+01  1.8513138594885049e+01  1.8251592668373057e+01  1.8296498600365034e+01  1.7996196581288356e+01  1.7950201071873380e+01  1.7698086741305630e+01  1.7647175362504225e+01  1.7388640193823118e+01  2.4386304226588177e+01  4.6480800565445982e+01  4.7198573330609385e+01  4.7235911041244798e+01  4.7937895911490330e+01  4.7916429944937256e+01  4.8668447774655206e+01  4.8705025230945964e+01  4.9458159986550911e+01  4.9436125837698370e+01  5.0256171525649279e+01  1.7426538320947536e+01  1.7150145753713730e+01  1.7116421626857729e+01  1.6880946772596850e+01  1.6808858748103674e+01  1.6556985309178692e+01  1.6542077673877479e+01  1.6258207485378506e+01  1.6231266300634999e+01  1.5970310375628300e+01  1.6009444611801968e+01  1.5730914526314157e+01  1.5681942887438684e+01  1.5449550472816572e+01  1.5395322348389694e+01  1.5156134097409421e+01  1.5112821421228269e+01  1.4872924992199707e+01  1.4813351092935727e+01  1.4586593601767376e+01  1.4646002289173044e+01  1.4365258400507008e+01  4.4708727681253983e+01  5.0237035988824367e+01  5.1099029377308199e+01  5.1125150346721249e+01  5.1992883994345391e+01  5.1965880299761949e+01  5.2885721027379226e+01  1.4317431611538499e+01  1.4094094208481717e+01  2.0096369604195452e+01  2.1285736914546298e+01  1.6580765517564210e+01  5.2864671674265907e+01  5.3830567786544719e+01  1.7043138216768138e+01  4.0899436187246124e+01  2.8600374421719170e+00  1.4424733734195549e+01  1.4698277898132858e+01  3.6910523620433622e+01  4.8627536874662364e-01  4.4513514138038879e-01  5.3682245597548807e+01  7.8739147648990240e+01  3.1046371803045862e+00  1.6105067947060004e+02  1.7361664079101499e+02  1.6711992161314649e+02  5.3110532522158913e+01  4.1795327081442650e+01  2.1614619138428381e+01  4.2735220822583223e+01  2.2297878930294161e+01  6.3110438725549081e+01  7.4194329632827882e+00  4.4756710026697696e+01  5.2036014326919691e+01  3.2900664306240650e+01  6.1089580924140073e+01  9.7054511149999434e-01  7.1344750402406262e+01  4.6458773376969704e+00  4.9243085230299384e+00  4.7200737016131171e+00  4.9944093807144210e+00  4.7947609108433999e+00  5.0671509408534385e+00  4.8890458289896550e+00  5.1746034996737871e+00  4.9796392326111496e+00  5.2758293008077954e+00  4.7033442361022155e+00  5.4990962247516171e+00  5.6054564647752771e+00  5.8241505976643140e+00  5.9400278507603090e+00  6.1374538732499735e+00  6.2710940036661880e+00  6.4837866420436319e+00  6.6562594224286054e+00  6.8548423536242744e+00  7.0048964636491693e+00  7.3101735304920110e+00  7.4422820345594269e+00  7.6873503470482163e+00  7.8541733748129570e+00  8.0787266367216137e+00  8.3024359172581939e+00  8.5083835685136791e+00  8.7552687702258432e+00  8.9875571342968339e+00  9.2319388720980005e+00  9.4794481525893897e+00  9.7379830096640330e+00  9.9879266147586918e+00  1.0242607027599240e+01  1.0520813023163141e+01  1.0781999302521800e+01  1.1059158639198902e+01  1.1364269209361975e+01  1.1599255828755540e+01  1.1971615050064752e+01  1.2218514324416017e+01  1.2603522536365958e+01  1.2873418821111722e+01  1.3184138801720971e+01  1.3539661109041365e+01  1.3902666287902704e+01  4.7972934468744173e+00  4.5246923696378856e+00  6.0685548738813244e+00  1.4192143038510686e+01  1.4599077927176527e+01  4.6250850307254199e+00  4.3587661295901494e+00  1.4826874771301020e+01  1.5345676513169730e+01  9.2170542314812245e+00  1.1332021266138053e+01  7.1969419955354175e+00  7.8785152238835412e+00  4.4635738598790047e+00  4.2060350290405646e+00  4.7352821057562391e+00  4.1063687989017668e+00  3.9567174712541897e+00  1.5561124687901637e+01  1.6086177506167214e+01  8.4837932298963956e+00  3.8591229312723807e+00  3.7142948447007966e+00  3.6256298230090156e+00  3.4896660320135551e+00  3.4084925850021350e+00  3.2744986669109424e+00  3.3546073577563433e+00  3.1472439920981672e+00  3.0697086392068278e+00  2.9495044361734002e+00  1.3673506953153289e+01  6.7552648255226915e+00  1.0002217753725533e+01  2.8752603952225400e+00  2.7624976184294256e+00  7.4249058195619411e-01  4.5004797434181150e+00  6.6529293283094802e+01  1.2035163579580386e+02  1.1671540927326220e+02  1.0044423289470823e+00  2.0562169381034657e+01  2.1363950259295731e+01  3.2339227329300662e+01  3.2716237745781960e+01  3.2177627461369873e+01  1.1130173714782638e+01  1.1469963136039484e+01  1.1003900716227355e+01  1.1335203272544273e+01  1.1795444000533942e+01  1.0884835419341663e+01  8.3972558068352043e+00  8.6903572372568529e+00  8.3098342673306274e+00  3.3624152600927452e+01  3.4282351218719548e+01  3.3911619624584830e+01  3.4597597790113234e+01  3.4238170883846649e+01  3.5018653240134206e+01  3.4635336515902928e+01  3.5445317547137051e+01  3.5030979861266928e+01  3.5866494389429207e+01  3.4245215896731700e+01  3.4654096954233808e+01  3.3863307313223615e+01  3.6249545350661556e+01  3.6734660997397349e+01  3.7147531032110400e+01  3.7714115915339207e+01  3.8094375566487294e+01  3.8676811179769430e+01  3.9082523207490148e+01  3.9719880110081640e+01  4.0072173060743275e+01  4.0719920553556392e+01  4.1156905210262700e+01  3.7306740696526170e+01  4.1862312496014354e+01  4.2311906409526458e+01  3.4259663344827679e+01  3.3452430332191078e+01  4.0314066530731985e+01  3.3878385634772407e+01  3.3086423607398679e+01  4.3081133861195788e+01  4.3502727577668864e+01  4.2747812801276496e+01  4.3925083927230830e+01  3.2690154828545609e+01  3.2310313683030820e+01  3.2682588873795268e+01  3.1900655497647701e+01  4.3179103975890150e+01  4.4354840327302227e+01  3.9486545429888338e+01  3.1531806690711242e+01  3.1132419885675670e+01  4.4330199280349071e+01  4.3909165152247354e+01  3.1501596015681415e+01  3.0729346836917127e+01  4.3623550313881658e+01  4.4819463261283659e+01  4.5583677200069175e+01  4.6042468512672102e+01  4.5288833723051845e+01  4.6510066647763708e+01  4.5762236034861054e+01  4.6961911625375933e+01  4.6250904942791180e+01  4.7442693936292841e+01  4.6741637744031145e+01  4.2498058385483823e+01  3.4736256789457336e+01  3.0405272053368034e+01  2.9994839928272839e+01  3.0340218836137733e+01  2.9602625248105003e+01  2.9306007803038060e+01  2.8911447627367966e+01  2.9214005659195486e+01  2.8543838033617384e+01  2.8805604996909132e+01  2.8101921791544495e+01  2.7826220293849474e+01  2.7411287805887611e+01  2.7719131034465700e+01  2.7049805813155487e+01  2.6826999240605254e+01  2.6462692226363899e+01  2.6653051802667743e+01  2.6000791280891182e+01  4.5251235952865123e+01  4.4839667324566619e+01  3.7522983992014233e+01  2.6271516392922322e+01  2.5593569620386301e+01  4.6861731331223012e+01  4.5597614622258398e+01  8.6457954509494002e+01  3.4340405867265332e+02  1.0305880801588232e+00  4.5671549525546467e+01  3.2009292493780414e+01  2.0665283114403625e+01  2.4850719427159703e+01  2.9466832736430618e+01  3.4869361195108510e+01  7.4533274379455847e+01  7.2406933651178429e-01  1.6038413718237712e+00  3.7668355036057491e+01  4.8678020104755852e+01  3.8668433880622743e+01  3.8537156719889396e+01  6.2545259521201482e+00  6.4693819569825983e+00  2.0045367633427389e+01  2.0429066594966276e+01  1.9845160227750650e+01  2.0231480018671679e+01  1.9677097022705350e+01  2.0049304396721961e+01  1.9526886123338279e+01  1.9158283497763069e+01  1.9895851975020779e+01  2.0409180974431834e+01  1.9049444446060420e+01  1.8660740570447981e+01  2.0269182336081265e+01  2.0766948261593971e+01  2.0646071620585783e+01  2.1142228619896130e+01  1.8516562412269913e+01  1.8175389782505999e+01  1.8899771158626766e+01  2.1328167976083510e+01  2.1694264002389641e+01  5.4525404232237399e+01  3.8728205227614353e+01  6.8368010725195987e+01  6.6782044753120488e+01  7.0340172874954717e+01  6.8332809733688833e+01  7.2191669954713291e+01  7.0330266558609708e+01  6.6841636038240154e+01  6.8420070414326844e+01  6.5255810788710448e+01  6.6517057844932097e+01  6.2970904868928812e+01  7.3938186494000959e+01  7.5722718532397721e+01  6.4800655261852924e+01  6.1160569866066183e+01  6.7999626399687415e+01  6.3282589763961425e+01  5.9618670175274225e+01  6.1150136543319668e+01  5.8157726824490872e+01  7.7386213505830042e+01  7.9436559871049582e+01  5.9797517181127020e+01  5.6725992013171386e+01  5.7715214939773787e+01  8.0917480331979334e+01  8.2636555610207921e+01  5.8360928879716788e+01  5.5636341055074979e+01  5.7195402894881632e+01  5.4603450596563192e+01  5.6117949321047860e+01  5.3733028263011228e+01  8.4307819592779452e+01  8.5787765902440370e+01  8.4119277293202785e+01  8.7050776537056109e+01  8.5254048143150115e+01  8.7842884683020003e+01  8.5711736606186449e+01  8.8001701970686213e+01  8.5650742718496147e+01  8.7661669342980161e+01  8.4997183777127006e+01  8.6529816314332464e+01  8.3919379189381118e+01  8.5149590843426907e+01  8.2414044024932707e+01  8.3446085534389141e+01  8.0549515050181526e+01  8.1318623011796660e+01  7.8479759004245494e+01  7.9038499662300779e+01  7.6233605362471607e+01  7.6666174656412537e+01  8.3814319811886378e+01  8.2472893232042324e+01  5.4000844825096195e+01  5.5464556906923868e+01  5.3040742884760469e+01  5.4948727837733983e+01  5.2484587801224862e+01  5.4739674711307288e+01  5.2089707630694228e+01  5.4255060163187466e+01  5.1897206196069881e+01  8.9759963322548757e+01  5.3972390474787055e+01  5.1668995337322436e+01  7.3944402197884457e+01  7.4208020836352034e+01  7.6909881438356635e+01  7.4544585535081850e+01  7.7136864922708028e+01  7.4803598256184443e+01  7.2208708747648814e+01  7.2493597756630024e+01  7.3381266470934563e+01  7.0031313523373498e+01  7.0301346846235433e+01  7.7275818956212973e+01  7.9596229230853695e+01  8.7434739868212830e+01  5.4262731403823068e+01  5.2178620168289051e+01  7.9646110068371414e+01  5.4567798726099376e+01  5.2533364268680423e+01  5.4594641805294231e+01  5.2691449785582037e+01  5.5041738677190274e+01  8.2454478624054730e+01  8.7841425814133558e+01  8.9466047489902124e+01  6.2971250500908013e+01  7.0741372016760522e+01  7.0417401005875959e+01  5.1381517561517015e+01  7.2701307145882723e+01  7.0575503377996753e+01  4.6935515428751655e+00  4.5760036858392530e+00  4.7412890653546516e+00  3.8284082399970671e+00  1.4010836252227165e+01  1.4416109562694331e+01  1.3855741990095419e+01  1.4243717929239846e+01  1.4802919339215276e+01  1.3620191618802162e+01  1.5080781790940470e+01  1.6143956147310785e+00  3.6991538966157044e+01  3.7395149159291407e+01  3.6745460132937346e+01  3.7154953939729374e+01  4.3654091707313086e+01  4.5785759075543053e+00  6.1058491429063324e+01  7.6250684292879384e+01  7.6612998629008402e+01  1.4608755243517034e+01  1.5200683067514097e+01  2.6934819704443624e+00  2.5857967397886310e+00  2.5254742349382626e+00  2.4194644447149640e+00  2.4792341174271164e+00  2.3171487536746378e+00  2.2572851270162890e+00  2.1686555685139455e+00  2.1128090829366930e+00  2.0224206078704738e+00  1.9581697823245359e+00  2.8690205684288227e+01  9.1935302016487537e+00  9.5948014874735925e+00  9.1353788086505805e+00  9.5539505916353491e+00  9.1183072278159685e+00  9.5675656087184873e+00  9.1332044069369704e+00  9.5604493688447256e+00  1.0042100959135174e+01  1.0078169088146575e+01  1.0513673532619052e+01  1.0586961739439962e+01  1.1014172940448647e+01  1.1112484098456294e+01  1.1602267136054943e+01  1.1704047445862972e+01  1.2235802884061256e+01  9.1816070242298657e+00  1.2271450395775108e+01  1.2836652147598194e+01  1.2725471758315576e+01  1.3406586116134321e+01  1.3507863258268930e+01  1.4070898330234666e+01  1.3973575685241832e+01  1.4667051323690687e+01  1.4565510489539255e+01  1.5281305673153668e+01  1.5413011860962930e+01  1.6035080162764363e+01  1.6196803886561085e+01  1.6841385623218120e+01  1.5178533416688850e+01  1.7023791445856311e+01  1.7670855658362274e+01  1.7479415258779927e+01  1.8332920194099522e+01  1.8575075693265561e+01  1.9269321634223598e+01  1.9547671181337154e+01  2.0361445262483691e+01  2.0607123423133928e+01  2.1416877021559305e+01  2.1676576908329782e+01  2.2566891544331583e+01  1.8134697603247940e+01  2.1086413247536964e+01  1.0581828697218761e+01  2.2883343057348643e+01  2.3785144353395726e+01  8.7115032931179197e+00  8.6983021591937266e+00  8.2575373191137906e+00  8.3036869858300140e+00  7.8742226025968813e+00  2.4180915769322613e+01  2.5124900861656990e+01  1.6348109237173418e+01  2.5620648663848304e+01  2.6436188127254276e+01  2.5840003461888529e+01  2.7210718718476198e+01  2.7849153025959009e+01  2.8787638222787447e+01  2.9483487353001259e+01  3.0406850540361454e+01  7.9290611973505403e+00  7.5051251865570636e+00  8.3547415512746905e+00  1.9871713591545856e+01  3.1170420874500383e+01  3.2162420753347703e+01  3.3082984410748857e+01  3.4092838614175392e+01  1.4499440735545409e+01  1.5118214185095306e+01  7.5634867128265730e+00  7.1657299639503567e+00  7.1230525371231233e+00  6.7778663885882642e+00  3.5068215652475274e+01  3.6065174574344944e+01  2.6697238541961564e+01  6.8282322508939419e+00  6.4554135704239490e+00  2.3362566390203902e+01  1.1070709863643193e+01  3.7213075815915111e+01  3.8205187246031066e+01  1.4463011014032423e+01  1.5109947432584244e+01  3.9680005685755624e+01  4.0790396556725703e+01  3.3215580728693780e+01  6.5053302314037493e+00  6.1456375496707603e+00  4.1965181101886628e+01  4.3262905049448634e+01  3.0313195623760393e+01  7.8541230636193955e+00  6.7418162565472377e+00  6.0854880375573366e+00  5.8318556309682013e+00  2.0786069450668554e-01  8.1808018981560949e+01  8.1144490565539030e+01  8.1866628886833240e+01  8.1018761955008259e+01  8.1416020802081789e+01  8.0408200343163301e+01  8.0241099195028355e+01  7.9496987375940719e+01  7.9577669166741629e+01  7.8636140341365191e+01  7.8949816893395521e+01  7.7879536519296295e+01  7.8406497367291649e+01  7.7186556240185382e+01  7.7882593655603387e+01  7.6602370568601145e+01  7.7466934067653625e+01  7.6063572193222882e+01  7.7218611185638693e+01  7.5594724309879410e+01  7.7063331868295720e+01  7.5262682320386460e+01  7.6926321302031553e+01  7.5031845772847134e+01  7.6825734071554592e+01  7.4859822076862983e+01  7.6819931865968911e+01  7.4673321001452251e+01  7.6863009180131556e+01  7.4731443158662458e+01  7.7019382434128985e+01  7.8562155025141436e+01  7.4873906487791643e+01  7.7226554573644833e+01  7.5065414375497710e+01  7.7705978636302177e+01  7.8399989266186623e+01  7.5304871707162121e+01  7.8220741015573552e+01  7.5785657814854645e+01  7.8518728239170215e+01  7.6301790875080087e+01  7.9647167174896552e+01  7.6928816140936362e+01  8.0023506496999502e+01  7.7362735346237059e+01  8.1156663876578023e+01  7.8347382556877633e+01  8.1934101198306735e+01  7.9407927936837979e+01  8.3165869064540004e+01  7.8800116521884235e+01  8.0650100376160225e+01  8.4562287952018067e+01  8.0482159593421542e+01  8.2207291074548294e+01  8.6013067835100728e+01  8.3874174074918528e+01  8.1688601957324707e+01  8.7621747741957620e+01  8.5733688318893712e+01  8.8932630597207904e+01  8.7747387096129543e+01  9.1453062212314052e+01  8.9951093752047100e+01  9.2949348893451514e+01  9.2224931539292342e+01  9.5104988356637620e+01  7.6478474379679753e+01  8.1201673950652037e+01  9.4934472317054031e+01  9.6499825840702755e+01  9.7941789721667178e+01  9.8667489242679167e+01  1.0078478608799121e+02  1.0104601439018816e+02  1.0365206859484832e+02  1.0415480854937680e+02  7.4383399566646261e+01  8.0402551109798864e+01  8.1753149011250684e+01  1.0815546781121205e+02  1.0544362709034689e+02  1.1111689542737898e+02  1.0831542021547710e+02  1.1563971403799511e+02  1.1070699938472110e+02  1.1907542613911096e+02  1.1298378147039553e+02  1.2292287088970176e+02  1.1538491198179892e+02  1.2748887064919863e+02  1.1602034382752507e+02  1.3066264738416632e+02  1.1853477697735600e+02  7.2343431441064126e+01  1.3268036184346920e+02  1.1960255681140407e+02  1.0034829351112512e+02  8.3506660962877774e+01  1.3548600547260520e+02  1.1870225036642505e+02  1.3871445684081303e+02  1.1935314890718487e+02  9.5530156589049575e-01  1.0143360655003368e+00  7.1454745649519469e-01  7.7090377126562604e-01  7.8670386195628583e-01  5.0819821605560016e+01  9.6986367539665892e+01  6.8922568361583473e+01  3.7690156948621073e+01  1.8046708676329843e+01  1.8333891289029847e+01  5.9270285036476146e+01  5.9077276288242313e+00  6.1016058417873476e+00  5.9604781940038816e+00  6.1543968486449012e+00  6.0181796400820815e+00  6.2093378625958504e+00  5.8284782230353098e+00  5.1282376285334044e+00  5.3455269077018990e+00  8.1524927053197001e+00  8.3957492594013026e+00  8.2093669851655324e+00  8.4472923796683084e+00  8.2652421557424791e+00  8.4896283521334990e+00  8.3258379067263011e+00  8.1024212011581511e+00  8.5514926596824257e+00  8.7165163692418464e+00  8.7772178540086809e+00  8.9460564327713197e+00  9.0087303267704222e+00  8.1649165827660362e+00  7.9431333658995191e+00  9.1797274028901228e+00  9.2318692253247807e+00  9.4111217825057949e+00  9.4977637656517686e+00  9.6559955388931229e+00  9.7322678226210506e+00  9.8720767017758710e+00  9.9307454272522797e+00  1.0111589874218732e+01  1.0179709824309906e+01  1.0356103441466617e+01  1.0430960349268096e+01  1.0601742452761300e+01  1.0540810564618216e+01  1.0782603169052139e+01  1.0846612541865676e+01  1.1028079690382979e+01  1.1088586058480464e+01  1.1281817386827299e+01  1.1215698808925595e+01  1.1475070305226481e+01  1.1534155395714821e+01  1.1729629644426925e+01  1.1790848719860605e+01  1.1987550453915322e+01  1.2052489179880990e+01  1.2251105465313341e+01  1.2309483980594795e+01  1.2503639854703794e+01  1.2444285102084772e+01  1.2696444268697778e+01  1.2817145108465379e+01  6.6336423276953216e+00  6.8678658563162109e+00  6.6419522982174106e+00  6.8799270932191083e+00  1.1705805355315050e+02  9.3552790625882953e-01  8.1733348514288878e+01  8.2218817103381753e+01  8.0287260698736432e+01  8.0541053477007225e+01  7.8554768711615452e+01  7.8686587021263406e+01  7.6686824251935860e+01  8.0834993409513046e+01  5.8169362548580983e+00  1.1374858255061513e+02  1.1821392773765420e+02  1.1204929983469974e+02  6.3668401514497752e+01  4.9613629757502515e+00  9.4459962194560987e+01  8.0360323439461077e+00  1.2516427172147855e+00  8.9909201128643339e+00  9.2719287918224271e+00  8.9798965550824938e+00  9.2539578315245556e+00  8.9731163288815701e+00  8.7040917426482221e+00  9.2445236732687555e+00  2.8780921779302671e+00  9.5274717875905743e+00  6.1627677348436318e+00  7.8898184695319344e+01  8.1105409877399552e+01  5.2240091457297801e+01  1.1120735981601168e+01  1.0694998194314893e+01  1.7339467628004570e+01  1.3944047045876451e+02  1.2335751597600969e+02  1.0501967983345004e+00  9.9025163612451872e-01  1.0704581110923439e+00  1.2340546318028990e+01  2.3127204307157381e+01  1.5485401756175859e+01  6.0364985862102202e+01  1.6721401132101875e+01  1.7115465031041026e+01  1.6618804316999345e+01  3.4036040792290754e+00  3.1929575187628094e+00  3.3721964340861246e+00  3.1715291216612278e+00  3.3592152248835982e+00  3.1732239124757560e+00  3.3643971308312617e+00  3.1771686607163740e+00  3.3748083110467388e+00  3.5664367271145094e+00  3.5783501757722473e+00  3.7816060086259990e+00  3.7994411692810073e+00  4.0101168240739442e+00  4.0309754769551924e+00  3.1891929546791169e+00  4.2444100767878243e+00  4.2741743888153980e+00  3.0004634671581933e+00  3.0297666296892833e+00  3.2229995466481363e+00  2.6321812566771442e+01  2.6645191681393914e+01  2.6353025006880799e+01  2.6699624946648932e+01  7.9088556401478144e+01  2.8312187832673214e+01  2.8639447710372497e+01  2.8318524720543621e+01  2.8642713014306331e+01  6.1956036874186271e+00  2.6446104224972149e+01  2.6817628322074786e+01  6.8923415839397322e+00  2.9942697477216336e+00  1.5193359032795401e+01  2.8445664463169869e+01  2.8797747876578168e+01  3.0349164128100544e+01  3.0709274575616003e+01  3.0360388904872181e+01  3.0705063778029764e+01  2.1430110333217282e+01  2.1872215520525920e+01  5.8583665006080096e+01  9.4114941397285747e+01  9.6129274951420967e+01  9.3949466998625340e+01  4.9504634963495199e+01  2.5538305555575626e+01  3.3730175659312025e+01  3.4101200175824978e+01  3.3693244053924431e+01  3.4072165217812312e+01  3.3692787600640372e+01  3.3326515446711277e+01  3.4057761309534207e+01  3.4439546243066097e+01  1.1772369039321244e+01  7.6720739295971072e+01  7.4880437556005248e+01  3.3439556272146930e+01  3.9896687446070686e+01  3.8444163901654392e+01  9.3968682599719827e+01  2.3440434130290889e+01  5.8069800671445869e+01  3.4352801328431013e+01  3.5271059759037250e+01  3.4892253352901854e+01  3.5852131619274346e+01  1.2417197629463550e+02  5.8079684815553755e+01  2.0860088894739810e+01  2.4040625158655789e+01  5.8431791343432650e+01  2.8240454569009778e+01  2.8419452565784155e+01  8.0197516842301454e+01  1.1168621838098002e+02  1.4521369842141542e+02  3.5649716091173342e+00  8.2047286656762481e+01  4.8579600421390348e+00  6.7817463014316601e+01  6.9730472974199003e+01  6.7913387013276889e+01  6.9845231564218309e+01  6.8051410951260991e+01  6.9962493347555380e+01  6.8205882241440378e+01  6.6374572804036561e+01  7.0146517976763704e+01  7.2029614626080345e+01  6.6490262034476515e+01  6.4778565504625632e+01  1.6857172135793223e+02  1.8133654371060157e+02  1.8522096359594590e+02  2.0043197404225324e+02  1.9501674919701424e+02  2.1784446788872535e+02  2.1049024836375173e+02  3.9865031643507121e+00  1.2947587733046168e+01  1.3241351894851029e+01  1.2942205530429970e+01  1.3241896160496124e+01  1.2931524772264735e+01  1.3235876754179690e+01  1.3580137695810178e+01  1.2928702418614181e+01  1.2608320191873919e+01  1.2574190578120568e+01  1.2262216687240619e+01  1.3575762853300095e+01  1.3933088819899785e+01  1.2268587943303174e+01  1.1934422932085646e+01  1.3931117185945205e+01  1.4308820254972913e+01  1.4632560077167540e+02  1.4699821986275657e+02  8.7216780445275475e+01  1.6099629840579382e+01  1.6447786836982448e+01  1.6121674996924863e+01  1.6482798350817291e+01  1.6135283029742872e+01  1.6527024463301629e+01  1.6130489860628163e+01  1.5781746747560259e+01  1.5766877300118347e+01  8.0880299520999131e+01  7.2988167751204514e+01  6.6566869197694372e+00  6.4297551075950441e+00  3.8452535263225549e+00  5.0268596958630809e+01  7.2385118133193203e+01  9.4798129568217945e+01  5.9090945343361128e+00  6.6233226742924556e+00  2.3835960199429035e+01  5.1013953575741153e+00  4.9034852735095269e+00  9.0107817379468997e+01  8.3177171725863147e+01  8.6270168577142854e+01  5.0925070759007788e+01  4.9669838972150131e+01  2.4085868940232125e+01  4.1723625014639154e+00  4.8758444443708427e+01  8.0086745317999188e+00  8.6957684811231619e+00  9.1165178378951680e+01  2.2273238364430045e-01  8.3608786746615692e+01  1.0715777695698227e+01  1.1180829795346808e+02  1.0582486292765135e+02  9.0426932611208954e+00  7.9351325997173788e+01  1.4488019032159077e+01  4.6039346400093031e+01  1.5643679647835928e+01  5.7472015092356932e+00  1.7919548846319508e+01  8.1416071269333770e+01  8.4853139708076498e+01  7.9933220695913562e+01  8.3563521158016954e+01  7.8565536260849157e+01  1.8786049957930782e+01  1.3179069856192132e+01  1.9985910686868770e+01  1.8808790258211342e+01  4.0802799624733559e+01  2.3096188730235749e+01  2.7350664584652520e+01  1.7153961007270038e+01  1.6745431734599521e+01  1.7317877073766276e+01  1.6901040944711610e+01  1.7498986644267454e+01  1.7056249508779093e+01  1.7673533529064134e+01  1.8099007927339976e+01  1.7198259830141517e+01  1.7856464150997123e+01  2.9410791377903802e+01  2.3808064209129956e+01  2.8901542435928501e+01  3.0497022918551558e+01  3.3946684731714953e+01  3.3576486340926685e+01  3.4043673046862089e+01  1.3136192349357460e+01  1.2734863943249206e+01  1.3313729091398123e+01  1.2888421469379162e+01  1.3484982657450720e+01  1.3044151666650063e+01  1.2477356681332973e+01  1.3660349051865417e+01  2.6917023340349569e+01  2.9548832683226205e+01  3.2373586520239996e+01  1.5005402215512970e+02  1.5090781372132486e+02  1.5481245806942417e+02  1.5500924519917464e+02  3.0155755048199111e+01  2.9753517179976566e+01  2.8596292572911150e+01  2.5337533148082844e+01  2.3519079673210921e+01  3.6933454964533560e+01  2.6855499294090599e+01  1.1662522272377720e+01  9.5650987280486873e+01  9.3241035627214259e+01  9.8158467566679079e+01  1.1928791668950677e+01  4.2852943265462578e+01  4.1098489799668073e+01  3.4743089740707580e+00  4.6706131719405107e+01  4.6216921473294953e+01  4.5788868971193594e+01  4.4383981631190331e+01  2.9652024852531770e+01  6.9131049048686805e+01  6.2637714407320573e+01  1.2392242411490196e+01  1.1909137972183478e+01  1.2571984674700667e+01  1.2090964943790796e+01  1.2787997160640435e+01  1.1430574682600275e+01  3.3973214738942765e+01  4.4135230498804958e+01  5.5337944870732386e+01  3.6523565773954680e+01  5.7762115409095327e-01  5.2994017851091337e+00  4.7055798868841798e+01  1.6739987376204946e+00  1.6160065858470760e+00  1.0243332430924397e+01  1.4173834010047096e+02  1.2436037324031030e+02  1.4259697510233002e+02  1.4437918369913861e+01  8.8374588893435714e+01  2.8400161987205013e+00  7.9220211663058762e+01  6.8761185643323728e+01  9.3837577487681969e+01  1.4034801076425822e+01  4.3403825220019364e+01  1.2431794937593961e+02  1.4159110115791987e+02  1.2297252661224285e+02  3.8235174445318982e+00  4.6606875144754014e+01  3.6859782337343128e+00  1.0506135780324945e+02  1.0054130876185390e+02  1.0126315185382401e+02  9.6474557002050275e+01  4.9907495728235645e+01  5.8179405909760519e+01  6.0766735015355771e+01  5.3848289893089301e+01  5.4844308226502811e+01  5.4821331727790188e+01  5.5870876511593814e+01  5.5884305496755630e+01  5.7014207259743294e+01  1.6346415534256145e+01  1.6864686687300321e+01  1.6617744110625029e+01  1.7431702314335400e+01  1.5774206970660220e+01  1.5780498259298492e+01  1.6458673290084974e+01  1.6508867422060604e+01  1.7197653418547045e+01  1.7192341952340215e+01  1.7900619943406639e+01  1.5852429140563315e+01  4.7753699544119861e+01  6.0232501018090055e+01  2.9613689243605439e+01  2.8446609838349797e+01  5.2947198006463914e+01  5.2460851574298196e+01  3.1587142266314174e+01  2.8293610517320138e+00  2.6974574040123764e+00  1.7428571465818052e+02  1.7657971426049349e+02  1.3517078032802115e+02  2.2392316544529072e+02  4.1639409841643996e+01  7.2474514295906417e+01  4.4948972685440740e+00  4.5351104872753352e+00  4.2152516258399766e+02  4.0447129268882986e+02  4.9427886601360669e+01  2.0912691798280399e+01  5.8857947786669671e+00  5.7064688404772621e+00  1.3276246043973419e+01  1.3512366403097227e+01  4.1683900267089392e+01  1.3213486305042284e+02  2.7256711545785488e+00  2.7437409712920879e+00  1.6221266893630850e+00  1.5130165792741110e+00  1.2650193927298529e+01  1.7497686288321864e+02  1.7971841167780585e+02  1.8077748328648158e+02  1.8394830262916133e+02  1.8528963526839405e+02  1.8862066562463664e+02  1.9009272959682701e+02  1.9298629600584744e+02  6.7883303360524906e+01  3.8912016586537450e+00  9.5879013918548111e+01  9.2217659949273795e+01  8.9408463493034105e+01  1.2634406379252979e+01  1.2039824704293148e+01  5.7969452494005125e+01  5.1809750684415024e-01  4.8496839438155021e-01  5.5411907234664137e-01  2.2306360058224204e+00  2.6249931709578043e+01  2.4972310040843723e+01  7.4899571178505369e+01  4.0724449050214122e+02  4.5144437702795881e+02  1.8070487982331507e+01  3.8975508436222356e+01  1.4110038617677185e+01  1.4294675198239043e+01  2.2045280283806599e+00  1.2919352570803280e+01  4.1087966394180768e+01  3.9368209869787606e+01  1.0370982220159547e+02  4.4883951137233140e+01  4.6006420447532690e+01  5.1869330321597849e+00  5.0066824460145298e+00  9.1855375737455674e+01  9.0999525789825000e+01  8.9875096604732732e+01  8.8895227122522670e+01  8.8285520741259731e+00  8.4748644948395224e+01  8.4046949608276435e+01  1.0135551260934941e+00  4.0601560201550075e+00  7.5058207210859038e+01  7.3207191108925954e+01  7.3299238282171189e+01  7.1577642938733646e+01  7.2163514034057229e+01  7.0085660346790306e+01  4.3777641983302734e-01  4.0753308269762006e-01  4.5824312134092928e+01  4.9268038883069221e-01  4.5468570700967870e-01  1.7214043889239239e+01  2.1783508942219494e+00  4.9587058430013897e+01  2.1024735633278344e+00  1.4144132002379067e+02  1.9896115305959448e+01  3.4432491979878286e+01  3.4806176122646853e+01  8.7570745717718790e+00  9.0602085703315058e+00  1.2445313967616298e+02  1.4021947237933023e+02  7.2875601218002345e+01  7.0812085761747468e+01  6.8533313091012445e+01  6.8866715388685236e+01  7.2263253059366832e+01  7.4351846072016045e+01  5.3015414783321269e+01  1.4466713492019879e+01  1.3844940571613902e+01  6.1917426495087540e+01  1.5059986838423473e+01  2.4672568721422024e+01  1.9780296559751594e+01  3.7796769544563134e+01  8.6691388637497894e+01  1.1951384509760970e+01  1.1634802398794905e+01  4.3200546228477812e+01  7.8667209651409635e+01  7.7228234540458800e+01  2.1141983945556955e+01  2.0184919109067465e+01  1.8967498997586998e+02  3.3667349926174644e+01  7.2865941997166289e+01  1.3981820358366839e+01  2.8381847493886379e+01  5.0992018546741882e+00  6.6648323530813471e+01  6.7038153028677172e+01  4.5365258840794503e+01  4.3964846056267376e+01  1.9045982497943570e-01  3.7710879917328337e+00  4.6284282085128199e+00  4.7955083478843674e+00  4.4660701755165997e+00  1.4275642423548350e+01  5.9522377261939550e+00  9.2727182787969397e+01  8.8841282439370090e+01  8.8350130663539716e+01  4.7506768147764149e+01  6.4321978658355772e-01  4.7973434503148923e+01  4.4840655966011556e-01  4.1945780464006377e-01  1.2338985439148955e+01  2.4341117367124117e+01  2.6801980107555256e+01  2.6442020565302158e+01  2.6200386204683941e+01  4.0147709220363010e+00  3.3906866099637206e+01  3.5470989801411314e+01  3.6476222251629643e+01  3.4542291079113390e+01  3.6879825864531455e+01  3.7554701824773616e+01  3.7971764756809648e+01  3.8682516612084846e+01  1.4775020871652263e+01  1.4967608150754076e+01  1.5465425625186750e+01  1.5685956323465591e+01  1.6178996392523700e+01  1.6408211605069276e+01  6.7588069617885225e+01  7.4547199968340379e+01  1.4980450197525059e+02  1.5444987125548434e+02  1.6011508441226155e+02  1.5952046466813377e+02  1.6511256841727521e+02  1.6523968270304442e+02  1.7106966632218388e+02  1.7142074807743677e+02  1.7673161638279836e+02  1.7864355905205142e+02  1.8355785275595619e+02  1.8743053524460984e+02  1.9151542962882482e+02  1.9439328558927252e+02  1.3950931805875089e+02  1.6974426765125738e+01  1.4267938884819349e+01  2.0017483340439560e+02  2.0496436323089048e+02  2.0971882535848343e+02  2.1311814511502160e+02  2.2065497657148413e+02  2.2550718850675821e+02  2.9135457420841572e+01  2.8471030941612780e+00  6.9346621219505644e-01  3.3309172852821582e+01  3.2937648588197646e+01  8.2231956113012401e+01  7.7278930936914051e+01  5.5412493162539729e+00  5.8271958667075952e+00  4.5507711159991177e-01  4.9817555749141007e-01  2.8672816900856439e+00  3.8169958656999019e+00  1.0976198233574639e+00  1.1568341114891654e+00  1.2925394091053770e+01  1.9443525420199126e+02  1.9707691207288286e+02  4.0682252398775972e+01  4.0605573731399417e+01  2.1334500531394269e+01  2.1653399693251597e+01  4.9082638049968157e+00  4.9588109970986034e+00  4.6504071752810447e+01  1.6955071549903904e+00  1.6256953019341498e+00  5.6282585818043067e+01  2.4489565112937726e+02  2.5411224605584854e+02  5.3225578680846432e+01  5.5885775819103387e+01  1.6493023625354581e+01  7.0606874134474964e+01  9.5209820022417571e+00  9.8168104282350654e+00  2.0384877818116161e+02  7.2239350016465051e+00  5.7649412200810977e+00  7.4568550842619373e+01  4.9321795501469097e+01  8.8029929064324293e+01  8.6880403404312574e+01  2.8191183291752453e+00  2.4561263758284326e+01  2.4245853459053560e+01  7.2622747588422931e-01  7.8322020288236371e-01  3.9100578882787396e+01  3.9847929397893758e+01  1.8764221629256507e+01  2.2128101103601860e+01  3.1509285034241891e+01  1.2054992379651831e+02  3.8307018185771874e+01  8.0659406420677740e+01  3.7567478422118121e+01  4.3176839061269607e+00  4.5694638151357463e+00  1.2081822670793659e+02  1.1670843783129990e+02  1.7986631913152436e+01  1.7269726035594090e+01  1.8638407485964255e+01  1.8643088779712087e+01  1.9383184443432796e+01  1.9380965888546779e+01  2.0190206552140147e+01  4.7978221709847070e+01  4.9031927407871535e+01  5.1047327251731453e+01  5.2272544968788999e+01  3.0448766267653429e+01  1.1592359295527507e+01  1.0951810629492426e+01  5.0242397112467494e+01  6.1207145540577422e+01  4.0978628041250261e+01  4.2670240283588534e+01  1.4802603636098809e+01  1.5065777250253451e+01  1.5562851041779250e+01  2.2648807497174423e+02  2.1714291614488596e+02  1.2364864688504422e+02  1.3923361661537737e+02  1.2361622839380759e+02  1.3757505695865959e+02  1.1238614689412073e+02  1.8301958498403391e+01  2.1891770283462799e+00  8.9330068872099574e+01  7.9146188794467633e+01  8.1443993427622260e+01  6.8834223402254054e+01  6.9400113343247469e+01  8.2662500100946872e+01  2.1884419764587012e+01  2.2261599592689226e+01  5.0266511800478909e+01  2.5895194980684093e+00  1.9839277411578732e+02  2.0131027399749934e+02  6.4896993879970722e+01  6.3294613548840452e+01  6.3237248754832052e+01  1.1662626951151813e+02  2.5966863875209834e+00  9.5150937976954242e-01  1.0155483467148385e+00  1.0772610977292254e+00  5.7433091983903857e+01  1.8352502703151150e-01  9.2079922721074695e+01  3.0401976672207841e+01  3.0044288946493033e+01  8.7111674864981428e+00  8.4647509064128226e+00  4.4207327668423586e+00  5.3001818328517366e+01  1.0547218483756525e+02  1.1415194202295661e+01  6.1489306131450888e+01  1.7782499267187966e+01  1.5818776834333983e+01  2.0116802995204139e+01  1.1599072768548277e+01  2.0138945507647330e+00  1.4331274087543157e+01  1.2117265084841240e+01  1.2379630091693365e+01  1.6334079183095454e+02  7.5061312118158810e+01  1.2497817030676850e+02  5.3795013518902053e+01  5.3313939308662938e+01  5.4193756958488535e+01  5.6924973042228132e+01  2.9758704074485189e+00  1.2144277042922793e+00  2.0103607349066927e+01  2.4206372154778361e+01  2.1295773695392395e+00  1.0732375535039132e+01  1.6932425584738677e+01  1.7118155502821011e+01  9.3181453568345791e+00  1.5231100538181033e+00  1.5883576477114342e+01  1.6534685906899256e+01  9.2025800794690710e+01  6.3314638506809633e+00  6.5962172762143938e+00  6.9836677175095447e+00  2.6328459336627951e+01  2.6002667028380667e+01  1.0040048777329257e+01  4.4707328101379504e+00  1.2450074889068759e+01  4.7108091739077665e+01  9.8037432334412742e+00  1.0086015244093879e+01  1.0090041256165328e+01  1.0367698469301640e+01  2.5852637463243202e+01  2.5182061133040893e+01  3.2355995711840051e+00  4.1837224540367728e+01  4.3567826949523493e+01  4.0164963610856560e+01  2.0857401437841556e+00  1.1867843739258681e+00  1.2421115284915858e+00  1.2747767475500744e+00  1.3421338510485734e+00  9.0262689610182761e+01  5.5898261190487176e+01  5.6995736550399577e+01  1.7600462297738954e+01  8.5772781843312274e+01  1.5695440177013921e+02  8.0049070637937270e+00  7.7822152224035293e+00  7.7336701672585084e+00  7.5861559441630808e+00  4.2297336967901167e+00  1.1641941162232499e+01  4.6949804872663606e+01  5.4575657879236189e+01  5.4197440929194379e+01  5.5470510692473589e+01  5.5105503352858435e+01  5.6437588373879528e+01  5.6110713770816652e+01  5.7532794043991217e+01  5.7088584123446097e+01  1.7968826362066946e+02  1.7219842396235737e+02  1.8742647278198535e+02  1.6112475830878063e+02  1.6526267651870108e+02  4.2227966338699197e+01  3.9288821735827582e+01  3.7689162405161042e+01  7.7701398063482799e+01  5.2013951560823685e+01  5.0484128923006672e+01  5.3285243767449700e+01  3.3506808979440713e+01  2.0228169279304172e+01  2.1145405952330208e+01  1.3675132495812954e+02  1.2922002623869258e+02  1.1039342092891276e+02  5.4807498128932380e+01  1.3956377529106916e+01  2.3095523715836512e+02  2.3796428463625918e+02  2.4026828023185655e+02  2.5248702874613357e+02  2.5301210361193131e+02  2.6868764371534593e+02  3.4806785612842361e+01  3.5201757574768386e+01  9.1310306635010377e+01  9.7213759717592637e+01  1.0012730273246885e+02  1.5421297257569767e+01  2.3625810171045310e+02  1.3039191980669342e+00  1.3804372592112529e+01  1.3871349712388950e+01  4.9089061862056568e+01  4.8447139118061997e+01  7.3045684036406811e+01  7.5127186166037532e+01  5.4874898674852041e+01  4.8724400021078509e+01  5.3816859667739188e+01  1.4317951465202361e+02  1.4715614537138983e+01  1.7403128028412564e+01  1.8041000761063508e+01  1.8536092370370472e+01  1.8749456481268361e+01  4.8979832364256239e+00  1.5532900800875717e+02  1.5868646476048093e+02  5.2047291501930374e+01  6.8908086151822268e+00  7.1033229567169967e+00  3.0720571201665070e+01  3.1053161562672972e+01  1.8097382324445533e+01  1.8395219360535801e+01  4.0669241131773121e-01  3.7590964230597423e-01  4.3915172326425400e-01  3.8102331284277141e-01  3.4872900537556117e-01  3.4179665038785217e+01  3.4535592832274425e+01  1.5021861313156842e+01  1.4474250498904052e+01  2.2050465507048294e+01  2.2621245436754005e+01  2.2830089896646736e+01  2.3180927006628067e+01  2.2911423424124358e+01  1.7679267416798734e+01  1.8275587648579201e+01  3.7576036389357832e+01  3.5998147200210170e+01  3.5835030109399412e+01  3.4480190505352567e+01  3.6053005764710448e+01  3.8431532637687407e+00  7.0255257489806752e+01  1.7207363714005457e+01  5.0005620290510443e+01  7.9460188878464209e+01  8.1848688140771316e+01  7.9639730068058455e+01  8.1932693442355699e+01  8.3998746195026129e+01  8.4445905394238309e+01  1.6623758727028687e+01  3.4060813620972063e+01  4.7279801458367352e+01  6.4836368677575891e+01  8.1065789962821199e+01  2.8331766326891955e+01  2.8007268177082928e+01  2.8659550529856165e+01  2.2226199512624949e+00  2.2466568550342019e+00  2.3312737705886288e+01  2.2491954672601487e+01  1.2865401770795305e+01  1.3169778460129931e+01  2.2883412398333599e+02  2.8377058850444512e+00  9.4728774427137211e+01  4.0128884062735317e+01  4.0073802806332480e+01  4.0546762310225297e+01  4.0027922994571206e+01  3.9559648221839844e+01  4.0514845394242023e+01  3.9531949777878694e+01  3.9069405791826988e+01  3.9053776581587819e+01  3.8593333468860543e+01  3.9526425486597162e+01  2.4873193386979484e+01  3.2553928759449370e+01  3.2007222912932605e+01  2.8548385252154652e+01  1.1523670315129509e+01  4.8835251088992109e+01  4.9689319985451597e+01  1.5672949671194974e+02  3.7951548188072152e+01  4.9286214736264981e+01  4.8464977521961536e+01  1.4236927405418244e+01  2.7371017119542781e+01  2.7365796087110493e+01  6.9156563913250238e+01  1.8159332373281824e+01  2.0954786170033170e+01  7.2490677852627769e+01  7.4325653794034309e+01  5.0437045325594141e+01  7.9999381074744491e+01  3.8592279195511544e+01  3.8151211626539578e+01  3.8158211727758513e+01  3.7728485227213419e+01  1.0019543455384744e+01  2.5851544799485300e+01  2.7234595934013246e+01  2.4564186631975947e+01  1.4492779986730442e+01  1.4756995927796632e+01  2.6778998470103467e+01  5.0730142979527804e+00  5.1247541402958587e+00  1.7156107433355667e+00  1.6482179973197650e+00  1.5597113615238798e+00  1.5853809420653910e+00  1.4969832062580801e+00  1.6760693912677240e+00  1.6139028427871691e+00  1.7021555872493528e+00  1.7880111400013625e+01  3.6101033354976231e+01  1.6205449608590221e+00  2.1149379552336100e+01  2.6993972026241382e+00  2.9105509596668462e+01  3.7335484122795815e+00  4.6244765466866028e-01  4.3357731227450152e+01  9.7122420778519867e+01  9.8385252039161699e+01  1.0298063943606788e+02  9.9740456884617785e+01  1.0455533961980076e+02  9.3741207145198391e-01  3.3815418388643060e+01  2.1900056013251120e+01  2.2423138561817195e+00  2.2479694999820765e+00  2.0413063447355874e+01  6.1838067469234595e+01  6.1807484737308890e+01  6.1885807276809047e+01  8.5905445654306760e+01  5.4161521252821082e+01  5.6928239238241460e+01  5.1553885594073421e+01  9.6224242278799543e-01  8.8770259401055129e-01  2.3442660530181218e+01  2.3162863314138811e+01  2.3472338488778679e+01  2.3207072942242327e+01  2.2892233072175301e+01  7.5159276931580461e+00  7.3774411231558590e+00  1.0566765995188929e+01  1.0466468606855454e+01  1.0165584787648111e+01  1.0774444895605495e+01  1.0349507499958049e+01  2.0396181265640337e+01  2.0136427857897999e+01  2.0434839591183351e+01  3.1671589325023998e+01  2.2046799417919278e+01  2.1744515833367327e+01  2.1176814940303014e+01  2.0953692962529516e+01  8.2292081303208509e+00  5.1583897523532286e+01  8.6954368407257920e+00  5.4546863827735258e+01  5.5764918573148840e+01  3.5036095779332288e+00  3.4002263697845834e+00  3.5447787419255796e+00  2.9868320055793416e+00  2.9003080619687256e+00  3.0306601147514716e+00  2.0210899501541169e+02  2.0588305458528725e+02  2.0394046997209392e+02  2.1002367752854704e+02  2.9920718305998921e+01  3.9261666529966162e+00  1.3883468104339832e+01  1.3259733323494608e+01  2.2081474025746419e+00  4.4938288203234343e+01  4.6445802892468784e+01  1.7857562004341546e+02  3.8694873499023089e+01  2.6368967407367808e+01  2.6060451885217333e+01  2.6622831973321034e+01  1.0909819032021069e+01  1.2960109807802166e+01  1.3123591621985664e+01  1.0090332360214468e+02  1.1906996360501718e+00  1.1373254452938530e+00  1.2086710381191788e+00  1.1546999215122484e+00  1.0785156067240205e+00  1.1015005769084254e+00  1.1582339705431532e+00  1.0265495584371638e+00  1.0490159720340988e+00  9.7754666033861770e-01  9.5890800022451528e-01  2.3517631393021755e+01  6.5300014263316200e+01  6.7651489136380405e+01  5.9714720991416250e+01  1.9839963623724682e+01  1.1930016605976489e+01  1.1479122248687400e+01  1.6583845114221918e+00  1.5678320640313010e+00  1.6820691350039125e+00  1.5308189061286783e+00  1.4228319937607703e+00  1.4133052766274501e+00  1.3258352742755446e+00  2.1560232803722052e+01  1.2982065273552047e+02  2.1641657125654161e+00  6.7613449543384023e+00  6.6901029145305015e+00  6.9956561440279472e+00  6.4394087318648744e+01  6.3807584094823348e+01  6.5110831581427746e+01  2.6772221296501334e+02  2.8559840790149059e+02  2.8300939232775664e+02  3.0405432206741210e+02  2.9866223391883125e+02  3.2400402359352415e+02  8.4497061584246183e+00  8.1963417907934346e+00  2.8336705623457913e+01  4.2726266973419051e+01  3.2871770115901768e+01  3.4137571608130052e+01  7.6480278842589854e+01  8.1192393140905253e+01  7.7145433408424879e+01  5.7636125942411853e+00  5.9450977730770687e+00  6.3471431048578353e+00  6.4043810392439058e+00  6.5448673009570690e+00  6.5995657952350273e+00  6.4639379808830357e+00  6.6532757615474738e+00  6.7422035083216416e+00  3.7749695396935252e+01  3.7326184298609810e+01  3.7316223765551293e+01  3.6916551030159063e+01  3.6916258587358044e+01  6.1393554992564880e-01  2.1923779621528062e+01  1.8565033657912953e+00  1.7778994781422117e+00  6.3447410835571212e+01  1.2398561533608904e+02  1.3587324155920192e+02  6.6408833796768675e+01  5.6840882256144653e+01  2.7899390349621092e+00  3.6085626294187335e+01  7.4137794420610263e+01  7.6593362974102874e+01  2.0446889373539534e+01  2.9883374789051746e+01  4.0000937746311713e+01  2.4059224708320070e+01  6.8298053128703145e+01  6.6493758738210119e+01  5.2034911100738341e+01  4.5775092378742323e+02  5.1456382790239354e+02  3.8221931801823992e+01  3.4527754080721511e+00  3.5952481722745340e+00  3.6878004872459094e+01  3.5529748257669610e+01  3.5714593870977104e+01  3.4381278794098534e+01  3.4193287261912701e+01  3.4646211363149696e+01  1.2264885452484171e+01  5.0419379461956282e+01  3.5316370879450609e+01  4.8882046835663942e+01  4.7842302027257901e+01  3.0096111592696544e+00  3.5731385796988308e-01  3.2608726493175721e-01  3.2070262686067058e-01  2.9905176826096108e-01  2.1365388144414247e+01  5.5311136789660210e+01  5.8183096816588517e+01  9.2480763317001600e+00  7.2656930511127641e+01  6.9968500545031361e+01  7.1989932094334520e+01  6.7661632179231162e+01  5.6322793719666100e+00  5.3573602881146805e+00  5.9126801638841737e+00  6.1351621788944426e+00  6.2233986252855367e+00  3.4362818990043644e+00  1.7214524924422828e-01  1.7847459199837257e-01  1.6507364547307146e-01  5.6766767395629643e+00  4.5186634768463732e+00  4.3673085807869914e+00  1.5895809642448651e+00  4.6659144641184547e+01  3.2950331365138396e+01  3.2627628579461891e+01  5.3789263431687907e+01  3.3108466004726573e+01  3.3879312906362408e+01  3.5172022440742083e+01  2.8016960825556648e+01  1.5131881703282470e+00  1.5708847664752430e+00  1.7362662323192646e+02  5.3464624654789660e+01  5.0192626089980443e+00  5.1500427363315060e+00  8.6644489892287191e-01  9.2871751987334739e-01  8.6638620419094248e-01  9.2928089356883570e-01  9.9457410984202821e-01  1.0007923901388984e+00  2.7002856174142824e+01  3.1054706702300003e+01  2.3829213296045770e+00  6.3879927690929241e+00  4.4526926076758102e+01  1.4684709868567758e+00  4.9427720219696418e+01  7.7309575160791468e+01  9.1071594893620080e+00  2.4083362134708416e+01  6.7589177004664407e+01  8.7130016075174155e-01  7.7130842464952295e+01  1.9891718845642874e+01  1.9599050613854722e+01  7.6382171934183006e+01  4.1198519272364859e-01  3.8756858941196476e-01  3.9471221217420427e-01  3.6429851341435060e-01  3.5429377241831839e-01  3.3925128513344510e-01  2.6307369623826535e+01  1.6748844087941688e+01  8.7294806049954460e+01  8.5219810591001348e+01  2.0154721354496679e+01  4.8000205486579324e+00  4.8590708434983680e+00  3.1377815398507998e+01  1.1398127376890260e+02  7.0795137444557625e+01  1.9277384513260409e+02  1.0950366154742170e+02  4.4603892367016989e+01  1.0602786991731693e+02  1.7199834817170604e+01  7.1445968494197658e+01  9.1404405289491368e+00  4.7266736146151711e+00  8.5404026476639089e+01  8.3147233224483372e+01  8.8387678117954223e+01  8.6510906970864824e+01  8.1313050194729655e+01  9.2058516556301200e+01  9.0535901045263216e+01  9.5970063177517900e+01  7.5130540395183573e+01  4.4452189386254448e-01  3.1526179322862322e+02  1.1817455382162343e+02  1.1574961442239672e+02  1.2186559183199995e+02  1.2012310029479067e+02  1.2577450010089319e+02  1.1385624501991134e+02  2.9003668275774015e+01  2.9720856894047438e+00  2.5333003785366887e+02  3.8152105929668551e+01  1.8407710292956412e+02  3.4894213761078983e+00  6.5473594409267804e+01  5.6544160249501815e+01  5.9634728759852457e+01  7.5811470190912928e+01  4.0579034585211984e+00  4.1823120360272155e+00  4.4286247164380214e+01  4.4523495484007029e+01  5.0461687834896338e+01  8.4141251868946654e+00  8.1431238238793533e+00  8.5224825866796188e+00  8.2569445375951833e+00  8.6248061920909240e+00  8.3425594575748541e+00  7.9141219354688248e+00  8.7542184414072182e+00  1.6373545499468435e+02  1.7544574781452036e+02  1.0434314930001042e+01  6.1170990286327491e+00  1.3967640747699217e+01  1.4211759198279024e+01  1.7402199254942119e+00  4.3539161485950146e+01  7.7729648462935597e+00  7.6314049798409425e+00  4.4349256811545644e+01  4.3871048949636489e+01  1.0450183448730238e+01  1.0693251116109931e+01  3.4262327252705816e+01  3.2993837010253650e+01  3.3172487322245679e+01  5.7090433823302796e+01  3.1952590348699005e+02  3.2242348608709204e+02  3.4629893996454774e+02  6.1255599404273333e+01  6.2793753914829956e+01  6.1330077315285685e+01  6.2923634840353664e+01  6.1532748753365816e+01  6.4465001647642907e+01  6.3196932819025086e+01  6.1593674044866383e+01  7.1212554866603872e+00  7.3298971462696123e+00  2.3527742923603046e+01  2.3901003923952235e+01  1.7802474337288274e+01  2.4965129081008694e+01  1.3230617763899691e+01  1.2853595304552089e+01  1.3476261735903829e+01  1.2232914064776658e+01  5.3486738848746171e+01  5.7023015825795184e+01  5.9486606847160878e+01  6.0862891350229795e+01  6.3577051378321187e+01  6.5084995460327278e+01  6.7772932225207057e+01  1.0158402489485097e+02  1.7190671629842211e+02  1.1329692904925375e+02  1.1289283106238517e+02  1.0070016183879360e+01  1.9763464266276674e+01  9.7791916137736465e+01  5.1467780986052594e+00  4.9716302474685774e+00  1.4204608000031882e+01  9.3264418894111259e+01  1.7496776509013456e-01  2.0803092585592708e+01  6.1424372445685080e+01  6.9238413691323784e+00  7.2192465334183051e+00  4.3543589956153310e+00  4.3213562257688700e+00  8.8002696783228256e+00  9.0971398868654880e+00  1.0679437587031664e+00  1.0757004004818347e+00  1.0158957207664501e+00  1.2197573187418952e+01  4.5846627417231780e+01  1.4181212576834231e+01  2.2234375558369354e+01  2.4892632088537280e+01  1.7445571741044571e+01  9.4849229444820025e+01  6.3020340223001803e+01  6.0194350959271667e+01  6.0377541379272785e+01  6.1699822221227841e+01  6.2373928076723217e+01  6.6646162738785364e+01  3.5550832153946792e+00  8.1174040526121459e+01  8.6261606396758140e+01  1.4726085441437098e+01  1.5068848136659772e+01  1.9527750294641750e+00  1.0951196966208394e+02  2.2787830472430340e+01  2.7957741788537565e+01  5.0093992313221101e+00  5.1827338884527370e+00  1.6604279288731544e+02  2.1352744122376013e+01  7.3244204806126350e+00  2.0636209862336250e+02  9.8534931432744600e+01  1.0189472330522338e+02  1.0297365363859009e+02  3.0382557855772081e+01  3.8221850674819301e+01  5.0504507941663172e+02  1.6805345500593987e+01  1.6839099402747564e+01  1.7485462610205261e+01  2.7732335338288800e+02  2.9242187983698943e+02  7.6674669004224967e+01  4.1409887454934626e+01  5.8577037385727841e+01  1.5446307259510036e+01  1.5779272649172151e+01  4.5713346666826868e+02  4.2854093060125166e+02  4.7066362759559253e+00  4.4361739116223555e+00  2.4599837697398296e+01  8.6285605100788629e+01  1.1172233052306446e+02  3.2408007640647298e+01  3.8691026086152607e+00  2.5504053006463291e+01  1.7744448935294493e+01  1.7946333540206947e+01  1.2133337775296143e+01  1.2004011335631150e+01  5.5347887859933607e+01  1.1119299365645839e+01  1.0508701190602119e+01  1.0363398268425282e+01  9.9429673960940921e+00  9.0435463515517309e+00  1.3154706367127968e+00  1.1165668056715405e+00  9.0562423423269465e+00  9.1905280735202854e+00  9.4898514198968247e+00  9.6496210019835633e+00  9.9381487375818480e+00  1.0125550271444739e+01  9.7952747680639227e+00  9.4069913824395552e+00  4.1714013901184344e+01  4.0513669179723394e+01  1.9368911702277885e+02  2.0333850811820005e+02  2.0681661888195664e+00  1.4202055751625025e+01  1.8232818300030232e+01  6.4310386815340323e+01  1.4044743477857520e+02  1.3602010787857958e+01  1.3662837590700871e+01  2.8038739258200220e+01  2.7719799591039020e+01  4.4846638839374968e+01  4.5329085491227175e+01  5.7094088653470152e+01  7.1726828441967969e+00  7.4611334362938262e+00  7.6471644876616025e+01  7.5052763054809361e+01  7.8049893632695117e+01  5.8734031247929749e+02  6.0003633254919646e+02  6.4398768610466997e+00  6.5175397901588275e+00  2.8963372670836442e+01  2.8996929969969283e+01  2.5008395303624955e+01  2.8688616399044587e+01  8.0766313598511381e+00  5.8989424870975199e+01  1.2010162925531765e+02  1.2470786744356124e+02  7.3116906927047500e+00  9.7697365491885897e+00  1.4883735908328978e+02  3.2782066222093198e+02  6.7626154990965048e+00  6.8560082227578274e+00  1.0554136458935399e+02  6.8190887650285703e+01  2.1781026906975893e+00  2.2356542879413229e+01  2.2735375864596190e+01  3.3852774113000855e+01  5.7907896898939434e+01  6.1116656587748871e+01  5.9549366734744950e+01  6.2738219155199921e+01  3.5262137999590180e+02  3.2382812853760498e+02  3.0397115656516240e+02  1.0765125658193158e+00  1.1675143595587434e+00  2.9508175507533764e+01  3.7955359689769701e+01  3.7360357404120464e+01  3.6135887800121338e+02  1.5292595451367843e+00  6.2964717162257084e+00  6.0759618550360628e+00  1.1005485004962505e+02  1.6513568582678096e+02  2.0538162752843978e+00  3.1717556919570438e+01  2.5436194869177555e+01  3.6897906889246883e+01  3.6493416697262056e+01  9.6422992326014921e+01  5.6563950895749167e+02  3.4174723606103358e-01  3.1146009541382774e-01  8.6249375135017459e+01  2.4234516708796795e+02  2.2955659956677400e+02  4.0285845137205548e+01  4.1165816069927267e+01  1.1550744007386055e+02  1.2146547743957692e+02  8.2879580809849088e+01  1.8064311285949909e+01  1.7431060729809516e+01  1.4842986031174397e+02  1.4421454074653505e+02  4.7125619884626593e+00  4.8386569296409128e+01  2.3277660386956939e+02  3.9094881054959728e+01  8.2314249323812362e+01  8.6274326838447934e+01  7.8878946157676765e+01  2.6096611208176174e+01  2.5783751053656399e+01  2.0654578035086467e+02  2.1393023973385294e+02  2.6623514388987488e+01  1.3245223704992696e+01  1.2686471279056185e+01  2.1095654315732126e+01  9.5859610091592584e-01  8.8981957530521194e-01  2.4717783563671944e+01  3.4900078407883314e+01  3.5413357035910586e+01  5.0266904867850556e+01  1.4478489393512671e+01  4.6868388352466717e-01  5.0916690443010848e-01  3.5989528648116975e+00  3.4509322592445546e+00  6.6925943661576454e+01  7.0876334447209899e+01  5.1018244888793776e+00  5.3069605266090836e+00  5.3157074435239480e+00  5.5288456346347159e+00  5.4411957125193673e+01  1.5954053946448215e+02  4.1034966133601266e+01  4.1005706734462294e+01  1.1089373679891524e+02  8.2952861868841055e+01  8.2081888362000495e+00  1.9611342480328108e+02  2.1682575825160750e+01  2.1943979014225100e+01  2.2007336134102619e+01  2.1845446270384869e+01  2.4403741055638275e+01  5.8712946880854261e+01  1.7107674482778996e+00  1.6187805039789878e+00  1.4021946520121260e+01  1.4671172104946361e+01  1.0847739194811066e+01  9.4157103876198434e+01  9.3229276814606564e+01  8.2840383340606092e+00  4.3025316468033861e+00  4.2111919452725379e+00  1.6171241797829840e+01  5.6773237236151060e+00  9.5159064810802931e+00  9.0214646636575289e+00  3.3480292314173216e-01  2.0792395315200326e+02  3.3333914639025281e+01  2.2423006881056999e+01  5.7355618538715440e+01  1.7219436288236631e+02  8.2129937353938971e+01  3.5645573820110710e+00  3.2641902630428994e+01  1.3833209116997002e+01  4.6538127741634526e+01  1.1610110439330336e+01  6.5022300787307441e-01  6.0185754314174089e-01  7.0573756263218479e-01  7.3785194926381015e-01  7.9950129136365966e-01  6.8807337538216051e-01  7.6696598035243051e+00  5.0067850443438054e+01  1.4559565677703089e+01  1.8780363761481095e+02  1.7688606298303939e+00  1.7946883097736919e+00  1.3444388406066965e+00  1.5407295836328974e+01  3.3352483948954770e+01  3.3727096418196169e+01  3.5014286611207666e+01  3.1516590389343158e+01  3.1145730252296353e+01  4.4819221773299986e+01  4.5488044887553244e+01  4.2443214157112820e+01  3.5194278551449841e+01  3.5556767069112233e+01  1.4371355052097974e+02  1.5670204933043772e+02  9.7301256901626701e+01  1.2297314494095771e+01  1.5206809278469942e+01  1.0995410766664037e+02  9.5649601226766521e+00  1.2053421023298037e+02  1.2567057380048907e+02  3.1357464340887702e+01  5.5210121546337668e+01  5.2771748488332754e+01  2.1384114602415716e+00  7.5007179165663331e+01  1.4879861688126400e+02  5.3186922873293074e+00  5.4623130255899657e+00  1.4819166345910528e+01  2.6107287914239123e+01  2.6281450196970148e+01  7.9043638336911172e+01  7.8776448911722298e+01  4.3567128051675414e+00  1.1328139958660332e+01  1.1327360830051751e+01  2.7761878002660001e+01  1.8721532206270037e+00  5.5837326432098827e+01  8.1912801919210750e+01  8.4103203780378323e+01  8.4179635453021831e+01  8.6269638718929102e+01  8.6342419587193632e+01  8.8365729914062285e+01  8.8398333187941191e+01  3.3288314030826996e+01  2.3600084489092502e+01  2.3238266007947922e+02  2.5524391168021047e+01  1.1316792599543239e+01  1.0491426912444251e+02  1.6573169066991838e+01  2.0965865666923486e+02  2.1776998020526301e+02  2.1897662165391426e+02  6.5225506779597557e+00  6.7063812294287874e+00  5.5396717047640935e+00  2.0215294580049910e+00  3.6545168694428154e-01  2.2283313313355190e+01  1.6622576440673551e+01  1.0176533593744800e+02  1.7844880885653449e+01  1.8561370831895619e+01  1.5277204726972566e+00  1.5138856723917083e+01  1.9235736683969701e+01  2.0266804838043178e+01  1.8167479272129711e+01  1.7878977936276186e+01  1.8456369256679906e+01  1.8684077434822164e+01  2.8690130164698306e+01  3.4657870629081074e+01  2.2939767765885923e+00  3.7433217526215590e-01  2.3575528142266649e+00  2.3426801278317391e+00  6.6954146897067250e+00  7.0734838387095973e+00  7.3489314072972522e+00  1.1189666926544463e+01  1.0834384819981945e+01  1.7580762835292941e+01  2.6311516239558475e+00  3.0548347731896763e+02  2.9019068595456281e+02  6.1862468477813835e+01  6.3653912945294287e+01  7.1237976417156418e+01  1.8946944706472429e+01  6.6981935806871476e+01  6.9055164407503531e+00  3.1844682939066164e+01  5.2354397759040694e+00  6.3134650713561150e+01  6.1622674669255623e+01  1.1167035319591709e+02  1.8959742931672872e+02  1.0667902633809575e+01  1.5726620386630735e-01  1.4944002928159120e-01  9.7808327987186587e+01  1.0226652135107999e+02  1.5505621053191314e+02  1.7967077081641488e+01  1.8439986917172945e+01  4.0717561299665810e+01  4.2319219499754468e+01  3.9110955299950533e+01  1.4984406799292722e+02  1.5222021302266458e+02  4.4167375974753416e+00  4.5724577862760611e+00  3.9063327719421984e+01  6.1425944492675853e+01  6.4923122920977022e+01  6.3517828612608703e+01  6.7237056069851391e+01  6.5945263602502393e+01  6.9804230223814258e+01  9.0281194278811569e+01  4.7971150407081396e+01  3.5961385150048152e+01  1.9996609394941967e+01  2.1500967304820122e+01  2.6420747608132081e+02  6.5086384826232589e+01  3.4138332438116258e+01  3.5528954425399597e+01  2.3986596956683330e+00  2.4535026161279543e+00  7.4730051479206496e+00  8.4100389453251712e+00  3.7885339237319027e+00  3.4583778904122063e+01  3.6070755674965248e+01  3.5273179250280172e+01  3.6721600783585664e+01  2.2952528828030172e+01  1.2192822261057627e+01  1.2443066723535122e+01  1.0978765620254547e+00  1.7831584806458540e+01  6.3976610251354614e+01  1.2312576437634007e+01  1.8496392909481468e+01  1.9141924842347809e+01  1.8939365980186274e+01  2.0122318458514187e+01  1.3303750587408503e+01  1.5425033269780959e+01  6.8424268088985229e+00  6.9104995524800339e+00  2.6362065009295080e+01  2.6044853433574730e+01  9.0272173675108135e+01  1.4561675018322767e+01  1.5214778781752422e+01  5.5665275128640239e+01  6.8856393401658920e+01  6.7248309113912171e+01  3.5624469493263051e+00  5.8292851720801320e+00  5.6543350816528646e+00  6.0161117258854349e+00  1.5687200447163800e+01  2.8246457617487721e+01  2.7877554440965703e+01  9.5658989684827858e+01  8.8754577201028852e+01  6.3224323266531179e+01  7.9744249519656689e+00  5.8465304506692711e+01  1.8219462863801446e+01  1.9151331598672868e+01  1.9529672786612537e+01  2.0223400227568700e+01  2.0728652549975035e+01  2.1470024340783496e+01  2.2042533200832483e+02  1.2397344605328868e+02  1.3466997787985576e+02  1.1330236437166788e+02  1.3399329917353825e+01  1.3469589577747334e+01  1.3727864263105834e+01  1.3536897512242192e+01  1.3278194955762508e+01  2.3649758188981438e+00  2.3746709590285140e+00  2.3585558457596827e+00  2.2036565476996120e+01  2.2705195997273488e+01  3.9539478690894043e+01  4.0726939349578466e+01  1.3338875610456560e+02  2.2891322543824952e+01  4.6429638743209594e+01  4.7780460846503971e+01  2.9950520088402049e-01  1.2404612473025857e+02  2.0440138884471185e+01  7.5967386064503899e+01  7.3700894955462260e+01  3.2615948611073094e+01  6.2456877197308259e+01  6.3780479449888233e+01  6.5765374352177503e+01  1.2603879366245776e+01  1.2845143435766296e+01  2.5616102065007929e+01  2.6625683799265897e+01  2.3121554379311434e+01  1.2258600837774296e+00  1.2962917462684598e+00  2.2266871919270653e+02  2.1936651158591908e+02  2.2714013091687966e+02  2.2146808867800792e+02  9.4201725578986455e+00  2.9481310002043095e+00  2.8202714430446392e+00  3.0704056295143327e+00  5.4346864595917864e+01  5.6780626210335541e+01  1.7741933013292513e+02  1.7291911436455143e+02  1.2609534266745442e+02  1.7156309267982308e+00  1.7286482153756060e+00  2.1165985166843706e+00  2.2218389989432801e+00  1.7584768321041759e+02  2.3109258142448402e+02  2.2404895111414476e+02  5.3020442751774430e+00  5.6174925661525617e+00  5.7811800152614179e+00  5.9455689148463780e+00  6.1162520037850960e+00  6.2786413592642454e+00  6.4630014371196349e+00  6.6380390137277745e+00  6.8270106362432772e+00  7.0027456662521574e+00  7.2115427064556856e+00  7.4219475579804062e+00  7.6283829882885605e+00  3.5714488750197660e+01  3.6445894826485002e+01  2.9562533486360304e-01  2.7489664791544677e-01  2.7916663835242517e-01  2.5553465463508279e-01  9.1827591551039987e+01  9.1725988260972088e+01  1.6780898150591092e+01  1.3039771236404189e+01  1.3708994214839180e+01  3.8287674814478208e+01  2.1896355902821213e+01  2.2860612201472001e+01  1.6455951211496757e+01  7.5542319012055641e+00  1.6043764864165229e+02  1.5351209544818437e+02  1.4636603205877771e+02  1.4730116406819189e+02  7.5443559386940393e+01  6.0505586376465914e+01  6.0621434431351929e+01  2.5823898381048288e+01  2.5519879704375491e+01  2.5469776870149659e+01  2.5200506910517493e+01  2.8745536180581528e+01  1.6913557897679343e+01  2.0513840632929257e+00  2.2028473227656136e+00  3.4214189803923367e+00  8.5083880797015922e+01  1.3123275569365924e+00  8.5259888822229044e+01  8.3120905667766934e+01  8.3118472294210463e+01  8.0923284317428084e+01  4.5578276310600167e+01  3.5641237803033988e+01  1.5270739953832187e+01  1.0236306028142382e+01  2.3217531752746112e+01  2.3961778486318096e+01  2.4772398618829733e+01  2.5501903966804154e+01  4.4848848937637307e+00  4.4585157334752568e+00  1.2615495738646861e+02  6.9870991395414306e-01  4.2136837388310433e+01  4.2629655958497224e+01  3.4815564212142405e+01  2.7440398932188813e+01  2.7409170538344554e+01  3.4653529341801793e+01  2.7130693296578201e+01  2.7511369846824390e+01  9.2901185117792409e+01  1.0902055923130487e+02  1.0456806255327547e+02  1.0252681546029645e+02  6.2033122858917963e+01  1.4309565780597739e+01  7.5209809554351182e+01  7.7249788578121809e+01  5.0628084052799309e+01  5.1421965521712060e+01  1.6543497614991843e+01  2.0877733880191815e+02  1.7470715855777105e+01  4.9804801753822057e+00  8.6796315747605121e+01  8.6057592128747856e+01  8.3052043082248950e-01  6.6778353440394142e+01  9.1058357947322455e-01  8.4050293158620770e-01  5.1991004930232299e+00  3.3096396660977369e+01  2.8221459140112080e+00  1.4199941084468963e+02  2.6382788103100456e+01  1.0304203991266640e+01  1.2465914174804070e+01  1.2354942444207961e+01  1.1861514446413643e+01  7.7812930063926773e+00  3.0155286368513266e+01  1.4069828407160578e+00  6.1337992303842537e-01  5.6379459769329121e-01  9.2707110725512166e+01  8.8829811011879983e+01  1.7865430609741310e+01  1.8160974149134415e+01  1.1747976292838135e+02  2.4457554933838221e+01  2.4097381825702872e+01  2.4809835075969058e+01  6.1247870166281821e+01  3.8596944788761355e+01  2.5229020472495148e+02  1.9666025396174973e+01  1.9389469997349799e+01  1.1629932533377076e+01  1.4563211003866016e+01  1.4828868899851290e+01  2.9344895744568497e+01  2.9701006899839214e+01  3.6914735852921816e+00  5.8063611336533576e+01  7.7198337755075329e+01  1.4449567449372933e+00  4.1224203020100509e+02  4.5247991726187922e+02  1.8280036041598635e+02  1.2649777698980081e+01  1.2079817751110513e+01  1.2124302281879155e+01  1.1587940452089001e+01  3.2986267367267445e+01  6.6811652543004101e+01  7.1238559934081013e+02  4.9016590782096348e+00  4.7028263022723156e+00  7.3744926560647812e+01  3.8484261120729588e+00  4.0133128430996949e+00  4.0089919046344944e+00  4.1870338846983417e+00  2.1532532135658951e+01  2.1199362334996010e+01  1.2334422621292498e+02  2.3257237520839951e+01  1.4478602521917932e+00  3.6042559505719282e+01  3.7471292230384222e+01  6.7303292158902053e+01  6.5426636440323009e+01  2.3150081577544402e+01  2.3988608796893168e+01  1.6423997398878476e+00  1.5561090994916895e+00  8.1548181968447491e+00  7.4021398795424806e+00  7.7001168675571581e+00  6.9337089534953037e+01  9.9712289905558620e+01  8.1737435513143863e-01  7.7266921737242733e-01  7.4985369516397515e-01  7.1208687329010401e-01  1.0036962991668164e+00  9.3329667994399601e-01  1.0701816504455945e+00  5.7846483091824851e+01  2.8812520449313070e+02  2.7773063614719189e+02  2.7904977190065773e+02  2.6785288538903160e+02  4.6078408550009605e+01  4.6463966933261489e+01  4.5864967788577424e+01  5.0663802969052654e+01  4.8941523197165658e+01  4.8082175873073751e+01  4.9787694528862527e+00  2.0602062653859235e+01  2.1557410690854450e+01  1.9703513690661154e+01  6.2951515615766716e+01  4.7026118581227552e+00  1.5453073935191727e+01  6.5300687842733807e-01  2.1065474629030778e+01  7.8090909015188679e+00  8.0052782833833742e+00  8.2054436849824839e+00  8.4709371350788238e+00  4.8195425739412499e+01  4.7372675137481870e+01  4.7485608431440760e+01  4.6682288436482075e+01  1.9713398571948213e+00  3.8863355150972559e+01  7.3578043515623392e+01  4.5969056768863666e+01  4.7536928902957854e+01  4.4267762438323423e+01  7.0869796702522727e+00  7.1916951789834682e+00  6.6736593694960211e+00  5.4763792400813998e+01  1.4751661492809134e+01  4.4908388118445743e+01  4.7017618105971572e+01  4.5444637434070032e+01  4.7722259968073487e+01  4.6110055025083923e+01  4.8419657649201568e+01  4.6977814615329095e+01  4.9358997073464089e+01  4.7808490277800558e+01  5.0361395517519291e+01  4.8844811062528080e+01  5.1393389066069489e+01  1.9745929493297922e+01  1.9443016132384127e+01  2.6583320750311282e+02  3.0630643297711134e+02  2.8552749930318720e+02  4.0707812561135547e+01  2.0864300315191375e+01  2.9183890063810594e+02  4.1531524913355589e+01  4.1513761017299842e+01  4.1003129349682368e+01  4.1511654441844023e+01  4.2011481911177675e+01  4.2020211070883050e+01  4.2538288814548345e+01  4.1023869842639051e+01  2.0577130679242156e+01  9.8266731479161535e+00  1.5350776984974614e+01  4.8943274856420608e+01  1.4296903597917813e+01  4.0837083377912775e-01  2.7854926712433997e+01  4.1685825696977766e+01  8.6814146478694880e+00  8.8886352433198450e+00  1.9957928385380356e+01  2.1483397360569910e+01  1.4775600530267194e+00  1.5392045222206274e+00  3.8175401538402291e+01  9.1619516808376851e+00  9.6533584232403040e+00  2.3785584705682894e+01  2.3819933836143221e+01  3.2287596976695141e+01  1.8491422236753937e+02  3.4270845788878439e+01  1.6266812418556302e+01  5.1997061339946434e+01  9.3984012157029980e+01  9.3378948759913939e+01  9.4290746122852653e+01  1.5027683271433206e+01  3.6841011973023363e+01  4.6807767699771105e+01  4.6007902672773994e+01  3.2296299200610541e+01  1.5089824756309453e+01  3.4621027918058707e+02  5.1117263975928218e+00  5.1668462494432683e+00  7.5797791461405044e+00  7.5791867473564771e+00  9.4426972677448777e+00  2.8987770207000754e+00  4.0739760506371354e+00  3.8693256462657009e+00  4.2907692305958740e+00  4.4683145632156087e+00  2.1230137490829108e+01  2.5500919662629712e-01  5.1144424176146881e+00  5.3000403629644719e+00  4.9396480976978276e+00  1.6461682437131923e+01  4.0503421434876650e+01  1.8675964536440180e+01  3.6509460659927207e+01  2.4127911021999797e+01  1.5491577928349411e+01  1.5814489502876986e+01  1.8695816735516001e+01  2.9845604629291409e+00  7.8100839904824619e+00  8.5400238592737281e+01  9.0494417260274929e+01  3.5074643504203040e+00  3.6460548897899954e+00  3.7336607682063101e+00  3.3628683510969162e+00  3.7770584342114173e+00  1.0080315680166843e+01  3.8651691842834217e+00  3.9214881726349309e+00  6.6263794783140725e+01  3.6152600336251552e+01  1.8117637279359137e+01  3.5582740029387786e+01  3.3990417131558331e+01  7.7730940354294944e+01  4.9530304939913234e+00  5.2130166189966767e+00  5.4639704707383112e+00  8.1682226376028026e+01  8.1430885206405080e+01  8.4508493322461632e+01  8.4279256671556738e+01  8.7601065684786818e+01  1.4748878848130985e+02  1.4326608551825311e+02  1.3247711812763421e+02  1.4053107787215910e+02  1.3145517737157260e+02  1.3760934285368398e+02  1.3010341699469015e+02  1.3370554467757040e+02  1.2899472865458657e+02  1.3118408137276333e+02  1.2763926362934235e+02  1.2964321711599186e+02  1.2710543610298376e+02  1.2777010343042281e+02  1.2696387223575393e+02  1.2660561068261028e+02  1.2717542413452965e+02  1.2574572212877737e+02  1.2767551271364930e+02  1.2588709910164215e+02  1.2404604984106604e+02  1.2426246269338269e+02  2.6908464809616003e+01  2.6385241799920443e+01  2.5932339900786406e+01  8.4706655122723845e+01  1.9635981583213268e+02  7.8188913924686744e+01  7.6410520474345631e+01  7.2527679987320852e+01  7.4700717019371254e+01  7.8470137414972186e+01  7.6820313073167753e+01  8.0660799717551924e+01  7.9125734215033305e+01  8.2899620203778966e+01  7.0731524391436963e+01  8.4513327374750034e+01  8.6165219871788253e+01  3.3482969473536883e+00  3.4108542594189561e+00  3.1880173188336367e+00  4.4424940814686096e+00  1.9756646723215962e+01  1.9452716482466904e+01  1.2820372892021659e+01  1.2708455180664044e+01  1.3149425627186369e+01  1.1935223729112636e+01  1.2009279875767040e+01  1.1768088717971374e+01  3.0738157388555787e+00  8.0059848663295440e+01  3.5384605238769126e+01  9.3484589134026734e+01  1.3611480953536235e+02  6.0749638675802245e+01  5.9455362016099521e+01  2.4277005875651906e+01  1.6382355217676889e+01  1.6995776675422299e+01  1.6180959373624393e+01  8.7226087807048067e+00  4.8606898781746168e+01  3.1735481086416079e-01  3.0309417358166655e+01  3.0740107994631199e+01  4.5856206290580758e+01  4.5259602661397146e+01  1.3138249881101261e+01  1.3435086374971425e+01  1.2813106031167177e+01  1.4116900617007948e+01  1.3783212367162429e+01  1.4422288992375448e+01  3.6334442297106882e+01  3.5789271163504239e+01  3.6195307751437561e+01  1.4527977600085455e+01  1.4846446943681421e+01  1.1882585484822934e+01  1.1099252858487418e+01  7.9059663238304232e+00  8.4416623937488477e+00  2.4085292222805357e+01  2.4128631340335581e+01  2.4371115982138928e+01  2.4421074539204852e+01  1.3830607703021686e+01  1.6453022694852312e+01  7.9226834191225768e+00  1.4694006332911820e+00  1.4082551065272881e+00  7.0466124314862071e+01  8.7928606999746286e+00  8.5048663891057803e+00  3.7762201864082279e+01  3.8324338133386291e+01  3.7173491274939423e+01  2.9651039743729299e+01  3.0013181596798777e+01  2.9533524814091219e+01  2.9900990743023833e+01  2.9412922187181046e+01  4.4000440222072407e-01  5.6503425815101709e+00  2.3038244148695881e+01  2.3382068539673348e+01  2.2973436326623222e+01  2.3348331070538134e+01  2.7310422246297993e+01  5.2992619117560196e+01  5.1925468735567108e+01  5.1410103013199532e+01  4.2957207005391155e+01  3.7306207159893802e+01  5.5872166789632722e+01  1.3455175745861833e+01  3.2668089318145133e+00  2.4686499920151032e+01  2.6927016608089818e+00  1.1309870595368170e+00  6.6573974794486489e+01  8.9056025758427921e+00  6.3151146197230918e+00  2.5196375899884046e+01  5.1462641667845560e+01  5.2065892809805646e+01  1.4367980297410203e+00  1.3523297730734445e+00  1.3761847080899816e+00  1.3006727553023993e+00  9.0933605078329709e+00  8.7492381896506188e+00  9.2263805956869636e+00  8.8953513789666143e+00  9.3753925569813923e+00  8.4291911977764471e+00  8.5805253954617982e+00  8.1157128300596995e+00  7.1788757151630989e+02  8.8337161693301915e+00  8.7926227255891092e+01  9.1802030847179438e+01  5.7752871071846954e+01  7.0881019346683631e+00  6.7238248932182154e+00  7.0861959816953517e+00  6.7262210403112848e+00  6.3864029828109397e+00  1.9820627552475660e+01  1.9600862200961291e+01  2.7615274991569829e+00  1.5294279681831750e+01  2.0748316749326698e+01  7.3243759542228759e+01  7.5398641996131488e+01  5.1960865904645125e+01  6.7314443968475528e+00  6.4442195401489260e+00  6.8312078809065957e+00  6.5457705718054902e+00  6.9202753732347810e+00  6.1757121971977416e+00  3.4574794106275966e+00  3.3281537615969827e+00  3.5646499319421459e+00  3.1253957653770081e+00  3.2064192812297256e+00  1.8724305107335944e+01  5.2870653856050453e+01  5.2001783369454536e+01  5.2900929761306266e+01  1.9306816329177185e+01  1.1159516000232282e+01  1.0988698653756913e+01  1.1219291395131600e+01  1.0746739252196754e+01  1.3809925195770228e+02  2.5532584070009623e+00  6.2135544429619834e+01  4.8677416509786504e+01  4.8713241201762848e+01  3.0398882538505084e+01  3.0277313536055981e+01  6.5726172767539282e+01  2.2963237753445082e+01  6.4998253880579526e+01  2.5202753026289795e+01  2.5118290415414343e+01  2.5497295906849665e+01  2.8903297300781094e+01  2.8272620124823465e+01  1.0669884535174914e+01  1.1291204246926664e+01  1.3397941446814988e+02  2.0484684832710400e+01  2.0457905533809850e+01  4.0993561562734673e+00  4.1764917801638504e+00  3.9112883528733415e+00  8.7723388339351033e+01  6.8371038270229690e+01  6.8247273702837461e+01  6.6567024840457606e+01  7.0209437589501746e+01  6.8245661461069488e+01  7.0174646147029463e+01  1.1583454567423923e+00  8.0343843351276423e+00  6.6719139882823072e+01  6.5155590999133381e+01  7.1743113236723019e+01  8.3053629543505963e+01  7.2493251131743875e+01  7.1268328262617032e+01  7.2621950219044038e+01  7.0005636827130289e+01  7.1512113660659082e+01  6.8985445588329284e+01  7.0651454885696467e+01  6.7993953297859960e+01  6.9842670670719542e+01  6.7190231438597820e+01  6.9195186496864622e+01  6.6384604511011574e+01  6.8490345327201808e+01  6.5705099119179692e+01  6.7961532986751351e+01  3.2906725540756293e-01  3.0326476138383457e-01  5.3349416939034278e+01  5.7381751296404381e+01  4.0254537586301900e+01  5.0092792809864484e-01  4.7380211733422251e-01  5.1189980564759363e-01  4.3813669500204033e-01  4.5513199518591367e+00  4.6978187320356755e+00  4.7611082302366139e+00  6.5214245658398937e+01  1.1880175512295907e+02  1.1292739121476596e+02  1.1991238754693011e+02  1.1387813227718382e+02  5.4873417859127173e+01  5.7563637769483208e+01  6.8196728309464177e+01  7.0812680441613253e+01  4.1891792271425473e+01  4.1422740291341739e+01  4.0876375274487231e+01  4.0402258726233143e+01  3.9840683313406473e+01  3.9461769137339097e+01  3.8886653447451991e+01  3.8540334313707497e+01  3.8065810625230057e+01  3.7662016477088834e+01  1.1533550197135195e+02  1.1456211700497798e+02  1.0921779069528071e+02  6.8247935044184359e+01  7.0206778756515362e+01  6.8069677452265068e+01  7.2315514347918409e+01  1.2642304084170332e+01  1.2677426954591224e+01  3.8465146277945657e+01  3.8892017402100045e+01  3.4836503576259847e-01  2.4706940072797585e+00  6.1896849942011436e+01  6.3361160390338341e+01  6.9023621704453997e-01  6.5457794272945569e-01  5.7199585576587843e+01  7.4608266248549853e+01  7.5416594159905813e+01  4.2530940878343110e+01  4.3074683580682361e+01  4.3074405596115312e+01  4.3553830248239670e+01  4.3613318941964046e+01  6.7697288990244417e+01  6.7901724309879882e+01  6.9451122461952195e+01  8.2738861972253062e+01  3.1387138054387677e+01  3.1702496426170978e+01  1.3396914328383784e+02  1.3211023084869939e+02  6.3214086942013871e+01  4.7551550655458158e+01  9.8826740908281718e-01  5.5140116478071853e+01  5.7595050119923769e+01  5.7041372950944023e+01  2.5250931603272897e-01  2.3627281730406921e-01  7.7344150882862159e+00  1.0758908757771844e+02  4.9786573768006072e+01  5.2661025127970653e+01  5.4268275934220341e+01  5.5445226237962672e+01  2.5499812513257291e+02  2.4087832438219709e+02  2.9259260910450574e-01  2.7084216441279152e-01  1.6459512167354899e+00  1.5600969828399658e+00  2.2499635717529426e+01  3.6257029943164184e+01  3.6760896503618149e+01  3.5910509967611475e+01  3.7292329632745997e+01  3.3538989908711720e+01  2.4529969744216147e+00  2.6225821470850108e+00  2.2847026904062893e+00  8.8925306578301303e+01  1.3926335214441453e+01  6.3283829133316317e+01  1.5103851050588801e+02  3.7274377280076038e+01  1.3790977863786291e+00  5.1425718881834683e+00  5.1411722239688892e+01  2.9525879220638949e+01  8.3253855481058309e+01  8.0183542009902311e+01  8.6448486798442232e+01  9.6505012608368403e+01  2.5318533883807550e+01  2.5891578323650407e+01  6.5497183293100690e+01  9.0739669986131730e+00  6.0049755317651417e+01  9.8151027389092267e+00  3.5611078229307743e+01  1.0959955646381731e+02  2.5687136225705225e+00  2.5664753407563952e+00  1.1931324323925758e+00  1.4420886210857092e-01  1.3521447839185008e-01  3.1554878149065555e+01  3.0354404784295163e+01  3.5413845091943092e+00  3.5991157462882867e+01  1.6262502556372314e+00  1.3307156113523824e+01  1.5871052790001947e+00  3.5231440783353442e+01  1.2699438177668516e+02  6.8703737159260458e-01  6.3804619398937523e-01  6.8288945060611739e-01  6.3477779686200830e-01  6.8091362155919077e-01  1.2498039191205675e+02  6.4660501150026670e+00  5.1292627057915685e-01  1.2099113188109463e+02  1.2661734967822068e+02  2.4584988015021388e+01  6.7499236128647382e+01  6.4797375667525401e+01  6.7215881163768174e+01  1.0423097403458643e+01  1.8116081655294014e+01  1.7540272031348000e+01  1.8722714067447932e+01  1.6834209168952246e+01  4.0116084066938056e+00  2.6822698657767654e+02  2.5822952461292851e+02  6.4401920300078331e+01  7.9752422221244927e+00  2.2617223424390630e+01  2.2558476553298096e+01  4.7293692431152046e+01  2.2216573702563180e+00  5.5213746981691025e-01  5.0771898921456193e-01  5.5058027898578321e-01  1.7519937684732124e+01  7.1804899818761399e+01  4.1417430640454931e+01  4.3205627863918117e+01  2.1074759623950218e+01  8.9125447394616630e-01  8.2997496753717248e-01  2.5706848271656519e+01  4.8182371430451944e+01  4.9247801906845623e+01  4.8760273676960573e+01  5.0179187613258676e+01  9.4004336830517303e+01  9.3615167461737499e+01  9.3610431721359376e+01  7.2134611339979358e+01  2.6093805369817744e+01  2.8719085675349334e+01  2.9081838742290103e+01  3.0796188698187972e+01  1.8595031450568784e+00  1.8951302092587343e+00  1.8235503913959625e+00  1.9225937939107240e+00  1.9911457697038395e+00  1.8568059041305489e+01  3.3245839099236875e+01  3.9707018046736526e+00  4.0351713754787166e+00  6.6916962602776184e+00  6.8838407827907631e+00  5.0806566611113105e+01  5.6820224429593672e+01  1.8390037727786797e+00  5.7490892034635765e-01  1.9474298235965183e+01  6.6106644073440151e+01  1.4180049989864957e+01  4.7449447947718248e+01  2.9329477292144198e+01  2.9336168454464485e+01  2.3859908011445938e+01  7.7646542102698310e+00  1.6092965112436480e+02  1.8181505746162858e+02  8.1360391844986012e+01  1.1867328227276177e+02  1.0362598911873903e+01  1.2736396388273673e+02  1.3242960526419100e+02  1.3732648861695449e+02  1.9557154034767912e+01  2.0001432894335064e+01  1.9629344583185777e+01  1.4054589701414483e+02  1.3859270562491071e+02  1.1073466640114907e+01  2.3744008359956108e+01  5.3877589961697481e+01  5.4925576502913245e+01  5.3936164727151784e+01  1.2372673724420396e+01  1.9614231172377197e+00  7.5056693517284529e+01  7.5030216069074982e+01  7.3037200907596471e+01  2.7023142831317884e+01  1.5437661847658573e+01  3.2545517916584856e+00  3.1305074710799983e+00  3.3134197964974081e+00  3.1775937612141982e+00  2.9786995928208624e+00  3.3633461610715889e+00  3.0133498017719198e+01  2.6244181333732104e+01  4.6175162057982703e+01  4.5391645969557352e+01  4.5546447469619316e+01  4.4775657621138727e+01  4.5237975735679818e+01  2.2933949358727670e+00  2.4105191140479421e+00  2.3277076320544545e+01  5.0687423771957150e+00  5.2346681386599725e+00  4.9062094765304494e+00  4.9205364709395795e+01  2.2073499794868276e+01  2.2521196940795747e+00  3.1068101569110802e+01  3.9686154933246215e+01  3.8085408750385362e+01  3.9931195750411263e+01  3.6415998376810400e+01  4.5076271120148839e+01  4.5149651418775868e+01  4.7137552066833408e+01  1.2183986770763402e+01  1.3785607320548889e+00  1.7644609313240997e+02  1.7789883343236843e+02  1.7083087505339188e+02  2.2761121660227248e+00  2.9569531889498082e+00  8.5272293779056980e+01  7.9476845596115083e+01  1.3202954224613546e+02  6.3490842635438893e+00  3.9538224224341356e+01  4.2075023108637623e+01  2.3915749809977158e-01  2.2090951419438165e-01  1.4669659962067180e+02  4.8083346239889003e+01  1.3194057631695604e+00  6.6673079004165032e+01  2.4657279009840639e+01  9.1824243767548879e+00  9.3578046842810583e+00  9.6934432211760946e+00  9.8760919051434666e+00  2.4776604988022246e+01  2.6321167383052092e+01  2.7217774740515434e+01  2.7820226537950656e+01  2.8773675915946530e+01  2.9582321851326178e+01  1.3723928225978064e+01  1.7713460745071973e+01  4.3119451704394649e+01  1.6868251076844407e+00  6.5147214276591408e+00  1.8164321813438768e+01  1.8196635490864455e+01  3.5827090888139701e+01  1.0954935165421531e+01  1.4502671780725288e+01  1.8633029578771925e+00  5.2689824619046677e+00  3.8191118416210202e+01  3.7773961639493955e+01  2.2309476786821794e+01  3.0524207795961428e+02  1.1152104516945373e+01  5.5279395588313607e+00  7.2046359262951896e+01  5.5210395198501141e+00  5.7382917394270088e+00  4.1881272136644609e+00  1.7926114642235820e+01  5.5523469866576754e+01  5.4521457662634781e+01  1.0293795081479738e+02  1.2813686740514232e+01  1.2387572255714122e+01  1.1814584164901889e+01  4.4402849069053040e+01  4.4063567208343812e+01  4.6052908885799177e+01  1.0145687737238775e+01  1.0432235405092509e+01  2.7980574048960398e+00  2.6754793367609526e+00  5.8030300222740635e+01  5.7040495893421756e+01  9.1013176324269267e+00  1.8093202167298188e+00  1.9051778576161307e+00  2.4032892662195838e+01  4.9527985735614486e+01  3.3258755083838402e+01  6.0532702796201974e+01  1.0475795090261183e+01  6.9022698669628781e+01  1.6443703881831098e+01  9.4245390371803509e+01  9.3004925913547169e+01  9.3873905630734896e+01  9.2186950002336431e+01  9.3070147405215337e+01  9.0953023833321311e+01  6.2596739864476323e+00  6.0354847066611175e+00  5.8696725429632588e+00  5.8244783153198760e+00  6.0070661234309668e+00  5.8015574820710301e+00  5.9638613180006770e+00  7.9928175087061234e+01  3.1486303534556068e+01  8.1342445888532424e+01  9.0632167997562249e+01  9.3506179496050493e+01  8.9847221568573488e+01  9.3149837602691449e+01  2.3959597659692786e+00  2.5050853845686545e+00  8.0383671383047613e+01  1.2925920217283024e+02  7.2419693053607858e+01  7.2965655764936965e-01  4.5392742001243711e+00  4.2929528639271455e+00  4.8383396949444277e+00  7.2288730240693639e+01  6.2194274381537139e+02  2.8311967399093366e+01  2.5631562623714683e+00  2.6272637238361725e+00  2.5255862475110025e+00  1.1363910719299716e+01  1.1618632813975985e+01  1.2789074792053827e+02  1.3342075689887704e+02  1.3362997212090747e+02  1.3804558084926612e+02  1.3947053092420748e+02  1.4459064953089816e+02  1.4501654416727425e+02  1.4975645255176724e+02  1.5038510435609297e+02  1.6264476212263801e+01  1.8543820240139020e+01  9.1257055907328819e+01  1.2082973269312571e+01  2.1523570901628645e+01  2.2110410297732429e+01  1.5445541864754672e+01  1.4372858210978325e+01  1.7335036047205293e+01  7.7147687356730700e+01  1.2841423747990152e+02  1.2980060504568428e+02  1.3379514501844193e+02  1.3503567880574860e+02  9.7244836872484672e+00  9.8809296162477853e+00  9.5464854393038312e+00  1.0070268193406143e+01  1.0392203051474517e+01  1.0606634801062389e+01  1.0925811385976322e+01  1.1145781902583144e+01  1.1504790943981204e+01  1.1811393911137170e+01  9.0420316413589717e+01  9.5953774852190136e+01  4.9840066215590952e+01  7.2070597773024243e+00  7.3337012737152492e+00  1.2074929039648808e+01  5.2342662865294720e+01  1.0238025117510702e+01  9.7100881196379198e+00  1.5108270408053736e+01  3.4876444714330428e+00  4.1350474937368818e+02  6.3352647952431917e-01  1.1308836065821223e+01  8.3984441973997320e+01  7.3113410393956372e+01  3.4616153614247708e+01  1.4779463891347597e+00  2.9124162623328349e+01  1.5087869599392050e+01  3.6088985177041444e+01  1.8761627532822892e+01  7.8666342991222606e+01  1.0482800677455892e+00  9.6238410819207554e-01  3.0642793646323675e+01  3.1449621574143169e+01  3.2438134038345147e+01  3.3483283424812562e+01  1.8329287146197981e+01  1.0683364729664777e+00  4.4973072135328025e+01  2.8088208627683912e+01  2.1897764696503512e+02  9.6424957763868280e-01  2.1641031521667490e+01  1.6676426701860780e+00  4.0040277745764371e+01  2.5905173485073709e+02  2.4971745894386811e+02  4.5985995519942998e+02  1.0665635765798100e+01  1.0415997310532710e+01  2.3592902777970632e+00  7.6950304963304568e+00  1.6972436275088473e+01  6.7932833704455098e-01  6.2437251525503668e-01  2.0827130106353553e+02  2.2020650228970075e+02  1.9713812675621480e+02  4.1441302936009894e+00  5.9840965230911500e+00  1.7755985884534336e+01  2.5701673510419312e+01  5.5048855001138456e+01  7.9800680967290901e+01  4.5841992868299315e+01  4.6366191026615034e+01  1.4149308791381969e+01  1.4400384178830604e+01  6.8988426470115442e+01  2.0250977082306156e+00  6.6256311894493090e+00  2.0129908039037858e+01  4.9524983221769628e+02  4.5523670707910111e+02  5.3683360787200388e+02  5.9744201870639394e+01  2.2021109636460054e+00  2.0443394921290672e+00  6.7737067807626627e-01  4.1875977377469900e+00  7.1230668114516602e+00  2.9014988048375958e+01  1.9480632451326554e+02  3.7432383252377610e+00  5.5269443620557084e+01  8.4982613552886832e+01  1.5430815998409207e+01  4.7152319871025128e+00  2.6870000255338535e+01  3.1621410659009608e+00  1.4785509112017582e+01  7.9877520830883935e+00  1.5379196170230474e+01  1.5578769216553118e+01  1.5647790415971523e+01  1.5847520627485531e+01  2.8188860828227558e+01  2.8070839470310649e+01  3.6049449380360805e+01  1.7456493970557357e+01  1.8304943797036233e+02  1.7125521921989701e+01  2.0580391960104190e+01  6.6994545534477041e+01  6.4193883642675829e+01  6.7002387421125164e+01  6.4050229848823079e+01  1.1969736636520734e+02  1.8737541573126823e+01  1.3479597633840760e+02  4.6355797107266046e+00  1.4037215315754828e-01  4.3063468335150112e+01  4.3580325844711410e+01  4.7971317356397101e+01  4.4929953035368428e+01  4.4190532334237851e+01  4.4304291893960119e+01  4.3637248216967826e+01  4.3481451685710105e+01  1.2833027808500333e+02  1.2644856123990142e+02  6.0741855144265857e+00  1.2252400171135518e+00  2.5863591592053132e+00  2.7299064251115595e+00  6.9335940811606580e+00  1.3240077515322801e+01  8.3930004751917579e+01  8.1725909274980353e+01  5.5494678885623483e-01  5.1705035477026984e-01  1.0265151580417167e+00  3.5316888917777646e+01  6.3325793175807039e+00  6.3870708643362448e+00  4.8779995499195552e+00  9.3887608472860649e+01  7.3691107785430745e+01  9.8973146446399376e+00  4.8303099971468555e+00  3.4645377260711172e+01  3.5262122964059358e+01  2.3268454309544286e+01  2.1718624992458782e+01  1.0235287492147169e+01  9.7519441865134446e+00  1.8175274685781183e+01  9.4582455323349961e+01  8.4109003282659223e-01  7.4378935099245268e+01  3.2303561492783515e+00  8.4399258469194915e+00  8.5242826864330059e+00  3.1290583020722920e+01  6.5147422302961004e+01  6.3042958085635767e+01  6.3500514928420472e+01  6.7130743350633068e+01  1.1075916929889599e+01  1.0985133042344703e+01  2.0701239599334087e+01  2.2582375432283716e-01  2.0794695104929273e-01  4.9994813830193671e+01  4.7948874426974022e+01  1.6373024265979523e+00  4.1744242883128413e+00  4.0537052996397804e+00  7.4628859427112815e+01  3.1738297733031743e+01  3.7226751891085814e+00  8.3236287991518452e+01  2.8647874187658422e+00  2.7414047467577958e+00  2.6999204568973068e+00  2.6201463717851827e+00  2.5851555401667077e+00  2.5138350674898180e+00  2.4728315276165000e+00  2.4076317375005774e+00  2.3641347436269973e+00  2.2936546712489170e+00  8.2038739845620483e+01  4.6817405998018714e+01  4.7441906561813610e+01  4.6121715174482368e+01  4.8140508585958855e+01  4.6794977441038526e+01  4.4923683932560124e+01  4.0977037946983643e+01  1.7691540865909550e+02  1.1421224064809425e+00  3.6494374958958620e+00  4.7636355110952195e+01  5.4529439047430834e+00  1.9853203671206121e+01  7.1565445645619448e+01  1.2076336942482209e+02  1.2740692755618348e+02  8.9235978664328883e+01  9.3188702190756345e+01  1.6720032453324968e+01  1.6909409404566105e+01  2.6568691387045578e+02  1.4794088218612746e+01  8.3737450908755111e+00  7.9456763413730087e+00  2.0047576584834054e+01  6.8567475476549129e+00  6.9327158696945332e+01  2.8375149534778036e+01  3.6031478737153769e+01  1.8141863039959492e+01  1.7948959141696154e+01  1.7650507312526493e+01  1.7609600125428905e+01  1.7383026974790859e+01  1.7455529471266541e+01  7.4788749038762681e-01  7.6644181982413451e-01  2.9285473791211956e+01  1.3574469815714036e+01  1.4217745339176247e+01  2.1228565625757234e+01  4.8710111121253669e-01  4.4253684024396833e-01  5.3173012509357676e-01  2.8619049851672074e+01  3.8388924842491001e+01  3.7813451592686668e+01  3.5365494944412967e+02  3.2373712037523512e+02  1.2670051834518052e+00  1.8061501424311193e+00  6.4701203614473766e+00  1.1631292580140291e+00  1.1955566701736720e+00  9.4719730118654311e+01  1.0044322071135262e+02  9.9128682850712707e+01  2.4162395574674420e+01  3.3116757075487402e+02  1.8443968009758819e+01  1.7679719329348156e+01  2.2995129272859906e+01  2.3932665491739321e+01  6.1121667311957751e+01  8.0009805818710167e-01  4.2087647813839610e+01  3.0568470035744543e+01  3.0950216879703891e+01  1.1583276702449886e+01  1.2172108854153251e+01  3.2547365727205233e+00  4.1571126139788490e+01  1.3402953064952817e+01  6.3856619708514006e-01  6.0572882024409214e-01  2.6399116441518395e+01  2.6784207273640423e+01  2.3554562470994554e+01  1.5785524612940964e+01  1.6046907509053117e+01  1.6104302711442259e+01  1.6337547731354078e+01  1.6378996054575122e+01  1.6610252123806649e+01  1.6649780119118265e+01  1.6849764125934463e+01  5.0317323040392559e+01  5.2324265040254891e+00  5.5111840111958639e+00  3.4018343364696882e+01  3.5428042281389139e+01  6.6118239099035607e+00  4.4746448162069266e+00  3.8337886490338344e+00  3.0144787230399865e+00  1.9102111677533159e+01  2.3098210593144151e+00  3.6355006459401181e+01  3.5053735443205611e+01  3.7715037111772723e+01  8.4264259189542710e+00  6.4304683047892283e+01  6.6438538673620613e+01  6.2234335024738407e+01  7.0708424064336661e+00  1.3001164590936144e+01  1.8999528642600900e+01  1.6793955961129856e+00  1.4647532859219170e+01  1.5186679990607047e+01  2.7656767056757634e+01  2.9953755527689523e+01  3.0292310635894648e+01  9.7170610203457102e+01  2.1154116705785874e+01  2.1632438202533791e+01  2.9294452686018595e+01  1.6549850603455035e+01  1.8755475307728158e+01  1.1021972511809750e+01  2.7369042314825975e+00  2.0839472917339994e+00  2.1316337050449419e+00  3.4165445977686391e+00  3.2734351770785417e+00  2.7828843253060150e+01  8.2816425042075679e+00  8.7572321400385125e+00  5.1994120832290328e+01  1.0812888810999782e+01  1.0576580992466129e+01  1.5881531988684848e+01  1.7280322266695921e+02  6.4938114853965985e+01  6.8413267726909467e+01  6.4272343451480609e+01  2.1045398174871610e+02  3.8476591970303247e+01  4.0135807105714477e+01  4.1711978809281590e+01  2.0190059123091625e-01  1.8906014403971286e-01  4.5582001287960523e+01  2.2209430195313349e+01  3.6875502614465198e+01  2.2697018121686828e+01  2.3005716569062908e+01  3.1702251797378648e+02  3.8487993501129915e+02  5.1240968223031892e+01  1.8906302752309372e+01  4.8690442714091169e+01  1.1098905700889189e+01  8.8776907729958001e+00  3.7633165274530552e+02  4.2465557712201170e+00  1.5405264420839297e+01  7.2067098416492726e+01  1.3236937633121095e+00  1.2606503216071427e+00  4.3851250049338915e+01  4.3085440712435201e+01  4.3282828836679506e+01  4.9540818792059902e+01  5.0277369032000543e+01  5.1637693082003871e+01  1.3670264166867090e+01  2.6102218044518334e+01  2.5824876410227649e+01  1.4104416681901653e+00  4.4936592853228008e-01  4.1228519620247300e-01  8.3688923793857062e-01  6.4523401441970583e+00  5.6943471911992947e+02  8.0311261934469480e-01  1.4061376865613312e+02  6.8265982009622972e+00  7.1784395938951802e+00  1.0677515811036665e+01  1.0912593804795529e+01  1.0256897829894889e+00  8.7891911655892073e+01  7.7219180024057749e+01  7.7210154526044803e+01  7.0464488100511540e+00  7.1099088698152402e+00  5.6718720566244549e+00  3.5468261654233775e+00  2.9517932932223299e+00  3.0958052857460960e+00  4.0628489986987155e+00  8.8057839220270068e+01  1.5492871805734376e+02  1.5607464684536964e+02  1.5971696399787120e+02  1.6082319416972550e+02  1.6490403505401764e+02  1.3704682430593256e+00  1.2891952917867304e+00  1.0895158007512952e+01  1.0652025433775707e+01  1.1205148704570615e+01  1.1266424562733762e+01  1.3074286918680869e+00  2.4876017583161484e+02  2.4345102798081882e+02  2.5100190603917212e+00  2.4986164368834309e+00  3.7039794625593913e+01  1.8592326497617464e+01  4.5531022274547993e+01  7.9173700600704500e+00  9.4520381373678308e+00  2.8151232031836048e+02  2.2686785264895238e+02  4.2770182221053030e+00  4.4255020040265105e+00  4.5919735653856817e+00  6.7018169532042350e+01  6.4132286111409172e+01  6.7179156213551437e+01  6.4305418822409948e+01  2.1989532427763012e+00  9.7524283371510769e+00  9.4446436544513801e-01  1.6884491167226841e+02  5.8341361496880211e+01  1.6843241965507679e+02  6.7935939131855489e+00  1.5130509633129910e+02  1.0665063023959344e+02  1.4083279361797881e+02  1.3514729907684946e+02  1.3948721167688004e+02  1.3785612209180491e+02  7.3401292542208452e+01  1.3965801516549561e+00  2.5426402072620004e+01  1.0747466735851171e+02  4.9502951169623039e+01  4.9097945726092625e+01  2.9711562207014564e-01  3.2498703914746185e-01  6.4324651640383905e+01  6.6296983242293081e+01  6.7797837015829188e+01  6.2347966561303544e+01  8.7793626125540854e+01  7.2219746357877327e+01  7.4851832724420291e+01  7.3983800947012398e+01  7.1197723006445372e+01  7.2998642382981743e+01  7.5849160347472335e+01  7.4563719061743058e+01  7.1750146780700973e+01  7.7341251806312258e+01  7.5819035621495985e+01  5.5813171483957120e+00  2.4760375829490819e+01  3.6397962238600407e+01  1.3369527570606806e+01  9.0740036699219658e+01  9.1377230473753684e+01  8.9820585825492969e+01  9.2260907264310504e+01  8.9071315896455928e+01  9.1430882935691614e+01  3.1901346960754569e+01  3.3325756887219022e+01  3.0449380744260758e+01  5.6630906322044446e+01  2.5058568487148115e+01  7.1646720931895288e+01  4.9246325868922938e+01  4.9693490287550560e+01  4.8906628010416966e+01  2.2489194170374095e+01  7.7270344720414798e+01  1.5151307394010720e+00  2.4568456380478633e+01  8.7988685427372616e+01  7.7858272082139692e+01  1.4551237775777260e+01  5.7784132666604783e+01  5.9342669300727792e+01  2.0935876540505058e+02  5.3529684541583427e+00  5.4043040675053016e+00  3.2621063963758154e+01  3.2257092124930317e+01  3.1640562542383275e+01  3.1902466279688454e+01  3.1274417267852929e+01  3.1523667013003209e+01  3.2182983721892086e+01  3.1872472238931913e+01  3.0953254326787214e+01  4.0543589921562692e+01  4.0035284512306148e+01  3.4873564307282834e+01  3.4467779879492241e+01  1.4920122873440860e+01  4.3461445171151345e+00  7.4029797112282125e+01  5.1920237651051391e+00  5.5040517633545560e+00  1.1809294380225708e+01  5.6909575162777308e+01  5.5138067884230104e+01  4.3120435944480469e+01  7.0684290826176746e+00  8.8559418829459631e+01  9.2848596328687805e+01  8.8065602665742873e+01  9.3001121638374613e+01  2.4838666359562298e+00  1.6788819794986509e+01  1.7617457319195104e+01  1.4181507071228259e+02  3.5418419179701964e+01  9.7844258798289587e+00  2.6824603006062842e-01  2.9605670238417786e-01  5.1167171907472806e+01  5.2108285332022113e+01  5.9527759673671298e+01  5.8305579696330931e+01  5.5585727226812309e-01  4.1038324941519321e+01  1.7704737206406827e+02  1.2806408151682496e+00  1.2555616683329427e+00  7.2694533361885689e+01  1.1332821986936517e+01  6.2947868689208249e+01  1.9335148734376897e+01  1.3118018042361543e+01  2.3473189541814523e+02  4.8201501018720741e+01  1.5182221997829720e-01  5.9836220216645934e+01  4.6557935147527466e+01  1.9821725918551955e-01  3.8233719348541158e+01  1.4523811286175674e+01  3.5620108911457173e+01  9.0824916427409789e+01  3.7864652455556239e+01  3.5240552230695016e+01  6.9253927265227887e+01  6.5851925256630850e+01  2.1715143936814741e+01  3.0745559899037339e+01  1.2412779752724811e+02  7.2276029051525779e+00  1.5532664666618142e+01  8.7220105013466753e+00  3.7781889235740782e+00  3.6731426568245755e+00  3.5371434454310533e+00  3.4284569520057215e+00  3.3169823594695567e+00  3.4713363506549894e-01  2.4570605241838994e+01  1.9753425295671420e+01  1.2914606666388858e+02  1.3754352149569397e+02  3.6137005458717780e+01  2.2249520491435280e+02  1.0655681433537399e+01  8.7619179908395466e+01  9.3069667391810285e+01  1.0968834191165232e+01  9.1732310174738132e+01  1.4176174556023713e+00  4.6982608869813440e+01  3.2438292526543670e+01  3.2072773869943241e+01  4.2032928508371825e+01  4.3762271334529785e+01  4.4455135170594801e+01  4.6179405742620339e+01  4.6677041300019098e+01  4.8562570688414084e+01  2.9816469892954974e+01  2.7410327030952118e+01  2.7069332915512366e+01  1.5540429383548378e+01  1.5102759138085344e+02  9.9731611503923077e+00  3.8703273253050206e+01  1.0900713539476186e+02  8.6997742280941438e+01  7.8656798591258308e+01  7.6682742837343767e+01  7.9498519118034636e+01  7.7110187080187316e+01  1.0838285516990335e+02  1.0280630765730800e+02  6.8279672192139643e+01  6.9757874606067844e+01  2.3386396211036744e+00  2.3359062464684421e+00  1.2841867157625119e+01  2.6017794962039847e+01  2.7058931157310482e+01  5.1452022342386279e+01  2.5804285906673483e+00  2.0987805029164801e+00  1.8490082129875734e+01  1.8796970045884184e+01  3.3846719860617496e+00  1.6960375452599175e+02  4.9674468710192073e+01  8.5437238055489892e+00  1.2924559616950725e+02  8.7997087105196741e+00  3.3429414222207909e+00  1.2123967721788912e+02  3.8987573331129295e+00  1.0301194020831106e+00  3.1397315786223782e+01  4.4067663362686389e+01  4.4168834577743375e+01  1.3166563303284001e+01  1.8959374589546712e+01  7.5585434960881095e+00  5.9880245512598940e+01  2.8360522784901945e+00  2.9091239069504056e+00  3.0227964446351647e+00  6.5640083890757708e+01  3.7399655861224382e+01  3.7463672682951668e+01  3.5793119599297540e+01  1.1226522215433631e+01  1.1448670475313349e+01  3.1151975276281689e+01  3.1591592182997321e+01  3.1152121629190905e+01  3.2022053076482656e+01  3.2494951364926955e+01  3.2960284650362546e+01  3.2418892794710530e+01  3.3467681702458975e+01  3.3857260183942458e+01  4.5351373266590393e+01  1.0930055273684962e+01  2.2917806850724087e+01  2.3361442979082035e+01  1.3852029268272839e+01  3.9161629878602973e+01  7.6423440665272491e+00  7.9109697350970158e+00  8.0445932791219725e+00  4.5192506553143383e+00  1.7291709265808688e+01  1.7092814602149751e+01  3.5761210237493608e+00  3.5348547465351977e+01  5.7159934423639376e+00  2.2733645812397754e+01  1.7207096683082838e+01  3.7604343035125986e+01  2.6423676228744437e+01  2.7266659759220744e+01  2.4332491533556556e+01  2.4956003707102798e+01  2.5252488794362613e+01  1.0388279478732970e+02  1.0885152830828608e+02  1.0907590179560643e+02  5.0627429652315953e+01  5.2949972385936903e+01  1.0727455964145277e+02  1.1274592457588913e+02  1.1376281299671647e+00  5.8818551441834096e+01  4.7654268086907891e+01  7.8314046779374792e+01  2.5283606525398334e+01  2.4959083307450499e+01  2.2156254295632035e+01  1.1577472840116421e+00  1.2528680818426158e+01  2.6413517108894952e-01  2.4642974351484007e-01  2.6407459089630886e-01  2.2041351138710133e-01  1.6760729471301921e+01  3.8302126137044176e+01  1.9075619771436454e+00  1.9170779986230924e+00  2.0322516484209934e+00  6.8294606165864380e+01  2.9555980649834613e+01  2.0311634758939000e+01  2.0440270243682043e+01  7.1944515083916070e+00  6.7363947347694591e+01  6.4708369115952522e+01  6.7754168331673441e+01  6.5212293220018665e+01  9.0562809185274503e+01  2.7961929537785272e+02  8.9348992824326118e+01  3.4303461133884502e+02  8.0565703307771074e+01  7.7711101310350415e+01  7.8103557674858791e+01  7.5882705072652854e+01  4.5557485567432956e+01  2.6141690482131730e+02  1.3621330826188052e+01  4.4758889374225408e+00  4.6312579973854566e+00  4.3198434805087338e+00  2.0077014216086857e+00  6.7161526345295131e-01  3.4504331681775177e+01  5.9709078545035954e+00  4.2009702738683394e+01  8.6944395277319089e+01  4.5850734654221384e+01  4.6912053318668463e+01  6.3038796350091609e+01  1.6005537556090328e+01  1.5482669823348759e+01  2.6106015161423816e+01  2.4738903242835653e+00  2.3547064392655837e+00  6.4824809754245894e+02  3.2682622705202775e+01  3.0464605423969369e+00  6.6304803037351917e+01  6.4562065777129590e+01  6.3723152126955377e+01  6.2969603293042574e+01  8.2696154024873053e+01  1.7285766537161550e+01  3.8267868629096324e-01  5.7748894847230483e+00  5.5906016542608423e+00  6.3742495059846640e+01  6.2663639324429830e+01  6.4671098923218651e+01  1.3857712720105233e+01  1.3671914639095403e+01  5.7331755468846053e+00  5.9390723187044356e+00  4.7422883631875905e+00  2.8684936211448239e+01  1.0329952189993574e+02  9.8380831006209888e+01  4.9232192570344370e+02  4.1714206172718185e+01  4.0335339940574514e+01  1.4364889367881140e+01  1.4962449763881764e+01  1.0829619794235937e+01  5.0270645501935647e+00  4.1643515099380375e+00  6.0233006928670733e+01  4.7485378535666896e+01  1.3753569955374894e+02  2.3340275607567012e+01  1.4821372245989707e+02  1.4531485528125404e+02  1.5247331298564225e+02  1.5335858796314258e+02  1.4079015760596900e+02  1.5493008253482307e+02  1.5973072629361698e+02  1.5206704259812241e+02  2.1291576787154426e+02  6.0546947493853757e+01  4.0199213590393235e-01  3.7499307392314407e-01  1.7828767662995944e+01  5.3216120045180260e+00  5.5148690406714671e+00  1.1371350007652767e+02  1.0408804978597975e+02  3.1236463796571257e+01  3.4712644852383483e+00  8.5994603106589977e+01  5.5301718643957365e+00  9.1460719699716805e+01  7.5287952972168227e+01  8.3107463005511539e-01  7.8034176215969464e-01  2.7696976421096693e+01  5.2591090853783648e+01  5.0956252342230016e+01  1.0607767953879199e+01  9.4479239607264176e+01  4.5742273923005188e+00  4.7464421480313783e+00  2.2276933532763183e+00  1.9053715621257492e+01  5.4990944276654474e+01  5.4020297583826533e+01  1.6863470841297449e+01  7.1116892129602050e+01  7.3961567918721812e+01  3.5589275405323853e+01  5.4771474876518793e+00  9.7524124631933962e+00  9.7197151435541276e+00  2.4347008905136278e+02  2.3332637934583195e+02  2.3622355196194195e+02  2.3351265865040853e+02  2.3347930847388781e+02  2.2497234757645120e+02  2.2337497442666964e+02  2.2732346379056102e+02  2.5747116130118791e+01  8.4978316887379233e+00  8.9527213213358579e+00  4.3616869687649054e+00  4.3667603242111719e+00  1.0986592038902298e+01  3.6975934082462314e+00  4.8370883779138346e+01  1.2575267627908573e+02  1.5238719699299248e+01  4.6265261938169971e+01  1.3967070143359225e+01  2.3204328406873419e+01  3.1989889529126888e+01  3.2016838801982153e+01  2.3461535961092821e+00  2.4070740082297569e+01  2.1363569887595502e-01  1.8980819761183132e-01  1.8423691798095621e+01  1.9177082305779066e+01  1.9687321150197672e+01  5.9589849929614751e+01  2.9509081131957698e-01  2.6344952427947756e+01  8.1119825993854437e+00  8.0196802509399685e+00  9.7540801609514844e+01  6.1513553359877172e+01  6.1678883221587519e+01  1.5974497676238006e+00  4.3561037814936505e+01  4.3089828691805607e+01  3.3650065050018057e+01  3.2528736741623440e+01  3.1016907448914530e+01  3.1553703122815072e+01  4.5867032664033289e+01  4.3932147858117219e+01  4.2616454718743178e+01  4.2784160137175306e+01  6.9965013358657142e+00  7.3230994389695052e+00  9.4388842227421023e+01  2.0732982210600905e+01  2.0987445385299459e+01  1.7160564345062209e+01  1.6830728345801987e+01  3.9931175529886360e+01  3.8782041006878622e+01  4.1037745800066055e+01  5.5534192899914764e+01  4.8327959476588767e+01  4.9491570426328060e+01  1.3210650468302485e+00  6.4229981374774763e+00  6.0885469443308731e+00  5.3851413047856347e+01  5.6932128757767721e+01  1.5797180107958961e+00  1.8146881424851599e-01  3.3341989051022104e+01  1.3507465837504492e+01  1.3627527855719267e+01  4.9754318889366722e+00  8.9456603736898771e+01  2.9454343945876566e+01  3.0562961872236077e+01  7.9804122681614245e+01  7.7031095310186501e+01  7.9421745998479096e+01  7.6629277275617554e+01  7.4186718986927218e+01  4.2879323200086908e+01  5.2670601517532404e+01  3.0316195343756046e+01  5.0802704693623930e+01  2.1057043751429334e+00  1.4129904306255742e-01  9.9913814152088847e+01  1.5446923295437705e+02  1.8531434050101058e+01  1.3631979787876300e+00  1.4007345497011309e+02  2.5033376195744378e+01  6.8456227043533247e+01  6.5684689613221579e+01  6.9537456922060173e+01  6.6376329324899402e+01  5.9451058165616155e+00  2.3890227381293190e+01  1.0371856051129632e+02  3.1430130171413201e-01  3.2515188359859798e-01  2.7891407781883988e+01  4.2065849222612066e+01  2.7371920854921097e+01  9.6179569283400809e+01  1.8849997541063789e+01  1.8134550992274377e+01  8.9671724120687884e+01  5.0818403715009826e+00  4.5929104935977705e+01  3.2562889474101709e+01  1.0983907508091713e+02  1.1213957184492703e+02  4.0149100629445932e+01  3.9584640351181108e+01  9.8445688878483082e+01  1.0013932198323920e+02  2.5291908691793612e+00  2.6638141663021129e+00  2.6626074657193128e+00  1.9797626902912796e+01  7.3846176621763490e+01  1.6294533961389245e+01  3.2053304692487579e+01  2.3228007539377828e+00  8.0009737032507928e+00  2.5769143544184594e+01  1.6424282902808432e+01  1.2545691149887960e+01  1.2330433989590270e+01  8.2141559356929292e+01  2.2498479405496127e+01  8.6708346490567294e+00  8.8600444407255861e+00  2.0859365199997569e+01  2.1204968283847574e+01  9.0696862314790621e+01  9.1244823819717851e+01  9.4869006819917232e+01  1.1464098812838962e+02  1.9413537273795345e+01  2.0296112506781455e+01  1.7428879673156636e+01  1.2821718578694723e+01  1.3080116278688356e+01  1.4800924104565931e+01  3.4727218829093516e+01  3.5677661406615570e+01  1.2828316637159574e+00  1.3860543497343278e+02  1.7571737322288758e+01  9.1943606093188166e+01  6.2981858786347708e+01  5.9796353771568981e+01  5.7963983350127513e+01  1.3095875111440055e+01  5.8332434669372610e+01  1.5841110933354855e+01  3.8505552849838637e+01  1.4422966318031632e+01  6.6107674378300658e+01  5.7779781207867140e+00  5.9765808107805478e+00  6.0232623901403585e+01  3.5237874204274171e+01  6.2576368223569840e+00  5.9246363114085678e+00  5.8379877783141687e+00  2.4752554344417010e+01  6.7110460729718568e+01  8.7498419945791255e+01  9.2807928697213484e+01  8.6599730957683619e+01  9.2568372636021252e+01  8.7456641810527998e+01  9.2916448339031760e+01  6.0702713239631223e+01  7.8080747705040707e+00  9.9515080441535503e+01  1.1917763078004212e+01  1.1460745075218817e+01  1.1271324327847632e+01  1.0948054885104945e+01  3.6053417095084427e+01  6.6001201379113851e+01  5.8181602306636883e+01  5.7084819680167350e+01  3.8052256138432440e+01  5.7959337439639597e+01  2.6619192473325153e+01  5.3505246901709147e-01  4.8933243367601309e-01  2.0551987475899139e+01  1.9606434749062196e+01  3.3379485666572348e+00  1.3021110301803164e+01  7.1429431458981207e+02  9.2414160665634199e+02  1.9666492600382632e+01  1.9906981373143708e+01  3.6985895838068735e+01  7.2937955226665778e+01  2.3046087676269302e+01  4.2371272821566478e+01  1.1619410749158574e+01  1.1925865885007044e+01  8.7793437192119839e+01  1.3015022334717130e+00  2.4672311905041902e+01  2.4551068685117212e+01  4.3117815460375212e+01  3.5553281158577290e+00  3.4187536803300334e+00  3.2805368593087767e+00  4.5737108920515972e+01  1.2520632473418845e+01  8.0195561177693211e+00  7.8938353299759001e+00  8.1582311144032520e+00  1.9095213517823435e+01  1.8828437401201047e+01  1.9182127092303077e+01  1.3616170779746713e+02  1.6189828668103871e+01  1.6424271952726304e+01  5.2924061489613919e+01  4.9835452328879256e+01  3.9906552428080668e+00  4.0606599168086071e+00  3.9963243757852913e+00  4.0380701085246500e+01  6.6606317282624744e+01  6.9257608588497021e+01  1.3054715565995267e+02  1.2611582827225978e+02  1.0625160747681939e+01  7.2804245080580721e-01  8.0047215284031914e-01  8.3350813771738752e-01  9.4079272405124200e+01  2.1982109397010777e+02  7.0582853650774195e+00  1.4108530754699805e+01  1.3398132809619531e+01  1.4155854587821386e+02  1.8632985762055873e-01  7.0339482089432607e+01  4.6636633154577879e+01  5.2821449482375780e+00  2.3508752726585924e+00  2.4888542227228769e+00  1.0951974754350196e+00  1.1359459999161114e+00  3.0894496593286469e+00  3.6304530168428194e+01  3.8230741681330578e+01  3.8779533588694889e+01  4.0871440228448193e+01  3.3568306629985145e-01  9.9443506588164539e+01  2.2350759206720269e+01  1.2504172213938777e+01  1.2745726212172029e+01  4.9180550358316033e+01  5.1118754934180707e+01  5.2127088463286483e+01  2.4474414324655049e+02  5.4184154723197544e+01  5.4936938132102519e+01  5.5322214994574061e+01  8.5585071187295245e+00  9.6378957437727479e+01  3.2649264385971939e+01  1.8573021241067345e+01  1.8914861965967255e+01  1.5266186381945294e+01  1.5862415039198442e+01  6.5174989794659908e+01  1.7269762093402960e+01  1.8207849626577268e+01  6.1650430662360405e+00  3.2114102212965316e+00  1.4707955059174788e+01  2.5351425331142803e+00  8.3343887190918664e+01  2.7118851445064813e+01  2.7163275162509532e+01  2.7112080544661424e+01  2.2618231574552507e+01  2.4767063681076428e+02  1.8128196769819723e+01  1.7290825836520131e+01  1.9007802273988332e+01  2.1888777499003677e+01  2.4941460876661939e+01  1.6770202869478323e+00  9.9523716420233725e+01  5.1772392485595731e+01  5.2474391935426674e+01  1.9464759745903601e+00  5.0488430852715055e+01  1.9504222608540924e+00  5.9467178399604581e+00  6.1138848899960596e+00  4.3637904769989149e+01  7.0563674663500862e+01  6.7374491845644073e+01  6.1758143681732030e+01  6.3527637461537410e+01  6.0689908845538525e+01  6.2654847150473515e+01  6.5751870191485366e+01  5.3310866772316805e+00  1.1294002974633655e+00  3.1096363668438240e+01  3.0824059423740948e+01  3.0522185882369321e+01  4.7397855328827717e+01  4.5721500220182612e+01  4.7224905177680064e+01  4.5750434077574404e+01  3.0875262173523875e+01  2.3935156450918299e+01  4.0056541664195457e+01  4.0596465432550566e+01  1.0962362549457589e+00  1.4106154128907587e+01  1.8028661876229439e+01  4.4887045421486619e+01  5.2921012528352570e+01  5.3833957268331041e+01  1.2250320895943864e+02  1.2237468538936405e+02  1.2713832663274701e+02  1.2359305430799873e+02  1.2868205189273837e+02  1.2443067203448689e+02  1.3036110472309915e+02  1.3317374723231498e+02  1.2801554472387397e+02  9.5729019535475075e+00  6.9420519183420083e+01  6.6906256494239315e+01  7.1844145754197939e+01  6.8684284046442428e+01  3.2918019419839243e+02  3.0469473263956399e+02  3.5193380101276227e+02  5.4201997943871980e+01  1.2310397358187048e+01  1.2088285967777166e+01  7.8481603818333326e+01  7.5792357630384600e+01  3.9305675118585075e+00  4.3437727034808254e-01  6.2110712355966385e+01  6.7056796602346580e+01  1.2253628316165678e-01  4.4635175738157557e+01  6.3585425553342856e-01  6.6899071162649659e-01  7.9213333362633369e+00  2.1696901324166436e+02  9.0094247534983566e+01  1.1573285750841075e+02  8.2462695712900157e+01  2.6559795062692397e+00  2.8060671378877169e+00  2.3587715221190683e-01  2.5776399067770794e-01  8.7531507596241781e+01  6.0414165024932295e+01  2.2011913648019825e+00  1.9105872180484706e+01  1.9179203730278882e+01  1.4040258297858035e+00  1.5039117181043162e+00  7.5416386617704319e+01  9.8242513086944001e+00  9.5421736843573388e+00  1.0102470421726945e+01  1.1606110057526044e+02  4.5833843195556319e+01  1.0474194292630449e+02  1.0925050493730410e+01  3.8599635271540720e+00  4.1278515692118631e+00  2.0921898006624382e+01  1.4854196551161729e+00  1.3181015176245701e+01  7.8590507137426107e+00  8.1509374853238743e+00  4.6313374796047174e-01  8.3392795518313122e+01  1.2909433925964402e+00  1.2172605385188281e+03  8.3770427746290363e+02  7.5163559356212044e+00  1.5794340064430972e+00  1.8646363936408733e+01  2.7782651904396380e+00  3.1081558838866061e+00  2.9635496022522108e+01  2.3006041655317398e+02  3.4889934857080107e+01  4.7168538909153547e+01  4.9091939308820038e+01  4.9112256872028468e+01  3.0541539918618860e-01  3.7104115517274060e+01  3.7225491205340703e+01  4.2642328254198517e+01  1.1374441599744523e+02  1.1155300560189681e+02  1.0708035910842447e+01  6.0774729036387455e+01  9.4431284358738907e+01  9.1408635527482147e+01  9.3154799704513582e+00  9.4431947192382104e+00  2.3731694334284260e+01  3.7659830169867081e+02  3.7175949666737898e+02  3.4384190526810204e+02  3.6779807830049045e+01  3.9208874738137553e+01  1.6434137695906479e+01  3.4044320948333997e+01  2.2489725174038121e+01  3.7267141952018441e+01  3.6704380952946430e+01  1.5043369152010568e+01  1.0675627813646581e+03  2.0634988068746325e+00  8.3785021045683351e+01  1.6511017956797863e+02  1.6998185518465598e+02  1.6852588871763999e+02  1.1485964319725126e+01  1.1999569219309420e+01  3.8620527535022951e+01  3.9070716587388652e+01  3.9037534653312967e+01  6.2705175753371527e+01  2.9509782479829994e+01  2.4617122579839514e+00  1.1931857859381137e+02  7.2787614817511059e-01  3.5123804161812210e+01  1.2869741078222297e-01  3.6047140738753207e+01  3.6937263314191789e+01  4.9888008791214048e+02  3.4828937725590450e+01  3.5507610293862157e+01  5.0164833851048840e+00  9.7670963360884002e+00  1.3629464976444581e+02  1.0853147518407675e+02  5.0545124922304474e-01  5.4699292874518435e-01  4.5687370832748549e+01  3.7804825610774117e+01  3.7364081237924637e+01  3.5760996725044805e+01  3.5818662545908076e+01  6.9833227726340354e+01  3.6548312012459590e+01  1.3044442847905479e+01  4.7548758408563291e-01  4.4384889291047314e-01  4.7538425257836459e-01  4.0563871094820808e-01  3.7601837004901262e-01  4.0750491408382794e-01  2.7802069852800071e+02  6.6064590014114044e+00  9.5109416761787742e+01  1.1391937681739664e+02  8.3415575931535983e+01  8.1200588995721574e+01  1.3593821093619665e+00  4.3809532827193699e+01  7.3127238340555166e+01  7.0019264514496868e+01  6.1763397563711500e+01  3.0775778489981302e+01  1.0084259325591722e+01  1.0685712710783447e+01  1.0075828224348651e+01  1.2850562726264954e+02  5.1298355995292894e+01  5.1252658127148514e+01  5.4005700006780323e+01  5.3561366814483179e+01  4.2286149542467202e+00  5.0219280456358021e+01  6.4043408375257975e+00  3.5041380474995485e+01  9.2633286135174175e-01  3.9205320113596230e+01  2.1621323709012149e+01  1.2712629607251409e+00  1.6225489372211999e+02  1.1793858943317439e+02  3.5675337430184818e+01  3.2527409077822464e+00  3.2436657480081177e+00  1.5048904983522327e+01  1.4098635309320185e+01  1.4201964742792988e+01  1.5710288279563386e+02  1.6483866563964560e+02  1.6195249927234738e+02  1.6994656735056230e+02  3.8724827272083644e+01  1.0568271395950662e+01  1.0483625168304471e+01  6.1319897757710045e+01  1.0462084271171839e+00  1.8756128073565739e+02  1.8726863652272917e+02  1.9244680959962881e+02  2.6822613679844679e+01  2.6939071655117079e+01  2.6589740819730928e+01  2.6681771480586551e+01  2.2269813164705141e+01  2.2140095633239547e+01  2.1786930522591728e+01  1.2375290625807613e+00  1.7241291051621896e+01  2.4850306973507823e+01  2.4420182391344589e+01  3.8393368284414159e+01  2.2558592058024134e+00  4.3701648285949402e+00  5.4715094172211174e+00  5.3074265097932045e+00  6.4462310555249482e+00  2.0840290558557683e+01  5.2503979464293685e+01  1.9463736515541723e+00  2.2454902294612712e+01  2.1983958726855644e+02  5.7318156235249305e+01  5.8378875505890328e+01  5.6419723436848173e+01  2.3643372359075322e+01  6.1295629778978899e+01  3.7877229968867346e+02  2.0748010882723051e+01  2.0490264571184060e+01  2.0778790091966425e+01  2.0550314217970172e+01  2.0847456516555827e+01  6.5686346261138553e+01  1.4019924316947900e+01  2.5427587772345998e+01  7.4552821122078797e+01  7.4913424393419902e+01  7.7039441867314054e+01  1.5093011818580711e+00  3.2142820130105491e+01  1.3319756885491865e+01  1.6884273045131909e+01  2.3783694100713070e+01  2.4311272766142715e+00  7.4793697786015613e+01  2.2198809957040499e+01  4.3542918364016721e+01  2.9487641226654702e+01  3.9322444681432946e+00  3.8088545855624005e+00  3.6909331602212014e+00  3.4315703883664743e+00  2.4071775210045264e+01  3.8374053571602880e+00  8.1637700116571949e+01  6.3899843630010771e+01  6.2191500211932514e+01  6.2724488707554350e+01  6.1218474045215501e+01  6.0719686814674311e+01  5.0439006974968017e+01  4.9923275990622024e+01  1.3396565680553857e-01  6.2103732827584892e+00  6.2625633289520088e+00  6.1749916608897145e+01  1.7977832625413313e+01  1.5252151705121090e+01  2.7296257598431769e+01  2.7701077938677663e+01  1.2981144143719493e+02  5.0155399981427038e+01  4.7895621786946407e+01  4.2071985922227022e+01  9.8551310857902891e+01  4.8009860237160140e+00  6.1721423952927140e+01  5.9668687887763319e+01  1.3105534090328625e+00  7.0806466508179071e+01  8.7403899632806400e+01  8.4917303183415470e+01  3.1958613471099767e+01  4.7168071783791589e+01  7.8620198724996309e+00  6.0597686161306923e+00  8.6005771751612542e+01  9.3303548018324449e+01  8.6434206971779716e+01  9.5398412138245703e+01  1.1704793678398035e+01  1.1114178725449861e+01  6.2859450821444149e+01  6.0914709799374780e+00  5.9133175509755347e+00  6.1232437599747600e+00  6.6208054598398775e+01  2.9876900290003632e+00  1.6283474300326507e+01  1.6461878445551097e+01  4.7246557306145988e+01  4.7268315827660984e+01  1.0060693388281555e+02  2.8803513255857048e+01  2.9061138541879828e+01  3.2977383454675157e+02  3.6124811868317437e+02  1.0675515437358321e+02  1.0617829177168060e+01  1.0361753516765287e+01  1.0156450940603296e+01  1.0070978291496445e+01  9.8739148519566022e+00  9.5971678229414099e+00  1.0000506724594535e+01  6.4655535624049733e+01  1.8193358287885740e+01  7.5115921382363823e+01  7.3437175659712594e+01  7.6125588688510746e+01  6.1416512917431509e+00  3.3678428738018162e+01  3.2455247350448595e+01  1.6125218975557608e+01  1.6147099597949737e+01  1.6412985038115636e+01  1.6771944018411556e+01  1.9794962826700458e+02  1.9746881717361890e+02  8.1896288941900526e+00  4.7427936479871251e+00  4.0980560828144359e+00  7.1131504140961439e+01  5.9602974671083345e+01  6.2132037595408129e+01  5.9143417675534359e+01  6.1362545997760691e+01  1.0427023887926477e+01  1.0338895427418993e+01  1.0181951153216533e+01  1.0043182098011854e+01  9.9601878281728986e+00  1.6127910306609415e+01  4.7229428128974810e+01  3.6243998063758887e+00  2.2742449416447648e+00  2.0550032709023434e+00  2.1303669880469807e+00  1.9778536518660788e+00  1.9144086677473204e+00  1.7859846793250491e+00  1.0816951377504650e+02  3.9996984280197182e+01  1.0899940198960695e+02  2.7398597048527017e+02  3.3450404465825279e+01  3.3282370922786349e+01  3.2785053960231849e+01  3.3292424941132715e+01  6.8091979926916906e+01  6.8596767763352801e+01  3.0743577266383308e+01  9.6915701681653260e+01  2.7115827711407636e+01  7.4600036402216304e+01  7.1686455832235012e+01  6.7354687343721949e+01  7.6425388925728015e+01  7.4035897082533310e+01  1.2011047152651592e+02  3.0023732322445309e+01  2.8903339485450612e+01  3.1083266036214958e+01  2.3733436684306579e+01  1.8735144377950455e+00  1.8929049382012901e+00  1.1707962900279223e+00  3.8181172754727719e+01  3.7776310590309009e+01  1.9107765242933901e+01  2.9423817068258177e+02  2.5127862918974455e+02  2.7100106594424904e+02  2.3077606872938628e+02  2.1569353724700130e+02  1.9905281568209537e+02  1.9292925214053543e+02  2.0598056427647063e+02  1.8142976448756798e+02  1.7359709198554614e+02  1.6471254168762167e+02  1.5732601317515574e+02  1.5088173498165787e+02  1.4280140633139055e+02  5.3313366587236757e+01  2.5302493658821895e+01  3.6596541747032660e+01  9.0298474248212671e+01  2.2638353292388036e+01  7.9572965299041398e-01  3.2151444763647596e+00  3.1319226462465770e+00  3.3056322425305349e+00  9.5473243166450359e+01  9.9568582657831769e+01  9.8641402814272141e+01  1.0368741603127610e+02  1.0444214296073515e+02  1.1826376702031057e+01  1.2074173762316006e+01  3.7399849225781412e+02  2.2987123244558130e+00  2.3867164631688711e+00  2.5435366252874414e+00  2.4773437455352139e+00  2.5333840596600301e+00  6.1169520952814037e+02  1.4058849370853530e+01  3.7293818149589946e+01  3.7612093027007511e+01  2.9069664189806208e+01  2.8918340839195150e+01  2.7135421411255862e+02  4.9573094889433396e+00  2.9336221278153034e+00  2.8313797675064687e+00  3.2589911099321291e+00  5.6273395263578522e+01  2.5405626215258277e+01  2.5922410198069233e+01  7.9188874412434380e+00  3.4213635116589380e+01  1.3529293312510071e-01  2.4276387602527496e+00  5.4406253476339232e+00  6.0242651047942573e+01  6.1581729889675820e+01  6.9905160487681911e+01  1.6350222443008697e+00  7.2470585856242096e+00  7.3040160843165163e+00  7.1635613759194268e+00  7.3561927143884898e+00  7.5023018240773460e+00  7.5499620122371951e+00  7.7057736413665632e+00  1.1603742770969738e+01  2.0027810178437754e+01  4.9071606203338170e+01  1.8226798553763832e+01  1.8757722382081248e+01  1.7532967729141991e+00  4.7797575814409122e+01  4.6075831307347862e+01  4.7453825864201306e+01  4.6407948981509882e+01  1.1416284233705474e+01  1.1338825395563843e+01  1.4451876702562777e+02  1.9602205454694253e+01  1.4971582970770405e+00  1.5196624307620561e+00  1.0117132652262891e+01  9.8896214122687027e+00  9.7529288199185018e+00  9.6194793774640299e+00  9.5384616053433344e+00  9.3982709537628910e+00  9.2791912020117859e+00  9.1996474262985064e+00  9.0508417191123307e+00  8.9734342366783384e+00  8.8430306747611933e+00  9.4957463139749052e+00  9.4174871443927479e+00  8.7583954765151724e+00  8.6254334922321725e+00  8.7105041398723948e+00  8.3806265756207186e+00  7.0567752829521893e+01  4.6660628132792465e+02  4.0688799857274103e+02  3.4647054963962984e+02  3.8397498827150326e+02  4.5171804910187842e+02  6.6726813664546242e+01  8.6307407364110766e-01  4.0817940676262223e+00  3.9663331476470924e+00  2.5964956283006700e+01  4.9210449932618246e+01  5.0713755796224667e+01  4.8115721935271317e+01  1.7041843395186000e+01  8.8128371903570965e+01  9.0374491255191202e+01  1.1579663168676909e+01  1.1434459666179496e+01  1.1495404368098047e+01  1.1129958689154504e+01  1.3940971519734765e+01  1.3634443127145211e+01  1.3441628395456307e+01  1.8569376243665729e+02  5.2430184899396593e+01  5.5183298466683341e+00  3.4607914638151409e+00  6.2174295187292280e+01  6.0370795576922511e+01  2.9101398690995416e+02  3.0671016760641095e+02  3.2403713750047831e+02  3.2255448598226309e+02  1.8495495351215126e+01  2.5127225080673171e+01  1.4682606065425157e+01  1.3780125416742635e+02  1.6402404105916013e-01  1.5944293344186028e-01  9.8774122939072360e+00  4.3656664569964732e+01  1.6587185650906438e+01  1.5791188180157487e+01  2.7000694734943529e+01  5.1145094497353142e+01  5.1150839756982037e+01  1.4998338435466636e+01  1.5546409348104760e+01  1.5736067632980115e+01  7.1843721723937781e+00  1.0723507853603337e+01  1.0398049920705660e+01  6.2106923005631515e+01  3.6232925475880400e+01  4.1953298347953455e-01  1.4478921315236553e+02  1.4681883501080890e+02  1.5153118700298791e+02  1.5064775986848403e+02  1.5527359747190837e+02  1.5893903580493364e+02  1.5919606882442207e+02  1.6384468871975614e+02  1.6336568507954638e+02  1.6751798423138356e+02  1.5976677198094279e+02  4.9325299279357068e+01  4.7146895349476736e+01  4.0234995521672107e-01  2.9202461173908500e+00  2.8156045822953710e+00  1.4236253539985475e+02  1.2514176926128050e+01  1.4449678533454935e+00  5.5835550097053677e+00  3.6500041465450344e+01  1.3794829486706831e+02  2.6608514096926852e+00  4.1316778879640559e+00  3.0347042348563829e+00  5.2443079939322876e+00  2.0253320616674333e+01  2.0268311542374807e+01  6.3897599267297032e+01  6.4977821346346275e+01  2.1017033450615617e+01  8.3546845445604433e+01  1.8962852465182312e+01  1.9228445551778162e+01  2.0575481127496243e+01  2.1102622187583854e+01  7.0043969098621034e+01  7.1645285294743829e+01  7.1405670441306881e+01  3.2347445068630712e+01  3.2012569831325102e+01  1.0338837953116061e+02  3.1410067855154853e+01  4.9277901809180520e+01  4.8937388545254215e+01  3.9599551269007783e+01  3.9306670203373201e+01  4.0433071685859169e+01  4.7446515888912533e-01  5.8039026341938673e+01  3.3856469945713656e+01  3.3073982107230201e+01  3.2660274484678737e+01  9.5671855076147665e+00  9.2027795277400664e+00  3.6390663581446326e+01  6.1891410151074837e+01  6.3432462793729449e+01  6.0850888671297689e+01  1.9932763423273972e-01  5.6690312461775241e+00  5.7881104507334120e+00  2.5377489732142664e+02  7.7608219906783100e+00  7.4061331164566049e+00  3.7868195611192380e+02  1.3022272795649771e+01  1.3504779675370404e+01  7.6693353146304489e+01  3.0891209931575808e+01  2.1593972823266782e+01  1.3940513371217849e+01  4.2493517343349950e+01  1.1624419540987535e+02  1.2237191637382097e+02  1.3574238372044782e+00  2.2841531774105545e+02  8.9824808901998683e+00  9.0393026992785455e+00  3.2676045324594988e+01  8.6425096193086670e+00  3.6974541168653467e+01  5.9089396353730514e+01  5.9132045259074428e-01  5.5834815946110006e-01  5.7199034981531871e-01  5.3144585455408877e-01  5.5626549499047317e-01  4.9460044929867097e-01  8.1760018736726128e+00  1.9768582709882773e+02  1.9216677534214099e-01  1.5776604942360958e-01  2.7922848431854955e+01  2.9044496885616248e+01  1.0569733933135967e+00  2.1893358693347722e+01  4.2441878127441882e+01  3.9129024026564196e+01  2.4584866009271011e-01  2.3101300037145875e-01  1.6149359920464980e+02  2.0851113509582536e+01  1.0567839072291795e+01  5.6761834731963901e+01  6.2487654331195419e-01  2.2377906567074369e+01  2.2040284912282246e+01  2.1161572228000317e+01  1.0684467236575559e+01  4.1460339110332406e+01  3.9736163342904959e+01  1.0266660871672100e+01  7.7721321130007137e-01  1.6920459739416858e+00  2.6844923048251854e+01  4.2388324686302941e+00  3.9530188035692888e+01  1.6143324002545157e+01  2.2596178676943737e+01  9.2454257502274828e+00  3.6892692263535536e+00  8.4937006359258987e+01  5.2967618175053929e+01  5.3539800090341039e+01  5.5099278149755044e+01  5.4229184951966509e+01  5.5776041387363023e+01  1.9431151161492668e+01  8.3185478809580660e-01  2.1568928925911784e+01  2.2287342703399759e+01  2.2772759540969503e+01  3.5926468198276616e+01  6.3539828359492063e+01  6.3523561151174171e+01  6.5238284211345288e+01  7.9426933437999679e+01  7.9266768920960232e+01  1.7521472047768995e+01  3.8494733882354893e+01  6.8326406843309613e+01  6.8695308389741825e+01  3.2143269744883334e+01  2.3586727205114624e+02  1.6092705011399818e+01  2.4756324259079495e+01  5.9735255972088915e+01  2.1691036148397760e-01  3.1338528430244662e+02  2.9922212195330042e+02  2.9040199305071280e+02  2.8216065424183023e+02  2.7641376690717925e+02  1.2352540703668618e+01  1.7441208113035860e+00  4.9491477902514411e+00  4.6780059050627951e+00  4.4236989669706235e+00  4.4002056436287553e+00  4.1737410451230073e+00  4.1790698066392320e+00  3.9434736807134252e+00  3.9741858813819180e+00  4.6104406808899858e+00  8.3251916996170365e+00  7.9153391423785227e+00  3.1414612105426958e+01  6.0747990132157081e+00  1.0352068832845228e+01  1.6735714930109804e+01  5.4636701729071994e+01  9.3822389581967968e+01  9.4494457887456207e+01  9.4177826876668988e+01  9.3881192311041005e+01  9.4165996218791392e+01  9.3161060998158916e+01  9.2756104053634743e+01  9.3836234688880552e+01  9.2648415799381041e+01  9.3484323896106275e+01  9.1958149050085211e+01  9.3242100936487859e+01  9.1154632624086958e+01  9.0459796021137876e+01  9.2548447665286204e+01  9.0348610455588641e+01  9.1818197469190935e+01  8.9607375026889585e+01  9.1389231328023115e+01  8.8742719602787417e+01  8.7515895223706195e+01  9.0499505269042004e+01  8.7908963042834813e+01  8.9536265930676777e+01  8.7090386575211866e+01  8.8710131176933231e+01  8.6405428184984771e+01  8.7730721807442137e+01  8.5625164242657618e+01  8.6805234444611088e+01  8.4925940022292650e+01  8.5856684443301759e+01  8.4194214575301871e+01  8.4955138872692814e+01  8.3447420176926371e+01  8.3992014314510968e+01  8.2781775535941023e+01  8.3130884514442371e+01  8.2120194594344312e+01  8.2212136258753020e+01  8.1481541586716176e+01  8.1317945812497854e+01  8.0815541478199464e+01  8.0523871486535057e+01  8.0212622761658395e+01  7.9740228261643352e+01  7.9649235062988396e+01  7.9057545973449095e+01  7.9157731365450033e+01  7.9844133870500542e+01  8.0961149191566591e+01  7.8468410016815696e+01  7.8781001638152830e+01  7.9249994313701976e+01  7.9074088909315705e+01  7.8376215159210147e+01  8.2443154328284876e+01  8.3614049416298201e+01  7.9380476467572265e+01  7.9394957163443053e+01  7.9466660568908864e+01  7.8156106743841917e+01  8.5606269456416314e+01  7.9814151744650786e+01  7.7366370276225069e+01  8.1818247906366210e+01  9.3085347351200255e+01  8.3996309355737779e+01  9.4771606246797560e+01  8.6278936228793910e+01  7.9357071831186076e+01  8.8514549941704090e+01  9.3799123655369854e+01  4.1905104218797584e+00  4.6848753186423489e+00  4.6722841459351400e+01  2.2388084767549284e+01  6.6870156698104395e+01  6.0451447249178862e+01  1.2198690345781240e+00  2.9924256641168805e+00  2.8115846348470259e+00  2.8102757655026336e+00  2.9927518207310917e+00  2.8429333035795055e+00  2.6455438022559292e+00  5.4111604648163741e+01  6.2907857380215056e+01  3.9559129912912503e+01  2.2521741175957544e+01  2.5437717446978180e+01  3.1955042600417450e+01  7.7669188849529533e+01  2.2639571243481495e+01  7.0960030915634263e+01  1.5444932359307208e+01  4.8373321396729068e+01  4.6904226586229420e+01  4.8291284377080196e+01  4.5518395235519343e+01  4.4056123502682560e+01  4.2791423221245850e+01  4.1506387843480759e+01  4.0222548828193077e+01  3.9140083067124692e+01  3.8061995372574522e+01  3.6955324549945928e+01  3.5847302054307107e+01  3.4968151629257719e+01  4.0420587627088977e+01  3.3844403558871733e+01  3.3115745266295228e+01  3.1848281291339340e+01  3.1316971024456773e+01  3.0177000530157358e+01  2.9786724078464328e+01  3.0963017826585361e+01  2.9344633672369916e+01  3.4129164004133834e+01  3.6531273784656655e+01  2.8694229495258458e+01  4.4321810082944864e+01  9.3037096281710667e+00  8.7971519424717997e+00  1.0240871174518064e+01  1.1407953431132251e+01  1.1318714110720745e+01  1.1063593577786445e+01  2.9126929194758109e+01  1.3096346496421822e+02  4.0006277617148299e+01  4.0154486113995075e-01  1.7752065506194017e-01  1.6284116739658530e-01  2.6948473551182559e+02  2.6956514569404387e+01  6.2072370174699124e+01  2.6801139295980132e+00  5.9320572900304136e+01  2.6354681806566596e+01  1.3679831391744388e+01  7.4002903113501304e+01  9.7761861552007332e+01  1.2900970445494016e+01  2.7970683946401593e+01  1.9218475289236618e+00  2.0413737231486455e+00  3.6750918856567608e+01  1.4660031811583714e+00  1.4087611316721032e+01  3.0321737888978442e+00  2.5067373963002524e+01  2.9290198101091438e+01  1.0321501108338400e+02  1.0679995687189690e+02  3.0187267344418704e+01  4.0291695138490874e-01  3.7942733556419922e-01  3.9287676372437419e-01  1.2977215642663415e+01  5.0226369859012912e+01  4.8410586214739105e+01  6.0736245812391189e+01  4.7194491862258523e+01  8.1197430171762335e+00  4.5450848246496332e+02  5.0783676005461295e+01  5.1806590831734951e+01  5.0987893652759062e+01  4.4116621810376905e+01  8.5816113123152178e+00  2.7076919012782469e+01  1.9285631555501626e+00  2.9082423013143565e+01  2.8600829867830544e+01  2.0189633466130918e+01  7.3788441469486017e+01  5.9650566503243196e-01  5.5255331028376375e-01  8.0767143159544086e-01  4.5910806577593490e+01  7.2597628918873170e+02  1.0794927843701561e+01  6.3970691796486436e+00  2.5507764713437666e+01  1.2223779828339168e+01  1.2092895152438217e+01  1.1745350399972686e+01  9.0644984293826809e+00  2.4298702978390711e+01  3.6524594806538197e+01  5.4320678306528642e+01  5.3437569715286372e+01  5.3516022748698418e+01  5.2314732150760108e+01  4.5105734368418723e+01  3.7734901751445946e+01  7.8733113457956122e+01  7.9507378175518539e+01  7.9754912579712482e+01  7.7948636154485172e+01  7.9943581434408088e+01  7.9561259934001129e+01  7.7248153874507125e+01  7.7848509292856733e+01  1.2628383334941043e+02  1.2232950251241628e+02  4.3856103617247740e+01  1.9176521410225387e+00  4.6482873135021535e+01  4.5335259440314005e+01  4.4420577502061413e+01  3.8777798570122918e+01  1.3107339098410069e+01  1.2824022425965026e+01  1.2428369868222365e+01  9.0583933757210261e+01  5.3031643992237470e+01  5.1599136788675708e+01  3.9616153877722297e+01  3.8650588957410967e+01  3.7465119072290634e+01  3.6995995333952479e+01  6.9796641353063658e+00  7.0013003019872722e+00  1.0438082046535975e+02  7.4175298101557559e+00  7.1998098619589568e+00  6.6408432728796241e+00  3.7722043232913840e+01  3.5855040280044747e+01  9.8198401020968490e+01  5.1375975882797373e+00  3.3573135850852694e+01  7.7918798814398315e+01  7.6519931701009796e+01  7.4908259833714766e+01  7.7868423530863097e+01  7.6306649468744894e+01  7.5236976498611256e+01  7.3776424010362589e+01  7.3324832431224024e+01  7.4040516517078274e+01  7.2536979297171399e+01  7.0986980361142116e+01  7.1975742287787384e+01  7.0072126901468934e+01  2.3177431506509311e+01  3.8392513734120605e+01  3.7671140743314311e+01  7.7687430934690923e+01  1.0493435745962453e+01  1.0621359541560341e+01  1.9828442566652058e+01  1.9453228595914215e+01  7.9295321094791518e+02  5.3513354063908478e+00  3.3382226437418581e+01  3.2000290005756767e+01  1.6708423767729929e+01  1.6470697709319083e+01  1.5988723619973067e+01  1.5691972748404662e+01  1.5010406534776205e+01  5.1990301445101352e+01  5.0304932378362189e+01  2.9229197848755895e+01  2.7955188199611204e+01  8.2488624239186379e+01  8.3605942613494321e+01  8.4314094819142383e+01  8.4798702589529583e+01  8.5557436349538122e+01  8.6151095725825286e+01  8.5598276632069926e+01  8.7216539232561132e+01  8.1499161644975146e+01  1.0036155442097528e+02  1.0113451184527999e+02  9.8439901136255287e+01  1.0090343306385493e+02  1.0397444860738402e+02  3.9252772930694803e+01  5.1221843500627060e+01  5.0860807545847102e+01  5.1717396373024556e+01  5.0529761258638054e+01  5.1446553520019393e+01  4.9730189734984840e+01  5.2592942447260270e+01  5.0972121128541573e+01  5.0029815594446255e+01  2.1253500730031160e+01  1.5900748518550996e+01  1.5234679920856170e+01  2.1238450969849090e+01  1.4641628115407075e+01  5.7191066362527472e+01  5.6043974067739931e+01  5.5893023574733604e+01  5.4849794736974907e+01  1.8245622365669650e+01  1.8004972173183216e+01  1.7727860396153520e+01  4.3072383264196361e+01  3.8449289170058156e+00  1.9370975146325151e+01  5.5307790678263453e+00  8.7036917174209478e+01  3.0736065255038824e+01  5.0281568232148977e+01  4.9496486281820594e+01  5.0400717826527952e+01  3.2650411300072371e+01  3.3033701501874155e+01  3.3342975560763570e+01  1.7621499849672215e+01  2.1222574250240444e+02  2.1070319486988086e+02  1.1180851019638721e+01  7.2110720285211585e+01  7.2787109276878809e+01  2.1583863699781407e+00  1.9820014224819829e+00  1.8980240171598335e+00  1.8295054684307717e+00  2.0850182642529957e+00  1.5975745677768371e+01  1.5740046886371109e+01  1.6623410627428033e+01  1.4944112621537688e+01  1.5449290219119069e+01  3.6894631369134864e+01  3.6975440308932335e+01  3.7335891945397066e+01  1.0471336138792199e+02  1.0703156492969056e+02  8.1496455069330821e+01  8.6950226961320176e+00  8.2799207300969897e+00  7.8230637428786611e+00  8.2703399516842939e+00  1.9461694041563025e+01  1.9285883085024007e+01  2.6775055861687591e+01  5.0862550629024518e+01  6.5757813067665323e+00  6.6606599264469564e+00  1.8848898121830990e+00  1.5801200265319301e+02  7.4688102230221043e+00  7.3778273684171225e+00  6.6786708419936671e+00  6.7005217315420529e+00  6.9123234654065611e+00  7.1144320535172163e+00  1.5822308458391319e+01  5.1087412486900057e+01  4.0183606390698046e+01  3.9635415792689237e+01  4.1215084913015133e+01  4.3011192956033163e+01  7.6661831624913575e+01  7.1784246802814934e+01  5.3823084508775423e+01  5.9978783716759265e+00  5.7568092415020979e+00  1.0888176953168401e+01  2.0435992907499308e+01  1.9924845622883183e+01  1.9648255949037377e+01  1.9767570395059558e+01  1.9295782511082539e+01  2.7230307293011638e+01  8.0134112401181255e+01  8.1910356544938452e+01  8.0101030548058603e+01  8.3921412470730331e+01  1.6296734895971699e+01  2.5573200231216486e+01  2.5591492509284425e+01  3.9588469838228133e+02  2.3956713030413624e+01  2.3716571710274071e+01  1.9417242728527984e+01  2.4032129939868206e+01  1.8764766483919249e+01  1.7576900694483570e+01  1.8577109827626753e+01  1.6597592912792582e+01  4.5188113766398864e+01  4.4547503224051425e+01  1.2683521639144873e+01  1.2108394894502684e+01  2.8763916414791051e+01  2.1324888441546609e+01  7.5723235087326612e+00  7.8285398451305737e+00  8.2450833914878885e+00  7.4172171438211967e+00  7.6980450066038015e+00  7.1736107112667735e+00  7.0303231374316457e+00  2.7258317212650265e+01  2.7173888878422719e+01  1.8664246302381297e+01  2.7495491284662247e+01  2.7537546709261669e+01  1.7679482479577199e+01  7.9361601048126701e+01  2.6403777387536660e+01  2.3261645604060160e+01  2.3324095121216242e+01  2.3089831845405868e+01  2.3559867517856517e+01  2.3620448485725362e+01  2.3953262010482302e+01  3.3681167847436875e+01  3.3689727393615740e+01  3.4066931114209083e+01  3.3723222391941221e+01  3.4128509329344482e+01  3.3795150390100467e+01  1.4533709451973127e+00  1.3697827028051042e+00  9.1340540994011687e-01  7.1383522416344836e-01  3.1069159602160742e+01  1.6608442445631756e+01  1.6528748904846573e+01  1.0038620134958469e+01  1.7636033444890433e+01  1.5610886996213875e+01  1.4638465671865475e+01  1.5242586257862699e+01  3.5514198412432800e+00  3.4581247828905816e+01  3.4546506174597336e-01  2.4503222292182997e+01  2.3476701578463707e+01  2.9012062654485479e+01  2.9333483555754459e+01  2.9673769557982670e+01  2.8733929889418096e+01  2.9678200150065059e+01  2.9989772908362095e+01  2.9987385319611999e+01  2.9409126425206345e+01  2.8418196782511910e+01  2.8456136812673133e+01  3.0235409999822753e+01  2.8364258207884845e+01  3.0044164388263738e+01  4.2885278412701382e+01  4.1228731098485511e+01  4.5180922498261999e+01  2.4612871413790387e+01  2.6082035903856056e+01  5.1267652334490132e-01  5.7638611091027103e+00  5.9987437507721779e+00  6.3491852982892505e+00  5.4702616660643235e+00  5.3443170634195107e+00  5.0623438324900345e+00  5.2292217091121129e+00  5.6655739629956265e+00  1.9847978449448220e+01  1.4595972869823683e+02  1.3533667683442918e+00  1.3580141863303032e+00  4.3107225891290674e-01  2.9156471899820772e+01  3.1131640793222441e+01  2.9879706873625520e+00  3.0457651529662866e+00  4.4223155907673465e+01  4.3116800012875409e+01  2.4518113745545498e+00  7.8573085575198673e+00  1.3806253250854780e+02  1.4664041087983057e+02  1.4393817412351231e+02  1.5661251968545750e+02  1.3365711434127843e+02  4.2163999687602818e+01  2.0644505673877628e+01  1.9873896356106556e+01  3.4523980721937505e+01  1.7039677799293946e+02  3.6583213323392393e+01  4.3672671422698679e+00  4.0980950326474384e+00  1.5188560927298097e+01  1.4994258472372133e+01  3.9772711102306786e+01  3.9682749975834440e+01  3.9149017814005994e+01  3.9211620375637182e+01  3.1362453822259755e+00  7.3644018195290668e+00  3.4080673465223960e-01  1.1859706082634029e+01  1.5616262202701984e+01  1.4870229328131758e+01  1.0960207374772732e+02  4.2274380494602333e+01  6.4413581589327773e+00  3.6615209465308190e+01  2.3749040018953622e+01  7.1026891968847522e+01  3.1905274835370481e+01  3.1412004784960569e+01  3.1767533994832643e+01  1.4638575131657973e+02  1.5641483180334174e+02  1.7441910730816093e+02  1.4088241949784873e+02  1.4263430178524411e+02  1.3206346349905249e+02  1.2357270147535510e+02  1.2334848569449032e+02  3.2539281637290922e+00  3.0612466692074434e+00  2.9429385325483168e+00  3.0308574370866883e+00  1.3018132370642431e+02  1.3935133056464630e+02  1.4423910281868930e+02  3.3059324411494714e+01  3.2891042909996244e+01  3.4083680795160738e+01  3.2814942228939330e+01  3.4083633514674261e+01  3.2823427688749703e+01  3.4178632802554695e+01  3.2809549864862348e+01  3.4317465578660496e+01  3.2951121617642826e+01  3.4342356640064658e+01  3.3154961324019808e+01  3.4392015357036392e+01  3.3292359639892894e+01  3.1765083209395751e+01  3.1577438750721246e+01  3.4660154749082466e+01  3.3556263861491537e+01  3.2059794928902953e+01  3.2292212721637853e+01  3.1654201464297792e+01  3.0842476618769414e+01  3.0985891547934877e+01  3.2469027223158122e+01  3.0805482155307253e+01  3.5089136520247195e+01  3.1100153139892207e+01  2.9771703239673545e+01  2.9815716851568020e+01  3.5651102264399178e+01  3.2647649698951717e+01  3.6204271532328924e+01  3.5608300558217422e+01  2.9524773876068675e+01  3.5436138584984676e+01  3.3770085065285762e+01  7.1287248384588651e+01  7.1841003898043923e+01  2.8979066062576731e+01  1.4529892009728183e+00  1.3912420173421358e+00  1.0513970121585656e+02  4.0922532224239198e+01  4.0647809134745245e+01  4.2550253091605015e+01  4.2276324634748661e+01  4.4186012975920306e+01  4.3894999401080739e+01  3.8930245426691990e+01  4.6307362376086552e+01  4.2827737927301953e+01  8.3638039923848865e+01  2.2810823973964343e+01  3.2248336538546361e+01  3.2453345635053751e+01  1.7057394679451050e+01  7.8500746887666750e+01  2.1895194131000522e+01  5.8874183032462890e-01  6.3584867391959610e-01  6.6740975036022943e-01  5.2973764976989578e+01  1.4926340243082519e+01  3.4372512361983496e+01  1.7383048808935882e+01  6.2754643498273978e+01  2.8399872294219655e+01  2.6647915501542137e+01  1.6181670456826339e+01  1.6002212350517340e+01  5.2520801873992305e+01  7.6274626014588776e+01  7.8775053640110400e+01  4.7228585065199439e+01  1.8607804992324823e+01  1.7739462681708904e+01  3.4420638019893147e+01  9.5392546460003231e+00  9.2602609058637064e+00  9.3309442722948823e+00  9.0392486214065642e+00  2.4724072767635274e+01  6.0789746474942721e+00  5.5000316459368817e+00  1.5135163809491463e+01  1.5155401730695143e+01  4.5929344807621391e+00  3.6541716059342155e+00  3.3164637283011132e+02  2.3550391090306817e+02  2.1594873284779976e+02  2.5683840856997523e+02  1.8881284035595883e+02  8.0512136500031275e+01  7.9795865654877446e+01  8.0238715703138240e+01  7.9835397177962321e+01  5.4635065160817531e-01  1.4209310372187664e+01  1.4272597132952253e+01  1.5429781707588583e+02  1.8065319401774968e+01  4.9737531429372993e+01  4.3648988461845747e+01  4.6777882140162035e+01  4.5623254526974996e+01  1.6177217426473575e+01  3.1839966672022445e+01  3.0888670409496775e+01  4.8273786718118231e+01  1.1806886199568650e+02  1.2173860870473309e+01  1.6795414002852064e+02  1.7761132868189674e+02  9.2860523671590158e+00  9.3173489597243879e+00  4.9336594753632985e+00  6.4143909097129281e+00  1.1336516036714448e+01  2.4137452645687091e+01  3.2750845680082342e+01  9.5703910342169873e+00  4.6051644462106157e+02  2.8260597669580687e+02  2.7904378600281990e+02  8.1922054464396098e+01  2.7459832434464786e+01  2.0648979462434190e+02  1.8138318953635681e+02  1.6740509618400307e+02  1.9805045116960545e+02  2.9694797074682025e+01  2.9989994506752403e+01  9.8536286718176697e+01  8.6030563286407098e+00  7.3911648455712140e+01  4.4702453748835671e+00  1.7739168541359998e+01  2.1608473710320264e+00  1.8481439717337163e+00  1.7318467444370316e+00  1.7686781943343965e+00  1.8478410259243934e+00  1.6959711056182609e+01  1.3094106120125227e+02  5.5609356249785833e+01  5.6450508554327122e+01  5.5833131638769657e+01  5.4945421685851350e+01  5.4275077369284269e+01  5.5162605975617012e+01  5.2839110541807713e+01  2.6580519609627089e+00  4.3159680317888904e+00  4.0649775430654991e+00  8.7081262057303981e+00  2.1829460228158080e+01  2.1031943653751263e+01  4.0068732120902757e+00  2.6789906642707031e+00  5.3111064489319425e+01  2.0846159669998002e+01  1.7992785451602549e+02  7.1039291723570495e+00  7.3600638927098716e+00  7.6350238197332567e+00  7.6096051759721393e+00  4.3718827899412576e+00  1.8635735924779880e+02  1.8058923951075241e+02  6.1616500217518166e+01  6.0429410241539143e+00  1.2111237734125433e+01  1.2644417454181879e+01  1.3054398275660644e+01  6.1830927298214426e+01  2.9664733523701021e+00  1.0625996770495212e+02  8.4315094989986036e+01  2.9634802969786985e+01  1.8430425676676649e+01  1.5695606826297802e+02  1.5221615835074897e+02  7.6834503617553281e+01  1.2438606071018550e+02  7.9635082829026402e+01  7.6972952222604079e+01  1.3119685754986182e+02  1.3793592649227301e+02  1.4294147460237122e+02  1.2711810911260105e+02  6.2537781795707250e+00  2.7421225102295286e+00  2.6793221320327469e+01  2.3604731543994685e+01  2.1539995941509261e+01  2.0955409720375634e+01  5.4010815738949141e+01  3.2106439036555869e+01  3.2396752108125760e+01  3.9631294967294135e+00  7.8091319147045738e+01  1.4461824889036944e+01  3.8919917206555752e+01  3.7130384449093775e+01  3.2941891583950418e+00  3.1410994054491961e+00  2.0593776003461787e+02  2.0987634865468516e+02  7.3870206870044541e-01  7.0762624206296976e-01  4.1495590146798399e+01  5.5131734787555722e+00  4.7884475337936960e+00  8.7116363205711789e+00  3.6338364833400398e+01  3.7281371307743377e+01  8.1447425529080760e+01  8.9488497345047847e+01  9.4582079501261958e+01  8.5028577175011662e+01  9.5819000839058390e+01  1.0193349314426270e+02  1.1656617653207199e+01  1.1975388645349184e+01  1.1723989266995966e+01  1.2037434753019642e+01  8.0134600619722221e+01  7.9654056804323560e+01  7.8979244207499889e+01  2.7390252958139433e+02  2.0761182618098900e+02  4.8222917310761977e+00  4.9922518321062714e+00  5.1400650484807064e+00  5.3268991065508251e+00  5.3655046597851808e+00  8.5113420580122110e+01  8.5756962773615712e+01  8.8520111829172279e+01  1.2265151480881443e+01  3.7400479993092270e+00  8.0093088974657505e+01  1.0569821109963651e+02  1.0150765472994772e+02  9.5907838895518935e+01  2.2225303048368921e+00  4.0305390082371035e+00  3.0513805289220951e+01  1.9660210038050568e+01  1.0619997695428824e+01  1.0261133780912514e+01  2.5428434230844285e+01  4.2241910849030444e+02  2.6356278818813826e+02  2.4290965935163868e+02  1.9888349956056697e+02  2.6002548363521353e+01  3.0807799573472754e+00  7.9174532194519802e+00  7.7414812118430278e+00  7.5155338065010024e+00  7.3871467389052130e+00  7.6053172398067970e+00  7.1054618748503842e+01  6.9137942232341928e+01  6.8452096288727844e+01  7.2371600303993318e+01  7.1120271190135639e+01  7.0085163573768781e+01  7.7319578178168072e+01  2.0091554357991321e+01  1.9790247053987962e+01  1.9429617976596859e+01  4.1599976822536638e-01  8.1640656353592519e+01  1.4076823457230103e+02  1.3605076164861925e+01  1.2861838072692121e+01  5.2122504837884992e+02  2.6078926236885856e+01  2.5995250027072657e+01  1.3261310104615924e+00  1.2304876008193382e+00  1.2028459159629163e+00  3.5507646474545133e+01  2.0727304726238504e+01  7.0237522570202870e+01  6.8478155104578377e+01  6.6649978950916079e+01  7.0601407904579162e+01  6.8437143879821093e+01  1.6820453871192302e+02  2.8260048460704400e+01  1.7693765882132226e+01  1.7591362095537590e+01  1.7273824212236889e+01  1.1471578917840461e+01  1.3230341689902879e+01  8.0406178103127584e+00  2.6966858298393190e+00  4.2785356430230770e+01  4.2497650980998614e+01  6.3751485299338935e+00  7.0479828154412720e+00  1.7805967801216161e+02  3.2512689259374689e+01  3.2887457927093202e+01  3.3327955604657731e+01  5.6755756862623315e+01  4.1131667383766406e+01  1.5045377380508169e+00  7.0129790104311368e+01  3.1329732898377598e+00  2.0960611251773655e+00  4.7611406864675580e+01  4.8792731144627908e+01  4.9870631818268421e+01  5.9855882842506482e+01  5.9554217844043222e+01  1.0335378557748708e+01  1.6335691623780676e+01  1.7107330863114740e+01  6.2433360814587601e+01  6.0606530108589354e+01  3.0780558976745450e+01  2.8086933119365504e+01  2.7613834974860772e+01  2.1315121245922459e+01  4.9107582086585078e+00  4.0219283746682402e+02  3.9816546783100918e+01  3.9406397892060234e+01  3.9209397062526328e+01  6.2179748002169122e+00  1.2115300196915790e+02  5.0001305619440579e+01  9.6046548432643564e-01  9.0038656153064212e-01  8.6133590376819358e-01  8.2943365833162874e-01  8.5652821711109872e-01  2.2355072898642607e+01  3.9043422997428749e+01  6.4827580565606988e+00  6.7201874483857731e+00  5.1095789561310838e+01  8.6018928230336527e+01  8.9345385932622563e+01  9.0005673755622098e+01  9.3336460024453729e+01  9.3926475251745060e+01  8.8949999154945374e+01  2.5086320759489215e+01  8.2920208294999256e+00  7.5332252086549243e+00  4.3345159867927087e+01  4.2480088012957836e+01  4.4785936504149205e+01  1.5219736936839828e+01  6.4278814079531500e+01  4.1813467463867902e+01  4.0013217633612911e+01  2.5227432261854883e+00  4.5338082673990563e+01  8.2658874934663359e+01  1.0670746527814993e+01  3.8292516696453418e+01  6.1631079378192226e+01  5.9874320455700747e+01  6.0570809994170716e+01  1.5729864851614622e+01  6.6735281027269764e+01  6.3061021919198843e+01  5.9899653587922451e+01  5.9345534140044222e+01  5.6747342915602069e+01  6.2138214876553199e+01  8.6761724938766704e-01  8.3245268004913286e-01  6.8131243007539297e+01  2.8360100842968689e+02  2.1953103231216897e+02  1.9542979186828691e+02  2.7976847794654777e+01  1.3987326501014605e+01  1.3078093746940507e+01  1.3872558283422087e+01  1.3444281610258130e+01  1.2743548785282240e+01  1.2270772571347502e+01  1.2532957055271781e+01  2.7810213882174475e+02  1.3226767734048478e+01  2.7987975672055462e+01  6.4918760297234712e+01  6.4751926657113060e+01  1.7978179325195990e+02  1.8362645154665853e+02  1.7786872131302741e+02  1.8946815744649248e+02  1.8673744000582798e+02  4.9742342079340624e+01  1.9799013720892169e+01  1.7748334437426473e+02  1.8382670373857957e+02  5.5913255196287803e+00  4.2810101271188028e+00  7.3845604639881429e+01  1.1257078096169685e+01  1.6832320470854324e+01  1.6330202826636935e+01  4.2731254945898245e+00  9.8249294057795709e+00  3.8219091301532615e+01  8.9853076814553546e+01  9.0526843798259890e+01  8.7442289918406843e+01  9.3905027591647425e+01  8.7394275860325177e+00  7.6594528502000214e+00  8.1794693470469895e+00  2.4057939732275834e+01  8.1226430920949042e+01  3.6626434214689979e+01  3.4966849817415699e+01  3.5368377469255918e+01  3.3785398004188409e+01  3.3512598529172386e+01  3.5016754592043682e+01  3.3621297201313951e+01  3.2243848726134026e+01  3.2370028962836400e+01  3.1040675980676898e+01  3.0999584023392664e+01  3.1241470056745090e+01  2.9893729898993449e+01  3.0122590343616039e+01  2.8981087981190829e+01  2.8793269514401256e+01  2.7804964078932844e+01  2.8002574753609956e+01  2.6906561333541735e+01  2.7185935721356689e+01  2.6098648644720303e+01  2.6424808836185029e+01  2.7501097347159888e+01  2.5395672241679542e+01  2.5762121353597852e+01  2.4727555084548172e+01  2.5086871635486588e+01  2.4095398862140101e+01  2.4507131306393454e+01  2.5560781693494341e+01  2.3502064086901893e+01  2.4015648003203214e+01  2.2983440446587259e+01  2.3512412943266664e+01  2.2520942363812768e+01  2.3081119253276718e+01  2.4090127860003488e+01  2.3729574231891220e+01  2.2120811243402393e+01  2.1992101605694895e+01  2.4741903938644711e+01  2.5103398113392917e+01  2.4365128780240795e+01  2.3379450750403169e+01  2.4064646481791073e+01  2.3083412653505704e+01  2.2404025514119198e+01  2.3809275849347099e+01  2.2161398669553972e+01  2.5790334837000316e+01  2.3740769760711622e+01  3.3813601017247350e+01  3.0598350125189089e+01  2.9410379114269695e+01  2.8689664206173489e+01  2.1535110737223903e+01  2.1243960544215700e+01  2.1735461740744320e+01  2.2736165127626837e+01  2.0863204391321407e+01  2.0251976310095284e+01  2.6818341756482084e+01  2.7862810034381049e+01  2.4162325182676668e+01  7.9434600634010328e+00  6.9242395218209509e+00  6.3997824207947600e+00  6.8794458814165269e+00  4.5212492422525706e+01  2.0968166823231527e+01  8.3505790388426831e+01  9.0935786989781664e-01  8.9484545150463901e-01  9.4550556915468909e-01  8.8484081371820478e-01  9.3080182515751742e-01  9.9329362678517386e-01  8.4945156730502913e-01  8.2001170248484456e-01  9.8159395546414852e-01  2.5019698806923035e+01  2.6044070432887327e+01  2.6549501867866919e+01  8.8874623273963309e+01  4.3824477675143116e+00  5.6309797374110239e+01  5.5300887777148823e+01  1.1407975098826118e+02  1.5653513910334416e+01  1.9784319953045721e+02  2.0392827874533228e+02  2.1032351572109508e+02  2.0937209556675614e+02  2.0065505204160476e+02  5.8459297588013681e-01  1.8585992155388297e+01  2.2512413784521237e+02  2.4052617364994293e+02  2.6090675279986635e+02  2.2295685871294899e+02  2.0902671788574006e+02  2.1921606156041062e+02  2.5417276324062351e+02  2.6785292584728476e-01  2.9123300904162042e-01  2.9219974033658447e-01  3.7750883734759476e+01  1.2750152098711329e+00  1.2014928617610079e+00  1.0825707711166663e+00  6.6872303142143494e+01  3.6823540856940568e+01  3.5500454276401427e+01  3.7020923005942301e+01  3.6003923420550194e+01  3.7959519616340465e+01  3.5445344823928842e+01  1.2637931573014950e+02  7.2270212129628064e+01  7.2314084389437397e+01  6.9583262571746232e+01  1.9944836088227960e+00  2.6012529360431593e+01  9.1736480621719721e+01  1.1218856610476885e+02  1.0146342028506011e+02  3.2923397193515548e+01  2.4387891112712797e+01  6.3934387794201273e+00  4.7777983081853812e+01  2.2078960313217385e+02  2.1908240355199132e+02  2.1337569251869957e+02  7.2304587289471278e-01  6.7303708916730454e-01  7.0040614127150278e+01  1.6763637386665599e+02  4.1594949406453608e+01  4.0497981116818117e+01  3.9957239313965680e+01  2.4983931069477013e+01  1.3896167511454621e+01  5.5730736881756737e+00  5.7070412742787671e+00  4.4077521595935096e+01  4.3448161362311247e+01  4.2813287797644392e+01  4.2980083951397837e+01  4.2408445033748031e+01  4.4696943865766549e+01  4.4510598268387483e+01  4.5219637426490138e+01  4.5911907932495311e+01  4.6607916330034548e+01  4.6556105576635126e+01  6.2429607730897008e-01  4.1986814368121578e+01  8.8208754867575038e+01  9.6858159275208564e+01  1.0629748674015323e+02  9.5876613752373828e+01  8.4233658848688577e+01  1.0249591213991003e+02  9.7087004471732683e+01  1.0120891530826161e+02  9.1443383802896633e+01  9.5883226049670384e+01  1.0628722038748640e+02  8.7659530995763333e+01  1.0039696341268206e+02  1.0154856036192074e+02  9.3462817527338984e+01  1.2462530512054844e+01  3.1649358415478808e+01  3.0639365661929823e+01  3.0438754466921985e+01  3.0337370086455586e+01  3.1601612152786323e+01  3.0462200113917572e+01  3.0624506880122080e+01  2.9438477525831363e+01  2.9215219915095389e+01  1.3069139346985909e+02  1.2940324598406394e+00  1.3711699456163156e+00  1.3036534345963275e+02  1.2838892499942287e+02  1.1792784751741316e+02  1.1504301187631333e+02  1.0910310025542034e+02  1.0790421385267069e+02  1.0778115691020979e+02  3.0595405493394701e-01  6.0427287846889577e+01  2.7817901144263288e+01  1.9287720034463824e+01  5.4123716915482838e+01  8.7967085179951724e+01  8.4871894970777831e+01  9.1791589512258071e+01  3.2183345343342360e+01  2.9851790716249294e+01  1.1665756879067056e+01  1.0678105266050050e+01  6.1053024657338170e+01  3.8230130184863792e-01  3.4790284973489288e-01  2.9976078406954670e+01  2.3934732215640679e+01  2.3834884771569168e+02  6.2529011715610501e+01  7.9364335629606202e+01  7.9530866055846147e+01  5.1293599173696407e+01  5.7358300039520238e+01  5.3938709506796357e+01  5.4927813148300764e+01  5.1218080290722519e+01  1.0511616537993650e+02  2.6183383995251301e+01  2.7330536284909964e+01  2.6099152819346720e+01  2.7121842752398653e+01  2.8515181924918352e+01  2.5999758981680863e+01  2.4886391968826889e+01  2.5865695301595508e+01  2.7981969918897618e+00  2.7310125144646058e-01  7.5039666854833726e+01  8.4007410016258916e+01  8.3830186724600978e+01  7.9211234965995502e+01  9.4253615830436956e+01  6.0895641102972483e+01  1.1490364948481327e+02  1.2616611383868242e+02  1.2585959852399320e+02  1.3385216819503626e+02  7.1071865511219329e+01  4.0597252909563693e+01  1.2882885085930914e+02  8.7926313811185594e+01  8.5599846128842813e+01  8.9008640261588852e+01  3.5441285282675786e+01  2.0498679009977472e+01  1.0096337595320724e+01  4.3474897027065531e+01  2.1493308191339668e+02  1.7345931113838926e+01  5.6956375681808829e+01  5.5959488664770149e+01  5.9233606602452149e+01  5.4827689364721387e+01  8.4327319457876598e+01  8.1940063135739237e+01  1.0642154032953283e+02  2.0499086559301188e+02  1.9982777511899383e+02  1.9809008148435180e+02  2.0217882564057177e+02  1.9389746072771248e+02  1.9123894505220349e+02  9.2155912075471676e+01  4.7481207435061776e+01  2.0495574657367165e+01  8.0905699582556139e+00  9.0134179726966210e+01  1.9724929689331873e+02  6.0071077105745495e+01  2.2483226777360979e+01  2.1495450351747742e+01  7.6538712332559511e+00  4.0862317256764712e+01  7.3083301579056325e+01  7.1418569524465354e+01  6.1120015265638884e+01  6.2626956254549164e+01  1.2992436725336853e+01  4.0018700721720343e+01  8.7866129734591794e+01  9.2349166835596797e-01  8.9232118132842853e-01  1.3883418083269902e+01  3.9068684483873575e+01  1.9310335301608677e+02  1.8572693016170652e+02  1.8874127301384189e+02  1.9153770660421213e+02  1.8879287093660707e+02  1.8241935517661969e+02  1.2100622384039760e+02  3.2383456554764295e-01  7.4945205642585108e+01  3.1814032836902914e+01  9.5596732695125652e+00  1.1731104806695015e+01  1.1482285273024370e+01  1.2103513170959911e+01  7.5724024078048557e-01  9.4936592727161244e+00  9.7602540900646506e+00  8.9896074268181998e+00  3.3602695914281377e+01  3.6061627228953931e+01  7.1578586602118532e+00  8.0802079215161005e+00  7.5948821675408063e+00  7.4390649085230125e+00  3.4014897901900194e+00  3.0297642598010750e+00  3.3965852334431377e+00  2.4180781509661244e+01  4.2761650482163460e-01  2.1966983281443225e+02  2.2920630877334122e+02  2.3891438144624755e+02  2.3979172783261754e+02  2.4983820567654612e+02  2.6407702627260954e+02  1.0518839569398651e+01  8.0615693790283860e+00  8.2496356640972142e+00  7.6030445771822954e+00  7.3974216326482951e+00  6.9387729642406955e+00  6.8007773713687643e+00  2.0468194811690058e+01  1.5116006546273061e+02  3.3293764139762651e+01  3.8579908107367885e+01  1.0939839497377058e+02  1.1265980959821708e+02  6.1171687489697133e+00  6.2957132821452548e+00  5.2158661120906515e+01  5.5388999177014767e+01  1.6368858949946450e+00  6.8387907205827565e+00  1.1553545603694282e+00  4.8827847079351187e+01  1.9648323368950469e+02  1.6165182824190392e+00  1.5339464156801281e+00  5.2907699137293015e+01  8.3027819993808450e+01  4.8658856392906372e+01  3.7638336225038449e+00  2.6986592881660756e+00  1.4145087874640607e+01  4.2028478894183145e+01  9.0268467727709589e-01  1.5170333743997636e+01  1.5443744745745619e+02  1.5731166618720559e+02  1.6529692570815936e+02  1.7301857784650292e+02  1.7426126932076062e+02  1.7199239842732064e+02  1.8498531463302177e+02  1.5032513148130963e+02  1.5838865426087352e+02  8.6866826146114775e+01  5.3212938071766291e-01  5.5530846865118166e-01  9.3411229572052612e+00  6.4671356912984493e+01  3.9618732787568838e+01  6.0239922979425498e-01  4.6362546952402624e+01  4.4263940916525627e+01  6.4144094072970397e+00  2.5623099290340662e+01  1.0166551734139158e+01  2.5580408654292267e+01  7.9315140037776033e+01  3.2322652640544129e+02  1.2279257686782083e+01  1.2623296964999726e+01  1.3013830344925369e+01  1.3340905818497271e+01  1.2967369957638006e+01  1.3302587094299392e+01  1.3690000426929302e+01  1.2892523812580230e+01  1.3224095444098609e+01  1.2596895104349677e+01  1.3605913189315665e+01  1.4021113699329863e+01  1.4115352612647341e+01  2.4475130953152942e+00  1.1698190801557777e+00  1.0258643898974373e+00  8.3348883909909574e+01  2.0804594455217234e+01  1.4568150140411218e+00  1.4571463835457994e+01  1.4886650971347072e+01  1.5452151063885841e+01  1.2475004089462056e+01  6.8291691493913774e+01  5.7228352088826846e+01  1.0639804168179697e+02  1.0445605111944630e+02  1.0853875907725256e+02  2.4446448598617209e+01  1.4996729374002885e+02  1.7567055325863450e+02  6.6936306781672684e+01  7.0285234174383987e+01  8.5662945479651000e+01  8.2546385409369378e+01  8.6912808593559959e+01  3.3675789322631262e+00  3.7276584451622810e+01  4.4029614997594795e+00  4.5668231725516089e+00  8.3193850405242443e+01  4.9982850477597065e+00  1.0479802545822453e+02  6.4089942506723176e+01  4.5602590260967579e+00  8.1197488717959359e+01  8.8490440649320689e+01  5.3446669599280545e+00  5.0493973872188329e+00  4.8019552545553822e+01  2.1481901641685556e+02  2.0797819664400905e+02  1.9471205111129359e+02  7.1735567974142455e+01  7.3957966281424532e+01  7.6566015403751839e+00  6.6284873481886763e+01  9.4516290149953676e+01  9.2887828103124022e+01  9.0321799336169633e+01  1.8430677073863848e+02  5.8840001959801093e+01  4.1463397217465960e+01  7.0210848200573921e+01  3.1945252502822321e+01  6.3398470002147242e+01  6.2745389103283742e+01  8.5757439163161351e+01  1.1181006436455819e+01  3.9461438192436134e+02  1.2625827489049564e+02  9.3809338324431535e-01  8.8937664322029306e+01  3.6111022329809622e+01  6.6606144472128666e+00  6.5608067061420332e+00  2.7322410747876220e+00  2.2693755085502811e+01  8.9693164352853998e+01  7.9905131484336636e+01  6.4695129179916378e+01  3.3940350419258303e-01  2.2230263140651875e+01  1.2229998938386647e+02  6.6676867152358724e+01  6.7550336054934462e+01  6.5741808592638179e+01  4.1249807611017410e+01  6.6620856947548432e+01  6.5988725649571876e+01  3.5319825206900134e+01  3.3320226174993302e+01  1.1531015869183172e+01  1.2221784872698899e+01  6.7181362271321575e+01  5.0949393381122768e+01  6.1816510970959378e+01  5.7929870235548698e+01  6.3644891011350794e+01  7.0766547512549664e+01  3.7007854815225272e+01  7.7497528648654551e+01  8.1026896430908224e+01  7.7632948418828292e+01  8.2964453030083519e+01  7.9806501840950361e+01  8.6439448927067659e+01  8.8085080017642667e+01  9.0606645122654598e+01  7.4642425096622759e+01  7.6884646131425271e+01  7.1907782287349278e+01  7.8782785592455241e+01  2.3803702893956043e+01  1.2549382060014018e+02  1.7707775479009708e+01  4.8579923402759142e+01  5.0773790690868623e+01  4.8027385205855481e+01  7.4437342293077622e+00  1.5765090715372258e+01  1.2827915285962796e+01  2.1511199926794866e+01  5.7208084580731597e+00  5.2569691187113705e+01  7.1114586686589234e+01  4.2607875998098784e+01  1.5758648263035020e+01  5.3821632869466512e+01  5.7738154407200897e+00  8.5009630275816079e+01  4.3023886522763668e+01  1.5206883784834508e+01  4.3321859144265026e+01  2.1846232738114459e+01  2.2383560155231148e+01  3.7053938100458033e+01  2.3670783580592979e+02  2.0595048708460345e+02  7.0938282873695059e+01  3.6933411497698287e+01  1.0275531901165694e+01  4.4058229415955324e+01  7.1520827032145647e+01  7.4362386105888874e+01  6.8602556475790706e+01  1.7947527313020013e+00  6.3041783766179343e+01  1.2699310527329361e+01  1.2741457980517144e+01  1.4471893216521027e+01  5.4854650036753902e+01  8.4808541942398392e+01  3.9256691960837333e+00  5.1494424228813187e+01  9.4068858253009580e+01  4.5650188366714033e+01  4.6828757891728394e+01  5.4954775056099180e+01  1.9447221367330279e+01  5.3291682283238317e-01  8.2844779234179697e+01  1.1640710215137908e+01  1.1082055250595324e+01  1.0954869080607059e+01  2.1870250397015988e+02  6.6249116708222672e+01  6.6566264785472683e+01  6.4637407193344032e+01  3.0528094471518930e+01  6.8774994565881302e+00  1.7417894109456330e+02  1.2049668441799158e+01  9.4665790630876945e+00  2.1780294781458867e+01  1.1614768406758329e+00  8.0803913779605750e+01  7.9833043967450593e+01  1.1466941493554280e+02  1.9508528232127070e+01  6.1924265492961412e+00  2.3596712306802619e+01  4.2806275201404475e+01  2.8495236105834216e+01  3.0261721919892910e+01  2.9258503027804775e+01  8.1641894873378593e+00  1.2034962941552259e+01  7.5658490444390878e+01  7.9077982433883037e+01  5.4072913947794916e+00  3.3337336879608443e+01  3.2779516233701386e+01  3.6141520742118914e+01  3.5601446107101324e+01  3.2482952610304245e+01  3.2189759837988468e+00  7.1033650371496179e+01  1.4367613759450006e+01  1.4122066569155693e+01  8.3931670640331735e+00  8.6771119175145888e+00  9.7658008074666228e+01  1.6535180876819896e+02  7.8962866870487673e+01  7.8095355826469216e+01  6.6316353913457149e+01  7.0017579722829346e+00  9.0522639228398898e+00  6.1086935263939246e+01  7.4858189509701507e+00  1.1565679702083830e+02  1.1376414142567524e+01  1.2105950235577792e+01  9.0030180679828558e+00  2.2847492811479952e+01  3.4469270022456989e+01  3.8607998442659608e+00  2.4829756719405998e+00  9.0488431368079759e+01  7.9539270193320363e+01  3.0329513848046641e+01  7.2599550016126273e+01  3.8111730886764576e+01  6.4049961023215642e+00  1.7845781047268083e+01  1.8272129856372121e+01  3.5815707111084873e+00  1.6674672194496917e+01  6.7997568330589388e+01  6.4509362470121365e+00  1.1925430642104534e+02  2.7750748611548335e+01  1.4573806250608841e+01  1.4347532344429654e+01  2.5769861602401316e+00  3.3982147586999980e+02  2.0063364091659350e+00  2.0178930959624739e+00  5.6250737832791637e+00  1.6087356209871528e+00  7.6373014864940771e+01  2.1048274064875542e+01  2.0599734065148755e+01  2.7158117766410893e+01  1.0244094752294068e+01  1.1151231027391229e+00  8.9759311115100786e+00  6.5837395662575219e+01  3.1049932330203550e+01  3.9286697889201776e+01  9.1265201354285054e+01  4.4238391111638453e+00  4.4997998841302145e-01  3.1542881741208113e+01  1.3293285933797099e+01  1.2653256894820204e+01  1.2080757456340733e+01  1.3722730840979949e+02  9.4728703888200172e-01  2.4038756557429221e+02  4.7112453885250956e+00  3.6268452094828056e+00  5.9129471413631922e+00  1.0494203618150551e+02  7.7943664941518642e-01  1.8660930365785969e+01  3.6315618681312540e+00  8.3858329511375604e+00  7.3066921410957590e+01  1.8884205924780943e+02  5.2161714370567132e+01  6.2335054636489282e+00  2.9275787213301078e+02  2.9356910309819857e+00  4.8492185406560665e+01  1.2594232176029852e+01  3.6092632108884040e+00  9.1427521685789955e+01  1.1343413222536439e+01  2.5021554235771089e+02  4.7449713309995785e+00  3.9659235932604510e+01  9.1876987247664097e+00  2.2423216971172786e+00  6.0431861809194745e+00  1.9509588769602476e+02  1.6548837025489686e+02  1.0077020662507938e+00  2.3083826994388224e+02  6.6214926566722487e-01  6.8193951413004569e+01  1.0568800709690281e+01  2.4871159880324794e+02  3.8101922336914811e+00  1.4343631549803626e+00  1.3653160572696263e+00  1.1929511424558596e+00  5.8117502613074841e+01  5.9200958267880949e+01  1.2505587416676443e+02  3.8203005609084869e+02  3.2769525456087045e+00  1.3420049174550894e+02  1.4046762874334590e+02  6.7895893639980391e+00  1.7582434345372198e+00  7.4661215359254196e-01  4.3321093680752419e+01  1.2790034824110256e+01  2.9595240914468945e+00  2.8167698512627046e+00  7.1072873800401437e+00  5.2860362762371880e+00  5.2936245668043833e+00  4.3984221251195583e+00  1.0671609606608745e+02  8.6775152519304228e+00  4.7873771944402671e-01  9.3572468778954061e+00  1.0580451957332195e+00  3.3092311688031470e+00  3.0013510944294989e+01  7.4365096089651118e+01  7.6820355187376805e+01  4.0598819186232191e+00  1.7642673811379257e+00  1.8615804217553240e+00  8.2852827332802392e-01  5.9806581284777607e+01  5.6966178645412143e+01  5.6549195443242198e+01  5.3574829487530188e+01  2.8679643374365464e+00  6.3402367226595202e-01  6.5839036376665006e-01  3.1374440766547246e-01  9.5879690945794323e+01  1.1171117530445580e+00  2.5748271977446188e+02  2.3708629834172169e+02  1.1159403222019464e+00  6.2970277438975879e+00  2.1932441436016834e+01  4.4740308511109397e+01  2.5148616837158542e+01  4.8604755453010808e+00  1.6354871357448758e+01  1.2553349651579557e+00  1.9027649491107219e+00  9.8552823586236311e+00  3.3504994143331572e+01  8.7409366476645317e+01  1.3088710731018907e+00  4.3485458540265590e+01  1.0111538614492903e+00  4.1779735657880359e+01  3.1208609340253721e+00  1.0353972565591032e+00  2.5086175297176266e+02  1.5257386809764022e+00  7.1208172039982216e+01  7.6089178485303563e+01  2.8000955286067349e+01  8.9396570112256635e-01  3.7122582971511486e-01  9.2406814361021983e+00  2.0341848727721413e+02  8.9820298103818952e-01  7.7005179544726460e+01  6.9183926337346776e+01  4.1152666860986464e-01  4.8487351289543659e+00  1.0337976217965657e+01  3.5590207810900786e+01  6.7324746589129361e+01  3.0642812042620331e+01  2.8853055650645166e+02  5.3040366931418239e+00  6.2698100045496270e+00  8.3025588998586940e+01  1.4176953770110586e+02  6.5809780795841206e+01  1.4388947557404146e+01  5.6619844499316798e+01  5.9328059022933950e+01  1.1140839379473928e+02  1.8113081286952911e+02  1.9849933496829677e+00  9.8457690796926030e+01  9.5467944212618022e+01  2.2117456210646726e+01  2.2690048440228374e+01  1.8462455363279162e+02  2.5397743098048387e+01  1.5129022417861250e+01  6.4519897665860967e+01  1.5119672754955269e+00  2.8701030812489300e+01  2.9610972805322596e+01  2.5145254428425297e+01  3.3991381060095598e+01  9.7103524653531380e+01  8.3247370462819461e+01  2.0721906030021708e+00  3.2378364264553518e+01  4.0141552885632645e+00  4.3692933970468680e+01  4.2247968888264843e+01  3.5353867861627681e+00  2.3592393116206116e+00  2.3268348465658133e+00  1.5865181606486181e+00  1.7821410706367597e+00  5.9688748911478551e-01  5.2312313171871786e+01  5.4378722759914808e+01  1.7365369574270364e+00  3.1078579457131855e-01  2.8781361232569378e+02  3.6125013397895929e+00  9.5601548023304076e+01  6.2572217588022170e+01  4.8870520648609656e+01  2.9590321248587054e+02  3.3831034936766229e+00  2.1609708426328105e+00  2.2207753043859513e+00  1.9434909054861527e+02  1.9417626250024179e+02  4.7208563131410708e+00  1.5472302445584150e+01  2.0194731159960196e+02  7.4887672248888322e+01  7.1632479101657509e+01  7.0114364593582323e+01  6.6413879002052170e+01  1.0043609722725319e+02  1.3470074107180878e+02  3.9408985750956154e+00  6.7877045146667726e+01  6.5127628571677576e+01  6.4233386512315434e+01  6.6492906705770153e+01  4.5913260935402079e+01  4.7255685021538504e+01  6.6600053847975460e+01  6.3097633641576351e+01  6.3129105616104461e+01  5.9677676029764704e+01  6.0550575552341066e+01  5.8844939305956416e+01  6.2057657727456039e+01  6.0669158014303960e+01  6.0924929416995951e+01  5.6478115535871311e+01  2.9090339711547921e+00  3.1972720580483891e+00  9.7633003307865991e+00  4.7909003275388482e+00  1.2333946704121917e+01  2.7370850169079359e+00  2.5830515094917983e+00  2.3601086739833224e+00  1.2592537165598159e+02  1.6428158889971044e+01  2.7651120803014968e+00  3.7567974068620327e+00  5.6355342191637643e+00  7.2115373577698145e+00  1.1529506416651593e+02  4.3314809503879282e+01  4.4557310134246457e+01  1.2393397460373045e+02  1.1964116038144252e+02  1.2130038578505366e+02  7.2214381515424302e+00  6.5092523732639149e+00  5.4934633020690875e+01  1.4221076347759398e+01  8.7439573227901775e+01  7.6061439145916196e+00  7.4985821965262545e+01  7.6306248970165242e+01  1.2345068610441679e+02  1.1576784833345168e+02  1.1716553863383545e+02  4.8707194786578993e+00  1.3103395151310716e+02  8.9639735970651245e+01  2.0560981514587251e+00  3.6763866133919740e+00  4.2174080306146251e+01  4.1055122197293933e+01  8.8056681591961450e+00  9.4896737781393341e+01  4.0109830626954668e+01  1.9505216787723590e+01  9.9887419236225355e+01  8.3439506645845341e+01  4.6439511837352070e+00  4.9687643077558006e+00  2.6282541425031619e-01  3.7735450445087878e+01  9.2069806030824282e+01  9.0335374481047182e+01  2.1595682263486033e+01  5.9592370742294367e+00  1.7813373972309368e+01  6.9193616208265368e+01  3.5988173739326534e+01  1.9079948702497431e+00  4.7256358825169066e+01  3.4782555117044865e+01  3.5574547313459497e+01  3.7093697205782981e+00  4.1918067471128158e+00  6.1633480125412392e+00  7.4213789540006232e+00  3.2897328263726905e+01  6.6145684349060230e-01  9.5598694123927839e+00  9.3605452064539723e+00  7.1889936893840215e+01  5.2164060252538160e+00  7.5998827714704769e+00  9.8889498566222599e+01  4.3577502693435939e+00  2.3837299149176308e+00  2.8777320903714084e+01  7.5912206978181063e+00  4.6733039505166047e+00  1.0501598275492398e+01  4.7276226603356788e+00  5.9297220049167926e+01  2.5917946497280493e+01  4.9466737496935149e+00  4.2813455767117876e+00  1.2449524385279956e+02  1.2626636308616204e+02  1.2837091717431568e+02  1.0524337943207559e+01  2.2839370390475931e+01  1.5610569292489689e+01  1.4346806966544129e+01  1.2847234999489780e+01  1.2585061640031901e+01  4.9441340131073737e+01  1.9697108490480421e+01  1.0087567469650725e+01  1.3840660443572380e+01  1.7499105809347743e+01  8.9732498864267063e-01  2.0808061838668954e+02  1.1245297338640601e+02  7.8664348368047436e+00  8.4421229016384096e+00  1.0219771756090150e+01  7.6675180047645766e+00  6.2607692749452182e-01  5.7145148691271661e+00  8.4543110141202593e+00  7.3964385232631580e-01  1.6570101946907965e+01  1.0683163838937876e+01  5.8121495095938776e+01  6.9708532754852712e+01  9.6982096388432481e+01  8.5308392892649991e+01  1.6697735340577958e+02  3.9606284614064748e+01  5.3014955018895249e-01  1.1580866895656099e+02  4.9839625973041173e+01  4.0225074470268680e+00  5.8407018078228230e+00  1.5216408813509545e+02  9.8816798158234533e+01  8.2453648033811049e+01  2.3417158713624350e+01  2.3645684075327022e+01  2.4593853077923538e+02  5.8071920623524079e+01  7.8625456041034539e+01  8.0267347943719315e+01  7.8535198906034580e+01  8.0631359273918292e+01  1.7717643826836820e+02  1.9103088245177500e+00  1.0231887368034611e+01  2.1689370800070207e-01  1.0832222643988887e+00  3.4382783371429163e+01  7.0583489185760868e+01  5.6543309877397803e+01  6.3747440229593657e+01  3.3860712486664731e+01  3.3144707553706645e+01  3.4415405105907917e+02  1.1431706726503762e+01  1.3884172750433855e+01  2.8318836508410268e+01  2.7982336688424500e+01  2.8873428300580876e+01  3.0409384550634036e+02  2.9742975756864968e+02  8.7014392052561167e+00  7.0425031543318353e+00  5.9581166751927022e+01  2.4764762388022607e+01  4.0496643918043880e+01  6.6626223955111229e+01  1.2926827597481140e+01  4.6553192940169588e+00  1.5467749324999309e+02  1.3698464786173437e+01  7.5514493815499833e+01  4.3665348880801229e+00  5.8456941588041069e+01  7.9553270299812269e+01  8.2457126465280354e+01  9.5606424646924566e+01  2.0701810429775549e+01  3.6458614499995541e+01  1.7364721296351664e+01  8.5632727878554647e+01  3.1804850134629291e+01  1.2522468170842708e+02  3.1968730181233624e+01  1.1751430123865800e+01  1.3688245231609650e+02  3.9603133388485531e+01  1.2356058093724492e+02  7.0681062417054960e+01  6.7132574089158879e+01  6.5482681882550622e+01  6.3406813732420602e+01  4.0768944961501731e+01  2.0179238873575901e+01  5.9073612438864849e+01  2.7408395904344996e+01  3.3962406248088918e+01  1.7085384481507432e+01  8.5480611506599743e+01  1.2387888192954833e+01  3.6378965076314707e+01  2.0841186158810107e+01  3.8023996389889923e+01  1.7253654351880702e+01  1.4559812939391948e+01  1.5858869181042721e+01  4.6719390383872692e+01  3.3326672109002033e+02  3.1415092766983118e+01  1.3447814016197137e+02  7.5284550688039658e+01  3.6341299220350713e+01  1.9532354624814221e+01  7.3756787267923613e+01  7.9550874124544393e+01  6.7460230393100018e-01  1.6598136582450170e+01  2.2889376248820959e+01  2.7312739405430801e+01  3.9789403260104535e+01  4.2064075523417500e+01  3.2287668661209501e+01  7.9464267950192934e+01  1.1105623974274896e+02  1.2392785661607315e+01  1.9019204737290281e+01  3.6900856757701497e+01  1.1645558072488916e+02  2.1528757335119646e+01  2.8528732670589665e+01  3.5023962952998282e+01  3.6897076657940893e+01  2.6980137513140718e+00  2.1007971798682004e+01  2.0208568415414732e+01  2.0015489175773812e+01  2.0638207614861734e+01  1.9777025989816611e+01  1.9323957604905370e+01  2.1501186390389840e+01  2.4999154026240387e+00  1.4426768177659704e+02  1.6212740000867150e+01  5.0285443674116166e+01  5.6819745973081652e+01  3.7873904274676100e+01  1.0639924647591822e+02  7.3227367783223031e+01  3.0416709326038841e+01  1.8226430078473113e-01  2.1080690552847597e+02  2.2463652055584550e+01  1.5457247083112065e+00  3.7956283429467362e+01  3.6852990587163447e+01  6.8311934145141775e+00  3.3894870951722382e+01  3.4576500054284807e+01  5.4957391953634122e+01  1.4222585318742605e+02  2.3041431455411264e+01  2.2068304751744442e+01  2.1381620219143461e+01  2.1293821403639349e+01  2.3021918379001221e+01  7.9590665732756179e+01  2.5672959261847019e+01  3.2656584487544627e+01  1.1231191995373865e+02  6.9388123168848551e+01  2.5720296381717251e+01  5.7548948389716003e+01  4.1152696384082553e+01  2.0950599333882366e+01  2.0312595257704032e+01  5.0123674116785793e+01  1.3357615209916460e+00  9.6685916669922651e+00  6.7329746959062291e+01  2.5140607906962831e+01  5.8553216930577051e+01  6.0573375494332865e+01  7.2990830720383457e+01  9.2974318404652116e+00  5.4164336976325309e+01  4.6558355666569554e+01  8.1568995022280873e+01  4.1087446103179118e+01  3.3779607694860097e+01  2.5949148501822584e+01  3.7707095204206979e+01  6.7396148615739776e+01  3.2056150771144459e+01  4.1306599661473122e+01  1.2064730326485240e+02  3.7610227660491473e+00  3.5436056565407327e+01  3.3127243397902959e+01  1.0198161681725180e+02  2.8410565103088157e+01  5.8325123246624507e+01  4.7370890600373727e-01  7.7313320246712067e+01  1.3851615171182987e+00  2.8014779576194364e+01  7.7365015983015624e+01  4.2541128976929244e+01  2.2859649682711662e+00  6.9126674979372055e+01  1.6905915194352096e+02  1.7212800652548910e+02  1.5560199831606107e+00  5.3475123058001280e+01  1.8112989423205512e+01  5.3322296411899091e+00  1.9540402305524078e+00  7.7293671722053237e+00  6.9666065836400676e+01  3.3158055700574501e+01  4.7299084256412186e+01  1.0629629069830888e+00  6.2388324932898485e+01  6.0033390345412279e+01  1.0978142229888995e+01  4.1276555806875939e+00  3.7331297939226076e+01  6.8355255468903920e+01  5.6563564896792300e+01  1.0551005556013921e+02  7.5734841521804825e+01  4.8253099376610976e+01  4.5254704724033118e+01  1.7077431670852763e+00  8.1060328908689838e-01  5.0113266907290871e+01  7.9370270583115300e+01  4.9572107678526052e+01  3.3505154271863027e+01  2.4715712024073373e+01  3.8242784697968581e+01  7.9921213509455754e+01  5.7802998939406883e+01  5.1966420899931883e+01  1.8710310637916768e+02  1.3925374765667252e+02  1.5736827500968360e+02  1.4588876468842204e+02  5.2743611123643710e+01  1.9737223805806835e+02  5.0176305350078671e+01  4.5153058226502559e+01  2.9466141989913702e+01  3.4431409031658916e+01  9.6883826678212912e+01  1.5089563376709441e+02  3.2484184068790775e+01  5.0742589418879803e+01  4.0836484206150566e+01  5.2998839078257689e+01  3.7861604241723882e+01  1.7066598187953666e+01  9.8177496288207436e+01  6.7088696069098361e+01  2.6810296569803580e+01  2.6714190568133795e+01  3.9668907206628553e+01  3.0205018998700805e+01  8.2131694653884466e+01  7.9033322828857735e+01  1.8895223844697512e+01  2.5041293437709711e-01  8.0181583082739010e+01  3.4830868497521912e+01  2.0659816991100836e+01  8.2110963029039752e+01  2.6782383860387299e+01  7.2816242107613292e+01  2.9473226673657727e+01  2.7223212210954863e+01  4.3184814167758397e+01  4.4115540901098868e+01  7.5577993973060970e+01  5.9845627207104044e+01  6.3403740411884373e+00  7.4731805857830594e+01  1.5368830611764727e+01  1.2515877840424068e+00  2.3455665968595142e+01  3.0389151679147036e-01  3.8059179063895535e+01  2.3662002289714559e+02  5.2456436712850262e+01  1.7907646094540276e+01  9.2336102681867544e+01  1.1206431456894553e+01  2.6629075961346449e+00  3.1055700107503441e+01  6.0315497706113987e+01  5.9973534602568840e+01  9.2574958285877997e+01  9.1723561746549862e+01  3.2844704170101878e+01  1.5420337076064490e+02  7.3344723718863207e+01  2.7237351476621114e+01  3.8076439383351244e+00  5.1488508793069041e+00  9.8897775438415991e+01  2.8997115857968758e+01  9.6044247922943114e+01  4.7977764402898153e+01  1.5001491626974394e+01  1.6282705793070033e+02  2.4602248546380707e+01  9.1518311221482662e+00  6.8649381897243957e+00  2.8962582722802786e+01  4.7334759463319827e+01  1.0398458373291735e+01  6.1643743617133971e+01  2.5296883243063363e+01  2.4391687010172529e+01  2.6865630316166154e+01  1.3329641108903072e+01  1.1944043125876261e+01  7.8128611184491286e+00  9.1988867137300275e+01  1.0266562165327677e+02  8.4649690754797618e+01  2.5267990161915705e+01  1.2669738827857094e+01  4.4160715812709086e+01  1.0672636443107081e+02  3.4466103217425809e-01  6.8357934219118865e+00  7.9331004222286012e+01  7.3091882727858497e+00  6.5427303194525495e+00  2.3536448559728260e+01  1.9748049532994150e+02  2.3482106806942977e+00  5.1262822873734826e-01  6.4702694245946560e+01  1.7422677216252025e+00  1.8700676962847757e+02  8.9516264623728887e+01  2.1133994647415045e+02  2.0964211859075224e+01  9.4075548760996114e+01  9.4963433737556798e+01  8.6058546851750762e+01  7.4827163674554257e+01  2.1240066623178862e+01  5.5600273277318036e+02  2.6611798306972267e+00  1.5348688301796365e+00  1.2953021610974767e+02  1.3868641895587066e+02  8.2413656793679309e+00  8.9857930862355445e+01  9.1571298010229469e+01  7.3331883023112937e+01  1.7536192919103964e+01  2.4522137450245506e+01  1.3776782172274801e+01  7.8420227995246776e+01  2.6144408742704723e+01  8.8475212921395098e+01  2.4368279714603776e+01  8.9662131715288069e+00  2.3752307760677667e+01  5.4231208808891253e+01  8.1126051239909160e+01  1.9352865371959302e+02  7.2590052147752075e+01  1.9148100496816332e+02  1.0996555908327119e+01  1.1808548377106835e+01  1.9613587168568365e+01  6.6250958171938180e+01  2.1929203528163981e+01  1.4486378154948852e+01  9.3235105278545618e+01  1.2681241350858407e+01  7.6986203349417806e+01  5.3874366769701709e+01  4.4392565248813547e+01  2.7203723104277479e+01  1.0126345139244886e+01  2.9642901586822346e+00  1.3214686662735591e+01  4.7663524375981353e+01  5.9163096751296862e-01  1.1679522065342901e+01  1.9767310173113255e+01  1.6228486822046901e+02  7.3516966373413641e+00  1.2284546922970213e+02  1.0967866655837881e+01  1.4794563914609546e+01  5.5919267872143287e+01  2.5410368397479442e+02  1.4547499640737051e+01  7.3603480274052558e+01  2.6650955407819424e+02  1.5763244753153081e+01  9.5374049527580151e+00  1.5219318458392048e-01  2.2950819346041076e+00  4.9828978270109410e+01  6.3329914541882104e+01  1.5935423097889828e+01  1.8806994421406600e+01  1.3576372670796086e+01  2.8450928198376403e+02  9.2640783724776512e+01  2.6790394757475759e+01  1.6519739866199028e+01  5.2788539839221222e+01  8.7206505073692796e+01  8.5271395667954593e+01  1.4983489683149338e+00  1.8214770323887024e+01  5.3912162520803557e+00  1.8108422633704201e+01  1.9075657807651304e+01  9.8202635825363799e+01  5.0369055093875383e+00  1.5516329991174706e+01  2.0295436947336153e+01  2.6526491216998047e+00  1.9171371964717444e+01  3.6956004771468014e+00  2.9879089990790813e+01  2.9741518843682620e+01  2.8716793712362676e+01  5.2357002250815592e+00  2.3416110718446919e+01  2.2455460437053425e+01  3.4292686293120560e+01  9.3716759357723465e+00  2.7677699713768313e+01  1.5796381387601647e+01  1.2228349164141141e+01  2.6664308060423149e+01  1.7558717626916501e+01  6.4931026902908942e+00  1.0295089482922899e+01  8.9033024203537963e+00  1.1676839048252720e+01  1.4974219869325735e+01  3.0842779384664006e+01  2.3621953894622241e+01  2.2520297505036492e+01  8.3164512028011984e+01  1.5999419326412701e+01  5.2913729604715087e+01  1.8487930202296203e+00  2.0240838770040174e+01  1.3541708486084159e+01  7.0645262669809455e+01  4.3889202820053601e+00  2.5021223274012971e+01  2.0138949696280812e+02  3.5850451277617076e+01  2.4269122204309152e+01  3.9191759418131058e+00  2.9261111462627984e+01  2.0777414536929836e+01  3.1990684483412974e+01  3.2360171143789199e+02  9.7811715547300935e+01  2.7770349997449455e+00  4.0163808372196295e+00  9.1135530912506137e+00  2.7154305542985021e+01  5.6037879479362729e+01  8.1258483880789726e+01  6.2843785161238941e+01  1.3483956127110657e+00  2.7211409000241016e+01  1.2938113494465245e+01  3.0924343834448376e+01  5.7438578744379072e+01  3.1033555144666732e+01  1.8020890783990868e+00  3.6242109703151158e+01  3.6000211521248701e+01  7.9121950933032352e+01  8.6622786539033694e+00  5.0635239523467334e+01  4.9027230897895304e+00  8.6042187380259989e+01  4.6783092469929144e+01  1.0815157839373141e+01  2.5855204289611470e+02  2.7585613047306219e+02  1.7305384509761534e+00  3.3838964472354487e+00  7.1844824880582522e+01  2.9132777918817226e+01  3.2404108576495836e+00  5.3040244013590279e+00  1.6964585544716597e+00  3.9994259041519484e+01  9.5901673055121904e+01  2.8277892318662526e+02  4.2515031502672514e+01  5.0759265309903103e+00  2.1346399386030193e+00  5.3752031939812177e+00  1.4938204540269376e+02  8.1827982870476163e+01  2.8188973962522543e+00  3.7878210951200204e+00  3.4707308506544315e+01  4.6890268935461854e+01  7.2978388317826315e+01  3.7414626348458981e+01  1.3924086220494983e+01  8.9195635442126715e+00  2.2829470764157516e+00  4.4099874240798798e+00  4.5635068193007797e+01  5.8239558561936349e+01  3.1562230693449457e+01  2.5072103138307000e+01  1.6229615930616202e+02  4.7096388949031997e+01  1.5150972944845896e+02  2.2157527449572569e+01  3.1955262107200650e+01  1.4947232987572232e+02  8.9038835592035554e+01  4.3348316107400136e+00  1.8329520220216516e+01  2.5044295751061210e+01  7.4006904746679908e+01  2.5578096196638549e+02  4.4833880009218795e+01  1.7881824915185270e+01  1.7916006186200935e+01  4.8400736643218096e+01  3.5838444678585994e+01  5.9999688223191079e+01  2.5864653940200192e+01  1.3790032735029743e+02  1.2430608617474928e+01  5.7690853193842893e+00  4.2265880755161611e+01  4.2651218136632714e+01  4.2163685645607771e+01  2.2482162924047042e+01  1.3424942534528401e+02  1.0874133794726546e+00  6.2199819184897407e+01  2.7891558401829233e+01  4.2547125436446478e+01  4.9190289371468531e+01  3.0225199294459095e+01  6.3191720641658783e+01  6.6871581419535985e+01  3.2861984325711695e+01  1.0928203801877626e+02  6.0321811314330361e+01  4.0364908392653597e+01  7.3300291250541305e-01  4.0125524711738842e+00  8.8516283027908500e+00  7.8333078720746101e+01  1.4649887736842120e+02  7.8852211229034399e+00  8.5056237921460166e+01  5.2516881088682847e+00  3.5103373620858939e+01  5.8268881224015267e+01  9.3211043231562698e+00  4.1301795194641805e+01  6.4891346018116678e+01  1.1476805932988778e+02  5.7580654373531175e+00  5.1394798544402631e+00  2.1149214599968090e+02  4.1437134502952224e+00  7.9914118907043616e+01  5.9564120510330021e+00  6.4016561323206119e+01  3.8619722253289595e+01  9.2894053347285080e+01  1.2582220552768307e+01  8.4366325684274717e+00  1.7925275445587786e+02  8.8074335046839280e+01  5.0151030533019693e+01  3.4046634852346842e+00  3.9012903451696296e+01  3.1394555275211324e+01  1.2090034117000343e+02  5.6393814268893713e+01  4.8334289536253138e+01  5.1811776504901852e+00  1.2917567796718359e+02  1.5066046945681344e+00  2.9977362313287017e+02  4.4948091567228794e+01  1.1939143394756918e+01  8.6900092125889348e+00  1.9488094922929249e+00  1.9426468667883007e+01  2.4494810689644581e+01  3.4598730611081862e+01  2.2103920778258807e+01  9.1133731637760192e+01  4.7932190452033225e+01  4.6961769563368605e+01  1.2594828716095945e+02  4.2266500509002940e+00  6.1244629053534211e+01  7.3753482098508165e+00  2.3396060917674721e+01  1.8287468702791082e+02  3.7146763022890497e+01  3.6778644971165278e+01  1.1532702385076485e+01  2.2786434582960570e+01  5.9530906704943503e+00  5.8974057290832855e+02  1.9627446954292831e+00  1.2349194941555331e+02  1.9548299496719494e+01  1.5371575416259606e+02  8.8556459648019832e+00  1.0626110801949631e+01  1.5350556922934214e+01  5.6323139280125112e+00  2.5735872662306576e+01  5.4309412432213392e+01  7.1371460395903654e+01  2.8148779475760923e+00  1.7131793479079736e+01  8.8217860629853362e+01  3.2987616363807952e+01  3.9401934334356787e+00  1.8801926659251126e+01  5.9632256724338951e+01  1.0119933213867156e+02  2.1975472560647358e+01  9.4012936449689306e+01  1.3266281956694025e+01  5.8466329946307297e+01  2.1468728354027550e+02  2.7771774671063003e+01  1.9150761366849860e+00  9.9445526778628164e+00  1.0482832300137472e+00  1.3127260457589367e+01  1.3392566639348802e+01  1.7871376975098997e+01  1.3706787069302640e+01  7.2855286476983508e+01  4.5965521032686869e+00  4.2016694094023855e+01  1.7658018589355202e+00  2.9947050337114980e+01  1.3133566213459872e+02  3.5184924755465332e+01  3.6283532166512844e-01  4.7747010469820658e+01  2.4363522082402564e+01  2.5187046516618663e+00  5.0934589394605815e+01  7.8182850780416917e+00  7.4306267974755313e-01  1.2621403551013591e+02  1.3554571777857820e+01  6.2445076280341844e+01  7.5019599601757591e+01  3.8915492489035025e-01  2.6495199637477477e+01  7.4103168701179252e+00  1.5900788135690494e+01  3.4611830938946049e+01  3.1970171142914711e+02  4.7585538725216479e+00  3.0101243024228999e+01  5.3966879012177609e+00  1.7027846255613024e+01  1.4353656522744593e+01  1.6745918141607245e+01  2.8069665450491364e+01  2.0275900305588269e+02  4.1639686587316035e+01  3.8237394155238370e+01  2.0825088521376696e+00  9.9292694801582577e+00  1.4393205233058479e+01  4.6912073064946680e-01  6.8372144636544292e+01  3.8406967621554685e+01  2.1220536405861843e+01  1.1503324864993940e+00  2.1893419547861328e+02  1.4506057261644392e+01  6.9677690781749149e+01  4.6513476025808203e+01  1.4790938345206571e+01  6.9367040357179278e+01  2.2125298994658944e+01  1.1725129415100199e+01  1.1267347694152710e+02  2.3304452150806309e+01  1.7271473058207885e+01  3.9434691218618319e+01  2.4785648020162416e+01  3.5485658761695476e+00  7.0282842998748492e+01  3.5983337079347073e+01  1.3533034331469023e+02  4.6156736303667117e+01  4.5820343838962685e+01  1.1782578429820296e+02  1.5588809086756379e+02  8.0506384287756902e+01  4.4672982187020260e+01  2.2104684565713821e+01  9.7246602964289046e+00  4.5949774160854673e+01  1.4040633297522109e+00  1.1907646641201426e+01  3.9238674920422332e+00  1.0788365095136683e+01  9.5552165194195965e+01  1.6473990785076683e+02  3.4669178028068529e+01  6.7363256350656604e+02  1.5164632522560893e+01  2.3694804696463563e+00  1.7004467333448162e+02  9.3946195527111726e+01  5.8940535779281378e-01  7.0617312249952718e+01  6.4673794157605357e+01  3.0333927834825619e+02  1.2811771708338367e+02  9.4007284313112706e+01  1.9745299289793572e-01  4.5099260838707366e+01  1.7181885710057475e+01  2.5464053499901911e+00  1.9527511311798776e+01  8.4315255746499091e+01  1.2188736592822583e+01  4.7654770211875210e+01  5.3761995067199166e+01  1.4260972521959698e+02  3.1080228924317259e+02  5.0751349301377068e+01  5.0422416936233183e-01  2.6517393888875880e+00  3.0048204671974268e+01  1.1008447441799412e+02  4.3289535212339567e+00  1.3433442632469875e+01  1.0357325670179368e+02  9.8515751910357867e+00  1.3777639959861323e+00  1.2244605296585409e+00  7.5296565299233995e+00  3.8024272910622011e+02  4.4575188738689434e+02  4.9465264296669415e+02  8.7485867977398364e+00  8.4781519614014300e+01  7.7716634138899082e+01  2.1516822416364750e+01  1.4555344005595232e+00  4.8709418813368337e+01  5.5964614313891758e+01  5.9039326911676895e+01  2.8227358611603806e+00  3.8382702136272904e+01  7.9474111081171287e+01  1.7719523544591030e+02  4.5211394160662643e+01  4.9171881563955226e+00  9.7373116786308444e+01  9.5861971841665632e+00  7.3572925966393910e+01  4.6173018185599290e+01  1.3708850074272337e+02  7.0962035665445313e+00  1.7378388930296037e+01  7.4866960289558037e+01  3.3252430144467731e+01  5.9093396819718443e+01  1.1326021992875783e+00  4.1879581357077967e+01  1.9001572148215008e+01  3.9124319791845025e+01  5.2480226438548122e+01  2.5627085799156802e+01  2.4282891070884006e+01  1.9481550447905711e+01  1.1297271508450912e+01  1.8883516965285693e+01  3.1005524586545934e+00  3.0679502688149668e+01  1.5784879992371839e-01  2.3124279197764988e+01  5.0348036054642961e+01  7.7476581335024093e+01  6.1995860750523635e+00  1.3228237173562786e+02  2.8509639084354273e+01  1.3716161001356911e+01  3.1115006006711123e+01  6.4128375077692382e+01  2.5363532137165489e+01  8.8725122467343510e+01  1.0151182978527691e+01  4.5589361872086203e+00  4.1668911751513200e+01  1.1835452199441418e+03  1.3136708825300748e+03  2.4728053014956284e+01  4.2021603504800950e+01  1.1281146632928218e+01  2.4550345236401245e+00  8.4511128917263704e+01  1.3242845356235508e+01  8.4409271827620280e+00  1.7794861440552929e+00  2.5290336179730211e+01  1.4733837705149748e+01  3.2298654120904537e+01  2.7606853557745168e+01  8.9013516353884603e-01  1.9793416601561140e+00  3.0497789990719486e+01  9.9937015751467473e-01  3.1414133576446392e+01  1.7311467302645010e+01  7.4972293441029251e+01  2.0415423131756938e+01  1.0722856350644507e+00  5.8544905673815528e+01  2.5018107320846181e+00  5.2964033410041239e+01  7.2897939136894174e-01  4.1591416088781417e+00  2.7325393643416223e+01  8.3556331633804220e+01  4.4309768699440987e+01  1.2325121810480031e+00  5.1467619156620259e-01  2.6700666348302393e+00  7.7862765187716846e+01  1.5842655782883878e+02  3.3206824274380786e-01  9.4404293528800679e+01  5.8210312939234093e+01  5.0804368997602776e+00  7.8221480196308635e-01  6.0793592552822687e+01  7.9005410279449517e+00  6.9436832196424461e+01  7.1323299970695797e-01  7.9092367394217348e+01  1.3195828597541401e+02  6.9183351201429886e+01  4.0383037602942636e+01  8.2059061295693816e+00  3.5234395635644262e+01  5.4128913124282385e-01  2.0748121667317383e+02  2.8499913935845500e+00  1.0700717886524448e+02  9.8529563222458716e+00  1.3414884406234423e-01  8.8473197464638517e+01  2.7859642772934624e+01  5.8838362680877931e-01  4.9625473751724360e+00  3.5817580857119236e+00  3.2411738749510945e+00  2.2095293558760190e+02  1.5882871010118127e+01  5.8878329773356185e+01  2.4308602547246497e+01  4.8684742686821217e+01  1.7183307302603275e+01  1.4174788655817662e+02  7.2885571088062004e+00  6.2557375345661628e+00  2.1330982590759131e+00  9.6668660213079903e+01  1.0618697361829451e+01  1.2656240128358442e+01  7.3238863580035423e+00  9.5164696634361690e+01  1.0313248322910701e+02  5.5162932708671313e+01  1.3774436586807315e+00  8.0108297875594019e+00  7.8164393083338206e+00  1.3526297538874292e+02  5.6031998741706879e+01  2.3583057849484618e+02  3.1301269575757924e+01  3.1411093216122783e+01  1.4792276273430014e+01  7.9015937416545029e+01  7.1555517219076691e+01  1.0231330241591014e+01  4.2814352499368907e-01  1.7183941663891747e+02  2.4408121433270873e+00  1.5776087336301241e+01  1.1246809862552483e+01  1.2639528579617600e+01  2.5087973044151323e+02  2.3985365791395168e+02  2.3274054190136783e+02  3.4368517816770381e+00  5.1536294075721607e+01  2.5710414685108070e+01  1.3061436469310989e+01  9.6419674033753289e+00  2.3435431956784754e+02  1.8187846306026341e+01  2.7684261917664770e+01  2.9801174264146489e+01  1.4783273992135070e+01  1.4817395840588352e+01  2.6312027805070858e+02  7.7298627375867085e+01  4.1409302059343752e+01  2.6690575833222852e+01  1.8480284643533263e+01  3.8404259641709707e+01  1.7974854575976962e+00  2.3726074973301849e+01  5.0621949103693439e+01  8.4652098278177675e+01  4.2576001403169279e+01  9.2191614231380484e+01  5.1269631882680592e+01  2.2911794275800673e+01  2.9460316939222523e+01  7.0599099387420228e-01  9.2765425773043759e+01  2.3392700192917317e+01  1.6949156714856485e+01  1.5782417972256329e+01  4.4739419261596311e+01  1.7928967488652439e+00  1.4137609927718831e+01  5.7777033887832037e+00  1.0920552573225383e+01  2.0664492772084621e+01  1.3655533957498065e+02  4.1881436852381277e+00  5.5134101414380963e+00  4.1477238120620854e+01  1.7453872730696002e+01  2.8078725553222665e+01  1.0875245075884010e+01  1.8782000772995193e+02  1.4108051326658682e+02  1.2268167604936304e+00  5.0232912470564308e+01  9.0850241375252789e+00  8.0057432267004158e-01  9.6916545810368182e-01  2.2773526899925166e+01  4.5987126373813808e+01  5.7157411931431668e+00  3.8659060421285623e+01  7.0035856571960181e+01  1.6381457593760530e+02  2.7654277940546997e+01  1.8829818432387803e+01  1.1093416668200942e+02  8.6116082547190214e+00  4.4560878321597164e+00  1.4872189275279021e+02  4.1408334184953823e+01  7.2612727726013006e+01  1.8001401818793775e+02  1.5807675973136499e+01  6.4398230030937256e+01  1.6045849543692721e+00  1.1094183498046691e+02  3.4471759944629625e+01  2.3123547111908587e+00  1.1554686064444486e+00  1.1678027683312637e+01  1.3898772234673036e+01  4.4395174802509700e+01  9.3669457709125368e+01  3.1156699556998515e+01  9.3645112070082206e+01  6.2013470472029589e+01  4.9430870844643188e+01  1.2704311412781429e+02  7.6239775608146019e+01  4.6934711652971295e+01  3.4887621262236323e+01  1.5558113548867771e+01  1.7399532703733740e+01  1.3400294638489438e+01  6.6968962655129474e+01  6.5339550553718624e+01  2.1387027011972531e+01  3.3237774502236357e+02  9.4635860185211669e+01  1.7297094045523667e+02  2.4086410013928205e+01  5.7684752925313482e+01  1.6972167796794015e+01  2.9303950356632370e+01  4.4896734446225693e+01  1.3896442225543682e+01  2.7121957264113700e+01  1.9226149110756889e+01  6.4560621958472794e+01  8.7023107002672262e+01  1.5844163569832753e+01  1.4081129090282907e+01  3.1620191657909853e+01  1.2033020645846725e+02  4.4162686475262598e+02  8.5905511559907097e+01  4.7260895434612259e+01  6.3043267846977233e+00  1.3395073933878439e+01  2.7202761254925935e+02  4.7335807180707647e+01  9.1459947745582966e+00  2.1944192359333197e+01  6.1526321182629943e+01  1.8645993718428859e+00  4.9830248450645112e+00  7.8859367010578126e+01  3.5472589784532445e+01  2.1305358630967589e+01  4.1636482591041457e+01  7.4115674329231922e+01  4.9299833340262050e-01  5.2382301372516915e+00  8.1639849477224580e+00  2.2885162521351205e+02  1.8156203375921993e+02  8.1467347237786370e+01  7.2856440026872193e+01  5.3233049046366183e+00  1.4598409003590946e+00  1.5910412617303717e+02  1.1843808979602950e+02  6.4687680379544776e+00  1.4908185420841345e+01  2.0354433039332327e+00  3.2883954989678223e+01  1.2872186987775939e+02  1.1993206217196167e-01  2.8211487994545945e+00  1.6067018288987018e+02  2.1179651385327315e+01  2.6104307012440037e-01  1.9586447586672236e+02  6.4425827506521230e+01  1.3653970817955743e-01  1.2652296305697828e+00  1.5347212239150261e+01  1.1466666178492154e+02  1.6563974969241661e+02  5.6407446920701808e+01  7.6811321309355634e+01  8.9982533054925611e+01  7.4027726108273015e+01  2.2855610941589621e+01  2.9044791540678062e+01  1.5679391445577169e+01  6.8685041742224995e-01  2.4657722776011134e+01  9.4514513083060265e+00  7.4527174411747467e+01  5.7168720067738711e+01  5.7268282402921447e+00  4.3670683206472338e+00  3.4139740274989854e+00  4.5607375705723854e+00  1.8872116261524732e+02  2.7650545368038255e+01  7.8872128623340998e+01  3.3412607395225180e+01  1.5128050835011587e+02  6.1988859879135996e+00  5.8724002709491366e+01  5.8215491656130780e+01  3.0205987430593410e+02  1.9101460768567506e+01  2.0103233341807010e+00  7.4537984650295410e+00  2.7365502065033215e+01  1.1917012992241648e+02  3.0704684154017400e+01  3.9877499054126162e+01  5.3855771951478868e+00  2.5076649628561785e+00  1.9729801111280364e+02  1.2352346181409540e+02  4.6017209353162961e+01  6.9250909578258293e+00  1.0429306060457177e+01  7.8828674286810838e+01  1.0747059667436281e+01  4.6314742137901732e+01  7.2276357709503415e+01  5.9935935716377784e+01  1.0009468834503394e+01  3.2983460099795998e+01  6.8515878363690224e+00  8.1028651937102637e+01  2.0032719315517685e+01  7.6944860878217980e+01  3.5967203543031971e+01  8.5074618991692944e+01  6.5259663759623677e+01  2.4301085390803254e+00  1.2489905704684616e-01  9.4790895312831140e+01  4.4195578481918105e+01  1.6495100413558905e+01  1.2120702264479380e+01  2.7591594965738818e+01  2.2569578311544941e+01  2.1533182221262543e+01  1.7282426629287595e+01  3.0261962765946127e+01  4.8568628947313073e+01  3.0724607974460383e+01  1.7714078742612242e+02  8.6717713067203206e-01  6.8015445627818153e+01  2.0729132918057087e+02  2.6099687789769962e+02  1.9149892239810892e+01  5.7176438668470496e+01  1.1917551725629885e+01  1.6473468948241521e+01  3.5634798138951795e-01  4.9028274703968350e+01  2.6923316287616834e+00  7.6214800081691280e+01  2.3700051794903590e+01  5.0560880912293015e+01  9.0272161865580273e+01  3.2060132043327711e+00  7.6226241943987176e+01  6.6544525024516128e+00  2.5387994534807572e+01  3.7855243538914785e+01  6.1314910076854765e+01  4.9165724793158887e+01  8.9678890783312752e+01  3.4217093230680753e+01  5.2491967481390802e+01  2.5236076621133577e+01  3.7536650423709403e+00  3.2053223982871955e+01  1.8026532295732791e+00  6.5994885741569178e+01  7.1300041597310695e+01  4.2149668989418068e+00  3.5904956199634452e+00  1.1352789506982846e+01  6.0438106942634007e-01  1.0217310835463958e+02  1.9239326413557782e+02  5.1494956820356983e+01  2.3424923651868585e+01  2.7527193127861910e+01  1.0001843396422803e+01  2.6743893093301349e+01  5.0266107863056952e+01  3.7104164649489557e+00  2.8155146251406403e+01  1.3253899771286385e+02  7.9586008690681837e+01  1.4579552607411475e+02  2.0799979666029593e+01  9.2048321816280563e+00  2.4538360526913530e+00  4.6916592369857586e+00  5.3048602846191146e+00  1.6937998824163426e+01  1.8475413358230099e+01  2.8361671181493339e+01  3.5155863141723728e+01  4.3662881147677261e+01  6.1237465354217875e+01  1.8118268401822593e+00  3.5770292827812391e+01  1.0919978534247439e+02  2.4389961930356783e+01  2.2851110716838615e+01  4.1478558088290654e+01  7.9657991060438789e+01  1.8716495349723624e+02  1.0756080039932112e+00  3.6148866360545790e+00  4.8544464006498015e+02  2.5017862680628362e+01  1.2290633790989522e+00  9.9354088279976018e+00  3.1786234128378460e+01  1.9754870224702643e+01  1.1464123458111837e+02  4.2958285816044196e+01  2.9135561568418424e+01  6.9828400660368493e+00  8.3209721041264856e+01  1.8925251709888169e+01  4.0810319655907286e+00  3.3874812114966768e+00  4.0622469076809606e+00  1.3544646891579205e+01  1.2804894875854375e+01  2.3910926775249180e+01  2.7631209112852351e-01  1.6761010037358304e+01  3.4990317570539936e+01  2.5727104461002259e+01  1.2191716114615139e+02  1.2201593447781753e+00  6.3090958822067904e+00  5.5219248462816504e+00  1.7420501384531065e+01  1.2621646456030420e+02  5.0698242588364494e+01  5.7931853447477835e+01  5.1443391334027673e+01  2.6372594789227040e+00  1.1888043758045567e+01  9.7959080310726208e+00  1.8710017069768053e+01  1.6555890528135814e+02  1.7673260130393441e+01  7.6195693394314663e+00  1.8559306691781856e+01  6.3813597728283391e+01  7.6768255489055306e+01  5.5661803531851994e+01  5.6082233064945584e+01  2.0459470165631750e+01  5.1461888172198940e+02  7.9567191165011399e+00  8.1697790787436588e+00  1.4623442076166846e+00  1.2473597783807956e+02  1.1798910690484103e+01  5.3031845180586970e+01  4.9068512843337984e+01  2.0229861282479857e+02  2.9723012105772710e+01  8.7671343053284360e+01  2.9843149199105721e+01  2.9060663858839169e+00  1.0409951717648578e+02  8.8557116997730461e+01  9.5000036984394143e+01  9.5807106507915183e+00  1.0597932587513688e+02  1.3015658735821103e+02  4.2005727916804263e+00  4.1112801065218903e+01  4.2023882620736082e+00  6.7396751395776056e+00  3.5727160887942477e+00  9.0365028256027344e+01  2.1971368285836388e+02  8.3936237859339130e+01  3.9118961431135951e+01  8.5554657085689783e+01  6.1253805286559370e+01  9.6545407602633858e+01  3.2004597172088069e+01  1.0538692269438277e+00  8.1530041736576294e+01  3.4735489351660898e-01  2.3576447546811789e+01  1.3023264353084787e+02  4.1491261572828179e+01  3.8223448982633904e+01  2.4097212767681988e+01  2.6194548320369480e+00  2.5460889838354326e+01  3.7319306024570707e+01  1.6437812448081613e+02  1.9217767710026799e+01  4.5468698939053674e+01  6.9375423335865878e+02  1.0659054761944299e+02  3.4565780142366840e+01  2.1107993441509878e+00  7.0685387701182464e+01  2.7729799029692728e+01  1.4557677230416610e+01  6.1429498956229395e+01  8.5089640291592179e+00  3.3792554589888577e+00  4.7199958544329974e+01  5.5091140363522690e+01  1.6520929525159946e+01  3.6356149925334662e+01  5.3815160108843173e+01  3.6034204394016896e+01  8.9934437691397964e+00  1.4193559457318642e+02  1.8752480896035429e+01  2.0736871813280871e+01  5.5207320834139786e+00  2.3073263673231242e+01  4.9884720354408500e+01  1.3639689468549747e+01  9.8352295996275547e+00  4.3368825879418637e+01  8.1229233264903456e+01  4.8864160762179992e+01  4.6402941180488490e+01  1.0120138757825610e+02  1.8867109031531231e+02  4.1129161183242502e+02  2.3077009708475046e+01  1.3767318919636940e+01  7.6747886640422480e-01  6.6163080977044942e+01  6.0896905691344436e+01  2.6124567061809290e+02  4.7752264638601112e+00  8.9624263846316097e+01  1.1943924238788678e+02  5.2826821534693224e+01  2.1281732758014147e+01  2.1385641321934767e+01  4.3746873169261050e+01  3.2145161682401100e+00  5.8180764736386564e+01  7.2218052003774176e+01  3.9010625863767103e+01  1.3929566750939942e-01  2.2112967758394650e+01  2.0319614523308626e+01  1.5470642388499886e+01  8.1299687162478193e+01  1.8068147985549070e+00  5.5715403475386183e-01  9.3617243677093768e+01  1.7830243885446592e+01  2.2356672123600414e+00  4.1781301058071307e+02  3.8694057984612468e-01  1.6869353121247432e+01  2.8561647829825682e-01  6.6514630916043691e+00  1.7884983553585087e+02  3.5713253819012650e+01  3.6837684244409893e+01  3.3326377252046633e+01  3.6782068376242073e+01  1.1612748358976177e+01  2.1966935035654358e+00  1.1468566595500298e+00  4.8002086224464540e+00  8.6846406375365870e-01  2.7173019855657508e+01  3.1122874011716517e-01  3.9715452563572072e+01  3.1767812324144600e+01  8.1426025078324997e+01  1.0867582068670865e+02  1.4844038569965143e+01  3.8652893548723370e+01  1.8359521263690363e+02  6.6763397720181715e+01  1.0922064707589627e+01  2.9960627176657761e+02  1.7105114026143010e+01  1.1447324509188139e+01  7.5166377421967809e+01  1.8679662191734124e+01  4.7875862435376732e+01  4.5373933196894463e+00  2.0541104818357643e+00  3.2526584057174510e+01  7.4038164660598468e+01  2.7846196793140326e+01  8.1793612855038319e+01  2.9190576194069426e+00  1.8422629067308968e+01  5.1625997522967602e+01  1.3556792111973897e+01  7.2130587444428201e+01  6.2753244295426654e+01  6.4657944406172856e+00  4.6105285905954013e+01  3.0630374692959300e+01  6.8390737102633807e+01  4.8546797073078849e+01  8.5521626281607624e+01  9.4748533851210279e+00  1.6920098591606539e-01  2.5475419717612656e+01  4.5918600263140817e+01  1.2947728396433904e+00  5.3536691667240490e+01  5.3056148192394119e+01  5.3826282439416566e+01  2.7283658696341062e+00  1.1777016888640651e+01  3.1702995788617945e+00  8.2510446823760863e-01  3.0381622094582916e+01  2.7283728668415122e+01  2.3789151428268362e+01  6.2195382794601905e+01  7.9206314026388455e+01  1.1154993048506581e+00  8.2014368151029615e+01  2.3237004745869651e+01  1.8066725010079548e+01  2.0556024368918173e+02  4.4316780019663845e+01  2.3417728188582467e+00  1.5535390727578115e+02  2.1273416052149447e+01  4.4416607413771132e+01  3.2989849747404520e+01  5.9433645560373174e+00  2.1323032002284428e+01  1.4676170082707765e+02  1.2143061953820508e+02  6.2221495888317044e+01  3.6802015200308617e+01  7.5440271458283990e+00  3.9369166697061900e+01  8.8973078374625771e+00  1.1157917253001786e+02  2.0741922329413223e+00  2.8602971517794760e+01  2.1171807232487532e+00  2.3330848514029759e+02  3.4096502581645711e+00  3.9372668707594087e+01  5.7642617620476377e-01  6.4955468824616380e+00  3.5679183747595431e+01  2.0634137973883313e-01  7.9759790163366091e+00  1.1150959159887829e+01  2.4411496975589245e+01  1.2992016716552193e+01  4.3920962905064584e+00  1.6808542739862429e+02  2.4467832957618699e-01  2.6408387015330078e+01  4.6944608063375647e+01  4.4549113028335043e+01  1.4442616470421775e+01  5.7468699832442587e+00  4.6535171073726254e+00  5.8989019464206550e+01  1.1480034774255733e+01  8.8881727841098581e+01  1.3304623405617815e+02  2.1500508337183568e+01  9.4310660169001096e+01  1.1638468428511263e+01  2.4430458752855468e+01  3.6796424784768726e+00  7.8490582247425721e+01  1.5114186008302459e+01  1.7502979556091576e+00  2.6751698014372760e+00  1.9370376314590551e+01  3.1935026020637483e+00  8.0580852948513915e+00  1.4607444845646577e+02  5.3946739797787167e+01  2.0729357908839498e+02  3.1461836711446716e+00  2.3466756663964952e+02  9.8512995034987283e-01  7.1018091264668808e+00  2.3313787429444259e+00  1.5874143717057168e+01  2.1691898205675738e+01  9.7126296335344165e+01  1.0835293419919944e+02  1.8993297340833113e+01  6.9165196959116358e+01  8.5231054579034790e+01  8.0210236016061998e-01  3.6720522254491916e+00  7.5411268399303538e+01  5.2791124093077912e+01  1.1286756624322898e+01  1.0499213561289253e+01  3.8379727151120335e+01  2.7754817911759446e+01  1.3597666335057894e+00  1.8099266575116978e+01  7.2578190828773015e-01  4.3459097596393711e+01  6.7778581189978953e+00  2.1878076598642610e+03  9.4029472098086742e+01  7.2776046943598772e+01  9.4119323064195086e+01  2.1939633387754121e+01  2.6776526825425222e+01  6.3617879264203800e+01  3.1918000614900823e+01  1.4336614827957925e+01  2.4072276999095855e+01  8.5003400669588501e+01  2.7096570917557266e+01  2.0143471224925844e+02  7.3887496533771341e+01  4.7422259530253861e+01  7.1266180907605747e+00  3.1449198802713985e-01  5.8384198704955921e+00  1.4923257105112955e+02  1.4530046775312268e+01  1.6816996004420187e+02  3.8908788621235807e+01  4.3997584378000973e+01  4.6997070893896044e+01  2.7078456041902782e-01  2.7766675702754595e+00  3.9387591122821483e+01  2.8025582782569892e+01  3.4033723322770996e+01  4.3768391460858609e+01  2.0662383377613507e+00  5.7789394453873522e+00  4.5390818046905999e+01  4.4884979095952787e+01  1.4754574076331494e+01  2.6506674755482276e+01  1.7905501782583801e+00  4.3525794345115354e-01  2.1113774550878688e+02  2.2325941056607130e+02  4.6382260830326618e+02  1.3000300049599554e+02  1.5805728044970264e+01  2.6844216067062270e+01  6.0455902403908368e+01  9.9605684466615241e+00  2.8176427818098727e+01  1.9556500452718634e+01  4.5025712024738283e+01  2.1450793265440208e+01  8.9533140447636086e+01  3.4203651769660451e+02  8.4014487023217711e+01  3.6049690407162518e+00  1.9663487914262137e+02  1.6803115347701237e+02  5.0326173832939913e+00  6.3261341919157346e+01  8.0776039572588998e-01  3.1245608990266338e+00  1.0230312783333344e+01  7.7279894774633135e+01  1.1859986101574734e+01  6.6860982712941244e+00  1.8134864026403907e+01  1.7197304588993934e+01  2.3288343565688560e+01  2.4984033986994433e+01  8.1983535035623838e+00  5.5011927245382122e+00  1.0240705020740360e+02  5.1285389423470797e+01  3.3143838645908566e+01  5.4539388093832724e+00  2.6439688482138997e+01  1.3371468685774369e+02  9.0955885958464705e+01  9.5371597669451120e+01  6.1549528655239856e+00  8.2038975247304204e+00  7.8158651811275817e+01  5.1335375758965434e+01  4.6199148411621316e+00  9.0360791514615613e+01  4.5212217354667310e+01  3.5847056844132157e+03  1.5951293023967221e+01  3.0066646406658553e+01  7.7103306497542803e+01  2.9245888272155611e+02  6.8317958938326527e+01  2.8025015377153455e+00  2.8918707772648937e+00  2.8139996380316351e+01  4.7996779679866087e+01  4.6464469464013746e+01  2.5358461603105170e+01  3.7819170242226784e+02  8.7399978553981626e+01  3.6708959866474771e+01  4.5327502664866124e+00  4.5898333038408815e+01  1.6235753446340524e+01  1.4484112392591195e+00  1.5981918354029040e+02  1.8550128815415626e+01  5.8044263892913808e+00  8.4755715855719373e+01  1.9230664554731892e+01  7.8765553151028030e+01  4.5606172671200412e+01  2.3575496234085122e+01  6.9616832588269077e+01  6.5860043342215903e+01  3.6146059049827826e+01  1.1876206403353025e+00  6.5383565286756607e+01  3.9063025964257996e+01  9.6335579580167785e+00  4.3204363614048316e+02  1.0738444924615711e+01  1.9169394201998948e+01  6.9078331378342057e+01  5.4977546237844486e+01  8.4672898426327681e+00  3.5495405439918407e+01  2.2089664156558845e+02  7.4980924201634437e+01  3.3963980827872142e+01  1.9156842611136465e+01  2.8497381564624025e+01  9.2555767091819959e+01  2.3895924651656099e+01  7.6808633993445937e+01  5.2005823607350742e+01  3.4587039953670612e+01  7.8747120177508700e-01  7.5758456270779405e+01  1.0952712988880464e+01  3.5498175118876176e+00  3.0856560528577490e+00  5.1537678787290304e+02  1.2425679723279980e+01  2.2546036524779277e+02  1.7189291981844789e+01  1.4483006489712560e+01  4.8233986020089191e+01  1.5717705504864806e+01  2.0911508366680645e-01  4.3191367934690930e+01  7.9169804535052108e+01  6.2739975957833678e+01  8.5489514444880417e+00  1.5853641647042455e+01  9.0326171133202195e+01  7.9708851529238302e+01  2.5762833224195009e+02  1.3580162587456837e+01  4.4657695438689352e+01  8.8294153830927144e+01  1.7349778714685883e+01  1.3676653480384542e+02  1.9322434695703910e+02  9.2116325430287077e+01  5.2233989888049457e+01  2.8649091939476525e+00  3.0334674337443475e+00  2.0521916057657717e+02  5.8097387877132803e+01  8.7409636180482636e+01  4.5500841212519303e+00  1.3602535377173021e+02  1.0917696998216157e+02  1.0580789707088306e+02  1.5382814711811503e+02  1.6847053585057421e+02  3.9685680052023504e+00  6.9677951664834154e+01  1.1040069348507158e+01  5.1142510687565853e+01  4.2717616163783634e-01  8.4155920750447194e+01  6.8793911029905743e+00  5.8671326331793011e+01  2.1054564974333144e+02  2.4268433423076690e+01  4.0304947842877648e-01  3.6400338058047709e+01  3.2807278262062039e+02  2.8957699626758547e+01  1.6941494240058519e-01  8.3989879464904064e+01  2.3454596297191688e+00  1.0760774416436169e+01  2.2918457395187620e+01  2.1233440825579930e+02  6.8690241104071523e+00  8.3101296717743889e+00  6.1204351362099576e+00  3.6962554632966715e+01  2.6838892871831586e+01  2.0300068327527818e+01  4.3041917937704760e+01  3.1951689687673323e+01  4.8760226641758706e+01  1.7878908672645522e+02  3.4568693163964406e+02  3.7950047190846782e+01  2.6419716199675314e+01  2.9639798005665778e+01  4.5233189380095880e+01  6.9237236235574301e+01  1.5151962960334220e+01  7.2598027512440746e+00  2.9734813274890875e+01  3.5846812443101095e+02  2.7422079360975442e+02  1.4544267380648359e+00  1.5319436637958757e+00  3.2830141555232359e+01  5.4826813139769463e+01  2.1125423012129630e+01  7.3289184432324632e+01  2.5795534489684169e+01  5.9396918739460766e+01  4.8908901401887938e+01  1.8061753809637910e+01  7.1315944106727699e+01  5.7603372681341568e+01  1.6031076952542350e+01  1.4160491652275963e+01  1.9756783366969816e-01  1.8445388976117719e+01  3.6309701764446396e+02  3.8534990027331437e+00  2.0542484675345523e+02  6.7807726226346050e+00  3.7310944517613369e+00  1.0904586818982897e+02  1.6438453999060829e+02  2.3581990322391692e+02  8.8556668686261031e-01  3.3296403314533616e+00  5.4294420101059737e+00  1.3913785091924074e+00  7.3507294763936102e+00  4.7957159774419758e+01  2.4554421462725504e+01  1.5457574250419825e+02  7.0056090120992863e+01  1.0884301236643674e+01  3.5921834306551105e+01  1.3313052932691830e+01  5.1922309819433529e+01  9.0277907779161259e-01  6.2986776278368882e+02  3.7445257113426025e+00  8.4084213130891161e+00  1.4481072775966237e+00  1.0280741034651385e+02  8.2274531140010350e+00  6.2284350386518121e+01  1.4082594002027042e+02  1.2615645655877341e+00  3.8218126353942729e+01  1.8255736131776722e+01  2.1872689400865664e+02  4.4064694167085094e+01  2.3327229923721978e+02  4.8112763016497311e+01  8.8124848655678775e+01  6.1465637521508562e+01  3.6302789038475953e+02  1.1812839215275789e+01  2.4720373002070366e+02  1.6024197793745479e+01  1.5752166496379283e+02  4.9120650294870202e+01  8.5567457067139898e+00  8.7409770435744463e+00  1.1851442248070542e+02  4.7420019663010891e+00  4.4742541254499592e+01  7.9896819149335954e+01  5.2777609285070447e+01  4.9452384399566562e+01  4.3580791265944647e+00  3.8003748414123589e-01  1.4149185304700521e+02  4.5460662629567121e+00  8.8733743592220279e+01  1.0864648554810869e+02  6.0711532652276460e+01  4.3337689459602281e+01  2.8339686057792395e+01  1.6246785930991123e+01  6.0537332051704531e+01  2.3513001329020677e-01  2.1293471700632907e+00  3.7745878163718865e+00  3.1168922381722384e+00  1.6618431676572871e+00  4.7776430563136921e+02  2.5106381720521174e+01  7.8530454561643396e+01  5.9474806853330318e+00  2.9539852753130802e+00  3.2744566553981138e+00  1.5921876370971400e+01  2.6404105283629413e+01  5.2397493769057768e+01  5.5626848747807323e+00  5.1210480344269598e+01  2.2156130073072163e+01  1.0796516225396239e+02  2.3849991034605837e+00  5.0058610219470140e+01  1.1688873901962731e+02  7.9023821232492367e+01  7.9153104363971991e+01  1.1983794119228952e+01  1.5396541214619397e+01  1.3640341260100888e+02  5.7898703187835086e+00  3.7694582486200247e+01  6.0064472962477289e+01  4.0093009531144310e+02  5.6233622035096495e+01  4.1831504725761181e+02  2.3472148222802939e+01  4.7931530809158907e+01  3.0170077716871337e+01  9.1016799644752506e+00  6.5155756171742482e+01  2.0940595804782629e+02  1.9153326412719366e+02  1.9147107880414730e+01  8.4449620083860371e+00  7.2772294047090767e+01  9.7879788547964964e+01  1.7912378148970703e+01  7.8836273062813689e+01  2.5979565261254907e+00  3.1177945953961762e+02  5.1055003209637615e+00  7.1085992206638808e+00  1.5835264017659742e+02  7.4896622073643670e+01  1.1630966624171380e+01  2.0223182360858252e+02  3.6561006665647540e+01  3.0946628061009381e+01  1.2154285163802170e+01  2.1000431475356397e+01  2.3531623360726374e+02  8.7824683435006037e+01  3.3951308429971846e+01  7.2137610194783868e+00  3.0830491204422337e+01  2.5527791310599738e+01  4.4623707277951254e+01  2.3893104141327584e+01  6.1815096470770690e+01  3.1010162503547303e+01  1.3230050906579182e+01  4.8002542207525579e+01  3.3122301245115445e+01  6.4827650916257539e+01  9.6994094579139229e+01  8.3061439544006788e+01  6.0533660375270713e+01  6.3102901009768395e+00  9.3453723689803155e+01  2.1172100097608244e+01  3.6222588577391676e+01  4.7467486235863197e+00  7.9861077912079935e+01  2.2088342071227849e+01  5.5842051564623773e+01  7.4308291251407013e+01  7.0894404381259505e+01  2.6424125537575270e+02  5.4875337255334049e+00  1.8641986414828271e+01  3.1331501548980512e+01  1.0220193313479865e+02  2.5915409882357096e+01  2.0112290532658481e+01  4.5793086002210415e-01  5.0938252344745955e+01  3.5470352842603683e+00  4.8193014296152503e+00  1.2287920423962075e+02  5.8129395736041456e+00  2.0101488707527064e+01  2.7720507605030200e+01  2.0989653094058922e+00  3.6848746560510527e+01  5.5581648227512410e+01  1.0228181337743536e+01  7.8961368970653098e+01  1.8800942437114653e+01  9.8440535755347880e-01  2.4149640882865516e+01  8.6659003104548376e+01  8.9566674151997461e+01  1.3911669781130380e+01  2.5107025322471429e+01  9.1494326583136584e+01  2.1761447488568547e+02  4.3907612223037809e+01  3.0510370268398528e+01  3.2558325341599054e-01  2.7508731734198939e+01  1.9556924284904394e+01  4.9945955602315742e+01  1.7169288263944316e-01  1.4867589216595773e+00  5.7446974967569053e+00  5.2892523568666832e+01  1.0845381829073575e+02  1.8445666924213281e+01  8.8884609568150012e+01  2.4698740176603380e+01  2.3460662361016361e+02  6.0211567409902223e+01  1.7969305295088429e+01  8.7788926338119794e+01  8.3783914470199772e+00  6.3696976396971536e+01  2.2087357948774695e+00  9.1312000151464705e+00  2.1613722656285033e+00  5.8758117359018648e+01  4.5091342074358344e+01  4.3718975603624139e+00  6.0364200127993001e+01  4.1521981892330291e+02  8.0817618312316043e+01  1.6693780521679781e+01  1.8203976791506578e+00  1.8291511573471062e+01  5.9158746586181644e+02  2.9059736796888807e+01  3.1157495304380483e+01  8.5866766723084531e+00  8.0112600739085778e+01  1.4460452293008812e+01  4.5387177985435994e+00  8.6005583274561076e+01  2.9627150616127569e+01  5.4081141509516917e-01  3.6052679664752404e+01  2.7507739000981328e+01  7.6299589047684549e+01  4.0616331378645917e+01  1.8127034767264544e+01  5.7452029108103822e+01  7.5121934187424444e+01  1.1906584792103970e+02  1.0936601423283815e+01  3.8498942083246767e+01  1.7382910372295417e+01  3.2012024056653757e+01  1.0536412119048357e+02  6.3763209788310952e+01  3.1293624246467605e+01  5.8516248319576995e+01  1.4487474842939110e+02  5.8846317620138159e+01  1.5198423954779498e+01  1.9899317066499998e+02  3.3295772386286959e+00  1.1170145792708700e+01  7.9013023452332817e+01  3.2758166158642915e+01  2.5743258567598122e+01  1.1353240643291353e+02  8.1735568486190388e+01  6.5157645366961503e+01  1.7135137675029092e+01  1.0446854897392448e+01  1.4531745701581576e+02  4.9962687273900727e+01  2.9939864586174760e+01  2.3203549586503780e+01  1.5433111969310817e+01  6.8240667076288801e+01  2.0534393262095151e+01  9.1335662217413983e+01  1.1281889856647926e+02  7.9233130559835971e+01  5.4862101259600067e+00  5.9045312544460366e+01  2.4771419873181681e+01  9.4667812661810284e+00  1.5118881553972731e+01  1.1776658258970373e+02  4.3998853136685199e+01  1.0089144207998665e+01  1.0067422136540921e+01  6.1635740664073566e+01  2.1538549369388804e+01  2.0028894944087142e+01  5.1892502252716177e-01  6.1428021582528638e+00  9.1619748780586019e-01  1.4163573917414618e+02  1.7862672927205587e+01  2.4079342446318062e+01  1.3315564436771984e+02  2.2516899412112747e+02  4.3947560501832839e+01  2.6824900504450000e+01  1.8852645733956230e+01  4.0582102299013869e+01  4.6392962517811640e+01  1.4764393333064552e+01  8.4270806926754830e+01  1.9675404891044941e+01  2.5002287202029905e+02  2.6959418830164466e+01  4.9787525644137013e+01  6.4477584907818795e+01  3.8159238161929522e+01  6.9814557647197473e-01  3.0701106198023695e+01  4.6535842887230082e+01  9.9830149122160403e+00  3.0464203047675461e+01  8.5969679886174788e+00  1.5861240142975205e+02  9.6990265767815345e+01  9.1508470473275878e+00  7.7235919990092100e+01  3.2316724267923590e+01  8.1314647499930814e+01  8.8704969282928374e+01  8.8774038513994896e+01  2.1168885884292227e+01  6.3635928116343734e+01  3.7941590297652490e+00  8.9300805521743825e+01  8.3514982081422389e+00  1.5856521682388738e+01  1.1601891672468774e+01  1.5205361395922921e+02  6.7104573908327836e+01  8.2700511464184999e+01  3.2745251740662664e+00  6.9133132654235752e+01  5.9449625567269592e+01  5.1241842988198002e+01  3.0636822968076594e+01  2.4819860981512157e+01  3.4939681962325082e+01  5.7696032638912231e-01  3.5220391441124264e+01  5.6935949338481365e+01  1.9394355763927457e+01  3.2877242544951997e+01  6.0796451073319638e+01  1.2241080809214189e+01  1.7183110599702971e+01  2.2714541315236684e+02  2.1801347620836685e+02  4.9872319902930435e+00  8.6249797735974752e+01  1.0403909262822236e+02  1.5580929524876220e+01  6.9449934627191752e+00  2.5020708147571629e+01  3.0410659294867223e+01  1.5885833428862187e+01  4.2520058313052367e+00  1.4720763583187299e-01  1.9997251114008827e+02  5.6588658521650352e+01  2.6120791850788802e+01  1.0765097798862823e+02  2.3414492572627879e+00  6.9367357842274799e+01  6.7038339388970996e+01  2.4779356667302546e+00  5.7800284150938781e+00  2.2267932755255028e+01  5.3985560545627969e+01  3.6709136418600664e+01  7.9782758881015951e+01  9.3909571202121938e+01  5.6363896956561454e+00  1.0480533883241897e+02  7.6736836330364292e+02  4.8520058471622370e+01  4.3689176209198287e+01  1.1635034340158879e+02  3.9680965276317761e+00  3.5337480951644281e+01  1.5729181562529110e+01  6.3953954509508428e+01  8.5474217234788441e+01  2.4471424385735649e+01  1.0238428233857503e+02  3.4463793884667972e+01  4.4703021811065526e+01  8.6018792789863845e+00  1.1261197664224807e+00  5.4316891942434729e+01  4.4071594586656197e+01  2.8173726955865181e+01  2.1182082904338106e+01  4.6572658028469725e+01  1.4867482685751321e+01  6.5545513538756106e+00  2.1034573163432080e+02  6.2965825634976532e+01  6.4680341757036828e+01  7.5006236545980386e+01  5.4407726094947639e+00  1.4707642911864252e-01  1.9216383548309812e+00  7.0401700990189306e+00  6.5588019744283665e-01  1.4271276540245353e+02  3.1609635340847159e+01  2.3280970314101475e+02  7.5271471135035641e+00  3.0713280707734850e+01  3.7912588674508278e+01  3.3659128055948216e+01  1.6023818733819348e+02  2.1996632288460290e+01  4.5855296646342495e+01  6.2777751398063465e+01  3.1827228839153541e+01  5.8851953891305833e+01  1.5027552747920456e+02  1.8186537500727042e+02  5.7608162598877342e+01  3.8171533933593118e+01  7.6508382135403366e+01  7.3009009450927707e+00  2.4950573450630031e+01  4.5427381724013491e+00  7.6498581658993743e+01  1.2911144341304279e+02  5.9312144095564676e+01  3.1252554643284771e+01  2.1023010767780697e+01  7.3429917174938062e+00  3.7083643158987392e+01  8.9085202035313937e+00  1.7489324940591697e+01  1.6112768889938103e+01  6.6727394863903342e+00  7.3798198118661404e+01  2.5289038799610012e+01  1.1940979513967727e+01  7.6542660784094991e+01  1.2920081656811037e+01  1.0525359179155053e+01  3.9981659580295720e+01  3.7883498689564846e+01  1.8482396797938961e+01  8.7919052455154194e+00  2.2225207848506356e-01  3.7520306282115348e+00  1.9395589767944692e+01  5.8067688202077861e+01  2.0075508369685693e+01  3.5023689102208323e+01  2.4710685719628898e+01  1.3827404121794670e+01  3.1658562070915274e+01  1.8705541994373468e+02  1.0913420216357066e+02  2.4185164089511516e-01  5.4377892717011953e+00  7.8283490949240687e+01  7.7100712283572918e+01  3.6441260420229206e+01  5.1395481936992882e+00  2.5397234546010459e+01  1.8317205257080015e+01  2.1896784770613870e+01  1.6403196645114559e+02  4.2528974167103442e+01  3.5716697154263943e-01  3.2249653645764617e+01  1.2735397150240077e+01  2.5374691953989647e+01  3.6967439668929982e+00  3.1056593813864719e-01  2.2201473283847086e+01  6.2615635688205579e+01  2.3329288592430257e+02  8.6773196974441603e+01  6.9272576295270241e+01  1.0017870292390413e+01  8.2778073794607408e+01  1.6093060615038766e+01  7.6701429187439416e+01  4.1947906881003334e+00  2.8571087214497808e+01  2.9023482415696725e+02  1.2711351930780166e+01  1.5305200931626391e+01  7.9245723567898480e+01  1.5285025197161605e+01  3.4789578990477694e+00  3.4223422380516887e+01  5.5417269432986060e+00  1.8081233291879917e+02  1.9118505361575171e+01  4.9429292999179253e+01  7.4054690304900447e+01  5.1705649171387783e+01  3.4607032514634753e+01  5.9410089881237710e+01  2.5045819108197502e+01  6.1638181551085625e+00  2.3026706727513563e+01  5.8408373277220005e-01  3.8636600722378660e+01  7.6214685973417060e+00  1.1141008369050169e+02  1.4537631217139415e+01  1.1072151236942021e+02  8.1399280558744010e+01  4.0873661495725806e+01  7.2992150498453867e+01  1.1681475044485268e+01  2.4255133923660281e+01  4.5966027403820704e+01  3.7069781474648686e+00  2.8628132439140071e+01  1.8767437546603006e+01  7.0524450650576380e+00  1.5281063435595421e+00  6.9041300577135829e+01  4.7593382863047502e+00  1.5122522838926551e+00  1.4714952508326991e+02  4.7085697027389912e+00  3.0122916486536461e+01  6.8698870891267660e+01  9.6115340703583989e+00  2.3883781165455429e+02  2.4374042424849148e+02  1.7081978689424841e+02  2.7804983911328840e+01  2.0415326953389396e+02  8.2392721669186404e+00  3.9940153340521167e+00  1.0510453164421950e+01  5.7728008775379500e+01  1.5216238429152249e+01  1.6614350103669108e+02  2.4765889397695031e+02  2.0139776585389807e+01  6.5574885364724693e+01  3.5568052658205310e+01  3.6406949138550893e+01  4.1278093811073511e+00  2.0593452411175548e+01  6.9703702960148419e+01  1.8496066447999615e-01  3.0081895125762927e+00  1.5897729659895154e+01  4.2961445644397635e+01  1.2269710755203798e+01  7.3350517364968226e+01  3.0875119027926195e+02  2.0958571270527610e+01  2.4890996990170869e+01  1.1797512846014976e+02  9.2302879381749591e+01  8.7785871028741894e+01  3.1703586752215784e+01  4.1920764352954173e+01  3.8318266713310578e+01  9.9458452228495730e+02  1.4999503700661268e+01  8.4132551674909649e+01  1.9759345135487326e+01  5.9504878898255544e+00  3.7923454100449867e+01  1.6018806295578738e+01  1.1932000880151753e+01  6.7844518688308625e+01  4.1462978804067568e+01  1.0178877495765516e+01  5.3514992819972690e+01  1.7033289104136085e+01  1.7537783032000073e+02  2.1324506300556859e+01  7.7885401961640239e+00  1.0777706340448678e+02  1.5169693088749730e+01  1.3901417711542489e+01  1.7318902132806848e+01  8.9170308600408248e+00  1.5997009061947235e+01  9.8990894996253047e+01  2.5768955817772760e+01  8.7029949215042084e+00  4.2221949758697704e+01  2.8018213871937281e+00  2.4537197955205752e+00  2.2352630081023793e+01  8.0852548274466670e+01  1.3359149464744377e+01  9.1822755997937307e+01  2.2663979346905968e+01  2.5804502279849339e+02  1.1792602404646362e-01  9.1188141945261080e+01  2.1177827841477974e+01  2.3937242308341860e+02  3.7301507011488222e-01  2.0312421998674154e+01  7.2070824174578931e+01  4.9540938768418826e+01  1.9973483555916998e+00  8.0399257484843858e+01  4.3055355050953658e+01  9.0991790218202866e+01  5.8449173154902256e-01  4.5677483776600894e+01  2.1491127906423699e+00  7.0693562637828236e+01  2.9561677985084174e+00  4.1853492967935338e+01  6.7211883105763263e+01  1.6751364103656482e+02  1.0616339270313846e+01  5.7246080795962094e+01  4.3142693083788276e+02  2.5032547840420953e+00  3.5958139753649206e+01  4.1230070885764022e+01  5.8028798189442014e+01  1.0884744301181878e+02  2.4548886393509366e+00  7.5317644838549320e+00  5.7136991854385229e+01  6.6464181344252893e+01  3.7429080727934526e+01  2.4334429557581645e+00  4.8819823149276074e+00  5.0514311913813344e+01  3.1430173980645577e+01  2.0355463973506750e+02  9.8839473215124354e+00  4.1550300349179885e+01  2.5320598394135565e+01  5.0931168530352295e+01  3.9560900893638745e+01  7.8088084621169713e+01  5.3115506619135935e+01  1.5011532098046766e+02  8.2377582451898490e+01  4.3369584731277257e+01  4.2096428971959178e+01  3.1679603970140452e+01  1.7238424209716368e+02  1.3062152789574357e+01  6.3488629199714090e+01  6.1496255454519947e+01  4.2369683220991035e+01  7.7605821374703055e+01  1.7242190615510771e+02  3.6846095236764036e+01  2.5766987904037624e+00  3.1795167444244363e+01  8.1539943014247385e+01  3.4815917500110977e+01  7.0496353061910888e+00  7.2138776881234165e+01  7.0004572068050408e+01  9.4090382331099519e+01  3.9394576324552396e+01  2.8783050575920413e+01  3.7327624221338844e+01  3.9162011827988903e+00  1.3727344910822261e+01  3.6119221021457193e+00  5.8187946206681197e+01  5.1438199091381298e-01  9.5424314980200847e+01  2.4872595204015519e+02  1.8255599264539779e+01  9.4827894899456183e+01  9.2211554822790674e+01  8.8845627800072023e+01  9.3871435908131275e+01  2.8815486209776719e+01  4.8498677706390914e+01  5.9332122192382748e+01  1.4477356702967243e+00  6.7143742482319880e+01  3.5138877014413914e+01  5.8659552884253578e+01  4.7353685467707308e+01  5.6373649144404489e+01  8.2790610065088856e+01  6.1109374280266913e+00  1.2229441750314634e+00  1.0283448677908646e+03  9.9805449929144896e-01  3.8238459569131207e+00  7.6039566595051413e+00  2.3859872568462450e+01  2.1276278331880505e+02  2.5964764225908688e+01  3.2568817597793263e+01  1.9018044330510435e+01  3.8773153739329572e+01  3.2156583159826134e+01  9.2988787386606049e+00  5.7911444036581962e+01  1.4873644054513736e+02  2.8460137225295568e+01  2.8242060189786589e+01  3.8052986037077503e+01  7.4338588848353680e+01  1.3283116862398185e+01  3.9332628644101305e+01  1.9060550510691678e+02  9.1059019869298524e+01  5.1916515002443617e+00  6.7022259226462694e+01  8.0652188119017325e+01  2.2439966495746830e+00  1.0620709689071269e+01  3.3563327141084052e+01  3.8819463345998066e+01  4.9448539942828731e+01  5.9804610128313698e+01  3.0959836615545933e+00  1.5127943193551694e+01  2.8158903524104994e+02  4.4380112373293393e+01  3.0575082293784931e+01  7.3358408069183938e+01  7.8178009441319006e+01  3.0708450339945978e+02  8.1085654947753241e+01  3.7411358969405462e+01  5.1777488661166666e+00  2.2407530776571325e+00  7.6686271027205786e+00  5.6665384873770028e+00  6.0131841938441921e+00  1.8529746614841457e+01  3.3205645601060663e-01  2.0325873541425921e+01  3.8785095256951728e+01  1.1040975890671612e+01  7.2850160615423523e+00  9.7282691627290365e+00  1.8892989455756297e+01  3.5776332096603767e+01  9.5209598618006908e+01  3.9500629284687605e+01  2.4310611903266693e+01  9.1221310640869078e+01  6.7201546256190994e+01  1.2341486862107953e+01  1.4732296880299685e+02  3.9354024981053870e+00  2.8175848891817193e+01  1.2887722268842515e+02  1.0505277799970115e+01  1.1855842523333524e+00  3.0521006959665571e+00  2.4432426366475954e+02  1.4710177867520673e+02  3.5493249937536802e+01  1.2851173320701341e+00  2.6576316895499718e+02  2.3753605713829214e+02  5.1936841437278716e+00  5.2128845935117802e+01  6.9968131818471150e+01  1.4469477003622569e+02  5.3840214508033464e+00  3.1407291234333101e+01  1.5834080403648761e+02  4.2043668141658216e+01  3.2211942913167192e+01  2.4609164010884285e+01  9.2308429860178578e+01  1.7234977194442035e+01  5.8105986292567202e+01  6.4262662928726655e+01  2.0598343453148868e+01  4.2434149159777533e+01  1.3762293839921778e+01  8.2421135220661512e-01  2.0213649161106158e+01  1.5513121520113185e+02  7.9035144238132091e+01  1.2125020097225059e+01  7.1635467851265036e+00  1.7811629919059531e+01  7.4330987987606782e+00  2.6807838120337307e-01  5.1489363956149226e+01  5.3467593842262113e+02  1.7710846395660565e+02  3.5829412910404230e+01  2.8234648678364991e+01  1.6041146750177515e-01  4.0254013590107895e+01  1.4615935621766981e+01  5.9428796033280527e+01  1.2122881605737101e+00  7.7652936284560559e+00  8.7319968920268529e+00  1.6293663389828814e+00  4.8961620440541168e+01  1.6419749967329605e+02  9.1914352471161962e+01  9.9851334173844553e+00  7.0655279108771353e+01  5.6880528090999336e+00  3.5165149198291850e+01  8.8578914792516287e+01  4.3940573412902168e+01  3.1385306515349043e+01  1.6698280441634566e+01  9.2368476068542709e+00  3.5621175093530266e+00  5.3401886604840357e+01  9.7101891989318702e+01  5.3891115786493531e+00  2.7472883230978393e+01  4.6169210644019991e+01  1.8909801541485466e-01  1.9590264522466427e+01  1.8327942315716594e+01  7.1217395715332614e+01  1.4913594650858014e+01  9.6696455379608395e+01  5.7259870572672495e+00  5.5240078413229121e+01  1.5902261400511266e+01  1.8118852629253247e+01  1.1467276987923528e+01  3.8823215792736953e+01  2.5010083547601482e+02  7.0400382907109149e+00  7.5025846039836793e+01  2.8162285069577095e+01  6.3992882277282831e+01  2.6495577544923083e+01  5.6155631693930069e+01  3.1381097544840138e+01  1.7323997640487218e+02  5.9870472610876950e+00  1.5273452955840054e+02  9.0044099505387109e+01  1.2545278435150035e+01  2.2899222029775260e+01  7.8189753405100348e+01  4.5454146030501576e+01  1.3871672543900141e+01  3.9876450783310489e+01  8.8586355303889324e+00  3.4919344472634677e+01  1.8966032298446255e+01  3.2956894035986757e+01  2.6005214362098314e+01  4.8485410104712258e+01  4.5264083819773591e+00  1.2321875589941618e+02  4.9079509111280466e+01  2.0791131292935340e+01  2.7858076614217126e+01  1.3967690225120034e+01  2.1733541574008886e+01  1.2341133579470846e-01  1.1504157061427420e-01  1.2029978488005771e+01  1.2086194113698360e+01  1.0092134177281080e+01  1.5846441145810323e+02  3.5492172711730603e+01  6.3977316561041270e+01  1.1764175902857441e+02  7.7172652328674485e-01  7.4967258991385339e+00  4.3593017040412346e-01  8.8691176798347975e+00  4.2587533862036359e+01  1.6028927751456344e+01  2.6260931325143655e+01  1.6698272752578045e+01  6.5036976948615234e+01  7.7739604517653484e+00  1.6159377516049503e+01  1.3653810758133801e+02  1.0349051379558011e+01  9.3381213508234666e+01  1.4325057854805359e+00  6.2631053243789616e+01  2.9339220005226448e+01  8.2732293043942597e+00  4.6051265134812086e-01  7.0317069044394970e+01  1.6447997016738699e+02  1.2232165029557629e+01  1.6729498174935480e+02  1.9829364775275685e+01  2.7922190843545135e+01  1.3064227540068789e+01  7.1577688064628887e+01  4.7558284204740893e+01  5.2953187774297215e+00  1.0841910524158060e+01  3.4504752644519705e+01  5.9346475808508381e-01  3.2154622887514783e+01  2.2599760824645944e+02  1.3800837891650066e+00  6.0215013601645630e+01  6.0594716370518169e+00  6.2061054414006445e-01  2.5814108643369571e+00  2.2343501906312081e+01  5.9231139528119115e+01  6.1242643267272099e+00  4.2321405154635720e+01  5.9199224687749663e+01  2.7775386406352478e+01  5.2730812704948704e+01  1.1073959821176075e+01  5.9900574749276061e+01  8.6578818169430480e+00  1.0749042846567254e+00  3.1667175336586414e+01  1.2957793660813655e+00  1.5468486977506578e+02  1.6463853298120497e+02  1.6194331398233803e+01  9.4274326113005728e+01  3.2706558128655175e+01  4.7419005223144062e+00  2.6189349406890821e+00  1.5891698590244116e-01  9.2480178990016455e+01  5.1220388667226359e+01  8.1135319380881526e+01  2.8338901068450763e+01  6.9315026479551619e+01  2.1207923410825718e+00  2.9932752050266380e+01  3.0469736202328004e+01  2.5724643285228662e+01  5.5157787160027510e+01  7.0783270994566124e+01  9.5659886156400418e+01  1.7420135467852568e+01  9.0172884546360251e+01  8.9828716979832322e+01  4.1832633651168143e+00  4.4081728736114840e+01  1.4604559625975844e+02  1.9271733627381860e+01  5.9994103366611489e+00  3.7901941238338002e+00  4.8560586370018761e+01  1.1095788958902155e+01  2.1318184624449547e+01  8.9283343843928023e+01  1.4727018568657268e+01  9.9436657004465374e+01  2.0107976142345194e+01  9.3154990028480810e+01  1.4822533877393679e+01  2.4566626008617447e+01  6.0175870536768727e+01  3.6632270247568265e+01  6.5279524799242409e+01  9.6340963422603565e+01  1.3109993314347131e+01  2.1757295387602534e+02  2.3155135535936889e+01  5.6040176372541652e+01  7.9284556782524859e+01  8.2829017968859247e+01  6.0337161325914664e+01  3.6320669722625532e+01  6.1375496770070868e+01  4.3288662579332538e+01  1.8935251906711798e+01  3.0313384184802125e+01  7.9163972653880297e+00  7.2369124128221056e+00  1.1463009818246519e+01  1.7066277432716465e+01  3.1115466774389841e+02  2.0373509018688345e+01  9.3638378559155910e+01  9.1095503796374501e+01  1.7034101888176622e+02  8.0974423998944602e+01  2.7266296810050566e-01  6.3146783676427297e+01  6.9197733187546234e+01  1.1207831655763078e+01  7.8469422973249678e+01  6.8087338238334112e+01  4.9840230850111752e+01  2.3035089195216458e+00  5.2524503686185064e+01  6.8759803997888440e+01  9.9650927290554321e+01  7.5319315867419667e-01  5.1065634540179587e+01  1.7737567170507962e+01  1.6994315022038155e+01  1.3658334999747448e+00  4.0493354423665142e+00  1.9558464333075776e+01  5.9391899203250155e+01  9.4328674040584293e+00  8.2014240358270470e+01  1.8867929756043228e+01  3.5849342111037558e+01  8.2211458854514731e+01  7.2005193373969988e+01  1.1351741221223065e+02  1.2199247565575690e+00  4.8721992656362598e+00  4.1991908031618115e+00  2.9104243464453976e+01  7.2634276486435283e+01  3.1970026521399660e+01  3.3424173159521374e+01  5.9841948055967705e+01  1.3084637062211804e+00  1.2385336417531853e+01  5.5376728598981678e+01  5.5743795663290197e+00  9.3664573026437559e+00  1.7715863074293190e+00  2.1781146933247758e+01  8.2715986716887482e+00  8.1885378389451020e+01  2.4186067263435052e-01  3.1188367038365133e+01  2.2311082894846992e+00  3.4566661937037182e+01  6.3574390265470724e+00  2.4817303834998089e+01  4.0804602500364211e+01  1.7750805005519133e+01  2.9010201133412782e+01  4.7193387511768350e+01  2.1067828212724233e+01  1.0700075334791981e+01  1.2075797763618705e+00  1.2188821597096376e+02  1.2356507859772539e+02  2.0381245356490612e+02  3.4939230887251746e+01  3.2429492024394428e+01  2.4847986902905113e+01  4.2912738493844138e+00  2.5331534412419940e+00  5.6390151000359368e-01  8.6692534657524433e+01  2.8000085735538626e+01  1.9273010484982269e+01  8.8675308127022362e+01  7.9524114912938288e+01  2.6266503742096155e+01  1.8917451178103750e+01  2.0084609966469923e+01  6.5441922848326456e+01  7.6712486315978188e+00  1.6481777371718188e+01  1.2607613551908285e+01  9.5831410525087275e+00  1.1039622967490972e+01  1.7965717069942302e+00  4.7250399945850307e+02  5.8025310002148892e+01  2.7314090726560619e+02  9.2134948766731270e+01  1.5948770030260235e+02  2.6011971620059420e+01  7.1599567488222693e+00  1.2416040116629212e+02  1.7790374665575129e+01  1.5701794534506695e+02  2.4961194577255306e+01  2.0629044316511647e+00  3.0253166213092509e+01  5.2839728473140497e+01  1.6964025428920397e+01  1.0366403754851067e+01  6.2549499360810820e+01  3.9334213832724885e+01  6.5875375620733323e-01  2.9435861012112319e+01  6.1935833120493015e+01  1.7958509627584888e+01  3.7236922791811487e+01  5.2809237551029433e+00  2.3744094940402910e+01  6.0857982496593280e+01  2.5733676833696599e+01  1.7507629784447263e+02  1.7140993062257575e+00  1.2896589377938290e+02  1.6201791066130507e+01  9.5035277731271691e+01  7.4719529228485557e+00  4.4738280779944271e+00  1.0289816572768551e+01  3.6962719815821586e+01  3.7338540009731265e+00  1.1209406469583895e+02  1.2165335890584734e+00  2.2155782408251234e+01  7.6880220364103566e+00  3.7382985730427478e+00  2.8128624317032933e+02  3.2280973193084055e+00  6.3131135678823426e+01  9.6359697592422187e+00  2.3192956702607287e+01  5.4383698432001415e+00  4.6647610147385038e+01  2.5091842355882070e+00  7.1481104839107417e+01  4.2019012416596651e+00  3.4350096055811974e+01  1.1767353182187049e+01  1.1730820719643694e+02  6.6167155864415528e-01  7.7932295890838725e+00  6.4993548513204715e+01  4.9994589970061739e+01  2.9810002119606011e+01  4.1850420503173567e+00  3.9811185275594156e+01  1.8278413742824715e+00  8.0343701928696243e-01  1.0192807765306298e+00  5.9357257055475827e+01  3.8728572345334236e+01  2.2291888267461399e+01  3.5449017501504962e+01  6.1744405929037320e+00  8.3987399116829215e+02  1.0811500981038010e+01  3.9883537944187140e+01  5.8375294418445991e+00  1.2343498410084112e+02  5.3071666666804838e+01  1.8352883973941825e+00  1.2326812736647082e+02  1.3451952192857522e+02  6.9968293796132116e+01  5.4941342339069124e+01  1.1424162034123928e+02  1.0339169419604544e+02  1.0546397465091372e+01  1.3059343755334234e+02  7.1844540028304905e+01  7.8937585440821564e+01  9.2986569895576835e+01  6.1319678033950797e+00  4.8828624119987161e+01  1.2967366148844073e+01  3.2324492560114308e+01  5.4588843218858408e+01  6.3262928540867747e-01  2.8988871371368777e+01  2.8217342329709467e+01  1.6753283961042474e+01  6.7870283828074648e+01  3.2620873308364168e+01  5.6325323478202179e+01  5.5315574058973766e+02  6.6235100447429545e+02  1.1618218826937627e+01  2.7937074618339551e+01  1.2140481715242146e+00  4.1192648917973713e+01  9.3698242057062359e+01  1.8697099595491437e+01  1.2775443379241777e+01  1.9263143102585929e+01  2.9036737717891704e+01  6.9656308973638204e+01  1.6777421521360577e+02  1.0503853572608616e+01  1.8832253310338526e+01  1.2824583783959360e+01  3.3742152735013903e-01  9.2543854144018837e+01  8.7282326195886765e+02  2.1752909860411046e+02  9.0726248947323100e+01  9.9893845163997739e+01  9.5763606562721701e+00  2.5516618925835346e+01  2.2924734453128229e+02  3.6592763281218105e+01  1.8158387202786989e+02  2.7140458773283655e+01  5.6027593621348750e+01  7.4335776721684539e+01  2.0992453279654324e+01  1.2960267259767139e+01  1.3238349228798890e+02  8.3417934327121515e+01  2.4580550309375910e+00  1.3741567190160049e+02  1.6160690165348356e+01  1.2930255907104240e+02  9.4940513665442587e+00  2.7023184865899289e+01  4.3946152189021596e+01  2.3358615142212351e+01  4.3801900776460485e+00  1.8394650298785606e+02  1.9742493246004674e+01  2.4070542004694744e+00  1.0043860156853683e+00  1.4129607917909510e+01  8.3203518906708496e+00  3.1397616753617491e+01  2.5973251763224006e+01  1.2944676756215266e+01  5.2997314285446407e+01  1.1395962651738743e+02  2.8591827182160545e-01  1.3684487452465087e+01  5.0328893443144365e+00  3.3070107912323486e+01  4.1817686125462437e+01  3.2677132787588687e+02  1.9944474048734395e+00  3.6595816745382123e+01  3.4213911416966641e+02  8.8482423311226569e+02  2.1280763893565883e+01  2.2807436449353620e+01  9.8124832941320683e+00  4.7101945364502626e+01  3.6885293400531197e+01  2.6930797098864833e+01  4.1946332655694164e+01  5.8441751116631522e+01  9.7193816738444241e+00  2.0040096114503786e+01  1.4014465569455162e+01  4.0511357247504122e+01  1.2620428144450153e+02  9.0314473513618516e+00  1.6352364042133768e+01  1.2378253760440568e+01  1.8803250254894412e+01  6.3850234208260275e+01  1.9205360992937781e+01  4.4089391814261994e+01  4.6086788942776935e-01  3.8875159743963486e+01  1.3394658759527758e+01  3.2491420641704721e+01  3.1334561268659122e-01  2.1618672648916201e-01  5.9413600735017681e+01  4.0995149884586302e-01  1.7827049259935555e+00  1.8291656225230895e+02  2.7098069766646606e+01  2.7243628459244695e+02  </DataArray> 
</PointData> 
</Piece>
</UnstructuredGrid>
</VTKFile>