<?xml version="1.0"?>
<VTKFile type="UnstructuredGrid"  version="0.1"  >
<UnstructuredGrid>
<Piece  NumberOfPoints="208" NumberOfCells="360">
<Points>
<DataArray  type="Float64"  NumberOfComponents="3"  format="ascii">0.02214801693937738 -0.03410278424139676 0  0.02146998408214208 -0.03118691438141717 0  0.02372393983283434 -0.03196929846404486 0  0.04802770460796459 -0.02768756175901937 0  0.04802639029001604 -0.03016315856321703 0  0.04576039111469021 -0.02917336379761066 0  0.02008841937521729 -0.0329759027299338 0  0.04608872481678143 -0.02703852398656581 0  0.03833972067558947 -0.02598025622988723 0  0.04063810401577456 -0.02550379653032717 0  0.03963957295107046 -0.02764228369986516 0  0.04732731321596549 -0.04341612281551373 0  0.04725375374055883 -0.0464288101102179 0  0.0442760482840289 -0.04501540832920177 0  0.0450879176585 -0.04178072971303208 0  0.03905169688018095 -0.02422393925926715 0  0.04196748793573034 -0.02746255423123043 0  0.02137365405069023 -0.02710635089488975 0  0.02320883515617494 -0.02618309202240054 0  0.0236794749884742 -0.02802991066074463 0  0.02730740170391735 -0.02592815918779382 0  0.02836596856787258 -0.02379659873649399 0  0.02960747827173317 -0.02586303663571116 0  0.03383296687981025 -0.03369606413299112 0  0.03520806746906905 -0.0316682439871037 0  0.03624506878111899 -0.03378892650230887 0  0.04675236858254128 -0.0565077619174409 0  0.04270858733031148 -0.05684736655248521 0  0.04399323297091001 -0.05346774927837664 0  0.02850650758884546 -0.0278162702289758 0  0.03619706673210452 -0.02605917621758534 0  0.03517342884959356 -0.02781515244573208 0  0.03418530093134163 -0.02567887173518417 0  0.0220282895093971 -0.02898267198747019 0  0.0268280547798818 -0.02230420925354785 0  0.02607992808057965 -0.02413500436965434 0  0.03067278090555427 -0.02401349219282467 0  0.02974656386784933 -0.02228638190635594 0  0.03293049524307122 -0.03167012070149884 0  0.03299134998340385 -0.02771056970805468 0  0.04482028334234266 -0.03531732176093622 0  0.04572451779397871 -0.03316928630385746 0  0.04746219311114022 -0.03512038263346409 0  0.04086275611966073 -0.02949332398155466 0  0.04712247129220226 -0.02554395041349308 0  0.04719138942111857 -0.05277974031356655 0  0.03852965581155848 -0.02962558549631369 0  0.03978168220649771 -0.03153248997978009 0  0.04879129711161546 -0.02568603730713774 0  0.02615462524413406 -0.02785635661837029 0  0.02991639100373973 -0.03383480922292424 0  0.03190477760089234 -0.0357466578887077 0  0.02912319379596457 -0.03629053411787273 0  0.02738966614350206 -0.02981942944037919 0  0.03483831988539528 -0.03599806028363821 0  0.04640160644572586 -0.03135242645128648 0  0.03355614930787829 -0.03828176244061025 0  0.01944757065524376 -0.03506478412481563 0  0.0479686395717156 -0.03247795110264674 0  0.02542945591489349 -0.04433041803765904 0  0.0282802914070392 -0.04394564495993947 0  0.02722224241537905 -0.04717635269015489 0  0.02652032652881334 -0.03649355033993049 0  0.02757180660131807 -0.03409474594806774 0  0.01453714258019843 -0.02719427253954976 0  0.01561572518932391 -0.02531766846428646 0  0.01670582452843959 -0.02715866832595156 0  0.02107509093296408 -0.03684750356244287 0  0.01879119759324178 -0.02350002360234154 0  0.01794006325440985 -0.02184547132957535 0  0.01973776209094124 -0.02191641331219953 0  0.0422777285178581 -0.04259783070809169 0  0.04208685694399655 -0.03138200104434935 0  0.04507219663875502 -0.02538371181408397 0  0.02568580779529213 -0.01767378913562375 0  0.0273589827947864 -0.01758921756377843 0  0.0266031269342557 -0.01908794287014531 0  0.05 -0.02898106627571796 0  0.05 -0.03374837352625826 0  0.05 -0.0390043297753143 0  0.04766594864587939 -0.04047778472746277 0  0.04781700531398361 -0.03780414051243434 0  0.05 -0.04479902152724673 0  0.02375128974598649 -0.03655429871707286 0  0.0238337865061107 -0.04153208670245789 0  0.02521137817246824 -0.03899295014561417 0  0.02684059553842916 -0.04151317813208484 0  0.02503026628131681 -0.03419291727889915 0  0.0225266518348188 -0.0389880136848607 0  0.02172796942054589 -0.04406746570171968 0  0.02507869505894476 -0.02993285641347104 0  0.0262155187860458 -0.03192957970073196 0  0.02490198929565436 -0.01918637895043494 0  0.02502109894891923 -0.02602836563538014 0  0.02495369866992312 -0.02244020999667535 0  0.02579896872069257 -0.02070341625952951 0  0.02378350924928129 -0.02429284861804635 0  0.02402206565677668 -0.02077208115165185 0  0.03168396593139566 -0.02222901691492647 0  0.03271923695568689 -0.02391748546358105 0  0.05 -0.03130658199302094 0  0.03083307879679741 -0.02770634201776494 0  0.0318286757213665 -0.02577935362027756 0  0.02081283061788961 -0.02344638679380164 0  0.05 -0.0363122546307483 0  0.05 -0.04183100868223239 0  0.05 -0.04791543499163506 0  0.01656421819828061 -0.02333849129879312 0  0.02889903724134519 -0.02062050512435091 0  0.02983804318496509 -0.01906094703690332 0  0.03066275504269151 -0.02062684798660048 0  0.01778942957591408 -0.0252914240965791 0  0.01986383412619952 -0.0252712254474313 0  0.03860459297940305 -0.05098485376112648 0  0.039748673496336 -0.04797512657722934 0  0.04209730426474671 -0.05035813293337824 0  0.02831957236559252 -0.02204590760957014 0  0.04317128086911079 -0.02931502943778922 0  0.04419658125917844 -0.02731435883300155 0  0.02188472318310977 -0.02514981794518151 0  0.0297467953729887 -0.02972429747383537 0  0.03200849029562367 -0.02964667141745612 0  0.04386328005208609 -0.03752794523501287 0  0.04314704089135446 -0.03986761714014753 0  0.04149229750134001 -0.03790172175513672 0  0.0429879635076281 -0.02554603935162467 0  0.018872100275775 -0.02713921906333787 0  0.04223347780338819 -0.04755290340831019 0  0.04468924565657173 -0.04811590510409038 0  0.0443706243070616 -0.03128743091083015 0  0.05 -0.05462351497286431 0  0.03505869624619962 -0.04055906778518592 0  0.03629552652975776 -0.03816522319567641 0  0.0231072245971919 -0.02230842703856679 0  0.02228052760719358 -0.02066128242489982 0  0.03894909301013709 -0.03802174263139117 0  0.04052249561194238 -0.04031707419242943 0  0.03784056159505212 -0.04046488862908518 0  0.02807752582863133 -0.03886260751311152 0  0.03080323528438852 -0.03854128400528514 0  0.02965058533607513 -0.04114118813364749 0  0.04591055768413353 -0.03700875652468455 0  0.03184363961099044 -0.03334171906592102 0  0.02818632858970816 -0.01906808666489641 0  0.04057298866672434 -0.05381881682733829 0  0.03945964184660211 -0.04284627430842909 0  0.05 -0.02676628939403253 0  0.02862514321202815 -0.03182708502804786 0  0.03090376634440641 -0.03165845241549543 0  0.05 -0.05823115311912687 0  0.05 -0.05118766912339436 0  0.04732429769976428 -0.04949194635957994 0  0.04342012310045638 -0.03338187786236892 0  0.04101194726187127 -0.04525487448831494 0  0.04563852600640024 -0.03908040123718239 0  0.01781395005726536 -0.02905429911722218 0  0.04497996851110445 -0.05079224257226295 0  0.03650453032786836 -0.04299535261609584 0  0.03361705669189319 -0.04313536677389294 0  0.04103918092306069 -0.03353039395088947 0  0.03357007189954724 -0.02199319121448707 0  0.01560145096177221 -0.02907636160689861 0  0.03575620570818342 -0.02466273314368865 0  0.03415911922636351 -0.02969036521342127 0  0.03355096268675753 -0.04841377924804538 0  0.0319941150123005 -0.04572267675050536 0  0.03505336911714003 -0.04563512398014175 0  0.02741254934722429 -0.0205865973344139 0  0.03033017452998576 -0.0484964566882153 0  0.02847956048214733 -0.05068838354451167 0  0.01999838424788877 -0.02903391793588183 0  0.02225773698855392 -0.0236458038744681 0  0.0371264831416416 -0.05402848069789339 0  0.03469169628596309 -0.02341552269193265 0  0.03811429566512738 -0.04548695717071323 0  0.02144144602916474 -0.04121172548521328 0  0.04238898164046115 -0.0355651824154697 0  0.03865959059961924 -0.03366170918868637 0  0.03674220192142802 -0.048260827672021 0  0.03531041512774147 -0.05114237145228665 0  0.03745102511621381 -0.03164681473392496 0  0.03754119760568309 -0.03587192786327003 0  0.03727771049923663 -0.02781321976866347 0  0.03796903998011181 -0.02268716508960507 0  0.03726573757158511 -0.02442673820992038 0  0.03228325453193475 -0.04082946254750432 0  0.02322461605086715 -0.03026030994265335 0  0.01899881302430913 -0.03098709945247983 0  0.01450434875506964 -0.03098904238631052 0  0.01680439087413456 -0.03100102132541613 0  0.01582718781375506 -0.03303418460630125 0  0.03623965229549718 -0.02972978651501853 0  0.03156942001723883 -0.05683546093013915 0  0.03366390106792348 -0.05398943991846405 0  0.03521546753672618 -0.05701197263839745 0  0.03904795488448115 -0.05702535087988621 0  0.03636289653101113 -0.02295621236457739 0  0.03198896720107568 -0.05108321544514341 0  0.03999121155751054 -0.03572885577415381 0  0.02958509298807892 -0.0460788554909624 0  0.02907281226405992 -0.01759267829960187 0  0.03024530077524162 -0.05370680602215669 0  0.02143379743372286 -0.02205795802525037 0  0.01805059681099579 -0.03303469133407297 0  0.01713719912331498 -0.03514515576549119 0  0.03095152047657553 -0.04340827016908707 0  0.0200776060672972 -0.03934623447091577 0  0.01855262293191142 -0.03719465695368804 0  </DataArray>
</Points>
<Cells>
<DataArray  type="UInt32"  Name="connectivity"  format="ascii">0 2 1  3 5 4  0 1 6  3 5 7  8 10 9  11 13 12  11 13 14  15 8 9  10 16 9  19 17 18  20 22 21  25 23 24  26 28 27  20 22 29  30 32 31  19 17 33  35 34 21  36 37 21  38 23 24  20 35 21  22 36 21  39 32 31  40 42 41  10 16 43  3 44 7  26 28 45  46 47 43  3 44 48  49 20 29  50 52 51  53 49 29  54 51 23  5 4 55  54 51 56  0 6 57  10 46 43  58 42 41  61 59 60  62 52 63  50 52 63  64 66 65  0 67 57  68 70 69  71 13 14  47 72 43  73 44 7  76 74 75  77 3 4  78 58 42  79 81 80  82 11 12  83 0 67  84 86 85  83 62 87  85 88 83  59 89 84  2 91 90  87 0 2  92 76 74  90 53 49  49 19 93  93 20 35  94 34 95  35 96 94  95 97 92  36 99 98  77 100 4  101 39 102  68 103 70  78 104 42  79 105 80  82 106 12  68 107 69  110 108 109  111 112 68  25 54 23  113 115 114  98 37 110  101 22 29  102 22 36  34 21 116  117 5 118  96 119 18  120 121 101  122 124 123  118 16 125  66 126 111  115 128 127  53 120 29  85 83 62  88 83 67  59 84 86  13 12 128  87 2 91  91 90 53  72 129 117  84 85 88  83 87 0  121 101 39  102 36 99  49 93 20  90 49 19  35 94 34  95 92 76  93 35 96  112 68 103  94 95 97  111 68 107  118 125 73  130 26 45  132 131 56  37 110 108  126 111 112  129 117 5  36 98 37  101 102 22  97 134 133  37 21 116  135 137 136  120 101 29  94 97 133  16 125 9  117 118 16  136 124 123  112 119 17  138 140 139  126 112 17  40 42 141  50 51 142  108 109 143  113 144 115  86 85 138  119 17 18  137 145 136  146 77 3  100 78 58  53 147 120  104 79 81  120 148 121  130 149 26  105 82 11  106 150 151  100 58 4  39 102 32  104 81 42  105 11 80  106 151 12  72 152 129  145 153 71  66 111 65  14 154 123  66 155 126  115 128 156  131 157 158  72 117 43  47 159 72  145 71 136  139 52 51  5 118 7  54 132 56  99 98 160  86 138 140  144 115 28  59 86 60  62 87 63  64 161 66  96 94 133  138 139 52  30 32 162  121 39 163  85 62 138  153 71 13  102 99 32  91 53 147  166 164 165  148 121 38  112 103 119  147 120 148  111 107 65  157 166 158  108 143 167  61 168 169  62 138 52  159 72 152  150 130 45  80 14 154  117 16 43  39 31 163  155 126 170  96 119 171  161 66 155  126 170 17  166 165 158  164 165 168  118 73 7  11 80 14  113 172 144  99 32 173  145 174 153  115 114 127  34 95 167  89 84 175  150 151 45  152 176 40  47 177 159  178 179 113  93 96 18  137 157 145  91 147 63  46 180 47  139 51 56  181 132 135  8 182 10  183 184 15  131 56 185  146 3 48  144 28 27  90 19 186  170 187 1  184 8 30  190 188 189  180 177 25  86 140 60  182 46 191  30 182 31  152 129 41  159 152 176  194 192 193  132 137 131  172 144 195  87 91 63  25 181 54  157 174 166  147 148 50  129 5 55  152 40 41  176 40 122  157 145 174  180 47 177  132 135 137  144 195 27  155 170 187  184 15 8  182 10 46  166 178 164  147 50 63  172 195 194  46 191 180  8 30 182  179 113 172  183 196 184  177 25 181  135 136 124  164 197 168  164 179 197  174 166 178  187 1 6  181 54 132  182 191 31  137 131 157  178 113 114  2 1 186  122 154 123  178 164 179  151 12 128  181 135 198  174 153 114  99 160 173  19 33 186  177 159 198  159 176 198  140 139 185  139 56 185  34 167 116  170 1 33  172 194 193  61 60 199  174 178 114  177 181 198  75 200 143  161 155 189  197 169 201  155 187 189  131 158 185  81 80 154  134 133 202  161 188 189  81 42 141  180 25 24  153 13 127  176 198 124  197 168 169  32 173 162  121 38 163  76 75 143  204 203 57  179 172 193  28 45 156  190 204 203  170 17 33  135 198 124  151 45 156  179 197 193  51 23 142  38 23 142  76 143 167  140 185 205  133 202 171  88 67 206  13 128 127  196 184 162  196 173 162  71 136 123  148 38 142  176 122 124  109 200 143  191 31 163  187 189 203  115 28 156  103 70 202  191 163 24  19 93 18  158 185 205  6 203 57  71 14 123  190 189 203  60 205 199  95 76 167  191 180 24  58 4 55  38 163 24  2 90 186  67 207 206  108 167 116  103 202 171  165 205 199  204 207 57  84 88 175  61 168 199  187 6 203  129 41 55  1 33 186  37 108 116  96 133 171  40 122 141  58 41 55  140 60 205  67 207 57  197 193 201  103 119 171  165 158 205  165 168 199  151 128 156  153 114 127  184 30 162  192 193 201  148 50 142  88 206 175  122 154 141  81 154 141  </DataArray>
<DataArray  type="UInt32"  Name="offsets"  format="ascii">3 6 9 12 15 18 21 24 27 30 33 36 39 42 45 48 51 54 57 60 63 66 69 72 75 78 81 84 87 90 93 96 99 102 105 108 111 114 117 120 123 126 129 132 135 138 141 144 147 150 153 156 159 162 165 168 171 174 177 180 183 186 189 192 195 198 201 204 207 210 213 216 219 222 225 228 231 234 237 240 243 246 249 252 255 258 261 264 267 270 273 276 279 282 285 288 291 294 297 300 303 306 309 312 315 318 321 324 327 330 333 336 339 342 345 348 351 354 357 360 363 366 369 372 375 378 381 384 387 390 393 396 399 402 405 408 411 414 417 420 423 426 429 432 435 438 441 444 447 450 453 456 459 462 465 468 471 474 477 480 483 486 489 492 495 498 501 504 507 510 513 516 519 522 525 528 531 534 537 540 543 546 549 552 555 558 561 564 567 570 573 576 579 582 585 588 591 594 597 600 603 606 609 612 615 618 621 624 627 630 633 636 639 642 645 648 651 654 657 660 663 666 669 672 675 678 681 684 687 690 693 696 699 702 705 708 711 714 717 720 723 726 729 732 735 738 741 744 747 750 753 756 759 762 765 768 771 774 777 780 783 786 789 792 795 798 801 804 807 810 813 816 819 822 825 828 831 834 837 840 843 846 849 852 855 858 861 864 867 870 873 876 879 882 885 888 891 894 897 900 903 906 909 912 915 918 921 924 927 930 933 936 939 942 945 948 951 954 957 960 963 966 969 972 975 978 981 984 987 990 993 996 999 1002 1005 1008 1011 1014 1017 1020 1023 1026 1029 1032 1035 1038 1041 1044 1047 1050 1053 1056 1059 1062 1065 1068 1071 1074 1077 1080 </DataArray>
<DataArray  type="UInt8"  Name="types"  format="ascii">5 5 5 5 5 5 5 5 5 5 5 5 5 5 5 5 5 5 5 5 5 5 5 5 5 5 5 5 5 5 5 5 5 5 5 5 5 5 5 5 5 5 5 5 5 5 5 5 5 5 5 5 5 5 5 5 5 5 5 5 5 5 5 5 5 5 5 5 5 5 5 5 5 5 5 5 5 5 5 5 5 5 5 5 5 5 5 5 5 5 5 5 5 5 5 5 5 5 5 5 5 5 5 5 5 5 5 5 5 5 5 5 5 5 5 5 5 5 5 5 5 5 5 5 5 5 5 5 5 5 5 5 5 5 5 5 5 5 5 5 5 5 5 5 5 5 5 5 5 5 5 5 5 5 5 5 5 5 5 5 5 5 5 5 5 5 5 5 5 5 5 5 5 5 5 5 5 5 5 5 5 5 5 5 5 5 5 5 5 5 5 5 5 5 5 5 5 5 5 5 5 5 5 5 5 5 5 5 5 5 5 5 5 5 5 5 5 5 5 5 5 5 5 5 5 5 5 5 5 5 5 5 5 5 5 5 5 5 5 5 5 5 5 5 5 5 5 5 5 5 5 5 5 5 5 5 5 5 5 5 5 5 5 5 5 5 5 5 5 5 5 5 5 5 5 5 5 5 5 5 5 5 5 5 5 5 5 5 5 5 5 5 5 5 5 5 5 5 5 5 5 5 5 5 5 5 5 5 5 5 5 5 5 5 5 5 5 5 5 5 5 5 5 5 5 5 5 5 5 5 5 5 5 5 5 5 5 5 5 5 5 5 5 5 5 5 5 5 5 5 5 5 5 5 5 5 5 5 5 5 </DataArray>
</Cells>
<PointData  Scalars=" mean stress"> 
<DataArray  type="Float64"  Name=" mean stress"  format="ascii">1.4023327288076043e+08  1.7435603651272991e+08  1.6214166495616087e+08  2.3311969311279362e+08  1.8999653192979959e+08  2.0556324878717777e+08  1.5336817233337513e+08  2.4730230586012328e+08  2.6883848800490624e+08  2.7889840851472205e+08  2.3504459281921032e+08  8.5084027522477537e+07  7.7742727877690777e+07  8.0824573242881015e+07  9.0124923676232502e+07  3.1543348962966013e+08  2.3838767694413519e+08  2.4685633055466008e+08  2.6606999154999402e+08  2.2492536952757227e+08  2.7303848824334627e+08  3.2274511945646441e+08  2.7401848747012413e+08  1.4400694753075314e+08  1.6782793067634925e+08  1.4291770226903912e+08  6.8890450568886131e+07  6.8755890659924582e+07  7.0128210143480211e+07  2.3026564041882569e+08  2.6522979764207554e+08  2.3174420302833790e+08  2.7644028406143916e+08  2.0644481587763593e+08  3.7223451653359753e+08  3.1571290009421772e+08  3.1803409681086701e+08  3.7274399489973611e+08  1.6920725053941780e+08  2.3325511358940563e+08  1.2908236156328022e+08  1.4857087474347475e+08  1.3094354496993361e+08  2.0071550075063914e+08  2.8026953155058187e+08  7.0586392383068666e+07  1.9813525354055843e+08  1.6966084759274429e+08  2.7717810811089969e+08  2.3017664882403007e+08  1.4292497617993945e+08  1.2451162067939000e+08  1.1978546341030574e+08  1.9491089482101908e+08  1.2289621232622950e+08  1.7366482659670246e+08  1.0734283585839777e+08  1.3016656534247582e+08  1.5673034930336383e+08  8.2328041880369008e+07  8.3608705717886895e+07  7.6400288367898121e+07  1.1904396241376641e+08  1.3959926476629424e+08  2.4377278310402262e+08  2.8666802499701172e+08  2.4398824880160341e+08  1.1663999230086966e+08  3.3238596107689065e+08  3.8457572629277825e+08  3.8190754582586896e+08  8.7349830310899720e+07  1.7198052483712256e+08  2.8473664095395851e+08  5.4403523369213939e+08  5.4929605098887646e+08  4.8552088862432402e+08  2.0883174413867655e+08  1.4402592763612095e+08  1.0282360487587920e+08  9.5584335506307244e+07  1.1025656852581091e+08  8.1228901617838636e+07  1.1885052341797560e+08  9.1223484263604686e+07  1.0293704371281105e+08  9.1209103481787249e+07  1.3926156741847679e+08  1.0329312651320517e+08  8.2706857963112488e+07  1.9339025749191070e+08  1.6396314082921833e+08  4.8110315832247013e+08  2.6800219927251613e+08  3.6483793435570037e+08  4.2452688420205170e+08  3.1420719048055857e+08  4.2130805173327845e+08  3.7063242343929279e+08  3.2322720944572061e+08  1.7365556896040723e+08  2.3246629421677664e+08  2.7361505452409923e+08  3.3396674914705741e+08  1.1979240925095908e+08  9.0181301940817669e+07  7.5508262220200539e+07  3.3613508947378075e+08  4.2790915839319354e+08  4.8378111088189685e+08  4.2768251107332790e+08  2.8788032216741395e+08  2.8806346602044362e+08  7.1882992282520860e+07  7.5409281612545788e+07  7.2328865565572888e+07  3.8215927691412884e+08  2.0317586599372932e+08  2.4113760480303457e+08  2.8912295195147908e+08  1.9668789657872957e+08  1.9738653669617292e+08  1.1227745855696884e+08  9.8086976733800262e+07  1.0935860038845919e+08  2.7977731934765959e+08  2.4390962959673962e+08  7.6115519548547477e+07  7.5163755625663653e+07  1.7405054391617751e+08  6.9607933551275775e+07  9.5150836873149991e+07  1.0778779225557169e+08  3.6877111945563722e+08  4.2445657749356872e+08  1.0838697277288382e+08  9.6309973623828009e+07  9.5757617680816397e+07  1.0367375341895984e+08  1.0594267349323322e+08  9.2716582064675495e+07  1.1589269115153545e+08  1.4790927680744946e+08  4.8489605122028595e+08  6.9966563981821537e+07  8.6614865249501303e+07  2.5346538486557850e+08  1.6601200277819085e+08  1.6925121925292340e+08  6.8386344158437595e+07  7.1779790500293374e+07  7.3286840497519255e+07  1.4719316316013291e+08  8.0331252575422287e+07  1.0204043942251413e+08  2.0835697644082615e+08  7.2010277128640994e+07  8.6255992838633135e+07  8.5809562326244593e+07  1.4619924010194153e+08  3.7961666341893965e+08  2.0793644218652061e+08  3.0634007052590710e+08  1.9683832889303774e+08  7.4880971014042035e+07  7.8978094687908858e+07  7.9278477070449144e+07  4.2822797953854388e+08  7.4513845196756527e+07  7.2182786551204354e+07  2.0867474753236949e+08  3.3392543909669632e+08  6.9862542891303271e+07  3.3630267220183116e+08  7.9815916575166389e+07  9.2721729715602592e+07  1.2631461307370491e+08  1.4457119960984784e+08  7.4847215863692105e+07  7.1800509837512925e+07  1.6809621777693516e+08  1.2404926224959323e+08  2.3122286899519810e+08  3.5961095529254979e+08  3.0726758836697793e+08  9.4145886566896871e+07  1.9258400494648895e+08  1.7711554771195957e+08  1.7714946526355076e+08  1.7707676502778456e+08  1.5111802097468394e+08  1.9685483649248871e+08  6.8735215330027446e+07  6.9876454221584886e+07  6.8649824088689744e+07  6.8652331190840706e+07  3.5262192749146485e+08  7.1783480132619828e+07  1.2492753983619659e+08  7.9022195878833026e+07  5.5022604765446842e+08  7.0054556271519765e+07  3.7852375367967618e+08  1.5123388763501772e+08  1.3041525940027377e+08  8.5009456777524963e+07  1.0103437522786774e+08  1.1361003103927942e+08  </DataArray> 
</PointData> 
</Piece>
</UnstructuredGrid>
</VTKFile>