<?xml version="1.0"?>
<VTKFile type="UnstructuredGrid"  version="0.1"  >
<UnstructuredGrid>
<Piece  NumberOfPoints="208" NumberOfCells="360">
<Points>
<DataArray  type="Float64"  NumberOfComponents="3"  format="ascii">0.02616265590922087 -0.004155861176172983 0  0.0263871887614461 -0.003320159507568567 0  0.02707355098760756 -0.004039129132664306 0  0.02215653928465618 -0.001389846535517776 0  0.02238353646271336 -0.0006791833784813919 0  0.02290096929370019 -0.001326104916001769 0  0.0159888096857431 -0.006982121153814476 0  0.01525985654179472 -0.006066373516622356 0  0.01607135667310378 -0.00594053827916298 0  0.02722598968377213 -0.003144508755234601 0  0.02051696706117757 -0.004358019789650745 0  0.02106488735121671 -0.003541837155648861 0  0.02146606793988402 -0.004336702483646357 0  0.02035096010419914 -0.003452573535024525 0  0.01841792115112981 -0.002884539675543453 0  0.01907011166719376 -0.003669188258769364 0  0.01809596819940022 -0.003645152376559622 0  0.0275221118418231 -0.001167461755577116 0  0.02670574678360638 -0.001217571032481178 0  0.02691740653035796 -0.0005561576639814964 0  0.02308450412770484 -0.0005627261242821119 0  0.02265604264755438 -0.003461324624483612 0  0.02327625421742771 -0.00413014544930973 0  0.02234715501659763 -0.004306887032175119 0  0.02224136761360811 -0.002739077610930681 0  0.02186944131541332 -0.003587888794239977 0  0.02147411904075984 -0.00276151475931135 0  0.01638453332340654 -0.001090619935386207 0  0.01559293562833727 -0.001121412217023159 0  0.01608117918119945 -0.0005378102255400447 0  0.01857803062208976 -0.004437946258942109 0  0.01921699379540195 -0.002844382932884283 0  0.02327213318450134 -0.003253013387837948 0  0.02384994001800921 -0.006554718101372987 0  0.02310489720262665 -0.007551545158723201 0  0.0228027653495915 -0.006690764054988849 0  0.02529157657907781 -0.001237711394032288 0  0.02452698597056988 -0.001167444384096182 0  0.02499785305334181 -0.0005883320458915306 0  0.02179329244419683 -0.0009381686133280234 0  0.01939861630817106 -0.0009446251561061533 0  0.01868201578500236 -0.001117560353830677 0  0.01867088607594939 -0.000548117344167362 0  0.02568569746959448 -0.003669048738861334 0  0.02450886537087912 -0.0004678439573160068 0  0.02126188556651635 -0.0006190474636185578 0  0.02136365275515832 -0.001356530895526141 0  0.02563564418424188 -0.0005990256679767395 0  0.02599278990341133 -0.001219993223769186 0  0.02084612378723795 -0.0009866164939804217 0  0.01908516915006898 -0.001552706109011336 0  0.01986393787789745 -0.00149968436125085 0  0.02209281026718864 -0.007411873927514863 0  0.02197209933337096 -0.006626920090558347 0  0.01795513883515501 -0.0009720798174946629 0  0.01802968625333052 -0.0004034306840151117 0  0.01951725205961274 -0.002137347553869191 0  0.02372631036318733 -0.001313496137195634 0  0.02413517906078321 -0.00194780909547506 0  0.02335307302450239 -0.001977201339167699 0  0.02382415930511941 -0.005046603170274701 0  0.0242326371065139 -0.004287451603729349 0  0.02182463430401193 -0.0004286401269838133 0  0.02570776514539048 -0.00307452115935701 0  0.0195943550202635 -0.008830845090495434 0  0.02047211554119961 -0.008282489141484953 0  0.02080730523967248 -0.009105443090336673 0  0.02383108526170151 -0.003526092714561425 0  0.02005954078589081 -0.00992143939190572 0  0.02136345442984482 -0.00810298615821399 0  0.02060673848885282 -0.007594912821668437 0  0.02115796053512282 -0.006972236076385203 0  0.01598442242074258 -0.001639741291370199 0  0.02410476090928127 -0.0007101532411409248 0  0.02715873914427055 -0.001831399934558428 0  0.01930379746835445 -0.0003757078805633821 0  0.02752345773618338 -0.003651409935191238 0  0.01540248163054762 -0.0005096437804725934 0  0.01479929422481455 -0.0009846536398521594 0  0.02629720549520631 -0.0005987912647014357 0  0.01717197421947155 -0.002225001806776768 0  0.01677045322300302 -0.001633860399643368 0  0.01752626099419276 -0.001579968606848017 0  0.01477548213275549 -0.002257429886636055 0  0.01519174981673642 -0.00163533932131784 0  0.0155805393194607 -0.002260608296032272 0  0.0210613402789548 -0.00207389902496001 0  0.02062034054772532 -0.001502837097881272 0  0.01953857485610753 -0.004488114668868289 0  0.02004238323505373 -0.00521281974665487 0  0.02572200119792728 -0.004973275018777021 0  0.02518333917801297 -0.004195446126948735 0  0.0236185393076487 -0.0005676867870352265 0  0.01771379521744701 -0.004378596946232861 0  0.02331514154347717 -0.0009971478892060806 0  0.0151678399597709 -0.002953892168831955 0  0.01712072887403515 -0.001059228721559079 0  0.02022059639079345 -0.0009939184066525206 0  0.01873205383288273 -0.002169432472137398 0  0.02259542411008017 -0.002011625677203581 0  0.0228742052169111 -0.005092912393219483 0  0.02491164884862572 -0.001915683024586064 0  0.0213155883353054 -0.01009753243285238 0  0.01990047774101942 -0.0004765168243988024 0  0.01907678055985046 -0.005241649135385336 0  0.01744645698845955 -0.0004969562584135195 0  0.01878194944935772 -0.007911126929207687 0  0.0191711725250193 -0.00694762463722471 0  0.01980125413617008 -0.007721582013807231 0  0.01751224205476457 -0.006135499295123956 0  0.01656549964657957 -0.006466215175609205 0  0.01675467152628853 -0.005784353545630484 0  0.01638312161804974 -0.002245899867945884 0  0.01438669514816422 -0.001607721123629981 0  0.01830026855566734 -0.001570273342373883 0  0.02796308126400564 -0.004060998115167899 0  0.02758237526854788 -0.004895591648631056 0  0.01813130125168264 -0.005228704682728784 0  0.01859816340755058 -0.00610782855846103 0  0.01484638768123169 -0.0003976472611271972 0  0.01724933531965804 -0.005188872701371798 0  0.02062780176992896 -0.01096053329951933 0  0.02029237477467956 -0.002104434355697835 0  0.0179558538190466 -0.002197936467119958 0  0.02193960361139262 -0.005135378285383983 0  0.02182943575045775 -0.002049734433623558 0  0.02478488858449871 -0.005007359129666197 0  0.01707680250245516 -0.00709119838577936 0  0.01814966263720199 -0.007022004851099543 0  0.01599706983874305 -0.002944263353239364 0  0.01680206516236889 -0.002923815142261296 0  0.02665845772218695 -0.004937209293295171 0  0.02100012718271992 -0.005175329422482867 0  0.02792346364916234 -0.001810148217935341 0  0.02566417795504112 -0.001888165890045028 0  0.02640552487829333 -0.001861015386658525 0  0.01765015925851741 -0.007957707046444169 0  0.021948373577612 -0.009127428787036089 0  0.02252086133828016 -0.008158435940468181 0  0.02504266331202563 -0.00332143379848724 0  0.0197151212119206 -0.003343544543296467 0  0.01992760613728219 -0.00392996154880295 0  0.01958733583980452 -0.00606054743696792 0  0.01759565931260779 -0.002890391561392681 0  0.01656678479063015 -0.007971268695122109 0  0.01558657126155154 -0.00366859271429399 0  0.02055013637690941 -0.006018428372186593 0  0.02150487661040861 -0.005972658548746596 0  0.02245424081525369 -0.005933586142759802 0  0.01995875364614383 -0.002782812891872176 0  0.02071176864586635 -0.00275432357202017 0  0.02339780587715598 -0.005855559373471105 0  0.02298163560747704 -0.002649727864416716 0  0.02435517885900143 -0.005795416524801179 0  0.02376051319271485 -0.002722748150240699 0  0.0253043999914823 -0.005790345846186963 0  0.02454267679718104 -0.002587349436033594 0  0.02530522428314991 -0.002557363564543592 0  0.02623249736504675 -0.005763684204637125 0  0.02606385915784802 -0.002524229771654667 0  0.02681836545575096 -0.0024949068561489 0  0.02757295340776594 -0.002463469531872882 0  0.01642032302242467 -0.003650430174934056 0  0.02716804432899495 -0.005725438951574249 0  0.01825318717435859 -0.008896288180965085 0  0.01886903954989318 -0.009871909546403268 0  0.02455245106843608 -0.003710480427485251 0  0.02014517260632957 -0.006866932451999284 0  0.01724863111177085 -0.0036438967880714 0  0.02797507644865633 -0.003212626231070451 0  0.0283283722821281 -0.002433101707219824 0  0.01686397575637652 -0.004374994527047829 0  0.02531645569620255 0 0  0.02468354430379749 0 0  0.02721518987341774 0 0  0.02658227848101268 0 0  0.02341772151898736 0 0  0.0227848101265823 0 0  0.02594936708860762 0 0  0.02215189873417724 0 0  0.02151898734177217 0 0  0.02088607594936711 0 0  0.02057237329777709 -0.0005287446180530994 0  0.02025316455696205 0 0  0.01898734177215192 0 0  0.01835443037974686 0 0  0.01708860759493673 0 0  0.01677425794674972 -0.0005322724541947724 0  0.01645569620253167 0 0  0.01582278481012661 0 0  0.01518987341772155 0 0  0.02405063291139242 0 0  0.0171349134059081 -0.00891673598119215 0  0.01601511050997904 -0.004401946692246347 0  0.01770924232099546 -0.009900135257438845 0  0.01952754542942722 -0.01090267860804837 0  0.0183509541624339 -0.0109109447120767 0  0.02431247656821783 -0.003186683918107357 0  0.01722922546149119 -0.01084005402089262 0  0.0164410230439258 -0.005145072871089222 0  0.01557359190366974 -0.005166361152564296 0  0.0177215189873418 0 0  0.01962025316455699 0 0  0.01898821785664117 -0.01198943696152524 0  0.0160400843814282 -0.008952210907148116 0  0.01662052880250342 -0.00992849704112745 0  0.02483610391734082 -0.006559501120486179 0  0.01787109422081598 -0.01181340881046841 0  </DataArray>
</Points>
<Cells>
<DataArray  type="UInt32"  Name="connectivity"  format="ascii">0 2 1  3 5 4  6 8 7  9 2 1  12 10 11  13 10 11  14 16 15  19 17 18  20 5 4  21 23 22  26 24 25  29 27 28  16 30 15  14 31 15  21 22 32  35 33 34  38 36 37  3 4 39  42 40 41  0 1 43  38 37 44  46 45 39  48 36 47  46 45 49  51 50 40  35 53 52  42 54 55  42 54 41  56 51 50  58 57 37  59 57 5  60 61 22  24 21 25  62 4 39  63 1 43  35 34 52  64 66 65  61 22 67  64 66 68  71 69 70  71 69 52  72 27 28  38 36 47  57 37 73  74 17 18  42 40 75  9 2 76  77 78 28  48 18 79  80 82 81  83 85 84  22 67 32  21 23 25  86 46 87  89 88 10  90 0 91  57 73 92  16 30 93  19 18 79  50 40 41  85 72 84  57 5 94  95 83 85  48 47 79  82 54 96  26 25 11  57 92 94  51 40 97  77 29 28  98 56 50  99 59 5  100 60 22  58 101 37  66 102 68  40 103 97  104 88 30  54 105 96  12 25 11  106 108 107  20 5 94  109 111 110  37 73 44  112 80 81  84 113 78  100 23 22  98 114 50  99 3 5  116 2 115  83 84 113  117 104 30  82 114 54  109 118 117  101 36 37  112 85 72  77 78 119  109 117 120  88 30 15  102 68 121  122 86 87  123 98 114  80 123 82  124 100 23  104 89 88  125 99 3  126 90 91  127 128 109  129 130 112  56 122 51  131 116 2  86 125 46  132 124 12  59 58 57  60 126 61  74 133 17  90 131 0  134 135 48  95 129 85  101 134 36  89 132 10  136 128 106  112 72 81  118 117 104  123 82 114  124 12 23  122 51 87  125 46 3  128 109 118  130 112 80  126 61 91  131 0 2  137 138 69  117 30 93  129 112 85  134 48 36  132 12 10  127 109 110  139 91 43  0 91 43  135 74 18  84 78 28  15 140 141  104 142 89  80 143 123  6 144 127  95 145 129  89 146 132  132 147 124  123 14 98  124 148 100  98 31 56  56 149 122  127 136 128  122 150 86  86 26 125  125 24 99  100 151 60  99 152 59  60 153 126  59 154 58  126 155 90  58 156 101  101 157 134  90 158 131  134 159 135  135 160 74  74 161 133  129 162 130  131 163 116  136 164 106  164 165 64  64 106 108  88 15 141  82 81 96  128 106 107  164 64 106  64 108 65  139 91 166  108 107 167  12 23 25  135 48 18  16 93 168  118 104 142  46 87 49  115 169 76  130 80 143  88 10 141  114 54 41  137 69 66  142 89 146  146 132 147  147 124 148  143 123 14  144 127 136  148 100 151  14 98 31  31 56 149  149 122 150  150 86 26  151 60 153  26 125 24  24 99 152  153 126 155  152 59 154  154 58 156  155 90 158  156 101 157  157 134 159  159 135 160  158 131 163  161 133 170  160 74 161  145 129 162  109 120 111  62 45 39  171 93 168  165 64 68  130 143 168  173 172 38  175 174 19  177 176 20  178 175 79  179 177 4  172 178 47  180 179 62  181 180 45  183 181 182  185 184 42  188 186 187  189 188 29  190 189 77  137 66 102  128 118 107  191 73 92  136 192 164  162 193 171  164 194 165  165 196 195  154 67 197  72 84 28  194 196 198  143 16 168  193 199 200  162 130 168  117 93 120  118 142 107  191 73 44  146 147 71  148 151 35  144 136 192  24 152 21  156 157 139  160 161 9  149 150 13  143 14 16  154 67 32  145 162 193  186 201 105  72 81 27  202 183 103  192 164 194  196 195 203  194 165 196  172 38 47  193 171 199  175 19 79  177 20 4  178 47 79  179 62 4  180 62 45  162 171 168  181 182 45  144 192 204  199 200 8  188 187 29  189 77 29  31 15 140  71 53 52  157 159 63  150 26 11  186 187 105  147 148 53  142 146 167  159 160 1  161 170 169  194 198 205  139 63 43  157 139 63  13 10 141  147 71 53  150 13 11  148 35 53  146 71 167  161 9 169  160 9 1  142 107 167  165 195 68  202 103 75  176 191 92  159 63 1  61 67 166  153 206 33  191 173 44  195 68 121  153 155 206  138 34 52  183 182 103  171 93 120  6 8 110  31 149 140  190 77 119  185 42 55  184 42 75  192 194 205  154 156 197  171 199 120  201 105 55  152 154 32  187 105 96  51 87 97  192 204 205  151 35 33  2 115 76  61 91 166  114 50 41  196 198 207  40 103 75  46 3 39  138 69 52  187 96 27  199 120 111  6 127 110  54 105 55  200 8 7  187 29 27  67 197 166  199 8 111  149 13 140  201 185 55  9 169 76  81 96 27  176 20 92  69 66 65  184 202 75  156 139 197  151 153 33  182 103 97  173 38 44  182 45 49  182 97 49  152 21 32  196 203 207  69 70 65  20 92 94  108 167 70  87 97 49  71 167 70  13 140 141  8 111 110  108 70 65  139 197 166  </DataArray>
<DataArray  type="UInt32"  Name="offsets"  format="ascii">3 6 9 12 15 18 21 24 27 30 33 36 39 42 45 48 51 54 57 60 63 66 69 72 75 78 81 84 87 90 93 96 99 102 105 108 111 114 117 120 123 126 129 132 135 138 141 144 147 150 153 156 159 162 165 168 171 174 177 180 183 186 189 192 195 198 201 204 207 210 213 216 219 222 225 228 231 234 237 240 243 246 249 252 255 258 261 264 267 270 273 276 279 282 285 288 291 294 297 300 303 306 309 312 315 318 321 324 327 330 333 336 339 342 345 348 351 354 357 360 363 366 369 372 375 378 381 384 387 390 393 396 399 402 405 408 411 414 417 420 423 426 429 432 435 438 441 444 447 450 453 456 459 462 465 468 471 474 477 480 483 486 489 492 495 498 501 504 507 510 513 516 519 522 525 528 531 534 537 540 543 546 549 552 555 558 561 564 567 570 573 576 579 582 585 588 591 594 597 600 603 606 609 612 615 618 621 624 627 630 633 636 639 642 645 648 651 654 657 660 663 666 669 672 675 678 681 684 687 690 693 696 699 702 705 708 711 714 717 720 723 726 729 732 735 738 741 744 747 750 753 756 759 762 765 768 771 774 777 780 783 786 789 792 795 798 801 804 807 810 813 816 819 822 825 828 831 834 837 840 843 846 849 852 855 858 861 864 867 870 873 876 879 882 885 888 891 894 897 900 903 906 909 912 915 918 921 924 927 930 933 936 939 942 945 948 951 954 957 960 963 966 969 972 975 978 981 984 987 990 993 996 999 1002 1005 1008 1011 1014 1017 1020 1023 1026 1029 1032 1035 1038 1041 1044 1047 1050 1053 1056 1059 1062 1065 1068 1071 1074 1077 1080 </DataArray>
<DataArray  type="UInt8"  Name="types"  format="ascii">5 5 5 5 5 5 5 5 5 5 5 5 5 5 5 5 5 5 5 5 5 5 5 5 5 5 5 5 5 5 5 5 5 5 5 5 5 5 5 5 5 5 5 5 5 5 5 5 5 5 5 5 5 5 5 5 5 5 5 5 5 5 5 5 5 5 5 5 5 5 5 5 5 5 5 5 5 5 5 5 5 5 5 5 5 5 5 5 5 5 5 5 5 5 5 5 5 5 5 5 5 5 5 5 5 5 5 5 5 5 5 5 5 5 5 5 5 5 5 5 5 5 5 5 5 5 5 5 5 5 5 5 5 5 5 5 5 5 5 5 5 5 5 5 5 5 5 5 5 5 5 5 5 5 5 5 5 5 5 5 5 5 5 5 5 5 5 5 5 5 5 5 5 5 5 5 5 5 5 5 5 5 5 5 5 5 5 5 5 5 5 5 5 5 5 5 5 5 5 5 5 5 5 5 5 5 5 5 5 5 5 5 5 5 5 5 5 5 5 5 5 5 5 5 5 5 5 5 5 5 5 5 5 5 5 5 5 5 5 5 5 5 5 5 5 5 5 5 5 5 5 5 5 5 5 5 5 5 5 5 5 5 5 5 5 5 5 5 5 5 5 5 5 5 5 5 5 5 5 5 5 5 5 5 5 5 5 5 5 5 5 5 5 5 5 5 5 5 5 5 5 5 5 5 5 5 5 5 5 5 5 5 5 5 5 5 5 5 5 5 5 5 5 5 5 5 5 5 5 5 5 5 5 5 5 5 5 5 5 5 5 5 5 5 5 5 5 5 5 5 5 5 5 5 5 5 5 5 5 5 </DataArray>
</Cells>
<PointData  Scalars=" mean stress"> 
<DataArray  type="Float64"  Name=" mean stress"  format="ascii">1.6438863245643094e+09  1.6487790273411012e+09  1.6445218357664385e+09  1.6589962797634823e+09  1.6631570135625997e+09  1.6594580036309986e+09  1.6287579081566379e+09  1.6338358651745894e+09  1.6344518458358343e+09  1.6497245538507304e+09  1.6430912869767089e+09  1.6475293511006637e+09  1.6430441926624944e+09  1.6478414359729719e+09  1.6509742397317719e+09  1.6467499042537904e+09  1.6469867979291475e+09  1.6604574075776131e+09  1.6600059414368765e+09  1.6638459836414950e+09  1.6637857111568220e+09  1.6481003838157451e+09  1.6441572622232718e+09  1.6431249606574581e+09  1.6515936868014386e+09  1.6473575061761868e+09  1.6515044276717525e+09  1.6607624987056208e+09  1.6606440427144494e+09  1.6637631425943689e+09  1.6427522774393008e+09  1.6514015393430078e+09  1.6489363707320774e+09  1.6307263975679319e+09  1.6265018521660531e+09  1.6302974478709717e+09  1.6597444514804420e+09  1.6600835556916296e+09  1.6637389564302616e+09  1.6613722681855948e+09  1.6614076030724514e+09  1.6604717169825251e+09  1.6639799654002941e+09  1.6466622133977497e+09  1.6643142060004845e+09  1.6636712056006870e+09  1.6591483250139482e+09  1.6635613964739149e+09  1.6599455071100998e+09  1.6612874618916354e+09  1.6581720560865383e+09  1.6584616692064829e+09  1.6267522197002604e+09  1.6313106372472193e+09  1.6613024699121406e+09  1.6647526911087973e+09  1.6549701048403440e+09  1.6593453685582483e+09  1.6562918725203402e+09  1.6559112340636804e+09  1.6396640298066678e+09  1.6432996017181792e+09  1.6650043434721248e+09  1.6504237720905020e+09  1.6189881734205968e+09  1.6218828103161595e+09  1.6172937210869479e+09  1.6475391414370923e+09  1.6131970080162582e+09  1.6226290723809564e+09  1.6259206879277029e+09  1.6291575130162747e+09  1.6576623829168694e+09  1.6630814530064054e+09  1.6568166015767975e+09  1.6647791571654010e+09  1.6473410417484713e+09  1.6640799479293804e+09  1.6612555790442612e+09  1.6635322201225905e+09  1.6545145948972402e+09  1.6577762378408580e+09  1.6580906529346733e+09  1.6543560416852701e+09  1.6577863280038474e+09  1.6543211081585100e+09  1.6554824463643427e+09  1.6583949032971785e+09  1.6421683869876497e+09  1.6384435531363382e+09  1.6397857872803452e+09  1.6438761465437310e+09  1.6636906376682546e+09  1.6428643945149574e+09  1.6618492439096584e+09  1.6506506330196409e+09  1.6608497964526849e+09  1.6611739735143476e+09  1.6548588166165931e+09  1.6557878471125517e+09  1.6392826391417308e+09  1.6564730339088440e+09  1.6122012904594810e+09  1.6642211861969452e+09  1.6381374092429745e+09  1.6641589116883359e+09  1.6238543853034599e+09  1.6291024266952715e+09  1.6249021642004085e+09  1.6333938800777946e+09  1.6317183513085887e+09  1.6357299294940012e+09  1.6543962293508787e+09  1.6580264633883843e+09  1.6581360598352866e+09  1.6442057212238388e+09  1.6402657514124019e+09  1.6382584905196486e+09  1.6336184095638344e+09  1.6648260568741271e+09  1.6387624002727594e+09  1.6071579512875836e+09  1.6551523780526035e+09  1.6547660585758901e+09  1.6388177147977471e+09  1.6556324749845006e+09  1.6395814333677630e+09  1.6280170223453004e+09  1.6287258350522676e+09  1.6507092117013733e+09  1.6507566456057377e+09  1.6399881434346809e+09  1.6386944699370713e+09  1.6568184533183925e+09  1.6564668531107411e+09  1.6566515006084058e+09  1.6235502198337209e+09  1.6174855778491368e+09  1.6219515201151671e+09  1.6488182228687747e+09  1.6488245217516112e+09  1.6454449791103327e+09  1.6337694797974277e+09  1.6508203317487178e+09  1.6235855211727333e+09  1.6467583184750731e+09  1.6339605563285394e+09  1.6343993246628830e+09  1.6347180035550365e+09  1.6517602365754855e+09  1.6516429981976197e+09  1.6351012361413167e+09  1.6523967680681272e+09  1.6354321976011283e+09  1.6520899464092324e+09  1.6353978716469154e+09  1.6527035118133969e+09  1.6527277826935608e+09  1.6355239556983840e+09  1.6529926562692921e+09  1.6529439965030463e+09  1.6531511410169694e+09  1.6468138922230964e+09  1.6356472472584288e+09  1.6185398695090709e+09  1.6133060952784693e+09  1.6464431878011289e+09  1.6296426841659687e+09  1.6469548049527023e+09  1.6493723151719058e+09  1.6533323174887512e+09  1.6428016964533589e+09  1.6657246198336134e+09  1.6660693828254189e+09  1.6658652686910877e+09  1.6658888326664047e+09  1.6660022499457841e+09  1.6656577982222531e+09  1.6657277444082117e+09  1.6658554983334935e+09  1.6657786714763002e+09  1.6656516981434932e+09  1.6641438373962834e+09  1.6657862446893795e+09  1.6660017188921533e+09  1.6659370720489409e+09  1.6658575192402689e+09  1.6638446668852513e+09  1.6658109650302544e+09  1.6658622884850104e+09  1.6660876260349910e+09  1.6656273443844614e+09  1.6184972933743069e+09  1.6427780842754626e+09  1.6132353896796265e+09  1.6079324949112992e+09  1.6077864004989951e+09  1.6495954001114032e+09  1.6081503681921227e+09  1.6389435877681501e+09  1.6385335789194250e+09  1.6660578693047032e+09  1.6661257521714122e+09  1.6019027515562723e+09  1.6182229782729063e+09  1.6132560506475549e+09  1.6310810865597913e+09  1.6029299244712853e+09  </DataArray> 
</PointData> 
</Piece>
</UnstructuredGrid>
</VTKFile>