<?xml version="1.0"?>
<VTKFile type="UnstructuredGrid"  version="0.1"  >
<UnstructuredGrid>
<Piece  NumberOfPoints="222" NumberOfCells="377">
<Points>
<DataArray  type="Float64"  NumberOfComponents="3"  format="ascii">0.02551610879778106 -0.01494216872887336 0  0.02698164464788484 -0.01476541720858624 0  0.02643424289142052 -0.01623694385729681 0  0.02515937518063359 -0.01238480251612311 0  0.02601562429240979 -0.0135710459534041 0  0.02456729317333185 -0.01366621355117337 0  0.02189155176094687 -0.01125563613918391 0  0.02094480271328724 -0.01246783693176274 0  0.02062780176992896 -0.01096053329951933 0  0.02816455696202533 -0.000548117344167369 0  0.02827920295257925 -0.001213713138805826 0  0.0275221118418231 -0.001167461755577116 0  0.02910454763142873 -0.0148719848147267 0  0.02979142593361856 -0.01343820358447372 0  0.03063346496964628 -0.01482072107401133 0  0.02753212134145209 -0.0005183549072904844 0  0.03140601818714063 -0.0005248932151129052 0  0.03126617702938141 -0.001144812195358565 0  0.03077411868025309 -0.0005545231858494551 0  0.01953963058330239 -0.0131893823859715 0  0.02048912430468292 -0.01383166086325712 0  0.01924692295691136 -0.01483647139875886 0  0.03203972415322283 -0.001004468236269818 0  0.03284956498411604 -0.001060603134447127 0  0.03244498542997722 -0.001631361756402654 0  0.03050111489596253 -0.001114097094816878 0  0.02430087184669116 -0.00738325776710546 0  0.02310489720262665 -0.007551545158723201 0  0.02384994001800921 -0.006554718101372987 0  0.02947319909675067 -0.006338455318485765 0  0.02991399872765367 -0.007144760876996996 0  0.02883274777854654 -0.007101827658914046 0  0.026548765406445 -0.01234725250988462 0  0.03255514389895488 -0.0005056486738688679 0  0.01999999090958397 -0.01190533243371053 0  0.01818946081354701 -0.01295672084629151 0  0.01833825467061203 -0.01405758253453591 0  0.0169121405137496 -0.01364605247467918 0  0.02472707874685294 -0.01628850777329582 0  0.02932723229772011 -0.007968671095142231 0  0.02691740653035796 -0.0005561576639814964 0  0.02842345449259567 -0.01086094565316687 0  0.02930355201594253 -0.009860434630528388 0  0.0297620968626489 -0.01097998184080132 0  0.02841595162470061 -0.009715309554630812 0  0.03100469061469741 -0.01326771230905214 0  0.02572256016845397 -0.01120439427741591 0  0.02604651758329692 -0.00999920802640776 0  0.0269986334897659 -0.01096133959990511 0  0.02692260145491505 -0.009790260046692721 0  0.03024328472563794 -0.002861466001891397 0  0.03020413288666182 -0.003489889924984287 0  0.02961366774200752 -0.002984876602798801 0  0.02907705059260076 -0.001154922799731714 0  0.0287974683544304 -0.0005481173441673412 0  0.01760107635050648 -0.01495255471940327 0  0.02852107900573359 -0.004850250488781113 0  0.02796308126400564 -0.004060998115167899 0  0.02894517799413049 -0.004168534837250971 0  0.02854176275317557 -0.01337643874499762 0  0.0330429307876775 -0.003309212510481205 0  0.03214999255579816 -0.003427746210073322 0  0.03251306879334701 -0.002775154453406078 0  0.02986553371924184 -0.0161188031333677 0  0.02907281226405992 -0.01759267829960187 0  0.02818090203503531 -0.01595514275290454 0  0.02936391977510389 -0.003601672375084845 0  0.02943037974683546 -0.000548117344167362 0  0.02978283312528426 -0.001131023925658239 0  0.0159463985066977 -0.01490979164913795 0  0.02568580779529213 -0.01767378913562375 0  0.02943393384958246 -0.001735038537781432 0  0.02444755530550535 -0.01123694512962444 0  0.02494842995709304 -0.0101232002837246 0  0.03266068992263935 -0.003954639804709371 0  0.03225103034604516 -0.004702477494413479 0  0.03176285588358169 -0.004037878253994473 0  0.03039340226216725 -0.004778549678632601 0  0.02989604620811007 -0.004158239964732573 0  0.03084154559562395 -0.003951669600687463 0  0.03041957143303462 -0.009903388342945421 0  0.03101126397684507 -0.01097853165531951 0  0.03091767028175841 -0.003060000964857604 0  0.02230787916755419 -0.01496283314999557 0  0.02084771146842688 -0.01498425828199256 0  0.02160575213819848 -0.01366212290301008 0  0.01673894997540385 -0.01626699607430416 0  0.01714880911465969 -0.0124361553790697 0  0.03142445534975685 -0.003457499535020843 0  0.03198498737444595 -0.0004070020250503126 0  0.02151794872739572 -0.01631169480165203 0  0.03214447959393724 -0.008810224264134192 0  0.03149758852168515 -0.007940453397689555 0  0.03258815296471008 -0.007874320246144859 0  0.02312759287261549 -0.00911294250458957 0  0.02252086133828016 -0.008158435940468181 0  0.02369097466088547 -0.008182556075101446 0  0.03309992927302001 -0.001556626841386001 0  0.03352830139085315 -0.001890061037911145 0  0.0328367423751039 -0.002132416766564178 0  0.02758237526854788 -0.004895591648631056 0  0.02851635107508014 -0.003643629675172906 0  0.0273589827947864 -0.01758921756377843 0  0.03332688994188299 -0.002585861704359385 0  0.03336699633548909 -0.008766546744931776 0  0.03361990061127287 -0.0038859002573906 0  0.02378150462023427 -0.01241760972653583 0  0.02308047071201105 -0.01367436950095414 0  0.0316027008482968 -0.009878367137274489 0  0.03284878700235189 -0.009847459815165639 0  0.02383691854445111 -0.01494090408055321 0  0.03098967894190979 -0.008857863015679764 0  0.02483259391531642 -0.008141451653089389 0  0.02429549324899008 -0.009090687674534075 0  0.02313996770525577 -0.01127639734690065 0  0.02374380906932548 -0.01015566420503503 0  0.02312239918944797 -0.0163091792113279 0  0.02233291221197864 -0.01771305782865696 0  0.0239927487867216 -0.01771639003910357 0  0.02253135766602964 -0.01017194454705572 0  0.021948373577612 -0.009127428787036089 0  0.02316925673538998 -0.01919960611031577 0  0.02490198929565436 -0.01918637895043494 0  0.0294606605123897 -0.004812522959077158 0  0.03132321602215561 -0.004741181349113673 0  0.03167682822917843 -0.00167243054571152 0  0.03317715093133264 -0.004663417643978943 0  0.03019122852748383 -0.001708209267521917 0  0.03093148099397434 -0.001698761322706195 0  0.03410188719132665 -0.004624027341509025 0  0.03225450395035315 -0.01094358290889545 0  0.02767893153646784 -0.01004173844739677 0  0.01833757300225202 -0.01628469459082531 0  0.01991864151581862 -0.01630076657528173 0  0.03043722476385863 -0.007971419814668847 0  0.01794006325440985 -0.02184547132957535 0  0.0190562759454117 -0.02039616373090446 0  0.01973776209094124 -0.02191641331219953 0  0.02245976752636707 -0.01247019049768669 0  0.02402206565677668 -0.02077208115165185 0  0.02810553252615607 -0.01443564880580812 0  0.02792346364916234 -0.001810148217935341 0  0.02878930906132534 -0.003039678077491462 0  0.0259279704545053 -0.008134582500914853 0  0.02543464436698642 -0.009052302389330351 0  0.02867871526462975 -0.001786198582086083 0  0.0283283722821281 -0.002433101707219824 0  0.02908126100961197 -0.00240252592683151 0  0.02983266077112087 -0.002367426897831169 0  0.02903406442626563 -0.005606110691265341 0  0.02810006841939033 -0.005653318785225646 0  0.03058312695412165 -0.002335691582070497 0  0.03207501333914271 -0.002267300464307564 0  0.03132958778473981 -0.002307461489615845 0  0.02996863567629068 -0.005595541972624497 0  0.02711017725079492 -0.00794892907872212 0  0.02650030050185442 -0.00897813525831568 0  0.03089956676773108 -0.005560645127961138 0  0.02984813595256467 -0.008865151778069048 0  0.0277954136272528 -0.01222067565604994 0  0.03182825016343312 -0.005521233656993092 0  0.03275512975784597 -0.005480918658017767 0  0.03368042312171297 -0.005440523289724712 0  0.02908094820445579 -0.01216041747108128 0  0.03163249194599296 -0.01206893187987372 0  0.03038314142830757 -0.01213194709297327 0  0.02071699190014966 -0.01769178237767185 0  0.01911396195607112 -0.01767359176965567 0  0.01751475949945553 -0.01765769516915589 0  0.02879427143532289 -0.008872521156687845 0  0.0282620696125824 -0.007994578545613924 0  0.02797507644865633 -0.003212626231070451 0  0.02766721430354571 -0.009043563281165734 0  0.02228052760719358 -0.02066128242489982 0  0.03191507881265004 -0.007068301249835034 0  0.02716804432899495 -0.005725438951574249 0  0.0159123938473852 -0.01764087146291542 0  0.02716247907259001 -0.007073244135320719 0  0.02795337387929366 -0.007178581295183423 0  0.02150481396277672 -0.0191277673112832 0  0.02848101265822787 0 0  0.0278481012658228 0 0  0.02911392405063293 0 0  0.02974683544303799 0 0  0.0213155883353054 -0.01009753243285238 0  0.03164556962025319 0 0  0.03101265822784813 0 0  0.03291139240506331 0 0  0.03227848101265825 0 0  0.03354430379746838 0 0  0.03322784810126585 -0.0005373393096861495 0  0.02533695343643001 -0.007341990524381635 0  0.03006329113924053 -0.0005257585099300785 0  0.01952754542942722 -0.01090267860804837 0  0.01898821785664117 -0.01198943696152524 0  0.02721518987341774 0 0  0.01830136391513708 -0.01902940300168779 0  0.02623249736504675 -0.005763684204637125 0  0.02581020526782239 -0.006556759615931877 0  0.0253043999914823 -0.005790345846186963 0  0.02763434382957185 -0.006436372584714127 0  0.03139976167983063 -0.006328530947532753 0  0.03172545451210937 -0.002912845716255233 0  0.03325400132887102 -0.006250056353847816 0  0.01740511822373147 -0.02039476993477531 0  0.02734445547581246 -0.01344457580958835 0  0.03385834904562041 -0.0005394857939852934 0  0.02855353694969607 -0.006336776686311434 0  0.03037974683544306 0 0  0.01669363412740192 -0.01902959739560042 0  0.01989687287313065 -0.01905253600255109 0  0.02672992329774068 -0.006492550876179913 0  0.03045842528729817 -0.006346847207258886 0  0.03232674293366766 -0.006270935188556821 0  0.02635595058089958 -0.007278578667931752 0  0.02483610391734082 -0.006559501120486179 0  0.03095516314174789 -0.007141344167512179 0  0.0335813732379819 -0.001166925490484874 0  0.02064414364765439 -0.02051245997830541 0  0.01787109422081598 -0.01181340881046841 0  0.03287074343896459 -0.006995842367656338 0  0.02143379743372286 -0.02205795802525037 0  </DataArray>
</Points>
<Cells>
<DataArray  type="UInt32"  Name="connectivity"  format="ascii">0 2 1  5 3 4  6 8 7  0 1 4  9 11 10  14 12 13  9 11 15  16 18 17  21 19 20  24 22 23  25 18 17  26 28 27  29 31 30  3 32 4  22 33 23  34 19 7  37 35 36  0 2 38  39 31 30  34 8 7  40 11 15  41 43 42  41 42 44  45 14 13  46 48 47  19 7 20  21 19 36  48 47 49  50 52 51  53 54 10  37 55 36  56 58 57  59 12 13  9 54 10  5 0 4  60 62 61  16 22 17  65 63 64  52 51 66  67 53 68  69 37 55  70 2 38  71 53 68  65 63 12  72 46 73  74 60 61  75 74 76  77 79 78  43 81 80  79 82 51  83 85 84  86 69 55  37 35 87  79 82 88  16 22 89  90 83 84  46 47 73  91 93 92  94 96 95  43 42 80  99 97 98  100 56 57  58 57 101  102 65 64  99 98 103  21 84 20  70 102 2  91 104 93  74 105 60  2 65 1  106 3 72  107 5 106  108 109 91  83 110 107  91 111 92  96 112 26  94 113 96  72 114 115  116 90 83  118 117 116  115 119 94  94 120 95  122 121 118  123 77 78  124 75 76  125 24 22  75 126 74  77 124 79  127 128 25  126 129 105  56 123 58  81 130 108  48 41 131  133 132 21  102 2 65  90 133 84  118 70 38  109 91 104  5 106 3  3 72 46  110 107 5  116 83 110  115 94 113  113 96 112  122 118 70  123 58 78  124 79 76  106 72 114  108 91 111  132 86 55  126 74 105  111 92 134  130 108 109  114 115 119  110 0 38  117 116 90  137 135 136  83 107 85  107 85 138  119 94 120  133 21 84  121 118 117  63 14 12  139 122 121  116 110 38  132 21 55  65 12 140  114 6 138  106 114 138  141 11 10  65 1 140  41 131 44  96 26 27  71 127 68  79 78 51  142 101 66  112 144 143  46 32 48  141 146 145  145 147 71  71 148 127  56 149 123  100 150 56  127 151 128  125 152 24  128 153 125  123 154 77  143 156 155  77 157 124  134 158 39  48 159 41  124 160 75  75 161 126  24 99 97  126 162 129  41 163 43  81 164 130  48 131 49  43 165 81  90 166 133  145 71 53  145 53 10  6 138 7  133 167 132  132 168 86  128 25 17  125 22 17  118 116 38  107 106 138  72 115 73  81 108 80  39 169 170  19 35 36  57 171 101  155 170 172  113 112 144  110 5 0  127 25 68  3 46 32  117 90 166  111 134 158  139 121 173  114 119 6  93 92 174  144 143 156  146 145 147  147 71 148  32 48 159  175 100 150  150 56 149  148 127 151  149 123 154  151 128 153  153 125 152  154 77 157  157 124 160  160 75 161  152 24 99  159 41 163  161 126 162  166 133 167  163 43 165  165 81 164  167 132 168  168 86 176  158 39 169  59 12 140  155 177 178  74 76 61  39 170 31  121 173 179  121 117 179  181 180 9  180 182 54  182 183 67  155 170 178  119 120 184  186 185 16  117 166 179  119 6 184  188 187 33  187 189 190  24 97 23  67 53 54  169 170 172  112 26 191  50 82 51  25 68 192  99 62 103  113 144 73  193 194 34  195 181 15  111 158 80  194 19 35  156 155 172  141 145 10  115 113 73  167 168 196  108 111 80  144 156 47  199 197 198  58 101 66  175 150 200  146 147 142  159 163 59  148 151 50  149 154 29  165 164 45  157 160 201  153 152 202  158 169 42  161 162 203  135 136 204  134 39 30  1 4 205  6 184 8  22 33 89  194 34 19  180 9 54  182 67 54  144 47 73  187 190 33  78 51 66  189 190 206  158 42 80  195 40 15  181 9 15  200 207 178  183 208 192  168 176 209  166 167 210  197 175 211  147 148 52  163 165 13  151 153 82  154 157 212  160 161 213  25 192 18  67 68 192  183 67 192  32 4 205  166 179 210  168 196 209  96 95 27  167 196 210  60 62 103  197 198 211  175 200 211  165 45 13  163 59 13  85 138 7  147 142 52  146 142 171  154 29 212  151 50 82  148 50 52  157 201 212  160 201 213  153 202 82  161 203 213  85 84 20  152 99 62  186 16 18  143 155 214  85 7 20  31 207 178  26 215 191  92 134 216  97 217 98  208 192 18  208 186 18  185 16 89  188 33 89  173 179 218  128 125 17  32 159 205  194 35 219  142 52 66  1 205 140  29 31 207  190 206 217  152 202 62  35 87 219  112 143 191  150 200 207  149 29 207  79 76 88  193 34 8  58 78 66  156 172 49  185 188 89  21 55 36  199 198 215  93 174 220  179 210 218  131 172 49  26 215 28  169 172 44  190 217 23  201 212 216  190 33 23  173 218 221  131 172 44  201 216 174  196 210 136  159 59 205  155 214 177  201 213 174  196 136 204  196 209 204  97 217 23  142 171 101  137 218 221  150 149 207  198 191 214  210 218 136  92 216 174  29 212 30  59 205 140  203 213 220  212 216 30  143 191 214  198 211 214  137 218 136  198 215 191  213 174 220  134 216 30  170 31 178  169 42 44  200 211 177  156 47 49  202 61 88  211 214 177  202 82 88  202 62 61  76 61 88  200 177 178  </DataArray>
<DataArray  type="UInt32"  Name="offsets"  format="ascii">3 6 9 12 15 18 21 24 27 30 33 36 39 42 45 48 51 54 57 60 63 66 69 72 75 78 81 84 87 90 93 96 99 102 105 108 111 114 117 120 123 126 129 132 135 138 141 144 147 150 153 156 159 162 165 168 171 174 177 180 183 186 189 192 195 198 201 204 207 210 213 216 219 222 225 228 231 234 237 240 243 246 249 252 255 258 261 264 267 270 273 276 279 282 285 288 291 294 297 300 303 306 309 312 315 318 321 324 327 330 333 336 339 342 345 348 351 354 357 360 363 366 369 372 375 378 381 384 387 390 393 396 399 402 405 408 411 414 417 420 423 426 429 432 435 438 441 444 447 450 453 456 459 462 465 468 471 474 477 480 483 486 489 492 495 498 501 504 507 510 513 516 519 522 525 528 531 534 537 540 543 546 549 552 555 558 561 564 567 570 573 576 579 582 585 588 591 594 597 600 603 606 609 612 615 618 621 624 627 630 633 636 639 642 645 648 651 654 657 660 663 666 669 672 675 678 681 684 687 690 693 696 699 702 705 708 711 714 717 720 723 726 729 732 735 738 741 744 747 750 753 756 759 762 765 768 771 774 777 780 783 786 789 792 795 798 801 804 807 810 813 816 819 822 825 828 831 834 837 840 843 846 849 852 855 858 861 864 867 870 873 876 879 882 885 888 891 894 897 900 903 906 909 912 915 918 921 924 927 930 933 936 939 942 945 948 951 954 957 960 963 966 969 972 975 978 981 984 987 990 993 996 999 1002 1005 1008 1011 1014 1017 1020 1023 1026 1029 1032 1035 1038 1041 1044 1047 1050 1053 1056 1059 1062 1065 1068 1071 1074 1077 1080 1083 1086 1089 1092 1095 1098 1101 1104 1107 1110 1113 1116 1119 1122 1125 1128 1131 </DataArray>
<DataArray  type="UInt8"  Name="types"  format="ascii">5 5 5 5 5 5 5 5 5 5 5 5 5 5 5 5 5 5 5 5 5 5 5 5 5 5 5 5 5 5 5 5 5 5 5 5 5 5 5 5 5 5 5 5 5 5 5 5 5 5 5 5 5 5 5 5 5 5 5 5 5 5 5 5 5 5 5 5 5 5 5 5 5 5 5 5 5 5 5 5 5 5 5 5 5 5 5 5 5 5 5 5 5 5 5 5 5 5 5 5 5 5 5 5 5 5 5 5 5 5 5 5 5 5 5 5 5 5 5 5 5 5 5 5 5 5 5 5 5 5 5 5 5 5 5 5 5 5 5 5 5 5 5 5 5 5 5 5 5 5 5 5 5 5 5 5 5 5 5 5 5 5 5 5 5 5 5 5 5 5 5 5 5 5 5 5 5 5 5 5 5 5 5 5 5 5 5 5 5 5 5 5 5 5 5 5 5 5 5 5 5 5 5 5 5 5 5 5 5 5 5 5 5 5 5 5 5 5 5 5 5 5 5 5 5 5 5 5 5 5 5 5 5 5 5 5 5 5 5 5 5 5 5 5 5 5 5 5 5 5 5 5 5 5 5 5 5 5 5 5 5 5 5 5 5 5 5 5 5 5 5 5 5 5 5 5 5 5 5 5 5 5 5 5 5 5 5 5 5 5 5 5 5 5 5 5 5 5 5 5 5 5 5 5 5 5 5 5 5 5 5 5 5 5 5 5 5 5 5 5 5 5 5 5 5 5 5 5 5 5 5 5 5 5 5 5 5 5 5 5 5 5 5 5 5 5 5 5 5 5 5 5 5 5 5 5 5 5 5 5 5 5 5 5 5 5 5 5 5 5 5 5 5 5 5 5 5 </DataArray>
</Cells>
<PointData  Scalars=" mean stress"> 
<DataArray  type="Float64"  Name=" mean stress"  format="ascii">1.5863008039695280e+09  1.5873936844153476e+09  1.5795318006198750e+09  1.5998386688990817e+09  1.5935178915347335e+09  1.5931223988241179e+09  1.6057857231804736e+09  1.5999728654681199e+09  1.6071579512875836e+09  1.6638106874447696e+09  1.6601803223817191e+09  1.6604574075776131e+09  1.5874108871478992e+09  1.5940199585590096e+09  1.5877569569350412e+09  1.6642572304979239e+09  1.6640601385922563e+09  1.6604910018947225e+09  1.6637225834631841e+09  1.5952901906865411e+09  1.5925066157368000e+09  1.5867823083698289e+09  1.6611128585591602e+09  1.6609043836536140e+09  1.6579809724662981e+09  1.6605908590766711e+09  1.6270433110427480e+09  1.6265018521660531e+09  1.6307263975679319e+09  1.6322257111669457e+09  1.6279636163973253e+09  1.6280466737686741e+09  1.6004586680324347e+09  1.6641300107616310e+09  1.6027742137850225e+09  1.5976106370148783e+09  1.5910837265119095e+09  1.5934262096530249e+09  1.5794257432685332e+09  1.6236274568690872e+09  1.6638459836414950e+09  1.6075765681156495e+09  1.6135634274424138e+09  1.6073071399008951e+09  1.6138864799125564e+09  1.5953487430522170e+09  1.6061818158527632e+09  1.6127486415115273e+09  1.6070152194132710e+09  1.6133972329688642e+09  1.6513725201633332e+09  1.6478118298770978e+09  1.6505056637598844e+09  1.6603734329606178e+09  1.6636061762668176e+09  1.5858716759084291e+09  1.6404636623840487e+09  1.6442057212238388e+09  1.6439845952801394e+09  1.5945251093249035e+09  1.6487612018562934e+09  1.6481022035226066e+09  1.6513940437644312e+09  1.5792980429767203e+09  1.5728259737234488e+09  1.5807528818300872e+09  1.6471674280901072e+09  1.6637656193466122e+09  1.6604709898614526e+09  1.5866819942603402e+09  1.5721255215111330e+09  1.6571714493165302e+09  1.6061022111706302e+09  1.6119997953896637e+09  1.6450669991697488e+09  1.6411568457091391e+09  1.6445801027950232e+09  1.6407180206762054e+09  1.6441700525366924e+09  1.6451883388912389e+09  1.6131386631489089e+09  1.6074489029481711e+09  1.6502674960993319e+09  1.5863136730634251e+09  1.5858925130867093e+09  1.5929124414475684e+09  1.5795124516974998e+09  1.5992113349468145e+09  1.6478542679461336e+09  1.6648183677998343e+09  1.5791710910700707e+09  1.6187828157291651e+09  1.6236466387128420e+09  1.6239395735714607e+09  1.6174072680446610e+09  1.6219515201151671e+09  1.6221356946120236e+09  1.6582426092710712e+09  1.6564100485664837e+09  1.6551191981991396e+09  1.6402657514124019e+09  1.6470591299684906e+09  1.5727252598393276e+09  1.6527175727488308e+09  1.6190892562908185e+09  1.6455789811561174e+09  1.5995704960175371e+09  1.5930601606808934e+09  1.6134411615663543e+09  1.6136129383850386e+09  1.5863853476532428e+09  1.6185506873843262e+09  1.6226573900259340e+09  1.6174880340498693e+09  1.6058211969561667e+09  1.6118517118724115e+09  1.5791953917450643e+09  1.5718069921194415e+09  1.5717813871100545e+09  1.6117240484617856e+09  1.6174855778491368e+09  1.5640301162541492e+09  1.5642658897162564e+09  1.6403756389550967e+09  1.6409782825445046e+09  1.6576644475319228e+09  1.6413593762993853e+09  1.6572687233025842e+09  1.6573960171595497e+09  1.6415936246121590e+09  1.6075574417979541e+09  1.6127451440063198e+09  1.5795258285690696e+09  1.5794006603140154e+09  1.6235226065350358e+09  1.5505404142684960e+09  1.5580030505432556e+09  1.5501049445912735e+09  1.5994818836678369e+09  1.5560159868441391e+09  1.5891723651477685e+09  1.6568184533183925e+09  1.6502311687937257e+09  1.6225122804174588e+09  1.6177143194737501e+09  1.6570663191437089e+09  1.6533323174887512e+09  1.6537663603490386e+09  1.6541100177464795e+09  1.6364917496450367e+09  1.6360994646586237e+09  1.6540697183667719e+09  1.6543804907106183e+09  1.6540529265261927e+09  1.6364989108196385e+09  1.6232762498645427e+09  1.6184843127045360e+09  1.6366150030903225e+09  1.6185851136177590e+09  1.6012278619235215e+09  1.6368845845071340e+09  1.6370708473835592e+09  1.6371314022465279e+09  1.6014408736743472e+09  1.6017428376170328e+09  1.6012895725364134e+09  1.5720405769316897e+09  1.5722690664098539e+09  1.5722598424901712e+09  1.6189612230314147e+09  1.6230931976553652e+09  1.6493723151719058e+09  1.6183129347204835e+09  1.5564215467882366e+09  1.6282411293694041e+09  1.6356472472584288e+09  1.5722067254606917e+09  1.6284787927236660e+09  1.6279926812832003e+09  1.5644624708076138e+09  1.6659854674565341e+09  1.6657789614366598e+09  1.6659570971751885e+09  1.6658830453781536e+09  1.6122012904594810e+09  1.6660489592889349e+09  1.6658382875489490e+09  1.6659643903210590e+09  1.6660998193287125e+09  1.6657836105729332e+09  1.6638072890033190e+09  1.6268298359368711e+09  1.6638551703799565e+09  1.6079324949112992e+09  1.6019027515562723e+09  1.6658652686910877e+09  1.5652972689100072e+09  1.6355239556983840e+09  1.6312336792698848e+09  1.6353978716469154e+09  1.6319241299378273e+09  1.6324282518126428e+09  1.6511186445553706e+09  1.6330956291434460e+09  1.5580828501264226e+09  1.5944053355571606e+09  1.6640478490287418e+09  1.6322586906998134e+09  1.6658563716224401e+09  1.5649465998876312e+09  1.5650983240178382e+09  1.6316699963289938e+09  1.6321817596895375e+09  1.6328696307303393e+09  1.6273854439953732e+09  1.6310810865597913e+09  1.6280150567394145e+09  1.6604165720857842e+09  1.5573552936468301e+09  1.6029299244712853e+09  1.6288255195315452e+09  1.5495023590464659e+09  </DataArray> 
</PointData> 
</Piece>
</UnstructuredGrid>
</VTKFile>