<?xml version="1.0"?>
<VTKFile type="UnstructuredGrid"  version="0.1"  >
<UnstructuredGrid>
<Piece  NumberOfPoints="216" NumberOfCells="374">
<Points>
<DataArray  type="Float64"  NumberOfComponents="3"  format="ascii">0.03357007189954724 -0.02199319121448707 0  0.03545963121810179 -0.02141491966795506 0  0.03469169628596309 -0.02341552269193265 0  0.03685991983664354 -0.01197066407490258 0  0.03637392322230851 -0.01350659964960618 0  0.03556589910278578 -0.01200934694257567 0  0.04789393313788595 -0.00421066668225694 0  0.04827041132769071 -0.003375611660865883 0  0.04905656254508814 -0.00426341776628502 0  0.03636289653101113 -0.02295621236457739 0  0.03949726632398239 -0.01173066061743989 0  0.04087196655616096 -0.01155913266029539 0  0.04029626475850633 -0.01281250236373426 0  0.0349147109864503 -0.01330070060157353 0  0.03552770515422629 -0.01466335466011631 0  0.03395462487733411 -0.0144718486486159 0  0.03392179682911987 -0.01297673962433455 0  0.04655530221151299 -0.02177961875456432 0  0.04842865617396701 -0.02156514908327373 0  0.04830169150528274 -0.02365254409598323 0  0.0356703199042354 -0.01745577974380073 0  0.03716009127033108 -0.0181000768000732 0  0.03617079080000031 -0.01956325649663997 0  0.04517634465151581 -0.0145030477989898 0  0.04328895984491847 -0.01508750050557908 0  0.04389102317326415 -0.0137884170084323 0  0.04179086315931762 -0.01263725850561073 0  0.04473478822305212 -0.0219399785061867 0  0.04621594470545863 -0.02374489044081141 0  0.04396790973297925 -0.02374956546156113 0  0.03468485072507924 -0.0187365921476785 0  0.04007571708403729 -0.01054079658599095 0  0.04729773972790781 -0.0122900356249486 0  0.04753846976160952 -0.01362485699457112 0  0.04595709286273522 -0.01324149311877353 0  0.04437591883757908 -0.01610969916160312 0  0.05 -0.004843008198704184 0  0.04911877722526721 -0.005604734282112514 0  0.04586586455939094 -0.0120810854980847 0  0.04643633354494954 -0.01116821536282779 0  0.03765023987878786 -0.01288379630108069 0  0.03805417802646398 -0.01415986770117574 0  0.04103236344548793 -0.01400989386656325 0  0.04769183984811923 -0.01086913000866852 0  0.04838583501165121 -0.004968777144631738 0  0.04676888726969779 -0.014538642951712 0  0.04845285770753188 -0.01469242599508434 0  0.03685068878202403 -0.01474865014832897 0  0.04372874531172317 -0.02051002808675568 0  0.04200386709552385 -0.02072442216852185 0  0.04283102961355375 -0.01915689198746244 0  0.04915796303231687 -0.003147868123058582 0  0.03336699633548909 -0.008766546744931776 0  0.03420909090604814 -0.00976747347633506 0  0.03284878700235189 -0.009847459815165639 0  0.03153378558877021 -0.01586869310961439 0  0.03149359441337313 -0.01422333764452969 0  0.03255113527812727 -0.01458268617231569 0  0.03063346496964628 -0.01482072107401133 0  0.04115811053171246 -0.01935067724044014 0  0.04122292810305772 -0.01036168556044716 0  0.04223708252445289 -0.01009020452861555 0  0.04234875990806446 -0.0112718923285493 0  0.0458644145966817 -0.007063703392624861 0  0.04617795683664461 -0.006066720313570091 0  0.04689337793285873 -0.006964096384468557 0  0.04740574350988913 -0.01567172625097208 0  0.04266973628126673 -0.01646189602873239 0  0.04507219663875502 -0.02538371181408397 0  0.04373344891167907 -0.01752557299947517 0  0.03355800527523357 -0.01092230639107575 0  0.04818087888649383 -0.005835705837113056 0  0.04798237631952069 -0.006840945572274222 0  0.0472016772862637 -0.00597862912439278 0  0.04249587899661787 -0.01389459401957903 0  0.04710620198076683 -0.0201536975322684 0  0.04833221259011711 -0.00892857538492952 0  0.04932851261402862 -0.009016902243871978 0  0.04886753188284145 -0.01015727362788417 0  0.03310707491112758 -0.01349026629257516 0  0.04858238385613768 -0.01638795865393368 0  0.04861875481187092 -0.01804839269598912 0  0.04706970686160471 -0.01725202757394424 0  0.04725828736504947 -0.003450056460347337 0  0.04201537383426986 -0.0178211788567556 0  0.0477969978047694 -0.009787373880740392 0  0.03153492534558499 -0.01905989356488878 0  0.02983804318496509 -0.01906094703690332 0  0.0306676898265106 -0.01760359874934738 0  0.03315115180759645 -0.01610946378626702 0  0.03431882941780962 -0.02022890672737344 0  0.04856417476854837 -0.01970030433800369 0  0.04712247129220226 -0.02554395041349308 0  0.03212593092435014 -0.01323553230976744 0  0.04317369686676788 -0.0125903732607659 0  0.03066275504269151 -0.02062684798660048 0  0.03236242942663914 -0.01754864976533017 0  0.05 -0.01102405022575231 0  0.04880471731356234 -0.01171098644430504 0  0.05 -0.01395076334851523 0  0.04875098997048143 -0.01318126710414894 0  0.05 -0.01717746455289665 0  0.0476857233676935 -0.007898466250401269 0  0.04891673416830591 -0.007824969859896509 0  0.03933088173617141 -0.009537729248481626 0  0.03792734900164401 -0.009579023616596856 0  0.03874512338520947 -0.008539430122499365 0  0.05 -0.01245171516555089 0  0.04687121202070114 -0.004266215469229208 0  0.05 -0.01552476394478985 0  0.04359680887666913 -0.005431959960850788 0  0.04406065156767552 -0.004535769663047327 0  0.04460033437508935 -0.00534756297063789 0  0.05 -0.01891280017743463 0  0.03989857855230838 -0.00845905413482733 0  0.04044996759862814 -0.007457201086961372 0  0.04107092390115843 -0.008407745530619355 0  0.04056173679885448 -0.009458696768725107 0  0.03326149463748865 -0.0189731028131737 0  0.03250677976233624 -0.02057851670212114 0  0.03400281886586223 -0.01746191495740464 0  0.03473486635103647 -0.01603702052652085 0  0.02986553371924184 -0.0161188031333677 0  0.0429879635076281 -0.02554603935162467 0  0.04456900848073898 -0.01884515417079737 0  0.0454618727127745 -0.02028253516218719 0  0.04036228089903142 -0.02096023224735562 0  0.0395968931381043 -0.02259666752933263 0  0.03874396839804495 -0.02104994183532873 0  0.04284290701848799 -0.0221591113762124 0  0.04531777126861217 -0.01729110679948063 0  0.0461309426328633 -0.01873477697585969 0  0.04063810401577456 -0.02550379653032717 0  0.04200103505190877 -0.02383094061305704 0  0.03485691726147915 -0.01084482392485426 0  0.03551789968272698 -0.009667755859504128 0  0.03614562486919239 -0.01084246411430596 0  0.04602672111661026 -0.01582638321702631 0  0.03225450395035315 -0.01094358290889545 0  0.04311538408228613 -0.00636386197229253 0  0.0441734349628416 -0.006284825684230076 0  0.05 -0.02264811013263011 0  0.03873332729010846 -0.01068563837772323 0  0.03744456416941115 -0.01079703455839826 0  0.04901586627550847 -0.006543805977373106 0  0.05 -0.007136164486518962 0  0.05 -0.003777662642945664 0  0.05 -0.002763047819002842 0  0.04453568096730291 -0.01246092986598855 0  0.03168396593139566 -0.02222901691492647 0  0.04156388710896598 -0.007396595608682457 0  0.03675233552801341 -0.009958067029993203 0  0.04500763147572235 -0.004454820753681928 0  0.04115554440587493 -0.02238113463962543 0  0.05 -0.005961621020185714 0  0.04479080224147557 -0.007170936885667507 0  0.04518352088401199 -0.006181019800582443 0  0.02907281226405992 -0.01759267829960187 0  0.05 -0.009664369334984248 0  0.04440522207205182 -0.01023251617827797 0  0.04321285029929915 -0.01024309330642483 0  0.04379700749021068 -0.009196075453980143 0  0.03803960947662824 -0.01674266509831606 0  0.03888178721783159 -0.01540627455424635 0  0.03955933071830176 -0.01668022616178653 0  0.05 -0.008369435152759713 0  0.05 -0.02073490259296818 0  0.05 -0.02465697805933633 0  0.03298115767873243 -0.01219475080324783 0  0.03424957921575637 -0.01197581562817138 0  0.04203268617278043 -0.006439012892548182 0  0.04264311475686815 -0.007321983567346972 0  0.04382025856114753 -0.0113543350136327 0  0.04541873846899853 -0.003608411754033473 0  0.0463141799401771 -0.003517814316084021 0  0.04594360178645535 -0.004368620533152671 0  0.03813089299847526 -0.01184107066614997 0  0.0465629435550174 -0.007995712240391042 0  0.04371671875959318 -0.007243480701719512 0  0.03792997952428009 -0.01955523686115229 0  0.03876538775747695 -0.0180758329845526 0  0.03708573581609832 -0.02108282655489413 0  0.04177869111027357 -0.01526515206004796 0  0.04544035926014797 -0.008088851431713839 0  0.04745967381676208 -0.005054457349612955 0  0.03623053993569459 -0.01590523340005146 0  0.04168318987701074 -0.009342657978457507 0  0.03163249194599296 -0.01206893187987372 0  0.04215811866530569 -0.008304103432475271 0  0.03100469061469741 -0.01326771230905214 0  0.04724932294792601 -0.008941978916711842 0  0.0468440817548432 -0.01003991146550792 0  0.04611687936595937 -0.00906442361736029 0  0.04565232618006024 -0.01013637124170801 0  0.03760738258655549 -0.01560400728619765 0  0.03678639893260356 -0.01698735534081002 0  0.03905169688018095 -0.02422393925926715 0  0.04047925110831384 -0.02384056232735847 0  0.04510247569405923 -0.01124475351788497 0  0.04108784760619999 -0.01661800736174687 0  0.04031440477448038 -0.01533647732638158 0  0.03956572537079311 -0.01410578363987942 0  0.03883228531004804 -0.01294077941356898 0  0.04037520315799362 -0.0180287035275931 0  0.03959047800948302 -0.01947645433027861 0  0.04494863876300645 -0.009139390332659862 0  0.0443171716583506 -0.008171728430601051 0  0.03796903998011181 -0.02268716508960507 0  0.04555939954532548 -0.005248016618299337 0  0.04649906701353163 -0.005143997321827028 0  0.04749712707176951 -0.01881798401415609 0  0.04322941627860691 -0.00823285897089325 0  0.04879129711161546 -0.02568603730713774 0  0.0427176844348324 -0.009231693469198929 0  0.04489003541370452 -0.01349847194804605 0  0.05 -0.02676628939403253 0  </DataArray>
</Points>
<Cells>
<DataArray  type="UInt32"  Name="connectivity"  format="ascii">0 2 1  5 3 4  6 8 7  9 2 1  10 12 11  13 15 14  13 15 16  19 17 18  22 20 21  23 25 24  12 26 11  29 27 28  19 17 28  22 20 30  10 31 11  34 32 33  35 23 24  36 8 37  39 32 38  5 13 4  34 32 38  41 4 40  12 42 26  39 32 43  6 44 8  27 17 28  44 8 37  45 46 33  41 4 47  48 50 49  51 8 7  54 52 53  57 55 56  55 58 56  59 50 49  62 60 61  63 65 64  45 46 66  67 35 24  68 29 28  67 35 69  70 54 53  71 73 72  42 74 26  45 34 33  62 11 60  17 18 75  13 14 4  78 76 77  3 4 40  15 79 16  80 82 81  65 73 64  65 73 72  6 83 7  84 69 50  78 76 85  86 88 87  89 57 55  22 90 30  67 84 69  91 18 75  68 28 92  57 79 93  74 94 25  74 94 26  95 86 87  90 0 1  96 89 55  97 78 98  99 100 46  22 90 1  101 80 81  57 93 56  102 103 72  104 106 105  98 32 43  97 107 98  108 6 83  99 109 46  110 112 111  101 113 81  114 116 115  104 117 114  86 118 96  95 119 86  96 120 89  89 121 15  96 88 55  55 122 58  123 68 29  48 125 124  128 126 127  129 27 48  124 131 130  123 133 132  134 136 135  137 35 23  29 133 129  138 70 54  139 140 110  130 82 137  141 19 18  23 45 34  70 134 53  80 82 66  142 31 104  104 114 106  102 76 103  143 142 105  144 103 72  145 144 103  147 146 51  148 94 25  119 86 118  142 104 105  149 95 119  118 96 120  119 90 0  120 89 121  121 15 14  116 115 150  134 135 53  143 105 151  86 96 88  117 114 116  89 15 57  112 111 152  88 55 122  149 119 0  29 129 27  27 48 125  125 124 131  140 110 112  31 104 117  130 137 35  131 130 82  15 57 79  133 129 153  123 29 133  137 23 45  154 145 144  155 63 156  107 100 98  88 87 157  109 80 46  158 97 78  107 99 100  113 91 81  161 159 160  164 162 163  109 101 80  145 165 103  78 98 43  113 166 91  141 167 19  138 168 70  70 169 134  134 5 136  100 98 32  62 26 11  136 3 143  170 171 139  159 172 160  173 175 174  143 176 142  142 10 31  63 177 65  172 94 62  139 178 140  179 22 21  136 135 151  164 180 162  179 181 22  88 122 157  42 182 74  155 183 63  129 48 49  19 28 92  36 154 37  180 162 21  146 36 8  144 71 37  172 62 160  108 184 6  119 118 90  166 141 18  120 121 20  27 125 17  121 14 185  130 35 69  153 126 127  182 67 24  150 170 171  117 116 186  146 51 8  152 173 175  140 112 156  94 62 26  168 70 169  187 138 168  169 134 5  5 136 3  121 20 185  14 4 47  176 142 10  3 143 176  140 155 156  183 63 177  171 139 178  178 140 155  82 137 66  177 65 102  166 91 18  63 156 64  158 78 77  174 108 83  116 186 188  175 174 108  189 58 56  190 192 191  193 192 191  185 194 195  180 179 21  184 6 44  196 132 197  182 74 24  31 11 60  172 148 94  159 198 172  182 199 67  200 199 164  202 201 41  203 204 59  74 25 24  206 205 161  10 202 12  42 200 182  12 201 42  164 203 180  116 150 188  179 128 181  205 159 193  180 204 179  193 198 39  181 207 9  102 190 76  155 206 183  100 46 33  112 156 208  118 90 30  144 71 72  176 10 202  108 209 184  177 102 190  82 81 210  169 5 13  200 182 199  76 103 77  44 71 37  201 42 200  199 164 203  178 155 206  202 12 201  198 172 148  128 181 207  205 161 159  150 171 188  204 179 128  184 44 71  152 175 208  203 180 204  159 193 198  14 185 47  206 183 205  175 108 209  205 193 192  120 20 30  112 152 208  165 103 77  209 184 73  202 41 40  206 161 211  183 177 192  125 17 75  181 22 1  167 19 212  175 209 208  203 59 84  200 164 163  59 84 50  184 71 73  168 79 93  162 194 195  161 160 213  31 117 60  148 34 38  199 67 84  183 205 192  124 69 50  201 41 163  124 130 69  3 176 40  19 92 212  168 79 16  177 190 192  171 178 211  131 82 210  39 43 191  199 203 84  201 200 163  118 120 30  176 202 40  193 39 191  178 206 211  80 46 66  48 124 50  65 102 72  171 188 211  137 45 66  154 144 37  128 207 127  133 132 197  156 208 64  78 43 85  204 59 126  136 143 151  129 153 49  187 168 93  162 163 194  148 25 214  209 208 64  148 34 214  168 169 16  117 186 60  198 148 38  209 73 64  160 213 61  125 131 75  161 211 213  186 188 213  62 160 61  190 76 85  43 191 85  188 211 213  185 47 194  41 163 194  181 9 1  133 153 197  23 34 214  190 191 85  41 47 194  100 32 33  59 49 126  186 213 61  20 21 195  165 158 77  167 215 212  204 128 126  162 21 195  207 196 127  91 81 210  23 25 214  198 39 38  20 185 195  187 189 93  169 13 16  189 93 56  153 49 126  153 127 197  186 60 61  91 75 210  131 75 210  196 127 197  </DataArray>
<DataArray  type="UInt32"  Name="offsets"  format="ascii">3 6 9 12 15 18 21 24 27 30 33 36 39 42 45 48 51 54 57 60 63 66 69 72 75 78 81 84 87 90 93 96 99 102 105 108 111 114 117 120 123 126 129 132 135 138 141 144 147 150 153 156 159 162 165 168 171 174 177 180 183 186 189 192 195 198 201 204 207 210 213 216 219 222 225 228 231 234 237 240 243 246 249 252 255 258 261 264 267 270 273 276 279 282 285 288 291 294 297 300 303 306 309 312 315 318 321 324 327 330 333 336 339 342 345 348 351 354 357 360 363 366 369 372 375 378 381 384 387 390 393 396 399 402 405 408 411 414 417 420 423 426 429 432 435 438 441 444 447 450 453 456 459 462 465 468 471 474 477 480 483 486 489 492 495 498 501 504 507 510 513 516 519 522 525 528 531 534 537 540 543 546 549 552 555 558 561 564 567 570 573 576 579 582 585 588 591 594 597 600 603 606 609 612 615 618 621 624 627 630 633 636 639 642 645 648 651 654 657 660 663 666 669 672 675 678 681 684 687 690 693 696 699 702 705 708 711 714 717 720 723 726 729 732 735 738 741 744 747 750 753 756 759 762 765 768 771 774 777 780 783 786 789 792 795 798 801 804 807 810 813 816 819 822 825 828 831 834 837 840 843 846 849 852 855 858 861 864 867 870 873 876 879 882 885 888 891 894 897 900 903 906 909 912 915 918 921 924 927 930 933 936 939 942 945 948 951 954 957 960 963 966 969 972 975 978 981 984 987 990 993 996 999 1002 1005 1008 1011 1014 1017 1020 1023 1026 1029 1032 1035 1038 1041 1044 1047 1050 1053 1056 1059 1062 1065 1068 1071 1074 1077 1080 1083 1086 1089 1092 1095 1098 1101 1104 1107 1110 1113 1116 1119 1122 </DataArray>
<DataArray  type="UInt8"  Name="types"  format="ascii">5 5 5 5 5 5 5 5 5 5 5 5 5 5 5 5 5 5 5 5 5 5 5 5 5 5 5 5 5 5 5 5 5 5 5 5 5 5 5 5 5 5 5 5 5 5 5 5 5 5 5 5 5 5 5 5 5 5 5 5 5 5 5 5 5 5 5 5 5 5 5 5 5 5 5 5 5 5 5 5 5 5 5 5 5 5 5 5 5 5 5 5 5 5 5 5 5 5 5 5 5 5 5 5 5 5 5 5 5 5 5 5 5 5 5 5 5 5 5 5 5 5 5 5 5 5 5 5 5 5 5 5 5 5 5 5 5 5 5 5 5 5 5 5 5 5 5 5 5 5 5 5 5 5 5 5 5 5 5 5 5 5 5 5 5 5 5 5 5 5 5 5 5 5 5 5 5 5 5 5 5 5 5 5 5 5 5 5 5 5 5 5 5 5 5 5 5 5 5 5 5 5 5 5 5 5 5 5 5 5 5 5 5 5 5 5 5 5 5 5 5 5 5 5 5 5 5 5 5 5 5 5 5 5 5 5 5 5 5 5 5 5 5 5 5 5 5 5 5 5 5 5 5 5 5 5 5 5 5 5 5 5 5 5 5 5 5 5 5 5 5 5 5 5 5 5 5 5 5 5 5 5 5 5 5 5 5 5 5 5 5 5 5 5 5 5 5 5 5 5 5 5 5 5 5 5 5 5 5 5 5 5 5 5 5 5 5 5 5 5 5 5 5 5 5 5 5 5 5 5 5 5 5 5 5 5 5 5 5 5 5 5 5 5 5 5 5 5 5 5 5 5 5 5 5 5 5 5 5 5 5 5 5 5 5 5 5 5 5 5 5 5 5 5 </DataArray>
</Cells>
<PointData  Scalars=" mean stress"> 
<DataArray  type="Float64"  Name=" mean stress"  format="ascii">1.3821584868327882e+09  1.3889207046132872e+09  1.3646884751250319e+09  1.5090029244616606e+09  1.4913763800107427e+09  1.5078084464715281e+09  1.6114616176880984e+09  1.6221315687790146e+09  1.6099274599914393e+09  1.3713931608002996e+09  1.5127334404303801e+09  1.5146841647209911e+09  1.4984636878333776e+09  1.4934301089550786e+09  1.4742447286604638e+09  1.4762580160253456e+09  1.4954227112311561e+09  1.3833747890080378e+09  1.3878433410403266e+09  1.3623645565621054e+09  1.4382934291630514e+09  1.4299499212823150e+09  1.4139336508943748e+09  1.4760659262477794e+09  1.4691358887404687e+09  1.4873948670204120e+09  1.5011083892650619e+09  1.3813652230630670e+09  1.3619748009710286e+09  1.3606634280413816e+09  1.4243247977482364e+09  1.5281113507202692e+09  1.5058641998227034e+09  1.4881412523542745e+09  1.4925481745806375e+09  1.4577344260761905e+09  1.6020174193511901e+09  1.5947756757127795e+09  1.5094016545726159e+09  1.5205349375569184e+09  1.4984357890156779e+09  1.4810417913369873e+09  1.4836649401521401e+09  1.5233400229229138e+09  1.6011416378360288e+09  1.4768191148149712e+09  1.4741576123383522e+09  1.4730779025495713e+09  1.4013866145542295e+09  1.3981120708686712e+09  1.4184087239502134e+09  1.6247202768338146e+09  1.5509218329723349e+09  1.5377953535740604e+09  1.5375998692821691e+09  1.4590608954227216e+09  1.4804957175418611e+09  1.4750119617978988e+09  1.4747045924578986e+09  1.4152815531940570e+09  1.5307224150132167e+09  1.5341616923860209e+09  1.5184389487732453e+09  1.5737557322639043e+09  1.5865705102206135e+09  1.5747798228587623e+09  1.4611074032319090e+09  1.4523604688707168e+09  1.3409927362529182e+09  1.4375527906850064e+09  1.5233507764513459e+09  1.5897423091887722e+09  1.5764737116278651e+09  1.5878038314161024e+09  1.4848356561625273e+09  1.4046748458299198e+09  1.5495649296412716e+09  1.5484824949432435e+09  1.5326392147177343e+09  1.4903121640972991e+09  1.4534169295098405e+09  1.4314575125002849e+09  1.4421197100895040e+09  1.6209554221119306e+09  1.4340478476585352e+09  1.5391723316493533e+09  1.4187850132009521e+09  1.4184758010128133e+09  1.4388507286837804e+09  1.4573827199875505e+09  1.4036565605918307e+09  1.4100356113651874e+09  1.3387993984951339e+09  1.4931291880784879e+09  1.5019355930634458e+09  1.3997642214458466e+09  1.4389109078322582e+09  1.5217746946221099e+09  1.5136006817584977e+09  1.4848019248509228e+09  1.4936258717583711e+09  1.4422419328653033e+09  1.5626774801304445e+09  1.5640061190689583e+09  1.5413134776252587e+09  1.5399469091516495e+09  1.5541850277658501e+09  1.5035556665096884e+09  1.6103272514370050e+09  1.4632319446016223e+09  1.5946533796068888e+09  1.6065593491277902e+09  1.5963329642744868e+09  1.4211698241630414e+09  1.5549806578082380e+09  1.5686098232614574e+09  1.5561564982887275e+09  1.5429556979026399e+09  1.4201619187944882e+09  1.4002330548024073e+09  1.4391806269601893e+09  1.4587787108304718e+09  1.4541293915911124e+09  1.3386373900597146e+09  1.4219039357086489e+09  1.4038574864612622e+09  1.3951216566050613e+09  1.3756107647077496e+09  1.3945181892630682e+09  1.3802650207075720e+09  1.4415392284492586e+09  1.4234431870058694e+09  1.3381463523163366e+09  1.3594952661326199e+09  1.5247992354924221e+09  1.5391345233485680e+09  1.5241960367763219e+09  1.4605252436869507e+09  1.5228692041705952e+09  1.5833188203232875e+09  1.5839021098826478e+09  1.3750809788775110e+09  1.5266416705342927e+09  1.5246051682457318e+09  1.5794866341811068e+09  1.5732259780742183e+09  1.6176933581091032e+09  1.6303438479589002e+09  1.5038449543305967e+09  1.3786863158316236e+09  1.5690951161354046e+09  1.5348509017832370e+09  1.6078699490638790e+09  1.3783740309989266e+09  1.5880911881603398e+09  1.5723409384506748e+09  1.5851165736195481e+09  1.4383876678325629e+09  1.5400388199552417e+09  1.5319787194229562e+09  1.5323283956623373e+09  1.5456243765792947e+09  1.4479703364013891e+09  1.4658237568932910e+09  1.4484129451768963e+09  1.5558909674597054e+09  1.3986020285298073e+09  1.3485219775955579e+09  1.5075244532050254e+09  1.5100969255682487e+09  1.5822961022876489e+09  1.5701522162125497e+09  1.5171955448681920e+09  1.6189501876474280e+09  1.6201924009334843e+09  1.6090724438923309e+09  1.5118077571436832e+09  1.5614275030188923e+09  1.5712283945879970e+09  1.4134671365171270e+09  1.4318124162776225e+09  1.3931259681731434e+09  1.4676300466596100e+09  1.5602024930578725e+09  1.6002290536951275e+09  1.4587401082047186e+09  1.5446683005400474e+09  1.5087248241345527e+09  1.5572375733326259e+09  1.4931711306345596e+09  1.5494826502218995e+09  1.5351576285613399e+09  1.5476018204356999e+09  1.5333169884989965e+09  1.4625687596670473e+09  1.4479640495221729e+09  1.3556864688304589e+09  1.3603708629349968e+09  1.5194160279268045e+09  1.4498343649667892e+09  1.4662045947875896e+09  1.4825304162573121e+09  1.4968454514202700e+09  1.4322527707401295e+09  1.4133443406087949e+09  1.5462265763061113e+09  1.5592317694646316e+09  1.3743818078763738e+09  1.5974580310362186e+09  1.5987581658297396e+09  1.4228180133066881e+09  1.5584176756274440e+09  1.3373479634571190e+09  1.5457320556587958e+09  1.4912827810999908e+09  1.3244724354328463e+09  </DataArray> 
</PointData> 
</Piece>
</UnstructuredGrid>
</VTKFile>