<?xml version="1.0"?>
<VTKFile type="UnstructuredGrid"  version="0.1"  >
<UnstructuredGrid>
<Piece  NumberOfPoints="209" NumberOfCells="360">
<Points>
<DataArray  type="Float64"  NumberOfComponents="3"  format="ascii">0.01270055921712587 -0.07418008969777418 0  0.007734749049556244 -0.07384029128207911 0  0.01122456197370422 -0.07010950061676774 0  0.009291733137573185 -0.07899698679348421 0  0.004029351128667712 -0.0815333502327979 0  0.003892554168009436 -0.0768601741560048 0  0.008948337878418006 -0.04470258805511531 0  0.005571217434666091 -0.04481144570061848 0  0.007647694580469214 -0.04210559286187378 0  0.02172796942054589 -0.04406746570171968 0  0.01823517537244189 -0.04463338029281107 0  0.01931794078141008 -0.04218381796177129 0  0.02015067500125175 -0.04731225289879461 0  0.0375978283489409 -0.0721738153655534 0  0.03369231357562902 -0.06810914151612879 0  0.03777363597634591 -0.06726932422989565 0  0.03213354875312643 -0.07279524778850611 0  0 -0.1 0  0.006473240939257337 -0.09431067881898053 0  0.009999999999999995 -0.1 0  0.01500759671486957 -0.09193032701368048 0  0.01989523220542124 -0.08358631088189528 0  0.02409629969136109 -0.09155849102570193 0  0.006897127358760319 -0.06948447142264219 0  0.002970650524898356 -0.05656631819955903 0  0.005889157180149301 -0.05449257041103582 0  0.006223268745726741 -0.05868053400586455 0  0.01549222328131493 -0.0625941657439531 0  0.01950106012973645 -0.06099897534912258 0  0.0177217593319486 -0.06598175879928873 0  0.007386348073931476 -0.04762473285303474 0  0.02845457792833278 -0.05986429477888826 0  0.03156942001723883 -0.05683546093013915 0  0.03284570565609945 -0.06025896894946932 0  0.028624332158658 -0.05614320194952881 0  0.008675778633705139 -0.03329598819344896 0  0.006449280077515399 -0.0347933585165721 0  0.006175988647012919 -0.03243267647316335 0  0.00869403857365662 -0.03582210148119672 0  0.02 -0.1 0  0.01286810112106606 -0.08416359041573207 0  0.008700291783503147 -0.0559485118154326 0  0.01561325586371225 -0.07838704293380579 0  0.02419243091066598 -0.07808067200071511 0  0.02745511195059643 -0.08392277558135516 0  0.03515576654933434 -0.06386617406017339 0  0.03715986919600441 -0.06030228318522689 0  0.04475709803309115 -0.06014672953653302 0  0.04270858733031148 -0.05684736655248521 0  0.04675236858254128 -0.0565077619174409 0  0.009009156763327617 -0.05016955245924593 0  0.005797053239387551 -0.05080616221530177 0  0.03521546753672618 -0.05701197263839745 0  0.02889723833448046 -0.06845607220922992 0  0.02677363599421406 -0.0731858161756945 0  0.004811705083911474 -0.04784197415604804 0  0.03016808485228364 -0.07795757857951965 0  0.03059586349154608 -0.06409421544341427 0  0.004928081129411212 -0.04153639382620594 0  0.007944213140196256 -0.08401273527523999 0  0.02208042022562453 -0.05706027503343655 0  0.01863613243623755 -0.05646219156963289 0  0.01668387437200925 -0.05917914950803994 0  0.04247609467951356 -0.07141260914163314 0  0.04196463168910167 -0.06725290720610384 0  0.0462028998095191 -0.06810369688955817 0  0.02185608437631156 -0.06490175850566648 0  0.03162688844048103 -0.08969771114664225 0  0.02999999999999998 -0.1 0  0.03580030172574439 -0.07727155146172394 0  0.0338016579980135 -0.08286713016030577 0  0.01983643736025483 -0.07738470251216562 0  0.04698031800709437 -0.06400788371906277 0  0.04323780326192851 -0.06344584588738374 0  0.02196757203003456 -0.07326977264799825 0  0.02419238082906422 -0.06885601987530676 0  0.04788102539484254 -0.06012516314986315 0  0.03714212740725442 -0.09376897781892302 0  0.02617067805316583 -0.06448258447505902 0  0.004543265374346937 -0.03881322489456302 0  0.004293426327567622 -0.03620777067890626 0  0.006664515593302788 -0.03726255663568408 0  0.04654642618500517 -0.07256451232733199 0  0.04191436992534958 -0.08900786082770618 0  0.04501193114196415 -0.09325784779513284 0  0.03999999999999999 -0.1 0  0.01683133518468158 -0.04736349896995465 0  0.02403692688470872 -0.06081352828384041 0  0.02572048479186493 -0.05678433919805648 0  0.04080630504610956 -0.07605274320039712 0  0.03906285489005771 -0.08103913747090205 0  0.002566588374160229 -0.04330174605790554 0  0.02144144602916474 -0.04121172548521328 0  0.02383587790280271 -0.05357461250510945 0  0.02540055735626316 -0.05042338850510797 0  0.02713187728061182 -0.05352510881840344 0  0.0202282484583953 -0.05347014041650015 0  0.02201505041274248 -0.05036168685255393 0  0.02378488401090785 -0.0473124504031799 0  0.002224186013515837 -0.03765245636883344 0  0.002397303218288665 -0.04038030958754091 0  0 -0.03900432974099029 0  0.002568257487355292 -0.04637664710413451 0  0 -0.04479902149702007 0  0.002735649184216971 -0.0495908829071507 0  0.00291491539548893 -0.05289756920308655 0  0 -0.0511876690984656 0  0.02542945591489349 -0.04433041803765904 0  0.02722224241537905 -0.04717635269015489 0  0.04112788084412096 -0.06011779087533618 0  0 -0.04183100864981863 0  0 -0.04791543496389521 0  0 -0.05462351495109712 0  0.01863648347255292 -0.05018117997170266 0  0.0395028092098734 -0.06368329314580859 0  0.01213567139721363 -0.03973176287968593 0  0.009429744523367586 -0.03976230064003106 0  0.01082091793227899 -0.03722956038258323 0  0.008071202492215122 -0.06245758591913046 0  0.009930725215470317 -0.05931835474019918 0  0.01352467066419159 -0.03306441512897117 0  0.01450434875506964 -0.03098904238631052 0  0.01582718781375506 -0.03303418460630125 0  0.01064586600264369 -0.04216944727508358 0  0 -0.03631225459476947 0  0 -0.06599659424763628 0  0.003395908129391275 -0.06806867338678066 0  0 -0.07017288639418245 0  0.05 -0.07017288639920882 0  0.05 -0.06599659425752613 0  0 -0.05823115310089969 0  0.002904654700542384 -0.06397547298275948 0  0 -0.06201917316632072 0  0.009730772769995901 -0.06619032227154296 0  0.002775104395678463 -0.0601251631336102 0  0.01365944614235432 -0.04738789960633449 0  0.01497776809910084 -0.04468622496692574 0  0.002083706702865756 -0.03503246760701612 0  0.01492353653821723 -0.0397674959464323 0  0.01608744587143791 -0.03739665929269556 0  0.01755188389351407 -0.03965168917751847 0  0.006011514005563063 -0.06531441345172645 0  0.01481992645945286 -0.03519717497850364 0  0.01640536374766118 -0.04218702125770043 0  0.03772082177547671 -0.08671561978825811 0  0.01533976167640996 -0.05016279294045244 0  0.04659344683675115 -0.07681307925697438 0  0.05 -0.07455799313053731 0  0.01984935137423693 -0.0693513081208275 0  0.007806161290710635 -0.03072856398038102 0  0.0200776060672972 -0.03934623447091577 0  0.01167027244139909 -0.0626781850400082 0  0.01713719912331498 -0.03514515576549119 0  0 -0.07455799313088532 0  0.003614501342802119 -0.07230350227124445 0  0.03904795488448115 -0.05702535087988621 0  0.02847956048214733 -0.05068838354451167 0  0 -0.07916235518112424 0  0.05 -0.07916235517485178 0  0.01054232336619164 -0.04736212718008209 0  0.01364903226484186 -0.05308056361025389 0  0.01051522497259292 -0.05300372405817826 0  0.01207563253589783 -0.05015864527152157 0  0.01207974139796981 -0.04473040859392181 0  0.009240339352780787 -0.08883465902017618 0  0.01361284769988931 -0.05935915210898828 0  0.01192990155984765 -0.05610013011106274 0  0.01122573616318295 -0.03302013525226916 0  0.01003936067858333 -0.03103871080303777 0  0.01353228593986418 -0.04220164861768892 0  0.01229251936993432 -0.03103439072551432 0  0.01119480656423227 -0.02906712238581637 0  0.01353610726441472 -0.03740990674932276 0  0.01240881083370479 -0.03514642061219576 0  0.01341365734258871 -0.0290869573448882 0  0.01235891286343468 -0.02721081986257282 0  0.004108635404351291 -0.03374611768176086 0  0.05 -0.08399693531806585 0  0.0464250214267246 -0.08159278813914594 0  0.01453714258019843 -0.02719427253954976 0  0.01560145096177221 -0.02907636160689861 0  0 -0.08399693533085423 0  0.004291540960893531 -0.08653508991400961 0  0 -0.08907324449716499 0  0.05 -0.0890732444772248 0  0.04602702066114506 -0.08655148232833468 0  0.04459641319191091 -0.06570258342552712 0  0.007829922625105599 -0.05261547104713506 0  0.01534926324245495 -0.05622216744949619 0  0.03995304767347551 -0.0695271639857965 0  0.005102667823797754 -0.06181425480328262 0  0.01366735886956216 -0.06621110214413711 0  0.05 -0.06201917318059941 0  0.0104187221217465 -0.03483285125964471 0  0.01693324010815366 -0.05317545253241244 0  0.05 -0.05823115311912687 0  0.01555346656289008 -0.06983301606608697 0  0.01855262293191142 -0.03719465695368804 0  0.008748689248720101 -0.03776768617194931 0  0.007006889318351323 -0.03953225599655477 0  0.04315262907074735 -0.07911997545157957 0  0.004591509567893649 -0.09069571773850996 0  0 -0.09440336914151665 0  0.05 -0.09440336911374125 0  0.01751369579144015 -0.07359971409641368 0  0.04277703199170405 -0.08391290130506943 0  0.043982392486501 -0.07455217741177753 0  0.03024530077524162 -0.05370680602215669 0  0.05 -0.1 0  </DataArray>
</Points>
<Cells>
<DataArray  type="UInt32"  Name="connectivity"  format="ascii">2 0 1  5 3 4  6 8 7  9 11 10  9 12 10  15 13 14  16 13 14  17 19 18  22 20 21  2 23 1  24 26 25  27 29 28  6 30 7  31 33 32  31 32 34  35 37 36  35 36 38  39 22 20  20 21 40  26 25 41  21 40 42  21 44 43  46 45 33  49 47 48  30 51 50  52 46 33  54 53 16  3 0 1  40 42 3  30 51 55  44 43 56  53 16 14  45 57 33  8 7 58  3 4 59  60 61 28  5 3 1  43 56 54  62 61 28  56 54 16  22 21 44  65 63 64  66 29 28  68 22 67  39 19 20  62 27 28  56 70 69  56 69 16  19 20 18  42 3 0  21 43 71  45 57 14  73 47 72  21 42 71  54 74 75  47 72 76  68 67 77  43 54 74  52 33 32  75 53 78  68 39 22  81 79 80  65 63 82  84 77 83  85 84 77  86 12 10  54 75 53  78 66 87  87 31 88  69 90 89  69 16 13  91 7 58  9 11 92  88 60 93  44 56 70  13 89 63  93 95 94  78 87 31  93 97 96  94 97 98  101 99 100  103 91 102  106 104 105  98 108 107  75 78 66  70 69 90  109 47 48  87 88 60  30 7 55  36 81 80  110 101 100  111 103 102  112 106 105  86 12 113  60 93 96  88 93 95  94 98 108  53 57 14  93 94 97  53 78 57  114 73 64  31 57 33  98 107 9  91 102 7  104 105 51  97 96 113  117 115 116  119 118 26  109 73 47  97 98 12  120 122 121  115 123 116  101 124 99  127 125 126  129 128 65  130 112 24  103 110 91  106 111 104  44 70 67  36 38 81  110 91 100  111 104 102  112 24 105  125 126 131  123 6 8  125 132 131  133 2 23  24 105 25  24 26 134  91 100 58  78 31 57  99 100 79  69 13 89  123 8 116  135 86 136  124 99 137  138 140 139  133 23 141  97 12 113  120 142 122  98 9 12  114 15 64  138 143 140  70 144 67  119 26 41  135 145 86  147 146 82  87 60 28  75 66 148  35 37 149  99 79 80  129 65 72  31 88 34  102 7 55  140 11 150  119 151 118  109 114 73  142 122 152  66 29 148  153 5 154  155 109 48  94 108 156  157 153 5  147 158 146  143 140 11  153 127 154  155 46 109  40 3 59  132 131 134  105 51 25  6 159 30  145 86 113  162 160 161  123 163 6  128 147 82  20 40 164  166 165 119  168 167 35  115 169 123  171 170 168  49 47 76  173 172 117  130 24 134  175 174 171  176 37 36  158 177 178  170 167 120  179 174 180  183 181 182  177 184 185  172 115 138  65 64 186  120 173 142  161 41 187  181 157 4  163 159 135  151 118 133  163 6 159  100 79 58  126 154 23  138 169 143  127 126 154  170 168 167  46 109 114  135 162 145  172 117 115  176 137 80  165 119 151  169 123 163  174 171 170  167 120 173  160 161 166  175 179 174  160 166 188  15 13 189  162 161 50  159 135 162  173 142 172  115 138 169  155 52 46  162 145 160  176 36 80  99 137 80  188 165 62  142 152 139  46 114 45  118 141 190  86 136 10  151 133 191  159 30 50  166 188 165  128 65 82  192 129 72  117 38 193  126 23 141  188 194 61  172 138 139  104 51 55  131 141 190  45 15 14  170 120 121  142 172 139  133 191 2  195 49 76  114 45 15  96 113 194  22 44 67  191 2 196  158 146 178  35 38 193  161 166 41  11 150 92  140 139 197  174 180 121  163 135 136  159 162 50  25 41 187  85 68 77  169 143 136  181 182 4  96 194 61  157 5 4  132 130 134  191 196 29  174 170 121  169 163 136  177 185 178  2 196 0  70 90 144  145 113 194  160 188 194  151 191 27  165 62 27  165 151 27  143 11 10  173 117 193  74 75 148  192 72 76  143 136 10  81 199 198  152 139 197  90 89 200  5 154 1  202 183 201  184 203 84  79 58 199  13 63 189  166 119 41  154 23 1  191 27 29  66 87 28  116 199 198  168 35 149  42 0 204  167 35 193  145 160 194  81 79 199  8 58 199  8 116 199  95 94 156  118 133 141  126 131 141  117 38 198  104 102 55  60 96 61  51 50 187  117 116 198  90 144 205  89 63 206  183 182 201  184 185 84  144 67 77  73 64 186  195 192 76  188 62 61  65 72 186  131 134 190  196 29 148  43 74 71  182 201 164  95 156 207  146 82 206  196 148 204  88 95 34  118 26 190  182 164 59  144 77 83  161 50 187  38 81 198  146 200 206  89 200 206  74 148 204  51 25 187  182 4 59  167 173 193  144 205 83  40 164 59  140 197 150  42 204 71  15 64 189  146 178 200  196 0 204  63 64 189  90 200 205  185 178 205  178 200 205  20 164 18  73 72 186  26 134 190  185 205 83  63 82 206  201 164 18  95 207 34  185 84 83  32 207 34  74 204 71  208 203 84  208 85 84  17 202 18  202 201 18  </DataArray>
<DataArray  type="UInt32"  Name="offsets"  format="ascii">3 6 9 12 15 18 21 24 27 30 33 36 39 42 45 48 51 54 57 60 63 66 69 72 75 78 81 84 87 90 93 96 99 102 105 108 111 114 117 120 123 126 129 132 135 138 141 144 147 150 153 156 159 162 165 168 171 174 177 180 183 186 189 192 195 198 201 204 207 210 213 216 219 222 225 228 231 234 237 240 243 246 249 252 255 258 261 264 267 270 273 276 279 282 285 288 291 294 297 300 303 306 309 312 315 318 321 324 327 330 333 336 339 342 345 348 351 354 357 360 363 366 369 372 375 378 381 384 387 390 393 396 399 402 405 408 411 414 417 420 423 426 429 432 435 438 441 444 447 450 453 456 459 462 465 468 471 474 477 480 483 486 489 492 495 498 501 504 507 510 513 516 519 522 525 528 531 534 537 540 543 546 549 552 555 558 561 564 567 570 573 576 579 582 585 588 591 594 597 600 603 606 609 612 615 618 621 624 627 630 633 636 639 642 645 648 651 654 657 660 663 666 669 672 675 678 681 684 687 690 693 696 699 702 705 708 711 714 717 720 723 726 729 732 735 738 741 744 747 750 753 756 759 762 765 768 771 774 777 780 783 786 789 792 795 798 801 804 807 810 813 816 819 822 825 828 831 834 837 840 843 846 849 852 855 858 861 864 867 870 873 876 879 882 885 888 891 894 897 900 903 906 909 912 915 918 921 924 927 930 933 936 939 942 945 948 951 954 957 960 963 966 969 972 975 978 981 984 987 990 993 996 999 1002 1005 1008 1011 1014 1017 1020 1023 1026 1029 1032 1035 1038 1041 1044 1047 1050 1053 1056 1059 1062 1065 1068 1071 1074 1077 1080 </DataArray>
<DataArray  type="UInt8"  Name="types"  format="ascii">5 5 5 5 5 5 5 5 5 5 5 5 5 5 5 5 5 5 5 5 5 5 5 5 5 5 5 5 5 5 5 5 5 5 5 5 5 5 5 5 5 5 5 5 5 5 5 5 5 5 5 5 5 5 5 5 5 5 5 5 5 5 5 5 5 5 5 5 5 5 5 5 5 5 5 5 5 5 5 5 5 5 5 5 5 5 5 5 5 5 5 5 5 5 5 5 5 5 5 5 5 5 5 5 5 5 5 5 5 5 5 5 5 5 5 5 5 5 5 5 5 5 5 5 5 5 5 5 5 5 5 5 5 5 5 5 5 5 5 5 5 5 5 5 5 5 5 5 5 5 5 5 5 5 5 5 5 5 5 5 5 5 5 5 5 5 5 5 5 5 5 5 5 5 5 5 5 5 5 5 5 5 5 5 5 5 5 5 5 5 5 5 5 5 5 5 5 5 5 5 5 5 5 5 5 5 5 5 5 5 5 5 5 5 5 5 5 5 5 5 5 5 5 5 5 5 5 5 5 5 5 5 5 5 5 5 5 5 5 5 5 5 5 5 5 5 5 5 5 5 5 5 5 5 5 5 5 5 5 5 5 5 5 5 5 5 5 5 5 5 5 5 5 5 5 5 5 5 5 5 5 5 5 5 5 5 5 5 5 5 5 5 5 5 5 5 5 5 5 5 5 5 5 5 5 5 5 5 5 5 5 5 5 5 5 5 5 5 5 5 5 5 5 5 5 5 5 5 5 5 5 5 5 5 5 5 5 5 5 5 5 5 5 5 5 5 5 5 5 5 5 5 5 5 5 5 5 5 5 5 </DataArray>
</Cells>
<PointData  Scalars=" mean stress"> 
<DataArray  type="Float64"  Name=" mean stress"  format="ascii">6.7356192960013390e+07  6.7367896543352529e+07  6.7400764319706008e+07  6.7346361701735258e+07  6.7348124590613231e+07  6.7360796866454303e+07  8.1558946847504005e+07  8.1430761614315420e+07  8.9028571273357272e+07  8.2706857963112488e+07  8.1188207075569719e+07  8.9740658609637290e+07  7.6538391339176163e+07  6.7356242604890183e+07  6.7419216775442347e+07  6.7452373537161440e+07  6.7347327613760650e+07  6.7333310386140063e+07  6.7335411620548993e+07  6.7331274399306551e+07  6.7331319863523692e+07  6.7328145373681679e+07  6.7326122657683477e+07  6.7425375242655814e+07  6.8874831841524631e+07  6.9592804535028994e+07  6.8332274947194099e+07  6.7713386511665627e+07  6.7901958947116762e+07  6.7507867636566624e+07  7.5869488351247475e+07  6.8035088345246494e+07  6.8735215330027446e+07  6.7973407885644183e+07  6.8966003471994519e+07  1.4956155356195480e+08  1.3242941574345487e+08  1.5957246427259734e+08  1.2489865971691370e+08  6.7329054189753979e+07  6.7336198528287321e+07  6.9060377577022597e+07  6.7336990201637045e+07  6.7326544845059514e+07  6.7322544519944116e+07  6.7615064511026740e+07  6.7986999661952764e+07  6.8039808227104351e+07  6.8755890659924582e+07  6.8890450568886131e+07  7.2763986248196825e+07  7.2080441694711030e+07  6.8649824088689744e+07  6.7405487098725498e+07  6.7343240477373362e+07  7.5436798075012386e+07  6.7324825211961716e+07  6.7601786754122525e+07  9.0850208914434984e+07  6.7342498182027981e+07  6.8620801332797334e+07  6.8834805021790683e+07  6.8228906036185756e+07  6.7369787368766189e+07  6.7466023309010491e+07  6.7426611578417927e+07  6.7538396158815324e+07  6.7323062033405215e+07  6.7326750073245525e+07  6.7328060139101833e+07  6.7321717230855912e+07  6.7332159493613884e+07  6.7643023330398962e+07  6.7668057524356216e+07  6.7345777615022033e+07  6.7397985845215708e+07  6.8055574946559533e+07  6.7325012184511125e+07  6.7573210402134761e+07  1.0390951504294309e+08  1.2127833171184623e+08  1.1359709910389993e+08  6.7366658713213995e+07  6.7323853479551792e+07  6.7325599053613514e+07  6.7327162063558519e+07  7.6271525547453314e+07  6.7902285466323048e+07  6.8727413459426463e+07  6.7334691194473356e+07  6.7323800101242051e+07  8.5349184452552974e+07  9.2721729715602592e+07  7.0015094237973526e+07  7.2382694888193846e+07  7.0160666896457404e+07  7.0150321110173047e+07  7.2407999827709913e+07  7.6452374796005040e+07  1.1110933496261723e+08  9.6121176910390079e+07  1.0302615376153746e+08  7.7807794815116972e+07  8.1272719691580206e+07  7.3341119078640088e+07  7.0457251241140649e+07  7.1684969443135515e+07  8.2328041880369008e+07  7.6400288367898121e+07  6.8019849546225071e+07  9.0035425789176762e+07  7.5426712150128216e+07  6.9604788991428301e+07  7.2524084115201846e+07  6.7628394246316016e+07  9.8986177895693615e+07  9.8955599776716396e+07  1.1329689436449550e+08  6.7763351367311150e+07  6.8164618497918293e+07  1.5075700887197626e+08  1.7714946526355076e+08  1.5111802097468394e+08  8.8836667553243279e+07  1.2051605974398780e+08  6.7540144258047849e+07  6.7470779655479908e+07  6.7424805678633586e+07  6.7398586420812070e+07  6.7519479550865889e+07  6.8402616062607408e+07  6.7655958326360941e+07  6.7830727502895162e+07  6.7506389215740591e+07  6.8040969834723890e+07  7.6131916848661646e+07  8.1517949520214051e+07  1.3104088774315119e+08  9.8899500137521833e+07  1.1270107002578147e+08  9.9336779716539875e+07  6.7565240492388979e+07  1.2941516955230692e+08  8.8777571651021019e+07  6.7322167239937544e+07  7.2626977997070462e+07  6.7336784584136173e+07  6.7347118064456329e+07  6.7393823821445271e+07  1.7966706407356432e+08  1.0103437522786774e+08  6.7739901102808878e+07  1.3041525940027377e+08  6.7374424482789829e+07  6.7390776053366259e+07  6.8652331190840706e+07  7.2182786551204354e+07  6.7354920775144845e+07  6.7332586300235778e+07  7.6302607896355003e+07  7.0392966174397856e+07  7.0430428212184906e+07  7.2694592488025948e+07  8.1339225269423872e+07  6.7338049025505319e+07  6.8158030422496706e+07  6.8972284601788551e+07  1.5231807049097240e+08  1.7550124167849380e+08  8.8614200162674591e+07  1.7634916618225521e+08  2.0821702366080245e+08  1.1222810845544416e+08  1.3039979346176682e+08  2.0771548446884093e+08  2.4254251143807754e+08  1.4353779991831693e+08  6.7326613525801316e+07  6.7327690209568068e+07  2.4377278310402262e+08  2.0793644218652061e+08  6.7346783554684684e+07  6.7342793602384493e+07  6.7341381031095251e+07  6.7325446733298138e+07  6.7324966847723886e+07  6.7516138264270619e+07  7.0511109018508300e+07  6.8985783324699819e+07  6.7396768364170611e+07  6.7821843117866263e+07  6.7508553982360452e+07  6.7832045965469897e+07  1.3206925924550752e+08  7.0354517068604305e+07  6.8386344158437595e+07  6.7391751013581932e+07  1.1361003103927942e+08  1.0893289821823274e+08  9.9863653098742336e+07  6.7329203095600188e+07  6.7339478970655635e+07  6.7338819970807299e+07  6.7325473052545324e+07  6.7350545462110534e+07  6.7324243263091579e+07  6.7342772532079130e+07  7.0054556271519765e+07  6.7327106424921021e+07  </DataArray> 
</PointData> 
</Piece>
</UnstructuredGrid>
</VTKFile>