<?xml version="1.0"?>
<VTKFile type="UnstructuredGrid"  version="0.1"  >
<UnstructuredGrid>
<Piece  NumberOfPoints="220" NumberOfCells="378">
<Points>
<DataArray  type="Float64"  NumberOfComponents="3"  format="ascii">0.04019747946685368 -0.001086670193169804 0  0.03936662953581426 -0.001157104174497568 0  0.03960937791880317 -0.0005573779533750087 0  0.04076971547154577 -0.0005523250007232958 0  0.04105301007033239 -0.001135301315430486 0  0.03980666493406866 -0.001815103836952478 0  0.04065376356675428 -0.001776232955564901 0  0.04459836880216866 -0.002067313879107212 0  0.0442327954922319 -0.001337448354123597 0  0.04493102270910126 -0.001435211124537587 0  0.04399826710237613 -0.002001460924074057 0  0.03852516085227761 -0.001270114081917871 0  0.03841786564047907 -0.002065350346407875 0  0.03796889366496132 -0.001616204131016728 0  0.04645872910779643 -0.0005726402925699189 0  0.04712275909989703 -0.0005691086681621979 0  0.0465642881242285 -0.00130994018667225 0  0.03905460932553981 -0.001838273346093038 0  0.03774659854643497 -0.001099199086073116 0  0.03823083950490277 -0.0005468938524916742 0  0.04369317306442165 -0.001585556468611013 0  0.04494833083361396 -0.00284107773203441 0  0.0440253127040582 -0.00281159102587112 0  0.04732001263931257 -0.001203607399845485 0  0.04842359424815347 -0.002502613833692498 0  0.04922868739287138 -0.002216717137695987 0  0.04915796303231687 -0.003147868123058582 0  0.03551789968272698 -0.009667755859504128 0  0.0356307838150859 -0.008621420394622097 0  0.03672623991709251 -0.008904057001160814 0  0.0330429307876775 -0.003309212510481205 0  0.03408573763580786 -0.003088649364757952 0  0.03361990061127287 -0.0038859002573906 0  0.03332688994188299 -0.002585861704359385 0  0.04471456828011758 -0.0006733054024164117 0  0.04535621934645295 -0.0009958254164772126 0  0.0377806768997378 -0.008551605697265478 0  0.03792734900164401 -0.009579023616596856 0  0.0475397262565007 -0.002623705518613899 0  0.04827041132769071 -0.003375611660865883 0  0.04725828736504947 -0.003450056460347337 0  0.03654724609915986 -0.001660342302174829 0  0.03618281758211835 -0.002318759941612 0  0.03573385667328964 -0.001682992451990925 0  0.03675233552801341 -0.009958067029993203 0  0.04901013245076558 -0.0005465068579371887 0  0.0495318527135359 -0.0005353041420179949 0  0.04928204250931896 -0.001253551398748894 0  0.04247887526105258 -0.005355210281092648 0  0.0413831534344385 -0.005580566800612481 0  0.04171185041621334 -0.004656659714660685 0  0.03872833966560157 -0.00658693411082497 0  0.038322633191685 -0.007641585040848976 0  0.03770098871411064 -0.006920181797861837 0  0.03420909090604814 -0.00976747347633506 0  0.03460513048047086 -0.008764775840016524 0  0.03395455866850851 -0.00231967609303569 0  0.03459876111940739 -0.007008280605188752 0  0.03514738606723859 -0.007869231460561413 0  0.03377903162675696 -0.007778185861152968 0  0.03695643671834181 -0.0009999629736137314 0  0.03607594936708872 -0.001125572377009845 0  0.03642949305137719 -0.0005190543160617442 0  0.04019126393852913 -0.0004392746294536176 0  0.0375760808398555 -0.000525574313076288 0  0.03700252870419339 -0.0004089183205503583 0  0.04448022139387274 -0.003661734733695993 0  0.04573736989857526 -0.001491896561847249 0  0.04617228816666556 -0.002012189083175644 0  0.04203268617278043 -0.006439012892548182 0  0.03336699633548909 -0.008766546744931776 0  0.03418198252850174 -0.001665221938049015 0  0.03469755558904315 -0.00107651191973366 0  0.03491732573557167 -0.00168552845416263 0  0.03796737813705638 -0.006226522895590274 0  0.03804867065949944 -0.004896062205089743 0  0.03756669407084877 -0.004240272880745265 0  0.03857965344735901 -0.004041778283572918 0  0.04240614560337187 -0.004415535690023127 0  0.03453619881991835 -0.003834496228326441 0  0.04606139451517277 -0.001015706758231913 0  0.04219263970986209 -0.00167190133833716 0  0.04188137643698843 -0.002368368766989995 0  0.04145567863933571 -0.001736168746510579 0  0.03534929840676568 -0.002352617445322731 0  0.0335813732379819 -0.001166925490484874 0  0.03415743880436477 -0.0009721478584289456 0  0.03790722442319046 -0.003557436736387261 0  0.04108145769736248 -0.002426776485034157 0  0.04026982858161969 -0.002487343262705742 0  0.04044996759862814 -0.007457201086961372 0  0.03937223835498987 -0.00752373835643276 0  0.0398980161454176 -0.006533792723301464 0  0.03410188719132665 -0.004624027341509025 0  0.05 -0.0008764624534039011 0  0.05 -0.002763047819002842 0  0.03579931054111686 -0.00303185293187698 0  0.03352830139085315 -0.001890061037911145 0  0.03575110769004942 -0.0005338595621537795 0  0.03535563410157737 -0.001078210950589242 0  0.05 0 0  0.04527862369370964 -0.0004567110822509129 0  0.0431060982416087 -0.004598874936660717 0  0.04359680887666913 -0.005431959960850788 0  0.04072864071638426 -0.003187314688902612 0  0.04305092528254467 -0.0009380575795749843 0  0.04356089882500697 -0.001085458336288668 0  0.04303100777301805 -0.001556743926520804 0  0.03989857855230838 -0.00845905413482733 0  0.04581796449680686 -0.0005201918199840422 0  0.04311538408228613 -0.00636386197229253 0  0.04178895043130107 -0.001109928282921328 0  0.04580900552173033 -0.002795175567884119 0  0.04666026150734122 -0.002706325115034054 0  0.04535833811085532 -0.002102239431614576 0  0.04700319240497036 -0.001944172828126547 0  0.04781236396657021 -0.001838398901429353 0  0.04356670731611915 -0.003743507435773244 0  0.04312725971803384 -0.002968015999936756 0  0.04344168544900024 -0.002205394892657343 0  0.0426661907711947 -0.002288234048379065 0  0.04406065156767552 -0.004535769663047327 0  0.04500763147572235 -0.004454820753681928 0  0.04155508879433037 -0.003110643481240481 0  0.04853774811992385 -0.00175611977904442 0  0.04794090734389485 -0.001130080427295128 0  0.04858605924569774 -0.001056774579180721 0  0.03987527143715645 -0.00322562446035788 0  0.03699910473969489 -0.002256870176097846 0  0.04039136086603561 -0.005619399845292479 0  0.04096010464779436 -0.006496400092268213 0  0.03948390637022908 -0.002525114831578593 0  0.03939343863089874 -0.005645142882822939 0  0.03987451873191735 -0.004795813446230854 0  0.0389487591642038 -0.004829519866961209 0  0.04031888192727948 -0.00396851267151755 0  0.04081702927497687 -0.004754119930731208 0  0.03287074343896459 -0.006995842367656338 0  0.03372149662556691 -0.006844262617041789 0  0.04118992622066347 -0.003912954460995523 0  0.03734593907628697 -0.001609109168149089 0  0.037759831009997 -0.002190623388548127 0  0.03874512338520947 -0.008539430122499365 0  0.04156388710896598 -0.007396595608682457 0  0.05 -0.001796747998277331 0  0.03496179550039277 -0.003077471502740625 0  0.04541873846899853 -0.003608411754033473 0  0.0463141799401771 -0.003517814316084021 0  0.03541498130868118 -0.003794505754422625 0  0.03455303147409833 -0.00238527794540571 0  0.04274904748482652 -0.003748138552927341 0  0.03258815296471008 -0.007874320246144859 0  0.03663347990835315 -0.002981613676588245 0  0.03744163705823074 -0.002919021899353877 0  0.0350249131440323 -0.00458388243954886 0  0.03943109506093333 -0.004009013433241594 0  0.03911624485489006 -0.003295883963251575 0  0.04778481012658228 -0.000548117344167362 0  0.03627419641989491 -0.003746689208677198 0  0.03593439083068768 -0.004551664668004836 0  0.04247678319666736 -0.001071586667814858 0  0.03677724189786406 -0.004421553020177042 0  0.03844368448505284 -0.005617575078916456 0  0.0370864019445331 -0.003659932467993246 0  0.03460469469187519 -0.005400667789550513 0  0.03553819708160411 -0.005362635655142133 0  0.03656270750242324 -0.005349474227393444 0  0.03604613443432816 -0.006185260079289052 0  0.0366067470604156 -0.007027567055761394 0  0.03721415687671155 -0.007837221215921987 0  0.03749611474085414 -0.005632579891322098 0  0.03701212185794598 -0.006222034478718733 0  0.04232163903755903 -0.00304496826703423 0  0.0381885778135337 -0.00281042314948584 0  0.04835224866907076 -0.000545272808610428 0  0.03368042312171297 -0.005440523289724712 0  0.03417721518987343 0 0  0.03385834904562041 -0.0005394857939852934 0  0.03354430379746838 0 0  0.0348101265822785 0 0  0.03447920819777296 -0.0005271693874061914 0  0.03607594936708863 0 0  0.03544303797468357 0 0  0.03860759493670887 0 0  0.03797468354430381 0 0  0.03670886075949369 0 0  0.03734177215189875 0 0  0.03924050632911394 0 0  0.03892405063291141 -0.000548117344167362 0  0.039873417721519 0 0  0.04113924050632913 0 0  0.04050632911392407 0 0  0.04177215189873418 0 0  0.04145247284620387 -0.0005504827136929985 0  0.04240506329113925 0 0  0.04208860759493672 -0.0005472567036111306 0  0.04303797468354431 0 0  0.04272151898734178 -0.0005268175272011219 0  0.04367088607594938 0 0  0.04335443037974685 -0.0005402762692139004 0  0.04556962025316456 0 0  0.0449367088607595 0 0  0.04430379746835444 0 0  0.04400306095807867 -0.000554667419687703 0  0.03510305035500579 -0.006208620961548443 0  0.03562031655228677 -0.007038235955628767 0  0.03615726292790056 -0.007901281811867576 0  0.04620253164556962 0 0  0.04683544303797469 0 0  0.04746835443037975 0 0  0.04810126582278482 0 0  0.04198894959282744 -0.003814816694480236 0  0.03847848623329886 -0.003389426844978324 0  0.03728283781192884 -0.004932444596205447 0  0.03416745319342399 -0.006208219999904986 0  0.04936708860759494 0 0  0.04873417721518987 0 0  0.03325400132887102 -0.006250056353847816 0  0.0387899483729951 -0.002654078746965875 0  0.03509374416647038 -0.0005307929297659192 0  </DataArray>
</Points>
<Cells>
<DataArray  type="UInt32"  Name="connectivity"  format="ascii">2 0 1  3 0 4  5 0 1  6 0 4  9 7 8  7 8 10  13 11 12  14 16 15  17 11 12  19 11 18  20 8 10  22 7 21  23 16 15  26 24 25  27 29 28  32 30 31  30 31 33  34 9 35  29 37 36  38 40 39  43 41 42  34 9 8  27 29 44  29 37 44  47 45 46  50 48 49  53 51 52  13 11 18  27 54 55  56 31 33  57 59 58  62 60 61  43 41 61  5 17 1  3 0 63  2 0 63  22 7 10  64 60 18  38 24 39  64 60 65  66 22 21  68 67 16  69 48 49  70 54 55  41 60 61  73 71 72  26 24 39  53 51 74  75 77 76  55 59 58  27 55 28  50 48 78  79 32 31  67 16 80  81 83 82  84 43 42  71 86 85  71 86 72  87 77 76  89 6 88  90 92 91  93 79 32  94 47 46  17 1 11  95 26 25  96 84 42  71 85 97  6 88 83  99 98 61  6 83 4  100 94 46  34 101 35  103 48 102  104 89 88  107 105 106  108 90 91  109 80 35  91 51 52  107 20 106  43 99 61  110 103 48  81 83 111  64 19 18  112 113 68  68 114 67  115 116 23  114 7 21  66 117 22  22 118 119  119 120 107  48 102 78  112 114 21  121 122 66  104 123 88  126 124 125  5 6 0  104 127 89  128 41 42  130 92 129  89 131 5  129 132 133  134 75 77  133 136 135  59 138 137  116 124 125  135 139 104  128 141 140  108 142 91  90 143 130  123 88 82  73 43 99  94 144 47  145 96 84  146 147 112  79 148 145  84 149 73  112 68 114  117 150 102  113 68 115  68 115 16  151 59 137  114 67 9  121 66 117  117 22 118  121 117 102  118 119 120  152 153 128  119 107 20  93 154 79  69 110 48  120 107 81  147 112 113  96 152 42  115 23 16  90 130 92  133 134 155  135 104 127  89 5 6  141 140 13  122 66 146  92 129 132  132 133 134  127 89 131  131 5 17  130 69 49  129 133 136  139 104 123  84 73 43  148 145 96  127 156 155  128 140 41  136 135 139  153 128 141  143 130 69  92 91 51  145 84 149  149 73 71  156 155 77  154 79 148  135 127 155  66 146 21  152 128 42  149 56 31  157 23 15  129 136 49  136 50 49  145 149 31  88 83 82  47 45 126  67 80 35  148 158 159  70 55 59  154 148 159  107 81 160  158 159 161  146 112 21  134 162 75  96 158 152  158 163 161  152 163 153  103 121 102  93 164 154  115 38 116  144 47 25  144 95 25  70 151 59  165 167 166  133 135 155  168 169 53  79 145 31  130 129 49  140 41 60  165 166 159  166 170 171  117 118 150  123 82 172  153 141 173  132 134 162  148 96 158  127 131 156  120 81 82  114 9 7  149 71 56  153 87 173  157 174 125  136 139 50  162 75 170  101 109 35  158 152 163  163 153 87  175 93 164  164 154 165  113 115 38  154 165 159  22 119 10  169 52 36  92 132 51  132 162 51  178 176 177  47 25 124  107 160 105  176 179 180  182 181 98  134 155 77  184 183 19  181 185 62  186 184 64  183 187 188  187 189 2  38 116 24  140 60 18  191 190 3  190 192 193  192 194 195  194 196 197  196 198 199  169 53 52  201 200 101  53 171 74  198 202 203  202 201 34  165 204 167  204 205 57  24 25 124  118 150 172  167 205 168  168 206 169  200 207 109  168 53 171  207 208 14  208 209 15  147 113 40  209 210 157  164 165 204  150 172 211  204 167 205  166 159 161  205 168 206  206 169 29  120 82 172  141 173 12  176 180 177  181 62 98  156 77 212  184 64 19  183 19 188  47 126 124  189 191 63  187 2 188  157 23 125  166 170 213  113 38 40  190 3 193  192 195 193  175 164 214  167 166 171  62 98 61  139 50 211  194 195 197  204 57 214  216 215 45  196 199 197  123 172 211  198 199 203  2 188 1  201 34 101  202 34 203  118 120 172  189 2 63  200 101 109  191 3 63  195 193 111  175 217 214  207 14 109  164 204 214  126 174 125  131 17 218  99 98 219  206 29 28  208 14 15  45 126 174  209 157 15  142 37 36  62 60 65  170 171 74  179 180 219  182 98 219  116 23 125  180 219 72  73 99 72  34 203 8  142 91 52  173 218 212  185 62 65  14 16 80  186 64 65  142 52 36  56 97 33  19 188 11  205 206 58  180 177 86  188 1 11  179 182 219  141 13 12  156 218 212  3 193 4  210 216 174  193 111 4  210 157 174  67 9 35  162 51 74  205 57 58  116 24 124  17 12 218  139 123 211  169 29 36  140 13 18  177 86 85  195 111 160  216 45 174  163 161 76  55 58 28  185 186 65  57 59 138  99 219 72  150 102 78  83 111 4  81 111 160  131 156 218  206 58 28  50 211 78  195 197 160  173 12 218  167 168 171  163 87 76  203 8 106  75 170 213  71 56 97  119 20 10  57 214 138  215 45 46  14 109 80  166 161 213  87 173 212  197 160 105  199 197 105  217 214 138  217 138 137  20 8 106  100 215 46  161 76 213  162 170 74  199 203 106  87 77 212  199 105 106  180 86 72  150 211 78  75 76 213  </DataArray>
<DataArray  type="UInt32"  Name="offsets"  format="ascii">3 6 9 12 15 18 21 24 27 30 33 36 39 42 45 48 51 54 57 60 63 66 69 72 75 78 81 84 87 90 93 96 99 102 105 108 111 114 117 120 123 126 129 132 135 138 141 144 147 150 153 156 159 162 165 168 171 174 177 180 183 186 189 192 195 198 201 204 207 210 213 216 219 222 225 228 231 234 237 240 243 246 249 252 255 258 261 264 267 270 273 276 279 282 285 288 291 294 297 300 303 306 309 312 315 318 321 324 327 330 333 336 339 342 345 348 351 354 357 360 363 366 369 372 375 378 381 384 387 390 393 396 399 402 405 408 411 414 417 420 423 426 429 432 435 438 441 444 447 450 453 456 459 462 465 468 471 474 477 480 483 486 489 492 495 498 501 504 507 510 513 516 519 522 525 528 531 534 537 540 543 546 549 552 555 558 561 564 567 570 573 576 579 582 585 588 591 594 597 600 603 606 609 612 615 618 621 624 627 630 633 636 639 642 645 648 651 654 657 660 663 666 669 672 675 678 681 684 687 690 693 696 699 702 705 708 711 714 717 720 723 726 729 732 735 738 741 744 747 750 753 756 759 762 765 768 771 774 777 780 783 786 789 792 795 798 801 804 807 810 813 816 819 822 825 828 831 834 837 840 843 846 849 852 855 858 861 864 867 870 873 876 879 882 885 888 891 894 897 900 903 906 909 912 915 918 921 924 927 930 933 936 939 942 945 948 951 954 957 960 963 966 969 972 975 978 981 984 987 990 993 996 999 1002 1005 1008 1011 1014 1017 1020 1023 1026 1029 1032 1035 1038 1041 1044 1047 1050 1053 1056 1059 1062 1065 1068 1071 1074 1077 1080 1083 1086 1089 1092 1095 1098 1101 1104 1107 1110 1113 1116 1119 1122 1125 1128 1131 1134 </DataArray>
<DataArray  type="UInt8"  Name="types"  format="ascii">5 5 5 5 5 5 5 5 5 5 5 5 5 5 5 5 5 5 5 5 5 5 5 5 5 5 5 5 5 5 5 5 5 5 5 5 5 5 5 5 5 5 5 5 5 5 5 5 5 5 5 5 5 5 5 5 5 5 5 5 5 5 5 5 5 5 5 5 5 5 5 5 5 5 5 5 5 5 5 5 5 5 5 5 5 5 5 5 5 5 5 5 5 5 5 5 5 5 5 5 5 5 5 5 5 5 5 5 5 5 5 5 5 5 5 5 5 5 5 5 5 5 5 5 5 5 5 5 5 5 5 5 5 5 5 5 5 5 5 5 5 5 5 5 5 5 5 5 5 5 5 5 5 5 5 5 5 5 5 5 5 5 5 5 5 5 5 5 5 5 5 5 5 5 5 5 5 5 5 5 5 5 5 5 5 5 5 5 5 5 5 5 5 5 5 5 5 5 5 5 5 5 5 5 5 5 5 5 5 5 5 5 5 5 5 5 5 5 5 5 5 5 5 5 5 5 5 5 5 5 5 5 5 5 5 5 5 5 5 5 5 5 5 5 5 5 5 5 5 5 5 5 5 5 5 5 5 5 5 5 5 5 5 5 5 5 5 5 5 5 5 5 5 5 5 5 5 5 5 5 5 5 5 5 5 5 5 5 5 5 5 5 5 5 5 5 5 5 5 5 5 5 5 5 5 5 5 5 5 5 5 5 5 5 5 5 5 5 5 5 5 5 5 5 5 5 5 5 5 5 5 5 5 5 5 5 5 5 5 5 5 5 5 5 5 5 5 5 5 5 5 5 5 5 5 5 5 5 5 5 5 5 5 5 5 5 5 5 5 5 5 5 5 5 5 5 5 5 </DataArray>
</Cells>
<PointData  Scalars=" mean stress"> 
<DataArray  type="Float64"  Name=" mean stress"  format="ascii">1.5825223662410564e+09  1.5783958649001796e+09  1.6286114990590446e+09  1.6289176623093939e+09  1.5786803468307078e+09  1.5327311060508845e+09  1.5344595904557133e+09  1.5107523307641854e+09  1.5667130068121450e+09  1.5587789403561747e+09  1.5159414979378755e+09  1.5721046077400372e+09  1.5092370557548842e+09  1.5418099562210310e+09  1.6250181008020468e+09  1.6236926036651940e+09  1.5695785704892220e+09  1.5267647677343779e+09  1.5850604610923300e+09  1.6226983105176647e+09  1.5426447923110023e+09  1.4516112495453267e+09  1.4544468004876983e+09  1.5745187656157589e+09  1.4778120590674765e+09  1.5022330060081925e+09  1.4287512653889687e+09  9.7414883347871757e+08  1.0462133896174530e+09  1.0303807946095724e+09  1.4193848878056712e+09  1.4349968918827949e+09  1.3761506985167789e+09  1.4735607198085878e+09  1.6174444285772865e+09  1.5887134608358922e+09  1.0512847003520305e+09  9.7827581696977258e+08  1.4693317444775507e+09  1.4142152407809494e+09  1.4076222948842342e+09  1.5417597306984284e+09  1.4916233540527620e+09  1.5380678757355187e+09  9.5336710942153573e+08  1.6265900324629796e+09  1.6302393415474062e+09  1.5691699979497921e+09  1.2661883496189778e+09  1.2522979250737066e+09  1.3213720083656857e+09  1.1834359654343710e+09  1.1117319321050656e+09  1.1551751070811758e+09  9.6763905990031171e+08  1.0376150192133350e+09  1.4917342272250531e+09  1.1542140181055055e+09  1.0946954271330783e+09  1.1010510392691400e+09  1.5895813195849571e+09  1.5808153768386116e+09  1.6289923490482285e+09  1.6379411741809514e+09  1.6306148555657151e+09  1.6405416913204780e+09  1.3938687422153692e+09  1.5509474109564450e+09  1.5123114173537061e+09  1.1956667705583737e+09  1.0326894018020436e+09  1.5418560266241300e+09  1.5846947695852923e+09  1.5383446961020994e+09  1.2125476474497640e+09  1.3035950090623517e+09  1.3484262462953303e+09  1.3622317520717666e+09  1.3386279019101427e+09  1.3805193626234393e+09  1.5935797146602151e+09  1.5382437328382375e+09  1.4881431068393180e+09  1.5357950924121010e+09  1.4904936685830216e+09  1.5798328168550336e+09  1.5918658449179220e+09  1.4050429193583450e+09  1.4837735683756473e+09  1.4797313341741524e+09  1.1233611227098417e+09  1.1199896197295604e+09  1.1868767572761135e+09  1.3224421299116921e+09  1.6021589729124360e+09  1.4604407871607642e+09  1.4393561840087080e+09  1.5244117275621197e+09  1.6264649472072656e+09  1.5833622924115574e+09  1.6502836559030268e+09  1.6402826306850893e+09  1.3261651876272378e+09  1.2622373754948931e+09  1.4279228217665057e+09  1.5942685295250058e+09  1.5889247417675166e+09  1.5487511145778215e+09  1.0532174145481073e+09  1.6324268042435119e+09  1.2011169367886524e+09  1.5808829528904896e+09  1.4565055418261216e+09  1.4625179787184498e+09  1.5064459099447353e+09  1.5193298009370985e+09  1.5286061878172150e+09  1.3883885979575524e+09  1.4419978244202418e+09  1.5030408666876373e+09  1.4933318860835891e+09  1.3274855455689974e+09  1.3347349501781847e+09  1.4337839467597914e+09  1.5371689229280591e+09  1.5789041179292715e+09  1.5857902085499160e+09  1.4238145297868109e+09  1.4957312541286225e+09  1.2508449195148623e+09  1.1882994977630234e+09  1.4778911407804139e+09  1.2487466124725990e+09  1.3108724094886153e+09  1.3091130369508338e+09  1.3694329041959169e+09  1.3112424479519560e+09  1.1546754028316884e+09  1.1641921067910726e+09  1.3740012304970262e+09  1.5465950079850783e+09  1.5002903427083812e+09  1.0491630110429171e+09  1.1259136836935351e+09  1.5316928530639136e+09  1.4347181202502127e+09  1.3963465087515392e+09  1.4033005471758649e+09  1.3834018043659451e+09  1.4882242798524911e+09  1.3870162825999515e+09  1.0927436806218593e+09  1.4419024553036087e+09  1.4483884229167855e+09  1.3254182648664973e+09  1.3662965139741080e+09  1.4205345969274399e+09  1.6269914722156968e+09  1.3874560627085567e+09  1.3282506500135348e+09  1.5858785330378382e+09  1.3379384399232519e+09  1.2514263822537408e+09  1.3928207282519822e+09  1.2670135798140764e+09  1.2684614990806470e+09  1.2709807777195449e+09  1.2097008006040249e+09  1.1529234452509124e+09  1.0963282018285785e+09  1.2505492323355880e+09  1.2068135690424671e+09  1.4384046096304264e+09  1.4567372190010586e+09  1.6280767396968338e+09  1.2630160510640955e+09  1.6537412353289864e+09  1.6302054114450376e+09  1.6542873022697437e+09  1.6548246772872763e+09  1.6322768241114457e+09  1.6557665440266132e+09  1.6561255330989060e+09  1.6553731404078634e+09  1.6549488428087428e+09  1.6583388090507727e+09  1.6560005022883120e+09  1.6555158063965356e+09  1.6228061303666258e+09  1.6562141610716355e+09  1.6548888367313600e+09  1.6571577865341101e+09  1.6554378522907126e+09  1.6258010608021512e+09  1.6548774209225855e+09  1.6280941498037894e+09  1.6532404143656373e+09  1.6331899484371986e+09  1.6547017433848584e+09  1.6319242691526730e+09  1.6567636300979319e+09  1.6555901564876204e+09  1.6548325862108908e+09  1.6237132028683667e+09  1.2102540824982173e+09  1.1505233805616472e+09  1.0936443035313468e+09  1.6548686479593182e+09  1.6540731673451540e+09  1.6566121444381332e+09  1.6549809753577549e+09  1.3830028405002725e+09  1.4183705873531361e+09  1.3033959720097153e+09  1.2120738466351378e+09  1.6553893300317280e+09  1.6544449868550580e+09  1.2099368162694516e+09  1.4677403968414564e+09  1.6303629048178651e+09  </DataArray> 
</PointData> 
</Piece>
</UnstructuredGrid>
</VTKFile>