<?xml version="1.0"?>
<VTKFile type="UnstructuredGrid"  version="0.1"  >
<UnstructuredGrid>
<Piece  NumberOfPoints="209" NumberOfCells="359">
<Points>
<DataArray  type="Float64"  NumberOfComponents="3"  format="ascii">0.01488100460607738 -0.007023544277872627 0  0.01525985654179472 -0.006066373516622356 0  0.0159888096857431 -0.006982121153814476 0  0.008435836991758972 -0.01077613583542774 0  0.007602574653115292 -0.01200771774856967 0  0.00699735213507682 -0.01068503635459749 0  0.01191470895036937 -0.008047440808515473 0  0.01286818697148095 -0.006967428911681145 0  0.01320906636200822 -0.008011712273240892 0  0.008214219170032653 -0.01592936686561918 0  0.01011641432216829 -0.01575508753318457 0  0.009005573123430997 -0.01736850832258475 0  0.01188553150564481 -0.006924096455987079 0  0.009011494840280767 -0.01218703235232873 0  0.004063405842550046 -0.01310407351148955 0  0.003972266516858444 -0.0146997307517871 0  0.002680413553238958 -0.01392102448597084 0  0.007835082665021531 -0.009965664871742351 0  0.008988588908070524 -0.01456587683397532 0  0.004343451776564276 -0.008400549607937124 0  0.003656592785155639 -0.0095441855406437 0  0.002973143307815555 -0.008471479256654584 0  0.01028489973123928 -0.01432995672155906 0  0.01163413067976078 -0.0146264956648318 0  0.001597446142481276 -0.01982360883152949 0  0.00139927109049804 -0.01804513232294681 0  0.003320570073047681 -0.01885292042613889 0  0.01178063683505175 -0.01606392805087463 0  0.002326690796816758 -0.01175736950018305 0  0.002913035652424463 -0.01274566319614798 0  0.001463675694503737 -0.01304042126719156 0  0.003531004505353017 -0.02683023229270312 0  0.003780016975799182 -0.02912226141613836 0  0.001842620603430285 -0.02793071033610579 0  0.01064230791250882 -0.0174080652746063 0  0.01255208556255023 -0.01753370295779556 0  0.008200116453742246 -0.01334100618791392 0  0.01435375993799144 -0.0237124555861685 0  0.01510901117634742 -0.02204088765728465 0  0.01656421819828061 -0.02333849129879312 0  0.001096066163390828 -0.01164726383106306 0  0.006615533095153739 -0.02234432489934095 0  0.00591557237407778 -0.0206554371094324 0  0.007324814282356155 -0.020506626256822 0  0.002812263107849239 -0.01710566216510052 0  0.005298869967630616 -0.02774807111183865 0  0.008216874102201604 -0.02176006265529662 0  0.01151266999028026 -0.01889987332707904 0  0.01561572518932391 -0.02531766846428646 0  0.00327040463764592 -0.02075759369661323 0  0.004870292948791578 -0.01979397557854091 0  0.004820665074432951 -0.02167471109692966 0  0.003327496597670614 -0.02266489487163195 0  0.01345673893432199 -0.02541110625411089 0  0.01453714258019843 -0.02719427253954976 0  0.01244571040818645 -0.02050207582929041 0  0.01338382398897159 -0.01902288365878421 0  0.005736377925489616 -0.03008571153863677 0  0.01425506957275683 -0.01760223590074165 0  0.01350662279744047 -0.01617604226877841 0  0.01510915172337354 -0.01623133725045856 0  0.007806161290710635 -0.03072856398038102 0  0.0072016844938891 -0.02856793767609879 0  0.009130709346428265 -0.02902639386698569 0  0.01437781598290314 -0.01486175483685185 0  0.004322461914284138 -0.01069462420976418 0  0.005051082098651311 -0.009648526308729907 0  0.01124404288892026 -0.008954257824394928 0  0.01252710145496171 -0.008994036666087071 0  0.01184550791195122 -0.01004303256492303 0  0.01435007698251702 -0.008012797903757383 0  0.01384967704602247 -0.007031978891003633 0  0.01068911948708877 -0.007886658497265726 0  0.009529855400676066 -0.007830878543169197 0  0.009944542786693975 -0.006865757487026058 0  0.004917684972708791 -0.01396017647217426 0  0.00520606205469307 -0.01537236012520048 0  0.01296497710800732 -0.0147632946159482 0  0.002711014807463091 -0.01547705477949884 0  0.01043606691741295 -0.01222020547107771 0  0.01106619077594664 -0.01332273665467715 0  0.009669191434419515 -0.01331898198129926 0  0.0137446467666978 -0.009016590458400607 0  0.01091813146604487 -0.006866038005863592 0  0.01066983562762329 -0.02044705499904597 0  0.002235959958684756 -0.00962301376578302 0  0.003030367227398668 -0.01061728077611069 0  0.007408520088851369 -0.01456991419564909 0  0.006759111055363889 -0.01320488687252873 0  0.001366144643197641 -0.01472113411898752 0  0 -0.01395076330632414 0  0.00898560919086306 -0.006875748462396566 0  0.001685956989451409 -0.02173545137490845 0  0 -0.02073490255103518 0  0.00970366580800436 -0.02200891646704236 0  0.01061041845383583 -0.02362085776265185 0  0.008543227826081388 -0.02356224269375031 0  0.001974522924049069 -0.03024152112174465 0  0 -0.02898106623611381 0  0.01516840105583708 -0.01359988368244054 0  0.01592297581539624 -0.01224954059789715 0  0.0169121405137496 -0.01364605247467918 0  0 -0.01552476390250855 0  0.01492572777133997 -0.00900975178379932 0  0.01547214443393161 -0.008005355235187146 0  0.01311307313023289 -0.01007007301097714 0  0.01435965911779873 -0.01008072037511663 0  0 -0.02264811009105497 0  0.01244781076294069 -0.01116366383610582 0  0.01374206478938277 -0.01119547126566891 0  0.01006047675153948 -0.00891454191195333 0  0.01307202649032734 -0.01234043894427789 0  0.01443360305892355 -0.01237198002926471 0  0.01372183744020005 -0.01357055940536192 0  0.0159463985066977 -0.01490979164913795 0  0 -0.03130658195442013 0  0.00409260508067159 -0.01627875343001896 0  0.005581083567300929 -0.01711801766974904 0  0.006062226321451737 -0.01436261162204649 0  0.00730522289281434 -0.01732139875858525 0  0.006623607446789845 -0.0158631381754669 0  0.008063294263087165 -0.01882295326182108 0  0.009779452947447228 -0.01887943645880148 0  0.006343204081464261 -0.01883998681388632 0  0.01058033937942923 -0.01000493567131756 0  0.008542215406343739 -0.009571620529874633 0  0.009423565184870867 -0.009839684754629256 0  0.01504752137133846 -0.01120344634061165 0  0.01673894997540385 -0.01626699607430416 0  0.008897129499412383 -0.02037820295952747 0  0.004182894461769802 -0.01757501170785014 0  0.01556304880609307 -0.01002404169553301 0  0.00847072448642824 -0.007801179288430445 0  0.001068838780639621 -0.01031733386641841 0  0.001035597667605932 -0.009124098020289843 0  0.01135187285228695 -0.007431058441907973 0  0.001382472559220159 -0.01636698231302624 0  0.01235891286343468 -0.02721081986257282 0  0.01013674316508023 -0.02694781963766554 0  0.0114866137511982 -0.02536069968569698 0  0 -0.009664369293554062 0  0 -0.01102405018399499 0  0.005041222881769624 -0.02363179190645167 0  0 -0.01245171512353731 0  0.005470611342856962 -0.01294788914387437 0  0 -0.01717746451062158 0  0.004044886176114131 -0.03140817572842948 0  0.006175988647012919 -0.03243267647316335 0  0 -0.01891280013527211 0  0.00168300145754437 -0.02367379478516428 0  0.01604665843910448 -0.01093780438455995 0  0 -0.02465697801825972 0  0 -0.02676628935360821 0  0.006772801956441015 -0.02458955175146328 0  0.008420240996465701 -0.02567990737487082 0  0.00204814751415424 -0.03255531706708671 0  0 -0.03374837348792512 0  0.01119480656423227 -0.02906712238581637 0  0.01714880911465969 -0.0124361553790697 0  0.009883103636330057 -0.01107298087490391 0  0.01117126615513379 -0.01112191808365012 0  0.0159123938473852 -0.01764087146291542 0  0.01003936067858333 -0.03103871080303777 0  0.001700337195170966 -0.02571163368593397 0  0.01153940990953525 -0.02206312863586869 0  0.006230989809632808 -0.01190508185328724 0  0.0164778762501972 -0.0217352731165821 0  0.003626278143057746 -0.01177291065939731 0  0.00987329018094114 -0.02502631683421989 0  0.005685075847912564 -0.008650020570364202 0  0.002083706702865756 -0.03503246760701612 0  0 -0.008369435111720197 0  0.01656678479063015 -0.007971268695122109 0  0.003375536813420486 -0.02464436751242547 0  0.01236763044057537 -0.01348521260059615 0  0.002022772249381702 -0.01077638348926447 0  0.004108635404351291 -0.03374611768176086 0  0.005083720579696416 -0.02562053870737162 0  0.00682996333623629 -0.02653543661348641 0  0 -0.03631225459476947 0  0.009017558957679011 -0.008767178297386206 0  0.0160400843814282 -0.008952210907148116 0  0.01177335682299147 -0.01225812689222583 0  0.006188612971207697 -0.009666392544762419 0  0.005617151843559355 -0.01074103546666151 0  0.01243169989123241 -0.02372381375110086 0  0.01508893710596683 -0.01906093350338628 0  0.007437361532758504 -0.007738426198564886 0  0.007894105298893749 -0.008842004937009484 0  0.006805176199118024 -0.00866623191323241 0  0.01335506207380266 -0.02209318646248142 0  0.01424088955057608 -0.02054181063277519 0  0.01588150950171841 -0.02048450036833497 0  0.004939137827824517 -0.01184392553349161 0  0.00632799915718325 -0.00769755918828334 0  0.00501744703482478 -0.01848919376624247 0  0.006941787415583534 -0.006781999174370924 0  0.007978524258681712 -0.006819462884036578 0  0.007518101812179993 -0.005913444106223638 0  0.008504521772943575 -0.005951402871128685 0  0.01669363412740192 -0.01902959739560042 0  0.01671639497600132 -0.01162287418274253 0  0.007110723166362805 -0.009525951978196584 0  0.01722922546149119 -0.01084005402089262 0  0.01662052880250342 -0.00992849704112745 0  0.008343868267619913 -0.02735149903382145 0  0.01794006325440985 -0.02184547132957535 0  0.01787109422081598 -0.01181340881046841 0  0.01740511822373147 -0.02039476993477531 0  </DataArray>
</Points>
<Cells>
<DataArray  type="UInt32"  Name="connectivity"  format="ascii">0 2 1  5 3 4  8 6 7  11 9 10  12 6 7  13 3 4  14 16 15  5 3 17  9 18 10  19 21 20  10 22 23  24 26 25  27 10 23  30 28 29  33 31 32  34 35 27  36 13 4  37 39 38  14 16 29  30 28 40  43 41 42  44 26 25  45 31 32  43 41 46  34 35 47  37 39 48  18 10 22  11 34 10  51 49 50  52 51 49  53 54 48  56 55 47  45 57 32  60 58 59  24 49 26  63 61 62  60 64 59  66 65 20  56 35 47  69 67 68  70 71 8  74 72 73  45 57 62  66 19 20  15 76 75  27 59 77  37 53 48  78 16 15  79 81 80  34 27 10  82 70 8  67 72 6  74 72 83  55 84 47  58 35 59  57 61 62  30 16 29  86 85 20  87 36 88  68 8 6  90 30 89  49 50 26  89 78 16  35 27 59  74 73 91  93 24 92  36 88 4  92 52 49  94 96 95  98 33 97  67 68 6  99 101 100  102 90 89  33 97 32  21 85 20  82 103 70  70 104 0  105 106 82  107 93 92  30 89 16  109 108 105  82 68 8  67 110 72  112 111 109  99 113 112  65 86 20  114 64 99  115 98 97  105 69 68  27 77 23  117 116 76  118 76 75  11 119 9  9 120 87  87 18 36  122 121 11  87 118 88  50 123 42  24 92 49  69 124 67  3 126 125  112 100 127  128 60 114  84 129 122  117 116 130  106 82 103  109 105 106  99 112 100  103 70 104  106 131 127  104 0 2  114 99 101  70 0 71  124 110 126  73 132 91  3 17 125  109 106 127  105 82 68  111 109 108  113 112 111  64 99 113  9 87 18  79 13 81  124 67 110  108 105 69  122 11 34  119 9 120  121 11 119  60 114 64  120 87 118  129 122 121  133 85 134  72 6 135  102 136 89  139 137 138  141 140 133  52 142 51  90 143 30  118 88 144  145 102 136  146 147 57  93 148 24  107 149 92  100 127 150  78 44 116  151 107 149  98 152 33  153 154 96  71 8 7  156 115 155  115 155 97  43 123 42  84 122 47  137 157 138  101 100 158  148 24 25  84 94 129  159 3 126  142 51 41  69 160 124  136 89 78  128 161 60  124 159 126  157 162 63  145 136 25  112 109 127  152 33 163  55 164 84  58 56 35  153 41 96  88 4 165  159 13 3  39 38 166  149 92 52  151 149 163  142 153 41  51 41 42  65 167 86  96 95 168  157 63 138  169 66 19  136 44 25  156 155 170  140 171 134  155 97 146  110 72 73  106 103 131  78 15 116  143 30 40  104 2 172  149 173 163  119 120 117  129 121 43  122 34 47  113 111 174  133 85 175  155 176 170  108 69 160  146 57 32  52 173 142  164 84 94  161 60 58  148 145 25  142 177 153  160 124 159  153 178 154  152 151 163  146 176 147  167 86 28  179 156 170  141 133 40  36 13 81  5 4 165  121 43 123  64 59 77  121 119 123  110 126 180  119 117 123  136 78 44  15 116 76  149 52 173  103 131 181  155 146 176  173 142 177  111 174 182  183 184 5  185 53 139  58 186 56  177 153 178  187 189 188  55 190 164  56 191 55  159 79 13  104 172 181  53 137 54  186 191 192  22 81 80  64 113 77  190 185 37  65 193 167  66 184 65  169 183 66  194 189 169  162 63 61  50 26 195  108 160 182  196 187 194  164 94 95  44 26 130  177 178 45  161 58 186  198 197 196  103 104 181  160 159 79  18 22 81  111 108 182  154 96 168  53 139 137  33 163 31  154 138 168  193 167 14  190 164 185  186 56 191  184 65 193  183 66 184  191 55 190  189 169 183  44 116 130  185 37 53  187 194 189  133 40 175  199 198 197  14 15 75  113 174 77  197 196 187  187 188 132  185 139 95  86 85 175  160 79 182  197 187 132  164 185 95  173 163 31  18 36 81  129 43 46  139 138 168  88 165 144  186 192 200  147 57 61  190 37 38  173 177 31  178 45 62  120 117 76  184 5 165  118 144 75  191 192 38  161 186 200  197 132 91  143 141 40  184 193 165  73 132 180  100 150 201  191 190 38  199 197 91  177 45 31  26 130 195  188 132 180  97 146 32  50 123 195  94 96 46  188 17 202  174 80 23  140 133 134  183 5 202  5 17 202  203 204 150  167 14 29  41 96 46  131 181 204  94 129 46  22 80 23  193 165 144  154 138 205  28 40 175  174 182 80  39 206 166  189 188 202  131 204 150  203 207 201  51 50 42  131 127 150  110 73 180  193 14 144  79 182 80  188 17 125  12 6 135  167 28 29  174 77 23  120 118 76  63 138 205  117 123 195  178 154 205  192 208 166  192 200 208  100 158 201  206 208 166  86 28 175  158 207 201  126 180 125  117 130 195  72 83 135  178 62 205  189 183 202  139 95 168  63 62 205  192 38 166  12 83 135  14 144 75  188 180 125  203 150 201  </DataArray>
<DataArray  type="UInt32"  Name="offsets"  format="ascii">3 6 9 12 15 18 21 24 27 30 33 36 39 42 45 48 51 54 57 60 63 66 69 72 75 78 81 84 87 90 93 96 99 102 105 108 111 114 117 120 123 126 129 132 135 138 141 144 147 150 153 156 159 162 165 168 171 174 177 180 183 186 189 192 195 198 201 204 207 210 213 216 219 222 225 228 231 234 237 240 243 246 249 252 255 258 261 264 267 270 273 276 279 282 285 288 291 294 297 300 303 306 309 312 315 318 321 324 327 330 333 336 339 342 345 348 351 354 357 360 363 366 369 372 375 378 381 384 387 390 393 396 399 402 405 408 411 414 417 420 423 426 429 432 435 438 441 444 447 450 453 456 459 462 465 468 471 474 477 480 483 486 489 492 495 498 501 504 507 510 513 516 519 522 525 528 531 534 537 540 543 546 549 552 555 558 561 564 567 570 573 576 579 582 585 588 591 594 597 600 603 606 609 612 615 618 621 624 627 630 633 636 639 642 645 648 651 654 657 660 663 666 669 672 675 678 681 684 687 690 693 696 699 702 705 708 711 714 717 720 723 726 729 732 735 738 741 744 747 750 753 756 759 762 765 768 771 774 777 780 783 786 789 792 795 798 801 804 807 810 813 816 819 822 825 828 831 834 837 840 843 846 849 852 855 858 861 864 867 870 873 876 879 882 885 888 891 894 897 900 903 906 909 912 915 918 921 924 927 930 933 936 939 942 945 948 951 954 957 960 963 966 969 972 975 978 981 984 987 990 993 996 999 1002 1005 1008 1011 1014 1017 1020 1023 1026 1029 1032 1035 1038 1041 1044 1047 1050 1053 1056 1059 1062 1065 1068 1071 1074 1077 </DataArray>
<DataArray  type="UInt8"  Name="types"  format="ascii">5 5 5 5 5 5 5 5 5 5 5 5 5 5 5 5 5 5 5 5 5 5 5 5 5 5 5 5 5 5 5 5 5 5 5 5 5 5 5 5 5 5 5 5 5 5 5 5 5 5 5 5 5 5 5 5 5 5 5 5 5 5 5 5 5 5 5 5 5 5 5 5 5 5 5 5 5 5 5 5 5 5 5 5 5 5 5 5 5 5 5 5 5 5 5 5 5 5 5 5 5 5 5 5 5 5 5 5 5 5 5 5 5 5 5 5 5 5 5 5 5 5 5 5 5 5 5 5 5 5 5 5 5 5 5 5 5 5 5 5 5 5 5 5 5 5 5 5 5 5 5 5 5 5 5 5 5 5 5 5 5 5 5 5 5 5 5 5 5 5 5 5 5 5 5 5 5 5 5 5 5 5 5 5 5 5 5 5 5 5 5 5 5 5 5 5 5 5 5 5 5 5 5 5 5 5 5 5 5 5 5 5 5 5 5 5 5 5 5 5 5 5 5 5 5 5 5 5 5 5 5 5 5 5 5 5 5 5 5 5 5 5 5 5 5 5 5 5 5 5 5 5 5 5 5 5 5 5 5 5 5 5 5 5 5 5 5 5 5 5 5 5 5 5 5 5 5 5 5 5 5 5 5 5 5 5 5 5 5 5 5 5 5 5 5 5 5 5 5 5 5 5 5 5 5 5 5 5 5 5 5 5 5 5 5 5 5 5 5 5 5 5 5 5 5 5 5 5 5 5 5 5 5 5 5 5 5 5 5 5 5 5 5 5 5 5 5 5 5 5 5 5 5 5 5 5 5 5 5 </DataArray>
</Cells>
<PointData  Scalars=" mean stress"> 
<DataArray  type="Float64"  Name=" mean stress"  format="ascii">9.6034015714094734e+08  1.0486627892596850e+09  9.6275935033711219e+08  6.5331806568390656e+08  5.8038024048098946e+08  6.6171686085471117e+08  8.7424971732948995e+08  9.6016865702185273e+08  8.7752040526278210e+08  3.6484031904652852e+08  3.7187152888635117e+08  3.0939824122021079e+08  9.6994095048413980e+08  5.6971909236604667e+08  5.1048240511359775e+08  4.2520659249210572e+08  4.6134572836673629e+08  7.2893189238220823e+08  4.3120456505553412e+08  8.3733436624513900e+08  7.5472656547604215e+08  8.3029215635843635e+08  4.4416273302324426e+08  4.2956831358565325e+08  2.2860201239282158e+08  2.8414698789590448e+08  2.5755214804933733e+08  3.5905043501780069e+08  5.9129860394200516e+08  5.3874365142839098e+08  5.1281243554919720e+08  1.1114331922877423e+08  9.4233445266001165e+07  1.0199861801277003e+08  3.0855314318749273e+08  3.0253248446765399e+08  4.9693980447959185e+08  1.4749790467910150e+08  1.7842195733450460e+08  1.5263662256443861e+08  6.0073903671617091e+08  1.7038109486947298e+08  2.0922309573561871e+08  2.1254561021439388e+08  3.1698038150302845e+08  1.0297406735036673e+08  1.8365251429613632e+08  2.5558338925330192e+08  1.2711261063695438e+08  2.0627381131145465e+08  2.2675068521099290e+08  1.8556783029285192e+08  1.6522179182537755e+08  1.2493282586282760e+08  1.0804446577756579e+08  2.1194799272293854e+08  2.5255501557693192e+08  8.9145200110763967e+07  2.9924447013946557e+08  3.5588500250611806e+08  3.5236143624564427e+08  8.5612247391663060e+07  9.7460508222181112e+07  9.4821031549057171e+07  4.1481760810574985e+08  6.6653304450638843e+08  7.4511716551535201e+08  7.9385520133846831e+08  7.9147765084869802e+08  7.1333060617063057e+08  8.7509675899787331e+08  9.5732237490444481e+08  8.8296805958693683e+08  8.8981546399201453e+08  9.7227683036995351e+08  4.6110502538868886e+08  3.8889068484990847e+08  4.1810089065240407e+08  3.8560421959590924e+08  5.6328610262365460e+08  4.9654872687024903e+08  4.9713854508249110e+08  7.9336577670510221e+08  9.8065802374350667e+08  2.1321043877531567e+08  7.4843298981584394e+08  6.6952854085313368e+08  4.2848337637670338e+08  5.0285493520465100e+08  4.2470956312138587e+08  4.6209282533814651e+08  9.7349094723089707e+08  1.8358502500561702e+08  2.0629328955481037e+08  1.7831247024637756e+08  1.5033580549339533e+08  1.5013187286422071e+08  8.8270774031156629e+07  9.4875717677062526e+07  4.8254318753626263e+08  5.5723871674559081e+08  4.8117037358137387e+08  3.8327626441776264e+08  7.9246053416408765e+08  8.7735289985188615e+08  7.1104526778481960e+08  7.1050558865572965e+08  1.6547278326304752e+08  6.3272435744227350e+08  6.2977851074077296e+08  8.0315057716240191e+08  5.5702656413984919e+08  5.5107584520000756e+08  4.8411972068266457e+08  4.1418814579239357e+08  8.3632114484754533e+07  3.5515865796419150e+08  3.1811261673085022e+08  4.4297616293432891e+08  3.0944504808954203e+08  3.6997538522988462e+08  2.5677317259932330e+08  2.5595788970806271e+08  2.5738711567032543e+08  7.1385462801081455e+08  7.4460914450584173e+08  7.2851814587939489e+08  6.3352321997038770e+08  3.5229383507005000e+08  2.1597689139440197e+08  2.9528749091057158e+08  7.1612511392696726e+08  8.9144542264143443e+08  6.8946219910772204e+08  7.9252464514638841e+08  9.3613473634921825e+08  3.4836648250102389e+08  1.0754455385990807e+08  1.0903359717340319e+08  1.2640579708419217e+08  7.4072829990545154e+08  6.4663665767386472e+08  1.4980967536080775e+08  5.5115485304764831e+08  5.1821086359049612e+08  3.1482787892235553e+08  8.3212147640150398e+07  8.0175843513012409e+07  2.5604163068086380e+08  1.4867762596540797e+08  6.5086309589090633e+08  1.3480886718667784e+08  1.1168773684606196e+08  1.3617923675229990e+08  1.2334251729187673e+08  7.9422804753324032e+07  7.6496759742844373e+07  9.4591724622587726e+07  5.4455739344223523e+08  6.3832714380254400e+08  6.3600507022076190e+08  2.9746030441829222e+08  8.4369465919890076e+07  1.2199779509298179e+08  1.7676855101725256e+08  5.8565182077720356e+08  1.8527558015741387e+08  5.9069727103174853e+08  1.3027780766224673e+08  8.2092608847521031e+08  7.3979914035624534e+07  8.4089296568994904e+08  8.7893987375922930e+08  1.3479138364857194e+08  4.8886663445830584e+08  6.6033130213709831e+08  7.6462799490490571e+07  1.2274669299581020e+08  1.1283262041404018e+08  7.2150599580342636e+07  8.1832402777161074e+08  7.9649199225456393e+08  5.6104308301498127e+08  7.4283600237459683e+08  6.6123580479707551e+08  1.4855350524947029e+08  2.5124431521429852e+08  8.9678714465352118e+08  8.1118700218744469e+08  8.2587790316781998e+08  1.7575931020859280e+08  2.1122588328800246e+08  2.1264678163810933e+08  5.8813910770306778e+08  8.9983392365969288e+08  2.7455193846304518e+08  9.8169542505695355e+08  9.7885808951574838e+08  1.0623776554362175e+09  1.0579464375270348e+09  2.5153285314966324e+08  6.0691041598324776e+08  7.4788081771092474e+08  6.5538723512754118e+08  7.2451626921354628e+08  1.0544620193877658e+08  1.8099736384024650e+08  5.8903666853021741e+08  2.1458652700147507e+08  </DataArray> 
</PointData> 
</Piece>
</UnstructuredGrid>
</VTKFile>