<?xml version="1.0"?>
<VTKFile type="UnstructuredGrid"  version="0.1"  >
<UnstructuredGrid>
<Piece  NumberOfPoints="218" NumberOfCells="376">
<Points>
<DataArray  type="Float64"  NumberOfComponents="3"  format="ascii">0.0009651973678222008 -0.003133536081384621 0  0.0007186135826119863 -0.002123978591161979 0  0.001525282357941988 -0.002250107083221153 0  0.01139240506329116 0 0  0.01118540837126958 -0.0007664530672228942 0  0.0107594936708861 0 0  0.004343451776564276 -0.008400549607937124 0  0.002973143307815555 -0.008471479256654584 0  0.003540372402609383 -0.007505082944815368 0  0.001939098162466433 -0.004852183023193526 0  0.002432166551340386 -0.004145022673009223 0  0.003105552542592489 -0.004730545166448087 0  0.01052338791207577 -0.00424443790543115 0  0.01113693928860578 -0.003499889726857906 0  0.0115114139842025 -0.00433764885612449 0  0.01198898293852328 -0.003543637872031664 0  0.01243123666764964 -0.00440686524775781 0  0.01045311747228144 -0.0004942949853096942 0  0.001823147621643848 -0.002956308149678184 0  0.004105064010666848 -0.001105313730747209 0  0.003238056967056237 -0.001124463382584311 0  0.003532278600933945 -0.000544980979404093 0  0.002705196375414262 -0.00554004872340335 0  0.006945644771952902 -0.001239896115484626 0  0.007298031166114275 -0.0006054642810987623 0  0.007745927549467513 -0.001249890262455401 0  0.0104116859176195 -0.003416456924296402 0  0.007911392405063302 -0.000548117344167369 0  0.01293256757230392 -0.003474536609440096 0  0.001091828978071849 -0.007697947386295929 0  0.001035597667605932 -0.009124098020289843 0  0 -0.008369435111720197 0  0.003615124109040479 -0.001747776612630821 0  0.001582278481012635 -0.0005481173441672996 0  0.001339875902505189 -0.00134122501670797 0  0.0009601664377976611 -0.000596145427926173 0  0.0005639952342539646 -0.001196294505093572 0  0.0004314146128913399 -0.0005337804698773221 0  0.01438669514816422 -0.001607721123629981 0  0.01402468102018722 -0.001037671328867167 0  0.01479929422481455 -0.0009846536398521594 0  0.008844425832152628 -0.003421140284197821 0  0.009628187868550906 -0.003399091317576389 0  0.009546122974264038 -0.00430716941539238 0  0.008514292756379157 -0.004273167134706192 0  0.01235283826775028 -0.002751046046806968 0  0.01296963627718381 -0.002652449414569061 0  0.006197499232517539 -0.003234940179090366 0  0.006817195685792522 -0.00263729331878032 0  0.007129099979924086 -0.003424692704330455 0  0.01428332710775825 -0.0004939388853112195 0  0.001847613503323835 -0.008439070580221454 0  0.002557019172007104 -0.003256733020630787 0  0.001759041293471725 -0.003793229803331667 0  0.006620132436559258 -0.004191292488524137 0  0.01179486850092202 -0.0004546344151382525 0  0.01202798980645854 -0.0009700799185014333 0  0.01337679491201974 -0.00444869062789547 0  0.01385476189420313 -0.003678707469743726 0  0 -0.002763047780535835 0  0.01355785299116603 -0.002865974592459498 0  0.001830744715014723 -0.006810386313167077 0  0.002324348794201032 -0.007555341247876594 0  0.00802581272094716 -0.003452246631988926 0  0.007586960951086005 -0.004244757197535802 0  0.003036160223820732 -0.00390672733279105 0  0.01158690964309771 -0.001404495225939474 0  0.004449619562320355 -0.001800888277119612 0  0.006259899765600936 -0.001197228544731234 0  0.006628260244885435 -0.0005948819644851153 0  0.004870303300938773 -0.002536664046011605 0  0.005205301055868371 -0.001826438629371048 0  0.005605648175456123 -0.002521991801198366 0  0.01080073444668933 -0.001458474531583397 0  0.004704255528228899 -0.0005454372226024393 0  0.004904048860783029 -0.001164592386492178 0  0.004010429201954536 -0.002488304686590524 0  0.00289474769066303 -0.006504136456940555 0  0.001913574127439387 -0.005936663415173196 0  0.004113889248219104 -0.0004391463865507442 0  0.0009481255192591333 -0.004328721092919839 0  0 -0.003777662603975662 0  0.004398766550254535 -0.007370943674077847 0  0.008049424738427877 -0.005088330532170317 0  0.01040413545368779 -0.001049259797442907 0  0.01118990966885194 -0.002056030662723952 0  0.01001062135623754 -0.005161866701997683 0  0.005913930045981133 -0.001834672235233668 0  0.008499685936961265 -0.001447909059984029 0  0.009266763784505857 -0.001439292025057375 0  0.008853115491748362 -0.00204049870974634 0  0.005677934965512343 -0.004135219206888127 0  0 -0.0008764624163668244 0  0.01289956040643703 -0.005259346494445635 0  0.006248426880501215 -0.002415811797728325 0  0 0 0  0.0140119121212876 -0.002216576296453769 0  0.01367788815659638 -0.00156835342039615 0  0 -0.004843008159152451 0  0.01477548213275549 -0.002257429886636055 0  0.005565069579096322 -0.001183877710466165 0  0.006012658227848088 -0.0005481173441673343 0  0.007282266606561168 -0.00197554884436995 0  0.002796128246253127 -0.001712612959777746 0  0.003160006646733573 -0.002418095206236766 0  0.005363565051914133 -0.0005540993823790336 0  0.002309197916976206 -0.002347934759822715 0  0.008058820225938686 -0.002021886380734486 0  0.004384762963315941 -0.003264551930156671 0  0.005255470597720635 -0.003321575587121685 0  0.007620779395358161 -0.002703972329188266 0  0.008442096184529308 -0.002723076491312766 0  0.014327768430775 -0.002951444236262514 0  0 -0.00179674796056907 0  0.0142952306447556 -0.004445286241129449 0  0.01474307595718269 -0.003681412318580567 0  0.0151678399597709 -0.002953892168831955 0  0.01384676853658606 -0.005260530794130379 0  0.01337046612458223 -0.006121730904935188 0  0.01431953701857373 -0.006091355812540514 0  0.01384967704602247 -0.007031978891003633 0  0.01488100460607738 -0.007023544277872627 0  0.01525985654179472 -0.006066373516622356 0  0.0009487031373032438 -0.005405066067846728 0  0.007070310448900542 -0.005039858073237598 0  0.00963888881871125 -0.002048653807697379 0  0.01002717248417198 -0.001422059479696564 0  0.010410871059057 -0.002052548956474602 0  0.009033009321397219 -0.005125358746951879 0  0.004770703632288945 -0.004080721733234496 0  0.01196894219599361 -0.002059295969459675 0  0.01231761393573234 -0.001483769529003212 0  0.01266460340495286 -0.00205808279091959 0  0.01098176931214114 -0.005197823606896253 0  0.01193731721977323 -0.005231988669538119 0  0 -0.005961620980091481 0  0.0009437608403435986 -0.00648244041968675 0  0.002072584481961758 -0.001633013092968864 0  0.00632799915718325 -0.00769755918828334 0  0.005273159130235794 -0.007565578123556259 0  0.005925385669667993 -0.006709016264777698 0  0.003836938188362664 -0.004011109746922439 0  0.004234325402965016 -0.004865154568149913 0  0 -0.007136164445926865 0  0.006527880712898965 -0.005863366796240187 0  0.006941787415583534 -0.006781999174370924 0  0.01334031914974599 -0.002112607033219117 0  0.009889210837846685 -0.0005161377402536152 0  0.00965384762373696 -0.001034011841387558 0  0.006570648913207241 -0.001865980578845787 0  0.009236967851053875 -0.002724201254308431 0  0.01002260039524609 -0.002725912039060856 0  0.00920391131281691 -0.0005192598173814969 0  0.008870866471580901 -0.0009849222176646424 0  0.006114924918487176 -0.004980741145418889 0  0.01080322357102896 -0.002727697209557525 0  0.01158294140818463 -0.002729459593706254 0  0.01240072311903274 -0.0060872729472283 0  0.003522487623499024 -0.003198320698947855 0  0.01143089328930648 -0.006049510177277805 0  0.007518101812179993 -0.005913444106223638 0  0.008504521772943575 -0.005951402871128685 0  0.009485486439754786 -0.005985809700588408 0  0.01046086017371166 -0.006018117339104574 0  0.005685075847912564 -0.008650020570364202 0  0.005178251762234454 -0.004919070190585281 0  0.008259487595254217 -0.0009369423994530501 0  0.001956210741956298 -0.001040919072416706 0  0.003673009353909979 -0.005676715555261357 0  0.01002734616812755 -0.003841788890674082 0  0.01558657126155154 -0.00366859271429399 0  0.01472483936360056 -0.005194320423779229 0  0.01455696202531648 0 0  0.01392405063291142 0 0  0.01362218740907669 -0.0005280322826475142 0  0.01329113924050635 0 0  0.01299194987139889 -0.0005139302847746094 0  0.01265822784810129 0 0  0.01234322280789459 -0.0005366390899669282 0  0.01202531645569622 0 0  0.01012658227848103 0 0  0.009493670886075967 0 0  0.008860759493670902 0 0  0.008545462000775318 -0.000534739852234109 0  0.008227848101265837 0 0  0.007594936708860772 0 0  0.006962025316455709 0 0  0.006329113924050643 0 0  0.005696202531645579 0 0  0.005063291139240515 0 0  0.01515640327345653 -0.004426319923765652 0  0.005560708868244415 -0.005790503666468452 0  0.01286818697148095 -0.006967428911681145 0  0.003797468354430385 0 0  0.003164556962025321 0 0  0.002848101265822817 -0.0005481173441673412 0  0.002531645569620257 0 0  0.004629859949132977 -0.005726416453947204 0  0.002215189873417695 -0.0005339553128171429 0  0.001898734177215193 0 0  0.004114238383023699 -0.00659527300436754 0  0.01301066561113463 -0.001534649769427181 0  0.002235959958684756 -0.00962301376578302 0  0.01188553150564481 -0.006924096455987079 0  0.004981371976935049 -0.006605391217865506 0  0.009944542786693975 -0.006865757487026058 0  0.00443037974683545 0 0  0.01601511050997904 -0.004401946692246347 0  0.002511465835287784 -0.001095280102017489 0  0.001265822784810129 0 0  0.0006329113924050643 0 0  0.01557359190366974 -0.005166361152564296 0  0.01091813146604487 -0.006866038005863592 0  0.00898560919086306 -0.006875748462396566 0  0.01484638768123169 -0.0003976472611271972 0  0.0133445792495008 -0.001031215177625978 0  0.01266559640197132 -0.0009940165345053084 0  0.01518987341772155 0 0  </DataArray>
</Points>
<Cells>
<DataArray  type="UInt32"  Name="connectivity"  format="ascii">0 2 1  5 3 4  6 8 7  11 9 10  14 12 13  14 15 16  5 17 4  0 2 18  21 19 20  11 9 22  25 23 24  26 12 13  27 25 24  15 16 28  31 29 30  14 15 13  32 19 20  35 33 34  36 35 37  38 40 39  43 41 42  43 44 41  45 28 46  49 47 48  40 50 39  51 29 30  52 53 10  45 15 28  54 49 47  4 55 56  57 58 28  59 0 1  58 60 28  62 29 61  64 63 44  52 65 10  57 16 28  62 51 29  66 4 56  67 32 19  69 23 68  70 72 71  69 23 24  66 73 4  19 75 74  76 67 32  60 28 46  77 78 61  19 74 79  81 0 80  6 8 82  83 64 44  17 4 84  9 80 53  85 66 73  86 43 12  72 71 87  90 88 89  54 91 47  92 36 37  0 80 53  93 57 16  52 53 18  36 35 34  77 78 22  47 48 94  95 92 37  38 96 97  3 4 55  98 81 80  63 44 41  99 38 96  21 19 79  2 1 34  67 19 75  68 101 100  102 25 23  70 76 67  104 103 32  76 104 32  105 101 100  104 106 103  107 102 25  109 108 70  49 63 110  110 111 107  73 4 84  64 54 49  107 90 88  112 60 96  113 92 36  57 114 58  58 115 112  112 116 99  117 93 57  119 118 117  121 120 119  121 119 122  123 78 9  83 124 64  125 127 126  109 70 72  86 128 43  127 85 73  91 129 109  85 130 66  130 132 131  90 125 89  64 49 63  134 133 14  135 136 123  136 123 78  123 9 80  63 110 111  128 83 44  108 70 76  93 134 16  111 107 90  107 88 25  110 107 102  133 86 12  98 123 80  127 126 73  106 103 137  117 57 114  114 58 115  124 64 54  115 112 116  81 59 0  112 99 96  58 112 60  118 117 93  130 66 131  120 119 118  138 140 139  125 126 89  134 14 16  128 43 44  129 109 108  70 67 71  133 14 12  142 11 141  143 135 136  0 53 18  36 1 34  135 98 123  91 109 47  145 140 144  60 96 146  69 68 101  147 148 84  23 149 68  105 75 100  105 75 74  90 150 125  125 151 127  49 110 48  152 153 148  54 154 91  127 155 85  85 156 130  130 45 132  93 157 134  102 149 48  76 158 104  134 159 133  83 160 124  128 161 83  86 162 128  133 163 86  138 164 139  78 9 22  9 53 10  91 165 129  145 138 140  27 25 166  102 23 149  164 6 139  67 75 71  33 167 34  142 168 11  77 62 61  104 52 106  43 12 169  109 72 47  111 90 150  115 116 170  118 93 157  110 102 48  124 54 154  72 47 94  150 125 151  103 32 20  151 127 155  155 85 156  156 130 45  119 117 171  17 147 84  157 134 159  31 143 29  108 76 158  154 91 165  159 133 163  163 86 162  162 128 161  161 83 160  59 113 1  165 129 142  106 137 2  173 172 50  175 173 174  38 97 39  177 175 176  179 177 178  158 104 52  180 5 17  160 145 144  181 180 147  182 181 152  129 142 141  11 141 65  184 182 183  88 89 153  63 111 41  160 124 144  185 184 27  186 185 24  129 108 141  187 186 69  188 187 101  189 188 105  115 170 190  140 144 191  158 52 65  118 157 192  89 153 148  62 7 51  194 193 21  108 158 141  158 141 65  196 194 195  142 197 168  199 196 198  114 115 190  72 87 94  77 8 62  168 200 77  132 131 201  120 118 192  156 45 15  111 150 41  151 155 26  51 202 30  157 159 203  165 142 197  124 154 144  7 51 202  140 139 204  163 162 205  11 65 10  8 62 7  3 179 55  206 189 74  200 77 8  170 207 190  197 168 200  143 136 29  103 137 208  173 174 50  209 199 33  175 174 176  177 178 176  157 203 192  180 17 147  181 152 147  182 152 183  60 146 46  184 27 183  155 156 13  185 27 24  150 151 42  210 209 35  186 69 24  187 69 101  188 105 101  207 211 190  159 163 212  162 161 213  189 105 74  52 106 18  168 77 22  154 165 191  137 2 34  156 15 13  114 190 171  155 26 13  136 29 61  151 26 42  194 21 195  196 198 195  150 41 42  75 71 100  159 203 212  40 50 214  163 205 212  162 205 213  193 206 79  26 12 169  165 197 191  113 36 1  176 215 216  154 144 191  6 139 82  199 198 33  117 114 171  193 21 79  206 74 79  211 190 171  179 178 55  168 11 22  172 50 214  119 171 122  97 201 146  209 35 33  88 25 166  126 148 84  106 2 18  149 68 87  66 131 56  21 195 20  132 201 146  139 204 82  126 73 84  126 89 148  152 147 148  68 100 87  197 191 204  96 97 146  140 191 204  43 42 169  201 215 216  174 176 215  198 195 208  149 87 94  149 48 94  172 217 214  195 20 208  136 78 61  211 171 122  174 50 39  197 200 204  45 132 46  71 100 87  210 35 37  137 208 167  200 204 82  95 210 37  103 20 208  198 208 167  200 8 82  178 176 216  152 183 153  131 201 216  97 201 215  198 33 167  178 216 56  132 146 46  183 153 166  178 55 56  27 183 166  131 216 56  26 42 169  174 39 215  88 153 166  97 39 215  137 167 34  </DataArray>
<DataArray  type="UInt32"  Name="offsets"  format="ascii">3 6 9 12 15 18 21 24 27 30 33 36 39 42 45 48 51 54 57 60 63 66 69 72 75 78 81 84 87 90 93 96 99 102 105 108 111 114 117 120 123 126 129 132 135 138 141 144 147 150 153 156 159 162 165 168 171 174 177 180 183 186 189 192 195 198 201 204 207 210 213 216 219 222 225 228 231 234 237 240 243 246 249 252 255 258 261 264 267 270 273 276 279 282 285 288 291 294 297 300 303 306 309 312 315 318 321 324 327 330 333 336 339 342 345 348 351 354 357 360 363 366 369 372 375 378 381 384 387 390 393 396 399 402 405 408 411 414 417 420 423 426 429 432 435 438 441 444 447 450 453 456 459 462 465 468 471 474 477 480 483 486 489 492 495 498 501 504 507 510 513 516 519 522 525 528 531 534 537 540 543 546 549 552 555 558 561 564 567 570 573 576 579 582 585 588 591 594 597 600 603 606 609 612 615 618 621 624 627 630 633 636 639 642 645 648 651 654 657 660 663 666 669 672 675 678 681 684 687 690 693 696 699 702 705 708 711 714 717 720 723 726 729 732 735 738 741 744 747 750 753 756 759 762 765 768 771 774 777 780 783 786 789 792 795 798 801 804 807 810 813 816 819 822 825 828 831 834 837 840 843 846 849 852 855 858 861 864 867 870 873 876 879 882 885 888 891 894 897 900 903 906 909 912 915 918 921 924 927 930 933 936 939 942 945 948 951 954 957 960 963 966 969 972 975 978 981 984 987 990 993 996 999 1002 1005 1008 1011 1014 1017 1020 1023 1026 1029 1032 1035 1038 1041 1044 1047 1050 1053 1056 1059 1062 1065 1068 1071 1074 1077 1080 1083 1086 1089 1092 1095 1098 1101 1104 1107 1110 1113 1116 1119 1122 1125 1128 </DataArray>
<DataArray  type="UInt8"  Name="types"  format="ascii">5 5 5 5 5 5 5 5 5 5 5 5 5 5 5 5 5 5 5 5 5 5 5 5 5 5 5 5 5 5 5 5 5 5 5 5 5 5 5 5 5 5 5 5 5 5 5 5 5 5 5 5 5 5 5 5 5 5 5 5 5 5 5 5 5 5 5 5 5 5 5 5 5 5 5 5 5 5 5 5 5 5 5 5 5 5 5 5 5 5 5 5 5 5 5 5 5 5 5 5 5 5 5 5 5 5 5 5 5 5 5 5 5 5 5 5 5 5 5 5 5 5 5 5 5 5 5 5 5 5 5 5 5 5 5 5 5 5 5 5 5 5 5 5 5 5 5 5 5 5 5 5 5 5 5 5 5 5 5 5 5 5 5 5 5 5 5 5 5 5 5 5 5 5 5 5 5 5 5 5 5 5 5 5 5 5 5 5 5 5 5 5 5 5 5 5 5 5 5 5 5 5 5 5 5 5 5 5 5 5 5 5 5 5 5 5 5 5 5 5 5 5 5 5 5 5 5 5 5 5 5 5 5 5 5 5 5 5 5 5 5 5 5 5 5 5 5 5 5 5 5 5 5 5 5 5 5 5 5 5 5 5 5 5 5 5 5 5 5 5 5 5 5 5 5 5 5 5 5 5 5 5 5 5 5 5 5 5 5 5 5 5 5 5 5 5 5 5 5 5 5 5 5 5 5 5 5 5 5 5 5 5 5 5 5 5 5 5 5 5 5 5 5 5 5 5 5 5 5 5 5 5 5 5 5 5 5 5 5 5 5 5 5 5 5 5 5 5 5 5 5 5 5 5 5 5 5 5 5 5 5 5 5 5 5 5 5 5 5 5 5 5 5 5 5 5 </DataArray>
</Cells>
<PointData  Scalars=" mean stress"> 
<DataArray  type="Float64"  Name=" mean stress"  format="ascii">1.4303373682986608e+09  1.5088006945089507e+09  1.4978587818005781e+09  1.6531510902813854e+09  1.6141691908518295e+09  1.6509418417115722e+09  1.0550761220058737e+09  1.0494755340185901e+09  1.1233144063003290e+09  1.3038857909606478e+09  1.3614329147307067e+09  1.3148205444268322e+09  1.3434010619118779e+09  1.4060853896959133e+09  1.3413757746387444e+09  1.3993465702160888e+09  1.3412709656656787e+09  1.6358203365665121e+09  1.4503750944032147e+09  1.5832313525940633e+09  1.5795385743885849e+09  1.6285218969844294e+09  1.2597873907429085e+09  1.5711488018964598e+09  1.6234445308845913e+09  1.5705468686070986e+09  1.4152000145452509e+09  1.6299944839026794e+09  1.4031336816906590e+09  1.1048196149036794e+09  1.0188282147225419e+09  1.0580490674807587e+09  1.5344867093346622e+09  1.6254864456224599e+09  1.5635155032792087e+09  1.6239082290170546e+09  1.5727329974732349e+09  1.6323008202324259e+09  1.5466978059140987e+09  1.5867225067073858e+09  1.5914030679683754e+09  1.4068846817952974e+09  1.4114535482938585e+09  1.3453768108256798e+09  1.3496001268927534e+09  1.4601348712924833e+09  1.4696216908937018e+09  1.4212185480972025e+09  1.4708157185932932e+09  1.4079706327367408e+09  1.6326136593739967e+09  1.0537912829858106e+09  1.4268465728113432e+09  1.3806754811184399e+09  1.3565670952262285e+09  1.6405878756831341e+09  1.5907309445862851e+09  1.3384969247413876e+09  1.3904603249217229e+09  1.4629599903638673e+09  1.4540254773827581e+09  1.1625034915116582e+09  1.1183396318271477e+09  1.4066070693319168e+09  1.3496065853607781e+09  1.3762338243669651e+09  1.5596324890185351e+09  1.5299549408987296e+09  1.5751267145122931e+09  1.6229460678131623e+09  1.4748215448143566e+09  1.5289421397399645e+09  1.4766497715631716e+09  1.5549247472314780e+09  1.6289213939542630e+09  1.5771907401883051e+09  1.4791930315829380e+09  1.1861308690778069e+09  1.2338485587520628e+09  1.6359728254793661e+09  1.3485140153596339e+09  1.3832797417038143e+09  1.1311231045797575e+09  1.2895649231134770e+09  1.5879302776650214e+09  1.5124857609984033e+09  1.2862468378711503e+09  1.5301536641928773e+09  1.5554013977280917e+09  1.5551808768633673e+09  1.5119606471044164e+09  1.3603373094017901e+09  1.6018952616185930e+09  1.2768249526348999e+09  1.4863874822043438e+09  1.6486139595716753e+09  1.4993109944133554e+09  1.5486168068700318e+09  1.3040818925136220e+09  1.4960432661098492e+09  1.5770899329625719e+09  1.6255982394945409e+09  1.5200048542190747e+09  1.5379913018491383e+09  1.4816402200153260e+09  1.6251918509420919e+09  1.4866753477659931e+09  1.5151595468158274e+09  1.4219573598149171e+09  1.4165933353734019e+09  1.4616829078155394e+09  1.4636040197547486e+09  1.4443227038035665e+09  1.5349875315695615e+09  1.3366831418958993e+09  1.3923307189903290e+09  1.4451620049495425e+09  1.2759232382394061e+09  1.2172047921121669e+09  1.2160483568029678e+09  1.1497263486461020e+09  1.1520567740810235e+09  1.2195698099706287e+09  1.2656078459392705e+09  1.2920804734699464e+09  1.5119694798822172e+09  1.5536637223293798e+09  1.5111873492296143e+09  1.2868308309231670e+09  1.3605283493346426e+09  1.5124876167260561e+09  1.5548818252836566e+09  1.5108649759529545e+09  1.2846634904265015e+09  1.2788841077494709e+09  1.2273709589221823e+09  1.1865481859842362e+09  1.5405691624587691e+09  1.1048275823672907e+09  1.1165829785944574e+09  1.1739396617960327e+09  1.3682982409853477e+09  1.3048717376615102e+09  1.1486243167065835e+09  1.2337322123313177e+09  1.1685186596095743e+09  1.5069195208019528e+09  1.6286359097714684e+09  1.5922567548373806e+09  1.5276657425329823e+09  1.4633230735086744e+09  1.4619097699945502e+09  1.6287225919902248e+09  1.5902996833511550e+09  1.2964738859721467e+09  1.4604941052575188e+09  1.4584622275488422e+09  1.2193404061817870e+09  1.4270988586628866e+09  1.2197103590378222e+09  1.2298816777099445e+09  1.2265440377310996e+09  1.2252384491193583e+09  1.2229031173921726e+09  1.0419001597790684e+09  1.3010034409801626e+09  1.5963934232100773e+09  1.5910728930471950e+09  1.2496863228432143e+09  1.3874346757642674e+09  1.3920886014051974e+09  1.2796286399744928e+09  1.6585546676560869e+09  1.6553392852558346e+09  1.6287935774903386e+09  1.6543971643785374e+09  1.6314875655166423e+09  1.6543137432570078e+09  1.6306515448820300e+09  1.6557387484818077e+09  1.6549432499512961e+09  1.6566986290000269e+09  1.6546251739613223e+09  1.6333517760892265e+09  1.6540177346839964e+09  1.6542488397662249e+09  1.6534291967645993e+09  1.6543094851128078e+09  1.6553428319618492e+09  1.6551152128840520e+09  1.3384771454898708e+09  1.2402904302292852e+09  1.1519621342014260e+09  1.6577537004921584e+09  1.6554496189629657e+09  1.6267742773119330e+09  1.6542847709568031e+09  1.2422884806465485e+09  1.6294257381408064e+09  1.6551192891568980e+09  1.1837880240020382e+09  1.5513934290390501e+09  9.8242180944082773e+08  1.1594125665020092e+09  1.1840686069091432e+09  1.1613068907721705e+09  1.6573380866714268e+09  1.3383023044573011e+09  1.5823231883276398e+09  1.6556806744360597e+09  1.6553159540764170e+09  1.2815218646269145e+09  1.1677571660274787e+09  1.1621913140795095e+09  1.6409319071174278e+09  1.5881687333574836e+09  1.5900438785515294e+09  1.6584355055992048e+09  </DataArray> 
</PointData> 
</Piece>
</UnstructuredGrid>
</VTKFile>