<?xml version="1.0"?>
<VTKFile type="UnstructuredGrid"  version="0.1"  >
<UnstructuredGrid>
<Piece  NumberOfPoints="1411" NumberOfCells="2700">
<Points>
<DataArray  type="Float64"  NumberOfComponents="3"  format="ascii">-0.75 -4.5 0  -0.65 -4.5 0  -0.55 -4.5 0  -0.45 -4.5 0  -0.35 -4.5 0  -0.25 -4.5 0  -0.15 -4.5 0  -0.05000000000000004 -4.5 0  0.05000000000000004 -4.5 0  0.15 -4.5 0  0.25 -4.5 0  0.3500000000000001 -4.5 0  0.45 -4.5 0  0.55 -4.5 0  0.6499999999999999 -4.5 0  0.75 -4.5 0  -0.75 -4.4 0  -0.65 -4.4 0  -0.55 -4.4 0  -0.45 -4.4 0  -0.35 -4.4 0  -0.25 -4.4 0  -0.15 -4.4 0  -0.05000000000000004 -4.4 0  0.05000000000000004 -4.4 0  0.15 -4.4 0  0.25 -4.4 0  0.3500000000000001 -4.4 0  0.45 -4.4 0  0.55 -4.4 0  0.6499999999999999 -4.4 0  0.75 -4.4 0  -0.75 -4.3 0  -0.65 -4.3 0  -0.55 -4.3 0  -0.45 -4.3 0  -0.35 -4.3 0  -0.25 -4.3 0  -0.15 -4.3 0  -0.05000000000000004 -4.3 0  0.05000000000000004 -4.3 0  0.15 -4.3 0  0.25 -4.3 0  0.3500000000000001 -4.3 0  0.45 -4.3 0  0.55 -4.3 0  0.6499999999999999 -4.3 0  0.75 -4.3 0  -0.75 -4.2 0  -0.65 -4.2 0  -0.55 -4.2 0  -0.45 -4.2 0  -0.35 -4.2 0  -0.25 -4.2 0  -0.15 -4.2 0  -0.05000000000000004 -4.2 0  0.05000000000000004 -4.2 0  0.15 -4.2 0  0.25 -4.2 0  0.3500000000000001 -4.2 0  0.45 -4.2 0  0.55 -4.2 0  0.6499999999999999 -4.2 0  0.75 -4.2 0  -0.75 -4.1 0  -0.65 -4.1 0  -0.55 -4.1 0  -0.45 -4.1 0  -0.35 -4.1 0  -0.25 -4.1 0  -0.15 -4.1 0  -0.05000000000000004 -4.1 0  0.05000000000000004 -4.1 0  0.15 -4.1 0  0.25 -4.1 0  0.3500000000000001 -4.1 0  0.45 -4.1 0  0.55 -4.1 0  0.6499999999999999 -4.1 0  0.75 -4.1 0  -0.75 -4 0  -0.65 -4 0  -0.55 -4 0  -0.45 -4 0  -0.35 -4 0  -0.25 -4 0  -0.15 -4 0  -0.05000000000000004 -4 0  0.05000000000000004 -4 0  0.15 -4 0  0.25 -4 0  0.3500000000000001 -4 0  0.45 -4 0  0.55 -4 0  0.6499999999999999 -4 0  0.75 -4 0  -0.75 -3.9 0  -0.65 -3.9 0  -0.55 -3.9 0  -0.45 -3.9 0  -0.35 -3.9 0  -0.25 -3.9 0  -0.15 -3.9 0  -0.05000000000000004 -3.9 0  0.05000000000000004 -3.9 0  0.15 -3.9 0  0.25 -3.9 0  0.3500000000000001 -3.9 0  0.45 -3.9 0  0.55 -3.9 0  0.6499999999999999 -3.9 0  0.75 -3.9 0  -0.75 -3.8 0  -0.65 -3.8 0  -0.55 -3.8 0  -0.45 -3.8 0  -0.35 -3.8 0  -0.25 -3.8 0  -0.15 -3.8 0  -0.05000000000000004 -3.8 0  0.05000000000000004 -3.8 0  0.15 -3.8 0  0.25 -3.8 0  0.3500000000000001 -3.8 0  0.45 -3.8 0  0.55 -3.8 0  0.6499999999999999 -3.8 0  0.75 -3.8 0  -0.75 -3.7 0  -0.65 -3.7 0  -0.55 -3.7 0  -0.45 -3.7 0  -0.35 -3.7 0  -0.25 -3.7 0  -0.15 -3.7 0  -0.05000000000000004 -3.7 0  0.05000000000000004 -3.7 0  0.15 -3.7 0  0.25 -3.7 0  0.3500000000000001 -3.7 0  0.45 -3.7 0  0.55 -3.7 0  0.6499999999999999 -3.7 0  0.75 -3.7 0  -0.75 -3.6 0  -0.65 -3.6 0  -0.55 -3.6 0  -0.45 -3.6 0  -0.35 -3.6 0  -0.25 -3.6 0  -0.15 -3.6 0  -0.05000000000000004 -3.6 0  0.05000000000000004 -3.6 0  0.15 -3.6 0  0.25 -3.6 0  0.3500000000000001 -3.6 0  0.45 -3.6 0  0.55 -3.6 0  0.6499999999999999 -3.6 0  0.75 -3.6 0  -0.75 -3.5 0  -0.65 -3.5 0  -0.55 -3.5 0  -0.45 -3.5 0  -0.35 -3.5 0  -0.25 -3.5 0  -0.15 -3.5 0  -0.05000000000000004 -3.5 0  0.05000000000000004 -3.5 0  0.15 -3.5 0  0.25 -3.5 0  0.3500000000000001 -3.5 0  0.45 -3.5 0  0.55 -3.5 0  0.6499999999999999 -3.5 0  0.75 -3.5 0  -0.75 -3.4 0  -0.65 -3.4 0  -0.55 -3.4 0  -0.45 -3.4 0  -0.35 -3.4 0  -0.25 -3.4 0  -0.15 -3.4 0  -0.05000000000000004 -3.4 0  0.05000000000000004 -3.4 0  0.15 -3.4 0  0.25 -3.4 0  0.3500000000000001 -3.4 0  0.45 -3.4 0  0.55 -3.4 0  0.6499999999999999 -3.4 0  0.75 -3.4 0  -0.75 -3.3 0  -0.65 -3.3 0  -0.55 -3.3 0  -0.45 -3.3 0  -0.35 -3.3 0  -0.25 -3.3 0  -0.15 -3.3 0  -0.05000000000000004 -3.3 0  0.05000000000000004 -3.3 0  0.15 -3.3 0  0.25 -3.3 0  0.3500000000000001 -3.3 0  0.45 -3.3 0  0.55 -3.3 0  0.6499999999999999 -3.3 0  0.75 -3.3 0  -0.75 -3.2 0  -0.65 -3.2 0  -0.55 -3.2 0  -0.45 -3.2 0  -0.35 -3.2 0  -0.25 -3.2 0  -0.15 -3.2 0  -0.05000000000000004 -3.2 0  0.05000000000000004 -3.2 0  0.15 -3.2 0  0.25 -3.2 0  0.3500000000000001 -3.2 0  0.45 -3.2 0  0.55 -3.2 0  0.6499999999999999 -3.2 0  0.75 -3.2 0  -0.75 -3.1 0  -0.65 -3.1 0  -0.55 -3.1 0  -0.45 -3.1 0  -0.35 -3.1 0  -0.25 -3.1 0  -0.15 -3.1 0  -0.05000000000000004 -3.1 0  0.05000000000000004 -3.1 0  0.15 -3.1 0  0.25 -3.1 0  0.3500000000000001 -3.1 0  0.45 -3.1 0  0.55 -3.1 0  0.6499999999999999 -3.1 0  0.75 -3.1 0  -0.75 -3 0  -0.65 -3 0  -0.55 -3 0  -0.45 -3 0  -0.35 -3 0  -0.25 -3 0  -0.15 -3 0  -0.05000000000000004 -3 0  0.05000000000000004 -3 0  0.15 -3 0  0.25 -3 0  0.3500000000000001 -3 0  0.45 -3 0  0.55 -3 0  0.6499999999999999 -3 0  0.75 -3 0  -0.75 -2.9 0  -0.65 -2.9 0  -0.55 -2.9 0  -0.45 -2.9 0  -0.35 -2.9 0  -0.25 -2.9 0  -0.15 -2.9 0  -0.05000000000000004 -2.9 0  0.05000000000000004 -2.9 0  0.15 -2.9 0  0.25 -2.9 0  0.3500000000000001 -2.9 0  0.45 -2.9 0  0.55 -2.9 0  0.6499999999999999 -2.9 0  0.75 -2.9 0  -0.75 -2.8 0  -0.65 -2.8 0  -0.55 -2.8 0  -0.45 -2.8 0  -0.35 -2.8 0  -0.25 -2.8 0  -0.15 -2.8 0  -0.05000000000000004 -2.8 0  0.05000000000000004 -2.8 0  0.15 -2.8 0  0.25 -2.8 0  0.3500000000000001 -2.8 0  0.45 -2.8 0  0.55 -2.8 0  0.6499999999999999 -2.8 0  0.75 -2.8 0  -0.75 -2.7 0  -0.65 -2.7 0  -0.55 -2.7 0  -0.45 -2.7 0  -0.35 -2.7 0  -0.25 -2.7 0  -0.15 -2.7 0  -0.05000000000000004 -2.7 0  0.05000000000000004 -2.7 0  0.15 -2.7 0  0.25 -2.7 0  0.3500000000000001 -2.7 0  0.45 -2.7 0  0.55 -2.7 0  0.6499999999999999 -2.7 0  0.75 -2.7 0  -0.75 -2.6 0  -0.65 -2.6 0  -0.55 -2.6 0  -0.45 -2.6 0  -0.35 -2.6 0  -0.25 -2.6 0  -0.15 -2.6 0  -0.05000000000000004 -2.6 0  0.05000000000000004 -2.6 0  0.15 -2.6 0  0.25 -2.6 0  0.3500000000000001 -2.6 0  0.45 -2.6 0  0.55 -2.6 0  0.6499999999999999 -2.6 0  0.75 -2.6 0  -0.75 -2.5 0  -0.65 -2.5 0  -0.55 -2.5 0  -0.45 -2.5 0  -0.35 -2.5 0  -0.25 -2.5 0  -0.15 -2.5 0  -0.05000000000000004 -2.5 0  0.05000000000000004 -2.5 0  0.15 -2.5 0  0.25 -2.5 0  0.3500000000000001 -2.5 0  0.45 -2.5 0  0.55 -2.5 0  0.6499999999999999 -2.5 0  0.75 -2.5 0  -0.75 -2.4 0  -0.65 -2.4 0  -0.55 -2.4 0  -0.45 -2.4 0  -0.35 -2.4 0  -0.25 -2.4 0  -0.15 -2.4 0  -0.05000000000000004 -2.4 0  0.05000000000000004 -2.4 0  0.15 -2.4 0  0.25 -2.4 0  0.3500000000000001 -2.4 0  0.45 -2.4 0  0.55 -2.4 0  0.6499999999999999 -2.4 0  0.75 -2.4 0  -0.75 -2.3 0  -0.65 -2.3 0  -0.55 -2.3 0  -0.45 -2.3 0  -0.35 -2.3 0  -0.25 -2.3 0  -0.15 -2.3 0  -0.05000000000000004 -2.3 0  0.05000000000000004 -2.3 0  0.15 -2.3 0  0.25 -2.3 0  0.3500000000000001 -2.3 0  0.45 -2.3 0  0.55 -2.3 0  0.6499999999999999 -2.3 0  0.75 -2.3 0  -0.75 -2.2 0  -0.65 -2.2 0  -0.55 -2.2 0  -0.45 -2.2 0  -0.35 -2.2 0  -0.25 -2.2 0  -0.15 -2.2 0  -0.05000000000000004 -2.2 0  0.05000000000000004 -2.2 0  0.15 -2.2 0  0.25 -2.2 0  0.3500000000000001 -2.2 0  0.45 -2.2 0  0.55 -2.2 0  0.6499999999999999 -2.2 0  0.75 -2.2 0  -0.75 -2.1 0  -0.65 -2.1 0  -0.55 -2.1 0  -0.45 -2.1 0  -0.35 -2.1 0  -0.25 -2.1 0  -0.15 -2.1 0  -0.05000000000000004 -2.1 0  0.05000000000000004 -2.1 0  0.15 -2.1 0  0.25 -2.1 0  0.3500000000000001 -2.1 0  0.45 -2.1 0  0.55 -2.1 0  0.6499999999999999 -2.1 0  0.75 -2.1 0  -0.75 -2 0  -0.65 -2 0  -0.55 -2 0  -0.45 -2 0  -0.35 -2 0  -0.25 -2 0  -0.15 -2 0  -0.05000000000000004 -2 0  0.05000000000000004 -2 0  0.15 -2 0  0.25 -2 0  0.3500000000000001 -2 0  0.45 -2 0  0.55 -2 0  0.6499999999999999 -2 0  0.75 -2 0  -0.75 -1.9 0  -0.65 -1.9 0  -0.55 -1.9 0  -0.45 -1.9 0  -0.35 -1.9 0  -0.25 -1.9 0  -0.15 -1.9 0  -0.05000000000000004 -1.9 0  0.05000000000000004 -1.9 0  0.15 -1.9 0  0.25 -1.9 0  0.3500000000000001 -1.9 0  0.45 -1.9 0  0.55 -1.9 0  0.6499999999999999 -1.9 0  0.75 -1.9 0  -0.75 -1.8 0  -0.65 -1.8 0  -0.55 -1.8 0  -0.45 -1.8 0  -0.35 -1.8 0  -0.25 -1.8 0  -0.15 -1.8 0  -0.05000000000000004 -1.8 0  0.05000000000000004 -1.8 0  0.15 -1.8 0  0.25 -1.8 0  0.3500000000000001 -1.8 0  0.45 -1.8 0  0.55 -1.8 0  0.6499999999999999 -1.8 0  0.75 -1.8 0  -0.75 -1.7 0  -0.65 -1.7 0  -0.55 -1.7 0  -0.45 -1.7 0  -0.35 -1.7 0  -0.25 -1.7 0  -0.15 -1.7 0  -0.05000000000000004 -1.7 0  0.05000000000000004 -1.7 0  0.15 -1.7 0  0.25 -1.7 0  0.3500000000000001 -1.7 0  0.45 -1.7 0  0.55 -1.7 0  0.6499999999999999 -1.7 0  0.75 -1.7 0  -0.75 -1.6 0  -0.65 -1.6 0  -0.55 -1.6 0  -0.45 -1.6 0  -0.35 -1.6 0  -0.25 -1.6 0  -0.15 -1.6 0  -0.05000000000000004 -1.6 0  0.05000000000000004 -1.6 0  0.15 -1.6 0  0.25 -1.6 0  0.3500000000000001 -1.6 0  0.45 -1.6 0  0.55 -1.6 0  0.6499999999999999 -1.6 0  0.75 -1.6 0  -0.75 -1.5 0  -0.65 -1.5 0  -0.55 -1.5 0  -0.45 -1.5 0  -0.35 -1.5 0  -0.25 -1.5 0  -0.15 -1.5 0  -0.05000000000000004 -1.5 0  0.05000000000000004 -1.5 0  0.15 -1.5 0  0.25 -1.5 0  0.3500000000000001 -1.5 0  0.45 -1.5 0  0.55 -1.5 0  0.6499999999999999 -1.5 0  0.75 -1.5 0  -0.75 -1.4 0  -0.65 -1.4 0  -0.55 -1.4 0  -0.45 -1.4 0  -0.35 -1.4 0  -0.25 -1.4 0  -0.15 -1.4 0  -0.05000000000000004 -1.4 0  0.05000000000000004 -1.4 0  0.15 -1.4 0  0.25 -1.4 0  0.3500000000000001 -1.4 0  0.45 -1.4 0  0.55 -1.4 0  0.6499999999999999 -1.4 0  0.75 -1.4 0  -0.75 -1.3 0  -0.65 -1.3 0  -0.55 -1.3 0  -0.45 -1.3 0  -0.35 -1.3 0  -0.25 -1.3 0  -0.15 -1.3 0  -0.05000000000000004 -1.3 0  0.05000000000000004 -1.3 0  0.15 -1.3 0  0.25 -1.3 0  0.3500000000000001 -1.3 0  0.45 -1.3 0  0.55 -1.3 0  0.6499999999999999 -1.3 0  0.75 -1.3 0  -0.75 -1.2 0  -0.65 -1.2 0  -0.55 -1.2 0  -0.45 -1.2 0  -0.35 -1.2 0  -0.25 -1.2 0  -0.15 -1.2 0  -0.05000000000000004 -1.2 0  0.05000000000000004 -1.2 0  0.15 -1.2 0  0.25 -1.2 0  0.3500000000000001 -1.2 0  0.45 -1.2 0  0.55 -1.2 0  0.6499999999999999 -1.2 0  0.75 -1.2 0  -0.75 -1.1 0  -0.65 -1.1 0  -0.55 -1.1 0  -0.45 -1.1 0  -0.35 -1.1 0  -0.25 -1.1 0  -0.15 -1.1 0  -0.05000000000000004 -1.1 0  0.05000000000000004 -1.1 0  0.15 -1.1 0  0.25 -1.1 0  0.3500000000000001 -1.1 0  0.45 -1.1 0  0.55 -1.1 0  0.6499999999999999 -1.1 0  0.75 -1.1 0  -0.75 -1 0  -0.65 -1 0  -0.55 -1 0  -0.45 -1 0  -0.35 -1 0  -0.25 -1 0  -0.15 -1 0  -0.05000000000000004 -1 0  0.05000000000000004 -1 0  0.15 -1 0  0.25 -1 0  0.3500000000000001 -1 0  0.45 -1 0  0.55 -1 0  0.6499999999999999 -1 0  0.75 -1 0  -0.75 -0.8999999999999999 0  -0.65 -0.8999999999999999 0  -0.55 -0.8999999999999999 0  -0.45 -0.8999999999999999 0  -0.35 -0.8999999999999999 0  -0.25 -0.8999999999999999 0  -0.15 -0.8999999999999999 0  -0.05000000000000004 -0.8999999999999999 0  0.05000000000000004 -0.8999999999999999 0  0.15 -0.8999999999999999 0  0.25 -0.8999999999999999 0  0.3500000000000001 -0.8999999999999999 0  0.45 -0.8999999999999999 0  0.55 -0.8999999999999999 0  0.6499999999999999 -0.8999999999999999 0  0.75 -0.8999999999999999 0  -0.75 -0.7999999999999998 0  -0.65 -0.7999999999999998 0  -0.55 -0.7999999999999998 0  -0.45 -0.7999999999999998 0  -0.35 -0.7999999999999998 0  -0.25 -0.7999999999999998 0  -0.15 -0.7999999999999998 0  -0.05000000000000004 -0.7999999999999998 0  0.05000000000000004 -0.7999999999999998 0  0.15 -0.7999999999999998 0  0.25 -0.7999999999999998 0  0.3500000000000001 -0.7999999999999998 0  0.45 -0.7999999999999998 0  0.55 -0.7999999999999998 0  0.6499999999999999 -0.7999999999999998 0  0.75 -0.7999999999999998 0  -0.75 -0.7000000000000002 0  -0.65 -0.7000000000000002 0  -0.55 -0.7000000000000002 0  -0.45 -0.7000000000000002 0  -0.35 -0.7000000000000002 0  -0.25 -0.7000000000000002 0  -0.15 -0.7000000000000002 0  -0.05000000000000004 -0.7000000000000002 0  0.05000000000000004 -0.7000000000000002 0  0.15 -0.7000000000000002 0  0.25 -0.7000000000000002 0  0.3500000000000001 -0.7000000000000002 0  0.45 -0.7000000000000002 0  0.55 -0.7000000000000002 0  0.6499999999999999 -0.7000000000000002 0  0.75 -0.7000000000000002 0  -0.75 -0.6000000000000001 0  -0.65 -0.6000000000000001 0  -0.55 -0.6000000000000001 0  -0.45 -0.6000000000000001 0  -0.35 -0.6000000000000001 0  -0.25 -0.6000000000000001 0  -0.15 -0.6000000000000001 0  -0.05000000000000004 -0.6000000000000001 0  0.05000000000000004 -0.6000000000000001 0  0.15 -0.6000000000000001 0  0.25 -0.6000000000000001 0  0.3500000000000001 -0.6000000000000001 0  0.45 -0.6000000000000001 0  0.55 -0.6000000000000001 0  0.6499999999999999 -0.6000000000000001 0  0.75 -0.6000000000000001 0  -0.75 -0.5 0  -0.65 -0.5 0  -0.55 -0.5 0  -0.45 -0.5 0  -0.35 -0.5 0  -0.25 -0.5 0  -0.15 -0.5 0  -0.05000000000000004 -0.5 0  0.05000000000000004 -0.5 0  0.15 -0.5 0  0.25 -0.5 0  0.3500000000000001 -0.5 0  0.45 -0.5 0  0.55 -0.5 0  0.6499999999999999 -0.5 0  0.75 -0.5 0  -0.75 -0.4000000000000004 0  -0.65 -0.4000000000000004 0  -0.55 -0.4000000000000004 0  -0.45 -0.4000000000000004 0  -0.35 -0.4000000000000004 0  -0.25 -0.4000000000000004 0  -0.15 -0.4000000000000004 0  -0.05000000000000004 -0.4000000000000004 0  0.05000000000000004 -0.4000000000000004 0  0.15 -0.4000000000000004 0  0.25 -0.4000000000000004 0  0.3500000000000001 -0.4000000000000004 0  0.45 -0.4000000000000004 0  0.55 -0.4000000000000004 0  0.6499999999999999 -0.4000000000000004 0  0.75 -0.4000000000000004 0  -0.75 -0.2999999999999998 0  -0.65 -0.2999999999999998 0  -0.55 -0.2999999999999998 0  -0.45 -0.2999999999999998 0  -0.35 -0.2999999999999998 0  -0.25 -0.2999999999999998 0  -0.15 -0.2999999999999998 0  -0.05000000000000004 -0.2999999999999998 0  0.05000000000000004 -0.2999999999999998 0  0.15 -0.2999999999999998 0  0.25 -0.2999999999999998 0  0.3500000000000001 -0.2999999999999998 0  0.45 -0.2999999999999998 0  0.55 -0.2999999999999998 0  0.6499999999999999 -0.2999999999999998 0  0.75 -0.2999999999999998 0  -0.75 -0.2000000000000002 0  -0.65 -0.2000000000000002 0  -0.55 -0.2000000000000002 0  -0.45 -0.2000000000000002 0  -0.35 -0.2000000000000002 0  -0.25 -0.2000000000000002 0  -0.15 -0.2000000000000002 0  -0.05000000000000004 -0.2000000000000002 0  0.05000000000000004 -0.2000000000000002 0  0.15 -0.2000000000000002 0  0.25 -0.2000000000000002 0  0.3500000000000001 -0.2000000000000002 0  0.45 -0.2000000000000002 0  0.55 -0.2000000000000002 0  0.6499999999999999 -0.2000000000000002 0  0.75 -0.2000000000000002 0  -0.75 -0.09999999999999964 0  -0.65 -0.09999999999999964 0  -0.55 -0.09999999999999964 0  -0.45 -0.09999999999999964 0  -0.35 -0.09999999999999964 0  -0.25 -0.09999999999999964 0  -0.15 -0.09999999999999964 0  -0.05000000000000004 -0.09999999999999964 0  0.05000000000000004 -0.09999999999999964 0  0.15 -0.09999999999999964 0  0.25 -0.09999999999999964 0  0.3500000000000001 -0.09999999999999964 0  0.45 -0.09999999999999964 0  0.55 -0.09999999999999964 0  0.6499999999999999 -0.09999999999999964 0  0.75 -0.09999999999999964 0  -0.75 0 0  -0.65 0 0  -0.55 0 0  -0.45 0 0  -0.35 0 0  -0.25 0 0  -0.15 0 0  -0.05000000000000004 0 0  0.05000000000000004 0 0  0.15 0 0  0.25 0 0  0.3500000000000001 0 0  0.45 0 0  0.55 0 0  0.6499999999999999 0 0  0.75 0 0  -0.7 -4.45 0  -0.6 -4.45 0  -0.5 -4.45 0  -0.4 -4.45 0  -0.3 -4.45 0  -0.2 -4.45 0  -0.09999999999999998 -4.45 0  0 -4.45 0  0.09999999999999998 -4.45 0  0.2 -4.45 0  0.3 -4.45 0  0.3999999999999999 -4.45 0  0.5 -4.45 0  0.6000000000000001 -4.45 0  0.7 -4.45 0  -0.7 -4.35 0  -0.6 -4.35 0  -0.5 -4.35 0  -0.4 -4.35 0  -0.3 -4.35 0  -0.2 -4.35 0  -0.09999999999999998 -4.35 0  0 -4.35 0  0.09999999999999998 -4.35 0  0.2 -4.35 0  0.3 -4.35 0  0.3999999999999999 -4.35 0  0.5 -4.35 0  0.6000000000000001 -4.35 0  0.7 -4.35 0  -0.7 -4.25 0  -0.6 -4.25 0  -0.5 -4.25 0  -0.4 -4.25 0  -0.3 -4.25 0  -0.2 -4.25 0  -0.09999999999999998 -4.25 0  0 -4.25 0  0.09999999999999998 -4.25 0  0.2 -4.25 0  0.3 -4.25 0  0.3999999999999999 -4.25 0  0.5 -4.25 0  0.6000000000000001 -4.25 0  0.7 -4.25 0  -0.7 -4.15 0  -0.6 -4.15 0  -0.5 -4.15 0  -0.4 -4.15 0  -0.3 -4.15 0  -0.2 -4.15 0  -0.09999999999999998 -4.15 0  0 -4.15 0  0.09999999999999998 -4.15 0  0.2 -4.15 0  0.3 -4.15 0  0.3999999999999999 -4.15 0  0.5 -4.15 0  0.6000000000000001 -4.15 0  0.7 -4.15 0  -0.7 -4.05 0  -0.6 -4.05 0  -0.5 -4.05 0  -0.4 -4.05 0  -0.3 -4.05 0  -0.2 -4.05 0  -0.09999999999999998 -4.05 0  0 -4.05 0  0.09999999999999998 -4.05 0  0.2 -4.05 0  0.3 -4.05 0  0.3999999999999999 -4.05 0  0.5 -4.05 0  0.6000000000000001 -4.05 0  0.7 -4.05 0  -0.7 -3.95 0  -0.6 -3.95 0  -0.5 -3.95 0  -0.4 -3.95 0  -0.3 -3.95 0  -0.2 -3.95 0  -0.09999999999999998 -3.95 0  0 -3.95 0  0.09999999999999998 -3.95 0  0.2 -3.95 0  0.3 -3.95 0  0.3999999999999999 -3.95 0  0.5 -3.95 0  0.6000000000000001 -3.95 0  0.7 -3.95 0  -0.7 -3.85 0  -0.6 -3.85 0  -0.5 -3.85 0  -0.4 -3.85 0  -0.3 -3.85 0  -0.2 -3.85 0  -0.09999999999999998 -3.85 0  0 -3.85 0  0.09999999999999998 -3.85 0  0.2 -3.85 0  0.3 -3.85 0  0.3999999999999999 -3.85 0  0.5 -3.85 0  0.6000000000000001 -3.85 0  0.7 -3.85 0  -0.7 -3.75 0  -0.6 -3.75 0  -0.5 -3.75 0  -0.4 -3.75 0  -0.3 -3.75 0  -0.2 -3.75 0  -0.09999999999999998 -3.75 0  0 -3.75 0  0.09999999999999998 -3.75 0  0.2 -3.75 0  0.3 -3.75 0  0.3999999999999999 -3.75 0  0.5 -3.75 0  0.6000000000000001 -3.75 0  0.7 -3.75 0  -0.7 -3.65 0  -0.6 -3.65 0  -0.5 -3.65 0  -0.4 -3.65 0  -0.3 -3.65 0  -0.2 -3.65 0  -0.09999999999999998 -3.65 0  0 -3.65 0  0.09999999999999998 -3.65 0  0.2 -3.65 0  0.3 -3.65 0  0.3999999999999999 -3.65 0  0.5 -3.65 0  0.6000000000000001 -3.65 0  0.7 -3.65 0  -0.7 -3.55 0  -0.6 -3.55 0  -0.5 -3.55 0  -0.4 -3.55 0  -0.3 -3.55 0  -0.2 -3.55 0  -0.09999999999999998 -3.55 0  0 -3.55 0  0.09999999999999998 -3.55 0  0.2 -3.55 0  0.3 -3.55 0  0.3999999999999999 -3.55 0  0.5 -3.55 0  0.6000000000000001 -3.55 0  0.7 -3.55 0  -0.7 -3.45 0  -0.6 -3.45 0  -0.5 -3.45 0  -0.4 -3.45 0  -0.3 -3.45 0  -0.2 -3.45 0  -0.09999999999999998 -3.45 0  0 -3.45 0  0.09999999999999998 -3.45 0  0.2 -3.45 0  0.3 -3.45 0  0.3999999999999999 -3.45 0  0.5 -3.45 0  0.6000000000000001 -3.45 0  0.7 -3.45 0  -0.7 -3.35 0  -0.6 -3.35 0  -0.5 -3.35 0  -0.4 -3.35 0  -0.3 -3.35 0  -0.2 -3.35 0  -0.09999999999999998 -3.35 0  0 -3.35 0  0.09999999999999998 -3.35 0  0.2 -3.35 0  0.3 -3.35 0  0.3999999999999999 -3.35 0  0.5 -3.35 0  0.6000000000000001 -3.35 0  0.7 -3.35 0  -0.7 -3.25 0  -0.6 -3.25 0  -0.5 -3.25 0  -0.4 -3.25 0  -0.3 -3.25 0  -0.2 -3.25 0  -0.09999999999999998 -3.25 0  0 -3.25 0  0.09999999999999998 -3.25 0  0.2 -3.25 0  0.3 -3.25 0  0.3999999999999999 -3.25 0  0.5 -3.25 0  0.6000000000000001 -3.25 0  0.7 -3.25 0  -0.7 -3.15 0  -0.6 -3.15 0  -0.5 -3.15 0  -0.4 -3.15 0  -0.3 -3.15 0  -0.2 -3.15 0  -0.09999999999999998 -3.15 0  0 -3.15 0  0.09999999999999998 -3.15 0  0.2 -3.15 0  0.3 -3.15 0  0.3999999999999999 -3.15 0  0.5 -3.15 0  0.6000000000000001 -3.15 0  0.7 -3.15 0  -0.7 -3.05 0  -0.6 -3.05 0  -0.5 -3.05 0  -0.4 -3.05 0  -0.3 -3.05 0  -0.2 -3.05 0  -0.09999999999999998 -3.05 0  0 -3.05 0  0.09999999999999998 -3.05 0  0.2 -3.05 0  0.3 -3.05 0  0.3999999999999999 -3.05 0  0.5 -3.05 0  0.6000000000000001 -3.05 0  0.7 -3.05 0  -0.7 -2.95 0  -0.6 -2.95 0  -0.5 -2.95 0  -0.4 -2.95 0  -0.3 -2.95 0  -0.2 -2.95 0  -0.09999999999999998 -2.95 0  0 -2.95 0  0.09999999999999998 -2.95 0  0.2 -2.95 0  0.3 -2.95 0  0.3999999999999999 -2.95 0  0.5 -2.95 0  0.6000000000000001 -2.95 0  0.7 -2.95 0  -0.7 -2.85 0  -0.6 -2.85 0  -0.5 -2.85 0  -0.4 -2.85 0  -0.3 -2.85 0  -0.2 -2.85 0  -0.09999999999999998 -2.85 0  0 -2.85 0  0.09999999999999998 -2.85 0  0.2 -2.85 0  0.3 -2.85 0  0.3999999999999999 -2.85 0  0.5 -2.85 0  0.6000000000000001 -2.85 0  0.7 -2.85 0  -0.7 -2.75 0  -0.6 -2.75 0  -0.5 -2.75 0  -0.4 -2.75 0  -0.3 -2.75 0  -0.2 -2.75 0  -0.09999999999999998 -2.75 0  0 -2.75 0  0.09999999999999998 -2.75 0  0.2 -2.75 0  0.3 -2.75 0  0.3999999999999999 -2.75 0  0.5 -2.75 0  0.6000000000000001 -2.75 0  0.7 -2.75 0  -0.7 -2.65 0  -0.6 -2.65 0  -0.5 -2.65 0  -0.4 -2.65 0  -0.3 -2.65 0  -0.2 -2.65 0  -0.09999999999999998 -2.65 0  0 -2.65 0  0.09999999999999998 -2.65 0  0.2 -2.65 0  0.3 -2.65 0  0.3999999999999999 -2.65 0  0.5 -2.65 0  0.6000000000000001 -2.65 0  0.7 -2.65 0  -0.7 -2.55 0  -0.6 -2.55 0  -0.5 -2.55 0  -0.4 -2.55 0  -0.3 -2.55 0  -0.2 -2.55 0  -0.09999999999999998 -2.55 0  0 -2.55 0  0.09999999999999998 -2.55 0  0.2 -2.55 0  0.3 -2.55 0  0.3999999999999999 -2.55 0  0.5 -2.55 0  0.6000000000000001 -2.55 0  0.7 -2.55 0  -0.7 -2.45 0  -0.6 -2.45 0  -0.5 -2.45 0  -0.4 -2.45 0  -0.3 -2.45 0  -0.2 -2.45 0  -0.09999999999999998 -2.45 0  0 -2.45 0  0.09999999999999998 -2.45 0  0.2 -2.45 0  0.3 -2.45 0  0.3999999999999999 -2.45 0  0.5 -2.45 0  0.6000000000000001 -2.45 0  0.7 -2.45 0  -0.7 -2.35 0  -0.6 -2.35 0  -0.5 -2.35 0  -0.4 -2.35 0  -0.3 -2.35 0  -0.2 -2.35 0  -0.09999999999999998 -2.35 0  0 -2.35 0  0.09999999999999998 -2.35 0  0.2 -2.35 0  0.3 -2.35 0  0.3999999999999999 -2.35 0  0.5 -2.35 0  0.6000000000000001 -2.35 0  0.7 -2.35 0  -0.7 -2.25 0  -0.6 -2.25 0  -0.5 -2.25 0  -0.4 -2.25 0  -0.3 -2.25 0  -0.2 -2.25 0  -0.09999999999999998 -2.25 0  0 -2.25 0  0.09999999999999998 -2.25 0  0.2 -2.25 0  0.3 -2.25 0  0.3999999999999999 -2.25 0  0.5 -2.25 0  0.6000000000000001 -2.25 0  0.7 -2.25 0  -0.7 -2.15 0  -0.6 -2.15 0  -0.5 -2.15 0  -0.4 -2.15 0  -0.3 -2.15 0  -0.2 -2.15 0  -0.09999999999999998 -2.15 0  0 -2.15 0  0.09999999999999998 -2.15 0  0.2 -2.15 0  0.3 -2.15 0  0.3999999999999999 -2.15 0  0.5 -2.15 0  0.6000000000000001 -2.15 0  0.7 -2.15 0  -0.7 -2.05 0  -0.6 -2.05 0  -0.5 -2.05 0  -0.4 -2.05 0  -0.3 -2.05 0  -0.2 -2.05 0  -0.09999999999999998 -2.05 0  0 -2.05 0  0.09999999999999998 -2.05 0  0.2 -2.05 0  0.3 -2.05 0  0.3999999999999999 -2.05 0  0.5 -2.05 0  0.6000000000000001 -2.05 0  0.7 -2.05 0  -0.7 -1.95 0  -0.6 -1.95 0  -0.5 -1.95 0  -0.4 -1.95 0  -0.3 -1.95 0  -0.2 -1.95 0  -0.09999999999999998 -1.95 0  0 -1.95 0  0.09999999999999998 -1.95 0  0.2 -1.95 0  0.3 -1.95 0  0.3999999999999999 -1.95 0  0.5 -1.95 0  0.6000000000000001 -1.95 0  0.7 -1.95 0  -0.7 -1.85 0  -0.6 -1.85 0  -0.5 -1.85 0  -0.4 -1.85 0  -0.3 -1.85 0  -0.2 -1.85 0  -0.09999999999999998 -1.85 0  0 -1.85 0  0.09999999999999998 -1.85 0  0.2 -1.85 0  0.3 -1.85 0  0.3999999999999999 -1.85 0  0.5 -1.85 0  0.6000000000000001 -1.85 0  0.7 -1.85 0  -0.7 -1.75 0  -0.6 -1.75 0  -0.5 -1.75 0  -0.4 -1.75 0  -0.3 -1.75 0  -0.2 -1.75 0  -0.09999999999999998 -1.75 0  0 -1.75 0  0.09999999999999998 -1.75 0  0.2 -1.75 0  0.3 -1.75 0  0.3999999999999999 -1.75 0  0.5 -1.75 0  0.6000000000000001 -1.75 0  0.7 -1.75 0  -0.7 -1.65 0  -0.6 -1.65 0  -0.5 -1.65 0  -0.4 -1.65 0  -0.3 -1.65 0  -0.2 -1.65 0  -0.09999999999999998 -1.65 0  0 -1.65 0  0.09999999999999998 -1.65 0  0.2 -1.65 0  0.3 -1.65 0  0.3999999999999999 -1.65 0  0.5 -1.65 0  0.6000000000000001 -1.65 0  0.7 -1.65 0  -0.7 -1.55 0  -0.6 -1.55 0  -0.5 -1.55 0  -0.4 -1.55 0  -0.3 -1.55 0  -0.2 -1.55 0  -0.09999999999999998 -1.55 0  0 -1.55 0  0.09999999999999998 -1.55 0  0.2 -1.55 0  0.3 -1.55 0  0.3999999999999999 -1.55 0  0.5 -1.55 0  0.6000000000000001 -1.55 0  0.7 -1.55 0  -0.7 -1.45 0  -0.6 -1.45 0  -0.5 -1.45 0  -0.4 -1.45 0  -0.3 -1.45 0  -0.2 -1.45 0  -0.09999999999999998 -1.45 0  0 -1.45 0  0.09999999999999998 -1.45 0  0.2 -1.45 0  0.3 -1.45 0  0.3999999999999999 -1.45 0  0.5 -1.45 0  0.6000000000000001 -1.45 0  0.7 -1.45 0  -0.7 -1.35 0  -0.6 -1.35 0  -0.5 -1.35 0  -0.4 -1.35 0  -0.3 -1.35 0  -0.2 -1.35 0  -0.09999999999999998 -1.35 0  0 -1.35 0  0.09999999999999998 -1.35 0  0.2 -1.35 0  0.3 -1.35 0  0.3999999999999999 -1.35 0  0.5 -1.35 0  0.6000000000000001 -1.35 0  0.7 -1.35 0  -0.7 -1.25 0  -0.6 -1.25 0  -0.5 -1.25 0  -0.4 -1.25 0  -0.3 -1.25 0  -0.2 -1.25 0  -0.09999999999999998 -1.25 0  0 -1.25 0  0.09999999999999998 -1.25 0  0.2 -1.25 0  0.3 -1.25 0  0.3999999999999999 -1.25 0  0.5 -1.25 0  0.6000000000000001 -1.25 0  0.7 -1.25 0  -0.7 -1.15 0  -0.6 -1.15 0  -0.5 -1.15 0  -0.4 -1.15 0  -0.3 -1.15 0  -0.2 -1.15 0  -0.09999999999999998 -1.15 0  0 -1.15 0  0.09999999999999998 -1.15 0  0.2 -1.15 0  0.3 -1.15 0  0.3999999999999999 -1.15 0  0.5 -1.15 0  0.6000000000000001 -1.15 0  0.7 -1.15 0  -0.7 -1.05 0  -0.6 -1.05 0  -0.5 -1.05 0  -0.4 -1.05 0  -0.3 -1.05 0  -0.2 -1.05 0  -0.09999999999999998 -1.05 0  0 -1.05 0  0.09999999999999998 -1.05 0  0.2 -1.05 0  0.3 -1.05 0  0.3999999999999999 -1.05 0  0.5 -1.05 0  0.6000000000000001 -1.05 0  0.7 -1.05 0  -0.7 -0.9500000000000002 0  -0.6 -0.9500000000000002 0  -0.5 -0.9500000000000002 0  -0.4 -0.9500000000000002 0  -0.3 -0.9500000000000002 0  -0.2 -0.9500000000000002 0  -0.09999999999999998 -0.9500000000000002 0  0 -0.9500000000000002 0  0.09999999999999998 -0.9500000000000002 0  0.2 -0.9500000000000002 0  0.3 -0.9500000000000002 0  0.3999999999999999 -0.9500000000000002 0  0.5 -0.9500000000000002 0  0.6000000000000001 -0.9500000000000002 0  0.7 -0.9500000000000002 0  -0.7 -0.8500000000000001 0  -0.6 -0.8500000000000001 0  -0.5 -0.8500000000000001 0  -0.4 -0.8500000000000001 0  -0.3 -0.8500000000000001 0  -0.2 -0.8500000000000001 0  -0.09999999999999998 -0.8500000000000001 0  0 -0.8500000000000001 0  0.09999999999999998 -0.8500000000000001 0  0.2 -0.8500000000000001 0  0.3 -0.8500000000000001 0  0.3999999999999999 -0.8500000000000001 0  0.5 -0.8500000000000001 0  0.6000000000000001 -0.8500000000000001 0  0.7 -0.8500000000000001 0  -0.7 -0.75 0  -0.6 -0.75 0  -0.5 -0.75 0  -0.4 -0.75 0  -0.3 -0.75 0  -0.2 -0.75 0  -0.09999999999999998 -0.75 0  0 -0.75 0  0.09999999999999998 -0.75 0  0.2 -0.75 0  0.3 -0.75 0  0.3999999999999999 -0.75 0  0.5 -0.75 0  0.6000000000000001 -0.75 0  0.7 -0.75 0  -0.7 -0.6499999999999999 0  -0.6 -0.6499999999999999 0  -0.5 -0.6499999999999999 0  -0.4 -0.6499999999999999 0  -0.3 -0.6499999999999999 0  -0.2 -0.6499999999999999 0  -0.09999999999999998 -0.6499999999999999 0  0 -0.6499999999999999 0  0.09999999999999998 -0.6499999999999999 0  0.2 -0.6499999999999999 0  0.3 -0.6499999999999999 0  0.3999999999999999 -0.6499999999999999 0  0.5 -0.6499999999999999 0  0.6000000000000001 -0.6499999999999999 0  0.7 -0.6499999999999999 0  -0.7 -0.5499999999999998 0  -0.6 -0.5499999999999998 0  -0.5 -0.5499999999999998 0  -0.4 -0.5499999999999998 0  -0.3 -0.5499999999999998 0  -0.2 -0.5499999999999998 0  -0.09999999999999998 -0.5499999999999998 0  0 -0.5499999999999998 0  0.09999999999999998 -0.5499999999999998 0  0.2 -0.5499999999999998 0  0.3 -0.5499999999999998 0  0.3999999999999999 -0.5499999999999998 0  0.5 -0.5499999999999998 0  0.6000000000000001 -0.5499999999999998 0  0.7 -0.5499999999999998 0  -0.7 -0.4500000000000002 0  -0.6 -0.4500000000000002 0  -0.5 -0.4500000000000002 0  -0.4 -0.4500000000000002 0  -0.3 -0.4500000000000002 0  -0.2 -0.4500000000000002 0  -0.09999999999999998 -0.4500000000000002 0  0 -0.4500000000000002 0  0.09999999999999998 -0.4500000000000002 0  0.2 -0.4500000000000002 0  0.3 -0.4500000000000002 0  0.3999999999999999 -0.4500000000000002 0  0.5 -0.4500000000000002 0  0.6000000000000001 -0.4500000000000002 0  0.7 -0.4500000000000002 0  -0.7 -0.3499999999999996 0  -0.6 -0.3499999999999996 0  -0.5 -0.3499999999999996 0  -0.4 -0.3499999999999996 0  -0.3 -0.3499999999999996 0  -0.2 -0.3499999999999996 0  -0.09999999999999998 -0.3499999999999996 0  0 -0.3499999999999996 0  0.09999999999999998 -0.3499999999999996 0  0.2 -0.3499999999999996 0  0.3 -0.3499999999999996 0  0.3999999999999999 -0.3499999999999996 0  0.5 -0.3499999999999996 0  0.6000000000000001 -0.3499999999999996 0  0.7 -0.3499999999999996 0  -0.7 -0.25 0  -0.6 -0.25 0  -0.5 -0.25 0  -0.4 -0.25 0  -0.3 -0.25 0  -0.2 -0.25 0  -0.09999999999999998 -0.25 0  0 -0.25 0  0.09999999999999998 -0.25 0  0.2 -0.25 0  0.3 -0.25 0  0.3999999999999999 -0.25 0  0.5 -0.25 0  0.6000000000000001 -0.25 0  0.7 -0.25 0  -0.7 -0.1500000000000004 0  -0.6 -0.1500000000000004 0  -0.5 -0.1500000000000004 0  -0.4 -0.1500000000000004 0  -0.3 -0.1500000000000004 0  -0.2 -0.1500000000000004 0  -0.09999999999999998 -0.1500000000000004 0  0 -0.1500000000000004 0  0.09999999999999998 -0.1500000000000004 0  0.2 -0.1500000000000004 0  0.3 -0.1500000000000004 0  0.3999999999999999 -0.1500000000000004 0  0.5 -0.1500000000000004 0  0.6000000000000001 -0.1500000000000004 0  0.7 -0.1500000000000004 0  -0.7 -0.04999999999999982 0  -0.6 -0.04999999999999982 0  -0.5 -0.04999999999999982 0  -0.4 -0.04999999999999982 0  -0.3 -0.04999999999999982 0  -0.2 -0.04999999999999982 0  -0.09999999999999998 -0.04999999999999982 0  0 -0.04999999999999982 0  0.09999999999999998 -0.04999999999999982 0  0.2 -0.04999999999999982 0  0.3 -0.04999999999999982 0  0.3999999999999999 -0.04999999999999982 0  0.5 -0.04999999999999982 0  0.6000000000000001 -0.04999999999999982 0  0.7 -0.04999999999999982 0  </DataArray>
</Points>
<Cells>
<DataArray  type="UInt32"  Name="connectivity"  format="ascii">0 1 736  0 16 736  1 17 736  16 17 736  1 2 737  1 17 737  2 18 737  17 18 737  2 3 738  2 18 738  3 19 738  18 19 738  3 4 739  3 19 739  4 20 739  19 20 739  4 5 740  4 20 740  5 21 740  20 21 740  5 6 741  5 21 741  6 22 741  21 22 741  6 7 742  6 22 742  7 23 742  22 23 742  7 8 743  7 23 743  8 24 743  23 24 743  8 9 744  8 24 744  9 25 744  24 25 744  9 10 745  9 25 745  10 26 745  25 26 745  10 11 746  10 26 746  11 27 746  26 27 746  11 12 747  11 27 747  12 28 747  27 28 747  12 13 748  12 28 748  13 29 748  28 29 748  13 14 749  13 29 749  14 30 749  29 30 749  14 15 750  14 30 750  15 31 750  30 31 750  16 17 751  16 32 751  17 33 751  32 33 751  17 18 752  17 33 752  18 34 752  33 34 752  18 19 753  18 34 753  19 35 753  34 35 753  19 20 754  19 35 754  20 36 754  35 36 754  20 21 755  20 36 755  21 37 755  36 37 755  21 22 756  21 37 756  22 38 756  37 38 756  22 23 757  22 38 757  23 39 757  38 39 757  23 24 758  23 39 758  24 40 758  39 40 758  24 25 759  24 40 759  25 41 759  40 41 759  25 26 760  25 41 760  26 42 760  41 42 760  26 27 761  26 42 761  27 43 761  42 43 761  27 28 762  27 43 762  28 44 762  43 44 762  28 29 763  28 44 763  29 45 763  44 45 763  29 30 764  29 45 764  30 46 764  45 46 764  30 31 765  30 46 765  31 47 765  46 47 765  32 33 766  32 48 766  33 49 766  48 49 766  33 34 767  33 49 767  34 50 767  49 50 767  34 35 768  34 50 768  35 51 768  50 51 768  35 36 769  35 51 769  36 52 769  51 52 769  36 37 770  36 52 770  37 53 770  52 53 770  37 38 771  37 53 771  38 54 771  53 54 771  38 39 772  38 54 772  39 55 772  54 55 772  39 40 773  39 55 773  40 56 773  55 56 773  40 41 774  40 56 774  41 57 774  56 57 774  41 42 775  41 57 775  42 58 775  57 58 775  42 43 776  42 58 776  43 59 776  58 59 776  43 44 777  43 59 777  44 60 777  59 60 777  44 45 778  44 60 778  45 61 778  60 61 778  45 46 779  45 61 779  46 62 779  61 62 779  46 47 780  46 62 780  47 63 780  62 63 780  48 49 781  48 64 781  49 65 781  64 65 781  49 50 782  49 65 782  50 66 782  65 66 782  50 51 783  50 66 783  51 67 783  66 67 783  51 52 784  51 67 784  52 68 784  67 68 784  52 53 785  52 68 785  53 69 785  68 69 785  53 54 786  53 69 786  54 70 786  69 70 786  54 55 787  54 70 787  55 71 787  70 71 787  55 56 788  55 71 788  56 72 788  71 72 788  56 57 789  56 72 789  57 73 789  72 73 789  57 58 790  57 73 790  58 74 790  73 74 790  58 59 791  58 74 791  59 75 791  74 75 791  59 60 792  59 75 792  60 76 792  75 76 792  60 61 793  60 76 793  61 77 793  76 77 793  61 62 794  61 77 794  62 78 794  77 78 794  62 63 795  62 78 795  63 79 795  78 79 795  64 65 796  64 80 796  65 81 796  80 81 796  65 66 797  65 81 797  66 82 797  81 82 797  66 67 798  66 82 798  67 83 798  82 83 798  67 68 799  67 83 799  68 84 799  83 84 799  68 69 800  68 84 800  69 85 800  84 85 800  69 70 801  69 85 801  70 86 801  85 86 801  70 71 802  70 86 802  71 87 802  86 87 802  71 72 803  71 87 803  72 88 803  87 88 803  72 73 804  72 88 804  73 89 804  88 89 804  73 74 805  73 89 805  74 90 805  89 90 805  74 75 806  74 90 806  75 91 806  90 91 806  75 76 807  75 91 807  76 92 807  91 92 807  76 77 808  76 92 808  77 93 808  92 93 808  77 78 809  77 93 809  78 94 809  93 94 809  78 79 810  78 94 810  79 95 810  94 95 810  80 81 811  80 96 811  81 97 811  96 97 811  81 82 812  81 97 812  82 98 812  97 98 812  82 83 813  82 98 813  83 99 813  98 99 813  83 84 814  83 99 814  84 100 814  99 100 814  84 85 815  84 100 815  85 101 815  100 101 815  85 86 816  85 101 816  86 102 816  101 102 816  86 87 817  86 102 817  87 103 817  102 103 817  87 88 818  87 103 818  88 104 818  103 104 818  88 89 819  88 104 819  89 105 819  104 105 819  89 90 820  89 105 820  90 106 820  105 106 820  90 91 821  90 106 821  91 107 821  106 107 821  91 92 822  91 107 822  92 108 822  107 108 822  92 93 823  92 108 823  93 109 823  108 109 823  93 94 824  93 109 824  94 110 824  109 110 824  94 95 825  94 110 825  95 111 825  110 111 825  96 97 826  96 112 826  97 113 826  112 113 826  97 98 827  97 113 827  98 114 827  113 114 827  98 99 828  98 114 828  99 115 828  114 115 828  99 100 829  99 115 829  100 116 829  115 116 829  100 101 830  100 116 830  101 117 830  116 117 830  101 102 831  101 117 831  102 118 831  117 118 831  102 103 832  102 118 832  103 119 832  118 119 832  103 104 833  103 119 833  104 120 833  119 120 833  104 105 834  104 120 834  105 121 834  120 121 834  105 106 835  105 121 835  106 122 835  121 122 835  106 107 836  106 122 836  107 123 836  122 123 836  107 108 837  107 123 837  108 124 837  123 124 837  108 109 838  108 124 838  109 125 838  124 125 838  109 110 839  109 125 839  110 126 839  125 126 839  110 111 840  110 126 840  111 127 840  126 127 840  112 113 841  112 128 841  113 129 841  128 129 841  113 114 842  113 129 842  114 130 842  129 130 842  114 115 843  114 130 843  115 131 843  130 131 843  115 116 844  115 131 844  116 132 844  131 132 844  116 117 845  116 132 845  117 133 845  132 133 845  117 118 846  117 133 846  118 134 846  133 134 846  118 119 847  118 134 847  119 135 847  134 135 847  119 120 848  119 135 848  120 136 848  135 136 848  120 121 849  120 136 849  121 137 849  136 137 849  121 122 850  121 137 850  122 138 850  137 138 850  122 123 851  122 138 851  123 139 851  138 139 851  123 124 852  123 139 852  124 140 852  139 140 852  124 125 853  124 140 853  125 141 853  140 141 853  125 126 854  125 141 854  126 142 854  141 142 854  126 127 855  126 142 855  127 143 855  142 143 855  128 129 856  128 144 856  129 145 856  144 145 856  129 130 857  129 145 857  130 146 857  145 146 857  130 131 858  130 146 858  131 147 858  146 147 858  131 132 859  131 147 859  132 148 859  147 148 859  132 133 860  132 148 860  133 149 860  148 149 860  133 134 861  133 149 861  134 150 861  149 150 861  134 135 862  134 150 862  135 151 862  150 151 862  135 136 863  135 151 863  136 152 863  151 152 863  136 137 864  136 152 864  137 153 864  152 153 864  137 138 865  137 153 865  138 154 865  153 154 865  138 139 866  138 154 866  139 155 866  154 155 866  139 140 867  139 155 867  140 156 867  155 156 867  140 141 868  140 156 868  141 157 868  156 157 868  141 142 869  141 157 869  142 158 869  157 158 869  142 143 870  142 158 870  143 159 870  158 159 870  144 145 871  144 160 871  145 161 871  160 161 871  145 146 872  145 161 872  146 162 872  161 162 872  146 147 873  146 162 873  147 163 873  162 163 873  147 148 874  147 163 874  148 164 874  163 164 874  148 149 875  148 164 875  149 165 875  164 165 875  149 150 876  149 165 876  150 166 876  165 166 876  150 151 877  150 166 877  151 167 877  166 167 877  151 152 878  151 167 878  152 168 878  167 168 878  152 153 879  152 168 879  153 169 879  168 169 879  153 154 880  153 169 880  154 170 880  169 170 880  154 155 881  154 170 881  155 171 881  170 171 881  155 156 882  155 171 882  156 172 882  171 172 882  156 157 883  156 172 883  157 173 883  172 173 883  157 158 884  157 173 884  158 174 884  173 174 884  158 159 885  158 174 885  159 175 885  174 175 885  160 161 886  160 176 886  161 177 886  176 177 886  161 162 887  161 177 887  162 178 887  177 178 887  162 163 888  162 178 888  163 179 888  178 179 888  163 164 889  163 179 889  164 180 889  179 180 889  164 165 890  164 180 890  165 181 890  180 181 890  165 166 891  165 181 891  166 182 891  181 182 891  166 167 892  166 182 892  167 183 892  182 183 892  167 168 893  167 183 893  168 184 893  183 184 893  168 169 894  168 184 894  169 185 894  184 185 894  169 170 895  169 185 895  170 186 895  185 186 895  170 171 896  170 186 896  171 187 896  186 187 896  171 172 897  171 187 897  172 188 897  187 188 897  172 173 898  172 188 898  173 189 898  188 189 898  173 174 899  173 189 899  174 190 899  189 190 899  174 175 900  174 190 900  175 191 900  190 191 900  176 177 901  176 192 901  177 193 901  192 193 901  177 178 902  177 193 902  178 194 902  193 194 902  178 179 903  178 194 903  179 195 903  194 195 903  179 180 904  179 195 904  180 196 904  195 196 904  180 181 905  180 196 905  181 197 905  196 197 905  181 182 906  181 197 906  182 198 906  197 198 906  182 183 907  182 198 907  183 199 907  198 199 907  183 184 908  183 199 908  184 200 908  199 200 908  184 185 909  184 200 909  185 201 909  200 201 909  185 186 910  185 201 910  186 202 910  201 202 910  186 187 911  186 202 911  187 203 911  202 203 911  187 188 912  187 203 912  188 204 912  203 204 912  188 189 913  188 204 913  189 205 913  204 205 913  189 190 914  189 205 914  190 206 914  205 206 914  190 191 915  190 206 915  191 207 915  206 207 915  192 193 916  192 208 916  193 209 916  208 209 916  193 194 917  193 209 917  194 210 917  209 210 917  194 195 918  194 210 918  195 211 918  210 211 918  195 196 919  195 211 919  196 212 919  211 212 919  196 197 920  196 212 920  197 213 920  212 213 920  197 198 921  197 213 921  198 214 921  213 214 921  198 199 922  198 214 922  199 215 922  214 215 922  199 200 923  199 215 923  200 216 923  215 216 923  200 201 924  200 216 924  201 217 924  216 217 924  201 202 925  201 217 925  202 218 925  217 218 925  202 203 926  202 218 926  203 219 926  218 219 926  203 204 927  203 219 927  204 220 927  219 220 927  204 205 928  204 220 928  205 221 928  220 221 928  205 206 929  205 221 929  206 222 929  221 222 929  206 207 930  206 222 930  207 223 930  222 223 930  208 209 931  208 224 931  209 225 931  224 225 931  209 210 932  209 225 932  210 226 932  225 226 932  210 211 933  210 226 933  211 227 933  226 227 933  211 212 934  211 227 934  212 228 934  227 228 934  212 213 935  212 228 935  213 229 935  228 229 935  213 214 936  213 229 936  214 230 936  229 230 936  214 215 937  214 230 937  215 231 937  230 231 937  215 216 938  215 231 938  216 232 938  231 232 938  216 217 939  216 232 939  217 233 939  232 233 939  217 218 940  217 233 940  218 234 940  233 234 940  218 219 941  218 234 941  219 235 941  234 235 941  219 220 942  219 235 942  220 236 942  235 236 942  220 221 943  220 236 943  221 237 943  236 237 943  221 222 944  221 237 944  222 238 944  237 238 944  222 223 945  222 238 945  223 239 945  238 239 945  224 225 946  224 240 946  225 241 946  240 241 946  225 226 947  225 241 947  226 242 947  241 242 947  226 227 948  226 242 948  227 243 948  242 243 948  227 228 949  227 243 949  228 244 949  243 244 949  228 229 950  228 244 950  229 245 950  244 245 950  229 230 951  229 245 951  230 246 951  245 246 951  230 231 952  230 246 952  231 247 952  246 247 952  231 232 953  231 247 953  232 248 953  247 248 953  232 233 954  232 248 954  233 249 954  248 249 954  233 234 955  233 249 955  234 250 955  249 250 955  234 235 956  234 250 956  235 251 956  250 251 956  235 236 957  235 251 957  236 252 957  251 252 957  236 237 958  236 252 958  237 253 958  252 253 958  237 238 959  237 253 959  238 254 959  253 254 959  238 239 960  238 254 960  239 255 960  254 255 960  240 241 961  240 256 961  241 257 961  256 257 961  241 242 962  241 257 962  242 258 962  257 258 962  242 243 963  242 258 963  243 259 963  258 259 963  243 244 964  243 259 964  244 260 964  259 260 964  244 245 965  244 260 965  245 261 965  260 261 965  245 246 966  245 261 966  246 262 966  261 262 966  246 247 967  246 262 967  247 263 967  262 263 967  247 248 968  247 263 968  248 264 968  263 264 968  248 249 969  248 264 969  249 265 969  264 265 969  249 250 970  249 265 970  250 266 970  265 266 970  250 251 971  250 266 971  251 267 971  266 267 971  251 252 972  251 267 972  252 268 972  267 268 972  252 253 973  252 268 973  253 269 973  268 269 973  253 254 974  253 269 974  254 270 974  269 270 974  254 255 975  254 270 975  255 271 975  270 271 975  256 257 976  256 272 976  257 273 976  272 273 976  257 258 977  257 273 977  258 274 977  273 274 977  258 259 978  258 274 978  259 275 978  274 275 978  259 260 979  259 275 979  260 276 979  275 276 979  260 261 980  260 276 980  261 277 980  276 277 980  261 262 981  261 277 981  262 278 981  277 278 981  262 263 982  262 278 982  263 279 982  278 279 982  263 264 983  263 279 983  264 280 983  279 280 983  264 265 984  264 280 984  265 281 984  280 281 984  265 266 985  265 281 985  266 282 985  281 282 985  266 267 986  266 282 986  267 283 986  282 283 986  267 268 987  267 283 987  268 284 987  283 284 987  268 269 988  268 284 988  269 285 988  284 285 988  269 270 989  269 285 989  270 286 989  285 286 989  270 271 990  270 286 990  271 287 990  286 287 990  272 273 991  272 288 991  273 289 991  288 289 991  273 274 992  273 289 992  274 290 992  289 290 992  274 275 993  274 290 993  275 291 993  290 291 993  275 276 994  275 291 994  276 292 994  291 292 994  276 277 995  276 292 995  277 293 995  292 293 995  277 278 996  277 293 996  278 294 996  293 294 996  278 279 997  278 294 997  279 295 997  294 295 997  279 280 998  279 295 998  280 296 998  295 296 998  280 281 999  280 296 999  281 297 999  296 297 999  281 282 1000  281 297 1000  282 298 1000  297 298 1000  282 283 1001  282 298 1001  283 299 1001  298 299 1001  283 284 1002  283 299 1002  284 300 1002  299 300 1002  284 285 1003  284 300 1003  285 301 1003  300 301 1003  285 286 1004  285 301 1004  286 302 1004  301 302 1004  286 287 1005  286 302 1005  287 303 1005  302 303 1005  288 289 1006  288 304 1006  289 305 1006  304 305 1006  289 290 1007  289 305 1007  290 306 1007  305 306 1007  290 291 1008  290 306 1008  291 307 1008  306 307 1008  291 292 1009  291 307 1009  292 308 1009  307 308 1009  292 293 1010  292 308 1010  293 309 1010  308 309 1010  293 294 1011  293 309 1011  294 310 1011  309 310 1011  294 295 1012  294 310 1012  295 311 1012  310 311 1012  295 296 1013  295 311 1013  296 312 1013  311 312 1013  296 297 1014  296 312 1014  297 313 1014  312 313 1014  297 298 1015  297 313 1015  298 314 1015  313 314 1015  298 299 1016  298 314 1016  299 315 1016  314 315 1016  299 300 1017  299 315 1017  300 316 1017  315 316 1017  300 301 1018  300 316 1018  301 317 1018  316 317 1018  301 302 1019  301 317 1019  302 318 1019  317 318 1019  302 303 1020  302 318 1020  303 319 1020  318 319 1020  304 305 1021  304 320 1021  305 321 1021  320 321 1021  305 306 1022  305 321 1022  306 322 1022  321 322 1022  306 307 1023  306 322 1023  307 323 1023  322 323 1023  307 308 1024  307 323 1024  308 324 1024  323 324 1024  308 309 1025  308 324 1025  309 325 1025  324 325 1025  309 310 1026  309 325 1026  310 326 1026  325 326 1026  310 311 1027  310 326 1027  311 327 1027  326 327 1027  311 312 1028  311 327 1028  312 328 1028  327 328 1028  312 313 1029  312 328 1029  313 329 1029  328 329 1029  313 314 1030  313 329 1030  314 330 1030  329 330 1030  314 315 1031  314 330 1031  315 331 1031  330 331 1031  315 316 1032  315 331 1032  316 332 1032  331 332 1032  316 317 1033  316 332 1033  317 333 1033  332 333 1033  317 318 1034  317 333 1034  318 334 1034  333 334 1034  318 319 1035  318 334 1035  319 335 1035  334 335 1035  320 321 1036  320 336 1036  321 337 1036  336 337 1036  321 322 1037  321 337 1037  322 338 1037  337 338 1037  322 323 1038  322 338 1038  323 339 1038  338 339 1038  323 324 1039  323 339 1039  324 340 1039  339 340 1039  324 325 1040  324 340 1040  325 341 1040  340 341 1040  325 326 1041  325 341 1041  326 342 1041  341 342 1041  326 327 1042  326 342 1042  327 343 1042  342 343 1042  327 328 1043  327 343 1043  328 344 1043  343 344 1043  328 329 1044  328 344 1044  329 345 1044  344 345 1044  329 330 1045  329 345 1045  330 346 1045  345 346 1045  330 331 1046  330 346 1046  331 347 1046  346 347 1046  331 332 1047  331 347 1047  332 348 1047  347 348 1047  332 333 1048  332 348 1048  333 349 1048  348 349 1048  333 334 1049  333 349 1049  334 350 1049  349 350 1049  334 335 1050  334 350 1050  335 351 1050  350 351 1050  336 337 1051  336 352 1051  337 353 1051  352 353 1051  337 338 1052  337 353 1052  338 354 1052  353 354 1052  338 339 1053  338 354 1053  339 355 1053  354 355 1053  339 340 1054  339 355 1054  340 356 1054  355 356 1054  340 341 1055  340 356 1055  341 357 1055  356 357 1055  341 342 1056  341 357 1056  342 358 1056  357 358 1056  342 343 1057  342 358 1057  343 359 1057  358 359 1057  343 344 1058  343 359 1058  344 360 1058  359 360 1058  344 345 1059  344 360 1059  345 361 1059  360 361 1059  345 346 1060  345 361 1060  346 362 1060  361 362 1060  346 347 1061  346 362 1061  347 363 1061  362 363 1061  347 348 1062  347 363 1062  348 364 1062  363 364 1062  348 349 1063  348 364 1063  349 365 1063  364 365 1063  349 350 1064  349 365 1064  350 366 1064  365 366 1064  350 351 1065  350 366 1065  351 367 1065  366 367 1065  352 353 1066  352 368 1066  353 369 1066  368 369 1066  353 354 1067  353 369 1067  354 370 1067  369 370 1067  354 355 1068  354 370 1068  355 371 1068  370 371 1068  355 356 1069  355 371 1069  356 372 1069  371 372 1069  356 357 1070  356 372 1070  357 373 1070  372 373 1070  357 358 1071  357 373 1071  358 374 1071  373 374 1071  358 359 1072  358 374 1072  359 375 1072  374 375 1072  359 360 1073  359 375 1073  360 376 1073  375 376 1073  360 361 1074  360 376 1074  361 377 1074  376 377 1074  361 362 1075  361 377 1075  362 378 1075  377 378 1075  362 363 1076  362 378 1076  363 379 1076  378 379 1076  363 364 1077  363 379 1077  364 380 1077  379 380 1077  364 365 1078  364 380 1078  365 381 1078  380 381 1078  365 366 1079  365 381 1079  366 382 1079  381 382 1079  366 367 1080  366 382 1080  367 383 1080  382 383 1080  368 369 1081  368 384 1081  369 385 1081  384 385 1081  369 370 1082  369 385 1082  370 386 1082  385 386 1082  370 371 1083  370 386 1083  371 387 1083  386 387 1083  371 372 1084  371 387 1084  372 388 1084  387 388 1084  372 373 1085  372 388 1085  373 389 1085  388 389 1085  373 374 1086  373 389 1086  374 390 1086  389 390 1086  374 375 1087  374 390 1087  375 391 1087  390 391 1087  375 376 1088  375 391 1088  376 392 1088  391 392 1088  376 377 1089  376 392 1089  377 393 1089  392 393 1089  377 378 1090  377 393 1090  378 394 1090  393 394 1090  378 379 1091  378 394 1091  379 395 1091  394 395 1091  379 380 1092  379 395 1092  380 396 1092  395 396 1092  380 381 1093  380 396 1093  381 397 1093  396 397 1093  381 382 1094  381 397 1094  382 398 1094  397 398 1094  382 383 1095  382 398 1095  383 399 1095  398 399 1095  384 385 1096  384 400 1096  385 401 1096  400 401 1096  385 386 1097  385 401 1097  386 402 1097  401 402 1097  386 387 1098  386 402 1098  387 403 1098  402 403 1098  387 388 1099  387 403 1099  388 404 1099  403 404 1099  388 389 1100  388 404 1100  389 405 1100  404 405 1100  389 390 1101  389 405 1101  390 406 1101  405 406 1101  390 391 1102  390 406 1102  391 407 1102  406 407 1102  391 392 1103  391 407 1103  392 408 1103  407 408 1103  392 393 1104  392 408 1104  393 409 1104  408 409 1104  393 394 1105  393 409 1105  394 410 1105  409 410 1105  394 395 1106  394 410 1106  395 411 1106  410 411 1106  395 396 1107  395 411 1107  396 412 1107  411 412 1107  396 397 1108  396 412 1108  397 413 1108  412 413 1108  397 398 1109  397 413 1109  398 414 1109  413 414 1109  398 399 1110  398 414 1110  399 415 1110  414 415 1110  400 401 1111  400 416 1111  401 417 1111  416 417 1111  401 402 1112  401 417 1112  402 418 1112  417 418 1112  402 403 1113  402 418 1113  403 419 1113  418 419 1113  403 404 1114  403 419 1114  404 420 1114  419 420 1114  404 405 1115  404 420 1115  405 421 1115  420 421 1115  405 406 1116  405 421 1116  406 422 1116  421 422 1116  406 407 1117  406 422 1117  407 423 1117  422 423 1117  407 408 1118  407 423 1118  408 424 1118  423 424 1118  408 409 1119  408 424 1119  409 425 1119  424 425 1119  409 410 1120  409 425 1120  410 426 1120  425 426 1120  410 411 1121  410 426 1121  411 427 1121  426 427 1121  411 412 1122  411 427 1122  412 428 1122  427 428 1122  412 413 1123  412 428 1123  413 429 1123  428 429 1123  413 414 1124  413 429 1124  414 430 1124  429 430 1124  414 415 1125  414 430 1125  415 431 1125  430 431 1125  416 417 1126  416 432 1126  417 433 1126  432 433 1126  417 418 1127  417 433 1127  418 434 1127  433 434 1127  418 419 1128  418 434 1128  419 435 1128  434 435 1128  419 420 1129  419 435 1129  420 436 1129  435 436 1129  420 421 1130  420 436 1130  421 437 1130  436 437 1130  421 422 1131  421 437 1131  422 438 1131  437 438 1131  422 423 1132  422 438 1132  423 439 1132  438 439 1132  423 424 1133  423 439 1133  424 440 1133  439 440 1133  424 425 1134  424 440 1134  425 441 1134  440 441 1134  425 426 1135  425 441 1135  426 442 1135  441 442 1135  426 427 1136  426 442 1136  427 443 1136  442 443 1136  427 428 1137  427 443 1137  428 444 1137  443 444 1137  428 429 1138  428 444 1138  429 445 1138  444 445 1138  429 430 1139  429 445 1139  430 446 1139  445 446 1139  430 431 1140  430 446 1140  431 447 1140  446 447 1140  432 433 1141  432 448 1141  433 449 1141  448 449 1141  433 434 1142  433 449 1142  434 450 1142  449 450 1142  434 435 1143  434 450 1143  435 451 1143  450 451 1143  435 436 1144  435 451 1144  436 452 1144  451 452 1144  436 437 1145  436 452 1145  437 453 1145  452 453 1145  437 438 1146  437 453 1146  438 454 1146  453 454 1146  438 439 1147  438 454 1147  439 455 1147  454 455 1147  439 440 1148  439 455 1148  440 456 1148  455 456 1148  440 441 1149  440 456 1149  441 457 1149  456 457 1149  441 442 1150  441 457 1150  442 458 1150  457 458 1150  442 443 1151  442 458 1151  443 459 1151  458 459 1151  443 444 1152  443 459 1152  444 460 1152  459 460 1152  444 445 1153  444 460 1153  445 461 1153  460 461 1153  445 446 1154  445 461 1154  446 462 1154  461 462 1154  446 447 1155  446 462 1155  447 463 1155  462 463 1155  448 449 1156  448 464 1156  449 465 1156  464 465 1156  449 450 1157  449 465 1157  450 466 1157  465 466 1157  450 451 1158  450 466 1158  451 467 1158  466 467 1158  451 452 1159  451 467 1159  452 468 1159  467 468 1159  452 453 1160  452 468 1160  453 469 1160  468 469 1160  453 454 1161  453 469 1161  454 470 1161  469 470 1161  454 455 1162  454 470 1162  455 471 1162  470 471 1162  455 456 1163  455 471 1163  456 472 1163  471 472 1163  456 457 1164  456 472 1164  457 473 1164  472 473 1164  457 458 1165  457 473 1165  458 474 1165  473 474 1165  458 459 1166  458 474 1166  459 475 1166  474 475 1166  459 460 1167  459 475 1167  460 476 1167  475 476 1167  460 461 1168  460 476 1168  461 477 1168  476 477 1168  461 462 1169  461 477 1169  462 478 1169  477 478 1169  462 463 1170  462 478 1170  463 479 1170  478 479 1170  464 465 1171  464 480 1171  465 481 1171  480 481 1171  465 466 1172  465 481 1172  466 482 1172  481 482 1172  466 467 1173  466 482 1173  467 483 1173  482 483 1173  467 468 1174  467 483 1174  468 484 1174  483 484 1174  468 469 1175  468 484 1175  469 485 1175  484 485 1175  469 470 1176  469 485 1176  470 486 1176  485 486 1176  470 471 1177  470 486 1177  471 487 1177  486 487 1177  471 472 1178  471 487 1178  472 488 1178  487 488 1178  472 473 1179  472 488 1179  473 489 1179  488 489 1179  473 474 1180  473 489 1180  474 490 1180  489 490 1180  474 475 1181  474 490 1181  475 491 1181  490 491 1181  475 476 1182  475 491 1182  476 492 1182  491 492 1182  476 477 1183  476 492 1183  477 493 1183  492 493 1183  477 478 1184  477 493 1184  478 494 1184  493 494 1184  478 479 1185  478 494 1185  479 495 1185  494 495 1185  480 481 1186  480 496 1186  481 497 1186  496 497 1186  481 482 1187  481 497 1187  482 498 1187  497 498 1187  482 483 1188  482 498 1188  483 499 1188  498 499 1188  483 484 1189  483 499 1189  484 500 1189  499 500 1189  484 485 1190  484 500 1190  485 501 1190  500 501 1190  485 486 1191  485 501 1191  486 502 1191  501 502 1191  486 487 1192  486 502 1192  487 503 1192  502 503 1192  487 488 1193  487 503 1193  488 504 1193  503 504 1193  488 489 1194  488 504 1194  489 505 1194  504 505 1194  489 490 1195  489 505 1195  490 506 1195  505 506 1195  490 491 1196  490 506 1196  491 507 1196  506 507 1196  491 492 1197  491 507 1197  492 508 1197  507 508 1197  492 493 1198  492 508 1198  493 509 1198  508 509 1198  493 494 1199  493 509 1199  494 510 1199  509 510 1199  494 495 1200  494 510 1200  495 511 1200  510 511 1200  496 497 1201  496 512 1201  497 513 1201  512 513 1201  497 498 1202  497 513 1202  498 514 1202  513 514 1202  498 499 1203  498 514 1203  499 515 1203  514 515 1203  499 500 1204  499 515 1204  500 516 1204  515 516 1204  500 501 1205  500 516 1205  501 517 1205  516 517 1205  501 502 1206  501 517 1206  502 518 1206  517 518 1206  502 503 1207  502 518 1207  503 519 1207  518 519 1207  503 504 1208  503 519 1208  504 520 1208  519 520 1208  504 505 1209  504 520 1209  505 521 1209  520 521 1209  505 506 1210  505 521 1210  506 522 1210  521 522 1210  506 507 1211  506 522 1211  507 523 1211  522 523 1211  507 508 1212  507 523 1212  508 524 1212  523 524 1212  508 509 1213  508 524 1213  509 525 1213  524 525 1213  509 510 1214  509 525 1214  510 526 1214  525 526 1214  510 511 1215  510 526 1215  511 527 1215  526 527 1215  512 513 1216  512 528 1216  513 529 1216  528 529 1216  513 514 1217  513 529 1217  514 530 1217  529 530 1217  514 515 1218  514 530 1218  515 531 1218  530 531 1218  515 516 1219  515 531 1219  516 532 1219  531 532 1219  516 517 1220  516 532 1220  517 533 1220  532 533 1220  517 518 1221  517 533 1221  518 534 1221  533 534 1221  518 519 1222  518 534 1222  519 535 1222  534 535 1222  519 520 1223  519 535 1223  520 536 1223  535 536 1223  520 521 1224  520 536 1224  521 537 1224  536 537 1224  521 522 1225  521 537 1225  522 538 1225  537 538 1225  522 523 1226  522 538 1226  523 539 1226  538 539 1226  523 524 1227  523 539 1227  524 540 1227  539 540 1227  524 525 1228  524 540 1228  525 541 1228  540 541 1228  525 526 1229  525 541 1229  526 542 1229  541 542 1229  526 527 1230  526 542 1230  527 543 1230  542 543 1230  528 529 1231  528 544 1231  529 545 1231  544 545 1231  529 530 1232  529 545 1232  530 546 1232  545 546 1232  530 531 1233  530 546 1233  531 547 1233  546 547 1233  531 532 1234  531 547 1234  532 548 1234  547 548 1234  532 533 1235  532 548 1235  533 549 1235  548 549 1235  533 534 1236  533 549 1236  534 550 1236  549 550 1236  534 535 1237  534 550 1237  535 551 1237  550 551 1237  535 536 1238  535 551 1238  536 552 1238  551 552 1238  536 537 1239  536 552 1239  537 553 1239  552 553 1239  537 538 1240  537 553 1240  538 554 1240  553 554 1240  538 539 1241  538 554 1241  539 555 1241  554 555 1241  539 540 1242  539 555 1242  540 556 1242  555 556 1242  540 541 1243  540 556 1243  541 557 1243  556 557 1243  541 542 1244  541 557 1244  542 558 1244  557 558 1244  542 543 1245  542 558 1245  543 559 1245  558 559 1245  544 545 1246  544 560 1246  545 561 1246  560 561 1246  545 546 1247  545 561 1247  546 562 1247  561 562 1247  546 547 1248  546 562 1248  547 563 1248  562 563 1248  547 548 1249  547 563 1249  548 564 1249  563 564 1249  548 549 1250  548 564 1250  549 565 1250  564 565 1250  549 550 1251  549 565 1251  550 566 1251  565 566 1251  550 551 1252  550 566 1252  551 567 1252  566 567 1252  551 552 1253  551 567 1253  552 568 1253  567 568 1253  552 553 1254  552 568 1254  553 569 1254  568 569 1254  553 554 1255  553 569 1255  554 570 1255  569 570 1255  554 555 1256  554 570 1256  555 571 1256  570 571 1256  555 556 1257  555 571 1257  556 572 1257  571 572 1257  556 557 1258  556 572 1258  557 573 1258  572 573 1258  557 558 1259  557 573 1259  558 574 1259  573 574 1259  558 559 1260  558 574 1260  559 575 1260  574 575 1260  560 561 1261  560 576 1261  561 577 1261  576 577 1261  561 562 1262  561 577 1262  562 578 1262  577 578 1262  562 563 1263  562 578 1263  563 579 1263  578 579 1263  563 564 1264  563 579 1264  564 580 1264  579 580 1264  564 565 1265  564 580 1265  565 581 1265  580 581 1265  565 566 1266  565 581 1266  566 582 1266  581 582 1266  566 567 1267  566 582 1267  567 583 1267  582 583 1267  567 568 1268  567 583 1268  568 584 1268  583 584 1268  568 569 1269  568 584 1269  569 585 1269  584 585 1269  569 570 1270  569 585 1270  570 586 1270  585 586 1270  570 571 1271  570 586 1271  571 587 1271  586 587 1271  571 572 1272  571 587 1272  572 588 1272  587 588 1272  572 573 1273  572 588 1273  573 589 1273  588 589 1273  573 574 1274  573 589 1274  574 590 1274  589 590 1274  574 575 1275  574 590 1275  575 591 1275  590 591 1275  576 577 1276  576 592 1276  577 593 1276  592 593 1276  577 578 1277  577 593 1277  578 594 1277  593 594 1277  578 579 1278  578 594 1278  579 595 1278  594 595 1278  579 580 1279  579 595 1279  580 596 1279  595 596 1279  580 581 1280  580 596 1280  581 597 1280  596 597 1280  581 582 1281  581 597 1281  582 598 1281  597 598 1281  582 583 1282  582 598 1282  583 599 1282  598 599 1282  583 584 1283  583 599 1283  584 600 1283  599 600 1283  584 585 1284  584 600 1284  585 601 1284  600 601 1284  585 586 1285  585 601 1285  586 602 1285  601 602 1285  586 587 1286  586 602 1286  587 603 1286  602 603 1286  587 588 1287  587 603 1287  588 604 1287  603 604 1287  588 589 1288  588 604 1288  589 605 1288  604 605 1288  589 590 1289  589 605 1289  590 606 1289  605 606 1289  590 591 1290  590 606 1290  591 607 1290  606 607 1290  592 593 1291  592 608 1291  593 609 1291  608 609 1291  593 594 1292  593 609 1292  594 610 1292  609 610 1292  594 595 1293  594 610 1293  595 611 1293  610 611 1293  595 596 1294  595 611 1294  596 612 1294  611 612 1294  596 597 1295  596 612 1295  597 613 1295  612 613 1295  597 598 1296  597 613 1296  598 614 1296  613 614 1296  598 599 1297  598 614 1297  599 615 1297  614 615 1297  599 600 1298  599 615 1298  600 616 1298  615 616 1298  600 601 1299  600 616 1299  601 617 1299  616 617 1299  601 602 1300  601 617 1300  602 618 1300  617 618 1300  602 603 1301  602 618 1301  603 619 1301  618 619 1301  603 604 1302  603 619 1302  604 620 1302  619 620 1302  604 605 1303  604 620 1303  605 621 1303  620 621 1303  605 606 1304  605 621 1304  606 622 1304  621 622 1304  606 607 1305  606 622 1305  607 623 1305  622 623 1305  608 609 1306  608 624 1306  609 625 1306  624 625 1306  609 610 1307  609 625 1307  610 626 1307  625 626 1307  610 611 1308  610 626 1308  611 627 1308  626 627 1308  611 612 1309  611 627 1309  612 628 1309  627 628 1309  612 613 1310  612 628 1310  613 629 1310  628 629 1310  613 614 1311  613 629 1311  614 630 1311  629 630 1311  614 615 1312  614 630 1312  615 631 1312  630 631 1312  615 616 1313  615 631 1313  616 632 1313  631 632 1313  616 617 1314  616 632 1314  617 633 1314  632 633 1314  617 618 1315  617 633 1315  618 634 1315  633 634 1315  618 619 1316  618 634 1316  619 635 1316  634 635 1316  619 620 1317  619 635 1317  620 636 1317  635 636 1317  620 621 1318  620 636 1318  621 637 1318  636 637 1318  621 622 1319  621 637 1319  622 638 1319  637 638 1319  622 623 1320  622 638 1320  623 639 1320  638 639 1320  624 625 1321  624 640 1321  625 641 1321  640 641 1321  625 626 1322  625 641 1322  626 642 1322  641 642 1322  626 627 1323  626 642 1323  627 643 1323  642 643 1323  627 628 1324  627 643 1324  628 644 1324  643 644 1324  628 629 1325  628 644 1325  629 645 1325  644 645 1325  629 630 1326  629 645 1326  630 646 1326  645 646 1326  630 631 1327  630 646 1327  631 647 1327  646 647 1327  631 632 1328  631 647 1328  632 648 1328  647 648 1328  632 633 1329  632 648 1329  633 649 1329  648 649 1329  633 634 1330  633 649 1330  634 650 1330  649 650 1330  634 635 1331  634 650 1331  635 651 1331  650 651 1331  635 636 1332  635 651 1332  636 652 1332  651 652 1332  636 637 1333  636 652 1333  637 653 1333  652 653 1333  637 638 1334  637 653 1334  638 654 1334  653 654 1334  638 639 1335  638 654 1335  639 655 1335  654 655 1335  640 641 1336  640 656 1336  641 657 1336  656 657 1336  641 642 1337  641 657 1337  642 658 1337  657 658 1337  642 643 1338  642 658 1338  643 659 1338  658 659 1338  643 644 1339  643 659 1339  644 660 1339  659 660 1339  644 645 1340  644 660 1340  645 661 1340  660 661 1340  645 646 1341  645 661 1341  646 662 1341  661 662 1341  646 647 1342  646 662 1342  647 663 1342  662 663 1342  647 648 1343  647 663 1343  648 664 1343  663 664 1343  648 649 1344  648 664 1344  649 665 1344  664 665 1344  649 650 1345  649 665 1345  650 666 1345  665 666 1345  650 651 1346  650 666 1346  651 667 1346  666 667 1346  651 652 1347  651 667 1347  652 668 1347  667 668 1347  652 653 1348  652 668 1348  653 669 1348  668 669 1348  653 654 1349  653 669 1349  654 670 1349  669 670 1349  654 655 1350  654 670 1350  655 671 1350  670 671 1350  656 657 1351  656 672 1351  657 673 1351  672 673 1351  657 658 1352  657 673 1352  658 674 1352  673 674 1352  658 659 1353  658 674 1353  659 675 1353  674 675 1353  659 660 1354  659 675 1354  660 676 1354  675 676 1354  660 661 1355  660 676 1355  661 677 1355  676 677 1355  661 662 1356  661 677 1356  662 678 1356  677 678 1356  662 663 1357  662 678 1357  663 679 1357  678 679 1357  663 664 1358  663 679 1358  664 680 1358  679 680 1358  664 665 1359  664 680 1359  665 681 1359  680 681 1359  665 666 1360  665 681 1360  666 682 1360  681 682 1360  666 667 1361  666 682 1361  667 683 1361  682 683 1361  667 668 1362  667 683 1362  668 684 1362  683 684 1362  668 669 1363  668 684 1363  669 685 1363  684 685 1363  669 670 1364  669 685 1364  670 686 1364  685 686 1364  670 671 1365  670 686 1365  671 687 1365  686 687 1365  672 673 1366  672 688 1366  673 689 1366  688 689 1366  673 674 1367  673 689 1367  674 690 1367  689 690 1367  674 675 1368  674 690 1368  675 691 1368  690 691 1368  675 676 1369  675 691 1369  676 692 1369  691 692 1369  676 677 1370  676 692 1370  677 693 1370  692 693 1370  677 678 1371  677 693 1371  678 694 1371  693 694 1371  678 679 1372  678 694 1372  679 695 1372  694 695 1372  679 680 1373  679 695 1373  680 696 1373  695 696 1373  680 681 1374  680 696 1374  681 697 1374  696 697 1374  681 682 1375  681 697 1375  682 698 1375  697 698 1375  682 683 1376  682 698 1376  683 699 1376  698 699 1376  683 684 1377  683 699 1377  684 700 1377  699 700 1377  684 685 1378  684 700 1378  685 701 1378  700 701 1378  685 686 1379  685 701 1379  686 702 1379  701 702 1379  686 687 1380  686 702 1380  687 703 1380  702 703 1380  688 689 1381  688 704 1381  689 705 1381  704 705 1381  689 690 1382  689 705 1382  690 706 1382  705 706 1382  690 691 1383  690 706 1383  691 707 1383  706 707 1383  691 692 1384  691 707 1384  692 708 1384  707 708 1384  692 693 1385  692 708 1385  693 709 1385  708 709 1385  693 694 1386  693 709 1386  694 710 1386  709 710 1386  694 695 1387  694 710 1387  695 711 1387  710 711 1387  695 696 1388  695 711 1388  696 712 1388  711 712 1388  696 697 1389  696 712 1389  697 713 1389  712 713 1389  697 698 1390  697 713 1390  698 714 1390  713 714 1390  698 699 1391  698 714 1391  699 715 1391  714 715 1391  699 700 1392  699 715 1392  700 716 1392  715 716 1392  700 701 1393  700 716 1393  701 717 1393  716 717 1393  701 702 1394  701 717 1394  702 718 1394  717 718 1394  702 703 1395  702 718 1395  703 719 1395  718 719 1395  704 705 1396  704 720 1396  705 721 1396  720 721 1396  705 706 1397  705 721 1397  706 722 1397  721 722 1397  706 707 1398  706 722 1398  707 723 1398  722 723 1398  707 708 1399  707 723 1399  708 724 1399  723 724 1399  708 709 1400  708 724 1400  709 725 1400  724 725 1400  709 710 1401  709 725 1401  710 726 1401  725 726 1401  710 711 1402  710 726 1402  711 727 1402  726 727 1402  711 712 1403  711 727 1403  712 728 1403  727 728 1403  712 713 1404  712 728 1404  713 729 1404  728 729 1404  713 714 1405  713 729 1405  714 730 1405  729 730 1405  714 715 1406  714 730 1406  715 731 1406  730 731 1406  715 716 1407  715 731 1407  716 732 1407  731 732 1407  716 717 1408  716 732 1408  717 733 1408  732 733 1408  717 718 1409  717 733 1409  718 734 1409  733 734 1409  718 719 1410  718 734 1410  719 735 1410  734 735 1410  </DataArray>
<DataArray  type="UInt32"  Name="offsets"  format="ascii">3 6 9 12 15 18 21 24 27 30 33 36 39 42 45 48 51 54 57 60 63 66 69 72 75 78 81 84 87 90 93 96 99 102 105 108 111 114 117 120 123 126 129 132 135 138 141 144 147 150 153 156 159 162 165 168 171 174 177 180 183 186 189 192 195 198 201 204 207 210 213 216 219 222 225 228 231 234 237 240 243 246 249 252 255 258 261 264 267 270 273 276 279 282 285 288 291 294 297 300 303 306 309 312 315 318 321 324 327 330 333 336 339 342 345 348 351 354 357 360 363 366 369 372 375 378 381 384 387 390 393 396 399 402 405 408 411 414 417 420 423 426 429 432 435 438 441 444 447 450 453 456 459 462 465 468 471 474 477 480 483 486 489 492 495 498 501 504 507 510 513 516 519 522 525 528 531 534 537 540 543 546 549 552 555 558 561 564 567 570 573 576 579 582 585 588 591 594 597 600 603 606 609 612 615 618 621 624 627 630 633 636 639 642 645 648 651 654 657 660 663 666 669 672 675 678 681 684 687 690 693 696 699 702 705 708 711 714 717 720 723 726 729 732 735 738 741 744 747 750 753 756 759 762 765 768 771 774 777 780 783 786 789 792 795 798 801 804 807 810 813 816 819 822 825 828 831 834 837 840 843 846 849 852 855 858 861 864 867 870 873 876 879 882 885 888 891 894 897 900 903 906 909 912 915 918 921 924 927 930 933 936 939 942 945 948 951 954 957 960 963 966 969 972 975 978 981 984 987 990 993 996 999 1002 1005 1008 1011 1014 1017 1020 1023 1026 1029 1032 1035 1038 1041 1044 1047 1050 1053 1056 1059 1062 1065 1068 1071 1074 1077 1080 1083 1086 1089 1092 1095 1098 1101 1104 1107 1110 1113 1116 1119 1122 1125 1128 1131 1134 1137 1140 1143 1146 1149 1152 1155 1158 1161 1164 1167 1170 1173 1176 1179 1182 1185 1188 1191 1194 1197 1200 1203 1206 1209 1212 1215 1218 1221 1224 1227 1230 1233 1236 1239 1242 1245 1248 1251 1254 1257 1260 1263 1266 1269 1272 1275 1278 1281 1284 1287 1290 1293 1296 1299 1302 1305 1308 1311 1314 1317 1320 1323 1326 1329 1332 1335 1338 1341 1344 1347 1350 1353 1356 1359 1362 1365 1368 1371 1374 1377 1380 1383 1386 1389 1392 1395 1398 1401 1404 1407 1410 1413 1416 1419 1422 1425 1428 1431 1434 1437 1440 1443 1446 1449 1452 1455 1458 1461 1464 1467 1470 1473 1476 1479 1482 1485 1488 1491 1494 1497 1500 1503 1506 1509 1512 1515 1518 1521 1524 1527 1530 1533 1536 1539 1542 1545 1548 1551 1554 1557 1560 1563 1566 1569 1572 1575 1578 1581 1584 1587 1590 1593 1596 1599 1602 1605 1608 1611 1614 1617 1620 1623 1626 1629 1632 1635 1638 1641 1644 1647 1650 1653 1656 1659 1662 1665 1668 1671 1674 1677 1680 1683 1686 1689 1692 1695 1698 1701 1704 1707 1710 1713 1716 1719 1722 1725 1728 1731 1734 1737 1740 1743 1746 1749 1752 1755 1758 1761 1764 1767 1770 1773 1776 1779 1782 1785 1788 1791 1794 1797 1800 1803 1806 1809 1812 1815 1818 1821 1824 1827 1830 1833 1836 1839 1842 1845 1848 1851 1854 1857 1860 1863 1866 1869 1872 1875 1878 1881 1884 1887 1890 1893 1896 1899 1902 1905 1908 1911 1914 1917 1920 1923 1926 1929 1932 1935 1938 1941 1944 1947 1950 1953 1956 1959 1962 1965 1968 1971 1974 1977 1980 1983 1986 1989 1992 1995 1998 2001 2004 2007 2010 2013 2016 2019 2022 2025 2028 2031 2034 2037 2040 2043 2046 2049 2052 2055 2058 2061 2064 2067 2070 2073 2076 2079 2082 2085 2088 2091 2094 2097 2100 2103 2106 2109 2112 2115 2118 2121 2124 2127 2130 2133 2136 2139 2142 2145 2148 2151 2154 2157 2160 2163 2166 2169 2172 2175 2178 2181 2184 2187 2190 2193 2196 2199 2202 2205 2208 2211 2214 2217 2220 2223 2226 2229 2232 2235 2238 2241 2244 2247 2250 2253 2256 2259 2262 2265 2268 2271 2274 2277 2280 2283 2286 2289 2292 2295 2298 2301 2304 2307 2310 2313 2316 2319 2322 2325 2328 2331 2334 2337 2340 2343 2346 2349 2352 2355 2358 2361 2364 2367 2370 2373 2376 2379 2382 2385 2388 2391 2394 2397 2400 2403 2406 2409 2412 2415 2418 2421 2424 2427 2430 2433 2436 2439 2442 2445 2448 2451 2454 2457 2460 2463 2466 2469 2472 2475 2478 2481 2484 2487 2490 2493 2496 2499 2502 2505 2508 2511 2514 2517 2520 2523 2526 2529 2532 2535 2538 2541 2544 2547 2550 2553 2556 2559 2562 2565 2568 2571 2574 2577 2580 2583 2586 2589 2592 2595 2598 2601 2604 2607 2610 2613 2616 2619 2622 2625 2628 2631 2634 2637 2640 2643 2646 2649 2652 2655 2658 2661 2664 2667 2670 2673 2676 2679 2682 2685 2688 2691 2694 2697 2700 2703 2706 2709 2712 2715 2718 2721 2724 2727 2730 2733 2736 2739 2742 2745 2748 2751 2754 2757 2760 2763 2766 2769 2772 2775 2778 2781 2784 2787 2790 2793 2796 2799 2802 2805 2808 2811 2814 2817 2820 2823 2826 2829 2832 2835 2838 2841 2844 2847 2850 2853 2856 2859 2862 2865 2868 2871 2874 2877 2880 2883 2886 2889 2892 2895 2898 2901 2904 2907 2910 2913 2916 2919 2922 2925 2928 2931 2934 2937 2940 2943 2946 2949 2952 2955 2958 2961 2964 2967 2970 2973 2976 2979 2982 2985 2988 2991 2994 2997 3000 3003 3006 3009 3012 3015 3018 3021 3024 3027 3030 3033 3036 3039 3042 3045 3048 3051 3054 3057 3060 3063 3066 3069 3072 3075 3078 3081 3084 3087 3090 3093 3096 3099 3102 3105 3108 3111 3114 3117 3120 3123 3126 3129 3132 3135 3138 3141 3144 3147 3150 3153 3156 3159 3162 3165 3168 3171 3174 3177 3180 3183 3186 3189 3192 3195 3198 3201 3204 3207 3210 3213 3216 3219 3222 3225 3228 3231 3234 3237 3240 3243 3246 3249 3252 3255 3258 3261 3264 3267 3270 3273 3276 3279 3282 3285 3288 3291 3294 3297 3300 3303 3306 3309 3312 3315 3318 3321 3324 3327 3330 3333 3336 3339 3342 3345 3348 3351 3354 3357 3360 3363 3366 3369 3372 3375 3378 3381 3384 3387 3390 3393 3396 3399 3402 3405 3408 3411 3414 3417 3420 3423 3426 3429 3432 3435 3438 3441 3444 3447 3450 3453 3456 3459 3462 3465 3468 3471 3474 3477 3480 3483 3486 3489 3492 3495 3498 3501 3504 3507 3510 3513 3516 3519 3522 3525 3528 3531 3534 3537 3540 3543 3546 3549 3552 3555 3558 3561 3564 3567 3570 3573 3576 3579 3582 3585 3588 3591 3594 3597 3600 3603 3606 3609 3612 3615 3618 3621 3624 3627 3630 3633 3636 3639 3642 3645 3648 3651 3654 3657 3660 3663 3666 3669 3672 3675 3678 3681 3684 3687 3690 3693 3696 3699 3702 3705 3708 3711 3714 3717 3720 3723 3726 3729 3732 3735 3738 3741 3744 3747 3750 3753 3756 3759 3762 3765 3768 3771 3774 3777 3780 3783 3786 3789 3792 3795 3798 3801 3804 3807 3810 3813 3816 3819 3822 3825 3828 3831 3834 3837 3840 3843 3846 3849 3852 3855 3858 3861 3864 3867 3870 3873 3876 3879 3882 3885 3888 3891 3894 3897 3900 3903 3906 3909 3912 3915 3918 3921 3924 3927 3930 3933 3936 3939 3942 3945 3948 3951 3954 3957 3960 3963 3966 3969 3972 3975 3978 3981 3984 3987 3990 3993 3996 3999 4002 4005 4008 4011 4014 4017 4020 4023 4026 4029 4032 4035 4038 4041 4044 4047 4050 4053 4056 4059 4062 4065 4068 4071 4074 4077 4080 4083 4086 4089 4092 4095 4098 4101 4104 4107 4110 4113 4116 4119 4122 4125 4128 4131 4134 4137 4140 4143 4146 4149 4152 4155 4158 4161 4164 4167 4170 4173 4176 4179 4182 4185 4188 4191 4194 4197 4200 4203 4206 4209 4212 4215 4218 4221 4224 4227 4230 4233 4236 4239 4242 4245 4248 4251 4254 4257 4260 4263 4266 4269 4272 4275 4278 4281 4284 4287 4290 4293 4296 4299 4302 4305 4308 4311 4314 4317 4320 4323 4326 4329 4332 4335 4338 4341 4344 4347 4350 4353 4356 4359 4362 4365 4368 4371 4374 4377 4380 4383 4386 4389 4392 4395 4398 4401 4404 4407 4410 4413 4416 4419 4422 4425 4428 4431 4434 4437 4440 4443 4446 4449 4452 4455 4458 4461 4464 4467 4470 4473 4476 4479 4482 4485 4488 4491 4494 4497 4500 4503 4506 4509 4512 4515 4518 4521 4524 4527 4530 4533 4536 4539 4542 4545 4548 4551 4554 4557 4560 4563 4566 4569 4572 4575 4578 4581 4584 4587 4590 4593 4596 4599 4602 4605 4608 4611 4614 4617 4620 4623 4626 4629 4632 4635 4638 4641 4644 4647 4650 4653 4656 4659 4662 4665 4668 4671 4674 4677 4680 4683 4686 4689 4692 4695 4698 4701 4704 4707 4710 4713 4716 4719 4722 4725 4728 4731 4734 4737 4740 4743 4746 4749 4752 4755 4758 4761 4764 4767 4770 4773 4776 4779 4782 4785 4788 4791 4794 4797 4800 4803 4806 4809 4812 4815 4818 4821 4824 4827 4830 4833 4836 4839 4842 4845 4848 4851 4854 4857 4860 4863 4866 4869 4872 4875 4878 4881 4884 4887 4890 4893 4896 4899 4902 4905 4908 4911 4914 4917 4920 4923 4926 4929 4932 4935 4938 4941 4944 4947 4950 4953 4956 4959 4962 4965 4968 4971 4974 4977 4980 4983 4986 4989 4992 4995 4998 5001 5004 5007 5010 5013 5016 5019 5022 5025 5028 5031 5034 5037 5040 5043 5046 5049 5052 5055 5058 5061 5064 5067 5070 5073 5076 5079 5082 5085 5088 5091 5094 5097 5100 5103 5106 5109 5112 5115 5118 5121 5124 5127 5130 5133 5136 5139 5142 5145 5148 5151 5154 5157 5160 5163 5166 5169 5172 5175 5178 5181 5184 5187 5190 5193 5196 5199 5202 5205 5208 5211 5214 5217 5220 5223 5226 5229 5232 5235 5238 5241 5244 5247 5250 5253 5256 5259 5262 5265 5268 5271 5274 5277 5280 5283 5286 5289 5292 5295 5298 5301 5304 5307 5310 5313 5316 5319 5322 5325 5328 5331 5334 5337 5340 5343 5346 5349 5352 5355 5358 5361 5364 5367 5370 5373 5376 5379 5382 5385 5388 5391 5394 5397 5400 5403 5406 5409 5412 5415 5418 5421 5424 5427 5430 5433 5436 5439 5442 5445 5448 5451 5454 5457 5460 5463 5466 5469 5472 5475 5478 5481 5484 5487 5490 5493 5496 5499 5502 5505 5508 5511 5514 5517 5520 5523 5526 5529 5532 5535 5538 5541 5544 5547 5550 5553 5556 5559 5562 5565 5568 5571 5574 5577 5580 5583 5586 5589 5592 5595 5598 5601 5604 5607 5610 5613 5616 5619 5622 5625 5628 5631 5634 5637 5640 5643 5646 5649 5652 5655 5658 5661 5664 5667 5670 5673 5676 5679 5682 5685 5688 5691 5694 5697 5700 5703 5706 5709 5712 5715 5718 5721 5724 5727 5730 5733 5736 5739 5742 5745 5748 5751 5754 5757 5760 5763 5766 5769 5772 5775 5778 5781 5784 5787 5790 5793 5796 5799 5802 5805 5808 5811 5814 5817 5820 5823 5826 5829 5832 5835 5838 5841 5844 5847 5850 5853 5856 5859 5862 5865 5868 5871 5874 5877 5880 5883 5886 5889 5892 5895 5898 5901 5904 5907 5910 5913 5916 5919 5922 5925 5928 5931 5934 5937 5940 5943 5946 5949 5952 5955 5958 5961 5964 5967 5970 5973 5976 5979 5982 5985 5988 5991 5994 5997 6000 6003 6006 6009 6012 6015 6018 6021 6024 6027 6030 6033 6036 6039 6042 6045 6048 6051 6054 6057 6060 6063 6066 6069 6072 6075 6078 6081 6084 6087 6090 6093 6096 6099 6102 6105 6108 6111 6114 6117 6120 6123 6126 6129 6132 6135 6138 6141 6144 6147 6150 6153 6156 6159 6162 6165 6168 6171 6174 6177 6180 6183 6186 6189 6192 6195 6198 6201 6204 6207 6210 6213 6216 6219 6222 6225 6228 6231 6234 6237 6240 6243 6246 6249 6252 6255 6258 6261 6264 6267 6270 6273 6276 6279 6282 6285 6288 6291 6294 6297 6300 6303 6306 6309 6312 6315 6318 6321 6324 6327 6330 6333 6336 6339 6342 6345 6348 6351 6354 6357 6360 6363 6366 6369 6372 6375 6378 6381 6384 6387 6390 6393 6396 6399 6402 6405 6408 6411 6414 6417 6420 6423 6426 6429 6432 6435 6438 6441 6444 6447 6450 6453 6456 6459 6462 6465 6468 6471 6474 6477 6480 6483 6486 6489 6492 6495 6498 6501 6504 6507 6510 6513 6516 6519 6522 6525 6528 6531 6534 6537 6540 6543 6546 6549 6552 6555 6558 6561 6564 6567 6570 6573 6576 6579 6582 6585 6588 6591 6594 6597 6600 6603 6606 6609 6612 6615 6618 6621 6624 6627 6630 6633 6636 6639 6642 6645 6648 6651 6654 6657 6660 6663 6666 6669 6672 6675 6678 6681 6684 6687 6690 6693 6696 6699 6702 6705 6708 6711 6714 6717 6720 6723 6726 6729 6732 6735 6738 6741 6744 6747 6750 6753 6756 6759 6762 6765 6768 6771 6774 6777 6780 6783 6786 6789 6792 6795 6798 6801 6804 6807 6810 6813 6816 6819 6822 6825 6828 6831 6834 6837 6840 6843 6846 6849 6852 6855 6858 6861 6864 6867 6870 6873 6876 6879 6882 6885 6888 6891 6894 6897 6900 6903 6906 6909 6912 6915 6918 6921 6924 6927 6930 6933 6936 6939 6942 6945 6948 6951 6954 6957 6960 6963 6966 6969 6972 6975 6978 6981 6984 6987 6990 6993 6996 6999 7002 7005 7008 7011 7014 7017 7020 7023 7026 7029 7032 7035 7038 7041 7044 7047 7050 7053 7056 7059 7062 7065 7068 7071 7074 7077 7080 7083 7086 7089 7092 7095 7098 7101 7104 7107 7110 7113 7116 7119 7122 7125 7128 7131 7134 7137 7140 7143 7146 7149 7152 7155 7158 7161 7164 7167 7170 7173 7176 7179 7182 7185 7188 7191 7194 7197 7200 7203 7206 7209 7212 7215 7218 7221 7224 7227 7230 7233 7236 7239 7242 7245 7248 7251 7254 7257 7260 7263 7266 7269 7272 7275 7278 7281 7284 7287 7290 7293 7296 7299 7302 7305 7308 7311 7314 7317 7320 7323 7326 7329 7332 7335 7338 7341 7344 7347 7350 7353 7356 7359 7362 7365 7368 7371 7374 7377 7380 7383 7386 7389 7392 7395 7398 7401 7404 7407 7410 7413 7416 7419 7422 7425 7428 7431 7434 7437 7440 7443 7446 7449 7452 7455 7458 7461 7464 7467 7470 7473 7476 7479 7482 7485 7488 7491 7494 7497 7500 7503 7506 7509 7512 7515 7518 7521 7524 7527 7530 7533 7536 7539 7542 7545 7548 7551 7554 7557 7560 7563 7566 7569 7572 7575 7578 7581 7584 7587 7590 7593 7596 7599 7602 7605 7608 7611 7614 7617 7620 7623 7626 7629 7632 7635 7638 7641 7644 7647 7650 7653 7656 7659 7662 7665 7668 7671 7674 7677 7680 7683 7686 7689 7692 7695 7698 7701 7704 7707 7710 7713 7716 7719 7722 7725 7728 7731 7734 7737 7740 7743 7746 7749 7752 7755 7758 7761 7764 7767 7770 7773 7776 7779 7782 7785 7788 7791 7794 7797 7800 7803 7806 7809 7812 7815 7818 7821 7824 7827 7830 7833 7836 7839 7842 7845 7848 7851 7854 7857 7860 7863 7866 7869 7872 7875 7878 7881 7884 7887 7890 7893 7896 7899 7902 7905 7908 7911 7914 7917 7920 7923 7926 7929 7932 7935 7938 7941 7944 7947 7950 7953 7956 7959 7962 7965 7968 7971 7974 7977 7980 7983 7986 7989 7992 7995 7998 8001 8004 8007 8010 8013 8016 8019 8022 8025 8028 8031 8034 8037 8040 8043 8046 8049 8052 8055 8058 8061 8064 8067 8070 8073 8076 8079 8082 8085 8088 8091 8094 8097 8100 </DataArray>
<DataArray  type="UInt8"  Name="types"  format="ascii">5 5 5 5 5 5 5 5 5 5 5 5 5 5 5 5 5 5 5 5 5 5 5 5 5 5 5 5 5 5 5 5 5 5 5 5 5 5 5 5 5 5 5 5 5 5 5 5 5 5 5 5 5 5 5 5 5 5 5 5 5 5 5 5 5 5 5 5 5 5 5 5 5 5 5 5 5 5 5 5 5 5 5 5 5 5 5 5 5 5 5 5 5 5 5 5 5 5 5 5 5 5 5 5 5 5 5 5 5 5 5 5 5 5 5 5 5 5 5 5 5 5 5 5 5 5 5 5 5 5 5 5 5 5 5 5 5 5 5 5 5 5 5 5 5 5 5 5 5 5 5 5 5 5 5 5 5 5 5 5 5 5 5 5 5 5 5 5 5 5 5 5 5 5 5 5 5 5 5 5 5 5 5 5 5 5 5 5 5 5 5 5 5 5 5 5 5 5 5 5 5 5 5 5 5 5 5 5 5 5 5 5 5 5 5 5 5 5 5 5 5 5 5 5 5 5 5 5 5 5 5 5 5 5 5 5 5 5 5 5 5 5 5 5 5 5 5 5 5 5 5 5 5 5 5 5 5 5 5 5 5 5 5 5 5 5 5 5 5 5 5 5 5 5 5 5 5 5 5 5 5 5 5 5 5 5 5 5 5 5 5 5 5 5 5 5 5 5 5 5 5 5 5 5 5 5 5 5 5 5 5 5 5 5 5 5 5 5 5 5 5 5 5 5 5 5 5 5 5 5 5 5 5 5 5 5 5 5 5 5 5 5 5 5 5 5 5 5 5 5 5 5 5 5 5 5 5 5 5 5 5 5 5 5 5 5 5 5 5 5 5 5 5 5 5 5 5 5 5 5 5 5 5 5 5 5 5 5 5 5 5 5 5 5 5 5 5 5 5 5 5 5 5 5 5 5 5 5 5 5 5 5 5 5 5 5 5 5 5 5 5 5 5 5 5 5 5 5 5 5 5 5 5 5 5 5 5 5 5 5 5 5 5 5 5 5 5 5 5 5 5 5 5 5 5 5 5 5 5 5 5 5 5 5 5 5 5 5 5 5 5 5 5 5 5 5 5 5 5 5 5 5 5 5 5 5 5 5 5 5 5 5 5 5 5 5 5 5 5 5 5 5 5 5 5 5 5 5 5 5 5 5 5 5 5 5 5 5 5 5 5 5 5 5 5 5 5 5 5 5 5 5 5 5 5 5 5 5 5 5 5 5 5 5 5 5 5 5 5 5 5 5 5 5 5 5 5 5 5 5 5 5 5 5 5 5 5 5 5 5 5 5 5 5 5 5 5 5 5 5 5 5 5 5 5 5 5 5 5 5 5 5 5 5 5 5 5 5 5 5 5 5 5 5 5 5 5 5 5 5 5 5 5 5 5 5 5 5 5 5 5 5 5 5 5 5 5 5 5 5 5 5 5 5 5 5 5 5 5 5 5 5 5 5 5 5 5 5 5 5 5 5 5 5 5 5 5 5 5 5 5 5 5 5 5 5 5 5 5 5 5 5 5 5 5 5 5 5 5 5 5 5 5 5 5 5 5 5 5 5 5 5 5 5 5 5 5 5 5 5 5 5 5 5 5 5 5 5 5 5 5 5 5 5 5 5 5 5 5 5 5 5 5 5 5 5 5 5 5 5 5 5 5 5 5 5 5 5 5 5 5 5 5 5 5 5 5 5 5 5 5 5 5 5 5 5 5 5 5 5 5 5 5 5 5 5 5 5 5 5 5 5 5 5 5 5 5 5 5 5 5 5 5 5 5 5 5 5 5 5 5 5 5 5 5 5 5 5 5 5 5 5 5 5 5 5 5 5 5 5 5 5 5 5 5 5 5 5 5 5 5 5 5 5 5 5 5 5 5 5 5 5 5 5 5 5 5 5 5 5 5 5 5 5 5 5 5 5 5 5 5 5 5 5 5 5 5 5 5 5 5 5 5 5 5 5 5 5 5 5 5 5 5 5 5 5 5 5 5 5 5 5 5 5 5 5 5 5 5 5 5 5 5 5 5 5 5 5 5 5 5 5 5 5 5 5 5 5 5 5 5 5 5 5 5 5 5 5 5 5 5 5 5 5 5 5 5 5 5 5 5 5 5 5 5 5 5 5 5 5 5 5 5 5 5 5 5 5 5 5 5 5 5 5 5 5 5 5 5 5 5 5 5 5 5 5 5 5 5 5 5 5 5 5 5 5 5 5 5 5 5 5 5 5 5 5 5 5 5 5 5 5 5 5 5 5 5 5 5 5 5 5 5 5 5 5 5 5 5 5 5 5 5 5 5 5 5 5 5 5 5 5 5 5 5 5 5 5 5 5 5 5 5 5 5 5 5 5 5 5 5 5 5 5 5 5 5 5 5 5 5 5 5 5 5 5 5 5 5 5 5 5 5 5 5 5 5 5 5 5 5 5 5 5 5 5 5 5 5 5 5 5 5 5 5 5 5 5 5 5 5 5 5 5 5 5 5 5 5 5 5 5 5 5 5 5 5 5 5 5 5 5 5 5 5 5 5 5 5 5 5 5 5 5 5 5 5 5 5 5 5 5 5 5 5 5 5 5 5 5 5 5 5 5 5 5 5 5 5 5 5 5 5 5 5 5 5 5 5 5 5 5 5 5 5 5 5 5 5 5 5 5 5 5 5 5 5 5 5 5 5 5 5 5 5 5 5 5 5 5 5 5 5 5 5 5 5 5 5 5 5 5 5 5 5 5 5 5 5 5 5 5 5 5 5 5 5 5 5 5 5 5 5 5 5 5 5 5 5 5 5 5 5 5 5 5 5 5 5 5 5 5 5 5 5 5 5 5 5 5 5 5 5 5 5 5 5 5 5 5 5 5 5 5 5 5 5 5 5 5 5 5 5 5 5 5 5 5 5 5 5 5 5 5 5 5 5 5 5 5 5 5 5 5 5 5 5 5 5 5 5 5 5 5 5 5 5 5 5 5 5 5 5 5 5 5 5 5 5 5 5 5 5 5 5 5 5 5 5 5 5 5 5 5 5 5 5 5 5 5 5 5 5 5 5 5 5 5 5 5 5 5 5 5 5 5 5 5 5 5 5 5 5 5 5 5 5 5 5 5 5 5 5 5 5 5 5 5 5 5 5 5 5 5 5 5 5 5 5 5 5 5 5 5 5 5 5 5 5 5 5 5 5 5 5 5 5 5 5 5 5 5 5 5 5 5 5 5 5 5 5 5 5 5 5 5 5 5 5 5 5 5 5 5 5 5 5 5 5 5 5 5 5 5 5 5 5 5 5 5 5 5 5 5 5 5 5 5 5 5 5 5 5 5 5 5 5 5 5 5 5 5 5 5 5 5 5 5 5 5 5 5 5 5 5 5 5 5 5 5 5 5 5 5 5 5 5 5 5 5 5 5 5 5 5 5 5 5 5 5 5 5 5 5 5 5 5 5 5 5 5 5 5 5 5 5 5 5 5 5 5 5 5 5 5 5 5 5 5 5 5 5 5 5 5 5 5 5 5 5 5 5 5 5 5 5 5 5 5 5 5 5 5 5 5 5 5 5 5 5 5 5 5 5 5 5 5 5 5 5 5 5 5 5 5 5 5 5 5 5 5 5 5 5 5 5 5 5 5 5 5 5 5 5 5 5 5 5 5 5 5 5 5 5 5 5 5 5 5 5 5 5 5 5 5 5 5 5 5 5 5 5 5 5 5 5 5 5 5 5 5 5 5 5 5 5 5 5 5 5 5 5 5 5 5 5 5 5 5 5 5 5 5 5 5 5 5 5 5 5 5 5 5 5 5 5 5 5 5 5 5 5 5 5 5 5 5 5 5 5 5 5 5 5 5 5 5 5 5 5 5 5 5 5 5 5 5 5 5 5 5 5 5 5 5 5 5 5 5 5 5 5 5 5 5 5 5 5 5 5 5 5 5 5 5 5 5 5 5 5 5 5 5 5 5 5 5 5 5 5 5 5 5 5 5 5 5 5 5 5 5 5 5 5 5 5 5 5 5 5 5 5 5 5 5 5 5 5 5 5 5 5 5 5 5 5 5 5 5 5 5 5 5 5 5 5 5 5 5 5 5 5 5 5 5 5 5 5 5 5 5 5 5 5 5 5 5 5 5 5 5 5 5 5 5 5 5 5 5 5 5 5 5 5 5 5 5 5 5 5 5 5 5 5 5 5 5 5 5 5 5 5 5 5 5 5 5 5 5 5 5 5 5 5 5 5 5 5 5 5 5 5 5 5 5 5 5 5 5 5 5 5 5 5 5 5 5 5 5 5 5 5 5 5 5 5 5 5 5 5 5 5 5 5 5 5 5 5 5 5 5 5 5 5 5 5 5 5 5 5 5 5 5 5 5 5 5 5 5 5 5 5 5 5 5 5 5 5 5 5 5 5 5 5 5 5 5 5 5 5 5 5 5 5 5 5 5 5 5 5 5 5 5 5 5 5 5 5 5 5 5 5 5 5 5 5 5 5 5 5 5 5 5 5 5 5 5 5 5 5 5 5 5 5 5 5 5 5 5 5 5 5 5 5 5 5 5 5 5 5 5 5 5 5 5 5 5 5 5 5 5 5 5 5 5 5 5 5 5 5 5 5 5 5 5 5 5 5 5 5 5 5 5 5 5 5 5 5 5 5 5 5 5 5 5 5 5 5 5 5 5 5 5 5 5 5 5 5 5 5 5 5 5 5 5 5 5 5 5 5 5 5 5 5 5 5 5 5 5 5 5 5 5 5 5 5 5 5 5 5 5 5 5 5 5 5 5 5 5 5 5 5 5 5 5 5 5 5 5 5 5 5 5 5 5 5 5 5 5 5 5 5 5 5 5 5 5 5 5 5 5 5 5 5 5 5 5 5 5 5 5 5 5 5 5 5 5 5 5 5 5 5 5 5 5 5 5 5 5 5 5 5 5 5 5 5 5 5 5 5 5 5 5 5 5 5 5 5 5 5 5 5 5 5 5 5 5 5 5 5 5 5 5 5 5 5 5 5 5 5 5 5 5 5 5 5 5 5 5 5 5 5 5 5 5 5 5 5 5 5 5 5 5 5 5 5 5 5 5 5 5 5 5 5 5 5 5 5 5 5 5 5 5 5 5 5 5 5 5 5 5 5 5 5 5 5 5 5 5 5 5 5 5 5 5 5 5 5 5 5 5 5 5 5 5 5 5 5 5 5 5 5 5 5 5 5 5 5 5 5 5 5 5 5 5 5 5 5 5 5 5 5 5 5 5 5 5 5 5 5 5 5 5 5 5 5 5 5 5 5 5 5 5 5 5 5 5 5 5 5 5 5 5 5 5 5 5 5 5 5 5 5 5 5 5 5 5 5 5 5 5 5 5 5 5 5 5 5 5 5 5 5 5 5 5 5 5 5 5 5 5 5 5 5 5 5 5 5 5 5 5 5 5 5 5 5 5 5 5 5 5 5 5 5 5 5 5 5 5 5 5 5 5 5 5 5 5 5 5 5 5 5 5 5 5 5 5 5 5 5 5 5 5 5 5 5 5 5 5 5 5 5 5 5 5 5 5 5 5 5 5 5 5 5 5 5 5 5 5 5 5 5 5 5 5 5 5 5 5 5 5 5 5 5 5 5 5 5 5 5 5 5 5 5 5 5 5 5 5 5 5 5 5 5 5 5 5 5 5 5 5 5 5 5 5 5 5 5 5 5 5 5 5 5 5 5 5 5 5 5 5 5 5 5 5 5 5 5 5 5 5 5 5 5 5 5 5 5 5 5 5 5 5 5 5 5 5 5 5 5 5 5 5 5 5 5 5 5 5 5 5 5 5 5 5 5 5 5 5 5 5 5 5 5 5 5 5 5 5 5 5 5 5 5 5 5 5 5 5 5 5 5 5 5 5 5 5 5 5 5 5 5 5 5 5 5 5 5 5 5 5 5 5 5 5 5 5 5 5 5 5 5 5 5 5 5 5 5 5 5 5 5 5 5 5 5 5 5 5 5 5 5 5 5 5 5 5 5 5 5 5 5 5 5 5 5 5 5 5 5 5 5 5 5 5 5 5 5 5 5 5 5 5 5 5 5 5 5 5 5 5 5 5 5 5 5 5 5 5 5 5 5 5 5 5 5 5 5 5 5 </DataArray>
</Cells>
<PointData  Scalars="mean stress"> 
<DataArray  type="Float64"  Name="mean stress"  format="ascii">1.5299854718879749e+04  1.5299854312798236e+04  1.5299854265862672e+04  1.5299854261167669e+04  1.5299854261828665e+04  1.5299854261730903e+04  1.5299854261745859e+04  1.5299854261743571e+04  1.5299854261743576e+04  1.5299854261745888e+04  1.5299854261730901e+04  1.5299854261828776e+04  1.5299854261167791e+04  1.5299854265862827e+04  1.5299854312798454e+04  1.5299854718879960e+04  1.5340240365313497e+04  1.5340238229008353e+04  1.5340238125613021e+04  1.5340238128962037e+04  1.5340238128445155e+04  1.5340238128526660e+04  1.5340238128513733e+04  1.5340238128515739e+04  1.5340238128515759e+04  1.5340238128513764e+04  1.5340238128526706e+04  1.5340238128445213e+04  1.5340238128962146e+04  1.5340238125613201e+04  1.5340238229008581e+04  1.5340240365313781e+04  1.5461357819285111e+04  1.5461348294412262e+04  1.5461348214210522e+04  1.5461348213254672e+04  1.5461348213502706e+04  1.5461348213455356e+04  1.5461348213463747e+04  1.5461348213462372e+04  1.5461348213462386e+04  1.5461348213463774e+04  1.5461348213455434e+04  1.5461348213502793e+04  1.5461348213254822e+04  1.5461348214210713e+04  1.5461348294412532e+04  1.5461357819285346e+04  1.5663080205203509e+04  1.5663058868117192e+04  1.5663058792533055e+04  1.5663058792834183e+04  1.5663058792756468e+04  1.5663058792776010e+04  1.5663058792771919e+04  1.5663058792772694e+04  1.5663058792772732e+04  1.5663058792771906e+04  1.5663058792776063e+04  1.5663058792756596e+04  1.5663058792834408e+04  1.5663058792533273e+04  1.5663058868117434e+04  1.5663080205203860e+04  1.5945193832291192e+04  1.5945156496435498e+04  1.5945156431577136e+04  1.5945156431583893e+04  1.5945156431602583e+04  1.5945156431596530e+04  1.5945156431598049e+04  1.5945156431597716e+04  1.5945156431597694e+04  1.5945156431598063e+04  1.5945156431596530e+04  1.5945156431602649e+04  1.5945156431584091e+04  1.5945156431577407e+04  1.5945156496435877e+04  1.5945193832291397e+04  1.6307391267000939e+04  1.6307334300654300e+04  1.6307334247503772e+04  1.6307334247539433e+04  1.6307334247535597e+04  1.6307334247537181e+04  1.6307334247536719e+04  1.6307334247536804e+04  1.6307334247536806e+04  1.6307334247536717e+04  1.6307334247537210e+04  1.6307334247535708e+04  1.6307334247539668e+04  1.6307334247504061e+04  1.6307334300654515e+04  1.6307391267001254e+04  1.6749263754027943e+04  1.6749184130062782e+04  1.6749184089612299e+04  1.6749184089617025e+04  1.6749184089617829e+04  1.6749184089617534e+04  1.6749184089617607e+04  1.6749184089617633e+04  1.6749184089617680e+04  1.6749184089617738e+04  1.6749184089617618e+04  1.6749184089617866e+04  1.6749184089617138e+04  1.6749184089612558e+04  1.6749184130062989e+04  1.6749263754028136e+04  1.7270291512252632e+04  1.7270186865066655e+04  1.7270186837498866e+04  1.7270186837486443e+04  1.7270186837486413e+04  1.7270186837486526e+04  1.7270186837486475e+04  1.7270186837486472e+04  1.7270186837486457e+04  1.7270186837486472e+04  1.7270186837486443e+04  1.7270186837486581e+04  1.7270186837486501e+04  1.7270186837498914e+04  1.7270186865066797e+04  1.7270291512252817e+04  1.7869832451089813e+04  1.7869701091492974e+04  1.7869701076415753e+04  1.7869701076388708e+04  1.7869701076389090e+04  1.7869701076389032e+04  1.7869701076389007e+04  1.7869701076388978e+04  1.7869701076388952e+04  1.7869701076388756e+04  1.7869701076388974e+04  1.7869701076388938e+04  1.7869701076388883e+04  1.7869701076416059e+04  1.7869701091493163e+04  1.7869832451090053e+04  1.8547109550635272e+04  1.8546950452398603e+04  1.8546950448953801e+04  1.8546950448916679e+04  1.8546950448916803e+04  1.8546950448916847e+04  1.8546950448916781e+04  1.8546950448916818e+04  1.8546950448916690e+04  1.8546950448916679e+04  1.8546950448916752e+04  1.8546950448916712e+04  1.8546950448916697e+04  1.8546950448953776e+04  1.8546950452398862e+04  1.8547109550635410e+04  1.9301197253783419e+04  1.9301010016412376e+04  1.9301010023418694e+04  1.9301010023375617e+04  1.9301010023375882e+04  1.9301010023375893e+04  1.9301010023375922e+04  1.9301010023375718e+04  1.9301010023375817e+04  1.9301010023375671e+04  1.9301010023375700e+04  1.9301010023375784e+04  1.9301010023375631e+04  1.9301010023418788e+04  1.9301010016412321e+04  1.9301197253783594e+04  2.0131007239346163e+04  2.0130792034109527e+04  2.0130792050195352e+04  2.0130792050149837e+04  2.0130792050149819e+04  2.0130792050149761e+04  2.0130792050149805e+04  2.0130792050149797e+04  2.0130792050149739e+04  2.0130792050150027e+04  2.0130792050149845e+04  2.0130792050149939e+04  2.0130792050149841e+04  2.0130792050195396e+04  2.0130792034109709e+04  2.0131007239346225e+04  2.1035273971592975e+04  2.1035031477183878e+04  2.1035031500900270e+04  2.1035031500855228e+04  2.1035031500855417e+04  2.1035031500855141e+04  2.1035031500855253e+04  2.1035031500855119e+04  2.1035031500855308e+04  2.1035031500855293e+04  2.1035031500855253e+04  2.1035031500855155e+04  2.1035031500855206e+04  2.1035031500900288e+04  2.1035031477184060e+04  2.1035273971592811e+04  2.2012540436612813e+04  2.2012271769982472e+04  2.2012271799891652e+04  2.2012271799849088e+04  2.2012271799849059e+04  2.2012271799849248e+04  2.2012271799849019e+04  2.2012271799849081e+04  2.2012271799849022e+04  2.2012271799848826e+04  2.2012271799849161e+04  2.2012271799848906e+04  2.2012271799849150e+04  2.2012271799891645e+04  2.2012271769982010e+04  2.2012540436612922e+04  2.3061144481989599e+04  2.3060851128688544e+04  2.3060851163427888e+04  2.3060851163389296e+04  2.3060851163389179e+04  2.3060851163389183e+04  2.3060851163389041e+04  2.3060851163388968e+04  2.3060851163389132e+04  2.3060851163389125e+04  2.3060851163389048e+04  2.3060851163389281e+04  2.3060851163389048e+04  2.3060851163428135e+04  2.3060851128688377e+04  2.3061144481989875e+04  2.4179206172812326e+04  2.4178889919954621e+04  2.4178889958275340e+04  2.4178889958240230e+04  2.4178889958240608e+04  2.4178889958240437e+04  2.4178889958240630e+04  2.4178889958240536e+04  2.4178889958240270e+04  2.4178889958240336e+04  2.4178889958240299e+04  2.4178889958240390e+04  2.4178889958240423e+04  2.4178889958275489e+04  2.4178889919954810e+04  2.4179206172812439e+04  2.5364616564207219e+04  2.5364279438037545e+04  2.5364279478823766e+04  2.5364279478793280e+04  2.5364279478793058e+04  2.5364279478793298e+04  2.5364279478793007e+04  2.5364279478792949e+04  2.5364279478793091e+04  2.5364279478793324e+04  2.5364279478793258e+04  2.5364279478793185e+04  2.5364279478793334e+04  2.5364279478823537e+04  2.5364279438037749e+04  2.5364616564207005e+04  2.6615028268618382e+04  2.6614672477738819e+04  2.6614672520014188e+04  2.6614672519988129e+04  2.6614672519988009e+04  2.6614672519987860e+04  2.6614672519988118e+04  2.6614672519987966e+04  2.6614672519988049e+04  2.6614672519988126e+04  2.6614672519987984e+04  2.6614672519988144e+04  2.6614672519987860e+04  2.6614672520014330e+04  2.6614672477739012e+04  2.6615028268618407e+04  2.7927848165411240e+04  2.7927476050040179e+04  2.7927476092964727e+04  2.7927476092942285e+04  2.7927476092942485e+04  2.7927476092942434e+04  2.7927476092942510e+04  2.7927476092942630e+04  2.7927476092942496e+04  2.7927476092942481e+04  2.7927476092942394e+04  2.7927476092942750e+04  2.7927476092942554e+04  2.7927476092964956e+04  2.7927476050040008e+04  2.7927848165411113e+04  2.9300232561715093e+04  2.9299846548868485e+04  2.9299846591728401e+04  2.9299846591709815e+04  2.9299846591710095e+04  2.9299846591709935e+04  2.9299846591710011e+04  2.9299846591710259e+04  2.9299846591710095e+04  2.9299846591709840e+04  2.9299846591710215e+04  2.9299846591710055e+04  2.9299846591710197e+04  2.9299846591728608e+04  2.9299846548868434e+04  2.9300232561715489e+04  3.0729085067487122e+04  3.0728687631680114e+04  3.0728687673874392e+04  3.0728687673859044e+04  3.0728687673858614e+04  3.0728687673859131e+04  3.0728687673858814e+04  3.0728687673858603e+04  3.0728687673858960e+04  3.0728687673858694e+04  3.0728687673859102e+04  3.0728687673858843e+04  3.0728687673859302e+04  3.0728687673874865e+04  3.0728687631680925e+04  3.0729085067487496e+04  3.2211057395565571e+04  3.2210651024471317e+04  3.2210651065502243e+04  3.2210651065485832e+04  3.2210651065487673e+04  3.2210651065486818e+04  3.2210651065487229e+04  3.2210651065487335e+04  3.2210651065486953e+04  3.2210651065487767e+04  3.2210651065486913e+04  3.2210651065488117e+04  3.2210651065486210e+04  3.2210651065502163e+04  3.2210651024472041e+04  3.2211057395565964e+04  3.3742553239937966e+04  3.3742140404514794e+04  3.3742140443935488e+04  3.3742140443941018e+04  3.3742140443930621e+04  3.3742140443936289e+04  3.3742140443933677e+04  3.3742140443934251e+04  3.3742140443934441e+04  3.3742140443933837e+04  3.3742140443936165e+04  3.3742140443930344e+04  3.3742140443941229e+04  3.3742140443935619e+04  3.3742140404515165e+04  3.3742553239938527e+04  3.5319735324646550e+04  3.5319318452519867e+04  3.5319318490166326e+04  3.5319318490061494e+04  3.5319318490118741e+04  3.5319318490090569e+04  3.5319318490101512e+04  3.5319318490098398e+04  3.5319318490098056e+04  3.5319318490100944e+04  3.5319318490090125e+04  3.5319318490118596e+04  3.5319318490061691e+04  3.5319318490166581e+04  3.5319318452519525e+04  3.5319735324646892e+04  3.6938535647735029e+04  3.6938117103356890e+04  3.6938117137840018e+04  3.6938117138398156e+04  3.6938117138091831e+04  3.6938117138223948e+04  3.6938117138177819e+04  3.6938117138190522e+04  3.6938117138190668e+04  3.6938117138177564e+04  3.6938117138224508e+04  3.6938117138092210e+04  3.6938117138398549e+04  3.6938117137841029e+04  3.6938117103357603e+04  3.6938535647735844e+04  3.8594668903709578e+04  3.8594250949503934e+04  3.8594250987486688e+04  3.8594250984228893e+04  3.8594250985790670e+04  3.8594250985216786e+04  3.8594250985383493e+04  3.8594250985343955e+04  3.8594250985344232e+04  3.8594250985383194e+04  3.8594250985216429e+04  3.8594250985790604e+04  3.8594250984229155e+04  3.8594250987486543e+04  3.8594250949504072e+04  3.8594668903709258e+04  4.0283648846711731e+04  4.0283233747528975e+04  4.0283233745825826e+04  4.0283233763928089e+04  4.0283233756661743e+04  4.0283233758787697e+04  4.0283233758297254e+04  4.0283233758393944e+04  4.0283233758394308e+04  4.0283233758297662e+04  4.0283233758787028e+04  4.0283233756661997e+04  4.0283233763927870e+04  4.0283233745826481e+04  4.0283233747529935e+04  4.0283648846712502e+04  4.2000808313380534e+04  4.2000397514644523e+04  4.2000397741725006e+04  4.2000397647921578e+04  4.2000397676072716e+04  4.2000397670135513e+04  4.2000397671241677e+04  4.2000397671052036e+04  4.2000397671051236e+04  4.2000397671241975e+04  4.2000397670135695e+04  4.2000397676072149e+04  4.2000397647922131e+04  4.2000397741725319e+04  4.2000397514644377e+04  4.2000808313381349e+04  4.3741316591942035e+04  4.3740916304479899e+04  4.3740915105308006e+04  4.3740915506009718e+04  4.3740915435208241e+04  4.3740915446737905e+04  4.3740915444888145e+04  4.3740915445177336e+04  4.3740915445177918e+04  4.3740915444887454e+04  4.3740915446737978e+04  4.3740915435208335e+04  4.3740915506009711e+04  4.3740915105307991e+04  4.3740916304479848e+04  4.3741316591942043e+04  4.5500240615106202e+04  4.5499818874138131e+04  4.5499825398613793e+04  4.5499824620266023e+04  4.5499824724448561e+04  4.5499824709456989e+04  4.5499824711703368e+04  4.5499824711365960e+04  4.5499824711365138e+04  4.5499824711702415e+04  4.5499824709456654e+04  4.5499824724449099e+04  4.5499824620266554e+04  4.5499825398614623e+04  4.5499818874138065e+04  4.5500240615106202e+04  4.7079314360916789e+04  4.7079208089637112e+04  4.7079203068792864e+04  4.7079203665530033e+04  4.7079203581377507e+04  4.7079203593937404e+04  4.7079203592004757e+04  4.7079203592300400e+04  4.7079203592300495e+04  4.7079203592005571e+04  4.7079203593937498e+04  4.7079203581376634e+04  4.7079203665529465e+04  4.7079203068792689e+04  4.7079208089637075e+04  4.7079314360916607e+04  4.7449550973984522e+04  4.7449553336415040e+04  4.7449551364896462e+04  4.7449551293700126e+04  4.7449551323383144e+04  4.7449551317234815e+04  4.7449551318352962e+04  4.7449551318164602e+04  4.7449551318164558e+04  4.7449551318353631e+04  4.7449551317235084e+04  4.7449551323384010e+04  4.7449551293700461e+04  4.7449551364895349e+04  4.7449553336415287e+04  4.7449550973984471e+04  4.7628499715122569e+04  4.7628494987105572e+04  4.7628495373038968e+04  4.7628495278181465e+04  4.7628495281384516e+04  4.7628495282473603e+04  4.7628495282101656e+04  4.7628495282183059e+04  4.7628495282182601e+04  4.7628495282101663e+04  4.7628495282472948e+04  4.7628495281384639e+04  4.7628495278181435e+04  4.7628495373039768e+04  4.7628494987106889e+04  4.7628499715122729e+04  4.7808156409597592e+04  4.7808152624698218e+04  4.7808152557643647e+04  4.7808152584414092e+04  4.7808152578540168e+04  4.7808152579081245e+04  4.7808152579093388e+04  4.7808152579075730e+04  4.7808152579076188e+04  4.7808152579092457e+04  4.7808152579080801e+04  4.7808152578539259e+04  4.7808152584414267e+04  4.7808152557643603e+04  4.7808152624696544e+04  4.7808156409598327e+04  4.7988474044437222e+04  4.7988470109502297e+04  4.7988470120663995e+04  4.7988470115059936e+04  4.7988470116959208e+04  4.7988470116544348e+04  4.7988470116600489e+04  4.7988470116595978e+04  4.7988470116596101e+04  4.7988470116598612e+04  4.7988470116544013e+04  4.7988470116958000e+04  4.7988470115058481e+04  4.7988470120663544e+04  4.7988470109502363e+04  4.7988474044436625e+04  4.8169398307042225e+04  4.8169394382327409e+04  4.8169394380539939e+04  4.8169394381594851e+04  4.8169394381143997e+04  4.8169394381285296e+04  4.8169394381254220e+04  4.8169394381258964e+04  4.8169394381258026e+04  4.8169394381254082e+04  4.8169394381284903e+04  4.8169394381144324e+04  4.8169394381595812e+04  4.8169394380539816e+04  4.8169394382328239e+04  4.8169398307041636e+04  4.8350875406776038e+04  4.8350871470890532e+04  4.8350871471226390e+04  4.8350871471037644e+04  4.8350871471131795e+04  4.8350871471095321e+04  4.8350871471104765e+04  4.8350871471102822e+04  4.8350871471102364e+04  4.8350871471104983e+04  4.8350871471094601e+04  4.8350871471130878e+04  4.8350871471035913e+04  4.8350871471226805e+04  4.8350871470889746e+04  4.8350875406775209e+04  4.8532851069923992e+04  4.8532847128931353e+04  4.8532847128920148e+04  4.8532847128953537e+04  4.8532847128935195e+04  4.8532847128942798e+04  4.8532847128939844e+04  4.8532847128939960e+04  4.8532847128941066e+04  4.8532847128938629e+04  4.8532847128942085e+04  4.8532847128933987e+04  4.8532847128953057e+04  4.8532847128918438e+04  4.8532847128930749e+04  4.8532851069924916e+04  4.8715270720448403e+04  4.8715266776158329e+04  4.8715266776203920e+04  4.8715266776197524e+04  4.8715266776200289e+04  4.8715266776198863e+04  4.8715266776199933e+04  4.8715266776199838e+04  4.8715266776200027e+04  4.8715266776200086e+04  4.8715266776199074e+04  4.8715266776201781e+04  4.8715266776198056e+04  4.8715266776203891e+04  4.8715266776157354e+04  4.8715270720447821e+04  4.8898079492384939e+04  4.8898075547276807e+04  4.8898075547312445e+04  4.8898075547313274e+04  4.8898075547313012e+04  4.8898075547313136e+04  4.8898075547312932e+04  4.8898075547313507e+04  4.8898075547312816e+04  4.8898075547312961e+04  4.8898075547313521e+04  4.8898075547313165e+04  4.8898075547313187e+04  4.8898075547312255e+04  4.8898075547276429e+04  4.8898079492383949e+04  4.9081222268068748e+04  4.9081218324509369e+04  4.9081218324546615e+04  4.9081218324547219e+04  4.9081218324546382e+04  4.9081218324546891e+04  4.9081218324546637e+04  4.9081218324546280e+04  4.9081218324546389e+04  4.9081218324546178e+04  4.9081218324545989e+04  4.9081218324545385e+04  4.9081218324546200e+04  4.9081218324545982e+04  4.9081218324510242e+04  4.9081222268070211e+04  4.9264643712862242e+04  4.9264639773219285e+04  4.9264639773256415e+04  4.9264639773257011e+04  4.9264639773257208e+04  4.9264639773256247e+04  4.9264639773256611e+04  4.9264639773256531e+04  4.9264639773255978e+04  4.9264639773256655e+04  4.9264639773256378e+04  4.9264639773256524e+04  4.9264639773256487e+04  4.9264639773256422e+04  4.9264639773219256e+04  4.9264643712862351e+04  4.9448288310830299e+04  4.9448284377463147e+04  4.9448284377499192e+04  4.9448284377498858e+04  4.9448284377500109e+04  4.9448284377499331e+04  4.9448284377497905e+04  4.9448284377498108e+04  4.9448284377498421e+04  4.9448284377498567e+04  4.9448284377497235e+04  4.9448284377498399e+04  4.9448284377497781e+04  4.9448284377497133e+04  4.9448284377463548e+04  4.9448288310830918e+04  4.9632100400663854e+04  4.9632096475885453e+04  4.9632096475933693e+04  4.9632096475930601e+04  4.9632096475929393e+04  4.9632096475929757e+04  4.9632096475930375e+04  4.9632096475929822e+04  4.9632096475928469e+04  4.9632096475928869e+04  4.9632096475928425e+04  4.9632096475928294e+04  4.9632096475929036e+04  4.9632096475933446e+04  4.9632096475884988e+04  4.9632100400663250e+04  4.9816024211725598e+04  4.9816020298006530e+04  4.9816020297954048e+04  4.9816020297942508e+04  4.9816020297944408e+04  4.9816020297946379e+04  4.9816020297945062e+04  4.9816020297943833e+04  4.9816020297944226e+04  4.9816020297944189e+04  4.9816020297943891e+04  4.9816020297943760e+04  4.9816020297941934e+04  4.9816020297952426e+04  4.9816020298005955e+04  4.9816024211726231e+04  4.9955710473164727e+04  4.9955706568661910e+04  4.9955706568258916e+04  4.9955706568287074e+04  4.9955706568282338e+04  4.9955706568284710e+04  4.9955706568284797e+04  4.9955706568285685e+04  4.9955706568284942e+04  4.9955706568287911e+04  4.9955706568287496e+04  4.9955706568287518e+04  4.9955706568289628e+04  4.9955706568260997e+04  4.9955706568663998e+04  4.9955710473166713e+04  1.5300603831241089e+04  1.5300604060703530e+04  1.5300604098011097e+04  1.5300604098310730e+04  1.5300604098278774e+04  1.5300604098282356e+04  1.5300604098281949e+04  1.5300604098282000e+04  1.5300604098281943e+04  1.5300604098282369e+04  1.5300604098278831e+04  1.5300604098310840e+04  1.5300604098011212e+04  1.5300604060703694e+04  1.5300603831241240e+04  1.5381370070008150e+04  1.5381371074979339e+04  1.5381371120200725e+04  1.5381371119669475e+04  1.5381371119728128e+04  1.5381371119720716e+04  1.5381371119721722e+04  1.5381371119721580e+04  1.5381371119721742e+04  1.5381371119720783e+04  1.5381371119728210e+04  1.5381371119669604e+04  1.5381371120200945e+04  1.5381371074979588e+04  1.5381370070008415e+04  1.5542819488735082e+04  1.5542822069387790e+04  1.5542822108495871e+04  1.5542822108616776e+04  1.5542822108581258e+04  1.5542822108587165e+04  1.5542822108586133e+04  1.5542822108586270e+04  1.5542822108586155e+04  1.5542822108587095e+04  1.5542822108581257e+04  1.5542822108616911e+04  1.5542822108496035e+04  1.5542822069388023e+04  1.5542819488735389e+04  1.5784783674383443e+04  1.5784788567045522e+04  1.5784788602079097e+04  1.5784788602017032e+04  1.5784788602028404e+04  1.5784788602025656e+04  1.5784788602026325e+04  1.5784788602026194e+04  1.5784788602026243e+04  1.5784788602025721e+04  1.5784788602028577e+04  1.5784788602017110e+04  1.5784788602079338e+04  1.5784788567045851e+04  1.5784783674383632e+04  1.6107004201074198e+04  1.6107012050297608e+04  1.6107012079789347e+04  1.6107012079774939e+04  1.6107012079772408e+04  1.6107012079773242e+04  1.6107012079773003e+04  1.6107012079773142e+04  1.6107012079773180e+04  1.6107012079773387e+04  1.6107012079772459e+04  1.6107012079775157e+04  1.6107012079789503e+04  1.6107012050297804e+04  1.6107004201074516e+04  1.6509125758496302e+04  1.6509137119227013e+04  1.6509137142617092e+04  1.6509137142607997e+04  1.6509137142608477e+04  1.6509137142608291e+04  1.6509137142608331e+04  1.6509137142608302e+04  1.6509137142608350e+04  1.6509137142608179e+04  1.6509137142608401e+04  1.6509137142608073e+04  1.6509137142617448e+04  1.6509137119227282e+04  1.6509125758496455e+04  1.6990687357490639e+04  1.6990702678854512e+04  1.6990702695861113e+04  1.6990702695862929e+04  1.6990702695863027e+04  1.6990702695863092e+04  1.6990702695862950e+04  1.6990702695862819e+04  1.6990702695862725e+04  1.6990702695862812e+04  1.6990702695862808e+04  1.6990702695863030e+04  1.6990702695861328e+04  1.6990702678854937e+04  1.6990687357491232e+04  1.7551111737949919e+04  1.7551131358611281e+04  1.7551131369282284e+04  1.7551131369291950e+04  1.7551131369291819e+04  1.7551131369291863e+04  1.7551131369291947e+04  1.7551131369291990e+04  1.7551131369292012e+04  1.7551131369291936e+04  1.7551131369292067e+04  1.7551131369292136e+04  1.7551131369282248e+04  1.7551131358611146e+04  1.7551111737949763e+04  1.8189693300777650e+04  1.8189717448387928e+04  1.8189717453034267e+04  1.8189717453050293e+04  1.8189717453050260e+04  1.8189717453050198e+04  1.8189717453050373e+04  1.8189717453050383e+04  1.8189717453050122e+04  1.8189717453050227e+04  1.8189717453050278e+04  1.8189717453050274e+04  1.8189717453034369e+04  1.8189717448388063e+04  1.8189693300777690e+04  1.8905584877428068e+04  1.8905613672707703e+04  1.8905613671837182e+04  1.8905613671857209e+04  1.8905613671857100e+04  1.8905613671857038e+04  1.8905613671856925e+04  1.8905613671856856e+04  1.8905613671857074e+04  1.8905613671857231e+04  1.8905613671857471e+04  1.8905613671857784e+04  1.8905613671837458e+04  1.8905613672707648e+04  1.8905584877428086e+04  1.9697783696423023e+04  1.9697817160564464e+04  1.9697817154813692e+04  1.9697817154835513e+04  1.9697817154835331e+04  1.9697817154835418e+04  1.9697817154835277e+04  1.9697817154835331e+04  1.9697817154835458e+04  1.9697817154835404e+04  1.9697817154835255e+04  1.9697817154835218e+04  1.9697817154813554e+04  1.9697817160564638e+04  1.9697783696423037e+04  2.0565116931674587e+04  2.0565154996032205e+04  2.0565154986104331e+04  2.0565154986127352e+04  2.0565154986127476e+04  2.0565154986127203e+04  2.0565154986127287e+04  2.0565154986127065e+04  2.0565154986126876e+04  2.0565154986126796e+04  2.0565154986126781e+04  2.0565154986126890e+04  2.0565154986103913e+04  2.0565154996032059e+04  2.0565116931674624e+04  2.1506227236889266e+04  2.1506269753967350e+04  2.1506269740582542e+04  2.1506269740604454e+04  2.1506269740604461e+04  2.1506269740604308e+04  2.1506269740604257e+04  2.1506269740604479e+04  2.1506269740604628e+04  2.1506269740604585e+04  2.1506269740604348e+04  2.1506269740604093e+04  2.1506269740582688e+04  2.1506269753967699e+04  2.1506227236889637e+04  2.2519558680516562e+04  2.2519605435434889e+04  2.2519605419292504e+04  2.2519605419312928e+04  2.2519605419313339e+04  2.2519605419313706e+04  2.2519605419313197e+04  2.2519605419312844e+04  2.2519605419312767e+04  2.2519605419312804e+04  2.2519605419312826e+04  2.2519605419313142e+04  2.2519605419292777e+04  2.2519605435434823e+04  2.2519558680516027e+04  2.3603343496827812e+04  2.3603394218645793e+04  2.3603394200398863e+04  2.3603394200417530e+04  2.3603394200416860e+04  2.3603394200416482e+04  2.3603394200417220e+04  2.3603394200417551e+04  2.3603394200417282e+04  2.3603394200417239e+04  2.3603394200417853e+04  2.3603394200417635e+04  2.3603394200398572e+04  2.3603394218645717e+04  2.3603343496828158e+04  2.4755590060571813e+04  2.4755644433037651e+04  2.4755644413277070e+04  2.4755644413292819e+04  2.4755644413292899e+04  2.4755644413292946e+04  2.4755644413292670e+04  2.4755644413292866e+04  2.4755644413293263e+04  2.4755644413293165e+04  2.4755644413292634e+04  2.4755644413292859e+04  2.4755644413276772e+04  2.4755644433037312e+04  2.4755590060571856e+04  2.5974072475340246e+04  2.5974130146810709e+04  2.5974130126058993e+04  2.5974130126073334e+04  2.5974130126073374e+04  2.5974130126073382e+04  2.5974130126073516e+04  2.5974130126073327e+04  2.5974130126072931e+04  2.5974130126072916e+04  2.5974130126073276e+04  2.5974130126073473e+04  2.5974130126059379e+04  2.5974130146811149e+04  2.5974072475340352e+04  2.7256322139639473e+04  2.7256382732041766e+04  2.7256382710753485e+04  2.7256382710765789e+04  2.7256382710765938e+04  2.7256382710766109e+04  2.7256382710765803e+04  2.7256382710765971e+04  2.7256382710766935e+04  2.7256382710766826e+04  2.7256382710766338e+04  2.7256382710765796e+04  2.7256382710753594e+04  2.7256382732042573e+04  2.7256322139639724e+04  2.8599621620066075e+04  2.8599684736875206e+04  2.8599684715438463e+04  2.8599684715448981e+04  2.8599684715449090e+04  2.8599684715448740e+04  2.8599684715449032e+04  2.8599684715448988e+04  2.8599684715448901e+04  2.8599684715449268e+04  2.8599684715449363e+04  2.8599684715449745e+04  2.8599684715439242e+04  2.8599684736875242e+04  2.8599621620066475e+04  3.0001001118740118e+04  3.0001066352009177e+04  3.0001066330753532e+04  3.0001066330761991e+04  3.0001066330762023e+04  3.0001066330762700e+04  3.0001066330762715e+04  3.0001066330762238e+04  3.0001066330761536e+04  3.0001066330761416e+04  3.0001066330762027e+04  3.0001066330761980e+04  3.0001066330753503e+04  3.0001066352009213e+04  3.0001001118740121e+04  3.1457237773003588e+04  3.1457304709524869e+04  3.1457304688725333e+04  3.1457304688732467e+04  3.1457304688733249e+04  3.1457304688733391e+04  3.1457304688732846e+04  3.1457304688733158e+04  3.1457304688733351e+04  3.1457304688733057e+04  3.1457304688732602e+04  3.1457304688732802e+04  3.1457304688725424e+04  3.1457304709525233e+04  3.1457237773004399e+04  3.2964857970417557e+04  3.2964926197111199e+04  3.2964926177000925e+04  3.2964926177005713e+04  3.2964926177006157e+04  3.2964926177005203e+04  3.2964926177005764e+04  3.2964926177005254e+04  3.2964926177005043e+04  3.2964926177004862e+04  3.2964926177005793e+04  3.2964926177004731e+04  3.2964926177000838e+04  3.2964926197112101e+04  3.2964857970417987e+04  3.4520142802526592e+04  3.4520211911103863e+04  3.4520211891860301e+04  3.4520211891872714e+04  3.4520211891866762e+04  3.4520211891870742e+04  3.4520211891869316e+04  3.4520211891870436e+04  3.4520211891870538e+04  3.4520211891872190e+04  3.4520211891868232e+04  3.4520211891874882e+04  3.4520211891861902e+04  3.4520211911104205e+04  3.4520142802527029e+04  3.6119136717341600e+04  3.6119206308620844e+04  3.6119206290474234e+04  3.6119206290423994e+04  3.6119206290460301e+04  3.6119206290442584e+04  3.6119206290448645e+04  3.6119206290445596e+04  3.6119206290448019e+04  3.6119206290442198e+04  3.6119206290460170e+04  3.6119206290423645e+04  3.6119206290474052e+04  3.6119206308620895e+04  3.6119136717341404e+04  3.7757659368253349e+04  3.7757729054524971e+04  3.7757729037082237e+04  3.7757729037444296e+04  3.7757729037240548e+04  3.7757729037319608e+04  3.7757729037296114e+04  3.7757729037303630e+04  3.7757729037296296e+04  3.7757729037319572e+04  3.7757729037240111e+04  3.7757729037443642e+04  3.7757729037082405e+04  3.7757729054525364e+04  3.7757659368253815e+04  3.9431320574237790e+04  3.9431389989387615e+04  3.9431389976606850e+04  3.9431389974321275e+04  3.9431389975359656e+04  3.9431389975053229e+04  3.9431389975119157e+04  3.9431389975104299e+04  3.9431389975119637e+04  3.9431389975052887e+04  3.9431389975359380e+04  3.9431389974321835e+04  3.9431389976607083e+04  3.9431389989388124e+04  3.9431320574238402e+04  4.1135538347235262e+04  4.1135607111500052e+04  4.1135607074062660e+04  4.1135607087763412e+04  4.1135607083495051e+04  4.1135607084294046e+04  4.1135607084162832e+04  4.1135607084185838e+04  4.1135607084162926e+04  4.1135607084293493e+04  4.1135607083494091e+04  4.1135607087762241e+04  4.1135607074061641e+04  4.1135607111499849e+04  4.1135538347234986e+04  4.2865559229728686e+04  4.2865627125340543e+04  4.2865627291152508e+04  4.2865627225026219e+04  4.2865627234289568e+04  4.2865627233077081e+04  4.2865627233239153e+04  4.2865627233214240e+04  4.2865627233238425e+04  4.2865627233077670e+04  4.2865627234289837e+04  4.2865627225027078e+04  4.2865627291154451e+04  4.2865627125340885e+04  4.2865559229728344e+04  4.4616483772973952e+04  4.4616550643151553e+04  4.4616549385776227e+04  4.4616549471669707e+04  4.4616549464187148e+04  4.4616549464953721e+04  4.4616549464866897e+04  4.4616549464879419e+04  4.4616549464867036e+04  4.4616549464953576e+04  4.4616549464188349e+04  4.4616549471670078e+04  4.4616549385775070e+04  4.4616550643151000e+04  4.4616483772974185e+04  4.6479731908274509e+04  4.6479776253781441e+04  4.6479775902356560e+04  4.6479775942613058e+04  4.6479775938212137e+04  4.6479775938742176e+04  4.6479775938674728e+04  4.6479775938684965e+04  4.6479775938673534e+04  4.6479775938741244e+04  4.6479775938211627e+04  4.6479775942613385e+04  4.6479775902356945e+04  4.6479776253780794e+04  4.6479731908273185e+04  4.7456344866045874e+04  4.7456355002956465e+04  4.7456356599751110e+04  4.7456356481848255e+04  4.7456356493861495e+04  4.7456356492462561e+04  4.7456356492638777e+04  4.7456356492611376e+04  4.7456356492639170e+04  4.7456356492462350e+04  4.7456356493861160e+04  4.7456356481849070e+04  4.7456356599752427e+04  4.7456355002957855e+04  4.7456344866048290e+04  4.7538844736417079e+04  4.7538844772753058e+04  4.7538845191610329e+04  4.7538845224739831e+04  4.7538845217781891e+04  4.7538845218859002e+04  4.7538845218697919e+04  4.7538845218724979e+04  4.7538845218697730e+04  4.7538845218858711e+04  4.7538845217780537e+04  4.7538845224738077e+04  4.7538845191609355e+04  4.7538844772753364e+04  4.7538844736416046e+04  4.7718157922720362e+04  4.7718158622780800e+04  4.7718158559617776e+04  4.7718158577249138e+04  4.7718158577506314e+04  4.7718158577188631e+04  4.7718158577263457e+04  4.7718158577246606e+04  4.7718158577263093e+04  4.7718158577188908e+04  4.7718158577506896e+04  4.7718158577248338e+04  4.7718158559616415e+04  4.7718158622780356e+04  4.7718157922720711e+04  4.7898158175375313e+04  4.7898158822533624e+04  4.7898158831202236e+04  4.7898158826901024e+04  4.7898158827864412e+04  4.7898158827816653e+04  4.7898158827804902e+04  4.7898158827811247e+04  4.7898158827805004e+04  4.7898158827815700e+04  4.7898158827865620e+04  4.7898158826904168e+04  4.7898158831203909e+04  4.7898158822531914e+04  4.7898158175374243e+04  4.8078792006253658e+04  4.8078792660392792e+04  4.8078792659189465e+04  4.8078792659965322e+04  4.8078792659667859e+04  4.8078792659730265e+04  4.8078792659725106e+04  4.8078792659724408e+04  4.8078792659725106e+04  4.8078792659730985e+04  4.8078792659666920e+04  4.8078792659961095e+04  4.8078792659187246e+04  4.8078792660394196e+04  4.8078792006254502e+04  4.8260005702103292e+04  4.8260006357287602e+04  4.8260006357433143e+04  4.8260006357304184e+04  4.8260006357370446e+04  4.8260006357350503e+04  4.8260006357353224e+04  4.8260006357351245e+04  4.8260006357351791e+04  4.8260006357348175e+04  4.8260006357368868e+04  4.8260006357305298e+04  4.8260006357432343e+04  4.8260006357286402e+04  4.8260005702103394e+04  4.8441745176693410e+04  4.8441745833055742e+04  4.8441745833013345e+04  4.8441745833035566e+04  4.8441745833022811e+04  4.8441745833027489e+04  4.8441745833027911e+04  4.8441745833029679e+04  4.8441745833028101e+04  4.8441745833027831e+04  4.8441745833023102e+04  4.8441745833034955e+04  4.8441745833015128e+04  4.8441745833057597e+04  4.8441745176692959e+04  4.8623956003581894e+04  4.8623956660678239e+04  4.8623956660661883e+04  4.8623956660659162e+04  4.8623956660663789e+04  4.8623956660661592e+04  4.8623956660659111e+04  4.8623956660659511e+04  4.8623956660661715e+04  4.8623956660661766e+04  4.8623956660662501e+04  4.8623956660661090e+04  4.8623956660663061e+04  4.8623956660676580e+04  4.8623956003580533e+04  4.8806583452430030e+04  4.8806584109864547e+04  4.8806584109847659e+04  4.8806584109847259e+04  4.8806584109846066e+04  4.8806584109847980e+04  4.8806584109848911e+04  4.8806584109847165e+04  4.8806584109846903e+04  4.8806584109847819e+04  4.8806584109846794e+04  4.8806584109845680e+04  4.8806584109846590e+04  4.8806584109866293e+04  4.8806583452431638e+04  4.8989572523140581e+04  4.8989573180514366e+04  4.8989573180494968e+04  4.8989573180495987e+04  4.8989573180495383e+04  4.8989573180493564e+04  4.8989573180493826e+04  4.8989573180494299e+04  4.8989573180493222e+04  4.8989573180493993e+04  4.8989573180495376e+04  4.8989573180494794e+04  4.8989573180493651e+04  4.8989573180512903e+04  4.8989572523138697e+04  4.9172867980985509e+04  4.9172868637905529e+04  4.9172868637887383e+04  4.9172868637885687e+04  4.9172868637884516e+04  4.9172868637886058e+04  4.9172868637886066e+04  4.9172868637885505e+04  4.9172868637887128e+04  4.9172868637886902e+04  4.9172868637884952e+04  4.9172868637883963e+04  4.9172868637883614e+04  4.9172868637903019e+04  4.9172867980985189e+04  4.9356414392063416e+04  4.9356415048134899e+04  4.9356415048117327e+04  4.9356415048117975e+04  4.9356415048119547e+04  4.9356415048118921e+04  4.9356415048118986e+04  4.9356415048118593e+04  4.9356415048116345e+04  4.9356415048115297e+04  4.9356415048115763e+04  4.9356415048117211e+04  4.9356415048118768e+04  4.9356415048136812e+04  4.9356414392065170e+04  4.9540156159059341e+04  4.9540156813890928e+04  4.9540156813869478e+04  4.9540156813870344e+04  4.9540156813871217e+04  4.9540156813870672e+04  4.9540156813870890e+04  4.9540156813872585e+04  4.9540156813873786e+04  4.9540156813871930e+04  4.9540156813871799e+04  4.9540156813871996e+04  4.9540156813869449e+04  4.9540156813889058e+04  4.9540156159057871e+04  4.9724037557237447e+04  4.9724038210436658e+04  4.9724038210442843e+04  4.9724038210446139e+04  4.9724038210445739e+04  4.9724038210446546e+04  4.9724038210445084e+04  4.9724038210443934e+04  4.9724038210444189e+04  4.9724038210445557e+04  4.9724038210445222e+04  4.9724038210445411e+04  4.9724038210444538e+04  4.9724038210440507e+04  4.9724037557241099e+04  4.9930149485591122e+04  4.9930150137762801e+04  4.9930150137873214e+04  4.9930150137868186e+04  4.9930150137867691e+04  4.9930150137867960e+04  4.9930150137867917e+04  4.9930150137867167e+04  4.9930150137866658e+04  4.9930150137867320e+04  4.9930150137868062e+04  4.9930150137867982e+04  4.9930150137870274e+04  4.9930150137759309e+04  4.9930149485588714e+04  </DataArray> 
</PointData> 
</Piece>
</UnstructuredGrid>
</VTKFile>