<?xml version="1.0"?>
<VTKFile type="UnstructuredGrid"  version="0.1"  >
<UnstructuredGrid>
<Piece  NumberOfPoints="1876" NumberOfCells="3600">
<Points>
<DataArray  type="Float64"  NumberOfComponents="3"  format="ascii">-0.75 -3 0  -0.65 -3 0  -0.55 -3 0  -0.45 -3 0  -0.35 -3 0  -0.25 -3 0  -0.15 -3 0  -0.05000000000000004 -3 0  0.05000000000000004 -3 0  0.15 -3 0  0.25 -3 0  0.3500000000000001 -3 0  0.45 -3 0  0.55 -3 0  0.6499999999999999 -3 0  0.75 -3 0  -0.75 -2.95 0  -0.65 -2.95 0  -0.55 -2.95 0  -0.45 -2.95 0  -0.35 -2.95 0  -0.25 -2.95 0  -0.15 -2.95 0  -0.05000000000000004 -2.95 0  0.05000000000000004 -2.95 0  0.15 -2.95 0  0.25 -2.95 0  0.3500000000000001 -2.95 0  0.45 -2.95 0  0.55 -2.95 0  0.6499999999999999 -2.95 0  0.75 -2.95 0  -0.75 -2.9 0  -0.65 -2.9 0  -0.55 -2.9 0  -0.45 -2.9 0  -0.35 -2.9 0  -0.25 -2.9 0  -0.15 -2.9 0  -0.05000000000000004 -2.9 0  0.05000000000000004 -2.9 0  0.15 -2.9 0  0.25 -2.9 0  0.3500000000000001 -2.9 0  0.45 -2.9 0  0.55 -2.9 0  0.6499999999999999 -2.9 0  0.75 -2.9 0  -0.75 -2.85 0  -0.65 -2.85 0  -0.55 -2.85 0  -0.45 -2.85 0  -0.35 -2.85 0  -0.25 -2.85 0  -0.15 -2.85 0  -0.05000000000000004 -2.85 0  0.05000000000000004 -2.85 0  0.15 -2.85 0  0.25 -2.85 0  0.3500000000000001 -2.85 0  0.45 -2.85 0  0.55 -2.85 0  0.6499999999999999 -2.85 0  0.75 -2.85 0  -0.75 -2.8 0  -0.65 -2.8 0  -0.55 -2.8 0  -0.45 -2.8 0  -0.35 -2.8 0  -0.25 -2.8 0  -0.15 -2.8 0  -0.05000000000000004 -2.8 0  0.05000000000000004 -2.8 0  0.15 -2.8 0  0.25 -2.8 0  0.3500000000000001 -2.8 0  0.45 -2.8 0  0.55 -2.8 0  0.6499999999999999 -2.8 0  0.75 -2.8 0  -0.75 -2.75 0  -0.65 -2.75 0  -0.55 -2.75 0  -0.45 -2.75 0  -0.35 -2.75 0  -0.25 -2.75 0  -0.15 -2.75 0  -0.05000000000000004 -2.75 0  0.05000000000000004 -2.75 0  0.15 -2.75 0  0.25 -2.75 0  0.3500000000000001 -2.75 0  0.45 -2.75 0  0.55 -2.75 0  0.6499999999999999 -2.75 0  0.75 -2.75 0  -0.75 -2.7 0  -0.65 -2.7 0  -0.55 -2.7 0  -0.45 -2.7 0  -0.35 -2.7 0  -0.25 -2.7 0  -0.15 -2.7 0  -0.05000000000000004 -2.7 0  0.05000000000000004 -2.7 0  0.15 -2.7 0  0.25 -2.7 0  0.3500000000000001 -2.7 0  0.45 -2.7 0  0.55 -2.7 0  0.6499999999999999 -2.7 0  0.75 -2.7 0  -0.75 -2.65 0  -0.65 -2.65 0  -0.55 -2.65 0  -0.45 -2.65 0  -0.35 -2.65 0  -0.25 -2.65 0  -0.15 -2.65 0  -0.05000000000000004 -2.65 0  0.05000000000000004 -2.65 0  0.15 -2.65 0  0.25 -2.65 0  0.3500000000000001 -2.65 0  0.45 -2.65 0  0.55 -2.65 0  0.6499999999999999 -2.65 0  0.75 -2.65 0  -0.75 -2.6 0  -0.65 -2.6 0  -0.55 -2.6 0  -0.45 -2.6 0  -0.35 -2.6 0  -0.25 -2.6 0  -0.15 -2.6 0  -0.05000000000000004 -2.6 0  0.05000000000000004 -2.6 0  0.15 -2.6 0  0.25 -2.6 0  0.3500000000000001 -2.6 0  0.45 -2.6 0  0.55 -2.6 0  0.6499999999999999 -2.6 0  0.75 -2.6 0  -0.75 -2.55 0  -0.65 -2.55 0  -0.55 -2.55 0  -0.45 -2.55 0  -0.35 -2.55 0  -0.25 -2.55 0  -0.15 -2.55 0  -0.05000000000000004 -2.55 0  0.05000000000000004 -2.55 0  0.15 -2.55 0  0.25 -2.55 0  0.3500000000000001 -2.55 0  0.45 -2.55 0  0.55 -2.55 0  0.6499999999999999 -2.55 0  0.75 -2.55 0  -0.75 -2.5 0  -0.65 -2.5 0  -0.55 -2.5 0  -0.45 -2.5 0  -0.35 -2.5 0  -0.25 -2.5 0  -0.15 -2.5 0  -0.05000000000000004 -2.5 0  0.05000000000000004 -2.5 0  0.15 -2.5 0  0.25 -2.5 0  0.3500000000000001 -2.5 0  0.45 -2.5 0  0.55 -2.5 0  0.6499999999999999 -2.5 0  0.75 -2.5 0  -0.75 -2.45 0  -0.65 -2.45 0  -0.55 -2.45 0  -0.45 -2.45 0  -0.35 -2.45 0  -0.25 -2.45 0  -0.15 -2.45 0  -0.05000000000000004 -2.45 0  0.05000000000000004 -2.45 0  0.15 -2.45 0  0.25 -2.45 0  0.3500000000000001 -2.45 0  0.45 -2.45 0  0.55 -2.45 0  0.6499999999999999 -2.45 0  0.75 -2.45 0  -0.75 -2.4 0  -0.65 -2.4 0  -0.55 -2.4 0  -0.45 -2.4 0  -0.35 -2.4 0  -0.25 -2.4 0  -0.15 -2.4 0  -0.05000000000000004 -2.4 0  0.05000000000000004 -2.4 0  0.15 -2.4 0  0.25 -2.4 0  0.3500000000000001 -2.4 0  0.45 -2.4 0  0.55 -2.4 0  0.6499999999999999 -2.4 0  0.75 -2.4 0  -0.75 -2.35 0  -0.65 -2.35 0  -0.55 -2.35 0  -0.45 -2.35 0  -0.35 -2.35 0  -0.25 -2.35 0  -0.15 -2.35 0  -0.05000000000000004 -2.35 0  0.05000000000000004 -2.35 0  0.15 -2.35 0  0.25 -2.35 0  0.3500000000000001 -2.35 0  0.45 -2.35 0  0.55 -2.35 0  0.6499999999999999 -2.35 0  0.75 -2.35 0  -0.75 -2.3 0  -0.65 -2.3 0  -0.55 -2.3 0  -0.45 -2.3 0  -0.35 -2.3 0  -0.25 -2.3 0  -0.15 -2.3 0  -0.05000000000000004 -2.3 0  0.05000000000000004 -2.3 0  0.15 -2.3 0  0.25 -2.3 0  0.3500000000000001 -2.3 0  0.45 -2.3 0  0.55 -2.3 0  0.6499999999999999 -2.3 0  0.75 -2.3 0  -0.75 -2.25 0  -0.65 -2.25 0  -0.55 -2.25 0  -0.45 -2.25 0  -0.35 -2.25 0  -0.25 -2.25 0  -0.15 -2.25 0  -0.05000000000000004 -2.25 0  0.05000000000000004 -2.25 0  0.15 -2.25 0  0.25 -2.25 0  0.3500000000000001 -2.25 0  0.45 -2.25 0  0.55 -2.25 0  0.6499999999999999 -2.25 0  0.75 -2.25 0  -0.75 -2.2 0  -0.65 -2.2 0  -0.55 -2.2 0  -0.45 -2.2 0  -0.35 -2.2 0  -0.25 -2.2 0  -0.15 -2.2 0  -0.05000000000000004 -2.2 0  0.05000000000000004 -2.2 0  0.15 -2.2 0  0.25 -2.2 0  0.3500000000000001 -2.2 0  0.45 -2.2 0  0.55 -2.2 0  0.6499999999999999 -2.2 0  0.75 -2.2 0  -0.75 -2.15 0  -0.65 -2.15 0  -0.55 -2.15 0  -0.45 -2.15 0  -0.35 -2.15 0  -0.25 -2.15 0  -0.15 -2.15 0  -0.05000000000000004 -2.15 0  0.05000000000000004 -2.15 0  0.15 -2.15 0  0.25 -2.15 0  0.3500000000000001 -2.15 0  0.45 -2.15 0  0.55 -2.15 0  0.6499999999999999 -2.15 0  0.75 -2.15 0  -0.75 -2.1 0  -0.65 -2.1 0  -0.55 -2.1 0  -0.45 -2.1 0  -0.35 -2.1 0  -0.25 -2.1 0  -0.15 -2.1 0  -0.05000000000000004 -2.1 0  0.05000000000000004 -2.1 0  0.15 -2.1 0  0.25 -2.1 0  0.3500000000000001 -2.1 0  0.45 -2.1 0  0.55 -2.1 0  0.6499999999999999 -2.1 0  0.75 -2.1 0  -0.75 -2.05 0  -0.65 -2.05 0  -0.55 -2.05 0  -0.45 -2.05 0  -0.35 -2.05 0  -0.25 -2.05 0  -0.15 -2.05 0  -0.05000000000000004 -2.05 0  0.05000000000000004 -2.05 0  0.15 -2.05 0  0.25 -2.05 0  0.3500000000000001 -2.05 0  0.45 -2.05 0  0.55 -2.05 0  0.6499999999999999 -2.05 0  0.75 -2.05 0  -0.75 -2 0  -0.65 -2 0  -0.55 -2 0  -0.45 -2 0  -0.35 -2 0  -0.25 -2 0  -0.15 -2 0  -0.05000000000000004 -2 0  0.05000000000000004 -2 0  0.15 -2 0  0.25 -2 0  0.3500000000000001 -2 0  0.45 -2 0  0.55 -2 0  0.6499999999999999 -2 0  0.75 -2 0  -0.75 -1.95 0  -0.65 -1.95 0  -0.55 -1.95 0  -0.45 -1.95 0  -0.35 -1.95 0  -0.25 -1.95 0  -0.15 -1.95 0  -0.05000000000000004 -1.95 0  0.05000000000000004 -1.95 0  0.15 -1.95 0  0.25 -1.95 0  0.3500000000000001 -1.95 0  0.45 -1.95 0  0.55 -1.95 0  0.6499999999999999 -1.95 0  0.75 -1.95 0  -0.75 -1.9 0  -0.65 -1.9 0  -0.55 -1.9 0  -0.45 -1.9 0  -0.35 -1.9 0  -0.25 -1.9 0  -0.15 -1.9 0  -0.05000000000000004 -1.9 0  0.05000000000000004 -1.9 0  0.15 -1.9 0  0.25 -1.9 0  0.3500000000000001 -1.9 0  0.45 -1.9 0  0.55 -1.9 0  0.6499999999999999 -1.9 0  0.75 -1.9 0  -0.75 -1.85 0  -0.65 -1.85 0  -0.55 -1.85 0  -0.45 -1.85 0  -0.35 -1.85 0  -0.25 -1.85 0  -0.15 -1.85 0  -0.05000000000000004 -1.85 0  0.05000000000000004 -1.85 0  0.15 -1.85 0  0.25 -1.85 0  0.3500000000000001 -1.85 0  0.45 -1.85 0  0.55 -1.85 0  0.6499999999999999 -1.85 0  0.75 -1.85 0  -0.75 -1.8 0  -0.65 -1.8 0  -0.55 -1.8 0  -0.45 -1.8 0  -0.35 -1.8 0  -0.25 -1.8 0  -0.15 -1.8 0  -0.05000000000000004 -1.8 0  0.05000000000000004 -1.8 0  0.15 -1.8 0  0.25 -1.8 0  0.3500000000000001 -1.8 0  0.45 -1.8 0  0.55 -1.8 0  0.6499999999999999 -1.8 0  0.75 -1.8 0  -0.75 -1.75 0  -0.65 -1.75 0  -0.55 -1.75 0  -0.45 -1.75 0  -0.35 -1.75 0  -0.25 -1.75 0  -0.15 -1.75 0  -0.05000000000000004 -1.75 0  0.05000000000000004 -1.75 0  0.15 -1.75 0  0.25 -1.75 0  0.3500000000000001 -1.75 0  0.45 -1.75 0  0.55 -1.75 0  0.6499999999999999 -1.75 0  0.75 -1.75 0  -0.75 -1.7 0  -0.65 -1.7 0  -0.55 -1.7 0  -0.45 -1.7 0  -0.35 -1.7 0  -0.25 -1.7 0  -0.15 -1.7 0  -0.05000000000000004 -1.7 0  0.05000000000000004 -1.7 0  0.15 -1.7 0  0.25 -1.7 0  0.3500000000000001 -1.7 0  0.45 -1.7 0  0.55 -1.7 0  0.6499999999999999 -1.7 0  0.75 -1.7 0  -0.75 -1.65 0  -0.65 -1.65 0  -0.55 -1.65 0  -0.45 -1.65 0  -0.35 -1.65 0  -0.25 -1.65 0  -0.15 -1.65 0  -0.05000000000000004 -1.65 0  0.05000000000000004 -1.65 0  0.15 -1.65 0  0.25 -1.65 0  0.3500000000000001 -1.65 0  0.45 -1.65 0  0.55 -1.65 0  0.6499999999999999 -1.65 0  0.75 -1.65 0  -0.75 -1.6 0  -0.65 -1.6 0  -0.55 -1.6 0  -0.45 -1.6 0  -0.35 -1.6 0  -0.25 -1.6 0  -0.15 -1.6 0  -0.05000000000000004 -1.6 0  0.05000000000000004 -1.6 0  0.15 -1.6 0  0.25 -1.6 0  0.3500000000000001 -1.6 0  0.45 -1.6 0  0.55 -1.6 0  0.6499999999999999 -1.6 0  0.75 -1.6 0  -0.75 -1.55 0  -0.65 -1.55 0  -0.55 -1.55 0  -0.45 -1.55 0  -0.35 -1.55 0  -0.25 -1.55 0  -0.15 -1.55 0  -0.05000000000000004 -1.55 0  0.05000000000000004 -1.55 0  0.15 -1.55 0  0.25 -1.55 0  0.3500000000000001 -1.55 0  0.45 -1.55 0  0.55 -1.55 0  0.6499999999999999 -1.55 0  0.75 -1.55 0  -0.75 -1.5 0  -0.65 -1.5 0  -0.55 -1.5 0  -0.45 -1.5 0  -0.35 -1.5 0  -0.25 -1.5 0  -0.15 -1.5 0  -0.05000000000000004 -1.5 0  0.05000000000000004 -1.5 0  0.15 -1.5 0  0.25 -1.5 0  0.3500000000000001 -1.5 0  0.45 -1.5 0  0.55 -1.5 0  0.6499999999999999 -1.5 0  0.75 -1.5 0  -0.75 -1.45 0  -0.65 -1.45 0  -0.55 -1.45 0  -0.45 -1.45 0  -0.35 -1.45 0  -0.25 -1.45 0  -0.15 -1.45 0  -0.05000000000000004 -1.45 0  0.05000000000000004 -1.45 0  0.15 -1.45 0  0.25 -1.45 0  0.3500000000000001 -1.45 0  0.45 -1.45 0  0.55 -1.45 0  0.6499999999999999 -1.45 0  0.75 -1.45 0  -0.75 -1.4 0  -0.65 -1.4 0  -0.55 -1.4 0  -0.45 -1.4 0  -0.35 -1.4 0  -0.25 -1.4 0  -0.15 -1.4 0  -0.05000000000000004 -1.4 0  0.05000000000000004 -1.4 0  0.15 -1.4 0  0.25 -1.4 0  0.3500000000000001 -1.4 0  0.45 -1.4 0  0.55 -1.4 0  0.6499999999999999 -1.4 0  0.75 -1.4 0  -0.75 -1.35 0  -0.65 -1.35 0  -0.55 -1.35 0  -0.45 -1.35 0  -0.35 -1.35 0  -0.25 -1.35 0  -0.15 -1.35 0  -0.05000000000000004 -1.35 0  0.05000000000000004 -1.35 0  0.15 -1.35 0  0.25 -1.35 0  0.3500000000000001 -1.35 0  0.45 -1.35 0  0.55 -1.35 0  0.6499999999999999 -1.35 0  0.75 -1.35 0  -0.75 -1.3 0  -0.65 -1.3 0  -0.55 -1.3 0  -0.45 -1.3 0  -0.35 -1.3 0  -0.25 -1.3 0  -0.15 -1.3 0  -0.05000000000000004 -1.3 0  0.05000000000000004 -1.3 0  0.15 -1.3 0  0.25 -1.3 0  0.3500000000000001 -1.3 0  0.45 -1.3 0  0.55 -1.3 0  0.6499999999999999 -1.3 0  0.75 -1.3 0  -0.75 -1.25 0  -0.65 -1.25 0  -0.55 -1.25 0  -0.45 -1.25 0  -0.35 -1.25 0  -0.25 -1.25 0  -0.15 -1.25 0  -0.05000000000000004 -1.25 0  0.05000000000000004 -1.25 0  0.15 -1.25 0  0.25 -1.25 0  0.3500000000000001 -1.25 0  0.45 -1.25 0  0.55 -1.25 0  0.6499999999999999 -1.25 0  0.75 -1.25 0  -0.75 -1.2 0  -0.65 -1.2 0  -0.55 -1.2 0  -0.45 -1.2 0  -0.35 -1.2 0  -0.25 -1.2 0  -0.15 -1.2 0  -0.05000000000000004 -1.2 0  0.05000000000000004 -1.2 0  0.15 -1.2 0  0.25 -1.2 0  0.3500000000000001 -1.2 0  0.45 -1.2 0  0.55 -1.2 0  0.6499999999999999 -1.2 0  0.75 -1.2 0  -0.75 -1.15 0  -0.65 -1.15 0  -0.55 -1.15 0  -0.45 -1.15 0  -0.35 -1.15 0  -0.25 -1.15 0  -0.15 -1.15 0  -0.05000000000000004 -1.15 0  0.05000000000000004 -1.15 0  0.15 -1.15 0  0.25 -1.15 0  0.3500000000000001 -1.15 0  0.45 -1.15 0  0.55 -1.15 0  0.6499999999999999 -1.15 0  0.75 -1.15 0  -0.75 -1.1 0  -0.65 -1.1 0  -0.55 -1.1 0  -0.45 -1.1 0  -0.35 -1.1 0  -0.25 -1.1 0  -0.15 -1.1 0  -0.05000000000000004 -1.1 0  0.05000000000000004 -1.1 0  0.15 -1.1 0  0.25 -1.1 0  0.3500000000000001 -1.1 0  0.45 -1.1 0  0.55 -1.1 0  0.6499999999999999 -1.1 0  0.75 -1.1 0  -0.75 -1.05 0  -0.65 -1.05 0  -0.55 -1.05 0  -0.45 -1.05 0  -0.35 -1.05 0  -0.25 -1.05 0  -0.15 -1.05 0  -0.05000000000000004 -1.05 0  0.05000000000000004 -1.05 0  0.15 -1.05 0  0.25 -1.05 0  0.3500000000000001 -1.05 0  0.45 -1.05 0  0.55 -1.05 0  0.6499999999999999 -1.05 0  0.75 -1.05 0  -0.75 -1 0  -0.65 -1 0  -0.55 -1 0  -0.45 -1 0  -0.35 -1 0  -0.25 -1 0  -0.15 -1 0  -0.05000000000000004 -1 0  0.05000000000000004 -1 0  0.15 -1 0  0.25 -1 0  0.3500000000000001 -1 0  0.45 -1 0  0.55 -1 0  0.6499999999999999 -1 0  0.75 -1 0  -0.75 -0.9500000000000002 0  -0.65 -0.9500000000000002 0  -0.55 -0.9500000000000002 0  -0.45 -0.9500000000000002 0  -0.35 -0.9500000000000002 0  -0.25 -0.9500000000000002 0  -0.15 -0.9500000000000002 0  -0.05000000000000004 -0.9500000000000002 0  0.05000000000000004 -0.9500000000000002 0  0.15 -0.9500000000000002 0  0.25 -0.9500000000000002 0  0.3500000000000001 -0.9500000000000002 0  0.45 -0.9500000000000002 0  0.55 -0.9500000000000002 0  0.6499999999999999 -0.9500000000000002 0  0.75 -0.9500000000000002 0  -0.75 -0.8999999999999999 0  -0.65 -0.8999999999999999 0  -0.55 -0.8999999999999999 0  -0.45 -0.8999999999999999 0  -0.35 -0.8999999999999999 0  -0.25 -0.8999999999999999 0  -0.15 -0.8999999999999999 0  -0.05000000000000004 -0.8999999999999999 0  0.05000000000000004 -0.8999999999999999 0  0.15 -0.8999999999999999 0  0.25 -0.8999999999999999 0  0.3500000000000001 -0.8999999999999999 0  0.45 -0.8999999999999999 0  0.55 -0.8999999999999999 0  0.6499999999999999 -0.8999999999999999 0  0.75 -0.8999999999999999 0  -0.75 -0.8500000000000001 0  -0.65 -0.8500000000000001 0  -0.55 -0.8500000000000001 0  -0.45 -0.8500000000000001 0  -0.35 -0.8500000000000001 0  -0.25 -0.8500000000000001 0  -0.15 -0.8500000000000001 0  -0.05000000000000004 -0.8500000000000001 0  0.05000000000000004 -0.8500000000000001 0  0.15 -0.8500000000000001 0  0.25 -0.8500000000000001 0  0.3500000000000001 -0.8500000000000001 0  0.45 -0.8500000000000001 0  0.55 -0.8500000000000001 0  0.6499999999999999 -0.8500000000000001 0  0.75 -0.8500000000000001 0  -0.75 -0.7999999999999998 0  -0.65 -0.7999999999999998 0  -0.55 -0.7999999999999998 0  -0.45 -0.7999999999999998 0  -0.35 -0.7999999999999998 0  -0.25 -0.7999999999999998 0  -0.15 -0.7999999999999998 0  -0.05000000000000004 -0.7999999999999998 0  0.05000000000000004 -0.7999999999999998 0  0.15 -0.7999999999999998 0  0.25 -0.7999999999999998 0  0.3500000000000001 -0.7999999999999998 0  0.45 -0.7999999999999998 0  0.55 -0.7999999999999998 0  0.6499999999999999 -0.7999999999999998 0  0.75 -0.7999999999999998 0  -0.75 -0.75 0  -0.65 -0.75 0  -0.55 -0.75 0  -0.45 -0.75 0  -0.35 -0.75 0  -0.25 -0.75 0  -0.15 -0.75 0  -0.05000000000000004 -0.75 0  0.05000000000000004 -0.75 0  0.15 -0.75 0  0.25 -0.75 0  0.3500000000000001 -0.75 0  0.45 -0.75 0  0.55 -0.75 0  0.6499999999999999 -0.75 0  0.75 -0.75 0  -0.75 -0.7000000000000002 0  -0.65 -0.7000000000000002 0  -0.55 -0.7000000000000002 0  -0.45 -0.7000000000000002 0  -0.35 -0.7000000000000002 0  -0.25 -0.7000000000000002 0  -0.15 -0.7000000000000002 0  -0.05000000000000004 -0.7000000000000002 0  0.05000000000000004 -0.7000000000000002 0  0.15 -0.7000000000000002 0  0.25 -0.7000000000000002 0  0.3500000000000001 -0.7000000000000002 0  0.45 -0.7000000000000002 0  0.55 -0.7000000000000002 0  0.6499999999999999 -0.7000000000000002 0  0.75 -0.7000000000000002 0  -0.75 -0.6499999999999999 0  -0.65 -0.6499999999999999 0  -0.55 -0.6499999999999999 0  -0.45 -0.6499999999999999 0  -0.35 -0.6499999999999999 0  -0.25 -0.6499999999999999 0  -0.15 -0.6499999999999999 0  -0.05000000000000004 -0.6499999999999999 0  0.05000000000000004 -0.6499999999999999 0  0.15 -0.6499999999999999 0  0.25 -0.6499999999999999 0  0.3500000000000001 -0.6499999999999999 0  0.45 -0.6499999999999999 0  0.55 -0.6499999999999999 0  0.6499999999999999 -0.6499999999999999 0  0.75 -0.6499999999999999 0  -0.75 -0.6000000000000001 0  -0.65 -0.6000000000000001 0  -0.55 -0.6000000000000001 0  -0.45 -0.6000000000000001 0  -0.35 -0.6000000000000001 0  -0.25 -0.6000000000000001 0  -0.15 -0.6000000000000001 0  -0.05000000000000004 -0.6000000000000001 0  0.05000000000000004 -0.6000000000000001 0  0.15 -0.6000000000000001 0  0.25 -0.6000000000000001 0  0.3500000000000001 -0.6000000000000001 0  0.45 -0.6000000000000001 0  0.55 -0.6000000000000001 0  0.6499999999999999 -0.6000000000000001 0  0.75 -0.6000000000000001 0  -0.75 -0.5499999999999998 0  -0.65 -0.5499999999999998 0  -0.55 -0.5499999999999998 0  -0.45 -0.5499999999999998 0  -0.35 -0.5499999999999998 0  -0.25 -0.5499999999999998 0  -0.15 -0.5499999999999998 0  -0.05000000000000004 -0.5499999999999998 0  0.05000000000000004 -0.5499999999999998 0  0.15 -0.5499999999999998 0  0.25 -0.5499999999999998 0  0.3500000000000001 -0.5499999999999998 0  0.45 -0.5499999999999998 0  0.55 -0.5499999999999998 0  0.6499999999999999 -0.5499999999999998 0  0.75 -0.5499999999999998 0  -0.75 -0.5 0  -0.65 -0.5 0  -0.55 -0.5 0  -0.45 -0.5 0  -0.35 -0.5 0  -0.25 -0.5 0  -0.15 -0.5 0  -0.05000000000000004 -0.5 0  0.05000000000000004 -0.5 0  0.15 -0.5 0  0.25 -0.5 0  0.3500000000000001 -0.5 0  0.45 -0.5 0  0.55 -0.5 0  0.6499999999999999 -0.5 0  0.75 -0.5 0  -0.75 -0.4500000000000002 0  -0.65 -0.4500000000000002 0  -0.55 -0.4500000000000002 0  -0.45 -0.4500000000000002 0  -0.35 -0.4500000000000002 0  -0.25 -0.4500000000000002 0  -0.15 -0.4500000000000002 0  -0.05000000000000004 -0.4500000000000002 0  0.05000000000000004 -0.4500000000000002 0  0.15 -0.4500000000000002 0  0.25 -0.4500000000000002 0  0.3500000000000001 -0.4500000000000002 0  0.45 -0.4500000000000002 0  0.55 -0.4500000000000002 0  0.6499999999999999 -0.4500000000000002 0  0.75 -0.4500000000000002 0  -0.75 -0.3999999999999999 0  -0.65 -0.3999999999999999 0  -0.55 -0.3999999999999999 0  -0.45 -0.3999999999999999 0  -0.35 -0.3999999999999999 0  -0.25 -0.3999999999999999 0  -0.15 -0.3999999999999999 0  -0.05000000000000004 -0.3999999999999999 0  0.05000000000000004 -0.3999999999999999 0  0.15 -0.3999999999999999 0  0.25 -0.3999999999999999 0  0.3500000000000001 -0.3999999999999999 0  0.45 -0.3999999999999999 0  0.55 -0.3999999999999999 0  0.6499999999999999 -0.3999999999999999 0  0.75 -0.3999999999999999 0  -0.75 -0.3500000000000001 0  -0.65 -0.3500000000000001 0  -0.55 -0.3500000000000001 0  -0.45 -0.3500000000000001 0  -0.35 -0.3500000000000001 0  -0.25 -0.3500000000000001 0  -0.15 -0.3500000000000001 0  -0.05000000000000004 -0.3500000000000001 0  0.05000000000000004 -0.3500000000000001 0  0.15 -0.3500000000000001 0  0.25 -0.3500000000000001 0  0.3500000000000001 -0.3500000000000001 0  0.45 -0.3500000000000001 0  0.55 -0.3500000000000001 0  0.6499999999999999 -0.3500000000000001 0  0.75 -0.3500000000000001 0  -0.75 -0.2999999999999998 0  -0.65 -0.2999999999999998 0  -0.55 -0.2999999999999998 0  -0.45 -0.2999999999999998 0  -0.35 -0.2999999999999998 0  -0.25 -0.2999999999999998 0  -0.15 -0.2999999999999998 0  -0.05000000000000004 -0.2999999999999998 0  0.05000000000000004 -0.2999999999999998 0  0.15 -0.2999999999999998 0  0.25 -0.2999999999999998 0  0.3500000000000001 -0.2999999999999998 0  0.45 -0.2999999999999998 0  0.55 -0.2999999999999998 0  0.6499999999999999 -0.2999999999999998 0  0.75 -0.2999999999999998 0  -0.75 -0.25 0  -0.65 -0.25 0  -0.55 -0.25 0  -0.45 -0.25 0  -0.35 -0.25 0  -0.25 -0.25 0  -0.15 -0.25 0  -0.05000000000000004 -0.25 0  0.05000000000000004 -0.25 0  0.15 -0.25 0  0.25 -0.25 0  0.3500000000000001 -0.25 0  0.45 -0.25 0  0.55 -0.25 0  0.6499999999999999 -0.25 0  0.75 -0.25 0  -0.75 -0.2000000000000002 0  -0.65 -0.2000000000000002 0  -0.55 -0.2000000000000002 0  -0.45 -0.2000000000000002 0  -0.35 -0.2000000000000002 0  -0.25 -0.2000000000000002 0  -0.15 -0.2000000000000002 0  -0.05000000000000004 -0.2000000000000002 0  0.05000000000000004 -0.2000000000000002 0  0.15 -0.2000000000000002 0  0.25 -0.2000000000000002 0  0.3500000000000001 -0.2000000000000002 0  0.45 -0.2000000000000002 0  0.55 -0.2000000000000002 0  0.6499999999999999 -0.2000000000000002 0  0.75 -0.2000000000000002 0  -0.75 -0.1499999999999999 0  -0.65 -0.1499999999999999 0  -0.55 -0.1499999999999999 0  -0.45 -0.1499999999999999 0  -0.35 -0.1499999999999999 0  -0.25 -0.1499999999999999 0  -0.15 -0.1499999999999999 0  -0.05000000000000004 -0.1499999999999999 0  0.05000000000000004 -0.1499999999999999 0  0.15 -0.1499999999999999 0  0.25 -0.1499999999999999 0  0.3500000000000001 -0.1499999999999999 0  0.45 -0.1499999999999999 0  0.55 -0.1499999999999999 0  0.6499999999999999 -0.1499999999999999 0  0.75 -0.1499999999999999 0  -0.75 -0.1000000000000001 0  -0.65 -0.1000000000000001 0  -0.55 -0.1000000000000001 0  -0.45 -0.1000000000000001 0  -0.35 -0.1000000000000001 0  -0.25 -0.1000000000000001 0  -0.15 -0.1000000000000001 0  -0.05000000000000004 -0.1000000000000001 0  0.05000000000000004 -0.1000000000000001 0  0.15 -0.1000000000000001 0  0.25 -0.1000000000000001 0  0.3500000000000001 -0.1000000000000001 0  0.45 -0.1000000000000001 0  0.55 -0.1000000000000001 0  0.6499999999999999 -0.1000000000000001 0  0.75 -0.1000000000000001 0  -0.75 -0.04999999999999982 0  -0.65 -0.04999999999999982 0  -0.55 -0.04999999999999982 0  -0.45 -0.04999999999999982 0  -0.35 -0.04999999999999982 0  -0.25 -0.04999999999999982 0  -0.15 -0.04999999999999982 0  -0.05000000000000004 -0.04999999999999982 0  0.05000000000000004 -0.04999999999999982 0  0.15 -0.04999999999999982 0  0.25 -0.04999999999999982 0  0.3500000000000001 -0.04999999999999982 0  0.45 -0.04999999999999982 0  0.55 -0.04999999999999982 0  0.6499999999999999 -0.04999999999999982 0  0.75 -0.04999999999999982 0  -0.75 0 0  -0.65 0 0  -0.55 0 0  -0.45 0 0  -0.35 0 0  -0.25 0 0  -0.15 0 0  -0.05000000000000004 0 0  0.05000000000000004 0 0  0.15 0 0  0.25 0 0  0.3500000000000001 0 0  0.45 0 0  0.55 0 0  0.6499999999999999 0 0  0.75 0 0  -0.7 -2.975 0  -0.6 -2.975 0  -0.5 -2.975 0  -0.4 -2.975 0  -0.3 -2.975 0  -0.2 -2.975 0  -0.09999999999999998 -2.975 0  0 -2.975 0  0.09999999999999998 -2.975 0  0.2 -2.975 0  0.3 -2.975 0  0.3999999999999999 -2.975 0  0.5 -2.975 0  0.6000000000000001 -2.975 0  0.7 -2.975 0  -0.7 -2.925 0  -0.6 -2.925 0  -0.5 -2.925 0  -0.4 -2.925 0  -0.3 -2.925 0  -0.2 -2.925 0  -0.09999999999999998 -2.925 0  0 -2.925 0  0.09999999999999998 -2.925 0  0.2 -2.925 0  0.3 -2.925 0  0.3999999999999999 -2.925 0  0.5 -2.925 0  0.6000000000000001 -2.925 0  0.7 -2.925 0  -0.7 -2.875 0  -0.6 -2.875 0  -0.5 -2.875 0  -0.4 -2.875 0  -0.3 -2.875 0  -0.2 -2.875 0  -0.09999999999999998 -2.875 0  0 -2.875 0  0.09999999999999998 -2.875 0  0.2 -2.875 0  0.3 -2.875 0  0.3999999999999999 -2.875 0  0.5 -2.875 0  0.6000000000000001 -2.875 0  0.7 -2.875 0  -0.7 -2.825 0  -0.6 -2.825 0  -0.5 -2.825 0  -0.4 -2.825 0  -0.3 -2.825 0  -0.2 -2.825 0  -0.09999999999999998 -2.825 0  0 -2.825 0  0.09999999999999998 -2.825 0  0.2 -2.825 0  0.3 -2.825 0  0.3999999999999999 -2.825 0  0.5 -2.825 0  0.6000000000000001 -2.825 0  0.7 -2.825 0  -0.7 -2.775 0  -0.6 -2.775 0  -0.5 -2.775 0  -0.4 -2.775 0  -0.3 -2.775 0  -0.2 -2.775 0  -0.09999999999999998 -2.775 0  0 -2.775 0  0.09999999999999998 -2.775 0  0.2 -2.775 0  0.3 -2.775 0  0.3999999999999999 -2.775 0  0.5 -2.775 0  0.6000000000000001 -2.775 0  0.7 -2.775 0  -0.7 -2.725 0  -0.6 -2.725 0  -0.5 -2.725 0  -0.4 -2.725 0  -0.3 -2.725 0  -0.2 -2.725 0  -0.09999999999999998 -2.725 0  0 -2.725 0  0.09999999999999998 -2.725 0  0.2 -2.725 0  0.3 -2.725 0  0.3999999999999999 -2.725 0  0.5 -2.725 0  0.6000000000000001 -2.725 0  0.7 -2.725 0  -0.7 -2.675 0  -0.6 -2.675 0  -0.5 -2.675 0  -0.4 -2.675 0  -0.3 -2.675 0  -0.2 -2.675 0  -0.09999999999999998 -2.675 0  0 -2.675 0  0.09999999999999998 -2.675 0  0.2 -2.675 0  0.3 -2.675 0  0.3999999999999999 -2.675 0  0.5 -2.675 0  0.6000000000000001 -2.675 0  0.7 -2.675 0  -0.7 -2.625 0  -0.6 -2.625 0  -0.5 -2.625 0  -0.4 -2.625 0  -0.3 -2.625 0  -0.2 -2.625 0  -0.09999999999999998 -2.625 0  0 -2.625 0  0.09999999999999998 -2.625 0  0.2 -2.625 0  0.3 -2.625 0  0.3999999999999999 -2.625 0  0.5 -2.625 0  0.6000000000000001 -2.625 0  0.7 -2.625 0  -0.7 -2.575 0  -0.6 -2.575 0  -0.5 -2.575 0  -0.4 -2.575 0  -0.3 -2.575 0  -0.2 -2.575 0  -0.09999999999999998 -2.575 0  0 -2.575 0  0.09999999999999998 -2.575 0  0.2 -2.575 0  0.3 -2.575 0  0.3999999999999999 -2.575 0  0.5 -2.575 0  0.6000000000000001 -2.575 0  0.7 -2.575 0  -0.7 -2.525 0  -0.6 -2.525 0  -0.5 -2.525 0  -0.4 -2.525 0  -0.3 -2.525 0  -0.2 -2.525 0  -0.09999999999999998 -2.525 0  0 -2.525 0  0.09999999999999998 -2.525 0  0.2 -2.525 0  0.3 -2.525 0  0.3999999999999999 -2.525 0  0.5 -2.525 0  0.6000000000000001 -2.525 0  0.7 -2.525 0  -0.7 -2.475 0  -0.6 -2.475 0  -0.5 -2.475 0  -0.4 -2.475 0  -0.3 -2.475 0  -0.2 -2.475 0  -0.09999999999999998 -2.475 0  0 -2.475 0  0.09999999999999998 -2.475 0  0.2 -2.475 0  0.3 -2.475 0  0.3999999999999999 -2.475 0  0.5 -2.475 0  0.6000000000000001 -2.475 0  0.7 -2.475 0  -0.7 -2.425 0  -0.6 -2.425 0  -0.5 -2.425 0  -0.4 -2.425 0  -0.3 -2.425 0  -0.2 -2.425 0  -0.09999999999999998 -2.425 0  0 -2.425 0  0.09999999999999998 -2.425 0  0.2 -2.425 0  0.3 -2.425 0  0.3999999999999999 -2.425 0  0.5 -2.425 0  0.6000000000000001 -2.425 0  0.7 -2.425 0  -0.7 -2.375 0  -0.6 -2.375 0  -0.5 -2.375 0  -0.4 -2.375 0  -0.3 -2.375 0  -0.2 -2.375 0  -0.09999999999999998 -2.375 0  0 -2.375 0  0.09999999999999998 -2.375 0  0.2 -2.375 0  0.3 -2.375 0  0.3999999999999999 -2.375 0  0.5 -2.375 0  0.6000000000000001 -2.375 0  0.7 -2.375 0  -0.7 -2.325 0  -0.6 -2.325 0  -0.5 -2.325 0  -0.4 -2.325 0  -0.3 -2.325 0  -0.2 -2.325 0  -0.09999999999999998 -2.325 0  0 -2.325 0  0.09999999999999998 -2.325 0  0.2 -2.325 0  0.3 -2.325 0  0.3999999999999999 -2.325 0  0.5 -2.325 0  0.6000000000000001 -2.325 0  0.7 -2.325 0  -0.7 -2.275 0  -0.6 -2.275 0  -0.5 -2.275 0  -0.4 -2.275 0  -0.3 -2.275 0  -0.2 -2.275 0  -0.09999999999999998 -2.275 0  0 -2.275 0  0.09999999999999998 -2.275 0  0.2 -2.275 0  0.3 -2.275 0  0.3999999999999999 -2.275 0  0.5 -2.275 0  0.6000000000000001 -2.275 0  0.7 -2.275 0  -0.7 -2.225 0  -0.6 -2.225 0  -0.5 -2.225 0  -0.4 -2.225 0  -0.3 -2.225 0  -0.2 -2.225 0  -0.09999999999999998 -2.225 0  0 -2.225 0  0.09999999999999998 -2.225 0  0.2 -2.225 0  0.3 -2.225 0  0.3999999999999999 -2.225 0  0.5 -2.225 0  0.6000000000000001 -2.225 0  0.7 -2.225 0  -0.7 -2.175 0  -0.6 -2.175 0  -0.5 -2.175 0  -0.4 -2.175 0  -0.3 -2.175 0  -0.2 -2.175 0  -0.09999999999999998 -2.175 0  0 -2.175 0  0.09999999999999998 -2.175 0  0.2 -2.175 0  0.3 -2.175 0  0.3999999999999999 -2.175 0  0.5 -2.175 0  0.6000000000000001 -2.175 0  0.7 -2.175 0  -0.7 -2.125 0  -0.6 -2.125 0  -0.5 -2.125 0  -0.4 -2.125 0  -0.3 -2.125 0  -0.2 -2.125 0  -0.09999999999999998 -2.125 0  0 -2.125 0  0.09999999999999998 -2.125 0  0.2 -2.125 0  0.3 -2.125 0  0.3999999999999999 -2.125 0  0.5 -2.125 0  0.6000000000000001 -2.125 0  0.7 -2.125 0  -0.7 -2.075 0  -0.6 -2.075 0  -0.5 -2.075 0  -0.4 -2.075 0  -0.3 -2.075 0  -0.2 -2.075 0  -0.09999999999999998 -2.075 0  0 -2.075 0  0.09999999999999998 -2.075 0  0.2 -2.075 0  0.3 -2.075 0  0.3999999999999999 -2.075 0  0.5 -2.075 0  0.6000000000000001 -2.075 0  0.7 -2.075 0  -0.7 -2.025 0  -0.6 -2.025 0  -0.5 -2.025 0  -0.4 -2.025 0  -0.3 -2.025 0  -0.2 -2.025 0  -0.09999999999999998 -2.025 0  0 -2.025 0  0.09999999999999998 -2.025 0  0.2 -2.025 0  0.3 -2.025 0  0.3999999999999999 -2.025 0  0.5 -2.025 0  0.6000000000000001 -2.025 0  0.7 -2.025 0  -0.7 -1.975 0  -0.6 -1.975 0  -0.5 -1.975 0  -0.4 -1.975 0  -0.3 -1.975 0  -0.2 -1.975 0  -0.09999999999999998 -1.975 0  0 -1.975 0  0.09999999999999998 -1.975 0  0.2 -1.975 0  0.3 -1.975 0  0.3999999999999999 -1.975 0  0.5 -1.975 0  0.6000000000000001 -1.975 0  0.7 -1.975 0  -0.7 -1.925 0  -0.6 -1.925 0  -0.5 -1.925 0  -0.4 -1.925 0  -0.3 -1.925 0  -0.2 -1.925 0  -0.09999999999999998 -1.925 0  0 -1.925 0  0.09999999999999998 -1.925 0  0.2 -1.925 0  0.3 -1.925 0  0.3999999999999999 -1.925 0  0.5 -1.925 0  0.6000000000000001 -1.925 0  0.7 -1.925 0  -0.7 -1.875 0  -0.6 -1.875 0  -0.5 -1.875 0  -0.4 -1.875 0  -0.3 -1.875 0  -0.2 -1.875 0  -0.09999999999999998 -1.875 0  0 -1.875 0  0.09999999999999998 -1.875 0  0.2 -1.875 0  0.3 -1.875 0  0.3999999999999999 -1.875 0  0.5 -1.875 0  0.6000000000000001 -1.875 0  0.7 -1.875 0  -0.7 -1.825 0  -0.6 -1.825 0  -0.5 -1.825 0  -0.4 -1.825 0  -0.3 -1.825 0  -0.2 -1.825 0  -0.09999999999999998 -1.825 0  0 -1.825 0  0.09999999999999998 -1.825 0  0.2 -1.825 0  0.3 -1.825 0  0.3999999999999999 -1.825 0  0.5 -1.825 0  0.6000000000000001 -1.825 0  0.7 -1.825 0  -0.7 -1.775 0  -0.6 -1.775 0  -0.5 -1.775 0  -0.4 -1.775 0  -0.3 -1.775 0  -0.2 -1.775 0  -0.09999999999999998 -1.775 0  0 -1.775 0  0.09999999999999998 -1.775 0  0.2 -1.775 0  0.3 -1.775 0  0.3999999999999999 -1.775 0  0.5 -1.775 0  0.6000000000000001 -1.775 0  0.7 -1.775 0  -0.7 -1.725 0  -0.6 -1.725 0  -0.5 -1.725 0  -0.4 -1.725 0  -0.3 -1.725 0  -0.2 -1.725 0  -0.09999999999999998 -1.725 0  0 -1.725 0  0.09999999999999998 -1.725 0  0.2 -1.725 0  0.3 -1.725 0  0.3999999999999999 -1.725 0  0.5 -1.725 0  0.6000000000000001 -1.725 0  0.7 -1.725 0  -0.7 -1.675 0  -0.6 -1.675 0  -0.5 -1.675 0  -0.4 -1.675 0  -0.3 -1.675 0  -0.2 -1.675 0  -0.09999999999999998 -1.675 0  0 -1.675 0  0.09999999999999998 -1.675 0  0.2 -1.675 0  0.3 -1.675 0  0.3999999999999999 -1.675 0  0.5 -1.675 0  0.6000000000000001 -1.675 0  0.7 -1.675 0  -0.7 -1.625 0  -0.6 -1.625 0  -0.5 -1.625 0  -0.4 -1.625 0  -0.3 -1.625 0  -0.2 -1.625 0  -0.09999999999999998 -1.625 0  0 -1.625 0  0.09999999999999998 -1.625 0  0.2 -1.625 0  0.3 -1.625 0  0.3999999999999999 -1.625 0  0.5 -1.625 0  0.6000000000000001 -1.625 0  0.7 -1.625 0  -0.7 -1.575 0  -0.6 -1.575 0  -0.5 -1.575 0  -0.4 -1.575 0  -0.3 -1.575 0  -0.2 -1.575 0  -0.09999999999999998 -1.575 0  0 -1.575 0  0.09999999999999998 -1.575 0  0.2 -1.575 0  0.3 -1.575 0  0.3999999999999999 -1.575 0  0.5 -1.575 0  0.6000000000000001 -1.575 0  0.7 -1.575 0  -0.7 -1.525 0  -0.6 -1.525 0  -0.5 -1.525 0  -0.4 -1.525 0  -0.3 -1.525 0  -0.2 -1.525 0  -0.09999999999999998 -1.525 0  0 -1.525 0  0.09999999999999998 -1.525 0  0.2 -1.525 0  0.3 -1.525 0  0.3999999999999999 -1.525 0  0.5 -1.525 0  0.6000000000000001 -1.525 0  0.7 -1.525 0  -0.7 -1.475 0  -0.6 -1.475 0  -0.5 -1.475 0  -0.4 -1.475 0  -0.3 -1.475 0  -0.2 -1.475 0  -0.09999999999999998 -1.475 0  0 -1.475 0  0.09999999999999998 -1.475 0  0.2 -1.475 0  0.3 -1.475 0  0.3999999999999999 -1.475 0  0.5 -1.475 0  0.6000000000000001 -1.475 0  0.7 -1.475 0  -0.7 -1.425 0  -0.6 -1.425 0  -0.5 -1.425 0  -0.4 -1.425 0  -0.3 -1.425 0  -0.2 -1.425 0  -0.09999999999999998 -1.425 0  0 -1.425 0  0.09999999999999998 -1.425 0  0.2 -1.425 0  0.3 -1.425 0  0.3999999999999999 -1.425 0  0.5 -1.425 0  0.6000000000000001 -1.425 0  0.7 -1.425 0  -0.7 -1.375 0  -0.6 -1.375 0  -0.5 -1.375 0  -0.4 -1.375 0  -0.3 -1.375 0  -0.2 -1.375 0  -0.09999999999999998 -1.375 0  0 -1.375 0  0.09999999999999998 -1.375 0  0.2 -1.375 0  0.3 -1.375 0  0.3999999999999999 -1.375 0  0.5 -1.375 0  0.6000000000000001 -1.375 0  0.7 -1.375 0  -0.7 -1.325 0  -0.6 -1.325 0  -0.5 -1.325 0  -0.4 -1.325 0  -0.3 -1.325 0  -0.2 -1.325 0  -0.09999999999999998 -1.325 0  0 -1.325 0  0.09999999999999998 -1.325 0  0.2 -1.325 0  0.3 -1.325 0  0.3999999999999999 -1.325 0  0.5 -1.325 0  0.6000000000000001 -1.325 0  0.7 -1.325 0  -0.7 -1.275 0  -0.6 -1.275 0  -0.5 -1.275 0  -0.4 -1.275 0  -0.3 -1.275 0  -0.2 -1.275 0  -0.09999999999999998 -1.275 0  0 -1.275 0  0.09999999999999998 -1.275 0  0.2 -1.275 0  0.3 -1.275 0  0.3999999999999999 -1.275 0  0.5 -1.275 0  0.6000000000000001 -1.275 0  0.7 -1.275 0  -0.7 -1.225 0  -0.6 -1.225 0  -0.5 -1.225 0  -0.4 -1.225 0  -0.3 -1.225 0  -0.2 -1.225 0  -0.09999999999999998 -1.225 0  0 -1.225 0  0.09999999999999998 -1.225 0  0.2 -1.225 0  0.3 -1.225 0  0.3999999999999999 -1.225 0  0.5 -1.225 0  0.6000000000000001 -1.225 0  0.7 -1.225 0  -0.7 -1.175 0  -0.6 -1.175 0  -0.5 -1.175 0  -0.4 -1.175 0  -0.3 -1.175 0  -0.2 -1.175 0  -0.09999999999999998 -1.175 0  0 -1.175 0  0.09999999999999998 -1.175 0  0.2 -1.175 0  0.3 -1.175 0  0.3999999999999999 -1.175 0  0.5 -1.175 0  0.6000000000000001 -1.175 0  0.7 -1.175 0  -0.7 -1.125 0  -0.6 -1.125 0  -0.5 -1.125 0  -0.4 -1.125 0  -0.3 -1.125 0  -0.2 -1.125 0  -0.09999999999999998 -1.125 0  0 -1.125 0  0.09999999999999998 -1.125 0  0.2 -1.125 0  0.3 -1.125 0  0.3999999999999999 -1.125 0  0.5 -1.125 0  0.6000000000000001 -1.125 0  0.7 -1.125 0  -0.7 -1.075 0  -0.6 -1.075 0  -0.5 -1.075 0  -0.4 -1.075 0  -0.3 -1.075 0  -0.2 -1.075 0  -0.09999999999999998 -1.075 0  0 -1.075 0  0.09999999999999998 -1.075 0  0.2 -1.075 0  0.3 -1.075 0  0.3999999999999999 -1.075 0  0.5 -1.075 0  0.6000000000000001 -1.075 0  0.7 -1.075 0  -0.7 -1.025 0  -0.6 -1.025 0  -0.5 -1.025 0  -0.4 -1.025 0  -0.3 -1.025 0  -0.2 -1.025 0  -0.09999999999999998 -1.025 0  0 -1.025 0  0.09999999999999998 -1.025 0  0.2 -1.025 0  0.3 -1.025 0  0.3999999999999999 -1.025 0  0.5 -1.025 0  0.6000000000000001 -1.025 0  0.7 -1.025 0  -0.7 -0.9750000000000001 0  -0.6 -0.9750000000000001 0  -0.5 -0.9750000000000001 0  -0.4 -0.9750000000000001 0  -0.3 -0.9750000000000001 0  -0.2 -0.9750000000000001 0  -0.09999999999999998 -0.9750000000000001 0  0 -0.9750000000000001 0  0.09999999999999998 -0.9750000000000001 0  0.2 -0.9750000000000001 0  0.3 -0.9750000000000001 0  0.3999999999999999 -0.9750000000000001 0  0.5 -0.9750000000000001 0  0.6000000000000001 -0.9750000000000001 0  0.7 -0.9750000000000001 0  -0.7 -0.9249999999999998 0  -0.6 -0.9249999999999998 0  -0.5 -0.9249999999999998 0  -0.4 -0.9249999999999998 0  -0.3 -0.9249999999999998 0  -0.2 -0.9249999999999998 0  -0.09999999999999998 -0.9249999999999998 0  0 -0.9249999999999998 0  0.09999999999999998 -0.9249999999999998 0  0.2 -0.9249999999999998 0  0.3 -0.9249999999999998 0  0.3999999999999999 -0.9249999999999998 0  0.5 -0.9249999999999998 0  0.6000000000000001 -0.9249999999999998 0  0.7 -0.9249999999999998 0  -0.7 -0.875 0  -0.6 -0.875 0  -0.5 -0.875 0  -0.4 -0.875 0  -0.3 -0.875 0  -0.2 -0.875 0  -0.09999999999999998 -0.875 0  0 -0.875 0  0.09999999999999998 -0.875 0  0.2 -0.875 0  0.3 -0.875 0  0.3999999999999999 -0.875 0  0.5 -0.875 0  0.6000000000000001 -0.875 0  0.7 -0.875 0  -0.7 -0.8250000000000002 0  -0.6 -0.8250000000000002 0  -0.5 -0.8250000000000002 0  -0.4 -0.8250000000000002 0  -0.3 -0.8250000000000002 0  -0.2 -0.8250000000000002 0  -0.09999999999999998 -0.8250000000000002 0  0 -0.8250000000000002 0  0.09999999999999998 -0.8250000000000002 0  0.2 -0.8250000000000002 0  0.3 -0.8250000000000002 0  0.3999999999999999 -0.8250000000000002 0  0.5 -0.8250000000000002 0  0.6000000000000001 -0.8250000000000002 0  0.7 -0.8250000000000002 0  -0.7 -0.7749999999999999 0  -0.6 -0.7749999999999999 0  -0.5 -0.7749999999999999 0  -0.4 -0.7749999999999999 0  -0.3 -0.7749999999999999 0  -0.2 -0.7749999999999999 0  -0.09999999999999998 -0.7749999999999999 0  0 -0.7749999999999999 0  0.09999999999999998 -0.7749999999999999 0  0.2 -0.7749999999999999 0  0.3 -0.7749999999999999 0  0.3999999999999999 -0.7749999999999999 0  0.5 -0.7749999999999999 0  0.6000000000000001 -0.7749999999999999 0  0.7 -0.7749999999999999 0  -0.7 -0.7250000000000001 0  -0.6 -0.7250000000000001 0  -0.5 -0.7250000000000001 0  -0.4 -0.7250000000000001 0  -0.3 -0.7250000000000001 0  -0.2 -0.7250000000000001 0  -0.09999999999999998 -0.7250000000000001 0  0 -0.7250000000000001 0  0.09999999999999998 -0.7250000000000001 0  0.2 -0.7250000000000001 0  0.3 -0.7250000000000001 0  0.3999999999999999 -0.7250000000000001 0  0.5 -0.7250000000000001 0  0.6000000000000001 -0.7250000000000001 0  0.7 -0.7250000000000001 0  -0.7 -0.6749999999999998 0  -0.6 -0.6749999999999998 0  -0.5 -0.6749999999999998 0  -0.4 -0.6749999999999998 0  -0.3 -0.6749999999999998 0  -0.2 -0.6749999999999998 0  -0.09999999999999998 -0.6749999999999998 0  0 -0.6749999999999998 0  0.09999999999999998 -0.6749999999999998 0  0.2 -0.6749999999999998 0  0.3 -0.6749999999999998 0  0.3999999999999999 -0.6749999999999998 0  0.5 -0.6749999999999998 0  0.6000000000000001 -0.6749999999999998 0  0.7 -0.6749999999999998 0  -0.7 -0.625 0  -0.6 -0.625 0  -0.5 -0.625 0  -0.4 -0.625 0  -0.3 -0.625 0  -0.2 -0.625 0  -0.09999999999999998 -0.625 0  0 -0.625 0  0.09999999999999998 -0.625 0  0.2 -0.625 0  0.3 -0.625 0  0.3999999999999999 -0.625 0  0.5 -0.625 0  0.6000000000000001 -0.625 0  0.7 -0.625 0  -0.7 -0.5750000000000002 0  -0.6 -0.5750000000000002 0  -0.5 -0.5750000000000002 0  -0.4 -0.5750000000000002 0  -0.3 -0.5750000000000002 0  -0.2 -0.5750000000000002 0  -0.09999999999999998 -0.5750000000000002 0  0 -0.5750000000000002 0  0.09999999999999998 -0.5750000000000002 0  0.2 -0.5750000000000002 0  0.3 -0.5750000000000002 0  0.3999999999999999 -0.5750000000000002 0  0.5 -0.5750000000000002 0  0.6000000000000001 -0.5750000000000002 0  0.7 -0.5750000000000002 0  -0.7 -0.5249999999999999 0  -0.6 -0.5249999999999999 0  -0.5 -0.5249999999999999 0  -0.4 -0.5249999999999999 0  -0.3 -0.5249999999999999 0  -0.2 -0.5249999999999999 0  -0.09999999999999998 -0.5249999999999999 0  0 -0.5249999999999999 0  0.09999999999999998 -0.5249999999999999 0  0.2 -0.5249999999999999 0  0.3 -0.5249999999999999 0  0.3999999999999999 -0.5249999999999999 0  0.5 -0.5249999999999999 0  0.6000000000000001 -0.5249999999999999 0  0.7 -0.5249999999999999 0  -0.7 -0.4750000000000001 0  -0.6 -0.4750000000000001 0  -0.5 -0.4750000000000001 0  -0.4 -0.4750000000000001 0  -0.3 -0.4750000000000001 0  -0.2 -0.4750000000000001 0  -0.09999999999999998 -0.4750000000000001 0  0 -0.4750000000000001 0  0.09999999999999998 -0.4750000000000001 0  0.2 -0.4750000000000001 0  0.3 -0.4750000000000001 0  0.3999999999999999 -0.4750000000000001 0  0.5 -0.4750000000000001 0  0.6000000000000001 -0.4750000000000001 0  0.7 -0.4750000000000001 0  -0.7 -0.4249999999999998 0  -0.6 -0.4249999999999998 0  -0.5 -0.4249999999999998 0  -0.4 -0.4249999999999998 0  -0.3 -0.4249999999999998 0  -0.2 -0.4249999999999998 0  -0.09999999999999998 -0.4249999999999998 0  0 -0.4249999999999998 0  0.09999999999999998 -0.4249999999999998 0  0.2 -0.4249999999999998 0  0.3 -0.4249999999999998 0  0.3999999999999999 -0.4249999999999998 0  0.5 -0.4249999999999998 0  0.6000000000000001 -0.4249999999999998 0  0.7 -0.4249999999999998 0  -0.7 -0.375 0  -0.6 -0.375 0  -0.5 -0.375 0  -0.4 -0.375 0  -0.3 -0.375 0  -0.2 -0.375 0  -0.09999999999999998 -0.375 0  0 -0.375 0  0.09999999999999998 -0.375 0  0.2 -0.375 0  0.3 -0.375 0  0.3999999999999999 -0.375 0  0.5 -0.375 0  0.6000000000000001 -0.375 0  0.7 -0.375 0  -0.7 -0.3250000000000002 0  -0.6 -0.3250000000000002 0  -0.5 -0.3250000000000002 0  -0.4 -0.3250000000000002 0  -0.3 -0.3250000000000002 0  -0.2 -0.3250000000000002 0  -0.09999999999999998 -0.3250000000000002 0  0 -0.3250000000000002 0  0.09999999999999998 -0.3250000000000002 0  0.2 -0.3250000000000002 0  0.3 -0.3250000000000002 0  0.3999999999999999 -0.3250000000000002 0  0.5 -0.3250000000000002 0  0.6000000000000001 -0.3250000000000002 0  0.7 -0.3250000000000002 0  -0.7 -0.2749999999999999 0  -0.6 -0.2749999999999999 0  -0.5 -0.2749999999999999 0  -0.4 -0.2749999999999999 0  -0.3 -0.2749999999999999 0  -0.2 -0.2749999999999999 0  -0.09999999999999998 -0.2749999999999999 0  0 -0.2749999999999999 0  0.09999999999999998 -0.2749999999999999 0  0.2 -0.2749999999999999 0  0.3 -0.2749999999999999 0  0.3999999999999999 -0.2749999999999999 0  0.5 -0.2749999999999999 0  0.6000000000000001 -0.2749999999999999 0  0.7 -0.2749999999999999 0  -0.7 -0.2250000000000001 0  -0.6 -0.2250000000000001 0  -0.5 -0.2250000000000001 0  -0.4 -0.2250000000000001 0  -0.3 -0.2250000000000001 0  -0.2 -0.2250000000000001 0  -0.09999999999999998 -0.2250000000000001 0  0 -0.2250000000000001 0  0.09999999999999998 -0.2250000000000001 0  0.2 -0.2250000000000001 0  0.3 -0.2250000000000001 0  0.3999999999999999 -0.2250000000000001 0  0.5 -0.2250000000000001 0  0.6000000000000001 -0.2250000000000001 0  0.7 -0.2250000000000001 0  -0.7 -0.1749999999999998 0  -0.6 -0.1749999999999998 0  -0.5 -0.1749999999999998 0  -0.4 -0.1749999999999998 0  -0.3 -0.1749999999999998 0  -0.2 -0.1749999999999998 0  -0.09999999999999998 -0.1749999999999998 0  0 -0.1749999999999998 0  0.09999999999999998 -0.1749999999999998 0  0.2 -0.1749999999999998 0  0.3 -0.1749999999999998 0  0.3999999999999999 -0.1749999999999998 0  0.5 -0.1749999999999998 0  0.6000000000000001 -0.1749999999999998 0  0.7 -0.1749999999999998 0  -0.7 -0.125 0  -0.6 -0.125 0  -0.5 -0.125 0  -0.4 -0.125 0  -0.3 -0.125 0  -0.2 -0.125 0  -0.09999999999999998 -0.125 0  0 -0.125 0  0.09999999999999998 -0.125 0  0.2 -0.125 0  0.3 -0.125 0  0.3999999999999999 -0.125 0  0.5 -0.125 0  0.6000000000000001 -0.125 0  0.7 -0.125 0  -0.7 -0.07500000000000018 0  -0.6 -0.07500000000000018 0  -0.5 -0.07500000000000018 0  -0.4 -0.07500000000000018 0  -0.3 -0.07500000000000018 0  -0.2 -0.07500000000000018 0  -0.09999999999999998 -0.07500000000000018 0  0 -0.07500000000000018 0  0.09999999999999998 -0.07500000000000018 0  0.2 -0.07500000000000018 0  0.3 -0.07500000000000018 0  0.3999999999999999 -0.07500000000000018 0  0.5 -0.07500000000000018 0  0.6000000000000001 -0.07500000000000018 0  0.7 -0.07500000000000018 0  -0.7 -0.02499999999999991 0  -0.6 -0.02499999999999991 0  -0.5 -0.02499999999999991 0  -0.4 -0.02499999999999991 0  -0.3 -0.02499999999999991 0  -0.2 -0.02499999999999991 0  -0.09999999999999998 -0.02499999999999991 0  0 -0.02499999999999991 0  0.09999999999999998 -0.02499999999999991 0  0.2 -0.02499999999999991 0  0.3 -0.02499999999999991 0  0.3999999999999999 -0.02499999999999991 0  0.5 -0.02499999999999991 0  0.6000000000000001 -0.02499999999999991 0  0.7 -0.02499999999999991 0  </DataArray>
</Points>
<Cells>
<DataArray  type="UInt32"  Name="connectivity"  format="ascii">0 1 976  0 16 976  1 17 976  16 17 976  1 2 977  1 17 977  2 18 977  17 18 977  2 3 978  2 18 978  3 19 978  18 19 978  3 4 979  3 19 979  4 20 979  19 20 979  4 5 980  4 20 980  5 21 980  20 21 980  5 6 981  5 21 981  6 22 981  21 22 981  6 7 982  6 22 982  7 23 982  22 23 982  7 8 983  7 23 983  8 24 983  23 24 983  8 9 984  8 24 984  9 25 984  24 25 984  9 10 985  9 25 985  10 26 985  25 26 985  10 11 986  10 26 986  11 27 986  26 27 986  11 12 987  11 27 987  12 28 987  27 28 987  12 13 988  12 28 988  13 29 988  28 29 988  13 14 989  13 29 989  14 30 989  29 30 989  14 15 990  14 30 990  15 31 990  30 31 990  16 17 991  16 32 991  17 33 991  32 33 991  17 18 992  17 33 992  18 34 992  33 34 992  18 19 993  18 34 993  19 35 993  34 35 993  19 20 994  19 35 994  20 36 994  35 36 994  20 21 995  20 36 995  21 37 995  36 37 995  21 22 996  21 37 996  22 38 996  37 38 996  22 23 997  22 38 997  23 39 997  38 39 997  23 24 998  23 39 998  24 40 998  39 40 998  24 25 999  24 40 999  25 41 999  40 41 999  25 26 1000  25 41 1000  26 42 1000  41 42 1000  26 27 1001  26 42 1001  27 43 1001  42 43 1001  27 28 1002  27 43 1002  28 44 1002  43 44 1002  28 29 1003  28 44 1003  29 45 1003  44 45 1003  29 30 1004  29 45 1004  30 46 1004  45 46 1004  30 31 1005  30 46 1005  31 47 1005  46 47 1005  32 33 1006  32 48 1006  33 49 1006  48 49 1006  33 34 1007  33 49 1007  34 50 1007  49 50 1007  34 35 1008  34 50 1008  35 51 1008  50 51 1008  35 36 1009  35 51 1009  36 52 1009  51 52 1009  36 37 1010  36 52 1010  37 53 1010  52 53 1010  37 38 1011  37 53 1011  38 54 1011  53 54 1011  38 39 1012  38 54 1012  39 55 1012  54 55 1012  39 40 1013  39 55 1013  40 56 1013  55 56 1013  40 41 1014  40 56 1014  41 57 1014  56 57 1014  41 42 1015  41 57 1015  42 58 1015  57 58 1015  42 43 1016  42 58 1016  43 59 1016  58 59 1016  43 44 1017  43 59 1017  44 60 1017  59 60 1017  44 45 1018  44 60 1018  45 61 1018  60 61 1018  45 46 1019  45 61 1019  46 62 1019  61 62 1019  46 47 1020  46 62 1020  47 63 1020  62 63 1020  48 49 1021  48 64 1021  49 65 1021  64 65 1021  49 50 1022  49 65 1022  50 66 1022  65 66 1022  50 51 1023  50 66 1023  51 67 1023  66 67 1023  51 52 1024  51 67 1024  52 68 1024  67 68 1024  52 53 1025  52 68 1025  53 69 1025  68 69 1025  53 54 1026  53 69 1026  54 70 1026  69 70 1026  54 55 1027  54 70 1027  55 71 1027  70 71 1027  55 56 1028  55 71 1028  56 72 1028  71 72 1028  56 57 1029  56 72 1029  57 73 1029  72 73 1029  57 58 1030  57 73 1030  58 74 1030  73 74 1030  58 59 1031  58 74 1031  59 75 1031  74 75 1031  59 60 1032  59 75 1032  60 76 1032  75 76 1032  60 61 1033  60 76 1033  61 77 1033  76 77 1033  61 62 1034  61 77 1034  62 78 1034  77 78 1034  62 63 1035  62 78 1035  63 79 1035  78 79 1035  64 65 1036  64 80 1036  65 81 1036  80 81 1036  65 66 1037  65 81 1037  66 82 1037  81 82 1037  66 67 1038  66 82 1038  67 83 1038  82 83 1038  67 68 1039  67 83 1039  68 84 1039  83 84 1039  68 69 1040  68 84 1040  69 85 1040  84 85 1040  69 70 1041  69 85 1041  70 86 1041  85 86 1041  70 71 1042  70 86 1042  71 87 1042  86 87 1042  71 72 1043  71 87 1043  72 88 1043  87 88 1043  72 73 1044  72 88 1044  73 89 1044  88 89 1044  73 74 1045  73 89 1045  74 90 1045  89 90 1045  74 75 1046  74 90 1046  75 91 1046  90 91 1046  75 76 1047  75 91 1047  76 92 1047  91 92 1047  76 77 1048  76 92 1048  77 93 1048  92 93 1048  77 78 1049  77 93 1049  78 94 1049  93 94 1049  78 79 1050  78 94 1050  79 95 1050  94 95 1050  80 81 1051  80 96 1051  81 97 1051  96 97 1051  81 82 1052  81 97 1052  82 98 1052  97 98 1052  82 83 1053  82 98 1053  83 99 1053  98 99 1053  83 84 1054  83 99 1054  84 100 1054  99 100 1054  84 85 1055  84 100 1055  85 101 1055  100 101 1055  85 86 1056  85 101 1056  86 102 1056  101 102 1056  86 87 1057  86 102 1057  87 103 1057  102 103 1057  87 88 1058  87 103 1058  88 104 1058  103 104 1058  88 89 1059  88 104 1059  89 105 1059  104 105 1059  89 90 1060  89 105 1060  90 106 1060  105 106 1060  90 91 1061  90 106 1061  91 107 1061  106 107 1061  91 92 1062  91 107 1062  92 108 1062  107 108 1062  92 93 1063  92 108 1063  93 109 1063  108 109 1063  93 94 1064  93 109 1064  94 110 1064  109 110 1064  94 95 1065  94 110 1065  95 111 1065  110 111 1065  96 97 1066  96 112 1066  97 113 1066  112 113 1066  97 98 1067  97 113 1067  98 114 1067  113 114 1067  98 99 1068  98 114 1068  99 115 1068  114 115 1068  99 100 1069  99 115 1069  100 116 1069  115 116 1069  100 101 1070  100 116 1070  101 117 1070  116 117 1070  101 102 1071  101 117 1071  102 118 1071  117 118 1071  102 103 1072  102 118 1072  103 119 1072  118 119 1072  103 104 1073  103 119 1073  104 120 1073  119 120 1073  104 105 1074  104 120 1074  105 121 1074  120 121 1074  105 106 1075  105 121 1075  106 122 1075  121 122 1075  106 107 1076  106 122 1076  107 123 1076  122 123 1076  107 108 1077  107 123 1077  108 124 1077  123 124 1077  108 109 1078  108 124 1078  109 125 1078  124 125 1078  109 110 1079  109 125 1079  110 126 1079  125 126 1079  110 111 1080  110 126 1080  111 127 1080  126 127 1080  112 113 1081  112 128 1081  113 129 1081  128 129 1081  113 114 1082  113 129 1082  114 130 1082  129 130 1082  114 115 1083  114 130 1083  115 131 1083  130 131 1083  115 116 1084  115 131 1084  116 132 1084  131 132 1084  116 117 1085  116 132 1085  117 133 1085  132 133 1085  117 118 1086  117 133 1086  118 134 1086  133 134 1086  118 119 1087  118 134 1087  119 135 1087  134 135 1087  119 120 1088  119 135 1088  120 136 1088  135 136 1088  120 121 1089  120 136 1089  121 137 1089  136 137 1089  121 122 1090  121 137 1090  122 138 1090  137 138 1090  122 123 1091  122 138 1091  123 139 1091  138 139 1091  123 124 1092  123 139 1092  124 140 1092  139 140 1092  124 125 1093  124 140 1093  125 141 1093  140 141 1093  125 126 1094  125 141 1094  126 142 1094  141 142 1094  126 127 1095  126 142 1095  127 143 1095  142 143 1095  128 129 1096  128 144 1096  129 145 1096  144 145 1096  129 130 1097  129 145 1097  130 146 1097  145 146 1097  130 131 1098  130 146 1098  131 147 1098  146 147 1098  131 132 1099  131 147 1099  132 148 1099  147 148 1099  132 133 1100  132 148 1100  133 149 1100  148 149 1100  133 134 1101  133 149 1101  134 150 1101  149 150 1101  134 135 1102  134 150 1102  135 151 1102  150 151 1102  135 136 1103  135 151 1103  136 152 1103  151 152 1103  136 137 1104  136 152 1104  137 153 1104  152 153 1104  137 138 1105  137 153 1105  138 154 1105  153 154 1105  138 139 1106  138 154 1106  139 155 1106  154 155 1106  139 140 1107  139 155 1107  140 156 1107  155 156 1107  140 141 1108  140 156 1108  141 157 1108  156 157 1108  141 142 1109  141 157 1109  142 158 1109  157 158 1109  142 143 1110  142 158 1110  143 159 1110  158 159 1110  144 145 1111  144 160 1111  145 161 1111  160 161 1111  145 146 1112  145 161 1112  146 162 1112  161 162 1112  146 147 1113  146 162 1113  147 163 1113  162 163 1113  147 148 1114  147 163 1114  148 164 1114  163 164 1114  148 149 1115  148 164 1115  149 165 1115  164 165 1115  149 150 1116  149 165 1116  150 166 1116  165 166 1116  150 151 1117  150 166 1117  151 167 1117  166 167 1117  151 152 1118  151 167 1118  152 168 1118  167 168 1118  152 153 1119  152 168 1119  153 169 1119  168 169 1119  153 154 1120  153 169 1120  154 170 1120  169 170 1120  154 155 1121  154 170 1121  155 171 1121  170 171 1121  155 156 1122  155 171 1122  156 172 1122  171 172 1122  156 157 1123  156 172 1123  157 173 1123  172 173 1123  157 158 1124  157 173 1124  158 174 1124  173 174 1124  158 159 1125  158 174 1125  159 175 1125  174 175 1125  160 161 1126  160 176 1126  161 177 1126  176 177 1126  161 162 1127  161 177 1127  162 178 1127  177 178 1127  162 163 1128  162 178 1128  163 179 1128  178 179 1128  163 164 1129  163 179 1129  164 180 1129  179 180 1129  164 165 1130  164 180 1130  165 181 1130  180 181 1130  165 166 1131  165 181 1131  166 182 1131  181 182 1131  166 167 1132  166 182 1132  167 183 1132  182 183 1132  167 168 1133  167 183 1133  168 184 1133  183 184 1133  168 169 1134  168 184 1134  169 185 1134  184 185 1134  169 170 1135  169 185 1135  170 186 1135  185 186 1135  170 171 1136  170 186 1136  171 187 1136  186 187 1136  171 172 1137  171 187 1137  172 188 1137  187 188 1137  172 173 1138  172 188 1138  173 189 1138  188 189 1138  173 174 1139  173 189 1139  174 190 1139  189 190 1139  174 175 1140  174 190 1140  175 191 1140  190 191 1140  176 177 1141  176 192 1141  177 193 1141  192 193 1141  177 178 1142  177 193 1142  178 194 1142  193 194 1142  178 179 1143  178 194 1143  179 195 1143  194 195 1143  179 180 1144  179 195 1144  180 196 1144  195 196 1144  180 181 1145  180 196 1145  181 197 1145  196 197 1145  181 182 1146  181 197 1146  182 198 1146  197 198 1146  182 183 1147  182 198 1147  183 199 1147  198 199 1147  183 184 1148  183 199 1148  184 200 1148  199 200 1148  184 185 1149  184 200 1149  185 201 1149  200 201 1149  185 186 1150  185 201 1150  186 202 1150  201 202 1150  186 187 1151  186 202 1151  187 203 1151  202 203 1151  187 188 1152  187 203 1152  188 204 1152  203 204 1152  188 189 1153  188 204 1153  189 205 1153  204 205 1153  189 190 1154  189 205 1154  190 206 1154  205 206 1154  190 191 1155  190 206 1155  191 207 1155  206 207 1155  192 193 1156  192 208 1156  193 209 1156  208 209 1156  193 194 1157  193 209 1157  194 210 1157  209 210 1157  194 195 1158  194 210 1158  195 211 1158  210 211 1158  195 196 1159  195 211 1159  196 212 1159  211 212 1159  196 197 1160  196 212 1160  197 213 1160  212 213 1160  197 198 1161  197 213 1161  198 214 1161  213 214 1161  198 199 1162  198 214 1162  199 215 1162  214 215 1162  199 200 1163  199 215 1163  200 216 1163  215 216 1163  200 201 1164  200 216 1164  201 217 1164  216 217 1164  201 202 1165  201 217 1165  202 218 1165  217 218 1165  202 203 1166  202 218 1166  203 219 1166  218 219 1166  203 204 1167  203 219 1167  204 220 1167  219 220 1167  204 205 1168  204 220 1168  205 221 1168  220 221 1168  205 206 1169  205 221 1169  206 222 1169  221 222 1169  206 207 1170  206 222 1170  207 223 1170  222 223 1170  208 209 1171  208 224 1171  209 225 1171  224 225 1171  209 210 1172  209 225 1172  210 226 1172  225 226 1172  210 211 1173  210 226 1173  211 227 1173  226 227 1173  211 212 1174  211 227 1174  212 228 1174  227 228 1174  212 213 1175  212 228 1175  213 229 1175  228 229 1175  213 214 1176  213 229 1176  214 230 1176  229 230 1176  214 215 1177  214 230 1177  215 231 1177  230 231 1177  215 216 1178  215 231 1178  216 232 1178  231 232 1178  216 217 1179  216 232 1179  217 233 1179  232 233 1179  217 218 1180  217 233 1180  218 234 1180  233 234 1180  218 219 1181  218 234 1181  219 235 1181  234 235 1181  219 220 1182  219 235 1182  220 236 1182  235 236 1182  220 221 1183  220 236 1183  221 237 1183  236 237 1183  221 222 1184  221 237 1184  222 238 1184  237 238 1184  222 223 1185  222 238 1185  223 239 1185  238 239 1185  224 225 1186  224 240 1186  225 241 1186  240 241 1186  225 226 1187  225 241 1187  226 242 1187  241 242 1187  226 227 1188  226 242 1188  227 243 1188  242 243 1188  227 228 1189  227 243 1189  228 244 1189  243 244 1189  228 229 1190  228 244 1190  229 245 1190  244 245 1190  229 230 1191  229 245 1191  230 246 1191  245 246 1191  230 231 1192  230 246 1192  231 247 1192  246 247 1192  231 232 1193  231 247 1193  232 248 1193  247 248 1193  232 233 1194  232 248 1194  233 249 1194  248 249 1194  233 234 1195  233 249 1195  234 250 1195  249 250 1195  234 235 1196  234 250 1196  235 251 1196  250 251 1196  235 236 1197  235 251 1197  236 252 1197  251 252 1197  236 237 1198  236 252 1198  237 253 1198  252 253 1198  237 238 1199  237 253 1199  238 254 1199  253 254 1199  238 239 1200  238 254 1200  239 255 1200  254 255 1200  240 241 1201  240 256 1201  241 257 1201  256 257 1201  241 242 1202  241 257 1202  242 258 1202  257 258 1202  242 243 1203  242 258 1203  243 259 1203  258 259 1203  243 244 1204  243 259 1204  244 260 1204  259 260 1204  244 245 1205  244 260 1205  245 261 1205  260 261 1205  245 246 1206  245 261 1206  246 262 1206  261 262 1206  246 247 1207  246 262 1207  247 263 1207  262 263 1207  247 248 1208  247 263 1208  248 264 1208  263 264 1208  248 249 1209  248 264 1209  249 265 1209  264 265 1209  249 250 1210  249 265 1210  250 266 1210  265 266 1210  250 251 1211  250 266 1211  251 267 1211  266 267 1211  251 252 1212  251 267 1212  252 268 1212  267 268 1212  252 253 1213  252 268 1213  253 269 1213  268 269 1213  253 254 1214  253 269 1214  254 270 1214  269 270 1214  254 255 1215  254 270 1215  255 271 1215  270 271 1215  256 257 1216  256 272 1216  257 273 1216  272 273 1216  257 258 1217  257 273 1217  258 274 1217  273 274 1217  258 259 1218  258 274 1218  259 275 1218  274 275 1218  259 260 1219  259 275 1219  260 276 1219  275 276 1219  260 261 1220  260 276 1220  261 277 1220  276 277 1220  261 262 1221  261 277 1221  262 278 1221  277 278 1221  262 263 1222  262 278 1222  263 279 1222  278 279 1222  263 264 1223  263 279 1223  264 280 1223  279 280 1223  264 265 1224  264 280 1224  265 281 1224  280 281 1224  265 266 1225  265 281 1225  266 282 1225  281 282 1225  266 267 1226  266 282 1226  267 283 1226  282 283 1226  267 268 1227  267 283 1227  268 284 1227  283 284 1227  268 269 1228  268 284 1228  269 285 1228  284 285 1228  269 270 1229  269 285 1229  270 286 1229  285 286 1229  270 271 1230  270 286 1230  271 287 1230  286 287 1230  272 273 1231  272 288 1231  273 289 1231  288 289 1231  273 274 1232  273 289 1232  274 290 1232  289 290 1232  274 275 1233  274 290 1233  275 291 1233  290 291 1233  275 276 1234  275 291 1234  276 292 1234  291 292 1234  276 277 1235  276 292 1235  277 293 1235  292 293 1235  277 278 1236  277 293 1236  278 294 1236  293 294 1236  278 279 1237  278 294 1237  279 295 1237  294 295 1237  279 280 1238  279 295 1238  280 296 1238  295 296 1238  280 281 1239  280 296 1239  281 297 1239  296 297 1239  281 282 1240  281 297 1240  282 298 1240  297 298 1240  282 283 1241  282 298 1241  283 299 1241  298 299 1241  283 284 1242  283 299 1242  284 300 1242  299 300 1242  284 285 1243  284 300 1243  285 301 1243  300 301 1243  285 286 1244  285 301 1244  286 302 1244  301 302 1244  286 287 1245  286 302 1245  287 303 1245  302 303 1245  288 289 1246  288 304 1246  289 305 1246  304 305 1246  289 290 1247  289 305 1247  290 306 1247  305 306 1247  290 291 1248  290 306 1248  291 307 1248  306 307 1248  291 292 1249  291 307 1249  292 308 1249  307 308 1249  292 293 1250  292 308 1250  293 309 1250  308 309 1250  293 294 1251  293 309 1251  294 310 1251  309 310 1251  294 295 1252  294 310 1252  295 311 1252  310 311 1252  295 296 1253  295 311 1253  296 312 1253  311 312 1253  296 297 1254  296 312 1254  297 313 1254  312 313 1254  297 298 1255  297 313 1255  298 314 1255  313 314 1255  298 299 1256  298 314 1256  299 315 1256  314 315 1256  299 300 1257  299 315 1257  300 316 1257  315 316 1257  300 301 1258  300 316 1258  301 317 1258  316 317 1258  301 302 1259  301 317 1259  302 318 1259  317 318 1259  302 303 1260  302 318 1260  303 319 1260  318 319 1260  304 305 1261  304 320 1261  305 321 1261  320 321 1261  305 306 1262  305 321 1262  306 322 1262  321 322 1262  306 307 1263  306 322 1263  307 323 1263  322 323 1263  307 308 1264  307 323 1264  308 324 1264  323 324 1264  308 309 1265  308 324 1265  309 325 1265  324 325 1265  309 310 1266  309 325 1266  310 326 1266  325 326 1266  310 311 1267  310 326 1267  311 327 1267  326 327 1267  311 312 1268  311 327 1268  312 328 1268  327 328 1268  312 313 1269  312 328 1269  313 329 1269  328 329 1269  313 314 1270  313 329 1270  314 330 1270  329 330 1270  314 315 1271  314 330 1271  315 331 1271  330 331 1271  315 316 1272  315 331 1272  316 332 1272  331 332 1272  316 317 1273  316 332 1273  317 333 1273  332 333 1273  317 318 1274  317 333 1274  318 334 1274  333 334 1274  318 319 1275  318 334 1275  319 335 1275  334 335 1275  320 321 1276  320 336 1276  321 337 1276  336 337 1276  321 322 1277  321 337 1277  322 338 1277  337 338 1277  322 323 1278  322 338 1278  323 339 1278  338 339 1278  323 324 1279  323 339 1279  324 340 1279  339 340 1279  324 325 1280  324 340 1280  325 341 1280  340 341 1280  325 326 1281  325 341 1281  326 342 1281  341 342 1281  326 327 1282  326 342 1282  327 343 1282  342 343 1282  327 328 1283  327 343 1283  328 344 1283  343 344 1283  328 329 1284  328 344 1284  329 345 1284  344 345 1284  329 330 1285  329 345 1285  330 346 1285  345 346 1285  330 331 1286  330 346 1286  331 347 1286  346 347 1286  331 332 1287  331 347 1287  332 348 1287  347 348 1287  332 333 1288  332 348 1288  333 349 1288  348 349 1288  333 334 1289  333 349 1289  334 350 1289  349 350 1289  334 335 1290  334 350 1290  335 351 1290  350 351 1290  336 337 1291  336 352 1291  337 353 1291  352 353 1291  337 338 1292  337 353 1292  338 354 1292  353 354 1292  338 339 1293  338 354 1293  339 355 1293  354 355 1293  339 340 1294  339 355 1294  340 356 1294  355 356 1294  340 341 1295  340 356 1295  341 357 1295  356 357 1295  341 342 1296  341 357 1296  342 358 1296  357 358 1296  342 343 1297  342 358 1297  343 359 1297  358 359 1297  343 344 1298  343 359 1298  344 360 1298  359 360 1298  344 345 1299  344 360 1299  345 361 1299  360 361 1299  345 346 1300  345 361 1300  346 362 1300  361 362 1300  346 347 1301  346 362 1301  347 363 1301  362 363 1301  347 348 1302  347 363 1302  348 364 1302  363 364 1302  348 349 1303  348 364 1303  349 365 1303  364 365 1303  349 350 1304  349 365 1304  350 366 1304  365 366 1304  350 351 1305  350 366 1305  351 367 1305  366 367 1305  352 353 1306  352 368 1306  353 369 1306  368 369 1306  353 354 1307  353 369 1307  354 370 1307  369 370 1307  354 355 1308  354 370 1308  355 371 1308  370 371 1308  355 356 1309  355 371 1309  356 372 1309  371 372 1309  356 357 1310  356 372 1310  357 373 1310  372 373 1310  357 358 1311  357 373 1311  358 374 1311  373 374 1311  358 359 1312  358 374 1312  359 375 1312  374 375 1312  359 360 1313  359 375 1313  360 376 1313  375 376 1313  360 361 1314  360 376 1314  361 377 1314  376 377 1314  361 362 1315  361 377 1315  362 378 1315  377 378 1315  362 363 1316  362 378 1316  363 379 1316  378 379 1316  363 364 1317  363 379 1317  364 380 1317  379 380 1317  364 365 1318  364 380 1318  365 381 1318  380 381 1318  365 366 1319  365 381 1319  366 382 1319  381 382 1319  366 367 1320  366 382 1320  367 383 1320  382 383 1320  368 369 1321  368 384 1321  369 385 1321  384 385 1321  369 370 1322  369 385 1322  370 386 1322  385 386 1322  370 371 1323  370 386 1323  371 387 1323  386 387 1323  371 372 1324  371 387 1324  372 388 1324  387 388 1324  372 373 1325  372 388 1325  373 389 1325  388 389 1325  373 374 1326  373 389 1326  374 390 1326  389 390 1326  374 375 1327  374 390 1327  375 391 1327  390 391 1327  375 376 1328  375 391 1328  376 392 1328  391 392 1328  376 377 1329  376 392 1329  377 393 1329  392 393 1329  377 378 1330  377 393 1330  378 394 1330  393 394 1330  378 379 1331  378 394 1331  379 395 1331  394 395 1331  379 380 1332  379 395 1332  380 396 1332  395 396 1332  380 381 1333  380 396 1333  381 397 1333  396 397 1333  381 382 1334  381 397 1334  382 398 1334  397 398 1334  382 383 1335  382 398 1335  383 399 1335  398 399 1335  384 385 1336  384 400 1336  385 401 1336  400 401 1336  385 386 1337  385 401 1337  386 402 1337  401 402 1337  386 387 1338  386 402 1338  387 403 1338  402 403 1338  387 388 1339  387 403 1339  388 404 1339  403 404 1339  388 389 1340  388 404 1340  389 405 1340  404 405 1340  389 390 1341  389 405 1341  390 406 1341  405 406 1341  390 391 1342  390 406 1342  391 407 1342  406 407 1342  391 392 1343  391 407 1343  392 408 1343  407 408 1343  392 393 1344  392 408 1344  393 409 1344  408 409 1344  393 394 1345  393 409 1345  394 410 1345  409 410 1345  394 395 1346  394 410 1346  395 411 1346  410 411 1346  395 396 1347  395 411 1347  396 412 1347  411 412 1347  396 397 1348  396 412 1348  397 413 1348  412 413 1348  397 398 1349  397 413 1349  398 414 1349  413 414 1349  398 399 1350  398 414 1350  399 415 1350  414 415 1350  400 401 1351  400 416 1351  401 417 1351  416 417 1351  401 402 1352  401 417 1352  402 418 1352  417 418 1352  402 403 1353  402 418 1353  403 419 1353  418 419 1353  403 404 1354  403 419 1354  404 420 1354  419 420 1354  404 405 1355  404 420 1355  405 421 1355  420 421 1355  405 406 1356  405 421 1356  406 422 1356  421 422 1356  406 407 1357  406 422 1357  407 423 1357  422 423 1357  407 408 1358  407 423 1358  408 424 1358  423 424 1358  408 409 1359  408 424 1359  409 425 1359  424 425 1359  409 410 1360  409 425 1360  410 426 1360  425 426 1360  410 411 1361  410 426 1361  411 427 1361  426 427 1361  411 412 1362  411 427 1362  412 428 1362  427 428 1362  412 413 1363  412 428 1363  413 429 1363  428 429 1363  413 414 1364  413 429 1364  414 430 1364  429 430 1364  414 415 1365  414 430 1365  415 431 1365  430 431 1365  416 417 1366  416 432 1366  417 433 1366  432 433 1366  417 418 1367  417 433 1367  418 434 1367  433 434 1367  418 419 1368  418 434 1368  419 435 1368  434 435 1368  419 420 1369  419 435 1369  420 436 1369  435 436 1369  420 421 1370  420 436 1370  421 437 1370  436 437 1370  421 422 1371  421 437 1371  422 438 1371  437 438 1371  422 423 1372  422 438 1372  423 439 1372  438 439 1372  423 424 1373  423 439 1373  424 440 1373  439 440 1373  424 425 1374  424 440 1374  425 441 1374  440 441 1374  425 426 1375  425 441 1375  426 442 1375  441 442 1375  426 427 1376  426 442 1376  427 443 1376  442 443 1376  427 428 1377  427 443 1377  428 444 1377  443 444 1377  428 429 1378  428 444 1378  429 445 1378  444 445 1378  429 430 1379  429 445 1379  430 446 1379  445 446 1379  430 431 1380  430 446 1380  431 447 1380  446 447 1380  432 433 1381  432 448 1381  433 449 1381  448 449 1381  433 434 1382  433 449 1382  434 450 1382  449 450 1382  434 435 1383  434 450 1383  435 451 1383  450 451 1383  435 436 1384  435 451 1384  436 452 1384  451 452 1384  436 437 1385  436 452 1385  437 453 1385  452 453 1385  437 438 1386  437 453 1386  438 454 1386  453 454 1386  438 439 1387  438 454 1387  439 455 1387  454 455 1387  439 440 1388  439 455 1388  440 456 1388  455 456 1388  440 441 1389  440 456 1389  441 457 1389  456 457 1389  441 442 1390  441 457 1390  442 458 1390  457 458 1390  442 443 1391  442 458 1391  443 459 1391  458 459 1391  443 444 1392  443 459 1392  444 460 1392  459 460 1392  444 445 1393  444 460 1393  445 461 1393  460 461 1393  445 446 1394  445 461 1394  446 462 1394  461 462 1394  446 447 1395  446 462 1395  447 463 1395  462 463 1395  448 449 1396  448 464 1396  449 465 1396  464 465 1396  449 450 1397  449 465 1397  450 466 1397  465 466 1397  450 451 1398  450 466 1398  451 467 1398  466 467 1398  451 452 1399  451 467 1399  452 468 1399  467 468 1399  452 453 1400  452 468 1400  453 469 1400  468 469 1400  453 454 1401  453 469 1401  454 470 1401  469 470 1401  454 455 1402  454 470 1402  455 471 1402  470 471 1402  455 456 1403  455 471 1403  456 472 1403  471 472 1403  456 457 1404  456 472 1404  457 473 1404  472 473 1404  457 458 1405  457 473 1405  458 474 1405  473 474 1405  458 459 1406  458 474 1406  459 475 1406  474 475 1406  459 460 1407  459 475 1407  460 476 1407  475 476 1407  460 461 1408  460 476 1408  461 477 1408  476 477 1408  461 462 1409  461 477 1409  462 478 1409  477 478 1409  462 463 1410  462 478 1410  463 479 1410  478 479 1410  464 465 1411  464 480 1411  465 481 1411  480 481 1411  465 466 1412  465 481 1412  466 482 1412  481 482 1412  466 467 1413  466 482 1413  467 483 1413  482 483 1413  467 468 1414  467 483 1414  468 484 1414  483 484 1414  468 469 1415  468 484 1415  469 485 1415  484 485 1415  469 470 1416  469 485 1416  470 486 1416  485 486 1416  470 471 1417  470 486 1417  471 487 1417  486 487 1417  471 472 1418  471 487 1418  472 488 1418  487 488 1418  472 473 1419  472 488 1419  473 489 1419  488 489 1419  473 474 1420  473 489 1420  474 490 1420  489 490 1420  474 475 1421  474 490 1421  475 491 1421  490 491 1421  475 476 1422  475 491 1422  476 492 1422  491 492 1422  476 477 1423  476 492 1423  477 493 1423  492 493 1423  477 478 1424  477 493 1424  478 494 1424  493 494 1424  478 479 1425  478 494 1425  479 495 1425  494 495 1425  480 481 1426  480 496 1426  481 497 1426  496 497 1426  481 482 1427  481 497 1427  482 498 1427  497 498 1427  482 483 1428  482 498 1428  483 499 1428  498 499 1428  483 484 1429  483 499 1429  484 500 1429  499 500 1429  484 485 1430  484 500 1430  485 501 1430  500 501 1430  485 486 1431  485 501 1431  486 502 1431  501 502 1431  486 487 1432  486 502 1432  487 503 1432  502 503 1432  487 488 1433  487 503 1433  488 504 1433  503 504 1433  488 489 1434  488 504 1434  489 505 1434  504 505 1434  489 490 1435  489 505 1435  490 506 1435  505 506 1435  490 491 1436  490 506 1436  491 507 1436  506 507 1436  491 492 1437  491 507 1437  492 508 1437  507 508 1437  492 493 1438  492 508 1438  493 509 1438  508 509 1438  493 494 1439  493 509 1439  494 510 1439  509 510 1439  494 495 1440  494 510 1440  495 511 1440  510 511 1440  496 497 1441  496 512 1441  497 513 1441  512 513 1441  497 498 1442  497 513 1442  498 514 1442  513 514 1442  498 499 1443  498 514 1443  499 515 1443  514 515 1443  499 500 1444  499 515 1444  500 516 1444  515 516 1444  500 501 1445  500 516 1445  501 517 1445  516 517 1445  501 502 1446  501 517 1446  502 518 1446  517 518 1446  502 503 1447  502 518 1447  503 519 1447  518 519 1447  503 504 1448  503 519 1448  504 520 1448  519 520 1448  504 505 1449  504 520 1449  505 521 1449  520 521 1449  505 506 1450  505 521 1450  506 522 1450  521 522 1450  506 507 1451  506 522 1451  507 523 1451  522 523 1451  507 508 1452  507 523 1452  508 524 1452  523 524 1452  508 509 1453  508 524 1453  509 525 1453  524 525 1453  509 510 1454  509 525 1454  510 526 1454  525 526 1454  510 511 1455  510 526 1455  511 527 1455  526 527 1455  512 513 1456  512 528 1456  513 529 1456  528 529 1456  513 514 1457  513 529 1457  514 530 1457  529 530 1457  514 515 1458  514 530 1458  515 531 1458  530 531 1458  515 516 1459  515 531 1459  516 532 1459  531 532 1459  516 517 1460  516 532 1460  517 533 1460  532 533 1460  517 518 1461  517 533 1461  518 534 1461  533 534 1461  518 519 1462  518 534 1462  519 535 1462  534 535 1462  519 520 1463  519 535 1463  520 536 1463  535 536 1463  520 521 1464  520 536 1464  521 537 1464  536 537 1464  521 522 1465  521 537 1465  522 538 1465  537 538 1465  522 523 1466  522 538 1466  523 539 1466  538 539 1466  523 524 1467  523 539 1467  524 540 1467  539 540 1467  524 525 1468  524 540 1468  525 541 1468  540 541 1468  525 526 1469  525 541 1469  526 542 1469  541 542 1469  526 527 1470  526 542 1470  527 543 1470  542 543 1470  528 529 1471  528 544 1471  529 545 1471  544 545 1471  529 530 1472  529 545 1472  530 546 1472  545 546 1472  530 531 1473  530 546 1473  531 547 1473  546 547 1473  531 532 1474  531 547 1474  532 548 1474  547 548 1474  532 533 1475  532 548 1475  533 549 1475  548 549 1475  533 534 1476  533 549 1476  534 550 1476  549 550 1476  534 535 1477  534 550 1477  535 551 1477  550 551 1477  535 536 1478  535 551 1478  536 552 1478  551 552 1478  536 537 1479  536 552 1479  537 553 1479  552 553 1479  537 538 1480  537 553 1480  538 554 1480  553 554 1480  538 539 1481  538 554 1481  539 555 1481  554 555 1481  539 540 1482  539 555 1482  540 556 1482  555 556 1482  540 541 1483  540 556 1483  541 557 1483  556 557 1483  541 542 1484  541 557 1484  542 558 1484  557 558 1484  542 543 1485  542 558 1485  543 559 1485  558 559 1485  544 545 1486  544 560 1486  545 561 1486  560 561 1486  545 546 1487  545 561 1487  546 562 1487  561 562 1487  546 547 1488  546 562 1488  547 563 1488  562 563 1488  547 548 1489  547 563 1489  548 564 1489  563 564 1489  548 549 1490  548 564 1490  549 565 1490  564 565 1490  549 550 1491  549 565 1491  550 566 1491  565 566 1491  550 551 1492  550 566 1492  551 567 1492  566 567 1492  551 552 1493  551 567 1493  552 568 1493  567 568 1493  552 553 1494  552 568 1494  553 569 1494  568 569 1494  553 554 1495  553 569 1495  554 570 1495  569 570 1495  554 555 1496  554 570 1496  555 571 1496  570 571 1496  555 556 1497  555 571 1497  556 572 1497  571 572 1497  556 557 1498  556 572 1498  557 573 1498  572 573 1498  557 558 1499  557 573 1499  558 574 1499  573 574 1499  558 559 1500  558 574 1500  559 575 1500  574 575 1500  560 561 1501  560 576 1501  561 577 1501  576 577 1501  561 562 1502  561 577 1502  562 578 1502  577 578 1502  562 563 1503  562 578 1503  563 579 1503  578 579 1503  563 564 1504  563 579 1504  564 580 1504  579 580 1504  564 565 1505  564 580 1505  565 581 1505  580 581 1505  565 566 1506  565 581 1506  566 582 1506  581 582 1506  566 567 1507  566 582 1507  567 583 1507  582 583 1507  567 568 1508  567 583 1508  568 584 1508  583 584 1508  568 569 1509  568 584 1509  569 585 1509  584 585 1509  569 570 1510  569 585 1510  570 586 1510  585 586 1510  570 571 1511  570 586 1511  571 587 1511  586 587 1511  571 572 1512  571 587 1512  572 588 1512  587 588 1512  572 573 1513  572 588 1513  573 589 1513  588 589 1513  573 574 1514  573 589 1514  574 590 1514  589 590 1514  574 575 1515  574 590 1515  575 591 1515  590 591 1515  576 577 1516  576 592 1516  577 593 1516  592 593 1516  577 578 1517  577 593 1517  578 594 1517  593 594 1517  578 579 1518  578 594 1518  579 595 1518  594 595 1518  579 580 1519  579 595 1519  580 596 1519  595 596 1519  580 581 1520  580 596 1520  581 597 1520  596 597 1520  581 582 1521  581 597 1521  582 598 1521  597 598 1521  582 583 1522  582 598 1522  583 599 1522  598 599 1522  583 584 1523  583 599 1523  584 600 1523  599 600 1523  584 585 1524  584 600 1524  585 601 1524  600 601 1524  585 586 1525  585 601 1525  586 602 1525  601 602 1525  586 587 1526  586 602 1526  587 603 1526  602 603 1526  587 588 1527  587 603 1527  588 604 1527  603 604 1527  588 589 1528  588 604 1528  589 605 1528  604 605 1528  589 590 1529  589 605 1529  590 606 1529  605 606 1529  590 591 1530  590 606 1530  591 607 1530  606 607 1530  592 593 1531  592 608 1531  593 609 1531  608 609 1531  593 594 1532  593 609 1532  594 610 1532  609 610 1532  594 595 1533  594 610 1533  595 611 1533  610 611 1533  595 596 1534  595 611 1534  596 612 1534  611 612 1534  596 597 1535  596 612 1535  597 613 1535  612 613 1535  597 598 1536  597 613 1536  598 614 1536  613 614 1536  598 599 1537  598 614 1537  599 615 1537  614 615 1537  599 600 1538  599 615 1538  600 616 1538  615 616 1538  600 601 1539  600 616 1539  601 617 1539  616 617 1539  601 602 1540  601 617 1540  602 618 1540  617 618 1540  602 603 1541  602 618 1541  603 619 1541  618 619 1541  603 604 1542  603 619 1542  604 620 1542  619 620 1542  604 605 1543  604 620 1543  605 621 1543  620 621 1543  605 606 1544  605 621 1544  606 622 1544  621 622 1544  606 607 1545  606 622 1545  607 623 1545  622 623 1545  608 609 1546  608 624 1546  609 625 1546  624 625 1546  609 610 1547  609 625 1547  610 626 1547  625 626 1547  610 611 1548  610 626 1548  611 627 1548  626 627 1548  611 612 1549  611 627 1549  612 628 1549  627 628 1549  612 613 1550  612 628 1550  613 629 1550  628 629 1550  613 614 1551  613 629 1551  614 630 1551  629 630 1551  614 615 1552  614 630 1552  615 631 1552  630 631 1552  615 616 1553  615 631 1553  616 632 1553  631 632 1553  616 617 1554  616 632 1554  617 633 1554  632 633 1554  617 618 1555  617 633 1555  618 634 1555  633 634 1555  618 619 1556  618 634 1556  619 635 1556  634 635 1556  619 620 1557  619 635 1557  620 636 1557  635 636 1557  620 621 1558  620 636 1558  621 637 1558  636 637 1558  621 622 1559  621 637 1559  622 638 1559  637 638 1559  622 623 1560  622 638 1560  623 639 1560  638 639 1560  624 625 1561  624 640 1561  625 641 1561  640 641 1561  625 626 1562  625 641 1562  626 642 1562  641 642 1562  626 627 1563  626 642 1563  627 643 1563  642 643 1563  627 628 1564  627 643 1564  628 644 1564  643 644 1564  628 629 1565  628 644 1565  629 645 1565  644 645 1565  629 630 1566  629 645 1566  630 646 1566  645 646 1566  630 631 1567  630 646 1567  631 647 1567  646 647 1567  631 632 1568  631 647 1568  632 648 1568  647 648 1568  632 633 1569  632 648 1569  633 649 1569  648 649 1569  633 634 1570  633 649 1570  634 650 1570  649 650 1570  634 635 1571  634 650 1571  635 651 1571  650 651 1571  635 636 1572  635 651 1572  636 652 1572  651 652 1572  636 637 1573  636 652 1573  637 653 1573  652 653 1573  637 638 1574  637 653 1574  638 654 1574  653 654 1574  638 639 1575  638 654 1575  639 655 1575  654 655 1575  640 641 1576  640 656 1576  641 657 1576  656 657 1576  641 642 1577  641 657 1577  642 658 1577  657 658 1577  642 643 1578  642 658 1578  643 659 1578  658 659 1578  643 644 1579  643 659 1579  644 660 1579  659 660 1579  644 645 1580  644 660 1580  645 661 1580  660 661 1580  645 646 1581  645 661 1581  646 662 1581  661 662 1581  646 647 1582  646 662 1582  647 663 1582  662 663 1582  647 648 1583  647 663 1583  648 664 1583  663 664 1583  648 649 1584  648 664 1584  649 665 1584  664 665 1584  649 650 1585  649 665 1585  650 666 1585  665 666 1585  650 651 1586  650 666 1586  651 667 1586  666 667 1586  651 652 1587  651 667 1587  652 668 1587  667 668 1587  652 653 1588  652 668 1588  653 669 1588  668 669 1588  653 654 1589  653 669 1589  654 670 1589  669 670 1589  654 655 1590  654 670 1590  655 671 1590  670 671 1590  656 657 1591  656 672 1591  657 673 1591  672 673 1591  657 658 1592  657 673 1592  658 674 1592  673 674 1592  658 659 1593  658 674 1593  659 675 1593  674 675 1593  659 660 1594  659 675 1594  660 676 1594  675 676 1594  660 661 1595  660 676 1595  661 677 1595  676 677 1595  661 662 1596  661 677 1596  662 678 1596  677 678 1596  662 663 1597  662 678 1597  663 679 1597  678 679 1597  663 664 1598  663 679 1598  664 680 1598  679 680 1598  664 665 1599  664 680 1599  665 681 1599  680 681 1599  665 666 1600  665 681 1600  666 682 1600  681 682 1600  666 667 1601  666 682 1601  667 683 1601  682 683 1601  667 668 1602  667 683 1602  668 684 1602  683 684 1602  668 669 1603  668 684 1603  669 685 1603  684 685 1603  669 670 1604  669 685 1604  670 686 1604  685 686 1604  670 671 1605  670 686 1605  671 687 1605  686 687 1605  672 673 1606  672 688 1606  673 689 1606  688 689 1606  673 674 1607  673 689 1607  674 690 1607  689 690 1607  674 675 1608  674 690 1608  675 691 1608  690 691 1608  675 676 1609  675 691 1609  676 692 1609  691 692 1609  676 677 1610  676 692 1610  677 693 1610  692 693 1610  677 678 1611  677 693 1611  678 694 1611  693 694 1611  678 679 1612  678 694 1612  679 695 1612  694 695 1612  679 680 1613  679 695 1613  680 696 1613  695 696 1613  680 681 1614  680 696 1614  681 697 1614  696 697 1614  681 682 1615  681 697 1615  682 698 1615  697 698 1615  682 683 1616  682 698 1616  683 699 1616  698 699 1616  683 684 1617  683 699 1617  684 700 1617  699 700 1617  684 685 1618  684 700 1618  685 701 1618  700 701 1618  685 686 1619  685 701 1619  686 702 1619  701 702 1619  686 687 1620  686 702 1620  687 703 1620  702 703 1620  688 689 1621  688 704 1621  689 705 1621  704 705 1621  689 690 1622  689 705 1622  690 706 1622  705 706 1622  690 691 1623  690 706 1623  691 707 1623  706 707 1623  691 692 1624  691 707 1624  692 708 1624  707 708 1624  692 693 1625  692 708 1625  693 709 1625  708 709 1625  693 694 1626  693 709 1626  694 710 1626  709 710 1626  694 695 1627  694 710 1627  695 711 1627  710 711 1627  695 696 1628  695 711 1628  696 712 1628  711 712 1628  696 697 1629  696 712 1629  697 713 1629  712 713 1629  697 698 1630  697 713 1630  698 714 1630  713 714 1630  698 699 1631  698 714 1631  699 715 1631  714 715 1631  699 700 1632  699 715 1632  700 716 1632  715 716 1632  700 701 1633  700 716 1633  701 717 1633  716 717 1633  701 702 1634  701 717 1634  702 718 1634  717 718 1634  702 703 1635  702 718 1635  703 719 1635  718 719 1635  704 705 1636  704 720 1636  705 721 1636  720 721 1636  705 706 1637  705 721 1637  706 722 1637  721 722 1637  706 707 1638  706 722 1638  707 723 1638  722 723 1638  707 708 1639  707 723 1639  708 724 1639  723 724 1639  708 709 1640  708 724 1640  709 725 1640  724 725 1640  709 710 1641  709 725 1641  710 726 1641  725 726 1641  710 711 1642  710 726 1642  711 727 1642  726 727 1642  711 712 1643  711 727 1643  712 728 1643  727 728 1643  712 713 1644  712 728 1644  713 729 1644  728 729 1644  713 714 1645  713 729 1645  714 730 1645  729 730 1645  714 715 1646  714 730 1646  715 731 1646  730 731 1646  715 716 1647  715 731 1647  716 732 1647  731 732 1647  716 717 1648  716 732 1648  717 733 1648  732 733 1648  717 718 1649  717 733 1649  718 734 1649  733 734 1649  718 719 1650  718 734 1650  719 735 1650  734 735 1650  720 721 1651  720 736 1651  721 737 1651  736 737 1651  721 722 1652  721 737 1652  722 738 1652  737 738 1652  722 723 1653  722 738 1653  723 739 1653  738 739 1653  723 724 1654  723 739 1654  724 740 1654  739 740 1654  724 725 1655  724 740 1655  725 741 1655  740 741 1655  725 726 1656  725 741 1656  726 742 1656  741 742 1656  726 727 1657  726 742 1657  727 743 1657  742 743 1657  727 728 1658  727 743 1658  728 744 1658  743 744 1658  728 729 1659  728 744 1659  729 745 1659  744 745 1659  729 730 1660  729 745 1660  730 746 1660  745 746 1660  730 731 1661  730 746 1661  731 747 1661  746 747 1661  731 732 1662  731 747 1662  732 748 1662  747 748 1662  732 733 1663  732 748 1663  733 749 1663  748 749 1663  733 734 1664  733 749 1664  734 750 1664  749 750 1664  734 735 1665  734 750 1665  735 751 1665  750 751 1665  736 737 1666  736 752 1666  737 753 1666  752 753 1666  737 738 1667  737 753 1667  738 754 1667  753 754 1667  738 739 1668  738 754 1668  739 755 1668  754 755 1668  739 740 1669  739 755 1669  740 756 1669  755 756 1669  740 741 1670  740 756 1670  741 757 1670  756 757 1670  741 742 1671  741 757 1671  742 758 1671  757 758 1671  742 743 1672  742 758 1672  743 759 1672  758 759 1672  743 744 1673  743 759 1673  744 760 1673  759 760 1673  744 745 1674  744 760 1674  745 761 1674  760 761 1674  745 746 1675  745 761 1675  746 762 1675  761 762 1675  746 747 1676  746 762 1676  747 763 1676  762 763 1676  747 748 1677  747 763 1677  748 764 1677  763 764 1677  748 749 1678  748 764 1678  749 765 1678  764 765 1678  749 750 1679  749 765 1679  750 766 1679  765 766 1679  750 751 1680  750 766 1680  751 767 1680  766 767 1680  752 753 1681  752 768 1681  753 769 1681  768 769 1681  753 754 1682  753 769 1682  754 770 1682  769 770 1682  754 755 1683  754 770 1683  755 771 1683  770 771 1683  755 756 1684  755 771 1684  756 772 1684  771 772 1684  756 757 1685  756 772 1685  757 773 1685  772 773 1685  757 758 1686  757 773 1686  758 774 1686  773 774 1686  758 759 1687  758 774 1687  759 775 1687  774 775 1687  759 760 1688  759 775 1688  760 776 1688  775 776 1688  760 761 1689  760 776 1689  761 777 1689  776 777 1689  761 762 1690  761 777 1690  762 778 1690  777 778 1690  762 763 1691  762 778 1691  763 779 1691  778 779 1691  763 764 1692  763 779 1692  764 780 1692  779 780 1692  764 765 1693  764 780 1693  765 781 1693  780 781 1693  765 766 1694  765 781 1694  766 782 1694  781 782 1694  766 767 1695  766 782 1695  767 783 1695  782 783 1695  768 769 1696  768 784 1696  769 785 1696  784 785 1696  769 770 1697  769 785 1697  770 786 1697  785 786 1697  770 771 1698  770 786 1698  771 787 1698  786 787 1698  771 772 1699  771 787 1699  772 788 1699  787 788 1699  772 773 1700  772 788 1700  773 789 1700  788 789 1700  773 774 1701  773 789 1701  774 790 1701  789 790 1701  774 775 1702  774 790 1702  775 791 1702  790 791 1702  775 776 1703  775 791 1703  776 792 1703  791 792 1703  776 777 1704  776 792 1704  777 793 1704  792 793 1704  777 778 1705  777 793 1705  778 794 1705  793 794 1705  778 779 1706  778 794 1706  779 795 1706  794 795 1706  779 780 1707  779 795 1707  780 796 1707  795 796 1707  780 781 1708  780 796 1708  781 797 1708  796 797 1708  781 782 1709  781 797 1709  782 798 1709  797 798 1709  782 783 1710  782 798 1710  783 799 1710  798 799 1710  784 785 1711  784 800 1711  785 801 1711  800 801 1711  785 786 1712  785 801 1712  786 802 1712  801 802 1712  786 787 1713  786 802 1713  787 803 1713  802 803 1713  787 788 1714  787 803 1714  788 804 1714  803 804 1714  788 789 1715  788 804 1715  789 805 1715  804 805 1715  789 790 1716  789 805 1716  790 806 1716  805 806 1716  790 791 1717  790 806 1717  791 807 1717  806 807 1717  791 792 1718  791 807 1718  792 808 1718  807 808 1718  792 793 1719  792 808 1719  793 809 1719  808 809 1719  793 794 1720  793 809 1720  794 810 1720  809 810 1720  794 795 1721  794 810 1721  795 811 1721  810 811 1721  795 796 1722  795 811 1722  796 812 1722  811 812 1722  796 797 1723  796 812 1723  797 813 1723  812 813 1723  797 798 1724  797 813 1724  798 814 1724  813 814 1724  798 799 1725  798 814 1725  799 815 1725  814 815 1725  800 801 1726  800 816 1726  801 817 1726  816 817 1726  801 802 1727  801 817 1727  802 818 1727  817 818 1727  802 803 1728  802 818 1728  803 819 1728  818 819 1728  803 804 1729  803 819 1729  804 820 1729  819 820 1729  804 805 1730  804 820 1730  805 821 1730  820 821 1730  805 806 1731  805 821 1731  806 822 1731  821 822 1731  806 807 1732  806 822 1732  807 823 1732  822 823 1732  807 808 1733  807 823 1733  808 824 1733  823 824 1733  808 809 1734  808 824 1734  809 825 1734  824 825 1734  809 810 1735  809 825 1735  810 826 1735  825 826 1735  810 811 1736  810 826 1736  811 827 1736  826 827 1736  811 812 1737  811 827 1737  812 828 1737  827 828 1737  812 813 1738  812 828 1738  813 829 1738  828 829 1738  813 814 1739  813 829 1739  814 830 1739  829 830 1739  814 815 1740  814 830 1740  815 831 1740  830 831 1740  816 817 1741  816 832 1741  817 833 1741  832 833 1741  817 818 1742  817 833 1742  818 834 1742  833 834 1742  818 819 1743  818 834 1743  819 835 1743  834 835 1743  819 820 1744  819 835 1744  820 836 1744  835 836 1744  820 821 1745  820 836 1745  821 837 1745  836 837 1745  821 822 1746  821 837 1746  822 838 1746  837 838 1746  822 823 1747  822 838 1747  823 839 1747  838 839 1747  823 824 1748  823 839 1748  824 840 1748  839 840 1748  824 825 1749  824 840 1749  825 841 1749  840 841 1749  825 826 1750  825 841 1750  826 842 1750  841 842 1750  826 827 1751  826 842 1751  827 843 1751  842 843 1751  827 828 1752  827 843 1752  828 844 1752  843 844 1752  828 829 1753  828 844 1753  829 845 1753  844 845 1753  829 830 1754  829 845 1754  830 846 1754  845 846 1754  830 831 1755  830 846 1755  831 847 1755  846 847 1755  832 833 1756  832 848 1756  833 849 1756  848 849 1756  833 834 1757  833 849 1757  834 850 1757  849 850 1757  834 835 1758  834 850 1758  835 851 1758  850 851 1758  835 836 1759  835 851 1759  836 852 1759  851 852 1759  836 837 1760  836 852 1760  837 853 1760  852 853 1760  837 838 1761  837 853 1761  838 854 1761  853 854 1761  838 839 1762  838 854 1762  839 855 1762  854 855 1762  839 840 1763  839 855 1763  840 856 1763  855 856 1763  840 841 1764  840 856 1764  841 857 1764  856 857 1764  841 842 1765  841 857 1765  842 858 1765  857 858 1765  842 843 1766  842 858 1766  843 859 1766  858 859 1766  843 844 1767  843 859 1767  844 860 1767  859 860 1767  844 845 1768  844 860 1768  845 861 1768  860 861 1768  845 846 1769  845 861 1769  846 862 1769  861 862 1769  846 847 1770  846 862 1770  847 863 1770  862 863 1770  848 849 1771  848 864 1771  849 865 1771  864 865 1771  849 850 1772  849 865 1772  850 866 1772  865 866 1772  850 851 1773  850 866 1773  851 867 1773  866 867 1773  851 852 1774  851 867 1774  852 868 1774  867 868 1774  852 853 1775  852 868 1775  853 869 1775  868 869 1775  853 854 1776  853 869 1776  854 870 1776  869 870 1776  854 855 1777  854 870 1777  855 871 1777  870 871 1777  855 856 1778  855 871 1778  856 872 1778  871 872 1778  856 857 1779  856 872 1779  857 873 1779  872 873 1779  857 858 1780  857 873 1780  858 874 1780  873 874 1780  858 859 1781  858 874 1781  859 875 1781  874 875 1781  859 860 1782  859 875 1782  860 876 1782  875 876 1782  860 861 1783  860 876 1783  861 877 1783  876 877 1783  861 862 1784  861 877 1784  862 878 1784  877 878 1784  862 863 1785  862 878 1785  863 879 1785  878 879 1785  864 865 1786  864 880 1786  865 881 1786  880 881 1786  865 866 1787  865 881 1787  866 882 1787  881 882 1787  866 867 1788  866 882 1788  867 883 1788  882 883 1788  867 868 1789  867 883 1789  868 884 1789  883 884 1789  868 869 1790  868 884 1790  869 885 1790  884 885 1790  869 870 1791  869 885 1791  870 886 1791  885 886 1791  870 871 1792  870 886 1792  871 887 1792  886 887 1792  871 872 1793  871 887 1793  872 888 1793  887 888 1793  872 873 1794  872 888 1794  873 889 1794  888 889 1794  873 874 1795  873 889 1795  874 890 1795  889 890 1795  874 875 1796  874 890 1796  875 891 1796  890 891 1796  875 876 1797  875 891 1797  876 892 1797  891 892 1797  876 877 1798  876 892 1798  877 893 1798  892 893 1798  877 878 1799  877 893 1799  878 894 1799  893 894 1799  878 879 1800  878 894 1800  879 895 1800  894 895 1800  880 881 1801  880 896 1801  881 897 1801  896 897 1801  881 882 1802  881 897 1802  882 898 1802  897 898 1802  882 883 1803  882 898 1803  883 899 1803  898 899 1803  883 884 1804  883 899 1804  884 900 1804  899 900 1804  884 885 1805  884 900 1805  885 901 1805  900 901 1805  885 886 1806  885 901 1806  886 902 1806  901 902 1806  886 887 1807  886 902 1807  887 903 1807  902 903 1807  887 888 1808  887 903 1808  888 904 1808  903 904 1808  888 889 1809  888 904 1809  889 905 1809  904 905 1809  889 890 1810  889 905 1810  890 906 1810  905 906 1810  890 891 1811  890 906 1811  891 907 1811  906 907 1811  891 892 1812  891 907 1812  892 908 1812  907 908 1812  892 893 1813  892 908 1813  893 909 1813  908 909 1813  893 894 1814  893 909 1814  894 910 1814  909 910 1814  894 895 1815  894 910 1815  895 911 1815  910 911 1815  896 897 1816  896 912 1816  897 913 1816  912 913 1816  897 898 1817  897 913 1817  898 914 1817  913 914 1817  898 899 1818  898 914 1818  899 915 1818  914 915 1818  899 900 1819  899 915 1819  900 916 1819  915 916 1819  900 901 1820  900 916 1820  901 917 1820  916 917 1820  901 902 1821  901 917 1821  902 918 1821  917 918 1821  902 903 1822  902 918 1822  903 919 1822  918 919 1822  903 904 1823  903 919 1823  904 920 1823  919 920 1823  904 905 1824  904 920 1824  905 921 1824  920 921 1824  905 906 1825  905 921 1825  906 922 1825  921 922 1825  906 907 1826  906 922 1826  907 923 1826  922 923 1826  907 908 1827  907 923 1827  908 924 1827  923 924 1827  908 909 1828  908 924 1828  909 925 1828  924 925 1828  909 910 1829  909 925 1829  910 926 1829  925 926 1829  910 911 1830  910 926 1830  911 927 1830  926 927 1830  912 913 1831  912 928 1831  913 929 1831  928 929 1831  913 914 1832  913 929 1832  914 930 1832  929 930 1832  914 915 1833  914 930 1833  915 931 1833  930 931 1833  915 916 1834  915 931 1834  916 932 1834  931 932 1834  916 917 1835  916 932 1835  917 933 1835  932 933 1835  917 918 1836  917 933 1836  918 934 1836  933 934 1836  918 919 1837  918 934 1837  919 935 1837  934 935 1837  919 920 1838  919 935 1838  920 936 1838  935 936 1838  920 921 1839  920 936 1839  921 937 1839  936 937 1839  921 922 1840  921 937 1840  922 938 1840  937 938 1840  922 923 1841  922 938 1841  923 939 1841  938 939 1841  923 924 1842  923 939 1842  924 940 1842  939 940 1842  924 925 1843  924 940 1843  925 941 1843  940 941 1843  925 926 1844  925 941 1844  926 942 1844  941 942 1844  926 927 1845  926 942 1845  927 943 1845  942 943 1845  928 929 1846  928 944 1846  929 945 1846  944 945 1846  929 930 1847  929 945 1847  930 946 1847  945 946 1847  930 931 1848  930 946 1848  931 947 1848  946 947 1848  931 932 1849  931 947 1849  932 948 1849  947 948 1849  932 933 1850  932 948 1850  933 949 1850  948 949 1850  933 934 1851  933 949 1851  934 950 1851  949 950 1851  934 935 1852  934 950 1852  935 951 1852  950 951 1852  935 936 1853  935 951 1853  936 952 1853  951 952 1853  936 937 1854  936 952 1854  937 953 1854  952 953 1854  937 938 1855  937 953 1855  938 954 1855  953 954 1855  938 939 1856  938 954 1856  939 955 1856  954 955 1856  939 940 1857  939 955 1857  940 956 1857  955 956 1857  940 941 1858  940 956 1858  941 957 1858  956 957 1858  941 942 1859  941 957 1859  942 958 1859  957 958 1859  942 943 1860  942 958 1860  943 959 1860  958 959 1860  944 945 1861  944 960 1861  945 961 1861  960 961 1861  945 946 1862  945 961 1862  946 962 1862  961 962 1862  946 947 1863  946 962 1863  947 963 1863  962 963 1863  947 948 1864  947 963 1864  948 964 1864  963 964 1864  948 949 1865  948 964 1865  949 965 1865  964 965 1865  949 950 1866  949 965 1866  950 966 1866  965 966 1866  950 951 1867  950 966 1867  951 967 1867  966 967 1867  951 952 1868  951 967 1868  952 968 1868  967 968 1868  952 953 1869  952 968 1869  953 969 1869  968 969 1869  953 954 1870  953 969 1870  954 970 1870  969 970 1870  954 955 1871  954 970 1871  955 971 1871  970 971 1871  955 956 1872  955 971 1872  956 972 1872  971 972 1872  956 957 1873  956 972 1873  957 973 1873  972 973 1873  957 958 1874  957 973 1874  958 974 1874  973 974 1874  958 959 1875  958 974 1875  959 975 1875  974 975 1875  </DataArray>
<DataArray  type="UInt32"  Name="offsets"  format="ascii">3 6 9 12 15 18 21 24 27 30 33 36 39 42 45 48 51 54 57 60 63 66 69 72 75 78 81 84 87 90 93 96 99 102 105 108 111 114 117 120 123 126 129 132 135 138 141 144 147 150 153 156 159 162 165 168 171 174 177 180 183 186 189 192 195 198 201 204 207 210 213 216 219 222 225 228 231 234 237 240 243 246 249 252 255 258 261 264 267 270 273 276 279 282 285 288 291 294 297 300 303 306 309 312 315 318 321 324 327 330 333 336 339 342 345 348 351 354 357 360 363 366 369 372 375 378 381 384 387 390 393 396 399 402 405 408 411 414 417 420 423 426 429 432 435 438 441 444 447 450 453 456 459 462 465 468 471 474 477 480 483 486 489 492 495 498 501 504 507 510 513 516 519 522 525 528 531 534 537 540 543 546 549 552 555 558 561 564 567 570 573 576 579 582 585 588 591 594 597 600 603 606 609 612 615 618 621 624 627 630 633 636 639 642 645 648 651 654 657 660 663 666 669 672 675 678 681 684 687 690 693 696 699 702 705 708 711 714 717 720 723 726 729 732 735 738 741 744 747 750 753 756 759 762 765 768 771 774 777 780 783 786 789 792 795 798 801 804 807 810 813 816 819 822 825 828 831 834 837 840 843 846 849 852 855 858 861 864 867 870 873 876 879 882 885 888 891 894 897 900 903 906 909 912 915 918 921 924 927 930 933 936 939 942 945 948 951 954 957 960 963 966 969 972 975 978 981 984 987 990 993 996 999 1002 1005 1008 1011 1014 1017 1020 1023 1026 1029 1032 1035 1038 1041 1044 1047 1050 1053 1056 1059 1062 1065 1068 1071 1074 1077 1080 1083 1086 1089 1092 1095 1098 1101 1104 1107 1110 1113 1116 1119 1122 1125 1128 1131 1134 1137 1140 1143 1146 1149 1152 1155 1158 1161 1164 1167 1170 1173 1176 1179 1182 1185 1188 1191 1194 1197 1200 1203 1206 1209 1212 1215 1218 1221 1224 1227 1230 1233 1236 1239 1242 1245 1248 1251 1254 1257 1260 1263 1266 1269 1272 1275 1278 1281 1284 1287 1290 1293 1296 1299 1302 1305 1308 1311 1314 1317 1320 1323 1326 1329 1332 1335 1338 1341 1344 1347 1350 1353 1356 1359 1362 1365 1368 1371 1374 1377 1380 1383 1386 1389 1392 1395 1398 1401 1404 1407 1410 1413 1416 1419 1422 1425 1428 1431 1434 1437 1440 1443 1446 1449 1452 1455 1458 1461 1464 1467 1470 1473 1476 1479 1482 1485 1488 1491 1494 1497 1500 1503 1506 1509 1512 1515 1518 1521 1524 1527 1530 1533 1536 1539 1542 1545 1548 1551 1554 1557 1560 1563 1566 1569 1572 1575 1578 1581 1584 1587 1590 1593 1596 1599 1602 1605 1608 1611 1614 1617 1620 1623 1626 1629 1632 1635 1638 1641 1644 1647 1650 1653 1656 1659 1662 1665 1668 1671 1674 1677 1680 1683 1686 1689 1692 1695 1698 1701 1704 1707 1710 1713 1716 1719 1722 1725 1728 1731 1734 1737 1740 1743 1746 1749 1752 1755 1758 1761 1764 1767 1770 1773 1776 1779 1782 1785 1788 1791 1794 1797 1800 1803 1806 1809 1812 1815 1818 1821 1824 1827 1830 1833 1836 1839 1842 1845 1848 1851 1854 1857 1860 1863 1866 1869 1872 1875 1878 1881 1884 1887 1890 1893 1896 1899 1902 1905 1908 1911 1914 1917 1920 1923 1926 1929 1932 1935 1938 1941 1944 1947 1950 1953 1956 1959 1962 1965 1968 1971 1974 1977 1980 1983 1986 1989 1992 1995 1998 2001 2004 2007 2010 2013 2016 2019 2022 2025 2028 2031 2034 2037 2040 2043 2046 2049 2052 2055 2058 2061 2064 2067 2070 2073 2076 2079 2082 2085 2088 2091 2094 2097 2100 2103 2106 2109 2112 2115 2118 2121 2124 2127 2130 2133 2136 2139 2142 2145 2148 2151 2154 2157 2160 2163 2166 2169 2172 2175 2178 2181 2184 2187 2190 2193 2196 2199 2202 2205 2208 2211 2214 2217 2220 2223 2226 2229 2232 2235 2238 2241 2244 2247 2250 2253 2256 2259 2262 2265 2268 2271 2274 2277 2280 2283 2286 2289 2292 2295 2298 2301 2304 2307 2310 2313 2316 2319 2322 2325 2328 2331 2334 2337 2340 2343 2346 2349 2352 2355 2358 2361 2364 2367 2370 2373 2376 2379 2382 2385 2388 2391 2394 2397 2400 2403 2406 2409 2412 2415 2418 2421 2424 2427 2430 2433 2436 2439 2442 2445 2448 2451 2454 2457 2460 2463 2466 2469 2472 2475 2478 2481 2484 2487 2490 2493 2496 2499 2502 2505 2508 2511 2514 2517 2520 2523 2526 2529 2532 2535 2538 2541 2544 2547 2550 2553 2556 2559 2562 2565 2568 2571 2574 2577 2580 2583 2586 2589 2592 2595 2598 2601 2604 2607 2610 2613 2616 2619 2622 2625 2628 2631 2634 2637 2640 2643 2646 2649 2652 2655 2658 2661 2664 2667 2670 2673 2676 2679 2682 2685 2688 2691 2694 2697 2700 2703 2706 2709 2712 2715 2718 2721 2724 2727 2730 2733 2736 2739 2742 2745 2748 2751 2754 2757 2760 2763 2766 2769 2772 2775 2778 2781 2784 2787 2790 2793 2796 2799 2802 2805 2808 2811 2814 2817 2820 2823 2826 2829 2832 2835 2838 2841 2844 2847 2850 2853 2856 2859 2862 2865 2868 2871 2874 2877 2880 2883 2886 2889 2892 2895 2898 2901 2904 2907 2910 2913 2916 2919 2922 2925 2928 2931 2934 2937 2940 2943 2946 2949 2952 2955 2958 2961 2964 2967 2970 2973 2976 2979 2982 2985 2988 2991 2994 2997 3000 3003 3006 3009 3012 3015 3018 3021 3024 3027 3030 3033 3036 3039 3042 3045 3048 3051 3054 3057 3060 3063 3066 3069 3072 3075 3078 3081 3084 3087 3090 3093 3096 3099 3102 3105 3108 3111 3114 3117 3120 3123 3126 3129 3132 3135 3138 3141 3144 3147 3150 3153 3156 3159 3162 3165 3168 3171 3174 3177 3180 3183 3186 3189 3192 3195 3198 3201 3204 3207 3210 3213 3216 3219 3222 3225 3228 3231 3234 3237 3240 3243 3246 3249 3252 3255 3258 3261 3264 3267 3270 3273 3276 3279 3282 3285 3288 3291 3294 3297 3300 3303 3306 3309 3312 3315 3318 3321 3324 3327 3330 3333 3336 3339 3342 3345 3348 3351 3354 3357 3360 3363 3366 3369 3372 3375 3378 3381 3384 3387 3390 3393 3396 3399 3402 3405 3408 3411 3414 3417 3420 3423 3426 3429 3432 3435 3438 3441 3444 3447 3450 3453 3456 3459 3462 3465 3468 3471 3474 3477 3480 3483 3486 3489 3492 3495 3498 3501 3504 3507 3510 3513 3516 3519 3522 3525 3528 3531 3534 3537 3540 3543 3546 3549 3552 3555 3558 3561 3564 3567 3570 3573 3576 3579 3582 3585 3588 3591 3594 3597 3600 3603 3606 3609 3612 3615 3618 3621 3624 3627 3630 3633 3636 3639 3642 3645 3648 3651 3654 3657 3660 3663 3666 3669 3672 3675 3678 3681 3684 3687 3690 3693 3696 3699 3702 3705 3708 3711 3714 3717 3720 3723 3726 3729 3732 3735 3738 3741 3744 3747 3750 3753 3756 3759 3762 3765 3768 3771 3774 3777 3780 3783 3786 3789 3792 3795 3798 3801 3804 3807 3810 3813 3816 3819 3822 3825 3828 3831 3834 3837 3840 3843 3846 3849 3852 3855 3858 3861 3864 3867 3870 3873 3876 3879 3882 3885 3888 3891 3894 3897 3900 3903 3906 3909 3912 3915 3918 3921 3924 3927 3930 3933 3936 3939 3942 3945 3948 3951 3954 3957 3960 3963 3966 3969 3972 3975 3978 3981 3984 3987 3990 3993 3996 3999 4002 4005 4008 4011 4014 4017 4020 4023 4026 4029 4032 4035 4038 4041 4044 4047 4050 4053 4056 4059 4062 4065 4068 4071 4074 4077 4080 4083 4086 4089 4092 4095 4098 4101 4104 4107 4110 4113 4116 4119 4122 4125 4128 4131 4134 4137 4140 4143 4146 4149 4152 4155 4158 4161 4164 4167 4170 4173 4176 4179 4182 4185 4188 4191 4194 4197 4200 4203 4206 4209 4212 4215 4218 4221 4224 4227 4230 4233 4236 4239 4242 4245 4248 4251 4254 4257 4260 4263 4266 4269 4272 4275 4278 4281 4284 4287 4290 4293 4296 4299 4302 4305 4308 4311 4314 4317 4320 4323 4326 4329 4332 4335 4338 4341 4344 4347 4350 4353 4356 4359 4362 4365 4368 4371 4374 4377 4380 4383 4386 4389 4392 4395 4398 4401 4404 4407 4410 4413 4416 4419 4422 4425 4428 4431 4434 4437 4440 4443 4446 4449 4452 4455 4458 4461 4464 4467 4470 4473 4476 4479 4482 4485 4488 4491 4494 4497 4500 4503 4506 4509 4512 4515 4518 4521 4524 4527 4530 4533 4536 4539 4542 4545 4548 4551 4554 4557 4560 4563 4566 4569 4572 4575 4578 4581 4584 4587 4590 4593 4596 4599 4602 4605 4608 4611 4614 4617 4620 4623 4626 4629 4632 4635 4638 4641 4644 4647 4650 4653 4656 4659 4662 4665 4668 4671 4674 4677 4680 4683 4686 4689 4692 4695 4698 4701 4704 4707 4710 4713 4716 4719 4722 4725 4728 4731 4734 4737 4740 4743 4746 4749 4752 4755 4758 4761 4764 4767 4770 4773 4776 4779 4782 4785 4788 4791 4794 4797 4800 4803 4806 4809 4812 4815 4818 4821 4824 4827 4830 4833 4836 4839 4842 4845 4848 4851 4854 4857 4860 4863 4866 4869 4872 4875 4878 4881 4884 4887 4890 4893 4896 4899 4902 4905 4908 4911 4914 4917 4920 4923 4926 4929 4932 4935 4938 4941 4944 4947 4950 4953 4956 4959 4962 4965 4968 4971 4974 4977 4980 4983 4986 4989 4992 4995 4998 5001 5004 5007 5010 5013 5016 5019 5022 5025 5028 5031 5034 5037 5040 5043 5046 5049 5052 5055 5058 5061 5064 5067 5070 5073 5076 5079 5082 5085 5088 5091 5094 5097 5100 5103 5106 5109 5112 5115 5118 5121 5124 5127 5130 5133 5136 5139 5142 5145 5148 5151 5154 5157 5160 5163 5166 5169 5172 5175 5178 5181 5184 5187 5190 5193 5196 5199 5202 5205 5208 5211 5214 5217 5220 5223 5226 5229 5232 5235 5238 5241 5244 5247 5250 5253 5256 5259 5262 5265 5268 5271 5274 5277 5280 5283 5286 5289 5292 5295 5298 5301 5304 5307 5310 5313 5316 5319 5322 5325 5328 5331 5334 5337 5340 5343 5346 5349 5352 5355 5358 5361 5364 5367 5370 5373 5376 5379 5382 5385 5388 5391 5394 5397 5400 5403 5406 5409 5412 5415 5418 5421 5424 5427 5430 5433 5436 5439 5442 5445 5448 5451 5454 5457 5460 5463 5466 5469 5472 5475 5478 5481 5484 5487 5490 5493 5496 5499 5502 5505 5508 5511 5514 5517 5520 5523 5526 5529 5532 5535 5538 5541 5544 5547 5550 5553 5556 5559 5562 5565 5568 5571 5574 5577 5580 5583 5586 5589 5592 5595 5598 5601 5604 5607 5610 5613 5616 5619 5622 5625 5628 5631 5634 5637 5640 5643 5646 5649 5652 5655 5658 5661 5664 5667 5670 5673 5676 5679 5682 5685 5688 5691 5694 5697 5700 5703 5706 5709 5712 5715 5718 5721 5724 5727 5730 5733 5736 5739 5742 5745 5748 5751 5754 5757 5760 5763 5766 5769 5772 5775 5778 5781 5784 5787 5790 5793 5796 5799 5802 5805 5808 5811 5814 5817 5820 5823 5826 5829 5832 5835 5838 5841 5844 5847 5850 5853 5856 5859 5862 5865 5868 5871 5874 5877 5880 5883 5886 5889 5892 5895 5898 5901 5904 5907 5910 5913 5916 5919 5922 5925 5928 5931 5934 5937 5940 5943 5946 5949 5952 5955 5958 5961 5964 5967 5970 5973 5976 5979 5982 5985 5988 5991 5994 5997 6000 6003 6006 6009 6012 6015 6018 6021 6024 6027 6030 6033 6036 6039 6042 6045 6048 6051 6054 6057 6060 6063 6066 6069 6072 6075 6078 6081 6084 6087 6090 6093 6096 6099 6102 6105 6108 6111 6114 6117 6120 6123 6126 6129 6132 6135 6138 6141 6144 6147 6150 6153 6156 6159 6162 6165 6168 6171 6174 6177 6180 6183 6186 6189 6192 6195 6198 6201 6204 6207 6210 6213 6216 6219 6222 6225 6228 6231 6234 6237 6240 6243 6246 6249 6252 6255 6258 6261 6264 6267 6270 6273 6276 6279 6282 6285 6288 6291 6294 6297 6300 6303 6306 6309 6312 6315 6318 6321 6324 6327 6330 6333 6336 6339 6342 6345 6348 6351 6354 6357 6360 6363 6366 6369 6372 6375 6378 6381 6384 6387 6390 6393 6396 6399 6402 6405 6408 6411 6414 6417 6420 6423 6426 6429 6432 6435 6438 6441 6444 6447 6450 6453 6456 6459 6462 6465 6468 6471 6474 6477 6480 6483 6486 6489 6492 6495 6498 6501 6504 6507 6510 6513 6516 6519 6522 6525 6528 6531 6534 6537 6540 6543 6546 6549 6552 6555 6558 6561 6564 6567 6570 6573 6576 6579 6582 6585 6588 6591 6594 6597 6600 6603 6606 6609 6612 6615 6618 6621 6624 6627 6630 6633 6636 6639 6642 6645 6648 6651 6654 6657 6660 6663 6666 6669 6672 6675 6678 6681 6684 6687 6690 6693 6696 6699 6702 6705 6708 6711 6714 6717 6720 6723 6726 6729 6732 6735 6738 6741 6744 6747 6750 6753 6756 6759 6762 6765 6768 6771 6774 6777 6780 6783 6786 6789 6792 6795 6798 6801 6804 6807 6810 6813 6816 6819 6822 6825 6828 6831 6834 6837 6840 6843 6846 6849 6852 6855 6858 6861 6864 6867 6870 6873 6876 6879 6882 6885 6888 6891 6894 6897 6900 6903 6906 6909 6912 6915 6918 6921 6924 6927 6930 6933 6936 6939 6942 6945 6948 6951 6954 6957 6960 6963 6966 6969 6972 6975 6978 6981 6984 6987 6990 6993 6996 6999 7002 7005 7008 7011 7014 7017 7020 7023 7026 7029 7032 7035 7038 7041 7044 7047 7050 7053 7056 7059 7062 7065 7068 7071 7074 7077 7080 7083 7086 7089 7092 7095 7098 7101 7104 7107 7110 7113 7116 7119 7122 7125 7128 7131 7134 7137 7140 7143 7146 7149 7152 7155 7158 7161 7164 7167 7170 7173 7176 7179 7182 7185 7188 7191 7194 7197 7200 7203 7206 7209 7212 7215 7218 7221 7224 7227 7230 7233 7236 7239 7242 7245 7248 7251 7254 7257 7260 7263 7266 7269 7272 7275 7278 7281 7284 7287 7290 7293 7296 7299 7302 7305 7308 7311 7314 7317 7320 7323 7326 7329 7332 7335 7338 7341 7344 7347 7350 7353 7356 7359 7362 7365 7368 7371 7374 7377 7380 7383 7386 7389 7392 7395 7398 7401 7404 7407 7410 7413 7416 7419 7422 7425 7428 7431 7434 7437 7440 7443 7446 7449 7452 7455 7458 7461 7464 7467 7470 7473 7476 7479 7482 7485 7488 7491 7494 7497 7500 7503 7506 7509 7512 7515 7518 7521 7524 7527 7530 7533 7536 7539 7542 7545 7548 7551 7554 7557 7560 7563 7566 7569 7572 7575 7578 7581 7584 7587 7590 7593 7596 7599 7602 7605 7608 7611 7614 7617 7620 7623 7626 7629 7632 7635 7638 7641 7644 7647 7650 7653 7656 7659 7662 7665 7668 7671 7674 7677 7680 7683 7686 7689 7692 7695 7698 7701 7704 7707 7710 7713 7716 7719 7722 7725 7728 7731 7734 7737 7740 7743 7746 7749 7752 7755 7758 7761 7764 7767 7770 7773 7776 7779 7782 7785 7788 7791 7794 7797 7800 7803 7806 7809 7812 7815 7818 7821 7824 7827 7830 7833 7836 7839 7842 7845 7848 7851 7854 7857 7860 7863 7866 7869 7872 7875 7878 7881 7884 7887 7890 7893 7896 7899 7902 7905 7908 7911 7914 7917 7920 7923 7926 7929 7932 7935 7938 7941 7944 7947 7950 7953 7956 7959 7962 7965 7968 7971 7974 7977 7980 7983 7986 7989 7992 7995 7998 8001 8004 8007 8010 8013 8016 8019 8022 8025 8028 8031 8034 8037 8040 8043 8046 8049 8052 8055 8058 8061 8064 8067 8070 8073 8076 8079 8082 8085 8088 8091 8094 8097 8100 8103 8106 8109 8112 8115 8118 8121 8124 8127 8130 8133 8136 8139 8142 8145 8148 8151 8154 8157 8160 8163 8166 8169 8172 8175 8178 8181 8184 8187 8190 8193 8196 8199 8202 8205 8208 8211 8214 8217 8220 8223 8226 8229 8232 8235 8238 8241 8244 8247 8250 8253 8256 8259 8262 8265 8268 8271 8274 8277 8280 8283 8286 8289 8292 8295 8298 8301 8304 8307 8310 8313 8316 8319 8322 8325 8328 8331 8334 8337 8340 8343 8346 8349 8352 8355 8358 8361 8364 8367 8370 8373 8376 8379 8382 8385 8388 8391 8394 8397 8400 8403 8406 8409 8412 8415 8418 8421 8424 8427 8430 8433 8436 8439 8442 8445 8448 8451 8454 8457 8460 8463 8466 8469 8472 8475 8478 8481 8484 8487 8490 8493 8496 8499 8502 8505 8508 8511 8514 8517 8520 8523 8526 8529 8532 8535 8538 8541 8544 8547 8550 8553 8556 8559 8562 8565 8568 8571 8574 8577 8580 8583 8586 8589 8592 8595 8598 8601 8604 8607 8610 8613 8616 8619 8622 8625 8628 8631 8634 8637 8640 8643 8646 8649 8652 8655 8658 8661 8664 8667 8670 8673 8676 8679 8682 8685 8688 8691 8694 8697 8700 8703 8706 8709 8712 8715 8718 8721 8724 8727 8730 8733 8736 8739 8742 8745 8748 8751 8754 8757 8760 8763 8766 8769 8772 8775 8778 8781 8784 8787 8790 8793 8796 8799 8802 8805 8808 8811 8814 8817 8820 8823 8826 8829 8832 8835 8838 8841 8844 8847 8850 8853 8856 8859 8862 8865 8868 8871 8874 8877 8880 8883 8886 8889 8892 8895 8898 8901 8904 8907 8910 8913 8916 8919 8922 8925 8928 8931 8934 8937 8940 8943 8946 8949 8952 8955 8958 8961 8964 8967 8970 8973 8976 8979 8982 8985 8988 8991 8994 8997 9000 9003 9006 9009 9012 9015 9018 9021 9024 9027 9030 9033 9036 9039 9042 9045 9048 9051 9054 9057 9060 9063 9066 9069 9072 9075 9078 9081 9084 9087 9090 9093 9096 9099 9102 9105 9108 9111 9114 9117 9120 9123 9126 9129 9132 9135 9138 9141 9144 9147 9150 9153 9156 9159 9162 9165 9168 9171 9174 9177 9180 9183 9186 9189 9192 9195 9198 9201 9204 9207 9210 9213 9216 9219 9222 9225 9228 9231 9234 9237 9240 9243 9246 9249 9252 9255 9258 9261 9264 9267 9270 9273 9276 9279 9282 9285 9288 9291 9294 9297 9300 9303 9306 9309 9312 9315 9318 9321 9324 9327 9330 9333 9336 9339 9342 9345 9348 9351 9354 9357 9360 9363 9366 9369 9372 9375 9378 9381 9384 9387 9390 9393 9396 9399 9402 9405 9408 9411 9414 9417 9420 9423 9426 9429 9432 9435 9438 9441 9444 9447 9450 9453 9456 9459 9462 9465 9468 9471 9474 9477 9480 9483 9486 9489 9492 9495 9498 9501 9504 9507 9510 9513 9516 9519 9522 9525 9528 9531 9534 9537 9540 9543 9546 9549 9552 9555 9558 9561 9564 9567 9570 9573 9576 9579 9582 9585 9588 9591 9594 9597 9600 9603 9606 9609 9612 9615 9618 9621 9624 9627 9630 9633 9636 9639 9642 9645 9648 9651 9654 9657 9660 9663 9666 9669 9672 9675 9678 9681 9684 9687 9690 9693 9696 9699 9702 9705 9708 9711 9714 9717 9720 9723 9726 9729 9732 9735 9738 9741 9744 9747 9750 9753 9756 9759 9762 9765 9768 9771 9774 9777 9780 9783 9786 9789 9792 9795 9798 9801 9804 9807 9810 9813 9816 9819 9822 9825 9828 9831 9834 9837 9840 9843 9846 9849 9852 9855 9858 9861 9864 9867 9870 9873 9876 9879 9882 9885 9888 9891 9894 9897 9900 9903 9906 9909 9912 9915 9918 9921 9924 9927 9930 9933 9936 9939 9942 9945 9948 9951 9954 9957 9960 9963 9966 9969 9972 9975 9978 9981 9984 9987 9990 9993 9996 9999 10002 10005 10008 10011 10014 10017 10020 10023 10026 10029 10032 10035 10038 10041 10044 10047 10050 10053 10056 10059 10062 10065 10068 10071 10074 10077 10080 10083 10086 10089 10092 10095 10098 10101 10104 10107 10110 10113 10116 10119 10122 10125 10128 10131 10134 10137 10140 10143 10146 10149 10152 10155 10158 10161 10164 10167 10170 10173 10176 10179 10182 10185 10188 10191 10194 10197 10200 10203 10206 10209 10212 10215 10218 10221 10224 10227 10230 10233 10236 10239 10242 10245 10248 10251 10254 10257 10260 10263 10266 10269 10272 10275 10278 10281 10284 10287 10290 10293 10296 10299 10302 10305 10308 10311 10314 10317 10320 10323 10326 10329 10332 10335 10338 10341 10344 10347 10350 10353 10356 10359 10362 10365 10368 10371 10374 10377 10380 10383 10386 10389 10392 10395 10398 10401 10404 10407 10410 10413 10416 10419 10422 10425 10428 10431 10434 10437 10440 10443 10446 10449 10452 10455 10458 10461 10464 10467 10470 10473 10476 10479 10482 10485 10488 10491 10494 10497 10500 10503 10506 10509 10512 10515 10518 10521 10524 10527 10530 10533 10536 10539 10542 10545 10548 10551 10554 10557 10560 10563 10566 10569 10572 10575 10578 10581 10584 10587 10590 10593 10596 10599 10602 10605 10608 10611 10614 10617 10620 10623 10626 10629 10632 10635 10638 10641 10644 10647 10650 10653 10656 10659 10662 10665 10668 10671 10674 10677 10680 10683 10686 10689 10692 10695 10698 10701 10704 10707 10710 10713 10716 10719 10722 10725 10728 10731 10734 10737 10740 10743 10746 10749 10752 10755 10758 10761 10764 10767 10770 10773 10776 10779 10782 10785 10788 10791 10794 10797 10800 </DataArray>
<DataArray  type="UInt8"  Name="types"  format="ascii">5 5 5 5 5 5 5 5 5 5 5 5 5 5 5 5 5 5 5 5 5 5 5 5 5 5 5 5 5 5 5 5 5 5 5 5 5 5 5 5 5 5 5 5 5 5 5 5 5 5 5 5 5 5 5 5 5 5 5 5 5 5 5 5 5 5 5 5 5 5 5 5 5 5 5 5 5 5 5 5 5 5 5 5 5 5 5 5 5 5 5 5 5 5 5 5 5 5 5 5 5 5 5 5 5 5 5 5 5 5 5 5 5 5 5 5 5 5 5 5 5 5 5 5 5 5 5 5 5 5 5 5 5 5 5 5 5 5 5 5 5 5 5 5 5 5 5 5 5 5 5 5 5 5 5 5 5 5 5 5 5 5 5 5 5 5 5 5 5 5 5 5 5 5 5 5 5 5 5 5 5 5 5 5 5 5 5 5 5 5 5 5 5 5 5 5 5 5 5 5 5 5 5 5 5 5 5 5 5 5 5 5 5 5 5 5 5 5 5 5 5 5 5 5 5 5 5 5 5 5 5 5 5 5 5 5 5 5 5 5 5 5 5 5 5 5 5 5 5 5 5 5 5 5 5 5 5 5 5 5 5 5 5 5 5 5 5 5 5 5 5 5 5 5 5 5 5 5 5 5 5 5 5 5 5 5 5 5 5 5 5 5 5 5 5 5 5 5 5 5 5 5 5 5 5 5 5 5 5 5 5 5 5 5 5 5 5 5 5 5 5 5 5 5 5 5 5 5 5 5 5 5 5 5 5 5 5 5 5 5 5 5 5 5 5 5 5 5 5 5 5 5 5 5 5 5 5 5 5 5 5 5 5 5 5 5 5 5 5 5 5 5 5 5 5 5 5 5 5 5 5 5 5 5 5 5 5 5 5 5 5 5 5 5 5 5 5 5 5 5 5 5 5 5 5 5 5 5 5 5 5 5 5 5 5 5 5 5 5 5 5 5 5 5 5 5 5 5 5 5 5 5 5 5 5 5 5 5 5 5 5 5 5 5 5 5 5 5 5 5 5 5 5 5 5 5 5 5 5 5 5 5 5 5 5 5 5 5 5 5 5 5 5 5 5 5 5 5 5 5 5 5 5 5 5 5 5 5 5 5 5 5 5 5 5 5 5 5 5 5 5 5 5 5 5 5 5 5 5 5 5 5 5 5 5 5 5 5 5 5 5 5 5 5 5 5 5 5 5 5 5 5 5 5 5 5 5 5 5 5 5 5 5 5 5 5 5 5 5 5 5 5 5 5 5 5 5 5 5 5 5 5 5 5 5 5 5 5 5 5 5 5 5 5 5 5 5 5 5 5 5 5 5 5 5 5 5 5 5 5 5 5 5 5 5 5 5 5 5 5 5 5 5 5 5 5 5 5 5 5 5 5 5 5 5 5 5 5 5 5 5 5 5 5 5 5 5 5 5 5 5 5 5 5 5 5 5 5 5 5 5 5 5 5 5 5 5 5 5 5 5 5 5 5 5 5 5 5 5 5 5 5 5 5 5 5 5 5 5 5 5 5 5 5 5 5 5 5 5 5 5 5 5 5 5 5 5 5 5 5 5 5 5 5 5 5 5 5 5 5 5 5 5 5 5 5 5 5 5 5 5 5 5 5 5 5 5 5 5 5 5 5 5 5 5 5 5 5 5 5 5 5 5 5 5 5 5 5 5 5 5 5 5 5 5 5 5 5 5 5 5 5 5 5 5 5 5 5 5 5 5 5 5 5 5 5 5 5 5 5 5 5 5 5 5 5 5 5 5 5 5 5 5 5 5 5 5 5 5 5 5 5 5 5 5 5 5 5 5 5 5 5 5 5 5 5 5 5 5 5 5 5 5 5 5 5 5 5 5 5 5 5 5 5 5 5 5 5 5 5 5 5 5 5 5 5 5 5 5 5 5 5 5 5 5 5 5 5 5 5 5 5 5 5 5 5 5 5 5 5 5 5 5 5 5 5 5 5 5 5 5 5 5 5 5 5 5 5 5 5 5 5 5 5 5 5 5 5 5 5 5 5 5 5 5 5 5 5 5 5 5 5 5 5 5 5 5 5 5 5 5 5 5 5 5 5 5 5 5 5 5 5 5 5 5 5 5 5 5 5 5 5 5 5 5 5 5 5 5 5 5 5 5 5 5 5 5 5 5 5 5 5 5 5 5 5 5 5 5 5 5 5 5 5 5 5 5 5 5 5 5 5 5 5 5 5 5 5 5 5 5 5 5 5 5 5 5 5 5 5 5 5 5 5 5 5 5 5 5 5 5 5 5 5 5 5 5 5 5 5 5 5 5 5 5 5 5 5 5 5 5 5 5 5 5 5 5 5 5 5 5 5 5 5 5 5 5 5 5 5 5 5 5 5 5 5 5 5 5 5 5 5 5 5 5 5 5 5 5 5 5 5 5 5 5 5 5 5 5 5 5 5 5 5 5 5 5 5 5 5 5 5 5 5 5 5 5 5 5 5 5 5 5 5 5 5 5 5 5 5 5 5 5 5 5 5 5 5 5 5 5 5 5 5 5 5 5 5 5 5 5 5 5 5 5 5 5 5 5 5 5 5 5 5 5 5 5 5 5 5 5 5 5 5 5 5 5 5 5 5 5 5 5 5 5 5 5 5 5 5 5 5 5 5 5 5 5 5 5 5 5 5 5 5 5 5 5 5 5 5 5 5 5 5 5 5 5 5 5 5 5 5 5 5 5 5 5 5 5 5 5 5 5 5 5 5 5 5 5 5 5 5 5 5 5 5 5 5 5 5 5 5 5 5 5 5 5 5 5 5 5 5 5 5 5 5 5 5 5 5 5 5 5 5 5 5 5 5 5 5 5 5 5 5 5 5 5 5 5 5 5 5 5 5 5 5 5 5 5 5 5 5 5 5 5 5 5 5 5 5 5 5 5 5 5 5 5 5 5 5 5 5 5 5 5 5 5 5 5 5 5 5 5 5 5 5 5 5 5 5 5 5 5 5 5 5 5 5 5 5 5 5 5 5 5 5 5 5 5 5 5 5 5 5 5 5 5 5 5 5 5 5 5 5 5 5 5 5 5 5 5 5 5 5 5 5 5 5 5 5 5 5 5 5 5 5 5 5 5 5 5 5 5 5 5 5 5 5 5 5 5 5 5 5 5 5 5 5 5 5 5 5 5 5 5 5 5 5 5 5 5 5 5 5 5 5 5 5 5 5 5 5 5 5 5 5 5 5 5 5 5 5 5 5 5 5 5 5 5 5 5 5 5 5 5 5 5 5 5 5 5 5 5 5 5 5 5 5 5 5 5 5 5 5 5 5 5 5 5 5 5 5 5 5 5 5 5 5 5 5 5 5 5 5 5 5 5 5 5 5 5 5 5 5 5 5 5 5 5 5 5 5 5 5 5 5 5 5 5 5 5 5 5 5 5 5 5 5 5 5 5 5 5 5 5 5 5 5 5 5 5 5 5 5 5 5 5 5 5 5 5 5 5 5 5 5 5 5 5 5 5 5 5 5 5 5 5 5 5 5 5 5 5 5 5 5 5 5 5 5 5 5 5 5 5 5 5 5 5 5 5 5 5 5 5 5 5 5 5 5 5 5 5 5 5 5 5 5 5 5 5 5 5 5 5 5 5 5 5 5 5 5 5 5 5 5 5 5 5 5 5 5 5 5 5 5 5 5 5 5 5 5 5 5 5 5 5 5 5 5 5 5 5 5 5 5 5 5 5 5 5 5 5 5 5 5 5 5 5 5 5 5 5 5 5 5 5 5 5 5 5 5 5 5 5 5 5 5 5 5 5 5 5 5 5 5 5 5 5 5 5 5 5 5 5 5 5 5 5 5 5 5 5 5 5 5 5 5 5 5 5 5 5 5 5 5 5 5 5 5 5 5 5 5 5 5 5 5 5 5 5 5 5 5 5 5 5 5 5 5 5 5 5 5 5 5 5 5 5 5 5 5 5 5 5 5 5 5 5 5 5 5 5 5 5 5 5 5 5 5 5 5 5 5 5 5 5 5 5 5 5 5 5 5 5 5 5 5 5 5 5 5 5 5 5 5 5 5 5 5 5 5 5 5 5 5 5 5 5 5 5 5 5 5 5 5 5 5 5 5 5 5 5 5 5 5 5 5 5 5 5 5 5 5 5 5 5 5 5 5 5 5 5 5 5 5 5 5 5 5 5 5 5 5 5 5 5 5 5 5 5 5 5 5 5 5 5 5 5 5 5 5 5 5 5 5 5 5 5 5 5 5 5 5 5 5 5 5 5 5 5 5 5 5 5 5 5 5 5 5 5 5 5 5 5 5 5 5 5 5 5 5 5 5 5 5 5 5 5 5 5 5 5 5 5 5 5 5 5 5 5 5 5 5 5 5 5 5 5 5 5 5 5 5 5 5 5 5 5 5 5 5 5 5 5 5 5 5 5 5 5 5 5 5 5 5 5 5 5 5 5 5 5 5 5 5 5 5 5 5 5 5 5 5 5 5 5 5 5 5 5 5 5 5 5 5 5 5 5 5 5 5 5 5 5 5 5 5 5 5 5 5 5 5 5 5 5 5 5 5 5 5 5 5 5 5 5 5 5 5 5 5 5 5 5 5 5 5 5 5 5 5 5 5 5 5 5 5 5 5 5 5 5 5 5 5 5 5 5 5 5 5 5 5 5 5 5 5 5 5 5 5 5 5 5 5 5 5 5 5 5 5 5 5 5 5 5 5 5 5 5 5 5 5 5 5 5 5 5 5 5 5 5 5 5 5 5 5 5 5 5 5 5 5 5 5 5 5 5 5 5 5 5 5 5 5 5 5 5 5 5 5 5 5 5 5 5 5 5 5 5 5 5 5 5 5 5 5 5 5 5 5 5 5 5 5 5 5 5 5 5 5 5 5 5 5 5 5 5 5 5 5 5 5 5 5 5 5 5 5 5 5 5 5 5 5 5 5 5 5 5 5 5 5 5 5 5 5 5 5 5 5 5 5 5 5 5 5 5 5 5 5 5 5 5 5 5 5 5 5 5 5 5 5 5 5 5 5 5 5 5 5 5 5 5 5 5 5 5 5 5 5 5 5 5 5 5 5 5 5 5 5 5 5 5 5 5 5 5 5 5 5 5 5 5 5 5 5 5 5 5 5 5 5 5 5 5 5 5 5 5 5 5 5 5 5 5 5 5 5 5 5 5 5 5 5 5 5 5 5 5 5 5 5 5 5 5 5 5 5 5 5 5 5 5 5 5 5 5 5 5 5 5 5 5 5 5 5 5 5 5 5 5 5 5 5 5 5 5 5 5 5 5 5 5 5 5 5 5 5 5 5 5 5 5 5 5 5 5 5 5 5 5 5 5 5 5 5 5 5 5 5 5 5 5 5 5 5 5 5 5 5 5 5 5 5 5 5 5 5 5 5 5 5 5 5 5 5 5 5 5 5 5 5 5 5 5 5 5 5 5 5 5 5 5 5 5 5 5 5 5 5 5 5 5 5 5 5 5 5 5 5 5 5 5 5 5 5 5 5 5 5 5 5 5 5 5 5 5 5 5 5 5 5 5 5 5 5 5 5 5 5 5 5 5 5 5 5 5 5 5 5 5 5 5 5 5 5 5 5 5 5 5 5 5 5 5 5 5 5 5 5 5 5 5 5 5 5 5 5 5 5 5 5 5 5 5 5 5 5 5 5 5 5 5 5 5 5 5 5 5 5 5 5 5 5 5 5 5 5 5 5 5 5 5 5 5 5 5 5 5 5 5 5 5 5 5 5 5 5 5 5 5 5 5 5 5 5 5 5 5 5 5 5 5 5 5 5 5 5 5 5 5 5 5 5 5 5 5 5 5 5 5 5 5 5 5 5 5 5 5 5 5 5 5 5 5 5 5 5 5 5 5 5 5 5 5 5 5 5 5 5 5 5 5 5 5 5 5 5 5 5 5 5 5 5 5 5 5 5 5 5 5 5 5 5 5 5 5 5 5 5 5 5 5 5 5 5 5 5 5 5 5 5 5 5 5 5 5 5 5 5 5 5 5 5 5 5 5 5 5 5 5 5 5 5 5 5 5 5 5 5 5 5 5 5 5 5 5 5 5 5 5 5 5 5 5 5 5 5 5 5 5 5 5 5 5 5 5 5 5 5 5 5 5 5 5 5 5 5 5 5 5 5 5 5 5 5 5 5 5 5 5 5 5 5 5 5 5 5 5 5 5 5 5 5 5 5 5 5 5 5 5 5 5 5 5 5 5 5 5 5 5 5 5 5 5 5 5 5 5 5 5 5 5 5 5 5 5 5 5 5 5 5 5 5 5 5 5 5 5 5 5 5 5 5 5 5 5 5 5 5 5 5 5 5 5 5 5 5 5 5 5 5 5 5 5 5 5 5 5 5 5 5 5 5 5 5 5 5 5 5 5 5 5 5 5 5 5 5 5 5 5 5 5 5 5 5 5 5 5 5 5 5 5 5 5 5 5 5 5 5 5 5 5 5 5 5 5 5 5 5 5 5 5 5 5 5 5 5 5 5 5 5 5 5 5 5 5 5 5 5 5 5 5 5 5 5 5 5 5 5 5 5 5 5 5 5 5 5 5 5 5 5 5 5 5 5 5 5 5 5 5 5 5 5 5 5 5 5 5 5 5 5 5 5 5 5 5 5 5 5 5 5 5 5 5 5 5 5 5 5 5 5 5 5 5 5 5 5 5 5 5 5 5 5 5 5 5 5 5 5 5 5 5 5 5 5 5 5 5 5 5 5 5 5 5 5 5 5 5 5 5 5 5 5 5 5 5 5 5 5 5 5 5 5 5 5 5 5 5 5 5 5 5 5 5 5 5 5 5 5 5 5 5 5 5 5 5 5 5 5 5 5 5 5 5 5 5 5 5 5 5 5 5 5 5 5 5 5 5 5 5 5 5 5 5 5 5 5 5 5 5 5 5 5 5 5 5 5 5 5 5 5 5 5 5 5 5 5 5 5 5 5 5 5 5 5 5 5 5 5 5 5 5 5 5 5 5 5 5 5 5 5 5 5 5 5 5 5 5 5 5 5 5 5 5 5 5 5 5 5 5 5 5 5 5 5 5 5 5 5 5 5 5 5 5 5 5 5 5 5 5 5 5 5 5 5 5 5 5 5 5 5 5 5 5 5 5 5 5 5 5 5 5 5 5 5 5 5 5 5 5 5 5 5 5 5 5 5 5 5 5 5 5 5 5 5 5 5 5 5 5 5 5 5 5 5 5 5 5 5 5 5 5 5 5 5 5 5 5 5 5 5 5 5 5 5 5 5 5 5 5 5 5 5 5 5 5 5 5 5 5 5 5 5 5 5 5 5 5 5 5 5 5 5 5 5 5 5 5 5 5 5 5 5 5 5 5 5 5 5 5 5 5 5 5 5 5 5 5 5 5 5 5 5 5 5 5 5 5 5 5 5 5 5 5 5 5 5 5 5 5 5 5 5 5 5 5 5 5 5 5 5 5 5 5 5 5 5 5 5 5 5 5 5 5 5 5 5 5 5 5 5 5 5 5 5 5 5 5 5 5 5 5 5 5 5 5 5 5 5 5 5 5 5 5 5 5 5 5 5 5 5 5 5 5 5 5 5 5 5 5 5 5 5 5 5 5 5 5 5 5 5 5 5 5 5 5 5 5 5 5 5 5 5 5 5 5 5 5 5 5 5 5 5 5 5 5 5 5 5 5 5 5 5 5 5 5 5 5 5 5 5 5 5 5 5 5 5 5 5 5 5 5 5 5 5 5 5 5 5 5 5 5 5 5 5 5 5 5 5 5 5 5 5 5 5 5 5 5 5 5 5 5 5 5 5 5 5 5 5 5 5 5 5 5 5 5 5 5 5 5 5 5 5 5 5 5 5 5 5 5 5 5 5 5 5 5 5 5 5 5 5 5 5 5 5 5 5 5 5 5 5 5 5 5 5 5 5 5 5 5 5 5 5 5 5 5 5 5 5 5 5 5 5 5 5 5 5 5 5 5 5 5 5 5 5 5 5 5 5 5 5 5 5 5 5 5 5 5 5 5 5 5 5 5 5 5 5 5 5 5 5 5 5 5 5 5 5 5 5 5 5 5 5 5 5 5 5 5 5 5 5 5 5 5 5 5 5 5 5 5 5 5 5 5 5 5 5 5 5 5 5 5 5 5 5 5 5 </DataArray>
</Cells>
<PointData  Scalars="mean stress"> 
<DataArray  type="Float64"  Name="mean stress"  format="ascii">4.8178137651816040e+07  4.8178137651816115e+07  4.8178137651816137e+07  4.8178137651816048e+07  4.8178137651816003e+07  4.8178137651815966e+07  4.8178137651815630e+07  4.8178137651815407e+07  4.8178137651815161e+07  4.8178137651814848e+07  4.8178137651814774e+07  4.8178137651814558e+07  4.8178137651814491e+07  4.8178137651814319e+07  4.8178137651814252e+07  4.8178137651814237e+07  4.8178137651816182e+07  4.8178137651816279e+07  4.8178137651816234e+07  4.8178137651816167e+07  4.8178137651816174e+07  4.8178137651816115e+07  4.8178137651815839e+07  4.8178137651815362e+07  4.8178137651815169e+07  4.8178137651814975e+07  4.8178137651814826e+07  4.8178137651814587e+07  4.8178137651814356e+07  4.8178137651814297e+07  4.8178137651814140e+07  4.8178137651814178e+07  4.8178137651816256e+07  4.8178137651816234e+07  4.8178137651816331e+07  4.8178137651816219e+07  4.8178137651816189e+07  4.8178137651816092e+07  4.8178137651815727e+07  4.8178137651815653e+07  4.8178137651815064e+07  4.8178137651814856e+07  4.8178137651814669e+07  4.8178137651814722e+07  4.8178137651814371e+07  4.8178137651814342e+07  4.8178137651814178e+07  4.8178137651814140e+07  4.8178137651816092e+07  4.8178137651816279e+07  4.8178137651816219e+07  4.8178137651816331e+07  4.8178137651816115e+07  4.8178137651816025e+07  4.8178137651815653e+07  4.8178137651815519e+07  4.8178137651815206e+07  4.8178137651814990e+07  4.8178137651814803e+07  4.8178137651814744e+07  4.8178137651814409e+07  4.8178137651814155e+07  4.8178137651814185e+07  4.8178137651814073e+07  4.8178137651816383e+07  4.8178137651816294e+07  4.8178137651816338e+07  4.8178137651816368e+07  4.8178137651816152e+07  4.8178137651816018e+07  4.8178137651816085e+07  4.8178137651815623e+07  4.8178137651815005e+07  4.8178137651814774e+07  4.8178137651814699e+07  4.8178137651814505e+07  4.8178137651814453e+07  4.8178137651814207e+07  4.8178137651814051e+07  4.8178137651814066e+07  4.8178137651816472e+07  4.8178137651816458e+07  4.8178137651816174e+07  4.8178137651816040e+07  4.8178137651816316e+07  4.8178137651816204e+07  4.8178137651816018e+07  4.8178137651815377e+07  4.8178137651815377e+07  4.8178137651815087e+07  4.8178137651814871e+07  4.8178137651814230e+07  4.8178137651814334e+07  4.8178137651814170e+07  4.8178137651814215e+07  4.8178137651814431e+07  4.8178137651816227e+07  4.8178137651816033e+07  4.8178137651816420e+07  4.8178137651816040e+07  4.8178137651816286e+07  4.8178137651816227e+07  4.8178137651815690e+07  4.8178137651815146e+07  4.8178137651815318e+07  4.8178137651814759e+07  4.8178137651814781e+07  4.8178137651814431e+07  4.8178137651814602e+07  4.8178137651814349e+07  4.8178137651814409e+07  4.8178137651814178e+07  4.8178137651816227e+07  4.8178137651816450e+07  4.8178137651816599e+07  4.8178137651816122e+07  4.8178137651816010e+07  4.8178137651816070e+07  4.8178137651815407e+07  4.8178137651815824e+07  4.8178137651814960e+07  4.8178137651815161e+07  4.8178137651814528e+07  4.8178137651814759e+07  4.8178137651814200e+07  4.8178137651814267e+07  4.8178137651814006e+07  4.8178137651813850e+07  4.8178137651816279e+07  4.8178137651816092e+07  4.8178137651816301e+07  4.8178137651816234e+07  4.8178137651816584e+07  4.8178137651816122e+07  4.8178137651815824e+07  4.8178137651815303e+07  4.8178137651815116e+07  4.8178137651815161e+07  4.8178137651814505e+07  4.8178137651814491e+07  4.8178137651814416e+07  4.8178137651814073e+07  4.8178137651814260e+07  4.8178137651813969e+07  4.8178137651816495e+07  4.8178137651816420e+07  4.8178137651816674e+07  4.8178137651816539e+07  4.8178137651816405e+07  4.8178137651815899e+07  4.8178137651816495e+07  4.8178137651815407e+07  4.8178137651815243e+07  4.8178137651815154e+07  4.8178137651815042e+07  4.8178137651814513e+07  4.8178137651814833e+07  4.8178137651814118e+07  4.8178137651814163e+07  4.8178137651813991e+07  4.8178137651815966e+07  4.8178137651816487e+07  4.8178137651816323e+07  4.8178137651816219e+07  4.8178137651815891e+07  4.8178137651815832e+07  4.8178137651815787e+07  4.8178137651815757e+07  4.8178137651815094e+07  4.8178137651815325e+07  4.8178137651815079e+07  4.8178137651814386e+07  4.8178137651814364e+07  4.8178137651814342e+07  4.8178137651814304e+07  4.8178137651814319e+07  4.8178137651816189e+07  4.8178137651816480e+07  4.8178137651816405e+07  4.8178137651816435e+07  4.8178137651816189e+07  4.8178137651816264e+07  4.8178137651815437e+07  4.8178137651815794e+07  4.8178137651815571e+07  4.8178137651814863e+07  4.8178137651814915e+07  4.8178137651814751e+07  4.8178137651814580e+07  4.8178137651814677e+07  4.8178137651814394e+07  4.8178137651814565e+07  4.8178137651816256e+07  4.8178137651816361e+07  4.8178137651815705e+07  4.8178137651816130e+07  4.8178137651815884e+07  4.8178137651816472e+07  4.8178137651815422e+07  4.8178137651815891e+07  4.8178137651815712e+07  4.8178137651814692e+07  4.8178137651814625e+07  4.8178137651814863e+07  4.8178137651814125e+07  4.8178137651814528e+07  4.8178137651814535e+07  4.8178137651813745e+07  4.8178137651816577e+07  4.8178137651815876e+07  4.8178137651816450e+07  4.8178137651816159e+07  4.8178137651816428e+07  4.8178137651816405e+07  4.8178137651816443e+07  4.8178137651815377e+07  4.8178137651814915e+07  4.8178137651815400e+07  4.8178137651814684e+07  4.8178137651815347e+07  4.8178137651815139e+07  4.8178137651814565e+07  4.8178137651814155e+07  4.8178137651814617e+07  4.8178137651817091e+07  4.8178137651816376e+07  4.8178137651816741e+07  4.8178137651815891e+07  4.8178137651815891e+07  4.8178137651815817e+07  4.8178137651815794e+07  4.8178137651816003e+07  4.8178137651815124e+07  4.8178137651815437e+07  4.8178137651815489e+07  4.8178137651814654e+07  4.8178137651814871e+07  4.8178137651814885e+07  4.8178137651814327e+07  4.8178137651815034e+07  4.8178137651816480e+07  4.8178137651816607e+07  4.8178137651815355e+07  4.8178137651816666e+07  4.8178137651815526e+07  4.8178137651815869e+07  4.8178137651816040e+07  4.8178137651815377e+07  4.8178137651815660e+07  4.8178137651815146e+07  4.8178137651815861e+07  4.8178137651814781e+07  4.8178137651815310e+07  4.8178137651814647e+07  4.8178137651814669e+07  4.8178137651814304e+07  4.8178137651816130e+07  4.8178137651816078e+07  4.8178137651816502e+07  4.8178137651815213e+07  4.8178137651816562e+07  4.8178137651815936e+07  4.8178137651815310e+07  4.8178137651815027e+07  4.8178137651816018e+07  4.8178137651815310e+07  4.8178137651814684e+07  4.8178137651815772e+07  4.8178137651814610e+07  4.8178137651815511e+07  4.8178137651815020e+07  4.8178137651815757e+07  4.8178137651816033e+07  4.8178137651816033e+07  4.8178137651816741e+07  4.8178137651815601e+07  4.8178137651815735e+07  4.8178137651816249e+07  4.8178137651815675e+07  4.8178137651816092e+07  4.8178137651815876e+07  4.8178137651816219e+07  4.8178137651815496e+07  4.8178137651815765e+07  4.8178137651815392e+07  4.8178137651815869e+07  4.8178137651814550e+07  4.8178137651814736e+07  4.8178137651817009e+07  4.8178137651816323e+07  4.8178137651816189e+07  4.8178137651816547e+07  4.8178137651816197e+07  4.8178137651815675e+07  4.8178137651816294e+07  4.8178137651815541e+07  4.8178137651816264e+07  4.8178137651815534e+07  4.8178137651815444e+07  4.8178137651814297e+07  4.8178137651814781e+07  4.8178137651814118e+07  4.8178137651815213e+07  4.8178137651814580e+07  4.8178137651817150e+07  4.8178137651816875e+07  4.8178137651816711e+07  4.8178137651816458e+07  4.8178137651815794e+07  4.8178137651815511e+07  4.8178137651816212e+07  4.8178137651815929e+07  4.8178137651815765e+07  4.8178137651815876e+07  4.8178137651815467e+07  4.8178137651815519e+07  4.8178137651815437e+07  4.8178137651814766e+07  4.8178137651815332e+07  4.8178137651815400e+07  4.8178137651815951e+07  4.8178137651817009e+07  4.8178137651815921e+07  4.8178137651816174e+07  4.8178137651814900e+07  4.8178137651814491e+07  4.8178137651815258e+07  4.8178137651816122e+07  4.8178137651815750e+07  4.8178137651814997e+07  4.8178137651814856e+07  4.8178137651814923e+07  4.8178137651814587e+07  4.8178137651815519e+07  4.8178137651815206e+07  4.8178137651815303e+07  4.8178137651816547e+07  4.8178137651816629e+07  4.8178137651816592e+07  4.8178137651816659e+07  4.8178137651815735e+07  4.8178137651815973e+07  4.8178137651816145e+07  4.8178137651816152e+07  4.8178137651817337e+07  4.8178137651816845e+07  4.8178137651817031e+07  4.8178137651815236e+07  4.8178137651815988e+07  4.8178137651815809e+07  4.8178137651816398e+07  4.8178137651815467e+07  4.8178137651816972e+07  4.8178137651816949e+07  4.8178137651815988e+07  4.8178137651816323e+07  4.8178137651816331e+07  4.8178137651816003e+07  4.8178137651815347e+07  4.8178137651817620e+07  4.8178137651816040e+07  4.8178137651816696e+07  4.8178137651817106e+07  4.8178137651816711e+07  4.8178137651815996e+07  4.8178137651815303e+07  4.8178137651815526e+07  4.8178137651815951e+07  4.8178137651816614e+07  4.8178137651815183e+07  4.8178137651816458e+07  4.8178137651816025e+07  4.8178137651815556e+07  4.8178137651815362e+07  4.8178137651814349e+07  4.8178137651815474e+07  4.8178137651816517e+07  4.8178137651815079e+07  4.8178137651814960e+07  4.8178137651815884e+07  4.8178137651815102e+07  4.8178137651816331e+07  4.8178137651815996e+07  4.8178137651815876e+07  4.8178137651817843e+07  4.8178137651817687e+07  4.8178137651817627e+07  4.8178137651817024e+07  4.8178137651817277e+07  4.8178137651814595e+07  4.8178137651817270e+07  4.8178137651816212e+07  4.8178137651815414e+07  4.8178137651816092e+07  4.8178137651815280e+07  4.8178137651816182e+07  4.8178137651815817e+07  4.8178137651815675e+07  4.8178137651815988e+07  4.8178137651815467e+07  4.8178137651816338e+07  4.8178137651818983e+07  4.8178137651817247e+07  4.8178137651817605e+07  4.8178137651817448e+07  4.8178137651816845e+07  4.8178137651818700e+07  4.8178137651817113e+07  4.8178137651817799e+07  4.8178137651816718e+07  4.8178137651816934e+07  4.8178137651815407e+07  4.8178137651815869e+07  4.8178137651816957e+07  4.8178137651816055e+07  4.8178137651817836e+07  4.8178137651817784e+07  4.8178137651816845e+07  4.8178137651817493e+07  4.8178137651816495e+07  4.8178137651815511e+07  4.8178137651817851e+07  4.8178137651815742e+07  4.8178137651817285e+07  4.8178137651816837e+07  4.8178137651817061e+07  4.8178137651816368e+07  4.8178137651814163e+07  4.8178137651815094e+07  4.8178137651815310e+07  4.8178137651815154e+07  4.8178137651815079e+07  4.8178137651818328e+07  4.8178137651817709e+07  4.8178137651816636e+07  4.8178137651817687e+07  4.8178137651817277e+07  4.8178137651817277e+07  4.8178137651817024e+07  4.8178137651815847e+07  4.8178137651816294e+07  4.8178137651816554e+07  4.8178137651816018e+07  4.8178137651816778e+07  4.8178137651816145e+07  4.8178137651815280e+07  4.8178137651817158e+07  4.8178137651815347e+07  4.8178137651817590e+07  4.8178137651818410e+07  4.8178137651818492e+07  4.8178137651817583e+07  4.8178137651818700e+07  4.8178137651817575e+07  4.8178137651816607e+07  4.8178137651817918e+07  4.8178137651816763e+07  4.8178137651815400e+07  4.8178137651815243e+07  4.8178137651815638e+07  4.8178137651815981e+07  4.8178137651816107e+07  4.8178137651816085e+07  4.8178137651815437e+07  4.8178137651819602e+07  4.8178137651818253e+07  4.8178137651819222e+07  4.8178137651817851e+07  4.8178137651818603e+07  4.8178137651817814e+07  4.8178137651818462e+07  4.8178137651817091e+07  4.8178137651816815e+07  4.8178137651816949e+07  4.8178137651816502e+07  4.8178137651818186e+07  4.8178137651817374e+07  4.8178137651815534e+07  4.8178137651816510e+07  4.8178137651817061e+07  4.8178137651817814e+07  4.8178137651818633e+07  4.8178137651818633e+07  4.8178137651819997e+07  4.8178137651818551e+07  4.8178137651818402e+07  4.8178137651818514e+07  4.8178137651817471e+07  4.8178137651817925e+07  4.8178137651815921e+07  4.8178137651816107e+07  4.8178137651814245e+07  4.8178137651815400e+07  4.8178137651815832e+07  4.8178137651814692e+07  4.8178137651816152e+07  4.8178137651820242e+07  4.8178137651819296e+07  4.8178137651818842e+07  4.8178137651818387e+07  4.8178137651817866e+07  4.8178137651819132e+07  4.8178137651816882e+07  4.8178137651817739e+07  4.8178137651815951e+07  4.8178137651816703e+07  4.8178137651817434e+07  4.8178137651816152e+07  4.8178137651815280e+07  4.8178137651817121e+07  4.8178137651815549e+07  4.8178137651816703e+07  4.8178137651818544e+07  4.8178137651820056e+07  4.8178137651819728e+07  4.8178137651819855e+07  4.8178137651819497e+07  4.8178137651818104e+07  4.8178137651818819e+07  4.8178137651818842e+07  4.8178137651818365e+07  4.8178137651817858e+07  4.8178137651816212e+07  4.8178137651818082e+07  4.8178137651818164e+07  4.8178137651816092e+07  4.8178137651817612e+07  4.8178137651813760e+07  4.8178137651819825e+07  4.8178137651819050e+07  4.8178137651819691e+07  4.8178137651818268e+07  4.8178137651819512e+07  4.8178137651818492e+07  4.8178137651818074e+07  4.8178137651818037e+07  4.8178137651817448e+07  4.8178137651817597e+07  4.8178137651817448e+07  4.8178137651817501e+07  4.8178137651815735e+07  4.8178137651814945e+07  4.8178137651815891e+07  4.8178137651815340e+07  4.8178137651820019e+07  4.8178137651820481e+07  4.8178137651821300e+07  4.8178137651819952e+07  4.8178137651819527e+07  4.8178137651818603e+07  4.8178137651818149e+07  4.8178137651815854e+07  4.8178137651818946e+07  4.8178137651817665e+07  4.8178137651816167e+07  4.8178137651816264e+07  4.8178137651815489e+07  4.8178137651817627e+07  4.8178137651815079e+07  4.8178137651818164e+07  4.8178137651820146e+07  4.8178137651820399e+07  4.8178137651818842e+07  4.8178137651822291e+07  4.8178137651819244e+07  4.8178137651820667e+07  4.8178137651820950e+07  4.8178137651818030e+07  4.8178137651818067e+07  4.8178137651816063e+07  4.8178137651819371e+07  4.8178137651815176e+07  4.8178137651817963e+07  4.8178137651815511e+07  4.8178137651815474e+07  4.8178137651817657e+07  4.8178137651822351e+07  4.8178137651819445e+07  4.8178137651821725e+07  4.8178137651820987e+07  4.8178137651820436e+07  4.8178137651821434e+07  4.8178137651819505e+07  4.8178137651820406e+07  4.8178137651817210e+07  4.8178137651818469e+07  4.8178137651817933e+07  4.8178137651817016e+07  4.8178137651817419e+07  4.8178137651816741e+07  4.8178137651815914e+07  4.8178137651813991e+07  4.8178137651820369e+07  4.8178137651822560e+07  4.8178137651821323e+07  4.8178137651820868e+07  4.8178137651821695e+07  4.8178137651820019e+07  4.8178137651818648e+07  4.8178137651819438e+07  4.8178137651818976e+07  4.8178137651818953e+07  4.8178137651817113e+07  4.8178137651818536e+07  4.8178137651817061e+07  4.8178137651816033e+07  4.8178137651817247e+07  4.8178137651815929e+07  4.8178137651820585e+07  4.8178137651819780e+07  4.8178137651822560e+07  4.8178137651821159e+07  4.8178137651820481e+07  4.8178137651821360e+07  4.8178137651819661e+07  4.8178137651819043e+07  4.8178137651817039e+07  4.8178137651815541e+07  4.8178137651815787e+07  4.8178137651817039e+07  4.8178137651815526e+07  4.8178137651816897e+07  4.8178137651815370e+07  4.8178137651816115e+07  4.8178137651822545e+07  4.8178137651821978e+07  4.8178137651822537e+07  4.8178137651821025e+07  4.8178137651821993e+07  4.8178137651821390e+07  4.8178137651818916e+07  4.8178137651818685e+07  4.8178137651818089e+07  4.8178137651817307e+07  4.8178137651817627e+07  4.8178137651815832e+07  4.8178137651816994e+07  4.8178137651816651e+07  4.8178137651817024e+07  4.8178137651817821e+07  4.8178137651821308e+07  4.8178137651824258e+07  4.8178137651820600e+07  4.8178137651823029e+07  4.8178137651822917e+07  4.8178137651823670e+07  4.8178137651824214e+07  4.8178137651820287e+07  4.8178137651820339e+07  4.8178137651818812e+07  4.8178137651818976e+07  4.8178137651816316e+07  4.8178137651817814e+07  4.8178137651815325e+07  4.8178137651815124e+07  4.8178137651814200e+07  4.8178137651821747e+07  4.8178137651821315e+07  4.8178137651820846e+07  4.8178137651821420e+07  4.8178137651824765e+07  4.8178137651822887e+07  4.8178137651820406e+07  4.8178137651820198e+07  4.8178137651819177e+07  4.8178137651819944e+07  4.8178137651817463e+07  4.8178137651816733e+07  4.8178137651814327e+07  4.8178137651816845e+07  4.8178137651816025e+07  4.8178137651815847e+07  4.8178137651823342e+07  4.8178137651823126e+07  4.8178137651825733e+07  4.8178137651824377e+07  4.8178137651823252e+07  4.8178137651823953e+07  4.8178137651820838e+07  4.8178137651821271e+07  4.8178137651818164e+07  4.8178137651819356e+07  4.8178137651817925e+07  4.8178137651819259e+07  4.8178137651818171e+07  4.8178137651815996e+07  4.8178137651815623e+07  4.8178137651816525e+07  4.8178137651822679e+07  4.8178137651822276e+07  4.8178137651822478e+07  4.8178137651823640e+07  4.8178137651822224e+07  4.8178137651822180e+07  4.8178137651820503e+07  4.8178137651819773e+07  4.8178137651818305e+07  4.8178137651817843e+07  4.8178137651816107e+07  4.8178137651819028e+07  4.8178137651816458e+07  4.8178137651816301e+07  4.8178137651815556e+07  4.8178137651815064e+07  4.8178137651823170e+07  4.8178137651822172e+07  4.8178137651822187e+07  4.8178137651822224e+07  4.8178137651822224e+07  4.8178137651822343e+07  4.8178137651822448e+07  4.8178137651821449e+07  4.8178137651819944e+07  4.8178137651818790e+07  4.8178137651817858e+07  4.8178137651816882e+07  4.8178137651816331e+07  4.8178137651816554e+07  4.8178137651816696e+07  4.8178137651817426e+07  4.8178137651822671e+07  4.8178137651823349e+07  4.8178137651820019e+07  4.8178137651821747e+07  4.8178137651823632e+07  4.8178137651820436e+07  4.8178137651821539e+07  4.8178137651818648e+07  4.8178137651818305e+07  4.8178137651818149e+07  4.8178137651819445e+07  4.8178137651817456e+07  4.8178137651818119e+07  4.8178137651814781e+07  4.8178137651815280e+07  4.8178137651814327e+07  4.8178137651822776e+07  4.8178137651822537e+07  4.8178137651823990e+07  4.8178137651820175e+07  4.8178137651822239e+07  4.8178137651821047e+07  4.8178137651821919e+07  4.8178137651818775e+07  4.8178137651820347e+07  4.8178137651818074e+07  4.8178137651816681e+07  4.8178137651817359e+07  4.8178137651817240e+07  4.8178137651818395e+07  4.8178137651818603e+07  4.8178137651815653e+07  4.8178137651822135e+07  4.8178137651822478e+07  4.8178137651824504e+07  4.8178137651824504e+07  4.8178137651822872e+07  4.8178137651822641e+07  4.8178137651820101e+07  4.8178137651820660e+07  4.8178137651820213e+07  4.8178137651821010e+07  4.8178137651818745e+07  4.8178137651818968e+07  4.8178137651817709e+07  4.8178137651817590e+07  4.8178137651815832e+07  4.8178137651817903e+07  4.8178137651820451e+07  4.8178137651821189e+07  4.8178137651819907e+07  4.8178137651823260e+07  4.8178137651823848e+07  4.8178137651823983e+07  4.8178137651819944e+07  4.8178137651819974e+07  4.8178137651817650e+07  4.8178137651817329e+07  4.8178137651817031e+07  4.8178137651817225e+07  4.8178137651817910e+07  4.8178137651816040e+07  4.8178137651815958e+07  4.8178137651815034e+07  4.8178137651825592e+07  4.8178137651822172e+07  4.8178137651825383e+07  4.8178137651825890e+07  4.8178137651822284e+07  4.8178137651822239e+07  4.8178137651823908e+07  4.8178137651823916e+07  4.8178137651821755e+07  4.8178137651821099e+07  4.8178137651821278e+07  4.8178137651817501e+07  4.8178137651818261e+07  4.8178137651815325e+07  4.8178137651817247e+07  4.8178137651817851e+07  4.8178137651819281e+07  4.8178137651823424e+07  4.8178137651823580e+07  4.8178137651821099e+07  4.8178137651823185e+07  4.8178137651821598e+07  4.8178137651821680e+07  4.8178137651819699e+07  4.8178137651819289e+07  4.8178137651819400e+07  4.8178137651820309e+07  4.8178137651819736e+07  4.8178137651819937e+07  4.8178137651817925e+07  4.8178137651817739e+07  4.8178137651817575e+07  4.8178137651824042e+07  4.8178137651821077e+07  4.8178137651822113e+07  4.8178137651823036e+07  4.8178137651822090e+07  4.8178137651821114e+07  4.8178137651820466e+07  4.8178137651821040e+07  4.8178137651819721e+07  4.8178137651819386e+07  4.8178137651818134e+07  4.8178137651817344e+07  4.8178137651816204e+07  4.8178137651819475e+07  4.8178137651815809e+07  4.8178137651819080e+07  4.8178137651811831e+07  4.8178137651830390e+07  4.8178137651816845e+07  4.8178137651822723e+07  4.8178137651820898e+07  4.8178137651823699e+07  4.8178137651820786e+07  4.8178137651821770e+07  4.8178137651821688e+07  4.8178137651821256e+07  4.8178137651818521e+07  4.8178137651817255e+07  4.8178137651819751e+07  4.8178137651813105e+07  4.8178137651824445e+07  4.8178137651810721e+07  4.8178137651881069e+07  4.8178137651770368e+07  4.8178137651857115e+07  4.8178137651808649e+07  4.8178137651827767e+07  4.8178137651821636e+07  4.8178137651822738e+07  4.8178137651821755e+07  4.8178137651820287e+07  4.8178137651819699e+07  4.8178137651815474e+07  4.8178137651826143e+07  4.8178137651800625e+07  4.8178137651851140e+07  4.8178137651767068e+07  4.8178137651872143e+07  4.8178137651444681e+07  4.8178137652142882e+07  4.8178137651623890e+07  4.8178137651907407e+07  4.8178137651796713e+07  4.8178137651824109e+07  4.8178137651822284e+07  4.8178137651823752e+07  4.8178137651821978e+07  4.8178137651821688e+07  4.8178137651827693e+07  4.8178137651795194e+07  4.8178137651904114e+07  4.8178137651621789e+07  4.8178137652140833e+07  4.8178137651443750e+07  4.8178137654299460e+07  4.8178137649782233e+07  4.8178137652909830e+07  4.8178137651452497e+07  4.8178137651870720e+07  4.8178137651820049e+07  4.8178137651811853e+07  4.8178137651813954e+07  4.8178137651815280e+07  4.8178137651809126e+07  4.8178137651818052e+07  4.8178137651866943e+07  4.8178137651452884e+07  4.8178137652907118e+07  4.8178137649779901e+07  4.8178137654297113e+07  4.8178137632067300e+07  4.8178137662067294e+07  4.8178137643499643e+07  4.8178137650013722e+07  4.8178137649132505e+07  4.8178137648950875e+07  4.8178137649051525e+07  4.8178137649024405e+07  4.8178137649024598e+07  4.8178137649051726e+07  4.8178137648945786e+07  4.8178137649131224e+07  4.8178137650013983e+07  4.8178137643500134e+07  4.8178137662066750e+07  4.8178137632066183e+07  4.8178136765660293e+07  4.8178136557369538e+07  4.8178136660683326e+07  4.8178136642128579e+07  4.8178136638529599e+07  4.8178136640122734e+07  4.8178136639729597e+07  4.8178136639810227e+07  4.8178136639811248e+07  4.8178136639730021e+07  4.8178136640123479e+07  4.8178136638532728e+07  4.8178136642124951e+07  4.8178136660684757e+07  4.8178136557363831e+07  4.8178136765654325e+07  4.8177769972767577e+07  4.8177771439187363e+07  4.8177770932623997e+07  4.8177770846590146e+07  4.8177770872293845e+07  4.8177770867088228e+07  4.8177770868034534e+07  4.8177770867872067e+07  4.8177770867874466e+07  4.8177770868034162e+07  4.8177770867085092e+07  4.8177770872290947e+07  4.8177770846590124e+07  4.8177770932623446e+07  4.8177771439188227e+07  4.8177769972764254e+07  4.8045238209393144e+07  4.8045207666786715e+07  4.8045205109665520e+07  4.8045205519218676e+07  4.8045205455390811e+07  4.8045205465344161e+07  4.8045205463776603e+07  4.8045205464021683e+07  4.8045205464023024e+07  4.8045205463777684e+07  4.8045205465345874e+07  4.8045205455388457e+07  4.8045205519217670e+07  4.8045205109664023e+07  4.8045207666788325e+07  4.8045238209392376e+07  4.9040525822582655e+07  4.9040365115363844e+07  4.9040370195823185e+07  4.9040369571111277e+07  4.9040369655619808e+07  4.9040369643362515e+07  4.9040369645208359e+07  4.9040369644929431e+07  4.9040369644927397e+07  4.9040369645206004e+07  4.9040369643361412e+07  4.9040369655626461e+07  4.9040369571116187e+07  4.9040370195826441e+07  4.9040365115362048e+07  4.9040525822586447e+07  4.8178137651816159e+07  4.8178137651816256e+07  4.8178137651816241e+07  4.8178137651816159e+07  4.8178137651816100e+07  4.8178137651815891e+07  4.8178137651815608e+07  4.8178137651815362e+07  4.8178137651815042e+07  4.8178137651814833e+07  4.8178137651814692e+07  4.8178137651814595e+07  4.8178137651814446e+07  4.8178137651814371e+07  4.8178137651814222e+07  4.8178137651816338e+07  4.8178137651816249e+07  4.8178137651816212e+07  4.8178137651816122e+07  4.8178137651816033e+07  4.8178137651815891e+07  4.8178137651815638e+07  4.8178137651815288e+07  4.8178137651815094e+07  4.8178137651814893e+07  4.8178137651814550e+07  4.8178137651814424e+07  4.8178137651814431e+07  4.8178137651814297e+07  4.8178137651814193e+07  4.8178137651816331e+07  4.8178137651816420e+07  4.8178137651816458e+07  4.8178137651816249e+07  4.8178137651816189e+07  4.8178137651816040e+07  4.8178137651815809e+07  4.8178137651815452e+07  4.8178137651815116e+07  4.8178137651814729e+07  4.8178137651814736e+07  4.8178137651814774e+07  4.8178137651814364e+07  4.8178137651814237e+07  4.8178137651814170e+07  4.8178137651816353e+07  4.8178137651816137e+07  4.8178137651816107e+07  4.8178137651816361e+07  4.8178137651816450e+07  4.8178137651816159e+07  4.8178137651815608e+07  4.8178137651815265e+07  4.8178137651814900e+07  4.8178137651814818e+07  4.8178137651814692e+07  4.8178137651814364e+07  4.8178137651814193e+07  4.8178137651814267e+07  4.8178137651814267e+07  4.8178137651816279e+07  4.8178137651816592e+07  4.8178137651816599e+07  4.8178137651815981e+07  4.8178137651815683e+07  4.8178137651815802e+07  4.8178137651815698e+07  4.8178137651815288e+07  4.8178137651815176e+07  4.8178137651815169e+07  4.8178137651814580e+07  4.8178137651814289e+07  4.8178137651814431e+07  4.8178137651814245e+07  4.8178137651814081e+07  4.8178137651816189e+07  4.8178137651816145e+07  4.8178137651816040e+07  4.8178137651816271e+07  4.8178137651816063e+07  4.8178137651815899e+07  4.8178137651815556e+07  4.8178137651815265e+07  4.8178137651814975e+07  4.8178137651814587e+07  4.8178137651814446e+07  4.8178137651814416e+07  4.8178137651814252e+07  4.8178137651814133e+07  4.8178137651813872e+07  4.8178137651816651e+07  4.8178137651816927e+07  4.8178137651817076e+07  4.8178137651816458e+07  4.8178137651816338e+07  4.8178137651815794e+07  4.8178137651815332e+07  4.8178137651815504e+07  4.8178137651815198e+07  4.8178137651814885e+07  4.8178137651814640e+07  4.8178137651814364e+07  4.8178137651814252e+07  4.8178137651813909e+07  4.8178137651813775e+07  4.8178137651816249e+07  4.8178137651816055e+07  4.8178137651815757e+07  4.8178137651816264e+07  4.8178137651816927e+07  4.8178137651816539e+07  4.8178137651816040e+07  4.8178137651815310e+07  4.8178137651815064e+07  4.8178137651815221e+07  4.8178137651815303e+07  4.8178137651815072e+07  4.8178137651814483e+07  4.8178137651814945e+07  4.8178137651814900e+07  4.8178137651816010e+07  4.8178137651816003e+07  4.8178137651816480e+07  4.8178137651816502e+07  4.8178137651815817e+07  4.8178137651815496e+07  4.8178137651815102e+07  4.8178137651815005e+07  4.8178137651815005e+07  4.8178137651814520e+07  4.8178137651814677e+07  4.8178137651815191e+07  4.8178137651814915e+07  4.8178137651814394e+07  4.8178137651814424e+07  4.8178137651816979e+07  4.8178137651816837e+07  4.8178137651816219e+07  4.8178137651815981e+07  4.8178137651815638e+07  4.8178137651815787e+07  4.8178137651816107e+07  4.8178137651815772e+07  4.8178137651815906e+07  4.8178137651815541e+07  4.8178137651813768e+07  4.8178137651812978e+07  4.8178137651813507e+07  4.8178137651813656e+07  4.8178137651813835e+07  4.8178137651815876e+07  4.8178137651816152e+07  4.8178137651816122e+07  4.8178137651816197e+07  4.8178137651816480e+07  4.8178137651816308e+07  4.8178137651815854e+07  4.8178137651815318e+07  4.8178137651814081e+07  4.8178137651814118e+07  4.8178137651815161e+07  4.8178137651815213e+07  4.8178137651814975e+07  4.8178137651814878e+07  4.8178137651814580e+07  4.8178137651816145e+07  4.8178137651815899e+07  4.8178137651815943e+07  4.8178137651815683e+07  4.8178137651815601e+07  4.8178137651815638e+07  4.8178137651815511e+07  4.8178137651815258e+07  4.8178137651815154e+07  4.8178137651815325e+07  4.8178137651814915e+07  4.8178137651814356e+07  4.8178137651814096e+07  4.8178137651814155e+07  4.8178137651814543e+07  4.8178137651816398e+07  4.8178137651816569e+07  4.8178137651816770e+07  4.8178137651816569e+07  4.8178137651816487e+07  4.8178137651815854e+07  4.8178137651815549e+07  4.8178137651816361e+07  4.8178137651815832e+07  4.8178137651814938e+07  4.8178137651815288e+07  4.8178137651815265e+07  4.8178137651814625e+07  4.8178137651814811e+07  4.8178137651814729e+07  4.8178137651815616e+07  4.8178137651815601e+07  4.8178137651816204e+07  4.8178137651816353e+07  4.8178137651816010e+07  4.8178137651815780e+07  4.8178137651814915e+07  4.8178137651813574e+07  4.8178137651815437e+07  4.8178137651816219e+07  4.8178137651815191e+07  4.8178137651814975e+07  4.8178137651815370e+07  4.8178137651814260e+07  4.8178137651813433e+07  4.8178137651817165e+07  4.8178137651816726e+07  4.8178137651815988e+07  4.8178137651815385e+07  4.8178137651816137e+07  4.8178137651817255e+07  4.8178137651818030e+07  4.8178137651817478e+07  4.8178137651815124e+07  4.8178137651814528e+07  4.8178137651814498e+07  4.8178137651814289e+07  4.8178137651814118e+07  4.8178137651814148e+07  4.8178137651814632e+07  4.8178137651816227e+07  4.8178137651815049e+07  4.8178137651815981e+07  4.8178137651817024e+07  4.8178137651816189e+07  4.8178137651815698e+07  4.8178137651814267e+07  4.8178137651814975e+07  4.8178137651816875e+07  4.8178137651816696e+07  4.8178137651816159e+07  4.8178137651816122e+07  4.8178137651816316e+07  4.8178137651816048e+07  4.8178137651815087e+07  4.8178137651817441e+07  4.8178137651819296e+07  4.8178137651817843e+07  4.8178137651815757e+07  4.8178137651815914e+07  4.8178137651814938e+07  4.8178137651815765e+07  4.8178137651816353e+07  4.8178137651815183e+07  4.8178137651813924e+07  4.8178137651814044e+07  4.8178137651814327e+07  4.8178137651814386e+07  4.8178137651813634e+07  4.8178137651813693e+07  4.8178137651815958e+07  4.8178137651816092e+07  4.8178137651815757e+07  4.8178137651816018e+07  4.8178137651816405e+07  4.8178137651816443e+07  4.8178137651816241e+07  4.8178137651816055e+07  4.8178137651815854e+07  4.8178137651815988e+07  4.8178137651815929e+07  4.8178137651815668e+07  4.8178137651815735e+07  4.8178137651816420e+07  4.8178137651815705e+07  4.8178137651816018e+07  4.8178137651815131e+07  4.8178137651816480e+07  4.8178137651816107e+07  4.8178137651814528e+07  4.8178137651814587e+07  4.8178137651814155e+07  4.8178137651814282e+07  4.8178137651815042e+07  4.8178137651814811e+07  4.8178137651814900e+07  4.8178137651816010e+07  4.8178137651816152e+07  4.8178137651814952e+07  4.8178137651815288e+07  4.8178137651816905e+07  4.8178137651815653e+07  4.8178137651815169e+07  4.8178137651816510e+07  4.8178137651816182e+07  4.8178137651815623e+07  4.8178137651816756e+07  4.8178137651816435e+07  4.8178137651816979e+07  4.8178137651817225e+07  4.8178137651815772e+07  4.8178137651814766e+07  4.8178137651814528e+07  4.8178137651815824e+07  4.8178137651816174e+07  4.8178137651817806e+07  4.8178137651817970e+07  4.8178137651817165e+07  4.8178137651815176e+07  4.8178137651814781e+07  4.8178137651815742e+07  4.8178137651814930e+07  4.8178137651816472e+07  4.8178137651816614e+07  4.8178137651816368e+07  4.8178137651816987e+07  4.8178137651814453e+07  4.8178137651814550e+07  4.8178137651816130e+07  4.8178137651815966e+07  4.8178137651814915e+07  4.8178137651814654e+07  4.8178137651814565e+07  4.8178137651814513e+07  4.8178137651814155e+07  4.8178137651815139e+07  4.8178137651817210e+07  4.8178137651816316e+07  4.8178137651814304e+07  4.8178137651813462e+07  4.8178137651813820e+07  4.8178137651816830e+07  4.8178137651816435e+07  4.8178137651814759e+07  4.8178137651814915e+07  4.8178137651816890e+07  4.8178137651816927e+07  4.8178137651818097e+07  4.8178137651818953e+07  4.8178137651819505e+07  4.8178137651818089e+07  4.8178137651816763e+07  4.8178137651816756e+07  4.8178137651816897e+07  4.8178137651817739e+07  4.8178137651816614e+07  4.8178137651814803e+07  4.8178137651815966e+07  4.8178137651815727e+07  4.8178137651814803e+07  4.8178137651817404e+07  4.8178137651817508e+07  4.8178137651816390e+07  4.8178137651814856e+07  4.8178137651815131e+07  4.8178137651815400e+07  4.8178137651816666e+07  4.8178137651817895e+07  4.8178137651816972e+07  4.8178137651815899e+07  4.8178137651817083e+07  4.8178137651817352e+07  4.8178137651816830e+07  4.8178137651817828e+07  4.8178137651817501e+07  4.8178137651817083e+07  4.8178137651817098e+07  4.8178137651816912e+07  4.8178137651817210e+07  4.8178137651815511e+07  4.8178137651816286e+07  4.8178137651815906e+07  4.8178137651814297e+07  4.8178137651815943e+07  4.8178137651815638e+07  4.8178137651814841e+07  4.8178137651815429e+07  4.8178137651813880e+07  4.8178137651813395e+07  4.8178137651815362e+07  4.8178137651819624e+07  4.8178137651818112e+07  4.8178137651816659e+07  4.8178137651816837e+07  4.8178137651816048e+07  4.8178137651815772e+07  4.8178137651816055e+07  4.8178137651815757e+07  4.8178137651815221e+07  4.8178137651817225e+07  4.8178137651816152e+07  4.8178137651813500e+07  4.8178137651816271e+07  4.8178137651816711e+07  4.8178137651815906e+07  4.8178137651816867e+07  4.8178137651816674e+07  4.8178137651817746e+07  4.8178137651817828e+07  4.8178137651820451e+07  4.8178137651819721e+07  4.8178137651816525e+07  4.8178137651816256e+07  4.8178137651817136e+07  4.8178137651816510e+07  4.8178137651816674e+07  4.8178137651818059e+07  4.8178137651816353e+07  4.8178137651816696e+07  4.8178137651816316e+07  4.8178137651817486e+07  4.8178137651817434e+07  4.8178137651818216e+07  4.8178137651819661e+07  4.8178137651816890e+07  4.8178137651818112e+07  4.8178137651820622e+07  4.8178137651820362e+07  4.8178137651818641e+07  4.8178137651817538e+07  4.8178137651817366e+07  4.8178137651816376e+07  4.8178137651816994e+07  4.8178137651816294e+07  4.8178137651816100e+07  4.8178137651819639e+07  4.8178137651820213e+07  4.8178137651817985e+07  4.8178137651815459e+07  4.8178137651816770e+07  4.8178137651815318e+07  4.8178137651816458e+07  4.8178137651817687e+07  4.8178137651815228e+07  4.8178137651814535e+07  4.8178137651816353e+07  4.8178137651818275e+07  4.8178137651816219e+07  4.8178137651815087e+07  4.8178137651814602e+07  4.8178137651815884e+07  4.8178137651817776e+07  4.8178137651820138e+07  4.8178137651821040e+07  4.8178137651817277e+07  4.8178137651817210e+07  4.8178137651817352e+07  4.8178137651816472e+07  4.8178137651816674e+07  4.8178137651815169e+07  4.8178137651814170e+07  4.8178137651814185e+07  4.8178137651814558e+07  4.8178137651814781e+07  4.8178137651816361e+07  4.8178137651822135e+07  4.8178137651818946e+07  4.8178137651817843e+07  4.8178137651817799e+07  4.8178137651817940e+07  4.8178137651816599e+07  4.8178137651815094e+07  4.8178137651816756e+07  4.8178137651816852e+07  4.8178137651817471e+07  4.8178137651816793e+07  4.8178137651814885e+07  4.8178137651817240e+07  4.8178137651818253e+07  4.8178137651816122e+07  4.8178137651818603e+07  4.8178137651819766e+07  4.8178137651818693e+07  4.8178137651818305e+07  4.8178137651822366e+07  4.8178137651821807e+07  4.8178137651817948e+07  4.8178137651817642e+07  4.8178137651820399e+07  4.8178137651819013e+07  4.8178137651817173e+07  4.8178137651817814e+07  4.8178137651815303e+07  4.8178137651812635e+07  4.8178137651815303e+07  4.8178137651820675e+07  4.8178137651819505e+07  4.8178137651820086e+07  4.8178137651821062e+07  4.8178137651816756e+07  4.8178137651816644e+07  4.8178137651820064e+07  4.8178137651819393e+07  4.8178137651817687e+07  4.8178137651818119e+07  4.8178137651817903e+07  4.8178137651817411e+07  4.8178137651817210e+07  4.8178137651820481e+07  4.8178137651820131e+07  4.8178137651819341e+07  4.8178137651821047e+07  4.8178137651821025e+07  4.8178137651818097e+07  4.8178137651820004e+07  4.8178137651821047e+07  4.8178137651819050e+07  4.8178137651817374e+07  4.8178137651817150e+07  4.8178137651816368e+07  4.8178137651817009e+07  4.8178137651816361e+07  4.8178137651815191e+07  4.8178137651813716e+07  4.8178137651814148e+07  4.8178137651821077e+07  4.8178137651821889e+07  4.8178137651821047e+07  4.8178137651821427e+07  4.8178137651819654e+07  4.8178137651821196e+07  4.8178137651818946e+07  4.8178137651816778e+07  4.8178137651815929e+07  4.8178137651814938e+07  4.8178137651815057e+07  4.8178137651816458e+07  4.8178137651818506e+07  4.8178137651816353e+07  4.8178137651814871e+07  4.8178137651821576e+07  4.8178137651818193e+07  4.8178137651817493e+07  4.8178137651816905e+07  4.8178137651818059e+07  4.8178137651816823e+07  4.8178137651816338e+07  4.8178137651819266e+07  4.8178137651817918e+07  4.8178137651816949e+07  4.8178137651813835e+07  4.8178137651812494e+07  4.8178137651814915e+07  4.8178137651816294e+07  4.8178137651817501e+07  4.8178137651819706e+07  4.8178137651820354e+07  4.8178137651821628e+07  4.8178137651822567e+07  4.8178137651821181e+07  4.8178137651820377e+07  4.8178137651820824e+07  4.8178137651818484e+07  4.8178137651818573e+07  4.8178137651818305e+07  4.8178137651818767e+07  4.8178137651818015e+07  4.8178137651814535e+07  4.8178137651816152e+07  4.8178137651817366e+07  4.8178137651822232e+07  4.8178137651822492e+07  4.8178137651821762e+07  4.8178137651820458e+07  4.8178137651819348e+07  4.8178137651819907e+07  4.8178137651820563e+07  4.8178137651820071e+07  4.8178137651817620e+07  4.8178137651818871e+07  4.8178137651818439e+07  4.8178137651817635e+07  4.8178137651820071e+07  4.8178137651818991e+07  4.8178137651816398e+07  4.8178137651820965e+07  4.8178137651820473e+07  4.8178137651819423e+07  4.8178137651821688e+07  4.8178137651826166e+07  4.8178137651822940e+07  4.8178137651819229e+07  4.8178137651818819e+07  4.8178137651820511e+07  4.8178137651819460e+07  4.8178137651820339e+07  4.8178137651821434e+07  4.8178137651819199e+07  4.8178137651816592e+07  4.8178137651815407e+07  4.8178137651821434e+07  4.8178137651821122e+07  4.8178137651822038e+07  4.8178137651822992e+07  4.8178137651822351e+07  4.8178137651822492e+07  4.8178137651820607e+07  4.8178137651819065e+07  4.8178137651816219e+07  4.8178137651816249e+07  4.8178137651814640e+07  4.8178137651811674e+07  4.8178137651812702e+07  4.8178137651813187e+07  4.8178137651814602e+07  4.8178137651823021e+07  4.8178137651822768e+07  4.8178137651824415e+07  4.8178137651824795e+07  4.8178137651822716e+07  4.8178137651822984e+07  4.8178137651820451e+07  4.8178137651817903e+07  4.8178137651818678e+07  4.8178137651816823e+07  4.8178137651816212e+07  4.8178137651815064e+07  4.8178137651814073e+07  4.8178137651817799e+07  4.8178137651819229e+07  4.8178137651821710e+07  4.8178137651825406e+07  4.8178137651822366e+07  4.8178137651820257e+07  4.8178137651819140e+07  4.8178137651815049e+07  4.8178137651818402e+07  4.8178137651819773e+07  4.8178137651816629e+07  4.8178137651817366e+07  4.8178137651818097e+07  4.8178137651819490e+07  4.8178137651819609e+07  4.8178137651814885e+07  4.8178137651812352e+07  4.8178137651822813e+07  4.8178137651820935e+07  4.8178137651822150e+07  4.8178137651821859e+07  4.8178137651824415e+07  4.8178137651825495e+07  4.8178137651821412e+07  4.8178137651821144e+07  4.8178137651821926e+07  4.8178137651818708e+07  4.8178137651814632e+07  4.8178137651814185e+07  4.8178137651814722e+07  4.8178137651815057e+07  4.8178137651813805e+07  4.8178137651820734e+07  4.8178137651820511e+07  4.8178137651824884e+07  4.8178137651827365e+07  4.8178137651823744e+07  4.8178137651820526e+07  4.8178137651820071e+07  4.8178137651818626e+07  4.8178137651817575e+07  4.8178137651818886e+07  4.8178137651822761e+07  4.8178137651821293e+07  4.8178137651815981e+07  4.8178137651814088e+07  4.8178137651814394e+07  4.8178137651826352e+07  4.8178137651824467e+07  4.8178137651820265e+07  4.8178137651818387e+07  4.8178137651820213e+07  4.8178137651822492e+07  4.8178137651822209e+07  4.8178137651820637e+07  4.8178137651817448e+07  4.8178137651815906e+07  4.8178137651813827e+07  4.8178137651814155e+07  4.8178137651817106e+07  4.8178137651819333e+07  4.8178137651822351e+07  4.8178137651818685e+07  4.8178137651821725e+07  4.8178137651823170e+07  4.8178137651824206e+07  4.8178137651821427e+07  4.8178137651820607e+07  4.8178137651820496e+07  4.8178137651819773e+07  4.8178137651822239e+07  4.8178137651821852e+07  4.8178137651819967e+07  4.8178137651818819e+07  4.8178137651816770e+07  4.8178137651815891e+07  4.8178137651813611e+07  4.8178137651824445e+07  4.8178137651823267e+07  4.8178137651825495e+07  4.8178137651823878e+07  4.8178137651822157e+07  4.8178137651821017e+07  4.8178137651818760e+07  4.8178137651817888e+07  4.8178137651818581e+07  4.8178137651819415e+07  4.8178137651819378e+07  4.8178137651818387e+07  4.8178137651817963e+07  4.8178137651817292e+07  4.8178137651816644e+07  4.8178137651823647e+07  4.8178137651823960e+07  4.8178137651819780e+07  4.8178137651820436e+07  4.8178137651823819e+07  4.8178137651823767e+07  4.8178137651823446e+07  4.8178137651822619e+07  4.8178137651819535e+07  4.8178137651817463e+07  4.8178137651819125e+07  4.8178137651820429e+07  4.8178137651817225e+07  4.8178137651815780e+07  4.8178137651817113e+07  4.8178137651822500e+07  4.8178137651820995e+07  4.8178137651825830e+07  4.8178137651827276e+07  4.8178137651823521e+07  4.8178137651820861e+07  4.8178137651819766e+07  4.8178137651818573e+07  4.8178137651817538e+07  4.8178137651817068e+07  4.8178137651814081e+07  4.8178137651814707e+07  4.8178137651816614e+07  4.8178137651816852e+07  4.8178137651815116e+07  4.8178137651824340e+07  4.8178137651825033e+07  4.8178137651821032e+07  4.8178137651818164e+07  4.8178137651823685e+07  4.8178137651826054e+07  4.8178137651820175e+07  4.8178137651816688e+07  4.8178137651818790e+07  4.8178137651820675e+07  4.8178137651820108e+07  4.8178137651818521e+07  4.8178137651817262e+07  4.8178137651815087e+07  4.8178137651816003e+07  4.8178137651820324e+07  4.8178137651821695e+07  4.8178137651824161e+07  4.8178137651828036e+07  4.8178137651820600e+07  4.8178137651816614e+07  4.8178137651824698e+07  4.8178137651827104e+07  4.8178137651822083e+07  4.8178137651817940e+07  4.8178137651815332e+07  4.8178137651816070e+07  4.8178137651817426e+07  4.8178137651819013e+07  4.8178137651816681e+07  4.8178137651820928e+07  4.8178137651821554e+07  4.8178137651823089e+07  4.8178137651819371e+07  4.8178137651822396e+07  4.8178137651824601e+07  4.8178137651821911e+07  4.8178137651820160e+07  4.8178137651821122e+07  4.8178137651823886e+07  4.8178137651824243e+07  4.8178137651821367e+07  4.8178137651821591e+07  4.8178137651817746e+07  4.8178137651818804e+07  4.8178137651821010e+07  4.8178137651830383e+07  4.8178137651821524e+07  4.8178137651826292e+07  4.8178137651824765e+07  4.8178137651823141e+07  4.8178137651821747e+07  4.8178137651821963e+07  4.8178137651822254e+07  4.8178137651819102e+07  4.8178137651818417e+07  4.8178137651823446e+07  4.8178137651813485e+07  4.8178137651819997e+07  4.8178137651815787e+07  4.8178137651839614e+07  4.8178137651790179e+07  4.8178137651842140e+07  4.8178137651807897e+07  4.8178137651824117e+07  4.8178137651821651e+07  4.8178137651821882e+07  4.8178137651820183e+07  4.8178137651819408e+07  4.8178137651821800e+07  4.8178137651824698e+07  4.8178137651804060e+07  4.8178137651840672e+07  4.8178137651794791e+07  4.8178137651832066e+07  4.8178137651718833e+07  4.8178137652028203e+07  4.8178137651668057e+07  4.8178137651885271e+07  4.8178137651816353e+07  4.8178137651826449e+07  4.8178137651829757e+07  4.8178137651826724e+07  4.8178137651823454e+07  4.8178137651817530e+07  4.8178137651809700e+07  4.8178137651883878e+07  4.8178137651669040e+07  4.8178137652024090e+07  4.8178137651722454e+07  4.8178137654138878e+07  4.8178137651621468e+07  4.8178137654212467e+07  4.8178137653060794e+07  4.8178137653232366e+07  4.8178137653267786e+07  4.8178137653250426e+07  4.8178137653257132e+07  4.8178137653256223e+07  4.8178137653274700e+07  4.8178137653233483e+07  4.8178137653058298e+07  4.8178137654205732e+07  4.8178137651615411e+07  4.8178137654132664e+07  4.8178138162381582e+07  4.8178138185436249e+07  4.8178138167062536e+07  4.8178138171168312e+07  4.8178138171935640e+07  4.8178138171655476e+07  4.8178138171716750e+07  4.8178138171702504e+07  4.8178138171710797e+07  4.8178138171650447e+07  4.8178138171937242e+07  4.8178138171170808e+07  4.8178138167066440e+07  4.8178138185440771e+07  4.8178138162382387e+07  4.8178326172746226e+07  4.8178325936613098e+07  4.8178326055277929e+07  4.8178326075840704e+07  4.8178326071217917e+07  4.8178326071981788e+07  4.8178326071862519e+07  4.8178326071886882e+07  4.8178326071866885e+07  4.8178326071981780e+07  4.8178326071214639e+07  4.8178326075834975e+07  4.8178326055273160e+07  4.8178325936612681e+07  4.8178326172749080e+07  4.8246422392404333e+07  4.8246425447920658e+07  4.8246426123488881e+07  4.8246426052055404e+07  4.8246426060401522e+07  4.8246426059367888e+07  4.8246426059499495e+07  4.8246426059477828e+07  4.8246426059499219e+07  4.8246426059364803e+07  4.8246426060398035e+07  4.8246426052057318e+07  4.8246426123490468e+07  4.8246425447918236e+07  4.8246422392399460e+07  4.8407461647654518e+07  4.8407476880561747e+07  4.8407476268531196e+07  4.8407476316914722e+07  4.8407476312313996e+07  4.8407476312822670e+07  4.8407476312762663e+07  4.8407476312773190e+07  4.8407476312764868e+07  4.8407476312826030e+07  4.8407476312317491e+07  4.8407476316916503e+07  4.8407476268533602e+07  4.8407476880564027e+07  4.8407461647654027e+07  </DataArray> 
</PointData> 
</Piece>
</UnstructuredGrid>
</VTKFile>