<?xml version="1.0"?>
<VTKFile type="UnstructuredGrid"  version="0.1"  >
<UnstructuredGrid>
<Piece  NumberOfPoints="431" NumberOfCells="800">
<Points>
<DataArray  type="Float64"  NumberOfComponents="3"  format="ascii">-0.75 -3 0  -0.6 -3 0  -0.45 -3 0  -0.3 -3 0  -0.15 -3 0  0 -3 0  0.15 -3 0  0.3 -3 0  0.45 -3 0  0.6000000000000001 -3 0  0.75 -3 0  -0.75 -2.85 0  -0.6 -2.85 0  -0.45 -2.85 0  -0.3 -2.85 0  -0.15 -2.85 0  0 -2.85 0  0.15 -2.85 0  0.3 -2.85 0  0.45 -2.85 0  0.6000000000000001 -2.85 0  0.75 -2.85 0  -0.75 -2.7 0  -0.6 -2.7 0  -0.45 -2.7 0  -0.3 -2.7 0  -0.15 -2.7 0  0 -2.7 0  0.15 -2.7 0  0.3 -2.7 0  0.45 -2.7 0  0.6000000000000001 -2.7 0  0.75 -2.7 0  -0.75 -2.55 0  -0.6 -2.55 0  -0.45 -2.55 0  -0.3 -2.55 0  -0.15 -2.55 0  0 -2.55 0  0.15 -2.55 0  0.3 -2.55 0  0.45 -2.55 0  0.6000000000000001 -2.55 0  0.75 -2.55 0  -0.75 -2.4 0  -0.6 -2.4 0  -0.45 -2.4 0  -0.3 -2.4 0  -0.15 -2.4 0  0 -2.4 0  0.15 -2.4 0  0.3 -2.4 0  0.45 -2.4 0  0.6000000000000001 -2.4 0  0.75 -2.4 0  -0.75 -2.25 0  -0.6 -2.25 0  -0.45 -2.25 0  -0.3 -2.25 0  -0.15 -2.25 0  0 -2.25 0  0.15 -2.25 0  0.3 -2.25 0  0.45 -2.25 0  0.6000000000000001 -2.25 0  0.75 -2.25 0  -0.75 -2.1 0  -0.6 -2.1 0  -0.45 -2.1 0  -0.3 -2.1 0  -0.15 -2.1 0  0 -2.1 0  0.15 -2.1 0  0.3 -2.1 0  0.45 -2.1 0  0.6000000000000001 -2.1 0  0.75 -2.1 0  -0.75 -1.95 0  -0.6 -1.95 0  -0.45 -1.95 0  -0.3 -1.95 0  -0.15 -1.95 0  0 -1.95 0  0.15 -1.95 0  0.3 -1.95 0  0.45 -1.95 0  0.6000000000000001 -1.95 0  0.75 -1.95 0  -0.75 -1.8 0  -0.6 -1.8 0  -0.45 -1.8 0  -0.3 -1.8 0  -0.15 -1.8 0  0 -1.8 0  0.15 -1.8 0  0.3 -1.8 0  0.45 -1.8 0  0.6000000000000001 -1.8 0  0.75 -1.8 0  -0.75 -1.65 0  -0.6 -1.65 0  -0.45 -1.65 0  -0.3 -1.65 0  -0.15 -1.65 0  0 -1.65 0  0.15 -1.65 0  0.3 -1.65 0  0.45 -1.65 0  0.6000000000000001 -1.65 0  0.75 -1.65 0  -0.75 -1.5 0  -0.6 -1.5 0  -0.45 -1.5 0  -0.3 -1.5 0  -0.15 -1.5 0  0 -1.5 0  0.15 -1.5 0  0.3 -1.5 0  0.45 -1.5 0  0.6000000000000001 -1.5 0  0.75 -1.5 0  -0.75 -1.35 0  -0.6 -1.35 0  -0.45 -1.35 0  -0.3 -1.35 0  -0.15 -1.35 0  0 -1.35 0  0.15 -1.35 0  0.3 -1.35 0  0.45 -1.35 0  0.6000000000000001 -1.35 0  0.75 -1.35 0  -0.75 -1.2 0  -0.6 -1.2 0  -0.45 -1.2 0  -0.3 -1.2 0  -0.15 -1.2 0  0 -1.2 0  0.15 -1.2 0  0.3 -1.2 0  0.45 -1.2 0  0.6000000000000001 -1.2 0  0.75 -1.2 0  -0.75 -1.05 0  -0.6 -1.05 0  -0.45 -1.05 0  -0.3 -1.05 0  -0.15 -1.05 0  0 -1.05 0  0.15 -1.05 0  0.3 -1.05 0  0.45 -1.05 0  0.6000000000000001 -1.05 0  0.75 -1.05 0  -0.75 -0.8999999999999999 0  -0.6 -0.8999999999999999 0  -0.45 -0.8999999999999999 0  -0.3 -0.8999999999999999 0  -0.15 -0.8999999999999999 0  0 -0.8999999999999999 0  0.15 -0.8999999999999999 0  0.3 -0.8999999999999999 0  0.45 -0.8999999999999999 0  0.6000000000000001 -0.8999999999999999 0  0.75 -0.8999999999999999 0  -0.75 -0.75 0  -0.6 -0.75 0  -0.45 -0.75 0  -0.3 -0.75 0  -0.15 -0.75 0  0 -0.75 0  0.15 -0.75 0  0.3 -0.75 0  0.45 -0.75 0  0.6000000000000001 -0.75 0  0.75 -0.75 0  -0.75 -0.6000000000000001 0  -0.6 -0.6000000000000001 0  -0.45 -0.6000000000000001 0  -0.3 -0.6000000000000001 0  -0.15 -0.6000000000000001 0  0 -0.6000000000000001 0  0.15 -0.6000000000000001 0  0.3 -0.6000000000000001 0  0.45 -0.6000000000000001 0  0.6000000000000001 -0.6000000000000001 0  0.75 -0.6000000000000001 0  -0.75 -0.4500000000000002 0  -0.6 -0.4500000000000002 0  -0.45 -0.4500000000000002 0  -0.3 -0.4500000000000002 0  -0.15 -0.4500000000000002 0  0 -0.4500000000000002 0  0.15 -0.4500000000000002 0  0.3 -0.4500000000000002 0  0.45 -0.4500000000000002 0  0.6000000000000001 -0.4500000000000002 0  0.75 -0.4500000000000002 0  -0.75 -0.2999999999999998 0  -0.6 -0.2999999999999998 0  -0.45 -0.2999999999999998 0  -0.3 -0.2999999999999998 0  -0.15 -0.2999999999999998 0  0 -0.2999999999999998 0  0.15 -0.2999999999999998 0  0.3 -0.2999999999999998 0  0.45 -0.2999999999999998 0  0.6000000000000001 -0.2999999999999998 0  0.75 -0.2999999999999998 0  -0.75 -0.1499999999999999 0  -0.6 -0.1499999999999999 0  -0.45 -0.1499999999999999 0  -0.3 -0.1499999999999999 0  -0.15 -0.1499999999999999 0  0 -0.1499999999999999 0  0.15 -0.1499999999999999 0  0.3 -0.1499999999999999 0  0.45 -0.1499999999999999 0  0.6000000000000001 -0.1499999999999999 0  0.75 -0.1499999999999999 0  -0.75 0 0  -0.6 0 0  -0.45 0 0  -0.3 0 0  -0.15 0 0  0 0 0  0.15 0 0  0.3 0 0  0.45 0 0  0.6000000000000001 0 0  0.75 0 0  -0.675 -2.925 0  -0.525 -2.925 0  -0.375 -2.925 0  -0.225 -2.925 0  -0.07499999999999996 -2.925 0  0.07499999999999996 -2.925 0  0.225 -2.925 0  0.375 -2.925 0  0.5249999999999999 -2.925 0  0.675 -2.925 0  -0.675 -2.775 0  -0.525 -2.775 0  -0.375 -2.775 0  -0.225 -2.775 0  -0.07499999999999996 -2.775 0  0.07499999999999996 -2.775 0  0.225 -2.775 0  0.375 -2.775 0  0.5249999999999999 -2.775 0  0.675 -2.775 0  -0.675 -2.625 0  -0.525 -2.625 0  -0.375 -2.625 0  -0.225 -2.625 0  -0.07499999999999996 -2.625 0  0.07499999999999996 -2.625 0  0.225 -2.625 0  0.375 -2.625 0  0.5249999999999999 -2.625 0  0.675 -2.625 0  -0.675 -2.475 0  -0.525 -2.475 0  -0.375 -2.475 0  -0.225 -2.475 0  -0.07499999999999996 -2.475 0  0.07499999999999996 -2.475 0  0.225 -2.475 0  0.375 -2.475 0  0.5249999999999999 -2.475 0  0.675 -2.475 0  -0.675 -2.325 0  -0.525 -2.325 0  -0.375 -2.325 0  -0.225 -2.325 0  -0.07499999999999996 -2.325 0  0.07499999999999996 -2.325 0  0.225 -2.325 0  0.375 -2.325 0  0.5249999999999999 -2.325 0  0.675 -2.325 0  -0.675 -2.175 0  -0.525 -2.175 0  -0.375 -2.175 0  -0.225 -2.175 0  -0.07499999999999996 -2.175 0  0.07499999999999996 -2.175 0  0.225 -2.175 0  0.375 -2.175 0  0.5249999999999999 -2.175 0  0.675 -2.175 0  -0.675 -2.025 0  -0.525 -2.025 0  -0.375 -2.025 0  -0.225 -2.025 0  -0.07499999999999996 -2.025 0  0.07499999999999996 -2.025 0  0.225 -2.025 0  0.375 -2.025 0  0.5249999999999999 -2.025 0  0.675 -2.025 0  -0.675 -1.875 0  -0.525 -1.875 0  -0.375 -1.875 0  -0.225 -1.875 0  -0.07499999999999996 -1.875 0  0.07499999999999996 -1.875 0  0.225 -1.875 0  0.375 -1.875 0  0.5249999999999999 -1.875 0  0.675 -1.875 0  -0.675 -1.725 0  -0.525 -1.725 0  -0.375 -1.725 0  -0.225 -1.725 0  -0.07499999999999996 -1.725 0  0.07499999999999996 -1.725 0  0.225 -1.725 0  0.375 -1.725 0  0.5249999999999999 -1.725 0  0.675 -1.725 0  -0.675 -1.575 0  -0.525 -1.575 0  -0.375 -1.575 0  -0.225 -1.575 0  -0.07499999999999996 -1.575 0  0.07499999999999996 -1.575 0  0.225 -1.575 0  0.375 -1.575 0  0.5249999999999999 -1.575 0  0.675 -1.575 0  -0.675 -1.425 0  -0.525 -1.425 0  -0.375 -1.425 0  -0.225 -1.425 0  -0.07499999999999996 -1.425 0  0.07499999999999996 -1.425 0  0.225 -1.425 0  0.375 -1.425 0  0.5249999999999999 -1.425 0  0.675 -1.425 0  -0.675 -1.275 0  -0.525 -1.275 0  -0.375 -1.275 0  -0.225 -1.275 0  -0.07499999999999996 -1.275 0  0.07499999999999996 -1.275 0  0.225 -1.275 0  0.375 -1.275 0  0.5249999999999999 -1.275 0  0.675 -1.275 0  -0.675 -1.125 0  -0.525 -1.125 0  -0.375 -1.125 0  -0.225 -1.125 0  -0.07499999999999996 -1.125 0  0.07499999999999996 -1.125 0  0.225 -1.125 0  0.375 -1.125 0  0.5249999999999999 -1.125 0  0.675 -1.125 0  -0.675 -0.9750000000000001 0  -0.525 -0.9750000000000001 0  -0.375 -0.9750000000000001 0  -0.225 -0.9750000000000001 0  -0.07499999999999996 -0.9750000000000001 0  0.07499999999999996 -0.9750000000000001 0  0.225 -0.9750000000000001 0  0.375 -0.9750000000000001 0  0.5249999999999999 -0.9750000000000001 0  0.675 -0.9750000000000001 0  -0.675 -0.8250000000000002 0  -0.525 -0.8250000000000002 0  -0.375 -0.8250000000000002 0  -0.225 -0.8250000000000002 0  -0.07499999999999996 -0.8250000000000002 0  0.07499999999999996 -0.8250000000000002 0  0.225 -0.8250000000000002 0  0.375 -0.8250000000000002 0  0.5249999999999999 -0.8250000000000002 0  0.675 -0.8250000000000002 0  -0.675 -0.6749999999999998 0  -0.525 -0.6749999999999998 0  -0.375 -0.6749999999999998 0  -0.225 -0.6749999999999998 0  -0.07499999999999996 -0.6749999999999998 0  0.07499999999999996 -0.6749999999999998 0  0.225 -0.6749999999999998 0  0.375 -0.6749999999999998 0  0.5249999999999999 -0.6749999999999998 0  0.675 -0.6749999999999998 0  -0.675 -0.5249999999999999 0  -0.525 -0.5249999999999999 0  -0.375 -0.5249999999999999 0  -0.225 -0.5249999999999999 0  -0.07499999999999996 -0.5249999999999999 0  0.07499999999999996 -0.5249999999999999 0  0.225 -0.5249999999999999 0  0.375 -0.5249999999999999 0  0.5249999999999999 -0.5249999999999999 0  0.675 -0.5249999999999999 0  -0.675 -0.375 0  -0.525 -0.375 0  -0.375 -0.375 0  -0.225 -0.375 0  -0.07499999999999996 -0.375 0  0.07499999999999996 -0.375 0  0.225 -0.375 0  0.375 -0.375 0  0.5249999999999999 -0.375 0  0.675 -0.375 0  -0.675 -0.2250000000000001 0  -0.525 -0.2250000000000001 0  -0.375 -0.2250000000000001 0  -0.225 -0.2250000000000001 0  -0.07499999999999996 -0.2250000000000001 0  0.07499999999999996 -0.2250000000000001 0  0.225 -0.2250000000000001 0  0.375 -0.2250000000000001 0  0.5249999999999999 -0.2250000000000001 0  0.675 -0.2250000000000001 0  -0.675 -0.07500000000000018 0  -0.525 -0.07500000000000018 0  -0.375 -0.07500000000000018 0  -0.225 -0.07500000000000018 0  -0.07499999999999996 -0.07500000000000018 0  0.07499999999999996 -0.07500000000000018 0  0.225 -0.07500000000000018 0  0.375 -0.07500000000000018 0  0.5249999999999999 -0.07500000000000018 0  0.675 -0.07500000000000018 0  </DataArray>
</Points>
<Cells>
<DataArray  type="UInt32"  Name="connectivity"  format="ascii">0 1 231  0 11 231  1 12 231  11 12 231  1 2 232  1 12 232  2 13 232  12 13 232  2 3 233  2 13 233  3 14 233  13 14 233  3 4 234  3 14 234  4 15 234  14 15 234  4 5 235  4 15 235  5 16 235  15 16 235  5 6 236  5 16 236  6 17 236  16 17 236  6 7 237  6 17 237  7 18 237  17 18 237  7 8 238  7 18 238  8 19 238  18 19 238  8 9 239  8 19 239  9 20 239  19 20 239  9 10 240  9 20 240  10 21 240  20 21 240  11 12 241  11 22 241  12 23 241  22 23 241  12 13 242  12 23 242  13 24 242  23 24 242  13 14 243  13 24 243  14 25 243  24 25 243  14 15 244  14 25 244  15 26 244  25 26 244  15 16 245  15 26 245  16 27 245  26 27 245  16 17 246  16 27 246  17 28 246  27 28 246  17 18 247  17 28 247  18 29 247  28 29 247  18 19 248  18 29 248  19 30 248  29 30 248  19 20 249  19 30 249  20 31 249  30 31 249  20 21 250  20 31 250  21 32 250  31 32 250  22 23 251  22 33 251  23 34 251  33 34 251  23 24 252  23 34 252  24 35 252  34 35 252  24 25 253  24 35 253  25 36 253  35 36 253  25 26 254  25 36 254  26 37 254  36 37 254  26 27 255  26 37 255  27 38 255  37 38 255  27 28 256  27 38 256  28 39 256  38 39 256  28 29 257  28 39 257  29 40 257  39 40 257  29 30 258  29 40 258  30 41 258  40 41 258  30 31 259  30 41 259  31 42 259  41 42 259  31 32 260  31 42 260  32 43 260  42 43 260  33 34 261  33 44 261  34 45 261  44 45 261  34 35 262  34 45 262  35 46 262  45 46 262  35 36 263  35 46 263  36 47 263  46 47 263  36 37 264  36 47 264  37 48 264  47 48 264  37 38 265  37 48 265  38 49 265  48 49 265  38 39 266  38 49 266  39 50 266  49 50 266  39 40 267  39 50 267  40 51 267  50 51 267  40 41 268  40 51 268  41 52 268  51 52 268  41 42 269  41 52 269  42 53 269  52 53 269  42 43 270  42 53 270  43 54 270  53 54 270  44 45 271  44 55 271  45 56 271  55 56 271  45 46 272  45 56 272  46 57 272  56 57 272  46 47 273  46 57 273  47 58 273  57 58 273  47 48 274  47 58 274  48 59 274  58 59 274  48 49 275  48 59 275  49 60 275  59 60 275  49 50 276  49 60 276  50 61 276  60 61 276  50 51 277  50 61 277  51 62 277  61 62 277  51 52 278  51 62 278  52 63 278  62 63 278  52 53 279  52 63 279  53 64 279  63 64 279  53 54 280  53 64 280  54 65 280  64 65 280  55 56 281  55 66 281  56 67 281  66 67 281  56 57 282  56 67 282  57 68 282  67 68 282  57 58 283  57 68 283  58 69 283  68 69 283  58 59 284  58 69 284  59 70 284  69 70 284  59 60 285  59 70 285  60 71 285  70 71 285  60 61 286  60 71 286  61 72 286  71 72 286  61 62 287  61 72 287  62 73 287  72 73 287  62 63 288  62 73 288  63 74 288  73 74 288  63 64 289  63 74 289  64 75 289  74 75 289  64 65 290  64 75 290  65 76 290  75 76 290  66 67 291  66 77 291  67 78 291  77 78 291  67 68 292  67 78 292  68 79 292  78 79 292  68 69 293  68 79 293  69 80 293  79 80 293  69 70 294  69 80 294  70 81 294  80 81 294  70 71 295  70 81 295  71 82 295  81 82 295  71 72 296  71 82 296  72 83 296  82 83 296  72 73 297  72 83 297  73 84 297  83 84 297  73 74 298  73 84 298  74 85 298  84 85 298  74 75 299  74 85 299  75 86 299  85 86 299  75 76 300  75 86 300  76 87 300  86 87 300  77 78 301  77 88 301  78 89 301  88 89 301  78 79 302  78 89 302  79 90 302  89 90 302  79 80 303  79 90 303  80 91 303  90 91 303  80 81 304  80 91 304  81 92 304  91 92 304  81 82 305  81 92 305  82 93 305  92 93 305  82 83 306  82 93 306  83 94 306  93 94 306  83 84 307  83 94 307  84 95 307  94 95 307  84 85 308  84 95 308  85 96 308  95 96 308  85 86 309  85 96 309  86 97 309  96 97 309  86 87 310  86 97 310  87 98 310  97 98 310  88 89 311  88 99 311  89 100 311  99 100 311  89 90 312  89 100 312  90 101 312  100 101 312  90 91 313  90 101 313  91 102 313  101 102 313  91 92 314  91 102 314  92 103 314  102 103 314  92 93 315  92 103 315  93 104 315  103 104 315  93 94 316  93 104 316  94 105 316  104 105 316  94 95 317  94 105 317  95 106 317  105 106 317  95 96 318  95 106 318  96 107 318  106 107 318  96 97 319  96 107 319  97 108 319  107 108 319  97 98 320  97 108 320  98 109 320  108 109 320  99 100 321  99 110 321  100 111 321  110 111 321  100 101 322  100 111 322  101 112 322  111 112 322  101 102 323  101 112 323  102 113 323  112 113 323  102 103 324  102 113 324  103 114 324  113 114 324  103 104 325  103 114 325  104 115 325  114 115 325  104 105 326  104 115 326  105 116 326  115 116 326  105 106 327  105 116 327  106 117 327  116 117 327  106 107 328  106 117 328  107 118 328  117 118 328  107 108 329  107 118 329  108 119 329  118 119 329  108 109 330  108 119 330  109 120 330  119 120 330  110 111 331  110 121 331  111 122 331  121 122 331  111 112 332  111 122 332  112 123 332  122 123 332  112 113 333  112 123 333  113 124 333  123 124 333  113 114 334  113 124 334  114 125 334  124 125 334  114 115 335  114 125 335  115 126 335  125 126 335  115 116 336  115 126 336  116 127 336  126 127 336  116 117 337  116 127 337  117 128 337  127 128 337  117 118 338  117 128 338  118 129 338  128 129 338  118 119 339  118 129 339  119 130 339  129 130 339  119 120 340  119 130 340  120 131 340  130 131 340  121 122 341  121 132 341  122 133 341  132 133 341  122 123 342  122 133 342  123 134 342  133 134 342  123 124 343  123 134 343  124 135 343  134 135 343  124 125 344  124 135 344  125 136 344  135 136 344  125 126 345  125 136 345  126 137 345  136 137 345  126 127 346  126 137 346  127 138 346  137 138 346  127 128 347  127 138 347  128 139 347  138 139 347  128 129 348  128 139 348  129 140 348  139 140 348  129 130 349  129 140 349  130 141 349  140 141 349  130 131 350  130 141 350  131 142 350  141 142 350  132 133 351  132 143 351  133 144 351  143 144 351  133 134 352  133 144 352  134 145 352  144 145 352  134 135 353  134 145 353  135 146 353  145 146 353  135 136 354  135 146 354  136 147 354  146 147 354  136 137 355  136 147 355  137 148 355  147 148 355  137 138 356  137 148 356  138 149 356  148 149 356  138 139 357  138 149 357  139 150 357  149 150 357  139 140 358  139 150 358  140 151 358  150 151 358  140 141 359  140 151 359  141 152 359  151 152 359  141 142 360  141 152 360  142 153 360  152 153 360  143 144 361  143 154 361  144 155 361  154 155 361  144 145 362  144 155 362  145 156 362  155 156 362  145 146 363  145 156 363  146 157 363  156 157 363  146 147 364  146 157 364  147 158 364  157 158 364  147 148 365  147 158 365  148 159 365  158 159 365  148 149 366  148 159 366  149 160 366  159 160 366  149 150 367  149 160 367  150 161 367  160 161 367  150 151 368  150 161 368  151 162 368  161 162 368  151 152 369  151 162 369  152 163 369  162 163 369  152 153 370  152 163 370  153 164 370  163 164 370  154 155 371  154 165 371  155 166 371  165 166 371  155 156 372  155 166 372  156 167 372  166 167 372  156 157 373  156 167 373  157 168 373  167 168 373  157 158 374  157 168 374  158 169 374  168 169 374  158 159 375  158 169 375  159 170 375  169 170 375  159 160 376  159 170 376  160 171 376  170 171 376  160 161 377  160 171 377  161 172 377  171 172 377  161 162 378  161 172 378  162 173 378  172 173 378  162 163 379  162 173 379  163 174 379  173 174 379  163 164 380  163 174 380  164 175 380  174 175 380  165 166 381  165 176 381  166 177 381  176 177 381  166 167 382  166 177 382  167 178 382  177 178 382  167 168 383  167 178 383  168 179 383  178 179 383  168 169 384  168 179 384  169 180 384  179 180 384  169 170 385  169 180 385  170 181 385  180 181 385  170 171 386  170 181 386  171 182 386  181 182 386  171 172 387  171 182 387  172 183 387  182 183 387  172 173 388  172 183 388  173 184 388  183 184 388  173 174 389  173 184 389  174 185 389  184 185 389  174 175 390  174 185 390  175 186 390  185 186 390  176 177 391  176 187 391  177 188 391  187 188 391  177 178 392  177 188 392  178 189 392  188 189 392  178 179 393  178 189 393  179 190 393  189 190 393  179 180 394  179 190 394  180 191 394  190 191 394  180 181 395  180 191 395  181 192 395  191 192 395  181 182 396  181 192 396  182 193 396  192 193 396  182 183 397  182 193 397  183 194 397  193 194 397  183 184 398  183 194 398  184 195 398  194 195 398  184 185 399  184 195 399  185 196 399  195 196 399  185 186 400  185 196 400  186 197 400  196 197 400  187 188 401  187 198 401  188 199 401  198 199 401  188 189 402  188 199 402  189 200 402  199 200 402  189 190 403  189 200 403  190 201 403  200 201 403  190 191 404  190 201 404  191 202 404  201 202 404  191 192 405  191 202 405  192 203 405  202 203 405  192 193 406  192 203 406  193 204 406  203 204 406  193 194 407  193 204 407  194 205 407  204 205 407  194 195 408  194 205 408  195 206 408  205 206 408  195 196 409  195 206 409  196 207 409  206 207 409  196 197 410  196 207 410  197 208 410  207 208 410  198 199 411  198 209 411  199 210 411  209 210 411  199 200 412  199 210 412  200 211 412  210 211 412  200 201 413  200 211 413  201 212 413  211 212 413  201 202 414  201 212 414  202 213 414  212 213 414  202 203 415  202 213 415  203 214 415  213 214 415  203 204 416  203 214 416  204 215 416  214 215 416  204 205 417  204 215 417  205 216 417  215 216 417  205 206 418  205 216 418  206 217 418  216 217 418  206 207 419  206 217 419  207 218 419  217 218 419  207 208 420  207 218 420  208 219 420  218 219 420  209 210 421  209 220 421  210 221 421  220 221 421  210 211 422  210 221 422  211 222 422  221 222 422  211 212 423  211 222 423  212 223 423  222 223 423  212 213 424  212 223 424  213 224 424  223 224 424  213 214 425  213 224 425  214 225 425  224 225 425  214 215 426  214 225 426  215 226 426  225 226 426  215 216 427  215 226 427  216 227 427  226 227 427  216 217 428  216 227 428  217 228 428  227 228 428  217 218 429  217 228 429  218 229 429  228 229 429  218 219 430  218 229 430  219 230 430  229 230 430  </DataArray>
<DataArray  type="UInt32"  Name="offsets"  format="ascii">3 6 9 12 15 18 21 24 27 30 33 36 39 42 45 48 51 54 57 60 63 66 69 72 75 78 81 84 87 90 93 96 99 102 105 108 111 114 117 120 123 126 129 132 135 138 141 144 147 150 153 156 159 162 165 168 171 174 177 180 183 186 189 192 195 198 201 204 207 210 213 216 219 222 225 228 231 234 237 240 243 246 249 252 255 258 261 264 267 270 273 276 279 282 285 288 291 294 297 300 303 306 309 312 315 318 321 324 327 330 333 336 339 342 345 348 351 354 357 360 363 366 369 372 375 378 381 384 387 390 393 396 399 402 405 408 411 414 417 420 423 426 429 432 435 438 441 444 447 450 453 456 459 462 465 468 471 474 477 480 483 486 489 492 495 498 501 504 507 510 513 516 519 522 525 528 531 534 537 540 543 546 549 552 555 558 561 564 567 570 573 576 579 582 585 588 591 594 597 600 603 606 609 612 615 618 621 624 627 630 633 636 639 642 645 648 651 654 657 660 663 666 669 672 675 678 681 684 687 690 693 696 699 702 705 708 711 714 717 720 723 726 729 732 735 738 741 744 747 750 753 756 759 762 765 768 771 774 777 780 783 786 789 792 795 798 801 804 807 810 813 816 819 822 825 828 831 834 837 840 843 846 849 852 855 858 861 864 867 870 873 876 879 882 885 888 891 894 897 900 903 906 909 912 915 918 921 924 927 930 933 936 939 942 945 948 951 954 957 960 963 966 969 972 975 978 981 984 987 990 993 996 999 1002 1005 1008 1011 1014 1017 1020 1023 1026 1029 1032 1035 1038 1041 1044 1047 1050 1053 1056 1059 1062 1065 1068 1071 1074 1077 1080 1083 1086 1089 1092 1095 1098 1101 1104 1107 1110 1113 1116 1119 1122 1125 1128 1131 1134 1137 1140 1143 1146 1149 1152 1155 1158 1161 1164 1167 1170 1173 1176 1179 1182 1185 1188 1191 1194 1197 1200 1203 1206 1209 1212 1215 1218 1221 1224 1227 1230 1233 1236 1239 1242 1245 1248 1251 1254 1257 1260 1263 1266 1269 1272 1275 1278 1281 1284 1287 1290 1293 1296 1299 1302 1305 1308 1311 1314 1317 1320 1323 1326 1329 1332 1335 1338 1341 1344 1347 1350 1353 1356 1359 1362 1365 1368 1371 1374 1377 1380 1383 1386 1389 1392 1395 1398 1401 1404 1407 1410 1413 1416 1419 1422 1425 1428 1431 1434 1437 1440 1443 1446 1449 1452 1455 1458 1461 1464 1467 1470 1473 1476 1479 1482 1485 1488 1491 1494 1497 1500 1503 1506 1509 1512 1515 1518 1521 1524 1527 1530 1533 1536 1539 1542 1545 1548 1551 1554 1557 1560 1563 1566 1569 1572 1575 1578 1581 1584 1587 1590 1593 1596 1599 1602 1605 1608 1611 1614 1617 1620 1623 1626 1629 1632 1635 1638 1641 1644 1647 1650 1653 1656 1659 1662 1665 1668 1671 1674 1677 1680 1683 1686 1689 1692 1695 1698 1701 1704 1707 1710 1713 1716 1719 1722 1725 1728 1731 1734 1737 1740 1743 1746 1749 1752 1755 1758 1761 1764 1767 1770 1773 1776 1779 1782 1785 1788 1791 1794 1797 1800 1803 1806 1809 1812 1815 1818 1821 1824 1827 1830 1833 1836 1839 1842 1845 1848 1851 1854 1857 1860 1863 1866 1869 1872 1875 1878 1881 1884 1887 1890 1893 1896 1899 1902 1905 1908 1911 1914 1917 1920 1923 1926 1929 1932 1935 1938 1941 1944 1947 1950 1953 1956 1959 1962 1965 1968 1971 1974 1977 1980 1983 1986 1989 1992 1995 1998 2001 2004 2007 2010 2013 2016 2019 2022 2025 2028 2031 2034 2037 2040 2043 2046 2049 2052 2055 2058 2061 2064 2067 2070 2073 2076 2079 2082 2085 2088 2091 2094 2097 2100 2103 2106 2109 2112 2115 2118 2121 2124 2127 2130 2133 2136 2139 2142 2145 2148 2151 2154 2157 2160 2163 2166 2169 2172 2175 2178 2181 2184 2187 2190 2193 2196 2199 2202 2205 2208 2211 2214 2217 2220 2223 2226 2229 2232 2235 2238 2241 2244 2247 2250 2253 2256 2259 2262 2265 2268 2271 2274 2277 2280 2283 2286 2289 2292 2295 2298 2301 2304 2307 2310 2313 2316 2319 2322 2325 2328 2331 2334 2337 2340 2343 2346 2349 2352 2355 2358 2361 2364 2367 2370 2373 2376 2379 2382 2385 2388 2391 2394 2397 2400 </DataArray>
<DataArray  type="UInt8"  Name="types"  format="ascii">5 5 5 5 5 5 5 5 5 5 5 5 5 5 5 5 5 5 5 5 5 5 5 5 5 5 5 5 5 5 5 5 5 5 5 5 5 5 5 5 5 5 5 5 5 5 5 5 5 5 5 5 5 5 5 5 5 5 5 5 5 5 5 5 5 5 5 5 5 5 5 5 5 5 5 5 5 5 5 5 5 5 5 5 5 5 5 5 5 5 5 5 5 5 5 5 5 5 5 5 5 5 5 5 5 5 5 5 5 5 5 5 5 5 5 5 5 5 5 5 5 5 5 5 5 5 5 5 5 5 5 5 5 5 5 5 5 5 5 5 5 5 5 5 5 5 5 5 5 5 5 5 5 5 5 5 5 5 5 5 5 5 5 5 5 5 5 5 5 5 5 5 5 5 5 5 5 5 5 5 5 5 5 5 5 5 5 5 5 5 5 5 5 5 5 5 5 5 5 5 5 5 5 5 5 5 5 5 5 5 5 5 5 5 5 5 5 5 5 5 5 5 5 5 5 5 5 5 5 5 5 5 5 5 5 5 5 5 5 5 5 5 5 5 5 5 5 5 5 5 5 5 5 5 5 5 5 5 5 5 5 5 5 5 5 5 5 5 5 5 5 5 5 5 5 5 5 5 5 5 5 5 5 5 5 5 5 5 5 5 5 5 5 5 5 5 5 5 5 5 5 5 5 5 5 5 5 5 5 5 5 5 5 5 5 5 5 5 5 5 5 5 5 5 5 5 5 5 5 5 5 5 5 5 5 5 5 5 5 5 5 5 5 5 5 5 5 5 5 5 5 5 5 5 5 5 5 5 5 5 5 5 5 5 5 5 5 5 5 5 5 5 5 5 5 5 5 5 5 5 5 5 5 5 5 5 5 5 5 5 5 5 5 5 5 5 5 5 5 5 5 5 5 5 5 5 5 5 5 5 5 5 5 5 5 5 5 5 5 5 5 5 5 5 5 5 5 5 5 5 5 5 5 5 5 5 5 5 5 5 5 5 5 5 5 5 5 5 5 5 5 5 5 5 5 5 5 5 5 5 5 5 5 5 5 5 5 5 5 5 5 5 5 5 5 5 5 5 5 5 5 5 5 5 5 5 5 5 5 5 5 5 5 5 5 5 5 5 5 5 5 5 5 5 5 5 5 5 5 5 5 5 5 5 5 5 5 5 5 5 5 5 5 5 5 5 5 5 5 5 5 5 5 5 5 5 5 5 5 5 5 5 5 5 5 5 5 5 5 5 5 5 5 5 5 5 5 5 5 5 5 5 5 5 5 5 5 5 5 5 5 5 5 5 5 5 5 5 5 5 5 5 5 5 5 5 5 5 5 5 5 5 5 5 5 5 5 5 5 5 5 5 5 5 5 5 5 5 5 5 5 5 5 5 5 5 5 5 5 5 5 5 5 5 5 5 5 5 5 5 5 5 5 5 5 5 5 5 5 5 5 5 5 5 5 5 5 5 5 5 5 5 5 5 5 5 5 5 5 5 5 5 5 5 5 5 5 5 5 5 5 5 5 5 5 5 5 5 5 5 5 5 5 5 5 5 5 5 5 5 5 5 5 5 5 5 5 5 5 5 5 5 5 5 5 5 5 5 5 5 5 5 5 5 5 5 5 5 5 5 5 5 5 5 5 5 5 5 5 5 5 5 5 5 5 5 5 5 5 5 5 5 5 5 5 5 5 5 5 5 5 5 5 5 5 5 5 5 5 5 5 5 5 5 5 5 5 5 5 5 5 5 5 5 5 5 5 5 5 5 5 5 5 5 5 5 5 5 5 5 5 5 5 5 5 5 5 5 5 5 </DataArray>
</Cells>
<PointData  Scalars="mean stress"> 
<DataArray  type="Float64"  Name="mean stress"  format="ascii">5.3436164427715885e+06  5.3436164427712606e+06  5.3436164427722516e+06  5.3436164427726641e+06  5.3436164427705202e+06  5.3436164427728625e+06  5.3436164427727638e+06  5.3436164427708713e+06  5.3436164427716415e+06  5.3436164427719461e+06  5.3436164427717095e+06  5.3436164418661343e+06  5.3436164418657720e+06  5.3436164418660877e+06  5.3436164418656193e+06  5.3436164418665487e+06  5.3436164418658121e+06  5.3436164418648621e+06  5.3436164418664146e+06  5.3436164418655569e+06  5.3436164418658884e+06  5.3436164418663522e+06  5.3436164378248965e+06  5.3436164378259694e+06  5.3436164378249636e+06  5.3436164378251648e+06  5.3436164378257701e+06  5.3436164378249040e+06  5.3436164378249068e+06  5.3436164378256164e+06  5.3436164378249422e+06  5.3436164378249524e+06  5.3436164378246916e+06  5.3436164247646481e+06  5.3436164247643612e+06  5.3436164247629046e+06  5.3436164247627268e+06  5.3436164247632204e+06  5.3436164247635035e+06  5.3436164247625861e+06  5.3436164247637838e+06  5.3436164247647850e+06  5.3436164247630509e+06  5.3436164247644190e+06  5.3436163836492971e+06  5.3436163836494703e+06  5.3436163836519560e+06  5.3436163836538680e+06  5.3436163836537516e+06  5.3436163836522093e+06  5.3436163836528445e+06  5.3436163836514922e+06  5.3436163836507555e+06  5.3436163836524766e+06  5.3436163836511374e+06  5.3436162545912098e+06  5.3436162545913644e+06  5.3436162545930725e+06  5.3436162545914175e+06  5.3436162545885192e+06  5.3436162545914147e+06  5.3436162545921002e+06  5.3436162545916364e+06  5.3436162545917258e+06  5.3436162545905560e+06  5.3436162545890855e+06  5.3436158495520568e+06  5.3436158495538887e+06  5.3436158495555921e+06  5.3436158495537564e+06  5.3436158495541504e+06  5.3436158495552326e+06  5.3436158495517280e+06  5.3436158495539613e+06  5.3436158495505424e+06  5.3436158495550789e+06  5.3436158495487599e+06  5.3436145784232756e+06  5.3436145784077309e+06  5.3436145784226209e+06  5.3436145784083121e+06  5.3436145784191703e+06  5.3436145784087246e+06  5.3436145784193184e+06  5.3436145784083856e+06  5.3436145784188891e+06  5.3436145784057910e+06  5.3436145784249306e+06  5.3436105891688820e+06  5.3436105892546028e+06  5.3436105891664755e+06  5.3436105892472425e+06  5.3436105891864924e+06  5.3436105892368229e+06  5.3436105891829859e+06  5.3436105892413473e+06  5.3436105891731884e+06  5.3436105892591691e+06  5.3436105891637765e+06  5.3435980702652382e+06  5.3435980696363673e+06  5.3435980701588495e+06  5.3435980697335433e+06  5.3435980700533809e+06  5.3435980697950153e+06  5.3435980700557800e+06  5.3435980697412370e+06  5.3435980701623615e+06  5.3435980696374308e+06  5.3435980702676876e+06  5.3435587792353462e+06  5.3435587824851265e+06  5.3435587792887576e+06  5.3435587817418398e+06  5.3435587799666943e+06  5.3435587813284444e+06  5.3435587799666692e+06  5.3435587817447605e+06  5.3435587792842006e+06  5.3435587824851824e+06  5.3435587792385221e+06  5.3434354950457886e+06  5.3434354693563115e+06  5.3434354881180925e+06  5.3434354737606114e+06  5.3434354834918305e+06  5.3434354764795573e+06  5.3434354834901579e+06  5.3434354737551818e+06  5.3434354881163882e+06  5.3434354693564912e+06  5.3434354950421061e+06  5.3430484928405387e+06  5.3430485930060418e+06  5.3430484751502993e+06  5.3430485574721089e+06  5.3430485048296442e+06  5.3430485396249928e+06  5.3430485048360378e+06  5.3430485574771268e+06  5.3430484751486741e+06  5.3430485930074835e+06  5.3430484928382104e+06  5.3418349711949471e+06  5.3418337817437574e+06  5.3418344482705574e+06  5.3418339665041184e+06  5.3418342430622587e+06  5.3418340790842976e+06  5.3418342430596864e+06  5.3418339664990678e+06  5.3418344482750734e+06  5.3418337817448052e+06  5.3418349711898910e+06  5.3380240942058815e+06  5.3380258817954427e+06  5.3380213793594651e+06  5.3380240516865384e+06  5.3380226279186448e+06  5.3380233377578417e+06  5.3380226279156888e+06  5.3380240516903335e+06  5.3380213793567372e+06  5.3380258817876847e+06  5.3380240942113474e+06  5.3261178152976828e+06  5.3260507714628996e+06  5.3260736239960277e+06  5.3260578957212130e+06  5.3260646323024686e+06  5.3260619312044568e+06  5.3260646323081041e+06  5.3260578957138248e+06  5.3260736239921274e+06  5.3260507714620531e+06  5.3261178153105481e+06  5.2887841182268253e+06  5.2886597569885943e+06  5.2884748123559384e+06  5.2885524165785601e+06  5.2885222973230463e+06  5.2885299916776521e+06  5.2885222973182565e+06  5.2885524165765541e+06  5.2884748123546410e+06  5.2886597569843056e+06  5.2887841182154454e+06  5.1752303086101199e+06  5.1704573813306196e+06  5.1711280702878674e+06  5.1706631982792439e+06  5.1707438224582858e+06  5.1707290392750390e+06  5.1707438224576516e+06  5.1706631982831191e+06  5.1711280702808732e+06  5.1704573813501680e+06  5.1752303086111415e+06  4.8335119500852767e+06  4.8095322304778695e+06  4.8002492430561734e+06  4.8011554275467042e+06  4.8010415917196507e+06  4.8010602821908379e+06  4.8010415917171659e+06  4.8011554275577618e+06  4.8002492430597274e+06  4.8095322304666163e+06  4.8335119500830788e+06  4.0902602621367658e+06  3.6373541119178385e+06  3.6413434940269156e+06  3.6408313439070932e+06  3.6409148931667469e+06  3.6408983069342938e+06  3.6409148931657206e+06  3.6408313439006396e+06  3.6413434940262735e+06  3.6373541119216555e+06  4.0902602621468669e+06  1.5135227633214146e+07  1.4720709069605276e+07  1.4725605261361662e+07  1.4725616737414837e+07  1.4725565168564651e+07  1.4725579389681276e+07  1.4725565168562701e+07  1.4725616737415044e+07  1.4725605261350308e+07  1.4720709069595307e+07  1.5135227633189570e+07  5.3436164471541392e+06  5.3436164471539659e+06  5.3436164471535906e+06  5.3436164471539417e+06  5.3436164471538104e+06  5.3436164471536772e+06  5.3436164471536735e+06  5.3436164471539948e+06  5.3436164471538877e+06  5.3436164471535208e+06  5.3436164517240925e+06  5.3436164517246215e+06  5.3436164517244054e+06  5.3436164517246922e+06  5.3436164517248310e+06  5.3436164517251616e+06  5.3436164517253758e+06  5.3436164517243495e+06  5.3436164517246662e+06  5.3436164517247723e+06  5.3436164675253183e+06  5.3436164675257029e+06  5.3436164675254570e+06  5.3436164675262813e+06  5.3436164675256209e+06  5.3436164675252149e+06  5.3436164675246757e+06  5.3436164675255232e+06  5.3436164675253890e+06  5.3436164675249700e+06  5.3436165175773781e+06  5.3436165175770475e+06  5.3436165175769832e+06  5.3436165175764943e+06  5.3436165175769404e+06  5.3436165175776938e+06  5.3436165175777469e+06  5.3436165175760640e+06  5.3436165175753618e+06  5.3436165175758628e+06  5.3436166748004369e+06  5.3436166747989124e+06  5.3436166747994944e+06  5.3436166747987997e+06  5.3436166747969184e+06  5.3436166747972211e+06  5.3436166747979000e+06  5.3436166747994535e+06  5.3436166748000449e+06  5.3436166748012109e+06  5.3436171682612468e+06  5.3436171682625785e+06  5.3436171682612821e+06  5.3436171682630498e+06  5.3436171682638191e+06  5.3436171682628803e+06  5.3436171682617860e+06  5.3436171682601292e+06  5.3436171682604905e+06  5.3436171682595657e+06  5.3436187168984283e+06  5.3436187168977661e+06  5.3436187168990551e+06  5.3436187169005778e+06  5.3436187169004856e+06  5.3436187168999398e+06  5.3436187169013526e+06  5.3436187169005778e+06  5.3436187169018816e+06  5.3436187169007901e+06  5.3436235769901844e+06  5.3436235769902011e+06  5.3436235769936666e+06  5.3436235769890202e+06  5.3436235769904377e+06  5.3436235769918272e+06  5.3436235769897690e+06  5.3436235769925965e+06  5.3436235769897075e+06  5.3436235769907255e+06  5.3436388293745350e+06  5.3436388293901812e+06  5.3436388293655422e+06  5.3436388293886594e+06  5.3436388293752959e+06  5.3436388293751217e+06  5.3436388293888383e+06  5.3436388293682421e+06  5.3436388293868834e+06  5.3436388293734053e+06  5.3436866958453171e+06  5.3436866957882578e+06  5.3436866959474394e+06  5.3436866958024679e+06  5.3436866958897440e+06  5.3436866958896825e+06  5.3436866958009703e+06  5.3436866959447367e+06  5.3436866957866969e+06  5.3436866958415788e+06  5.3438369142923187e+06  5.3438369152813023e+06  5.3438369143630760e+06  5.3438369153519934e+06  5.3438369147771597e+06  5.3438369147771141e+06  5.3438369153529648e+06  5.3438369143697945e+06  5.3438369152857345e+06  5.3438369142918522e+06  5.3443083431735747e+06  5.3443083422016958e+06  5.3443083499766672e+06  5.3443083437114209e+06  5.3443083474933263e+06  5.3443083474930553e+06  5.3443083437106451e+06  5.3443083499691449e+06  5.3443083422013605e+06  5.3443083431800315e+06  5.3457877832542006e+06  5.3457878480541054e+06  5.3457878106299080e+06  5.3457878545093089e+06  5.3457878308258820e+06  5.3457878308244934e+06  5.3457878545075674e+06  5.3457878106272127e+06  5.3457878480531853e+06  5.3457877832523640e+06  5.3504305305528166e+06  5.3504306495941887e+06  5.3504310596498745e+06  5.3504307988166334e+06  5.3504309491559966e+06  5.3504309491576813e+06  5.3504307988193789e+06  5.3504310596553795e+06  5.3504306495899046e+06  5.3504305305498997e+06  5.3649974003975857e+06  5.3650022771745808e+06  5.3650009429431185e+06  5.3650028786515389e+06  5.3650020482528703e+06  5.3650020482532363e+06  5.3650028786495775e+06  5.3650009429409308e+06  5.3650022771789152e+06  5.3649974004010027e+06  5.4106901945898365e+06  5.4107121454539914e+06  5.4107370557545563e+06  5.4107274323277799e+06  5.4107320296072541e+06  5.4107320296061635e+06  5.4107274323275751e+06  5.4107370557563296e+06  5.4107121454495750e+06  5.4106901945854258e+06  5.5537671105427947e+06  5.5541937761347648e+06  5.5541684461293491e+06  5.5542526117162108e+06  5.5542417569716265e+06  5.5542417569730114e+06  5.5542526117183194e+06  5.5541684461333947e+06  5.5541937761372589e+06  5.5537671105447719e+06  5.9995077622065553e+06  6.0027011412089290e+06  6.0047192162863296e+06  6.0046170626506303e+06  6.0046243876380026e+06  6.0046243876345623e+06  6.0046170626455862e+06  6.0047192162863072e+06  6.0027011412097570e+06  5.9995077622065237e+06  7.3682271947410787e+06  7.4169333193335813e+06  7.4181361255022008e+06  7.4180450213399632e+06  7.4180520652241316e+06  7.4180520652259076e+06  7.4180450213439092e+06  7.4181361254997812e+06  7.4169333193356423e+06  7.3682271947385957e+06  4.4645417125396505e+06  4.4930729867957290e+06  4.4909053893197645e+06  4.4910222423500624e+06  4.4910148352409787e+06  4.4910148352385508e+06  4.4910222423489699e+06  4.4909053893159935e+06  4.4930729867902482e+06  4.4645417125309464e+06  </DataArray> 
</PointData> 
</Piece>
</UnstructuredGrid>
</VTKFile>